sxx,syy,szz,sxy,sxz,syz,smises
-5.238888620639384208e-02,-1.867961873040985821e-01,-2.383177512315011459e-02,-1.833369973250923270e-03,1.662269440719138991e-03,2.692146597023989049e-02,1.578346788883209229e-01
-5.323354659831131680e-02,-1.715804027313947433e-01,-2.914236154956797303e-02,4.874279919918119569e-03,2.839828433349319507e-03,1.710001240683815121e-02,1.356841176748275757e-01
-4.885252491318633344e-02,-1.532014112246038728e-01,-2.234460735114969510e-02,1.753354043616669024e-03,5.633076107516481711e-03,2.559641559671110150e-02,1.281693279743194580e-01
-5.167105760752604970e-02,-1.630323406957440990e-01,-3.504782973002555646e-02,2.942625263667182200e-03,-5.371232792354026231e-03,3.302679950084796978e-02,1.338420212268829346e-01
-5.481780109455509226e-02,-1.892752794718170484e-01,-2.521850391287359938e-02,-5.524934498188115335e-03,-2.722934814473095076e-03,2.484945476390506419e-02,1.578007638454437256e-01
-3.000517356431188498e-02,-1.997338224421446873e-01,-4.837938160255764175e-02,6.861425623602293924e-03,6.179268160194216312e-03,2.106099662801482267e-03,1.621600836515426636e-01
-2.411377336856680015e-02,-1.443418274321182082e-01,-4.754731113819141153e-02,2.316866245088535642e-02,7.250520079962585913e-03,6.561817838657806566e-03,1.186751425266265869e-01
-2.966511687253181595e-02,-1.798390160971906349e-01,-4.460085725164966708e-02,2.751748039076963581e-02,7.930751605972324175e-03,2.222938540394359119e-02,1.564451307058334351e-01
-2.877311302355430728e-02,-1.930381351925167799e-01,-4.768567337688470881e-02,8.525263574019777829e-03,5.225523682225135906e-03,1.072159165798185123e-03,1.566442400217056274e-01
-2.980746792820609947e-02,-1.815143712414508947e-01,-4.654478099369140781e-02,1.661178518092379375e-02,7.852330241774676048e-03,2.874155353469779253e-03,1.476264595985412598e-01
-3.215788011901514476e-02,-1.910360270404313776e-01,-4.699921408229497388e-02,1.857887890988272478e-02,6.897465945918974418e-03,4.020666749024176881e-03,1.559849828481674194e-01
-3.319009044836122857e-02,-2.012917008239391015e-01,-5.260559958390810531e-02,2.751314422987264502e-02,1.077631120656871895e-02,1.521023824516662057e-02,1.693655699491500854e-01
-3.296642261395530543e-02,-1.990894785957770807e-01,-4.806117149382328757e-02,2.760811021761283568e-02,6.524399226106465319e-03,1.079221240322562198e-02,1.675734966993331909e-01
-2.726593271597847756e-02,-1.993007070212237108e-01,-5.222411393262479939e-02,2.183413340761633167e-02,2.079320453956274434e-03,1.980550543415214929e-03,1.654694080352783203e-01
-2.887027837817379011e-02,-1.936840740967561980e-01,-4.802444569390031115e-02,9.711473548733001726e-03,5.012137793207514271e-03,1.606971385921458859e-03,1.572884172201156616e-01
-4.029263615531326892e-02,-2.115810741613837753e-01,-4.508237808442605576e-02,-4.816813343617311447e-04,1.305119142352085182e-03,-7.323171795064403267e-04,1.689664423465728760e-01
-3.436510244312819540e-02,-2.098229775556677557e-01,-4.354352780895581060e-02,9.176928930788800631e-04,3.892218914456051053e-03,2.026694107441669168e-04,1.711939871311187744e-01
-3.653764301095795142e-02,-1.959563376789201783e-01,-4.806516416667445946e-02,-1.006512433348161206e-02,6.515873538144366026e-03,-5.334480221396793211e-03,1.556475609540939331e-01
-3.401133220454534423e-02,-2.059225991075209206e-01,-4.367346818650548468e-02,-6.805265050843445351e-03,4.784153608514947822e-03,-1.478571843137170029e-03,1.679284572601318359e-01
-3.619798183661337987e-02,-2.031006980472754575e-01,-4.923756093628937902e-02,-4.094333285741668521e-03,6.442680578375230629e-03,-7.058027754257347255e-03,1.617852598428726196e-01
-3.512440559992931199e-02,-2.003393127956383246e-01,-4.290619664644338555e-02,-3.826189436920209887e-03,4.935266999446153227e-03,-1.222034129248303347e-03,1.618404239416122437e-01
-3.615627588017680111e-02,-1.940293862524516411e-01,-4.078070705123958140e-02,-8.643375331344587201e-03,7.356943682827782501e-03,-3.466752029337123904e-03,1.569642722606658936e-01
-3.716095908852157931e-02,-1.952421241677444463e-01,-4.238764864151578493e-02,-9.188819653880443694e-03,6.606476972668967954e-03,-4.313624796608487785e-03,1.569420099258422852e-01
-5.451259986823257797e-02,-1.838633422270024576e-01,-3.145263863010800548e-02,-6.431474529803473186e-03,-1.805096257442743730e-03,-8.777364411960694029e-03,1.435659825801849365e-01
-4.757555370823735030e-02,-2.047495962259197888e-01,-2.873810428296515174e-02,-3.359778605748754872e-03,2.317758505819265437e-03,-9.864211348168084106e-03,1.684077680110931396e-01
-5.127701709098464455e-02,-2.072268018402948220e-01,-3.817722955979520327e-02,-3.177347816617983375e-03,6.029410825583694962e-03,-9.978994801892987487e-03,1.642343997955322266e-01
-4.870227987675413567e-02,-1.958374731084388531e-01,-3.326005889471398552e-02,-8.262095373098521378e-03,1.376874957519653021e-05,-3.051696544842722250e-02,1.647967398166656494e-01
-5.504839335493645625e-02,-1.740237519976968183e-01,-3.452717188776206064e-02,-7.734840658869737836e-04,1.664425472032697627e-03,1.034980430319469309e-03,1.305032372474670410e-01
-4.962881582291289728e-02,-1.663543697079973849e-01,-3.373089739999381165e-02,-1.283722392306262290e-02,3.472030053625895039e-03,-2.907286783705452168e-02,1.371113955974578857e-01
-5.128575944715073331e-02,-1.984584663169468854e-01,-2.520997786124100359e-02,3.373997219387988894e-04,-7.949872300516567982e-04,3.296709883267902493e-03,1.619019359350204468e-01
-4.867232805453984568e-02,-1.883902319279801008e-01,-3.327535152366680599e-02,-1.327988288486811781e-02,5.234843895845628023e-03,-3.410718450965373461e-02,1.612779200077056885e-01
-4.776536707456565528e-02,-1.624001536525127576e-01,-2.818142607737305488e-02,5.384112715041237951e-04,-2.439407661588679013e-03,-3.180071350264240121e-02,1.371941864490509033e-01
-4.943579289888794942e-02,-2.167467988261009837e-01,-5.084128026199475486e-02,-2.656199913807115627e-03,3.328467867278415634e-03,2.239562119190995732e-04,1.667763441801071167e-01
-5.221745169829559302e-02,-2.127890466849450823e-01,-4.677084110908014125e-02,-1.950769325669488323e-03,2.557106106260679905e-03,1.769137896586366401e-03,1.634866893291473389e-01
-4.953274541408494991e-02,-2.120575051122908783e-01,-5.065443647966239027e-02,-2.802476718174657690e-04,1.739131570084550193e-03,1.419113378594239134e-04,1.619957536458969116e-01
-4.765124868205380254e-02,-2.129521690879556950e-01,-5.032689967990019303e-02,-1.235658495991087116e-03,1.012463192818613628e-03,9.932693858930819950e-04,1.640118360519409180e-01
-4.800473400636065535e-02,-2.207603039467337935e-01,-4.836081532342408063e-02,-2.233959581667151282e-03,1.126816552496570298e-03,1.104491154034306936e-04,1.726323217153549194e-01
-3.728564355007193964e-02,-2.104672917741280957e-01,-3.853832775426739576e-02,-3.151805167474925349e-04,-1.926427657528980352e-03,5.349435705113599195e-05,1.725918650627136230e-01
-4.713239352066021792e-02,-2.182541711759628245e-01,-4.585216548821984678e-02,-1.587371066375216052e-03,2.427327790841098132e-04,-1.521961223261174365e-03,1.718082129955291748e-01
-3.943203278830664793e-02,-2.049579059422776961e-01,-3.656688335226083997e-02,-2.517486820262108439e-03,-5.718015703608234079e-03,3.102752163113157817e-03,1.674134433269500732e-01
-4.172357585769958382e-02,-1.927250534849037633e-01,-3.820916825765424685e-02,-4.449995371217608728e-03,-6.808517185349150999e-03,7.416314795169447888e-03,1.539738923311233521e-01
-4.973864663931539670e-02,-2.006779284471216229e-01,-2.416241897027163188e-02,2.463308214745522353e-04,6.134823736542516291e-05,1.399689896303135629e-03,1.652372181415557861e-01
-4.644225344990200038e-02,-2.127313669166390198e-01,-4.351088068388602598e-02,-1.239080845717802689e-03,3.958104041988849980e-06,6.393376373590368804e-04,1.677913814783096313e-01
-4.364774856152999621e-02,-2.091745742039207712e-01,-3.934200952039901972e-02,-5.379455546619953295e-03,-5.534236821516893244e-03,1.742440844582438539e-03,1.682800948619842529e-01
-4.437211923636592142e-02,-2.124291632462462776e-01,-3.868524160763481268e-02,-4.579920514977305068e-03,-8.098644648187144912e-03,9.430828400006526641e-03,1.725043207406997681e-01
-4.753999032295071203e-02,-1.395532388084041175e-01,-5.236951510470717885e-02,1.214350939786505192e-02,3.617024712473294271e-03,1.137928715271561628e-02,9.442187100648880005e-02
-4.416470838435408719e-02,-1.580314680655606208e-01,-5.416741234020843593e-02,1.645645960368772188e-03,5.631678506898509483e-03,8.263573273853606210e-03,1.106112524867057800e-01
-3.446283136776674694e-02,-1.589156790764243987e-01,-5.298835422008607576e-02,1.137734698624791145e-02,4.381704538166566153e-03,4.648480929780500828e-03,1.184774562716484070e-01
-4.727994696302199179e-02,-1.165721430642683160e-01,-5.839333397020862737e-02,1.421774930395805839e-02,3.993182739702078087e-04,3.119736938764171123e-03,6.921672075986862183e-02
-4.512210785462686391e-02,-1.424089891064303504e-01,-6.081340184918555825e-02,1.810351518566802103e-03,-6.702692372025941848e-04,4.073794908530149490e-04,9.053217619657516479e-02
-4.508768776577240511e-02,-2.126656315810132314e-01,-4.217592716756802390e-02,-9.313553286796586068e-04,5.397641252035458590e-05,-7.969204755703656468e-05,1.690604090690612793e-01
-3.550648842338244987e-02,-1.251057749045910161e-01,-5.344155675323322002e-02,1.709558718414928846e-02,8.850799798945471102e-04,1.754204571106420874e-04,8.730377256870269775e-02
-4.496098492530959528e-02,-1.193343924532297984e-01,-5.481408099920405397e-02,1.631358525559125847e-02,-2.126848572971287363e-03,1.378090042523860085e-03,7.558667659759521484e-02
-4.508377778791729240e-02,-1.422608482376682970e-01,-5.815002679214180403e-02,2.146104236949172329e-03,-1.629452482242364515e-03,1.227008635491096296e-03,9.149136394262313843e-02
-3.309831703598373198e-02,-1.970711710060515376e-01,-4.504255890061822920e-02,-1.082402601159451055e-02,-3.455806672999474360e-03,-5.076691064373709417e-04,1.595597416162490845e-01
-3.430654331171834048e-02,-1.922016824572072569e-01,-4.859827286977477789e-02,-1.251349412942612607e-02,-1.371744330077165298e-03,4.177661297509115482e-03,1.529911756515502930e-01
-3.384746151703996869e-02,-1.984306997467862599e-01,-4.019521805225042405e-02,-8.471058175600173351e-03,-5.549163414611132938e-03,9.496657007978345777e-03,1.632832437753677368e-01
-3.375146462273218712e-02,-1.867837425934992801e-01,-4.745533659958998951e-02,-2.957951791341077372e-02,-5.870844221598707328e-03,5.127323433769931035e-03,1.559379696846008301e-01
-3.224856673088201398e-02,-1.667258175912739726e-01,-4.473047711154536088e-02,-2.740371876377836052e-02,-8.630178155054025677e-03,1.591010096382507177e-02,1.407022476196289062e-01
-3.721045239804755822e-02,-2.010094014239530436e-01,-5.379648113082041716e-02,-1.115509211843248964e-02,-8.075634705699087645e-03,5.942886476490817432e-05,1.579790562391281128e-01
-5.002389849620415829e-02,-2.129083765072481427e-01,-4.709190306208150406e-02,6.716937263265277932e-04,-4.239394928740251433e-04,8.101012008653877194e-04,1.643818318843841553e-01
-3.551963945506423498e-02,-1.929206083594125765e-01,-4.352188738397524959e-02,2.607212660887338589e-03,-6.483363175320459339e-03,-1.783470692204023374e-03,1.540635526180267334e-01
-2.575199568792189975e-02,-1.570086847745456593e-01,-4.306421165932949879e-02,1.903214453211440546e-02,-3.365676588083608457e-03,5.363040989226214306e-04,1.279734373092651367e-01
-3.915805386069980826e-02,-2.024011831922586935e-01,-4.317545898278250111e-02,1.041781084689896893e-02,-9.406004632080366273e-03,-8.291066095689698934e-03,1.637250185012817383e-01
-2.796880064586870773e-02,-1.904272493740221117e-01,-4.385365300004927247e-02,6.686150554279191201e-03,-4.161420593920327725e-03,-2.246267742492329481e-03,1.557743549346923828e-01
-4.969082453337552580e-02,-2.113928370521528932e-01,-4.882412934304198454e-02,-4.270407129195873011e-04,-1.284072680068881235e-03,-4.595495899355415666e-04,1.621559858322143555e-01
-3.467000853386954101e-02,-1.934644810278822735e-01,-4.621498421410095980e-02,7.074781606338912711e-03,-5.039449065976513847e-03,-4.714374778604407852e-03,1.543007344007492065e-01
-3.456410417935155271e-02,-2.032743396480190534e-01,-4.508870528822341017e-02,3.657911425338734954e-03,-6.500124198378962916e-03,-5.893232027844974574e-03,1.645277738571166992e-01
-3.547038449834472723e-02,-1.844729737992812091e-01,-4.559522104398125442e-02,8.788171524868715334e-03,-6.547138038319626208e-03,-5.491659922953566302e-03,1.457615345716476440e-01
-3.438433984197186710e-02,-2.125980904253014225e-01,-4.315141188230015024e-02,-4.296143548203012874e-07,-1.622208149286362118e-03,3.806122264691594597e-04,1.740198880434036255e-01
-3.351096930839786436e-02,-2.050481110523128259e-01,-4.381301007277542403e-02,-6.716570384925322351e-03,-6.072404961811540998e-03,2.785297931923145370e-03,1.674311012029647827e-01
-3.491235437171925915e-02,-2.076074561217693681e-01,-4.575904436539850878e-02,-1.676240942022470511e-03,-4.497476680363214803e-03,5.664495020565594226e-04,1.677443087100982666e-01
-3.650367866693025876e-02,-2.120115968069953283e-01,-4.515040464392115066e-02,-3.523163094152083428e-03,-4.637765508831253464e-03,1.164660828774204300e-03,1.716568022966384888e-01
-3.197053524234894778e-02,-2.033374614981109940e-01,-4.043085059051512720e-02,-3.393754201631360174e-03,-2.827058343736791549e-03,3.714436060799475477e-03,1.675956547260284424e-01
-3.267179022837427005e-02,-1.875349186361288112e-01,-4.081631936570960517e-02,-1.346486405079347359e-02,-6.140397994029592708e-03,3.356180013306277795e-03,1.532267779111862183e-01
-4.532678256098389424e-02,-1.566887313501043044e-01,-3.244640357064781933e-02,-2.516305209446480576e-02,-6.157819925920508808e-03,3.646697486665910481e-02,1.414375752210617065e-01
-4.650200229213687780e-02,-2.115806956239582037e-01,-4.713761812759140885e-02,6.436305763776973762e-04,1.630376833332161066e-05,2.250279354411102457e-04,1.647660434246063232e-01
-3.249125615315812121e-02,-9.170926910892829298e-02,-3.025701286354495062e-02,-5.904165418864050496e-03,1.076603370935993488e-03,3.911933381367042883e-02,9.134054183959960938e-02
-4.689778738456602120e-02,-1.879185639355666071e-01,-3.675373483495239513e-02,-9.248244543407968879e-03,-8.745436495200993587e-03,1.558295023953029657e-02,1.504486799240112305e-01
-5.102689270943377292e-02,-1.874109065288739884e-01,-2.229870466067931933e-02,-2.295468100744453305e-03,-6.285800477039158796e-05,2.629339063711583213e-02,1.594798415899276733e-01
-4.775718415276900691e-02,-1.955141848317845654e-01,-3.536030912542772325e-02,-9.207298674492957191e-03,-8.079156656789664853e-03,1.391042151775017180e-02,1.576330512762069702e-01
-4.842901062907348925e-02,-1.882317862157812938e-01,-2.740740028418901797e-02,-7.176319936008429198e-04,-3.553649359936206144e-03,2.063654343724325574e-02,1.557004600763320923e-01
-3.203040682502601710e-02,-2.121638691526754883e-01,-4.352485532677952129e-02,-1.438342989388870317e-03,-1.418516245849075130e-03,-6.003618961969817451e-04,1.747082620859146118e-01
-4.629185473659432060e-02,-2.110586347096474191e-01,-3.615160957628832383e-02,-1.239835376560224738e-03,3.082880211468096154e-03,-2.668672189131709831e-03,1.702239215373992920e-01
-4.639218154018077966e-02,-2.082194952598868942e-01,-2.906488755716693517e-02,-8.781584974430720622e-04,2.172984433468495673e-03,-1.802962944788957756e-03,1.712266802787780762e-01
-4.587067503668222634e-02,-1.984160031280859382e-01,-3.112865081862693784e-02,-4.992714072303047756e-03,2.982565475953033451e-03,-5.073634257968552379e-03,1.609811335802078247e-01
-3.034771744631759027e-02,-1.981011414075829202e-01,-5.366577836557472059e-02,1.383644462908741740e-02,4.376900145494065988e-03,1.359030162842123253e-02,1.611184626817703247e-01
-3.182419027725687938e-02,-1.913794155986335288e-01,-4.590831871552757126e-02,1.245959525497581342e-02,8.314987679977851182e-03,1.172018928254041359e-02,1.565064489841461182e-01
-2.880313756453335705e-02,-2.111024643305207393e-01,-4.674971164454726907e-02,-2.283938234817963799e-03,-1.977220304124660370e-03,-4.595112611046655161e-04,1.741019487380981445e-01
-3.966076178629430321e-02,-2.116569862180887052e-01,-3.602747294054500782e-02,-7.704733710342171111e-05,-1.591412228539169308e-03,3.564605473930251801e-04,1.738643497228622437e-01
-4.159659636763528984e-02,-2.236956937539726353e-01,-4.085062828772486471e-02,9.494028257250309438e-03,7.982753399056477517e-03,1.160240226611647905e-02,1.848293989896774292e-01
-3.490356867808611790e-02,-2.001450837747016376e-01,-3.730669971977986638e-02,1.079439856662834513e-02,7.733170397799016098e-03,1.255772526312859752e-02,1.670792847871780396e-01
-3.514000316418605663e-02,-2.023963442004303726e-01,-3.550996688281930075e-02,7.686616228567195834e-03,7.795863110261426823e-03,5.583012192875625238e-03,1.684221774339675903e-01
-3.737414381901884436e-02,-2.100011852078320362e-01,-3.695022447237244351e-02,5.414834586288145082e-03,7.664263332583795725e-03,4.623805314051021229e-03,1.737865805625915527e-01
-3.678144192544575974e-02,-1.707132691228705756e-01,-5.681218218458171376e-02,-1.269625757175568909e-03,3.113352146123649425e-03,3.161053546279370520e-04,1.252614259719848633e-01
-2.497719015715865742e-02,-2.004689439355371028e-01,-4.772443240511593798e-02,1.298173611899748007e-03,1.413024388755919954e-03,2.116911218431705795e-04,1.653300374746322632e-01
-3.948694282341026762e-02,-2.108744113286503130e-01,-4.146361162220585372e-02,1.131534828191814836e-03,3.144529007969245997e-03,2.360871493711596408e-03,1.705550402402877808e-01
-4.436938075145692439e-02,-2.143451538526318645e-01,-4.377840431124355169e-02,1.338123719593443516e-03,1.576466935129348414e-03,9.253989830388682086e-04,1.703172326087951660e-01
-4.191271605638938885e-02,-2.127715338837575243e-01,-3.767113652657664430e-02,3.070635925080735917e-03,7.172908080071151507e-03,4.621018385663290540e-03,1.737300753593444824e-01
-4.074589900284686372e-02,-2.060664779595686169e-01,-3.973790675753609974e-02,2.919230347423740039e-03,4.340280540326649922e-03,4.385068871647080681e-03,1.662477552890777588e-01
-4.252949258548501671e-02,-2.108634894088523282e-01,-3.864387774619815891e-02,1.372526784640146907e-03,3.718398387210886547e-03,4.662903249478942205e-03,1.706396043300628662e-01
-3.521534104061183057e-02,-2.017848086712735467e-01,-3.803751762696530592e-02,7.296053020752482458e-03,7.697472663230187258e-03,5.987251532134352933e-03,1.665180325508117676e-01
-3.301053929811385151e-02,-1.997984782601854303e-01,-4.108093528278593948e-02,9.954716382690680099e-03,8.647967271127370015e-03,9.721837702352102359e-03,1.653556674718856812e-01
-3.391391620119971889e-02,-1.791109302240241341e-01,-3.792619382947146067e-02,2.123974676248545357e-02,1.118581256600987943e-02,1.273748847433171794e-02,1.507686227560043335e-01
-4.116181215803092763e-02,-2.025611461035264349e-01,-3.563576428008793928e-02,3.966900548235776855e-03,6.524500378512891087e-03,6.551605466233011675e-03,1.651540845632553101e-01
-5.513160572527212033e-02,-1.777528478564021630e-01,-2.853227929013233549e-02,-4.412554965996270777e-03,-1.863832876462070184e-03,2.177022215382404258e-02,1.431635320186614990e-01
-5.383783727949224135e-02,-1.899876878375976186e-01,-4.817868968887902004e-02,-1.791870909409039314e-02,-6.169926077518050628e-04,7.400462863520101964e-02,1.916604787111282349e-01
-4.813809684037147207e-02,-2.071412964503049903e-01,-3.522739372846109274e-02,-4.408132523614122049e-03,-8.508534226335750378e-03,1.738227936847103194e-02,1.693619191646575928e-01
-5.803960918327305540e-02,-1.766704664285732584e-01,-3.338889551114772314e-02,-1.406345293454992589e-02,2.742841769932482122e-03,5.210103450300044431e-02,1.623722165822982788e-01
-4.329914759414621450e-02,-1.769118208150453897e-01,-2.438981146862114618e-02,-7.558230991574887286e-03,-6.544237861998584982e-03,2.395995598336025934e-02,1.508593261241912842e-01
-4.888155944088150295e-02,-2.041479255997372677e-01,-3.290644671860176729e-02,-4.842181265959812422e-03,-6.402901259296368136e-03,1.275282188338877284e-02,1.659050434827804565e-01
-4.874543537793148140e-02,-2.072945232553233263e-01,-2.943578943557832728e-02,-5.521106437055649935e-03,-5.489786464960696652e-03,2.023888120616801345e-02,1.731557101011276245e-01
-4.441153350358181123e-02,-1.856390755653604674e-01,-3.496447911510055379e-02,-1.553963245949765634e-02,-7.627768607721250108e-03,1.695647599715307402e-02,1.520861834287643433e-01
-3.921524850801280659e-02,-1.925169973038448057e-01,-3.766912961803971227e-02,-7.480640741768685743e-03,-6.250770206277728516e-03,6.897965401275429377e-03,1.554628014564514160e-01
-4.472592041855503325e-02,-1.969648969083923340e-01,-4.220001650414090949e-02,-1.272366318133053356e-02,-1.356442551308352160e-02,9.941588882495397406e-03,1.578029990196228027e-01
-3.728514549567536057e-02,-2.095356289145558493e-01,-4.423384999932039596e-02,-1.144461555341729983e-02,-7.385095076235990985e-03,2.716968040319500503e-03,1.705880910158157349e-01
-3.576898230315449234e-02,-1.793521163397755191e-01,-4.173295664504018954e-02,-1.709874554194358576e-02,-6.683221322820525126e-03,1.033881332225099550e-02,1.453517526388168335e-01
-4.721545643907755496e-02,-1.828046078634357752e-01,-2.697997917625279823e-02,-3.897698961016602022e-04,1.872167869117419845e-03,2.782914110010787159e-02,1.545055210590362549e-01
-4.958098642112195725e-02,-1.741333256409244856e-01,-2.582733887682520102e-02,-6.842144253781118172e-03,-4.253383089094257483e-03,2.315595641811920777e-02,1.443586051464080811e-01
-4.928792827857375602e-02,-1.673416094954490729e-01,-4.045113289001352197e-02,-2.380634170208191167e-02,-5.441075109786247012e-04,5.797229492150938329e-02,1.638336032629013062e-01
-5.770202874257647496e-02,-1.779606096066834175e-01,-2.909748508895212277e-02,4.413573481077431859e-03,2.714567625425942134e-03,1.700738959607440287e-02,1.402447372674942017e-01
-5.630440366898611937e-02,-2.053317975742919299e-01,-3.032335418886640543e-02,-5.454864821272852049e-03,3.993661943220398400e-03,2.710861104908150396e-02,1.705808043479919434e-01
-4.732175020121841269e-02,-1.607949567406378732e-01,-2.620937336782636073e-02,1.067321364199132639e-03,4.913063561631983607e-03,2.442536109632870503e-02,1.326017230749130249e-01
-4.391548643528015577e-02,-2.043213888837043246e-01,-3.197782967343523047e-02,3.534244321418307088e-03,4.753123616757310745e-03,4.959430802334447927e-03,1.672317832708358765e-01
-4.225802383657883965e-02,-1.928810547707839052e-01,-3.070726891998173252e-02,5.108845526305328191e-03,5.935687274729049660e-03,5.415990064609628278e-03,1.575833857059478760e-01
-4.481692353504986015e-02,-2.046987048761592098e-01,-3.402069852320215720e-02,3.095956561047980178e-03,8.672528513079407614e-03,1.332264447552344161e-02,1.679039448499679565e-01
-4.083004747388973427e-02,-2.104950053700490320e-01,-3.847823855876661425e-02,1.850929735887157489e-03,5.985846547412058787e-03,2.489374490381758131e-03,1.712515950202941895e-01
-3.891616704973009655e-02,-2.007621375783418260e-01,-3.675110313755527297e-02,2.692790560887011343e-03,5.952927378347671120e-03,2.662081018993593326e-03,1.633968800306320190e-01
-4.213075305327004805e-02,-1.870502947649629322e-01,-3.487250246887869248e-02,5.612832589715078743e-03,7.031202429897289059e-03,6.055303162763267001e-03,1.498634219169616699e-01
-4.241456984352667131e-02,-2.112066255481431787e-01,-4.345985625307192263e-02,-2.837094011890789642e-04,1.698278381224681819e-04,-6.224072146609979130e-04,1.682762801647186279e-01
-4.039862920597248747e-02,-2.044228777610173631e-01,-3.497109661094006949e-02,3.635079268875513695e-03,4.327954906778600300e-03,1.529228079390622863e-03,1.671122610569000244e-01
-3.556547287239829325e-02,-2.405544588436028808e-01,-4.577409986857523122e-02,-7.150722262802085630e-03,2.033719865801841484e-03,-6.849111270806510637e-03,2.008446753025054932e-01
-3.693867267619791589e-02,-1.917970759777061218e-01,-3.508836462884980939e-02,9.307739833683171746e-03,8.051582370018508725e-03,7.934160130752668239e-03,1.578427106142044067e-01
-4.519767725361530097e-02,-1.991885062523594541e-01,-3.222509021069779739e-02,1.486124316995524920e-02,7.161417865677951848e-03,2.209873809403174738e-02,1.678112447261810303e-01
-4.561257684416887559e-02,-1.968670893808059652e-01,-3.334994067649831029e-02,1.453078689350642723e-02,9.739453940231580439e-03,2.780731653269044243e-02,1.676926463842391968e-01
-5.046232861822555482e-02,-2.018068737575263727e-01,-2.784833132421124513e-02,3.716507523657102893e-03,7.063580599280413347e-03,1.246708212572270394e-02,1.658206135034561157e-01
-4.568848585069740231e-02,-1.779885023456501125e-01,-2.724402749946873425e-02,9.874697538235176902e-03,6.783490891284434804e-03,2.304090743528872803e-02,1.493550240993499756e-01
-4.698445523601729040e-02,-1.841155244448543782e-01,-3.152335787528431910e-02,6.209029786288948471e-03,8.620765646934688831e-03,9.605669838568217309e-03,1.475790888071060181e-01
-3.953069013599815051e-02,-2.410171853805448960e-01,-4.852272351664113637e-02,-2.578659655647944776e-02,1.939982403624096311e-04,1.177288684036877347e-03,2.021509557962417603e-01
-4.100513491224162810e-02,-1.854199167470676202e-01,-3.233365918435752995e-02,7.492591897111392819e-03,8.536505816937442828e-03,7.871605537133154196e-03,1.508510261774063110e-01
-3.711681032674020442e-02,-1.816335247605062597e-01,-3.676967502446423786e-02,1.221858731395649399e-02,1.072197169982174424e-02,1.853625898787377574e-02,1.508605629205703735e-01
-4.345787995036214796e-02,-1.973315081372573054e-01,-3.326172912791536262e-02,2.943073711564557320e-03,6.739942086153439052e-03,1.324289473108630419e-02,1.613640636205673218e-01
-5.162114503304692653e-02,-2.157035392295431064e-01,-4.730792020491966787e-02,9.280079817443180092e-04,1.851069899848380379e-03,1.001244103604458221e-03,1.663286834955215454e-01
-4.718944655726673570e-02,-2.183999423115709493e-01,-4.591229249862633505e-02,1.697274642613814510e-03,-4.124287870313856491e-04,-2.389961088945069534e-03,1.719291061162948608e-01
-5.192362066706974338e-02,-2.162210016130358126e-01,-4.997825828411198851e-02,7.359415389143714008e-04,4.104987062606644740e-03,4.223416948045316858e-04,1.654380410909652710e-01
-4.681126933409138907e-02,-2.142282952045393984e-01,-4.531433631873819229e-02,1.476382975430133842e-03,-3.103233066102721008e-04,2.068340737777890105e-03,1.682289391756057739e-01
-4.771589099328998884e-02,-2.163018821032739458e-01,-5.246403740393884574e-02,1.475533229329653584e-03,-3.088816986989990476e-03,1.132229288866038732e-03,1.663800179958343506e-01
-4.386067539467353865e-02,-2.222162690783970884e-01,-4.477697946956327169e-02,1.092043821651413635e-04,2.195171769812630409e-03,1.800134951526016292e-03,1.779672503471374512e-01
-4.396281340648638958e-02,-2.189150785082373818e-01,-4.463946347898326700e-02,-9.994821171336227845e-04,1.759681281432524990e-03,7.508014417284399012e-04,1.746549457311630249e-01
-4.443692633744436571e-02,-2.128891049413770831e-01,-4.708804398273549324e-02,-3.241367632010739956e-03,-1.541795695248828228e-04,-6.941215744857846988e-03,1.676684468984603882e-01
-4.539033518496167485e-02,-2.119503286423210509e-01,-4.512062682279733422e-02,2.680015117505325783e-03,-4.879717317792722905e-04,1.964582826977478991e-03,1.667964905500411987e-01
-4.318928562305499735e-02,-2.133948337669115680e-01,-4.042005482692813401e-02,5.320653782318020210e-05,3.510162451430957984e-03,-3.138171202131303811e-03,1.718006134033203125e-01
-4.517315606141029949e-02,-2.236889288306299628e-01,-4.436634151123146352e-02,1.080088852969980986e-03,1.359090670413835421e-04,-9.150695766047049718e-04,1.789374947547912598e-01
-4.508761585186337600e-02,-2.155554839454076888e-01,-4.335569752150374850e-02,1.162174851080352220e-03,8.058984229367434490e-04,1.166617432964630729e-03,1.713698208332061768e-01
-4.397562212264829323e-02,-2.186251806624484040e-01,-4.631881162035399180e-02,3.232335712447857896e-03,2.366048026418923842e-03,-1.209550644766537678e-03,1.736411452293395996e-01
-4.279108604671243848e-02,-2.116890624976980328e-01,-3.938260572531764037e-02,3.354728377365368518e-03,2.745047138891938340e-03,2.147321859682260053e-03,1.708333492279052734e-01
-4.653205378331257830e-02,-2.133877234805702794e-01,-4.488604670039717665e-02,1.331136565334277726e-04,7.233130691854886690e-04,2.927731925181591317e-03,1.677662283182144165e-01
-4.639673829646145942e-02,-2.222511703898022994e-01,-4.232476715525070737e-02,-2.943525797770454546e-05,4.910380138093502558e-03,6.445276863699114615e-03,1.784780025482177734e-01
-4.126980484449137981e-02,-2.110341063876278178e-01,-3.634685858708674305e-02,1.624203733903531975e-03,3.581698725299941113e-03,4.017062593879889773e-03,1.725534796714782715e-01
-5.392129037998159846e-02,-1.310645962624602534e-01,-3.580209121318691373e-02,-5.604211331726894219e-04,-2.415118683344700222e-03,3.256886854216114319e-02,1.042967140674591064e-01
-5.441381143970044909e-02,-1.161222725466176109e-01,-4.818603902540238848e-02,9.273214742347930849e-04,-1.577211249596432736e-03,1.832612891721533896e-02,7.244728505611419678e-02
-4.742993306910986417e-02,-1.458732728471769935e-01,-2.964005643606007490e-02,4.240790127113334973e-03,3.189941181236689675e-03,1.358417297024087401e-02,1.113415211439132690e-01
-5.766254410785663642e-02,-1.765443063309205252e-01,-4.316983007056750254e-02,1.009853900206857460e-02,7.412233032905344958e-03,1.047591159630941945e-02,1.298685073852539062e-01
-5.226167235731657423e-02,-1.700725396731461725e-01,-3.374484284074417278e-02,5.451319701997534364e-03,3.230759994600636807e-03,1.917686281043890287e-02,1.327685117721557617e-01
-3.786364767325606229e-02,-1.984617571827598237e-01,-3.412063730892411079e-02,1.116359526259525295e-02,8.052885793839862846e-03,1.401961186089263275e-02,1.660269796848297119e-01
-3.070092400640591496e-02,-2.005815252572831775e-01,-4.418519436930337663e-02,5.006861464162569095e-03,4.693454883477716881e-03,6.517259974922646158e-03,1.643753200769424438e-01
-2.790087329965675739e-02,-1.941764908775449050e-01,-4.472090819475546541e-02,9.775939533301846243e-03,4.108015078574103404e-03,2.543676412720310975e-03,1.596573740243911743e-01
-3.059424588225520547e-02,-2.027256224177071964e-01,-4.694895247145107475e-02,1.318617526473769321e-02,7.624907856799458851e-03,3.583065299146559815e-03,1.667815595865249634e-01
-3.608755386750966965e-02,-2.094274836612035062e-01,-4.007408240032836466e-02,3.781300022021274587e-03,4.537555207576169335e-03,3.173729597239440762e-03,1.717745065689086914e-01
-3.880654354621852764e-02,-2.119846151932320288e-01,-4.418503443275306752e-02,2.471287261671110957e-03,2.969764860763280268e-03,-1.186224692954887717e-04,1.706838011741638184e-01
-3.541232845728296830e-02,-2.088553329094989808e-01,-4.313855603291484597e-02,6.182891938052184795e-03,5.539941169234901749e-03,7.084993966467819336e-03,1.707614064216613770e-01
-4.549936716692919159e-02,-2.030885575850259750e-01,-3.780023262910540277e-02,1.231647561818715111e-02,-8.917932136149237660e-03,-1.397673855044175885e-02,1.654891371726989746e-01
-4.251403386687734737e-02,-2.105644292406197993e-01,-3.863092071817814110e-02,5.469234144823292149e-03,-8.429873297960702172e-03,-1.087616566373150739e-02,1.719487458467483521e-01
-4.168914144363883301e-02,-2.060168208701571302e-01,-3.788619579282032773e-02,3.131067060470173972e-03,-8.464907718999041542e-03,-1.276141914892945338e-02,1.684515178203582764e-01
-4.075368961011485713e-02,-1.839589267378897719e-01,-3.873258426848059932e-02,7.021172476615674014e-03,-9.989518140790860923e-03,-1.398968046614141453e-02,1.477689146995544434e-01
-4.464926371137648009e-02,-1.834112558442504981e-01,-3.630125204697375041e-02,1.007118043294072049e-02,-1.147761954155957290e-02,-2.166880288347153988e-02,1.503032594919204712e-01
-4.819312370534845763e-02,-1.801467692498352480e-01,-4.435671131901210151e-02,3.720407190424652403e-03,-9.105214276151577663e-03,-6.851558774763209098e-03,1.355130374431610107e-01
-4.409296285961180478e-02,-2.161760611009653776e-01,-4.440133802418477771e-02,2.157626648569407543e-03,6.300128721971940239e-04,2.534984896095556807e-03,1.720292270183563232e-01
-4.240286835630436429e-02,-2.145251581283770803e-01,-4.059109397418227128e-02,5.751684691556410191e-04,3.508259094802061717e-03,1.256790589770469908e-03,1.731584966182708740e-01
-4.370304304586491995e-02,-2.147943651474635285e-01,-4.448741336097493393e-02,6.990881713254150625e-04,6.378718335265612816e-04,4.881511281661817512e-04,1.707104593515396118e-01
-3.954142886661172335e-02,-2.155752586846428898e-01,-4.433962070476098888e-02,-3.598359583894204881e-03,3.262015775825847629e-03,1.125755864479015050e-03,1.738989800214767456e-01
-3.886090979207882518e-02,-2.010087413233302978e-01,-3.867057331258283437e-02,-6.754807867109138657e-04,4.359353209619791850e-03,-3.721642542250371607e-03,1.625507622957229614e-01
-3.775014235987120270e-02,-2.087901194455984155e-01,-4.183708464253874798e-02,-2.525374713272279499e-04,2.989851071248447647e-03,-1.436854629411149064e-03,1.691317558288574219e-01
-4.652786622585302484e-02,-1.984855658171808812e-01,-3.397042174239570111e-02,-5.630462621036131515e-03,-7.020374474622736310e-03,5.692779568758838879e-03,1.596784889698028564e-01
-4.854302126368553738e-02,-1.927337837394578757e-01,-2.769793391072440658e-02,-4.044444097492057300e-03,-3.067457367993946943e-03,1.178829852086727727e-02,1.572429835796356201e-01
-4.944410077625550903e-02,-2.017425186587401553e-01,-2.784684431909827118e-02,4.245070938560317449e-04,-3.880310095648443688e-03,4.136811994144080212e-03,1.644613295793533325e-01
-4.469720232417963290e-02,-1.951828226957981749e-01,-2.975750500386151881e-02,-1.416257326875052826e-03,-3.341244360311857765e-03,4.840443183526556628e-03,1.588304936885833740e-01
-4.931784110988438052e-02,-1.980848820900100171e-01,-3.299502427031963253e-02,-1.769001700010501251e-03,-6.124254742973322604e-03,7.405307244666766743e-03,1.584701538085937500e-01
-4.896899943860621301e-02,-1.941305508733982832e-01,-3.066716017330133048e-02,-4.100692033857992330e-03,-5.126679112428462678e-03,1.563033892546975348e-02,1.578789949417114258e-01
-4.134991368130546546e-02,-1.957905904445659262e-01,-3.136346137497107722e-02,-6.117029119445615247e-03,-4.951116126090559198e-03,2.777135292577373807e-03,1.603212356567382812e-01
-2.765599832310581402e-02,-1.878972727736274440e-01,-4.787174729368864901e-02,2.679760483349008862e-02,4.919781092030970325e-03,1.113747289322697051e-02,1.595168411731719971e-01
-4.615592801178725058e-02,-2.165028374617948836e-01,-5.432829041840159939e-02,1.498296908855619976e-03,-3.062456349676556232e-04,1.875923214489367066e-03,1.664640903472900391e-01
-3.054989094379977066e-02,-2.081450543439364309e-01,-4.710742109985823628e-02,8.356896419245304214e-03,4.106635274550126530e-03,5.268012233087399077e-04,1.706885993480682373e-01
-2.816578429080032753e-02,-1.653919839295229510e-01,-4.574209065403171681e-02,2.798102943861021860e-02,6.969939739059176353e-03,1.158438540476236511e-02,1.400898844003677368e-01
-2.861715153152836338e-02,-1.825986283757609629e-01,-4.412130232222252757e-02,2.482591653955458152e-02,7.214636232665945503e-03,9.075181122701090480e-03,1.543228179216384888e-01
-3.202341786068341883e-02,-2.010140880104537009e-01,-4.689577412478274088e-02,1.272444434256526577e-02,7.937218815707275388e-03,3.967131063911695857e-03,1.642793118953704834e-01
-3.007109599636903496e-02,-2.056421589524381477e-01,-4.802042520870915265e-02,9.031073777018033821e-03,4.675843266252599668e-03,1.577151677218200081e-03,1.682668328285217285e-01
-3.145003743584931510e-02,-2.048060619802656301e-01,-5.332165738752649153e-02,1.683303299170148953e-02,5.555756404277752136e-03,7.956867913665184588e-03,1.669481694698333740e-01
-4.899064998067267918e-02,-2.138006608987312873e-01,-5.086946216075980548e-02,-1.059591217957557655e-04,-2.386082749140563258e-03,-1.498197495496969513e-04,1.639311015605926514e-01
-4.799132437857663025e-02,-2.104249718917220457e-01,-4.976977164349006416e-02,8.243610251599354588e-05,-1.130645089599854013e-03,5.072506208391776988e-04,1.615660935640335083e-01
-4.780720202810807840e-02,-2.175535680131250316e-01,-4.967617363285151827e-02,-5.120346934688461190e-04,-2.216644954594486176e-03,-5.263776675754122322e-04,1.688680797815322876e-01
-4.490079951552702897e-02,-2.127640461473261357e-01,-4.686317252300859632e-02,1.644490092499346912e-03,5.788832074172750673e-04,1.846578251900901375e-03,1.669486761093139648e-01
-4.866962761200997745e-02,-2.129063184469048853e-01,-4.841714382260842858e-02,8.175716965196354888e-04,-1.128171761399142381e-03,4.660374948701110731e-04,1.643827706575393677e-01
-4.569069315583219881e-02,-2.120308071145120543e-01,-4.599188129078855131e-02,-8.449951064011973923e-04,-2.945028372374668894e-04,-6.716044437025147414e-04,1.662010252475738525e-01
-4.588100521366646201e-02,-2.122557778169363307e-01,-4.761217181347360966e-02,-7.292581921822633654e-04,-3.936671299010700950e-04,-1.192009518306933781e-03,1.655350774526596069e-01
-3.408289882259030873e-02,-2.029305505960613820e-01,-3.394728908121333322e-02,-3.117548299663450238e-04,4.383173537059626562e-03,1.321160705864191697e-05,1.690868884325027466e-01
-5.051852329447065887e-02,-2.144495015818241868e-01,-4.949276681511948633e-02,-1.975476909022015094e-03,-2.870385718651317745e-03,-1.382311108735959256e-03,1.645743846893310547e-01
-4.909785851535324042e-02,-2.128286332035360384e-01,-4.787033914639546306e-02,8.236186362349424712e-04,-1.873918191590566570e-03,7.485035480619177612e-04,1.643913239240646362e-01
-4.778862945539626844e-02,-2.134108653248056875e-01,-4.768641563172457826e-02,1.057295484945605137e-03,-1.548548432327254360e-03,1.324539347053640612e-03,1.657210737466812134e-01
-5.428225945828044074e-02,-1.462004761186663226e-01,-3.670221331397946485e-02,-2.858226596722338812e-03,-5.395653940399930057e-03,3.059572293801463352e-02,1.152999773621559143e-01
-4.232757138839314537e-02,-2.236279090526261115e-01,-4.862411715128416023e-02,-1.157382331265989321e-02,3.513864638263681714e-03,2.115355191726665113e-03,1.794999092817306519e-01
-4.429123615267161612e-02,-2.219141657739886475e-01,-4.283277836501882957e-02,-2.067844570896528074e-03,4.204377244956770607e-03,-5.090497425370611381e-03,1.787587404251098633e-01
-3.712647711788391591e-02,-1.759345500697568065e-01,-3.345855965860707742e-02,-1.510169439423884701e-02,7.680009057045720372e-03,-1.978057886606540347e-02,1.477335989475250244e-01
-5.295914259867495755e-02,-2.386825875035941680e-01,-4.384865318878636287e-02,4.629598756426964862e-03,5.795438899742617195e-03,-2.206947251865886209e-02,1.946650296449661255e-01
-4.432789791821294123e-02,-2.166090813547662808e-01,-3.804319200044545962e-02,-2.997985187579252798e-04,5.868200123991729709e-03,-9.550270559748878785e-03,1.765792816877365112e-01
-4.232308546792038634e-02,-2.202231362662896985e-01,-4.223128102242214299e-02,-6.912004954412857144e-03,5.574443997716819858e-03,-8.817367297636152486e-04,1.786159276962280273e-01
-4.092021193163122850e-02,-2.123668862697938864e-01,-3.647089757597712228e-02,-8.245535467191141693e-03,1.042182616812802574e-02,-8.804238814730188517e-03,1.758946627378463745e-01
-3.741290987089780640e-02,-2.118106203255634978e-01,-4.020548432640892039e-02,4.859770235556847050e-04,-5.287219635367744648e-04,-1.337240025368109262e-04,1.730229556560516357e-01
-4.441111000870767711e-02,-2.093001378942389024e-01,-4.616783110247708877e-02,-1.430638501255294352e-03,1.023466977498202393e-03,1.277818298898978277e-03,1.640609502792358398e-01
-4.120504630241988292e-02,-2.081861923361019162e-01,-3.503150830156172985e-02,-1.234149055536557481e-03,7.381103138578752609e-03,-1.028850415757357958e-02,1.715728789567947388e-01
-4.448367375944364127e-02,-2.141415356575742113e-01,-4.018883820807014201e-02,2.517524482118038785e-04,1.606213473041892114e-03,-3.323777100357006541e-03,1.719650030136108398e-01
-3.688642184658647016e-02,-2.125754398996734795e-01,-4.044914443198996401e-02,-2.171269179636743825e-03,-5.247280586769995439e-03,1.690274664959638424e-03,1.742375046014785767e-01
-3.549514767175548924e-02,-2.019969068726196471e-01,-3.851514635346539595e-02,-2.008771955311292653e-03,-3.966889829865792756e-03,2.966799281123947470e-03,1.652720272541046143e-01
-3.766246510077692067e-02,-2.094343561171457813e-01,-4.005658726008337611e-02,-1.620621493950355051e-03,-2.069829310256352754e-03,3.130371488212238497e-04,1.706490516662597656e-01
-3.943065706214972377e-02,-2.147329997464809681e-01,-4.871082529059846816e-02,-2.088720293889370812e-03,-2.503346521603403647e-05,-1.190495380739227654e-03,1.709021329879760742e-01
-4.734288788827987343e-02,-2.145540086595701945e-01,-4.628275101372859163e-02,3.032899524256219958e-03,-8.099875410508752946e-04,2.092759740955282399e-03,1.678709387779235840e-01
-5.940570646972739843e-02,-1.618610595391242191e-01,-3.823967201766921564e-02,-3.245290297724890815e-03,-1.824251258117687638e-03,1.548799297694260398e-02,1.177917122840881348e-01
-4.033798310107383767e-02,-1.396244714751906091e-01,-3.968662988212628973e-02,4.297681572004782846e-02,-3.703369132701417321e-03,4.484132850264253844e-02,1.467559188604354858e-01
-4.360788268629094827e-02,-2.107587265897022943e-01,-4.419361567212772707e-02,-1.777104458585121970e-04,2.022895476927121471e-04,2.324678295037624538e-04,1.668598800897598267e-01
-4.681993536195140637e-02,-2.120785073941028887e-01,-4.586643666452842188e-02,4.487710030026299270e-04,6.211956601217824092e-05,1.518191052759596720e-03,1.657600998878479004e-01
-4.629959794455036637e-02,-2.130309391496643667e-01,-4.421012803706510924e-02,7.333674423250263925e-04,6.054394446282534200e-04,1.595030976038755779e-03,1.678166538476943970e-01
-4.986352663220235126e-02,-2.158982093747742192e-01,-5.305395579992221861e-02,8.179464552401084733e-04,3.254320516768821094e-03,-2.128803983017076452e-03,1.646066457033157349e-01
-4.508359186746403735e-02,-2.609899264667633334e-01,-5.069802786166051345e-02,-6.335648193649039660e-03,-1.806543758306789513e-04,2.373697525249766557e-03,2.134766876697540283e-01
-5.951423095925265083e-02,-7.583130720240294220e-02,-5.432470456935795111e-02,6.942193305759366691e-06,-4.114739013930671790e-03,-3.084227714913192597e-03,2.138192765414714813e-02
-4.910804913847028469e-02,-2.158560260202600778e-01,-5.266794273098365786e-02,1.974097794702838003e-03,3.646104597917945896e-03,-1.205842565614997485e-03,1.651662588119506836e-01
-4.537275467055988665e-02,-2.716081351975622171e-01,-5.488046530006338020e-02,1.795143466403899962e-02,-3.761709877998173530e-03,1.002277499640135197e-02,2.245716899633407593e-01
-4.765475123181474315e-02,-2.526194212312164455e-01,-4.969118542022200880e-02,-7.200998933908241660e-03,-3.198416374252981077e-04,5.982798307767060779e-05,2.043358683586120605e-01
-4.810865402428459586e-02,-2.158297984572624117e-01,-5.252233710794771554e-02,-4.653346355431299780e-04,4.150470432975190277e-03,6.705940887748009296e-04,1.657204627990722656e-01
-3.234915812335018015e-02,-2.048308908292621744e-01,-5.257750865082330000e-02,3.241191504387477829e-02,-2.638035680224266617e-03,-4.011781438412412998e-03,1.728897690773010254e-01
-5.031924137811107783e-02,-2.186406619231852089e-01,-4.992202367391100626e-02,-1.511955634477268624e-03,2.722987601232934162e-03,1.104548033505934907e-03,1.686175614595413208e-01
-5.089939232927197243e-02,-1.958643769987944983e-01,-2.946205020778723538e-02,3.218983037806990959e-03,4.780161588504050832e-03,6.752147185194648689e-03,1.575388163328170776e-01
-4.480344428242891835e-02,-2.150451455224353103e-01,-3.107443770261132665e-02,-2.018180079750807147e-03,-3.326475125041715442e-03,1.044554679680394574e-02,1.785517185926437378e-01
-4.459109431053942529e-02,-2.078152766815263564e-01,-3.220601289997704342e-02,-3.578272825139326620e-03,-2.629241186086648738e-03,1.210026335241401810e-03,1.699429601430892944e-01
-4.874490811190443362e-02,-2.096888830241720458e-01,-3.139344245283479107e-02,-1.737375916745601727e-03,-7.682353123344681095e-04,4.396684148259935240e-03,1.704859733581542969e-01
-4.810958374616722266e-02,-2.116993162743980583e-01,-3.080201490592889002e-02,-3.300367294366736513e-03,-2.463120402414014937e-03,1.168634021574064749e-02,1.742213666439056396e-01
-4.875953470902887055e-02,-2.037238690575731148e-01,-3.735228279604786705e-02,-5.536538064381489425e-03,-3.791191593292349022e-03,8.887235697931296363e-03,1.621228456497192383e-01
-5.477812408924064708e-02,-1.721780371942837617e-01,-3.431362216824160316e-02,-8.835465871988401436e-04,-3.638608503397807153e-03,9.137459437913183049e-04,1.290295720100402832e-01
-4.710618517537731864e-02,-2.116229691522524547e-01,-3.592627834858792835e-02,-1.861135624798734107e-03,-7.608726727401068967e-04,-4.859262520908873588e-04,1.704197227954864502e-01
-4.948519110793418024e-02,-2.177407493764473845e-01,-3.339214341272660203e-02,-2.160520312432722030e-03,-5.708885974929491869e-04,1.322049232937951100e-03,1.769092679023742676e-01
-4.746987990096868115e-02,-2.159403789569195597e-01,-3.453627555307225983e-02,-5.186624895983159116e-04,-9.122483395591810906e-05,1.051561464853693634e-03,1.753073483705520630e-01
-2.687585759735663937e-02,-1.910699927057263325e-01,-5.077966362098901287e-02,7.306530425979967979e-04,1.609025152336297044e-03,1.017726824264098429e-03,1.536838263273239136e-01
-2.583066867292246882e-02,-1.944142417976130743e-01,-5.117525878945596018e-02,3.543823387968624873e-03,2.561295459508570842e-03,6.085953753933357434e-04,1.576342433691024780e-01
-4.928748880351725703e-02,-2.022001202204373183e-01,-2.393533513888679298e-02,-3.626377484081522553e-04,8.807158436324210964e-04,2.113189781232390537e-03,1.670861691236495972e-01
-2.295907377483627498e-02,-1.681108360898209142e-01,-4.892578455595678055e-02,1.770773619960734624e-02,5.368194214211807324e-04,-2.240733220530736862e-03,1.375892758369445801e-01
-2.626801837140790158e-02,-1.784020080648474615e-01,-4.997552705958278885e-02,7.357236170623069997e-03,1.588604925531432986e-04,4.346675598562327672e-03,1.425455063581466675e-01
-3.552291934805475865e-02,-1.909044297474684071e-01,-4.284494547658912467e-02,7.431359782172223052e-03,7.126211857224813186e-03,4.659380205295363467e-03,1.531093418598175049e-01
-2.661936296764137733e-02,-2.013618964213133578e-01,-5.235000299492791054e-02,4.617614738463109159e-03,2.364461209450027628e-03,-2.535660479745115614e-04,1.636511981487274170e-01
-2.970393292622357240e-02,-1.923145743158521936e-01,-4.221792556674094921e-02,6.069393019741097829e-03,6.794865153803546914e-03,4.947870932265547791e-03,1.577541679143905640e-01
-2.487330623475754454e-02,-1.884958242172682097e-01,-4.913374331647385462e-02,1.061800402918147701e-02,2.258477506510135971e-03,3.042922623627601370e-03,1.541838198900222778e-01
-4.114012160014603181e-02,-2.116784823865161536e-01,-4.456681685883531058e-02,-7.567040022069946269e-03,3.709888329029796192e-03,1.826029455374541036e-04,1.694811582565307617e-01
-3.930212243842557546e-02,-2.105105565746475671e-01,-4.428849551362516040e-02,-1.106489688353710921e-02,5.039256134449183328e-03,-6.423232099827784133e-03,1.704427599906921387e-01
-4.341976196363580426e-02,-2.148829733785948548e-01,-4.569564508651854234e-02,-6.608633805438159786e-03,4.168932345229563879e-03,-4.220375235331719557e-03,1.710297614336013794e-01
-3.773118832482786483e-02,-1.992512061063155260e-01,-4.403935875732352401e-02,3.499127720979403229e-03,-5.843985357478327647e-03,-6.627579976139269004e-03,1.593128293752670288e-01
-3.360839871251549565e-02,-1.890499380052802769e-01,-4.086896923757109973e-02,1.389382267675183177e-02,-5.684670969056709183e-03,-1.008161149857889072e-02,1.551359742879867554e-01
-4.027883976180422765e-02,-2.263515802525078446e-01,-4.464346823458624491e-02,1.137086967316706942e-02,-5.283321713358884661e-03,-9.451189950155451311e-03,1.859289705753326416e-01
-4.774130906578189643e-02,-2.157492242430213980e-01,-4.097142121359818867e-02,-5.518424650297825643e-04,-2.434800560147734876e-04,-3.126023366295028940e-03,1.715817451477050781e-01
-2.924225179485644144e-02,-2.015714444046877163e-01,-5.059911776550524848e-02,1.697055924460793425e-02,-5.130079482750002362e-03,-2.913521906700499483e-03,1.656546741724014282e-01
-3.079993885377089319e-02,-1.770368398243386543e-01,-5.047198276430418795e-02,2.201807759294007599e-02,-6.010135050598567653e-03,-2.166536948282395125e-02,1.478727757930755615e-01
-2.891868167126170064e-02,-1.826865620706524806e-01,-4.834718709277491255e-02,2.129687477846749222e-02,-3.048050024267260141e-03,-3.934020478709079199e-03,1.498983651399612427e-01
-3.020761492825327355e-02,-2.178066052848489920e-01,-5.436950216671233849e-02,1.214335577081785550e-02,-3.128698842107145803e-03,-5.291839241098330107e-03,1.783260852098464966e-01
-5.151038928743466305e-02,-1.912622990853667937e-01,-2.697423465474521609e-02,-1.369531978384273341e-03,4.751476329871187577e-04,8.398176989550762764e-03,1.542059928178787231e-01
-5.022814693522825724e-02,-1.540707192672998160e-01,-2.467272728506424845e-02,-1.257773066751604902e-03,-3.835655547624342021e-03,1.539401266050177165e-02,1.218602061271667480e-01
-4.858246904161957203e-02,-1.663817442448563833e-01,-2.337537007449418808e-02,2.406410824357500984e-03,-9.207340253342432591e-04,1.764952160439872686e-02,1.357787847518920898e-01
-5.066848329702164366e-02,-2.014802449320625688e-01,-2.902809078548435062e-02,4.205416301020297137e-04,2.084726759431835413e-03,2.435278616731087475e-02,1.681334674358367920e-01
-5.278825885486963104e-02,-1.881999199832674052e-01,-3.098953345146518434e-02,7.901436608514217710e-03,4.614732551294532456e-03,2.207511555531303099e-02,1.532201766967773438e-01
-5.205922992306552533e-02,-2.094626881370732219e-01,-2.819596747149204219e-02,-8.266329038435035097e-04,2.415530821075819248e-03,8.876039805491809168e-03,1.713399291038513184e-01
-3.753509067626071422e-02,-2.120667250807354298e-01,-4.370417624136192780e-02,-9.002539968160746175e-04,-1.124773202893145562e-03,1.244412958746401467e-04,1.715486049652099609e-01
-5.223882691896249153e-02,-1.945098507709253077e-01,-2.901904986752634752e-02,-7.965673500787205479e-04,8.319085640674939847e-05,1.017591279202935753e-02,1.561930775642395020e-01
-4.919118527199086571e-02,-1.858569057288477211e-01,-2.876084126344676667e-02,3.212450583102713191e-03,5.181027869247368037e-03,1.104775642925012041e-02,1.495482921600341797e-01
-4.864121608089047588e-02,-1.911547019227219368e-01,-2.658744004215744805e-02,-2.050261336017484941e-03,1.025106333766861826e-03,8.559409578962964837e-03,1.554830372333526611e-01
-4.573621337477726256e-02,-2.226896949127217806e-01,-3.794331235778801437e-02,-7.308410590229645967e-03,-8.663689407478282478e-03,2.028833080557857632e-02,1.853982508182525635e-01
-4.558938600052344498e-02,-2.050750997965808953e-01,-4.322490108360202421e-02,-3.890236144422909003e-03,-4.883288415220850276e-03,8.188628079298151258e-03,1.616678237915039062e-01
-4.918614869423443281e-02,-2.041298741600959810e-01,-3.574253609473646703e-02,-5.791201146831468152e-03,-3.257415294388941659e-03,1.118932817925283318e-02,1.636439412832260132e-01
-4.591664889965335616e-02,-2.117123875287364454e-01,-3.908371202507599645e-02,-6.032983833479988595e-03,-1.244905542125947793e-03,3.371232484323925804e-02,1.794190406799316406e-01
-4.950612744687006572e-02,-2.103950504105876473e-01,-3.943689066320752584e-02,-4.979446520756842381e-03,-1.716559334811748085e-03,3.372618032858738790e-02,1.763583123683929443e-01
-5.157286746407446776e-02,-1.907943352885377863e-01,-2.725171824199021375e-02,-1.696648780270931800e-02,-4.650445221428354398e-03,2.456516619526110876e-02,1.615517586469650269e-01
-5.012318718329408784e-02,-2.140421221399251839e-01,-4.668427734352369879e-02,3.522892084188462424e-04,7.827170521792865474e-04,3.141266760418679610e-04,1.656727194786071777e-01
-5.492722406075203206e-02,-2.205007722329672404e-01,-4.667952393522452337e-02,-6.749121396235116782e-05,6.002259061608103624e-04,-1.070929217976317530e-03,1.698610037565231323e-01
-5.451457279646251819e-02,-2.281906677714303777e-01,-4.739975284086284102e-02,-5.958282607998360066e-04,2.492633966231468275e-03,-8.393601018278835143e-04,1.774020791053771973e-01
-5.826852274094385109e-02,-2.386725299897178298e-01,-5.195408318513730639e-02,-8.021489109370675413e-03,3.778264613398474303e-03,-8.675548591942689900e-04,1.842898428440093994e-01
-5.054579962105421043e-02,-2.150449389667132283e-01,-4.659712406517682592e-02,-9.323027132111299988e-04,1.775018227890348254e-03,4.518446252530245594e-04,1.665466427803039551e-01
-4.696886777251113587e-02,-2.019190004838009034e-01,-3.339026349744925876e-02,-1.385787946214954349e-03,-3.534890126651814204e-03,6.296865760596393607e-03,1.626656949520111084e-01
-4.202006409895339689e-02,-1.422078734102810993e-01,-5.127833526885135912e-02,1.878768686173477170e-02,4.520644457806411581e-03,1.595262094547896317e-02,1.052589416503906250e-01
-3.874451687794026877e-02,-1.203022485889377047e-01,-4.736478856352038802e-02,3.007795480201322369e-02,5.937029364079973552e-03,1.557235458026503226e-02,9.782746434211730957e-02
-4.371812714791908916e-02,-1.263037833084048600e-01,-4.955976758148879224e-02,1.653385288178315510e-02,6.129535641134269998e-03,1.625356707291946215e-02,8.998574316501617432e-02
-4.996738010791947765e-02,-1.027045233446974709e-01,-4.884190790708675678e-02,3.484476449281667665e-02,4.385674980697658494e-03,2.400467972584273760e-02,9.094326198101043701e-02
-4.478948237001739718e-02,-2.268137200061227654e-01,-4.808034623570146826e-02,-2.487281622464095412e-02,8.030985990921434350e-03,-1.969043807094312138e-03,1.860261559486389160e-01
-4.554986450902519940e-02,-1.641799823793442525e-01,-3.707691182412665293e-02,-1.503896997911416920e-02,7.128101605745679713e-03,-2.004223712947043531e-02,1.310956031084060669e-01
-3.581117816389334241e-02,-1.577818241065812865e-01,-3.345708923504386867e-02,-1.751490883675057078e-02,5.597306304824394702e-03,-2.212119260404147095e-02,1.328602880239486694e-01
-4.824675987876468619e-02,-1.902561084955990967e-01,-3.546954366413697379e-02,-3.366265243137158639e-03,6.198968531907683710e-03,-9.519008932591339900e-03,1.502182036638259888e-01
-4.856088151760128147e-02,-2.175994251626532372e-01,-5.285906360996488196e-02,2.327559330064619611e-03,-2.890998601058738897e-03,7.052111833311731264e-04,1.670591682195663452e-01
-4.815919959863645960e-02,-2.242462531535344417e-01,-5.485735963213265315e-02,7.486730260881055725e-04,-3.308640642200969765e-03,-2.745487772939353161e-03,1.730005592107772827e-01
-4.482970326065217198e-02,-2.197352864775922732e-01,-4.646061334628249356e-02,-2.311892727573337802e-03,-4.782200059791276328e-04,-7.131901145809785639e-03,1.745814383029937744e-01
-5.153206309274550867e-02,-2.538846204888097757e-01,-5.546307590946204791e-02,6.841141812563493289e-04,-1.250760404673310986e-03,1.179288232170110518e-03,2.004415839910507202e-01
-4.620871976071699860e-02,-2.352813234302311152e-01,-5.552036164885842950e-02,-3.204278045639782392e-03,2.755021287300783473e-05,3.793432845665962831e-03,1.847932785749435425e-01
-4.943763434629000475e-02,-2.021694475045294204e-01,-2.701087456517746455e-02,-1.550685856032677033e-03,-1.071421253298487138e-03,3.092419032349554356e-03,1.652107536792755127e-01
-4.619471356676568830e-02,-2.167567709290105782e-01,-4.625893495691837942e-02,6.150265193832445999e-04,1.878633422356766744e-04,-8.377096869367607959e-04,1.705397665500640869e-01
-5.145665043188559634e-02,-1.924782413916115986e-01,-2.684362095051051611e-02,-1.261373668792432554e-03,7.413611789618203577e-04,8.803777687150161901e-03,1.555724889039993286e-01
-5.070047149974272332e-02,-1.987826510460755092e-01,-2.612693856374259660e-02,3.566902539576801909e-04,-8.826072636032980317e-04,3.711681832373389493e-03,1.619109064340591431e-01
-5.052604292711375400e-02,-1.952565396317515467e-01,-2.463977807363366967e-02,-2.423356557632192962e-04,-7.582477119516393320e-04,2.988338990382713879e-03,1.593494266271591187e-01
-5.042042085291591202e-02,-1.923406082733578049e-01,-2.718756350783566034e-02,2.723207262880729179e-04,-1.891548257307525387e-03,5.746819677522176182e-04,1.548879146575927734e-01
-4.601474564265087275e-02,-1.809773628439892978e-01,-2.878255334101398333e-02,-9.173189505797568755e-03,-6.427042277764680178e-03,1.594713696432637287e-02,1.482459306716918945e-01
-4.746496191644220680e-02,-1.884446399860625343e-01,-3.113416434906189634e-02,-1.973857760714557621e-03,-6.214512538883171754e-03,8.886954853254018516e-03,1.510256826877593994e-01
-4.634139913243399966e-02,-2.046479484814706096e-01,-3.008835107581757373e-02,-1.213975237988501035e-03,-3.492864863250732328e-04,1.373035134311716577e-03,1.670584678649902344e-01
-4.555749134884452128e-02,-1.890367455093079074e-01,-2.756623868446085590e-02,-1.546152449121121443e-03,-2.712523046435701742e-03,1.303986649393882626e-02,1.550184190273284912e-01
-5.351741273566151119e-02,-1.774216836425239474e-01,-2.912953723485334906e-02,-5.449188164811880064e-03,-3.806108007784826490e-03,1.867498526397939201e-02,1.419422626495361328e-01
-4.903023609503189689e-02,-1.687165100278740226e-01,-2.558079894553232786e-02,5.358315578064888922e-04,6.912410615277247462e-04,1.861718071244919046e-02,1.368332952260971069e-01
-3.531671783343182103e-02,-2.092697146708681344e-01,-3.868131262856699948e-02,-2.648507764062102247e-04,-7.072310462708722304e-04,3.915934803826695457e-04,1.723016351461410522e-01
-4.912370177497502044e-02,-1.783531920848718255e-01,-3.190281095060789468e-02,-1.128861619521114197e-03,-6.508972489049229086e-03,1.715462403562353910e-02,1.422534137964248657e-01
-5.687532576366485099e-02,-8.387468235050829501e-02,-5.780734313324988050e-02,2.400787472486492840e-04,-3.767177796860447878e-03,2.620699857771694591e-03,2.771321125328540802e-02
-5.892914205724021637e-02,-1.062453044993631468e-01,-5.880660567927747939e-02,-2.960022845116342012e-03,-1.026865917899759091e-03,8.382375029372061276e-03,4.984850436449050903e-02
-6.034263139783158092e-02,-1.100388557766378839e-01,-5.772807900913382723e-02,-5.799630610985359591e-03,-2.248122465234418665e-03,-8.319251028459033036e-04,5.219798535108566284e-02
-5.543947328974498795e-02,-8.631551217137051202e-02,-5.790094087645794585e-02,4.122896746714961591e-03,-4.124036964237425343e-03,1.681060882403724371e-03,3.152592480182647705e-02
-5.599012443572343178e-02,-9.884744214238691540e-02,-5.593957125248831541e-02,2.516553714611957648e-03,-1.926508190291275745e-03,-2.464949034332633224e-03,4.344283789396286011e-02
-5.521525485588461846e-02,-9.442724679626098017e-02,-5.471910707263202833e-02,3.653108197939882330e-03,-1.677523095369275186e-03,-1.490686917464147804e-03,4.015501961112022400e-02
-3.567815125361564754e-02,-2.128200982853210854e-01,-3.993805329446986629e-02,-8.272278686522409981e-05,-1.474526688205421128e-03,-4.948852808822677782e-04,1.750716567039489746e-01
-3.756753297648894596e-02,-1.724944065743719834e-01,-3.915647304571778786e-02,1.994769308849972389e-02,8.658513941768915950e-03,1.141808343465279194e-02,1.407236754894256592e-01
-3.922173306488636879e-02,-1.534049129565477898e-01,-3.945223348840748434e-02,2.305534106986041262e-02,1.065263178159086589e-02,2.465354353719598213e-02,1.294990628957748413e-01
-4.422218776150095565e-02,-1.035959175893324258e-01,-4.232049908365951435e-02,1.881423022214141760e-02,7.686962850378282856e-03,2.396232655379371829e-02,8.126216381788253784e-02
-4.316528781846232926e-02,-1.787328371467909460e-01,-4.130415521166419524e-02,1.330098473460059570e-02,1.056096842646105441e-02,1.727309764793154984e-02,1.428102403879165649e-01
-3.741087991577439487e-02,-2.107591667114395995e-01,-4.180447217998680548e-02,8.571958158118481380e-04,5.138529561218213582e-03,6.495088304765074712e-04,1.714351028203964233e-01
-3.826202137283139793e-02,-1.521865182325075616e-01,-3.478098033484700036e-02,2.320181616175991113e-02,1.115354114406080094e-02,2.543552034924797395e-02,1.315923929214477539e-01
-4.271738493708163165e-02,-1.080646909928446864e-01,-4.667795607433089522e-02,2.553138166994476169e-02,7.920868571051783297e-03,1.636163017067123263e-02,8.351064473390579224e-02
-4.917891887403189055e-02,-1.379060742205432677e-01,-3.964691512432802489e-02,1.584112463726321252e-02,3.899403516758393959e-03,2.120914799676095960e-02,1.046758741140365601e-01
-5.212612819430679362e-02,-1.340805603554696968e-01,-3.956363706612087139e-02,-1.192139137545257868e-02,-2.871694638647739016e-03,3.025966047330654399e-02,1.053657308220863342e-01
-4.296440182237985794e-02,-1.331612846833133135e-01,-3.207116946686092152e-02,-1.743157457661110438e-02,-7.818923927035547478e-03,2.521557624284961885e-02,1.106306388974189758e-01
-4.531017657903726320e-02,-6.921957001554444877e-02,-4.313702119035539573e-02,-1.942770757304191492e-02,-3.871016809031819963e-03,3.180580569843671768e-02,6.957320123910903931e-02
-5.845298819889160197e-02,-1.772292457258920206e-01,-5.202388447533623506e-02,-2.923787432638555797e-02,-1.564345016766370555e-02,1.482958486389635705e-02,1.373725533485412598e-01
-4.588826672388011257e-02,-2.183058801517371306e-01,-4.528505713403174066e-02,1.302337800751597174e-03,-4.735330493440245746e-04,-3.897696327051603654e-03,1.728685647249221802e-01
-4.371395283758654216e-02,-1.826852397349650881e-01,-3.680216838516353617e-02,1.066497730261147317e-02,-7.987245807992383526e-03,-1.777672320476152146e-02,1.476549357175827026e-01
-4.355887102810284545e-02,-2.167554674224513311e-01,-3.856996888981682747e-02,2.068038884399860111e-03,-3.569954022167333690e-03,-2.692691651076080731e-03,1.759512126445770264e-01
-4.994967115858920531e-02,-1.955328058775571975e-01,-2.771084249666264099e-02,5.469747243702271968e-04,3.716270604802017746e-03,4.094026955120745907e-04,1.580172330141067505e-01
-5.537638758403620742e-02,-9.620713899702657002e-02,-4.758442485190766263e-02,1.235930451988811064e-03,2.300166393103865621e-03,2.942180625886436571e-02,6.828908622264862061e-02
-5.126048294571924901e-02,-9.280661692207428648e-02,-4.633394786903029250e-02,1.050106688219258969e-02,1.375391437080958129e-03,2.303220500369334081e-02,6.231348216533660889e-02
-5.006718798060981468e-02,-1.435834010533272864e-01,-4.132082870935724350e-02,2.532888497988251483e-02,4.569163175780274234e-03,1.663338536923633648e-02,1.116109564900398254e-01
-5.169628098386959414e-02,-1.508439085730203522e-01,-4.196984498926108198e-02,1.647143827329935681e-02,4.048703806597471824e-03,2.150469332014945043e-02,1.146283745765686035e-01
-4.374076577085189710e-02,-9.952784353714370924e-02,-2.966031089515743652e-02,6.934839764821987794e-03,3.734004663661643839e-03,3.210755688930651969e-02,8.587639033794403076e-02
-5.627079273096819573e-02,-1.143160556796219557e-01,-4.672843166005585802e-02,8.409106685621586807e-03,3.056717917764483362e-03,1.322744777590356517e-02,6.913222372531890869e-02
-5.682609450940676737e-02,-9.892735756705522965e-02,-4.790988189616972315e-02,3.299597877833957468e-03,2.271446049430346850e-03,2.847487730046995708e-02,6.861483305692672729e-02
-4.647442594939926036e-02,-2.197652564875631764e-01,-4.452799549567125481e-02,-8.852347663423940777e-03,-1.146420274694724640e-03,2.599897088222192024e-02,1.806589961051940918e-01
-5.527319922086140758e-02,-1.129441757077768865e-01,-4.970576366729680118e-02,9.603172886276940823e-03,1.113937715738515070e-03,2.545064783900752997e-02,7.682193070650100708e-02
-4.062074869261265986e-02,-2.131906467487073575e-01,-4.081375195513795018e-02,2.524115513620804152e-04,1.855609111088374645e-03,-2.428385142584364481e-05,1.725039780139923096e-01
-4.769468325889258259e-02,-2.141639655344657611e-01,-5.198014272807580105e-02,8.034805770703663981e-04,-2.992064105056437082e-03,5.208226594479127211e-04,1.644584983587265015e-01
-4.376929401395494856e-02,-2.141187558380254763e-01,-4.510892216600031340e-02,9.376843300560792991e-04,4.709901918231756859e-04,1.395902191302956195e-03,1.697105765342712402e-01
-4.435717872145281820e-02,-2.136682917954188243e-01,-4.049780707281003950e-02,-9.607410363329755643e-04,3.390145946996347449e-03,-2.899401013152023976e-03,1.714556813240051270e-01
-4.644989267756225587e-02,-2.127527647312831560e-01,-4.458860571815713436e-02,1.329632211536416284e-03,-5.656509147799366219e-05,3.663888483264946525e-04,1.672583669424057007e-01
-4.408994485370746480e-02,-2.143183977362493331e-01,-4.542200234588151392e-02,-3.881813276713976402e-04,1.856002318367055526e-04,1.451638868101254179e-03,1.695866286754608154e-01
-4.479605898150336440e-02,-2.144507129058607631e-01,-4.445690774168073456e-02,1.361951475956604341e-03,3.361497660871951964e-04,4.128381519635814824e-04,1.698433756828308105e-01
-3.890432383745580369e-02,-1.760802993202889022e-01,-3.889808463983188830e-02,-1.012864154991337251e-02,8.699146557356558090e-03,-1.656291787096848128e-02,1.420418620109558105e-01
-3.729741797717790047e-02,-2.073797555910323331e-01,-4.145562648469781203e-02,3.639195114801805665e-03,3.517222563498875135e-03,5.224586290092363139e-03,1.685134619474411011e-01
-3.962088825651763346e-02,-2.123633601888335887e-01,-4.319554340982934698e-02,-1.835093549876876812e-02,6.622513415651089079e-03,-9.120408806957785303e-03,1.750046759843826294e-01
-4.796103496189749182e-02,-2.147180069963845472e-01,-4.689336462945004752e-02,1.676603541797875045e-03,-4.432336155968170065e-03,4.739214541201679232e-03,1.676956117153167725e-01
-4.598652612751428365e-02,-2.197827402281008202e-01,-4.490481061072575802e-02,7.778097003913058988e-04,1.381537342347717405e-03,5.614456398827752815e-04,1.743639260530471802e-01
-4.468308657497932490e-02,-2.126966029222419619e-01,-3.815600320585093436e-02,-1.031558884926038998e-02,6.064019582131431954e-03,-1.039559958498349063e-02,1.735555827617645264e-01
-4.789002995550281638e-02,-2.030827774114665751e-01,-2.767685925609469910e-02,-2.378569072880241421e-03,-1.588198455764557471e-03,3.005135288398025871e-03,1.663788706064224243e-01
-4.249125329620941083e-02,-1.956463686389454948e-01,-3.659896060743262486e-02,-7.520917261768012008e-03,5.007324112736491646e-03,-8.501978395731890278e-03,1.576559692621231079e-01
-4.326643140744757671e-02,-1.967251141544683057e-01,-4.281619812112058554e-02,-7.139004952399565472e-03,6.303036868208987051e-03,-8.312469847514093041e-03,1.552360653877258301e-01
-3.742779645316950121e-02,-1.976231043946144739e-01,-4.188543419602402257e-02,-3.981624335205952853e-03,5.586432015947356833e-03,-6.323647414875365781e-03,1.588378548622131348e-01
-4.589436931275207854e-02,-5.023041061741688462e-02,-4.408650086536548135e-02,-1.577746829001309622e-02,-4.926651755291380427e-03,1.452836160253881924e-02,3.850622847676277161e-02
-5.542338017803695449e-02,-7.934978284187825526e-02,-5.703986498691651641e-02,-1.906147538114705536e-03,-3.983936171157595463e-03,2.110612763962068945e-03,2.466350793838500977e-02
-6.226112051270309145e-02,-9.411303942601507988e-02,-5.418011069210270508e-02,-1.204201569142526913e-02,-2.908614808750558181e-03,1.901558355490381991e-02,5.368827655911445618e-02
-4.836071219076753386e-02,-4.416056629149765766e-02,-4.767597899051370658e-02,2.443809095366767346e-03,-3.159407266288318146e-03,8.596730010096066688e-03,1.687624305486679077e-02
-4.352789553368931197e-02,-3.075778915880049078e-02,-2.773378667047318377e-02,4.202080511584427996e-03,-7.140997538617657042e-03,-2.094129853855454353e-03,2.073516696691513062e-02
-4.292693070684566042e-02,-3.202270539246818148e-02,-2.611627471875227480e-02,3.871083180354486109e-03,1.029749099263260748e-03,1.052720822049664669e-02,2.447031810879707336e-02
-4.521289773588097610e-02,-2.044084939770636489e-02,-4.138102234943927260e-02,1.112594177471590111e-03,-6.810153794167140250e-03,-8.819752037878870327e-03,3.016001544892787933e-02
-4.107840143559483154e-02,-1.854770299086795637e-02,-3.976571694342823787e-02,1.102551760537039474e-02,-6.656434318227670913e-03,-7.164061976060109686e-03,3.363572061061859131e-02
-5.397066448592251209e-02,-6.632493863705060666e-02,-4.934135689804672320e-02,6.170676142545590721e-03,-1.255513983034630028e-03,2.190085538515924163e-02,4.229838401079177856e-02
-5.228594874707385987e-02,-7.278018656043229451e-02,-5.351676698701087614e-02,6.241917392047090576e-03,-1.862092687282380183e-03,-3.726429799518197594e-03,2.377497963607311249e-02
-4.740094864184007245e-02,-6.624264442280526632e-02,-4.967609748894474819e-02,1.597139815542394578e-02,1.761006463730408638e-04,5.378989499303893189e-03,3.419749066233634949e-02
-3.987212309006275823e-02,-1.647939919728742542e-01,-2.684632200125744439e-02,1.807869165615962059e-02,7.113464030005513597e-03,2.271065546411212693e-02,1.417109519243240356e-01
-4.148203939916993849e-02,-1.992896013256892362e-01,-4.063012414573930614e-02,1.398782483093202224e-02,8.536782129605987104e-03,1.308744381354261070e-02,1.623509824275970459e-01
-4.481308757382095054e-02,-1.925443456833259293e-01,-3.284363184834556554e-02,1.159529072012430856e-02,7.688736727541868599e-03,1.313008640683079563e-02,1.575879305601119995e-01
-3.636178719974385992e-02,-2.008783974716050746e-01,-3.695355326089659609e-02,9.824422774410809973e-04,4.182692747214326011e-03,3.083749093795876226e-03,1.644767969846725464e-01
-3.688530611005943344e-02,-2.019444145971980853e-01,-3.661787957731933024e-02,6.638713740646660401e-03,7.085393250126909362e-03,7.066431707220084332e-03,1.664973050355911255e-01
-3.540443103132401986e-02,-2.024712372991605558e-01,-3.652239632546127462e-02,2.875671285324510329e-03,6.056939700167920070e-03,2.699917908362067451e-03,1.669806241989135742e-01
-4.564794030204008535e-02,-1.888322524962781357e-01,-4.091873920740196624e-02,2.500904606213268100e-02,-7.147218620396600733e-03,-3.515421319766978692e-02,1.641289740800857544e-01
-3.183072874523362045e-02,-1.924005109170372763e-01,-5.115342768115901245e-02,2.456842519119244519e-02,-1.232457987588179114e-02,-1.838704889699202538e-02,1.622779667377471924e-01
-4.214781444486558754e-02,-2.217615999708861807e-01,-4.588501650597377052e-02,1.032954598895283183e-02,-9.463732436417449795e-03,-2.455110834837031727e-02,1.843932867050170898e-01
-4.069533952529306997e-02,-2.219314538675419834e-01,-4.353714065594332938e-02,-9.567741041048943157e-03,1.420200213777234131e-03,2.713873014154160462e-02,1.866273730993270874e-01
-4.108924038722787386e-02,-2.119493654846533182e-01,-4.387172308753670147e-02,9.980337363795215022e-03,-9.435869222075992518e-03,-2.306318223513398324e-02,1.757474541664123535e-01
-4.609331324920933060e-02,-2.157678974847455078e-01,-3.793182994872257296e-02,3.185796318078552066e-03,7.353412553607264340e-03,9.771985467882948057e-03,1.752712577581405640e-01
-4.423339103882065887e-02,-2.212810335934287664e-01,-4.301118237133686600e-02,3.594229802932091475e-03,2.421966049732815311e-03,5.264547708335408187e-03,1.780540645122528076e-01
-4.071236899468728965e-02,-2.119074062077478948e-01,-4.449806763044232560e-02,9.035721418082500941e-03,4.442124702201837028e-03,1.066524146195787018e-02,1.712289452552795410e-01
-4.661001139911014751e-02,-2.115204917941705121e-01,-3.531421737891973778e-02,-8.678546623187292008e-04,-5.848202161085310283e-04,5.604667040532299656e-05,1.708483248949050903e-01
-3.922654722581572773e-02,-1.895561379574390026e-01,-3.152449708327545452e-02,1.434416182660284457e-02,8.585923980212488080e-03,1.962915296896769121e-02,1.606564074754714966e-01
-4.649107400905905935e-02,-2.076571629029342891e-01,-4.059874828486779302e-02,1.046036648677338421e-02,3.767047839795669567e-03,1.359317724285949436e-02,1.669850945472717285e-01
-3.923013550898812180e-02,-2.140469141049277380e-01,-4.097327761891318004e-02,1.287209333868293872e-02,6.311156592304698401e-03,1.144715744437972346e-02,1.768301129341125488e-01
-4.852314701455547746e-02,-2.112132307207327253e-01,-3.073839292065487505e-02,-1.691321122698249534e-04,-1.380440137928825401e-03,1.185753142547162076e-02,1.735089868307113647e-01
-4.469165273641559355e-02,-2.127240438833393754e-01,-3.769002160196557177e-02,5.071973021678783137e-04,5.097992997423668807e-03,1.052643254039407894e-02,1.728339195251464844e-01
-3.817139183639629146e-02,-2.125084480169782963e-01,-4.001427115764456116e-02,-2.390292835546048769e-04,1.763912155140586380e-04,1.975497891105752388e-04,1.734240651130676270e-01
-4.206953156413868744e-02,-2.125173677576500386e-01,-4.131554030432176700e-02,1.238610089398178155e-02,7.662583987527534293e-03,1.071855051393940002e-02,1.736738383769989014e-01
-5.267897898932230594e-02,-2.176151326794302787e-01,-4.350166029111611488e-02,-9.974070672940102758e-04,-1.291545033174788934e-03,-1.174107299381693019e-03,1.697467416524887085e-01
-4.928731390358333242e-02,-2.160420539919613858e-01,-4.582220552701332661e-02,1.857729196163745208e-03,2.628794362709293642e-04,1.244713786005253661e-03,1.685591340065002441e-01
-5.063033904938418761e-02,-2.204016761647956124e-01,-4.449339968122067307e-02,3.696505923531856128e-03,-1.078526981578290661e-03,2.147211316663549981e-03,1.730900257825851440e-01
-5.172281584031876434e-02,-2.217992281303051705e-01,-4.714167210734663410e-02,-1.092014335475344211e-03,-4.937251870043004117e-05,6.783601827363200300e-04,1.724270433187484741e-01
-3.924621562429943256e-02,-1.477787526537665541e-01,-5.189602665337957055e-02,3.365405438184762565e-02,4.888231301852365845e-03,2.108963469161875132e-02,1.239766180515289307e-01
-4.590984342921776429e-02,-1.944054928379221614e-01,-4.131774676245768274e-02,1.192519474414693165e-02,1.132330849346607077e-02,1.680821192500118327e-02,1.562459021806716919e-01
-4.698951218162002175e-02,-1.203141740389866293e-01,-4.910434854819407946e-02,2.116887430466622699e-02,5.120533696860593564e-03,1.560063976127989104e-02,8.590152859687805176e-02
-4.852335691704107862e-02,-2.102977725787378294e-01,-4.831482154536381746e-02,3.210914352064573717e-04,-3.682035076344856062e-04,8.390948971239084453e-04,1.618875265121459961e-01
-4.885302015464829117e-02,-1.403181529427703911e-01,-5.313084181961143931e-02,1.443693933838113841e-02,3.651057442159311422e-03,1.344164298555403092e-02,9.591766446828842163e-02
-4.179420402611540297e-02,-1.744233459188216373e-01,-3.702142989707352810e-02,1.021325392147904784e-02,1.094205414502893645e-02,1.920467688678615184e-02,1.415092051029205322e-01
-5.378115012416798818e-02,-1.679383454893709771e-01,-4.019700858825740047e-02,1.446287838637861506e-03,6.099514382698806129e-03,1.515219839862763651e-02,1.247949376702308655e-01
-4.910822871727466010e-02,-2.112724203593499550e-01,-5.039307485181687696e-02,1.375477218099552690e-03,-2.354923160333330899e-03,1.108465222356718859e-03,1.616060584783554077e-01
-4.552248684396260209e-02,-2.145284470357211593e-01,-4.485189051590846021e-02,9.714839686097452359e-04,-2.670251544218149066e-04,1.166816548040270273e-03,1.693633049726486206e-01
-3.063925895930263987e-02,-2.180327971131668097e-01,-4.933573709177156708e-02,-5.945485756852932242e-03,8.838163623408801153e-04,-9.436513773175955657e-04,1.790903657674789429e-01
-3.558084884986330299e-02,-1.970213371886491427e-01,-4.764396408633388147e-02,-1.883061758000756716e-02,-1.030603813647142661e-03,-1.145916237783442711e-02,1.603807210922241211e-01
-4.745965525551400221e-02,-2.196886813875414401e-01,-5.193983291740652403e-02,-6.026124573502065172e-03,2.704582587698859709e-03,-1.769626959724400483e-02,1.731521040201187134e-01
-3.442248520807120876e-02,-1.948046395856790070e-01,-4.630706022969310193e-02,-1.788426081923061642e-02,-4.081753616318819795e-04,-1.029026648901962097e-02,1.588562726974487305e-01
-3.663679589739286119e-02,-2.122451047390557788e-01,-4.826065747096618813e-02,-1.230248489664342512e-02,6.179111175862148780e-03,-4.733719246913256715e-04,1.717597544193267822e-01
-2.627718497850661111e-02,-1.175528052779960531e-01,-3.093884998351744200e-02,-3.094783139865125293e-02,3.996933107889363498e-03,1.287185815245465471e-02,1.065164729952812195e-01
-6.475771588274006896e-02,-2.882391577581696618e-01,-6.377715216241564011e-02,-6.855950221811166201e-02,2.216506115329042789e-03,-1.076402756174594036e-02,2.542195916175842285e-01
-4.508353517221947576e-02,-2.243131453013763044e-01,-5.122560145011059718e-02,-3.198030526346475055e-02,5.136854301858298283e-04,-1.018896645966250319e-02,1.855817735195159912e-01
-3.941933175120193589e-02,-1.897595141232563398e-01,-4.479148054042694782e-02,-9.895952170121168415e-03,5.118597927920004627e-03,2.506605812479925643e-03,1.490456908941268921e-01
-4.026825486748988880e-02,-2.132176255068819470e-01,-4.184168527650506536e-02,6.804613408368433841e-03,5.197428631158205158e-03,3.939268559235322223e-03,1.729402691125869751e-01
-4.457178676533556788e-02,-2.136504890628293518e-01,-3.609927144295583396e-02,4.344636915659201917e-03,4.997548044912683909e-03,4.491785259024393823e-03,1.740229725837707520e-01
-4.417210732483337066e-02,-2.101338428760001209e-01,-4.300784259137862414e-02,4.676697480852118707e-04,9.986642720230471185e-04,4.568931007875766262e-04,1.665597558021545410e-01
-4.513092217030723746e-02,-2.140826832688513259e-01,-4.609854921101395192e-02,-6.425131894856603906e-04,4.909493164769364185e-04,-1.566627677337446888e-03,1.684976965188980103e-01
-4.222240775903859239e-02,-2.150689823103210663e-01,-3.942442769341356068e-02,1.261618101664611566e-03,3.439489674062505033e-03,1.629087553604623715e-03,1.744007319211959839e-01
-4.317282282273345040e-02,-2.092503991271562058e-01,-3.218607404789472493e-02,5.097773165556139865e-03,5.579112752168778437e-03,7.463612590236745441e-03,1.728166043758392334e-01
-4.891361634614622284e-02,-2.280637756563248242e-01,-4.758153176144758190e-02,-3.662196538623268757e-03,-3.188082977189017381e-04,-1.907432429083277727e-03,1.799629181623458862e-01
-4.262896679665794525e-02,-2.112944412998473687e-01,-4.077165619800259683e-02,4.234407179562423018e-03,2.565333644777234579e-03,3.397424036394475991e-03,1.699203252792358398e-01
-4.148581872823638161e-02,-2.013997247499882404e-01,-3.557646500244782822e-02,4.274027503363547580e-03,6.753589047637493722e-03,6.631582874221681606e-03,1.639388054609298706e-01
-4.143536168352341537e-02,-2.163164789210084982e-01,-3.284572497278580305e-02,4.343650153940498485e-03,5.025357964754211676e-03,5.654883183806389685e-03,1.799656897783279419e-01
-3.710021286265940271e-02,-2.133332381293692459e-01,-4.579165628171940478e-02,3.031165776729713261e-03,1.294715901036778277e-03,-6.015941290755846393e-04,1.721498817205429077e-01
-3.123421179187420293e-02,-2.085388634152650078e-01,-4.178529918054967734e-02,5.523846213790512428e-04,1.093678167559352732e-03,1.653716382138688376e-04,1.722849160432815552e-01
-4.716695216369206495e-02,-2.102159346806488638e-01,-4.810187782530581796e-02,7.114446306057323329e-04,-6.347541537200212646e-04,6.122029054131366676e-04,1.625953763723373413e-01
-4.174548156718876912e-02,-2.120168300921806692e-01,-3.789759896829624636e-02,4.341071519254323732e-03,6.296689013542499866e-03,4.636922645283355314e-03,1.729228347539901733e-01
-4.465035408648926341e-02,-2.122584779861815540e-01,-3.805289839137752234e-02,-1.207033939817516496e-03,1.214662860004863364e-03,3.743043180588158294e-04,1.710292845964431763e-01
-4.142965151522724765e-02,-2.124563504228757504e-01,-3.404736046339958827e-02,3.560978439850284033e-03,5.872799537257976550e-03,6.202553982682143530e-03,1.755679994821548462e-01
-3.714009764140364933e-02,-2.078272820953390720e-01,-3.888130789374757285e-02,1.435197422056908988e-03,5.267360046753717662e-03,2.442535584456258149e-03,1.701389402151107788e-01
-3.979613101028738054e-02,-1.919074874306039846e-01,-3.837626257933242357e-02,9.793063246944899713e-03,1.074368512727115130e-02,1.775406566071634912e-02,1.579096913337707520e-01
-3.255348631001403481e-02,-1.961085146607640384e-01,-4.359188425094943226e-02,1.080988763559411099e-02,7.972439513579572534e-03,4.310006756473018681e-03,1.601988673210144043e-01
-3.817191802864759037e-02,-1.912961476536368943e-01,-3.813821143715909884e-02,8.769796616783186866e-03,9.461911823186288165e-03,8.833378439536986038e-03,1.555171608924865723e-01
-3.022104210405496261e-02,-1.537887153588575750e-01,-3.925213441245931772e-02,3.178477010209145026e-02,8.281144709892569039e-03,1.381979959725296650e-02,1.343282759189605713e-01
-3.214833119112738002e-02,-1.931557980630858040e-01,-4.081845528377035792e-02,1.378808273337648466e-02,9.238801766129886572e-03,1.142988566178507540e-02,1.606889814138412476e-01
-3.430944783092396144e-02,-1.850062228470235326e-01,-4.126311619808371856e-02,8.001152315909022122e-03,7.215589576726005178e-03,6.707208659294376131e-03,1.489737778902053833e-01
-4.245139280187985170e-02,-1.954132247409927914e-01,-4.278844377688059003e-02,1.631283532899569649e-02,1.028862043027952214e-02,1.138575188373529973e-02,1.576409786939620972e-01
-2.889748419127362300e-02,-1.762946335544684495e-01,-4.344947126630388512e-02,3.003872049493546206e-02,7.796738729076102548e-03,1.743847453475889930e-02,1.536046862602233887e-01
-3.917170041105254297e-02,-2.018951446238496095e-01,-4.660091763828363987e-02,3.464035690208862317e-02,6.945155146838701520e-03,2.470496176220867909e-02,1.757861673831939697e-01
-4.555260847909796407e-02,-2.212987045748277537e-01,-4.450450400233830345e-02,8.141761012485796214e-03,5.461015031842874311e-04,4.013223044628084005e-03,1.769747585058212280e-01
-5.299013900889331524e-02,-2.439153593672342135e-01,-4.869451833768256854e-02,-2.660778232163082090e-03,-2.503559446073277094e-03,1.876921645158985408e-03,1.932398676872253418e-01
-5.041371903197280208e-02,-2.240839747654767011e-01,-4.666658239891075671e-02,-1.444669024599692497e-03,-1.401920711203523667e-03,4.950508133188004627e-04,1.756105273962020874e-01
-5.240465550821197388e-02,-2.140394258771623204e-01,-4.993675256430453457e-02,8.748676660322481091e-04,-5.024700258924968271e-03,6.207560367766944056e-04,1.631256639957427979e-01
-4.960039679240900445e-02,-2.216241664129282585e-01,-5.187454567113892329e-02,2.852931538988019537e-03,-4.965111044713686229e-03,3.474855061820760101e-03,1.712913960218429565e-01
-5.121530585768202526e-02,-2.178813594415393573e-01,-5.036992123348731781e-02,-7.302401253208928248e-04,-4.725617239610888087e-03,8.175908649430777561e-04,1.673014760017395020e-01
-4.732481149500392115e-02,-2.096608129423503664e-01,-4.900525598824629486e-02,3.803614063471610104e-04,-6.411702353804462967e-04,5.658696777833402349e-05,1.615075320005416870e-01
-4.904989607878964403e-02,-2.137256745988447282e-01,-5.231998376357704927e-02,6.902366564495556259e-04,-3.387290040540686525e-03,3.861479130425887881e-04,1.631765812635421753e-01
-5.085079257408883779e-02,-2.136265728428367594e-01,-5.141626537137117259e-02,1.170157162606175931e-04,-3.581271899383969663e-03,9.714376551395609988e-06,1.626122593879699707e-01
-3.828722055827098875e-02,-2.143865716010173728e-01,-4.233643874997788936e-02,-2.097121090763432545e-04,1.174440352870780024e-03,1.168630510380526399e-03,1.741340905427932739e-01
-3.792609560886720660e-02,-2.147782878080238822e-01,-4.232917212704793986e-02,4.846854877189676414e-05,7.284573940480637728e-04,3.179479540669908396e-04,1.746977269649505615e-01
-3.980571624013697074e-02,-2.154802429635554462e-01,-4.135252898656242848e-02,7.918376319823879593e-04,1.995769389764151611e-03,1.770710291141574274e-04,1.749460548162460327e-01
-4.193244740655122094e-02,-2.149758238517938680e-01,-4.151400809602159847e-02,1.229162855442036441e-03,1.176333265835939092e-03,9.667906409574898068e-04,1.732861250638961792e-01
-4.043758174595352833e-02,-2.145339281195522141e-01,-4.120045882077155025e-02,7.205687503692504217e-05,1.022861261168991941e-03,6.451539782274860833e-04,1.737288385629653931e-01
-2.604057260501131676e-02,-1.885693858462546557e-01,-4.889167675172034766e-02,9.216482143134270945e-04,2.349583587232211349e-03,-2.693385128775517773e-04,1.524570584297180176e-01
-4.745383963418085826e-02,-2.022787984732267730e-01,-2.949848406161005576e-02,-5.205155526704603047e-03,-4.107373399967592133e-03,2.015857659523553197e-02,1.685944795608520508e-01
-4.574188459539853951e-02,-2.120122781833630732e-01,-3.299736861145710631e-02,-4.245522409399841990e-03,-4.970956702415835898e-03,3.423574469290835767e-03,1.734666228294372559e-01
-4.688369312909070052e-02,-2.101892595284745036e-01,-4.762353151505962362e-02,-2.021754072430097899e-04,-6.684365807680514972e-05,-2.785783656156119248e-04,1.629380434751510620e-01
-4.285466100975061920e-02,-1.894783290900897144e-01,-3.648663646288913959e-02,-4.345298664589952557e-03,-6.847910312603871195e-03,7.992848050917857050e-03,1.512009799480438232e-01
-4.444520376059176575e-02,-2.047989144974695919e-01,-3.235656944190572898e-02,-5.181540260556204321e-03,-4.728030890252170847e-03,3.754935496661397816e-03,1.672955751419067383e-01
-4.547260554076579947e-02,-2.048890889644027213e-01,-3.735708360446520632e-02,-4.725869213230565746e-03,-6.738423199622319004e-03,2.833940829669401393e-03,1.643184125423431396e-01
-4.554247020021387482e-02,-2.537662605527249426e-01,-5.799425864572822081e-02,1.549881691158471082e-03,6.047607549814963505e-04,5.782258131865693901e-03,2.025538086891174316e-01
-5.141252182918312763e-02,-2.541262043892409395e-01,-5.597968662278725305e-02,-1.066495792386453964e-03,-1.547666582028379327e-03,9.433517353997348566e-04,2.005022168159484863e-01
-5.095002275725984964e-02,-2.525801425015544721e-01,-5.571708855300318286e-02,-2.980391798869574862e-03,-1.518513681196768895e-03,1.479331770394551934e-03,1.993900090456008911e-01
-4.429191463004186063e-02,-2.416357585947288555e-01,-2.990026083558809666e-02,6.439150150170987880e-03,3.677048656529033430e-03,2.693507744075107277e-02,2.105546593666076660e-01
-4.258639353685117479e-02,-2.479059903138379761e-01,-5.229476916564581440e-02,-6.030212543966553297e-03,3.870553116342447496e-03,-2.793323056503731194e-02,2.067653238773345947e-01
-4.755818177591829288e-02,-2.216712669364768185e-01,-5.334051106426582894e-02,2.300571384700260912e-04,-3.373527006577633266e-03,2.588077043314092196e-05,1.713952273130416870e-01
-4.129245774272029268e-02,-1.528836669361045009e-01,-3.507999578866038970e-02,2.953163793232552528e-02,9.160209630218785898e-03,3.185124227698810095e-02,1.381884068250656128e-01
-4.733761782336173840e-02,-2.018716842656640975e-01,-3.301298570933162285e-02,8.750370488701565697e-03,7.395906643901242923e-03,1.417731097056962319e-02,1.652162522077560425e-01
-4.958473290017625934e-02,-1.971087800683634650e-01,-2.976335991623984406e-02,2.425542667582234434e-03,5.773512980982139879e-03,1.827861591848977188e-02,1.618651747703552246e-01
-4.944605353591623176e-02,-1.923183274766939455e-01,-2.906677474667594685e-02,5.584960595837473903e-03,5.540008418987071512e-03,1.884378179204188389e-02,1.580833643674850464e-01
-3.966839643017644468e-02,-2.148221244030950605e-01,-3.733299021334152840e-02,7.633943230880279977e-03,7.075894151315138478e-03,6.278024900523243752e-03,1.775855123996734619e-01
-4.512905372348811894e-02,-1.984237596846734619e-01,-3.219874874643024326e-02,1.900657660490891535e-02,8.084843027568199003e-03,2.366834369007861025e-02,1.691420227289199829e-01
-4.944397689054399331e-02,-2.014101290776658115e-01,-2.393563014278744794e-02,-3.606791191368853957e-04,6.168415652427807752e-04,1.285849174995583061e-03,1.662145704030990601e-01
-4.910121937607579007e-02,-2.009810135320994062e-01,-2.591855131797236866e-02,1.110649138353637586e-03,1.803608219543105864e-03,8.712729056985904497e-03,1.654299944639205933e-01
-4.924751156778373051e-02,-2.043434018263418361e-01,-2.489590688524624673e-02,-5.246894452018129734e-04,3.306548768545095160e-04,2.501815313320727985e-03,1.686549782752990723e-01
-4.605100829093495413e-02,-2.158712186180713755e-01,-3.829005485742986020e-02,2.839610091460684736e-03,-2.826953774458805350e-03,-8.542657675033663023e-03,1.745972484350204468e-01
-4.479208503910921124e-02,-2.018677112842861832e-01,-3.955019490467950177e-02,2.917910858709070118e-03,-4.541789027007555116e-03,-8.779492031736077159e-03,1.607553064823150635e-01
-4.591749012201531976e-02,-2.122742199271260843e-01,-3.547337178023897419e-02,3.155685957935168830e-05,-5.533478288159101276e-03,-3.101751803599636734e-03,1.721679866313934326e-01
-4.341875381034412951e-02,-2.150687616717862904e-01,-4.159625345231931365e-02,-1.795037450681797185e-05,8.988985011583208685e-04,1.698395820120539735e-04,1.725757569074630737e-01
-4.647028289533678552e-02,-2.147841701583028118e-01,-3.827158394207664377e-02,-2.099484121924424102e-03,-2.457569762803921316e-03,-1.547648521917521129e-03,1.726709753274917603e-01
-3.775143097824695815e-02,-2.100310403804038772e-01,-4.088602683728120857e-02,5.688153125609271945e-05,1.524152690394126172e-03,7.043784832209195202e-04,1.707586944103240967e-01
-3.784921902023907769e-02,-2.103042638731453251e-01,-4.337345946439528227e-02,-1.128286715559230784e-04,4.967520194656422500e-04,-7.001119033623844686e-05,1.697626858949661255e-01
-3.260206174762642767e-02,-2.047183698365149795e-01,-4.250262812485982450e-02,4.186210086910643717e-03,3.979352860333035084e-03,7.786758636023717378e-04,1.676898747682571411e-01
-3.136830289291835799e-02,-2.066978159832664474e-01,-3.944314843283151795e-02,3.792133769449640771e-03,3.766761724613938277e-03,2.268862343099837132e-03,1.717295348644256592e-01
-3.288363879653107003e-02,-2.334922469763222597e-01,-5.274990715995384050e-02,3.555892576060238480e-02,7.032747232820141855e-04,-8.704637809581668509e-03,2.016810476779937744e-01
-3.524315624456920287e-02,-2.098084723188304301e-01,-4.360598328691097508e-02,2.038388987659537732e-04,1.510948573832159763e-03,3.294859842375614817e-04,1.705591529607772827e-01
-3.060322102740155314e-02,-2.071559357356366204e-01,-4.253243145185955920e-02,4.438525419368601391e-04,1.580911946814213785e-03,1.059033653854877816e-03,1.709341555833816528e-01
-4.447505236752234692e-02,-2.154782500120779876e-01,-3.617555429201683992e-02,5.113596148474583089e-03,7.281188229655954046e-03,1.450066151726249301e-02,1.777597218751907349e-01
-5.034126828623147754e-02,-2.012853347722525221e-01,-3.044593004890765175e-02,4.264149358197025924e-03,4.940659691537655288e-03,9.008919069144871034e-03,1.629548370838165283e-01
-4.746680918058850118e-02,-2.142050539590865665e-01,-3.454737774627732183e-02,5.559765484687655829e-03,3.986681611876279410e-03,2.596354569021313077e-02,1.796815246343612671e-01
-5.175508081203104155e-02,-2.059717544391762578e-01,-2.950469300056871025e-02,2.548120944876251098e-03,5.029677479319417249e-03,2.953519689056116615e-02,1.744178831577301025e-01
-4.423947520239842474e-02,-2.032202045500307586e-01,-3.056228335822507719e-02,4.191751900817971936e-03,4.860300838092959305e-03,1.029182679180310790e-02,1.675639897584915161e-01
-4.320830260676414292e-02,-2.191602157143359708e-01,-4.136010869738476758e-02,1.518034286449426165e-03,2.597518020158824312e-03,3.397300394133395424e-03,1.770578026771545410e-01
-4.951717920691580538e-02,-2.247667682706793457e-01,-4.630015911814814450e-02,7.510369980221750369e-03,-1.344909132731742733e-03,6.694131797038491496e-03,1.777515858411788940e-01
-4.231142084455175728e-02,-2.188810123000272112e-01,-4.168199297590595431e-02,8.315054247918625407e-03,4.892730308411942335e-03,2.777583831484473856e-03,1.777378320693969727e-01
-4.750811899869609306e-02,-2.213457621316900770e-01,-4.406043244167578282e-02,-1.101795584847601152e-03,1.595712271950842052e-03,1.176657331071942481e-02,1.767975836992263794e-01
-4.486867131848117779e-02,-2.190233287393389960e-01,-4.498665007593360271e-02,1.665971924147526548e-03,1.632195974192441256e-03,-1.854249953546390753e-04,1.741428524255752563e-01
-4.439983613545622071e-02,-2.133159301524796547e-01,-4.205955790504275343e-02,-2.352158189343199241e-05,8.568506479112094221e-04,2.859480822042432136e-03,1.701768785715103149e-01
-2.681859234968939770e-02,-1.533970972556718271e-01,-5.015094809083738003e-02,1.711544866580940599e-02,-1.042087369288263949e-03,2.699632024694734525e-03,1.204868406057357788e-01
-3.523206781809040677e-02,-1.653782278542414441e-01,-5.421876062944380736e-02,1.174916196000994756e-02,5.834412382326851360e-03,2.347701226780300916e-03,1.239365041255950928e-01
-2.933499096687877672e-02,-1.657162391859112738e-01,-5.304096646359438005e-02,3.762034017907872618e-02,2.423049704420436948e-03,8.488695539983076577e-04,1.421070396900177002e-01
-4.746755050716418983e-02,-2.100888339908854041e-01,-4.668222738082496159e-02,-6.627743574372532784e-04,-1.211092989101826469e-03,-4.150605075843212814e-04,1.630344837903976440e-01
-2.862568917284399883e-02,-1.963470786923814382e-01,-5.279373484273718747e-02,1.865877004070998907e-02,3.469366344900206688e-03,4.598814876468843363e-04,1.604439318180084229e-01
-4.415759848156982498e-02,-2.049648820413411676e-01,-4.453232858611340383e-02,-5.645302313416910092e-03,5.447653803869261738e-04,8.293300348951242879e-03,1.615602076053619385e-01
-4.097003858039513502e-02,-2.137622547870310086e-01,-4.181105281230642484e-02,-2.429266119389685875e-03,-6.851092159717064693e-03,1.485445493888534621e-03,1.728515923023223877e-01
-4.765074408414577550e-02,-2.232766945687014726e-01,-3.707531173950869008e-02,-6.386240877628332480e-03,-5.809214245146028521e-03,1.985728353023267709e-02,1.849869191646575928e-01
-5.800907672335343934e-02,-1.462430486441816391e-01,-3.404619691756122918e-02,-2.081608975803644207e-02,-2.277334811223900770e-03,3.978798327406691399e-02,1.286022216081619263e-01
-4.007584754835645524e-02,-2.154394431151915312e-01,-4.201598219151427005e-02,6.386208378540507956e-04,2.660335124076837129e-03,9.422449525301233126e-04,1.744736284017562866e-01
-4.066622042522433783e-02,-2.140610812687733788e-01,-4.018829762078358209e-02,-4.583750380038028108e-04,2.143221926939832891e-03,2.308825177073590138e-04,1.736762672662734985e-01
-4.044086130360410869e-02,-2.106770045665569968e-01,-3.962921511657475221e-02,7.831400898766665338e-04,2.213824922051035003e-03,-2.441914098412933834e-04,1.706923991441726685e-01
-4.157995321080801276e-02,-2.141204685177263700e-01,-4.105700179778921932e-02,7.609413309147745365e-04,1.137528862450464841e-03,5.950362725860749817e-04,1.728219091892242432e-01
-4.157099718716288778e-02,-2.144889812501772908e-01,-4.208066456121629245e-02,9.935607837759838877e-04,2.562338159787943236e-03,9.388645900077331827e-04,1.727369725704193115e-01
-4.515237802754711732e-02,-2.144924655940430025e-01,-4.279869472636754074e-02,1.083853210830224012e-03,1.835657403796911306e-04,6.068947435599492558e-04,1.705429852008819580e-01
-4.185881012780520022e-02,-2.136064420146686627e-01,-4.262604836486914850e-02,9.647385646873842327e-04,4.639103463487003658e-04,4.521321848209135111e-04,1.713771224021911621e-01
-4.535951752372633511e-02,-2.145500042518572181e-01,-4.647409224975450337e-02,1.875785266436523491e-03,-4.160438818986911193e-04,1.588167535141923100e-03,1.686912178993225098e-01
-4.737846337129283936e-02,-2.414045532421132401e-01,-4.726500348822405828e-02,-3.736468819044942279e-03,1.133166924108433777e-03,-4.102120902997000162e-02,2.067900002002716064e-01
-4.841276112715364732e-02,-2.588367541093116730e-01,-5.913642946515322574e-02,6.763849270321703553e-04,-2.194154908716361516e-03,8.261327410812230104e-04,2.053158581256866455e-01
-4.153972597521499860e-02,-2.353002258556082804e-01,-3.403963493475109514e-02,1.218819269632558794e-03,4.232471937635005899e-03,-2.235766585185095662e-02,2.015202194452285767e-01
-4.689771215290071404e-02,-2.428125590723977378e-01,-6.340989741529162727e-02,2.680492492316731250e-03,7.294178774056029246e-04,5.707887953240122283e-03,1.885237097740173340e-01
-4.004096854314627418e-02,-2.146359008937539503e-01,-3.706932892073929592e-02,-2.872636207910891654e-03,-4.915966501144959644e-03,2.447656059500943329e-04,1.763759851455688477e-01
-4.693296095823879660e-02,-2.104942077551311685e-01,-4.883573981968063887e-02,-2.604022144325225381e-04,-8.240245603197156711e-04,5.052701880765150203e-04,1.626274436712265015e-01
-4.240950482368168600e-02,-2.127572692488352013e-01,-4.472566979922024122e-02,5.723957673880351264e-04,-1.578582224127131383e-03,-1.419496364667254418e-03,1.692444235086441040e-01
-4.210735523552894266e-02,-2.129464071562370830e-01,-4.579274600099467185e-02,5.470154581356189392e-04,-1.098551086835364114e-03,-1.277414270518152737e-03,1.690543293952941895e-01
-3.751688741515595005e-02,-2.092309855483743264e-01,-4.286346613558714852e-02,-1.194729826745250661e-02,-7.055009152682401551e-03,1.820164023076421399e-03,1.708323955535888672e-01
-4.136995126681874274e-02,-2.125075753868240214e-01,-4.275096265505754639e-02,-4.554333879293575270e-03,-3.554859050052034623e-03,3.566389378522564959e-03,1.708565056324005127e-01
-4.106184793797385685e-02,-2.116424803208390715e-01,-4.124027529567960565e-02,-7.539632788686276982e-04,-1.708619119197316710e-03,-1.043861019353003290e-04,1.705222725868225098e-01
-3.733379350687277692e-02,-1.864394849856751135e-01,-3.579316320900728654e-02,2.176835812185365371e-02,7.424192566127857731e-03,2.169833740940350919e-02,1.595744043588638306e-01
-4.396881198124099471e-02,-1.915527189329658819e-01,-3.053721970216251996e-02,1.577642609488302816e-02,7.230980775228453179e-03,2.336211502480573313e-02,1.627409458160400391e-01
-4.232170482071157674e-02,-1.818486117838775118e-01,-3.751806974336707734e-02,1.071873884119658657e-02,1.021159062968848494e-02,3.003907530388447850e-02,1.533806025981903076e-01
-3.823929819896970672e-02,-1.858253007774871013e-01,-3.178436937709692989e-02,1.053407211222777071e-02,8.001399170203406241e-03,1.222168779396352184e-02,1.541071981191635132e-01
-4.104988563487200343e-02,-2.026082072216264240e-01,-3.194422177753346304e-02,8.513582595324614699e-03,8.630081354830475282e-03,1.010797582211683809e-02,1.685303896665573120e-01
-4.734018787686547491e-02,-2.125031756895947033e-01,-4.900037631754088074e-02,3.657145793362271595e-04,-1.849713680797955345e-03,-1.586899772739618129e-04,1.643718630075454712e-01
-4.014367655570849625e-02,-2.013367213328300931e-01,-3.756615671154080877e-02,7.932748058081239353e-03,5.392919212078724732e-03,6.821181742504438955e-03,1.637710034847259521e-01
-5.315373261251390286e-02,-2.152790176687902068e-01,-4.538981051670264166e-02,7.519977604254737824e-02,1.947561602251249952e-03,-6.876347094931577024e-04,2.111431509256362915e-01
-5.005295993926742182e-02,-1.958525211862402471e-01,-2.554958953591948689e-02,3.108597025045971643e-03,1.472515113936313270e-03,1.427038802047598393e-02,1.614835411310195923e-01
-4.718436512122719390e-02,-2.013405693784885431e-01,-3.184465564565295420e-02,3.242207928339258319e-03,5.706277189228785469e-03,5.893692804244126011e-03,1.630876511335372925e-01
-4.738535206246712039e-02,-2.053460505054948426e-01,-3.010554450383248759e-02,3.064573966053917974e-03,5.044227757325358760e-03,5.358113993429256677e-03,1.678402274847030640e-01
-4.847613238913905942e-02,-1.871338163089129036e-01,-2.958346259854832683e-02,7.092317984200301011e-03,6.130156412696611580e-03,2.145981301505930222e-02,1.544270366430282593e-01
-4.483285851251772591e-02,-1.842176808330790450e-01,-2.742695148272662753e-02,4.277888120132756697e-03,6.323326066829062890e-03,1.138657273053744236e-02,1.507349610328674316e-01
-4.701077403072918132e-02,-2.131103770281309040e-01,-5.034126466992968479e-02,-1.124490583384006159e-03,-2.583194141935315417e-04,-6.127307957662732124e-04,1.644752174615859985e-01
-4.611851883686805820e-02,-1.942297967657279911e-01,-2.844689288066414717e-02,3.295606085935804015e-03,4.513878781440131167e-03,4.461964564601834590e-03,1.581772416830062866e-01
-4.890971955384890851e-02,-1.891061766802491217e-01,-2.795720628324575158e-02,8.815669452991736505e-04,4.445613685282265998e-03,7.595067338725544626e-03,1.525326222181320190e-01
-2.405427267619530962e-02,-2.009372201691925763e-01,-4.997638421887690141e-02,1.024076057149796897e-03,2.778672846171331939e-04,6.077552305486385274e-05,1.654622107744216919e-01
-4.990562242765620576e-02,-2.013090989624414240e-01,-2.388475310369399252e-02,2.814589753884767619e-05,7.838671627910837221e-04,3.476694768125673102e-03,1.660658121109008789e-01
-4.781940163665000104e-02,-1.955035390459385902e-01,-2.313872911142987598e-02,2.103310452403930018e-03,5.943570824594401159e-05,1.575468743160973305e-03,1.615097969770431519e-01
-4.941848406616233813e-02,-2.035957112634793065e-01,-2.498557896552774937e-02,1.954312840627536914e-03,1.854162716711042205e-04,3.417767214775910539e-03,1.678725332021713257e-01
-4.915769628325863949e-02,-1.925002228840536900e-01,-2.703917559760551925e-02,-3.567255266346357374e-03,-1.163652014120542455e-03,1.220671733964893459e-02,1.571498811244964600e-01
-2.698966917086081940e-02,-2.049710607492851167e-01,-4.608842315093590603e-02,1.524009500070729181e-03,2.285885685921588712e-03,7.976793310780004413e-04,1.693146973848342896e-01
-4.889982517305359322e-02,-2.042445430684435570e-01,-2.602313389449197045e-02,-8.900033830013002675e-04,4.630127086939839952e-05,3.057573937713022310e-03,1.680462062358856201e-01
-4.802839204239234966e-02,-2.040980978673683777e-01,-2.653770093022905785e-02,-6.818172169925390980e-04,-6.446914598295012966e-05,3.015880000472864232e-03,1.679355353116989136e-01
-4.089931498653384678e-02,-2.091917832683516942e-01,-4.012091240711446877e-02,2.669378631835040263e-04,-5.225648403620409936e-03,-4.058056221050414074e-03,1.690724641084671021e-01
-4.020552396733514944e-02,-2.109257697740603565e-01,-3.924372552404587627e-02,1.605228457455036301e-03,-2.283060387751396480e-03,-1.143713419235715132e-03,1.712828576564788818e-01
-4.220699733822981525e-02,-2.057293559680291040e-01,-3.744669909946292397e-02,2.273065340845982409e-03,-2.902321564924326310e-03,-4.039995335311333605e-03,1.662238687276840210e-01
-4.382288921763995149e-02,-2.147001622667067400e-01,-4.154790053216102230e-02,8.326476286215371472e-04,-5.816204237747928281e-03,-6.541185924368114746e-03,1.726988404989242554e-01
-3.540505429163377099e-02,-2.059178211539450798e-01,-4.114839123314277536e-02,7.629693457394989831e-03,-5.605303755192269678e-03,-4.307161203941216668e-03,1.686796545982360840e-01
-2.428084452992465558e-02,-1.983958021089923529e-01,-4.957429145896904976e-02,2.945586644546092751e-04,3.955122510000392113e-04,-1.053794500041996431e-04,1.629496067762374878e-01
-4.242592021120972917e-02,-2.132105097515331615e-01,-3.667036523812342713e-02,6.461138515463435558e-04,2.489871411615262112e-03,-1.237888615809986043e-04,1.737911403179168701e-01
-4.239243409570061377e-02,-2.136899668079116632e-01,-4.218355007307500459e-02,7.807936068207871989e-04,1.016308243573844743e-03,1.567519965894600487e-03,1.714379489421844482e-01
-3.491484682634248687e-02,-1.919891096674717634e-01,-3.482761262864520618e-02,7.473525298436262641e-03,7.040732357488477255e-03,7.186976503450289572e-03,1.586104333400726318e-01
-4.152270716494318309e-02,-2.148519832815585784e-01,-4.022302392204222393e-02,6.438399580271350533e-04,5.886202012976908494e-04,3.215741107776392670e-04,1.739902049303054810e-01
-4.166568244801898552e-02,-2.144940635279493912e-01,-4.090774873419214530e-02,8.063875267312383679e-04,8.344621297966072805e-04,2.585877167031941232e-05,1.732202619314193726e-01
-4.964038563940384452e-02,-2.017288809144772710e-01,-3.165764915164880067e-02,7.941286160399755798e-05,-2.783037415391676709e-03,-9.207031184358343764e-03,1.626862585544586182e-01
-4.649152420895310417e-02,-2.067613642656478956e-01,-3.093471614015701199e-02,1.702586698977423540e-03,-3.227246582700395335e-03,-9.264553837484297213e-03,1.694672852754592896e-01
-4.951795692488926426e-02,-1.967502649145885796e-01,-3.044519712861484123e-02,1.664740181326716285e-03,-1.485907589496297332e-03,-7.412223940158681711e-03,1.582055985927581787e-01
-4.959066598034427009e-02,-1.823615188459727365e-01,-3.341469930345008360e-02,4.053379252134776782e-03,-5.191394740358693839e-03,-1.392648288371829517e-02,1.440466642379760742e-01
-5.097260077366200237e-02,-2.004257274623256757e-01,-3.243609000390854091e-02,6.030580836456671734e-04,-3.407814886932307875e-03,-1.136016889971921962e-02,1.608517020940780640e-01
-4.672997873204862845e-02,-1.980284758917852383e-01,-3.243682348623507655e-02,2.655361407798043343e-03,-4.942972334035648438e-03,-5.922760965418325148e-03,1.595548540353775024e-01
-4.235201463171848341e-02,-2.238603572549543452e-01,-4.271499505499599947e-02,2.612328169570219977e-03,3.649207190699940012e-03,3.604049544078000763e-03,1.816009879112243652e-01
-4.860767190209303729e-02,-2.075416007436136634e-01,-2.866605717585755941e-02,-1.219198728272403217e-03,1.873731366991225177e-04,-4.328340144474346189e-04,1.698004305362701416e-01
-4.689540500714725613e-02,-1.967048575824626166e-01,-2.932155341812297394e-02,-9.112388905311470666e-04,-1.976086987717961185e-04,-8.286675653330390079e-03,1.599783003330230713e-01
-4.901453405355409715e-02,-2.076499960446380466e-01,-2.911447561807684048e-02,-3.691663656471734370e-04,-2.633272317524821843e-03,-1.697281427411977475e-03,1.695521473884582520e-01
-3.023322620829278773e-02,-1.553092301563346322e-01,-4.465145733743743073e-02,-2.095032474395002245e-02,-4.093596576510099769e-03,-2.516677934407243137e-03,1.242358237504959106e-01
-3.634245870830787178e-02,-1.738464597121760491e-01,-4.879639646074398346e-02,-1.565672099354294133e-02,-6.707571530238994918e-03,1.661819468115931578e-03,1.350134909152984619e-01
-4.282805578532965229e-02,-1.502042375271807340e-01,-5.681014878848722471e-02,-1.024844504559970643e-02,-2.555517702470689462e-03,2.620602617841827700e-03,1.028546839952468872e-01
-4.308992419539598578e-02,-1.441712220057123073e-01,-4.991490978145006474e-02,-1.286026217161878940e-02,-3.605149946138264290e-03,-7.532771152193715701e-03,1.013879105448722839e-01
-3.047878156781032299e-02,-1.840132216422588063e-01,-5.000534473639309252e-02,-6.080396979573694793e-03,-3.431614676971451484e-03,-7.085230978708398429e-05,1.452665328979492188e-01
-3.319146416155875634e-02,-1.957617047557618228e-01,-5.602371482502360722e-02,-8.460417885366989382e-03,4.139176429097591496e-04,3.436154084017744442e-03,1.532619446516036987e-01
-2.981810118189493625e-02,-1.826538397886762199e-01,-4.761393347968874423e-02,-4.999171417274617807e-03,-1.995546460574544167e-03,3.227170626630199352e-04,1.450615376234054565e-01
-3.621080048218094927e-02,-2.052544030032434352e-01,-3.796270824437981972e-02,1.109239668492567436e-03,3.407153908770534523e-03,1.144442815927500332e-03,1.683006435632705688e-01
-5.083194092021663113e-02,-1.594950745986833396e-01,-4.764375435748199189e-02,-2.044332553925607560e-02,-1.071021345171526036e-02,9.854592956886329413e-03,1.185475960373878479e-01
-4.534408661965273063e-02,-1.847316006240705688e-01,-5.027718903254994876e-02,-1.404605186922278440e-02,-7.263458229280558495e-03,4.281588819357889930e-03,1.398954838514328003e-01
-5.060689439477390750e-02,-1.662498051625989071e-01,-3.794879308382686361e-02,-2.454470763555150620e-02,-9.569966026054300273e-03,2.316469842119090253e-02,1.367085278034210205e-01
-3.557633702198598896e-02,-1.804228708141146775e-01,-3.971333731790576554e-02,-1.335325957988768575e-02,-8.745098668138840889e-03,5.692407321495110938e-03,1.458079963922500610e-01
-3.939063120079482061e-02,-1.834861287737902802e-01,-4.275761257018829975e-02,-1.976357210816340193e-02,-6.504580020431403355e-03,1.080952985211817118e-02,1.481180042028427124e-01
-3.684601708526299285e-02,-2.048127046430947562e-01,-4.585978336495457469e-02,-1.235582950183846014e-02,-8.485911403268929162e-03,3.911429718668629936e-03,1.658311635255813599e-01
-4.053785579949041595e-02,-2.121854489823291612e-01,-4.525510628939587859e-02,-7.120439743714362772e-04,1.758029770493613067e-03,5.650211791797211600e-04,1.693729460239410400e-01
-4.483533759725361750e-02,-2.243159301251606563e-01,-3.977322141537742439e-02,-3.355203071640625902e-03,3.395051008227607890e-03,-5.195373123145318253e-03,1.824740767478942871e-01
-4.260476370103235405e-02,-2.207472922682104099e-01,-4.563999773286591538e-02,-7.427725700215707938e-03,3.495336134533149740e-03,-4.530531071141613727e-04,1.772175282239913940e-01
-4.879768374336938830e-02,-2.232073854562022508e-01,-4.409623558160472023e-02,1.348872185712940777e-03,6.130160180873678397e-04,7.860360167589524553e-04,1.768311709165573120e-01
-4.080587724940094169e-02,-2.108264561992358455e-01,-3.890225620881469781e-02,-1.353032137405635327e-02,6.478313889458442096e-03,-1.924613162741625055e-02,1.761267483234405518e-01
-3.684184618080119100e-02,-2.090922989383971198e-01,-4.974611204004631554e-02,-1.326525117790190202e-02,7.325013925649140681e-03,-1.296266431196838737e-02,1.697260588407516479e-01
-3.860739081891344932e-02,-1.966879750169867602e-01,-4.870056803721860977e-02,-2.089380874938428362e-02,9.051250651609209566e-03,-1.184707227051261594e-02,1.596004217863082886e-01
-3.671762543512835375e-02,-2.070322420234665117e-01,-4.502799161828855562e-02,-5.664248002444521347e-03,-4.068006271890244573e-03,2.112214989270686048e-03,1.667933911085128784e-01
-4.325302615643809162e-02,-2.078272483205679810e-01,-3.282181572349899407e-02,-6.397511224481506990e-03,-5.432179492296383000e-03,4.753767609556948208e-03,1.708487570285797119e-01
-3.376712015367649283e-02,-1.928287538173234505e-01,-4.050723990738249597e-02,9.076217401363041032e-03,7.625725427117219929e-03,1.027192033992843992e-02,1.581520289182662964e-01
-3.821750412262119034e-02,-1.667838971113704272e-01,-3.842878358036622838e-02,1.871352725911684320e-02,9.265225462600383544e-03,1.098136986425459968e-02,1.348039060831069946e-01
-3.536440730423896783e-02,-1.740139528626384324e-01,-4.892426489350135133e-02,1.366177087371152864e-02,7.448560761353938998e-03,1.043350622651761928e-02,1.363101154565811157e-01
-3.002754855984124394e-02,-1.800207608279748572e-01,-4.610520076597172251e-02,1.150942121611927063e-02,7.931038420504802483e-03,5.535553022457187500e-03,1.449929177761077881e-01
-4.873967020879187845e-02,-2.093548222701287487e-01,-4.826835260407974504e-02,3.534977025274816439e-04,-1.629259841740456722e-03,-4.614359362120344405e-04,1.608792245388031006e-01
-4.838776932470511410e-02,-2.110483296121113128e-01,-4.859908105939469286e-02,1.097823899666887804e-03,-1.566060734521558355e-03,1.086789428800737436e-03,1.625996530055999756e-01
-4.681777111448071071e-02,-2.246675566351281073e-01,-5.092064620576276790e-02,5.377448099557639860e-03,-1.563379786165371241e-03,-6.726638328126777005e-05,1.761016249656677246e-01
-4.920652665313827306e-02,-2.129794604171350025e-01,-4.676695082399222325e-02,1.206805901825831273e-03,-1.987229674760911287e-03,1.112205418051033252e-03,1.650666147470474243e-01
-4.945201544729414811e-02,-2.115450713142863481e-01,-4.856362751022580415e-02,1.536742501284715573e-03,-3.663287265821676617e-03,-1.187260704595302120e-03,1.626976430416107178e-01
-4.782159275017598687e-02,-2.126138019914587951e-01,-4.649776056289780385e-02,1.324218857767350257e-03,-6.085339827342052879e-04,1.356535324033366838e-03,1.654940247535705566e-01
-4.743512173658732262e-02,-2.110403552981373609e-01,-4.967365886184062912e-02,4.560901013027839567e-04,-1.684694295406518726e-03,7.571926402102940228e-04,1.625309437513351440e-01
-4.666839744110372334e-02,-2.143331431200838355e-01,-4.699828607646341222e-02,2.536618929735943648e-03,-1.256670523455278134e-03,2.608113361390492629e-03,1.676326692104339600e-01
-5.180477175226506914e-02,-2.231976369138465865e-01,-4.800958221634100964e-02,-3.252127638702831565e-03,-1.645264360399471349e-03,1.514041238264307631e-03,1.734563708305358887e-01
-2.896016940818828267e-02,-2.087043102666329142e-01,-4.696718056193099206e-02,3.217943487522425660e-03,2.169818986093550138e-03,1.025754369130670073e-03,1.715922504663467407e-01
-4.476955337470179402e-02,-2.198449578036351937e-01,-4.617320236084148516e-02,1.352738093787799714e-04,3.985659529471132856e-04,-1.336900872904276663e-03,1.743947118520736694e-01
-2.971163520896760030e-02,-2.022222304056795483e-01,-4.256135491082674999e-02,2.412007300689898194e-03,3.999728833359268015e-03,1.178845336973080495e-03,1.666671037673950195e-01
-4.548466662624740114e-02,-2.156840629031035461e-01,-5.123538278251436873e-02,1.592539846519325794e-03,-2.347625818249396076e-03,1.279645413132721437e-03,1.674848943948745728e-01
-5.424932796020434655e-02,-1.730000314469276324e-01,-5.611104006186010823e-02,8.441867375866451972e-02,4.503471824382368136e-03,-3.915281364349909587e-02,1.998082250356674194e-01
-4.611642595101349273e-02,-2.105749035353258192e-01,-4.700812936098484190e-02,-1.198960986813595204e-02,-2.817558671191240129e-03,-5.433064760465794538e-04,1.653985828161239624e-01
-5.064564088343953552e-02,-2.511219638806652110e-01,-5.379234488474515796e-02,-4.903362099094734456e-04,-3.883969123509654030e-03,-5.066045775796270464e-04,1.990391016006469727e-01
-4.980142067857062232e-02,-1.922722995422413428e-01,-4.526082694004422008e-02,-6.067463274894899748e-03,-1.105816417531206054e-02,2.392089580272379820e-02,1.521820873022079468e-01
-4.269307519351682456e-02,-1.750093184844337957e-01,-2.774378456082649685e-02,-4.926381920190773048e-03,-3.940947783913594828e-03,2.826092517227637643e-02,1.490789800882339478e-01
-5.741567593140842196e-02,-1.426575016313964550e-01,-4.209595381155906146e-02,-2.240805979067642117e-02,-9.309241070751244490e-03,2.006265817957450515e-02,1.085385829210281372e-01
-5.088114327551897936e-02,-1.713086924230935171e-01,-3.172781706229522297e-02,-3.522607914274457006e-03,-4.143072230488737719e-03,1.549513635384921519e-02,1.341091096401214600e-01
-5.610889836092292082e-02,-1.339129352357102676e-01,-3.793983331254088820e-02,-1.969760508206637797e-02,-8.368783440405438978e-03,1.886030974527994064e-02,1.011851802468299866e-01
-3.705651248804726905e-02,-2.109263323293986137e-01,-4.636271938411530569e-02,1.756674683440408516e-02,5.690033038457159055e-03,1.553276256215705212e-02,1.744876801967620850e-01
-4.229162523608910595e-02,-1.597641068901473616e-01,-3.945966494059320595e-02,-1.168904062275344900e-02,-1.057523876570232689e-02,1.989614324472658430e-02,1.267811506986618042e-01
-3.458284630999351739e-02,-2.062422749055058957e-01,-4.832500705694964260e-02,7.955024248429677647e-03,3.021783827803879805e-03,2.635770083240094458e-03,1.659364849328994751e-01
-3.125508932623530245e-02,-2.063718352466081263e-01,-4.711094397520824983e-02,2.459893681778796068e-02,5.515372268794152891e-03,5.203975659229696446e-03,1.735755801200866699e-01
-2.992413031206352103e-02,-2.098466143393495353e-01,-5.037156359842664965e-02,3.418308667367143949e-02,2.596689711389004243e-03,4.466566984645593840e-04,1.806585788726806641e-01
-4.236441165171739298e-02,-1.785373312480975638e-01,-3.042811263497621072e-02,-4.050440152333452046e-03,5.727458717483125371e-03,-1.696929520233127903e-02,1.460220515727996826e-01
-5.034912356910768022e-02,-2.185850809443352083e-01,-4.083131136627008578e-02,-2.681074446132688822e-03,5.843374627201893858e-03,-2.270302734741761613e-02,1.779478788375854492e-01
-4.638861816302704277e-02,-2.017868030594209550e-01,-3.174742297791107587e-02,-4.258450959219081330e-03,5.866218284501521600e-03,-9.441947629936019160e-03,1.645091772079467773e-01
-4.707211784715019387e-02,-2.085882056013620700e-01,-3.419524407149689138e-02,-6.088275823208234416e-04,2.641108511857965819e-03,-6.065738889910353079e-04,1.683930605649948120e-01
-4.285595250486581159e-02,-2.136579919613406098e-01,-3.447082284196480162e-02,-4.624469520288004495e-04,4.535472204511309391e-03,-4.509137722687503458e-03,1.754969954490661621e-01
-4.917728928153926315e-02,-2.116322528780298362e-01,-3.954409789000216946e-02,-3.033185624738194645e-03,1.002252645001977527e-03,-4.200891958601756133e-03,1.677287369966506958e-01
-4.696108570022639039e-02,-2.123147340417531614e-01,-3.740654203875296013e-02,-8.269993049755771557e-04,2.207762413227238284e-03,-1.289501084583014826e-03,1.703955978155136108e-01
-4.289583914691821181e-02,-2.093191446337344663e-01,-4.018152209404959180e-02,1.015974357490773096e-03,5.047409872216348722e-03,-1.511888559128744033e-03,1.680541336536407471e-01
-4.366949889083851510e-02,-2.100312929054056199e-01,-4.539462221878434733e-02,6.677035307951499805e-04,2.850800972580462903e-03,-2.137863144551399759e-04,1.655840724706649780e-01
-3.382970209520025362e-02,-2.096245995322402744e-01,-4.785306239919680238e-02,1.768501751997080831e-04,1.725516316937987429e-03,8.918071068195063600e-04,1.692532896995544434e-01
-3.710020944839413637e-02,-2.141765201511743322e-01,-4.438578063167142318e-02,1.178341189957333654e-02,1.330722297145604891e-03,2.137599255556753286e-03,1.747986376285552979e-01
-2.763714401514675428e-02,-1.839798538163598396e-01,-4.283472180214985270e-02,2.510198881433274923e-02,6.057154623573051191e-03,7.990224766925842909e-03,1.564925163984298706e-01
-2.938316139273097760e-02,-1.915107379407751942e-01,-4.621902626211354947e-02,9.271776927462491158e-03,5.700562760352541510e-03,3.864838819704027092e-03,1.556901931762695312e-01
-3.908890223442024192e-02,-2.086579428957731353e-01,-4.675237707085762306e-02,1.111167151115104168e-02,5.669323360785395900e-03,3.713896410054220130e-03,1.673950701951980591e-01
-3.675149489151829235e-02,-2.158029655122857271e-01,-4.431893142334075025e-02,6.905313843420335905e-03,5.877363227934622597e-03,5.608394712058348969e-03,1.763597875833511353e-01
-3.195937577631289411e-02,-2.064323693956429118e-01,-4.477015698283408340e-02,7.740113000081450759e-04,-1.127633819375074148e-03,-8.168872160977533802e-04,1.684559881687164307e-01
-4.225508810804840670e-02,-2.118958376181417080e-01,-4.308806393509831412e-02,-1.031211127337253132e-03,-1.201365524785747438e-03,4.939237438285891976e-05,1.692480444908142090e-01
-4.500342794120471002e-02,-2.124790543575034996e-01,-4.421365300725699221e-02,1.779215796359905110e-03,1.022337166479587393e-03,3.349378928884712715e-04,1.679105311632156372e-01
-4.841740020309059922e-02,-1.988160587335782992e-01,-3.190861508779748584e-02,-4.016612559260819212e-03,4.539904933636016576e-03,-6.650314683388065806e-03,1.600565761327743530e-01
-4.615833928133677294e-02,-2.176578459165909307e-01,-3.503178216958577340e-02,-5.528298084067684304e-03,7.466396108846848345e-03,-3.038927706868028381e-03,1.781311631202697754e-01
-4.312441132292201690e-02,-2.118716270819441805e-01,-3.711726966524014210e-02,-1.926572700705950171e-03,4.252065878168947467e-03,-8.743445176351828619e-04,1.720263510942459106e-01
-4.433680837056168389e-02,-2.181071937992023480e-01,-3.720290669411063789e-02,-7.818845565701633806e-04,4.439967874651734245e-03,-3.035114864972393730e-04,1.776174306869506836e-01
-4.765027957779269241e-02,-1.928528263915905705e-01,-3.603674458425500104e-02,-2.829200595226699123e-03,6.439682746440722125e-03,-1.019470963022044152e-02,1.528567522764205933e-01
-4.312323947144729858e-02,-2.127222115593150331e-01,-3.699328672487556952e-02,-1.720128851395211732e-03,5.194273345356111883e-03,-2.039919417464276102e-03,1.730413883924484253e-01
-4.411871443589047981e-02,-2.083210029275206210e-01,-4.709249398566538874e-02,3.142507821884132913e-04,1.264865436685023157e-04,1.163620360863231945e-05,1.627368330955505371e-01
-4.335374516956290447e-02,-2.146919212286122758e-01,-4.299200518204980559e-02,-6.320153930500073056e-03,-4.048601475959003743e-03,2.217238370146122801e-03,1.720541715621948242e-01
-2.529514077244011949e-02,-1.736056064538920030e-01,-4.533469466604576198e-02,1.763387458962673363e-02,-4.973593035818691874e-03,-2.978144346537183341e-03,1.430355906486511230e-01
-3.052778650058241006e-02,-1.994806778452042906e-01,-5.918103815776080967e-02,1.773394943253705364e-02,-2.119777809942083660e-03,-3.981759210609985694e-03,1.597797274589538574e-01
-3.026453106234168466e-02,-2.101796427081765450e-01,-5.222232819039092366e-02,5.948412509796945254e-03,-3.305693249990745292e-03,-4.529935663796128865e-03,1.705917567014694214e-01
-4.474298555536816713e-02,-1.642353649370516533e-01,-4.757326340347399485e-02,7.020999225061100302e-02,3.205418681498921341e-03,-9.878871592018594744e-03,1.704704463481903076e-01
-3.342636808708608631e-02,-1.913078215245063163e-01,-4.457363318591057305e-02,3.876840713367579738e-02,-4.869140570814946625e-03,-1.567699145425672375e-02,1.691397875547409058e-01
-5.770557364353305629e-02,-2.179772260272250239e-01,-5.381316675082314926e-02,7.840660261495385752e-02,-1.694887481472936780e-03,-5.850751968925729102e-03,2.118492275476455688e-01
-4.020521931973100593e-02,-1.689221864353760982e-01,-6.537622620251162808e-02,2.968618206726127140e-02,-5.887792926156040080e-03,-6.118330029981001138e-03,1.296989172697067261e-01
-4.107126402563288092e-02,-7.673226776720840081e-02,-4.980565442832673301e-02,5.241840392760171302e-02,-2.672504408616094545e-03,-4.452105648907318108e-03,9.674955904483795166e-02
-3.701291210237016988e-02,-8.516423192555831745e-02,-4.107843871493095655e-02,5.292666739437792284e-02,2.644770351713721795e-03,-2.703816798721801317e-03,1.028879508376121521e-01
-3.097919079886904403e-02,-2.196203297745297489e-01,-5.595671966201783837e-02,2.935957587166787217e-02,-3.258273787530472157e-03,-8.637240149361371383e-03,1.853083223104476929e-01
-3.726264385958071718e-02,-1.623847715489959986e-01,-5.310724824704680935e-02,3.010483406940491977e-02,-6.991129696961367532e-03,-1.791105740642308375e-02,1.332367658615112305e-01
-4.633701060620182971e-02,-2.081866322177602924e-01,-3.235444699090798959e-02,-4.066910306413244790e-04,-1.322309864142673461e-03,-2.040547103154335962e-03,1.693284362554550171e-01
-5.192213560738262457e-02,-2.121495024419619013e-01,-3.207901706876599424e-02,2.388244002832594706e-03,-2.082269668671905046e-03,-9.781416866420967332e-03,1.719392836093902588e-01
-4.369484507090661690e-02,-2.107879109393052675e-01,-3.337903782210779879e-02,-8.987871861310274871e-05,-2.309557485222905101e-03,-6.888640078240918212e-04,1.725330650806427002e-01
-4.480503444971356553e-02,-2.054278902457187805e-01,-3.438446045004830975e-02,8.714380110726260929e-04,-5.954288411753065093e-03,-5.252031666091293120e-03,1.666537225246429443e-01
-3.965682591133667945e-02,-1.798171228723050852e-01,-3.113156496988311178e-02,5.200702920993143484e-03,-5.523386026322092864e-03,-8.094025019288063685e-03,1.458824723958969116e-01
-4.500155232316829096e-02,-1.653222067945102625e-01,-3.018161137516901793e-02,9.446080069326127232e-03,-5.184148724533729422e-03,-1.553914335776679888e-02,1.324860006570816040e-01
-4.670878559580490808e-02,-2.069413788916262820e-01,-2.892172604868289976e-02,-1.452107330893871555e-03,-2.979140821483639706e-03,-1.128590264584738078e-03,1.699344068765640259e-01
-4.721301815966091886e-02,-2.125938191791760801e-01,-3.700987398579666521e-02,-1.418619298760458516e-03,-5.134321102324224464e-03,-2.947792813944729185e-03,1.710365712642669678e-01
-4.921499590566968257e-02,-2.105417411631888558e-01,-3.152903432056614053e-02,6.137214718847548104e-04,-3.299962888394461329e-03,-4.747817735030772021e-03,1.711541861295700073e-01
-4.928790047564145932e-02,-2.045814913781435207e-01,-3.778646697507774543e-02,2.646666660214722837e-04,-4.221041228239073503e-03,-5.528909407053085937e-03,1.618018895387649536e-01
-4.934623627256869843e-02,-2.017953095079270953e-01,-2.999475000842698191e-02,-1.059858178749710023e-03,-3.006943084825235472e-04,-5.775163049659113451e-03,1.633065044879913330e-01
-4.411844418543502816e-02,-1.703317546396775073e-01,-2.923873890866699604e-02,-8.676279554368167323e-04,-5.130501636311200764e-04,-2.486233145046133977e-02,1.410201340913772583e-01
-4.863990153387716397e-02,-1.679552786040303392e-01,-4.459167801635965933e-02,-8.608428783133063172e-03,4.044529024706797204e-03,-1.437777177181226961e-02,1.250084489583969116e-01
-2.875051191085933183e-02,-1.925445553495218065e-01,-5.116464175171453466e-02,8.909874019542681628e-03,-1.596701733138814047e-03,-1.573512606247155776e-03,1.546376943588256836e-01
-5.529031851368284428e-02,-1.120267640840783285e-01,-5.452537839905097217e-02,-5.665449241312118644e-04,-1.508213781679165191e-03,-1.134568708308522633e-02,6.047288700938224792e-02
-5.088885242693257094e-02,-1.596092372248872626e-01,-4.944543347545737183e-02,-2.564020052314595552e-02,4.963503687744870788e-03,-8.282532375646536882e-03,1.192941889166831970e-01
-3.519955689461758130e-02,-1.893653851434691782e-01,-3.612341736841362394e-02,7.157843920042357075e-03,-6.771620027759541957e-03,-7.553605499486132704e-03,1.552029848098754883e-01
-5.068520332632632519e-02,-1.549876697197761222e-01,-4.990158884369813586e-02,-1.161396676277450316e-02,7.900375305291031450e-03,-9.403280598589674327e-03,1.087130010128021240e-01
-4.776016313951588627e-02,-1.599312420437886684e-01,-4.321409701983860985e-02,-7.177048311191457260e-03,3.799889252659372028e-03,-1.338192522039937347e-02,1.176776513457298279e-01
-5.386908725903598316e-02,-1.815194632692967436e-01,-5.163020408948749973e-02,-1.689433528955018929e-02,6.062095198903863849e-03,5.882365305972983138e-04,1.324876099824905396e-01
-5.163844123417574150e-02,-1.847462315531081534e-01,-4.913143027344285541e-02,9.353649969447968421e-04,3.754985711188929542e-03,-2.382443651755812228e-02,1.407316923141479492e-01
-4.308680291179177446e-02,-2.007263024544785335e-01,-2.997911420113821834e-02,1.392061445318954448e-03,3.716240468266146773e-03,2.313020919676194408e-03,1.647774428129196167e-01
-4.937469566926781794e-02,-2.050728385322077574e-01,-2.849312638515225093e-02,3.085101628792978438e-04,3.101856456864254818e-03,2.141943327932700411e-03,1.672485768795013428e-01
-2.574639960040196740e-02,-1.721990241435903402e-01,-4.911535182527609900e-02,1.658512299617590641e-02,-3.417387821016259781e-03,-2.969512767151686033e-03,1.394945234060287476e-01
-5.614551659935190786e-02,-1.714562906548636467e-01,-3.398089726153629558e-02,-1.024427121674457682e-03,-2.410692767399785948e-03,2.851903082501811189e-03,1.280181556940078735e-01
-3.148896444714647386e-02,-1.985593058013769840e-01,-4.665129227556608082e-02,7.439320449700646647e-03,-4.850060033940404094e-03,-1.024429928359635138e-03,1.607761383056640625e-01
-3.374001945819320170e-02,-2.004876619970520912e-01,-4.336655237464902279e-02,3.055824713099507348e-03,-4.649129224375162656e-03,-3.984116277439919349e-03,1.625814288854598999e-01
-3.036647827943671912e-02,-1.833484197116475589e-01,-4.489065584864090908e-02,1.226784022339121732e-02,-8.278613232149694204e-03,-1.246671943788180484e-02,1.500528305768966675e-01
-3.536801508081044432e-02,-2.116583281739668476e-01,-4.520591220846015279e-02,3.438100340910832473e-03,-4.924398619084155437e-03,-4.106230908918992797e-03,1.720451265573501587e-01
-3.761353407370153501e-02,-2.054409853138213227e-01,-4.449026414506090238e-02,4.040791984935746851e-03,-4.593904173634789923e-03,-3.585721600981865449e-03,1.649548560380935669e-01
-5.183713257823215070e-02,-1.706531798762362107e-01,-2.825633511262982955e-02,3.226072920895898567e-03,3.660529899626097181e-03,1.740048469100176354e-02,1.358485817909240723e-01
-4.862855691708142108e-02,-1.946863618337963397e-01,-2.616101288919220336e-02,3.079845031122369330e-03,2.650160950717302122e-03,7.108699152721601432e-03,1.591237336397171021e-01
-5.059047095980558073e-02,-2.018668200888043551e-01,-2.669278343983078061e-02,-1.577547403967674360e-04,2.002208883948676521e-03,7.099961784529798016e-03,1.650276333093643188e-01
-4.569596307178261374e-02,-2.000164619091149565e-01,-2.966077992584564144e-02,4.955929032652996169e-03,3.928154646487902815e-03,8.945307158289183408e-03,1.640321016311645508e-01
-4.770986182171269019e-02,-1.891566664457668967e-01,-3.568211043867777071e-02,-1.008188197608290981e-02,-6.929761276884272882e-03,1.806571518919283109e-02,1.525819748640060425e-01
-5.172339865785434421e-02,-1.858779594883392672e-01,-2.898760128620952309e-02,-1.320957635611225752e-03,-1.043624904755238578e-04,1.762739638550592930e-02,1.500063836574554443e-01
-4.924750781851937320e-02,-1.710554203222279801e-01,-2.691690508676139459e-02,1.420965691443722319e-03,6.641595367056088786e-04,2.034455988629711026e-02,1.389422565698623657e-01
-4.916069896426696062e-02,-2.101883279973238983e-01,-3.201510158715008270e-02,-4.192524629446310602e-03,-3.798407313356240000e-03,2.995675215923357740e-02,1.782498806715011597e-01
-5.200884197509472728e-02,-1.911522394211669917e-01,-2.455464692932501913e-02,-1.769801355544958375e-03,1.480592694790258722e-04,2.188145000943546303e-02,1.593127250671386719e-01
-5.366441874514041310e-02,-1.472112627105437999e-01,-4.372220367229141813e-02,-9.993442572805913762e-03,5.610868219709472596e-03,7.394143681414659663e-02,1.630214154720306396e-01
-4.268561217922386963e-02,-1.265075245423211703e-01,-3.382874153663657790e-02,8.601074060051099729e-03,6.759582284068228232e-03,6.286622637069586017e-02,1.416420042514801025e-01
-3.479637950885389186e-02,-1.623791995210622785e-01,-3.692692725641408269e-02,2.423011541236018418e-02,2.206730336108277124e-03,5.421463183468211433e-02,1.631063371896743774e-01
-4.656096082869923269e-02,-1.268576250045555798e-01,-4.782577794154607709e-02,7.609962012842291963e-03,3.543214518853277876e-03,6.617311086171190349e-02,1.403411328792572021e-01
-3.786531743039824732e-02,-8.523831585733611382e-02,-3.805608729178820704e-02,1.102349013744185688e-02,3.358290123122562379e-03,5.858933043044339123e-02,1.137176975607872009e-01
-3.140316352433704383e-02,-2.141635313198889667e-01,-4.932993917802421663e-02,-4.617595981296133273e-03,2.127266228057913752e-03,-3.862623230477672462e-03,1.748391240835189819e-01
-2.962448719546156850e-02,-1.972256345764216712e-01,-5.085304558255082652e-02,-8.365426046411762045e-03,-2.410780350489982206e-04,1.195514493246149171e-04,1.587231010198593140e-01
-2.831211230334318429e-02,-1.952763003038392453e-01,-4.637214603674562341e-02,-8.060491711911846671e-03,8.756600086940429916e-04,2.845511256998265446e-04,1.593275964260101318e-01
-3.564422133240048585e-02,-1.984193564049143710e-01,-5.169008230487859290e-02,-1.019565082531916425e-02,4.073888990084078210e-04,-1.765987443690477049e-03,1.564067006111145020e-01
-3.688856860134353405e-02,-2.045608474324672743e-01,-4.071414875912800907e-02,4.004388915412063210e-03,-3.843275880182134372e-03,-4.994406248748590148e-03,1.662962287664413452e-01
-5.287918318227730757e-02,-2.152126231515843480e-01,-4.941476170483299207e-02,8.578301479507868398e-05,3.682860897813331532e-03,-6.716274309741282911e-04,1.642212122678756714e-01
-5.018609415780625471e-02,-2.097054453184541978e-01,-4.639232189472609208e-02,9.868127228924254419e-05,2.971167437906384150e-03,6.593023551434520381e-04,1.615357995033264160e-01
-4.948300760128317849e-02,-2.270950504038670714e-01,-5.113246227838483954e-02,-2.767949179349966753e-03,3.008935728709481120e-03,1.763713089461174774e-04,1.769351065158843994e-01
-4.775382932621147214e-02,-2.144556381243026832e-01,-5.191591320554104355e-02,-2.220575416766812165e-04,2.633926730738040366e-03,1.449168922788543793e-04,1.647240519523620605e-01
-4.883884572074359554e-02,-2.114526728958484036e-01,-5.179899705890324974e-02,-5.293823940517676779e-04,3.226137603569964856e-03,7.185702767889339763e-04,1.612583994865417480e-01
-5.599043377629707441e-02,-1.686263599221971277e-01,-2.814279373139529777e-02,1.909734810922698737e-03,3.140239964482041939e-03,1.832020884724488985e-02,1.328397691249847412e-01
-4.694410926279592861e-02,-1.972298950610915091e-01,-2.719780639173292880e-02,-1.507318083127856924e-03,-3.671195860607850861e-04,1.277373975382182884e-02,1.626039594411849976e-01
-3.953309921034979524e-02,-1.795775530920759033e-01,-3.408243396716795215e-02,-1.189414627436148966e-02,-6.805154511218975029e-03,1.751891209664231674e-02,1.479512602090835571e-01
-4.426047118900966471e-02,-1.992708715454983015e-01,-3.132871354272265263e-02,-1.132511780190980071e-03,-3.755045958913549517e-04,1.399558409086965223e-02,1.636823564767837524e-01
-4.780100032157855172e-02,-1.953870709290558283e-01,-2.666689363725789630e-02,-2.121932070413460637e-03,-4.326513335841324082e-03,4.477214150351854424e-03,1.596157848834991455e-01
-4.978497158585820648e-02,-1.996653831637638099e-01,-2.959458360868980065e-02,-6.660794655224318859e-04,2.637103061599841564e-03,2.423124200793283153e-02,1.663778424263000488e-01
-5.153266436241903115e-02,-1.609375733897588368e-01,-2.453834710489503218e-02,-5.354029851504100469e-03,-1.632554679779660983e-03,1.822688766258720450e-02,1.293912231922149658e-01
-5.097549692671544952e-02,-1.985496549822237666e-01,-3.213056259080197818e-02,-3.229676598712767199e-04,9.455250246192571650e-05,1.360185437418351406e-02,1.595921665430068970e-01
-3.403679663003103539e-02,-2.086238291778756970e-01,-4.912640133323575853e-02,-1.983813767954646645e-02,4.697326145979150575e-03,-6.663222893495599451e-03,1.716214567422866821e-01
-3.322620558818997760e-02,-2.060712968469115280e-01,-4.868862608131331593e-02,-7.942110408022576284e-03,3.477425379252478514e-03,-1.677873920066382755e-03,1.663606464862823486e-01
-4.571029690521380418e-02,-1.675295276911376863e-01,-4.950168084070635799e-02,-1.576439465123949391e-02,1.642689034727148152e-03,-4.346681129856740620e-03,1.232994720339775085e-01
-4.271404225076314010e-02,-1.947491133874411640e-01,-4.873586263972363997e-02,-7.322115489835807033e-03,7.689586135951599795e-03,-4.945703955060940134e-03,1.504892259836196899e-01
-2.982616968918148925e-02,-1.847926490527748711e-01,-4.467712470093299082e-02,-6.574110224926073623e-03,3.530301248438957352e-03,-1.400739792687120608e-03,1.486831903457641602e-01
-4.241453418761362282e-02,-1.546691456146805088e-01,-5.720515386637212152e-02,-1.643054015156633629e-02,1.891535836401314705e-03,1.866315140777508041e-03,1.095016747713088989e-01
-3.803686081390833529e-02,-1.683239856083506569e-01,-4.506603966677887041e-02,-6.456107118436139360e-03,7.206524150458980954e-03,-3.103152110801429310e-03,1.281330138444900513e-01
-3.678741488738110355e-02,-1.801553417709353400e-01,-5.190296643673993071e-02,-3.298258189467763403e-04,3.727895122183851745e-03,-4.092900521635575023e-03,1.367772966623306274e-01
-4.627791282023024921e-02,-2.398344297553656468e-01,-5.685083618582707776e-02,4.480922801461599374e-03,-1.854615159847188000e-03,3.098540356438529188e-03,1.887559592723846436e-01
-4.592204798786542197e-02,-2.492305394563809062e-01,-4.364327246482170575e-02,8.784944140696969959e-04,-1.011426736125111553e-03,1.423992172314188578e-02,2.059527635574340820e-01
-5.999238031260092918e-02,-3.565466813626165798e-01,-5.433329547736832910e-02,-1.975674127801686081e-02,6.771740856315319051e-03,-1.804850863443948489e-02,3.032169342041015625e-01
-3.749531743523849825e-02,-2.247998425394259758e-01,-3.336891882364619033e-02,-1.194691459457392947e-02,6.842021466157028990e-03,-1.891648889300976202e-02,1.936879754066467285e-01
-4.757183009091670023e-02,-2.272019858591177721e-01,-5.202282217259732860e-02,-2.702497575079865991e-03,8.349055354279025795e-04,-6.050517828195647093e-04,1.775172501802444458e-01
-4.340957061827349639e-02,-2.558345647322801675e-01,-3.804775257001083433e-02,-8.056711791331976763e-03,6.986901798062674328e-03,1.347276213701056879e-02,2.172046005725860596e-01
-4.066199125461686381e-02,-2.108468408250552817e-01,-4.147125668649136176e-02,1.501181511850493283e-03,1.897524064223648360e-03,6.064962091352319069e-04,1.698366254568099976e-01
-3.743370184161755321e-02,-2.106903147851901803e-01,-3.723225360158514269e-02,-2.751399207581351923e-04,1.571793829934954893e-03,1.598125519732140236e-04,1.733796745538711548e-01
-3.561632612679991455e-02,-2.058115142889518356e-01,-3.331991817654544885e-02,2.548214128498216009e-03,4.378598818600015069e-03,3.087507495113108250e-03,1.716627776622772217e-01
-3.605158144468871562e-02,-2.014689891146053125e-01,-4.018810613655525443e-02,3.816332443818824544e-03,5.828696130862655311e-03,3.068095807691815190e-03,1.639195829629898071e-01
-3.490059525225994164e-02,-2.082205439751074194e-01,-3.593282840243682691e-02,3.918714560492094802e-04,2.552120942132641603e-03,1.095159790561887935e-04,1.728641092777252197e-01
-3.594219587322621673e-02,-2.049941091568891482e-01,-3.753580398007045488e-02,3.027063203533187242e-03,4.494778139004789071e-03,2.301378836590170160e-03,1.685694903135299683e-01
-5.076612248948091793e-02,-2.411862431222407677e-01,-4.545975432221442680e-02,2.198692259243251786e-03,4.120597547631242585e-03,1.935668790731125133e-02,1.961833387613296509e-01
-2.596766085418703018e-02,-2.032052399358117156e-01,-4.855574368772514610e-02,1.750329318534334664e-03,1.415273449511739775e-04,-7.121920835969891951e-04,1.671247929334640503e-01
-4.534462568656336123e-02,-2.428830803011265416e-01,-4.226646041174582369e-02,1.263995229121954444e-03,-1.803583986355700337e-03,1.206398820837926988e-02,2.002252340316772461e-01
-4.622618896130770844e-02,-2.368807700004543215e-01,-4.151719229825372171e-02,1.668986502731848592e-02,3.857896625295424362e-03,2.295384417879217653e-02,1.993240565061569214e-01
-4.513103490150931207e-02,-2.445925231166971581e-01,-4.011272948066280097e-02,6.074862484581082175e-03,3.136330904919386927e-03,1.252012067469812119e-02,2.035227417945861816e-01
-5.314174538045299268e-02,-1.844988560405868561e-01,-4.119160374043418643e-02,4.631639935802302948e-04,-1.096314985620181447e-02,-3.743549043974656043e-02,1.534036993980407715e-01
-4.545628709169870219e-02,-1.834961530622780945e-01,-3.271285259185617578e-02,-1.496805006442144918e-03,-6.480521162907658221e-03,-1.044935247372297954e-02,1.464130431413650513e-01
-4.521736813245325060e-02,-1.919677029055001372e-01,-3.824080975853167558e-02,7.594304740062984491e-03,-8.111703341957201760e-03,-7.519474400666167728e-03,1.521452963352203369e-01
-4.368680868584860766e-02,-1.838761876627767744e-01,-4.415782928742052749e-02,3.644614878622350670e-03,-1.079672763713724129e-02,-1.104561768964712823e-02,1.426282823085784912e-01
-3.890341855524236114e-02,-2.065396117846319546e-01,-4.222205222415029158e-02,-3.256856084411207872e-03,-3.456055809768529118e-03,3.561180288315718683e-03,1.663198173046112061e-01
-4.408258194169206029e-02,-2.084423698165440153e-01,-4.728037862497287691e-02,-2.121658226929889953e-05,-3.632168279816382078e-05,-1.518800558864013715e-04,1.627846807241439819e-01
-4.760859368995929569e-02,-2.154182806450452570e-01,-5.064227863490327469e-02,-1.859751192047439522e-02,-6.934690356630439020e-03,-5.133248764939217848e-03,1.700621545314788818e-01
-4.137685389303741301e-02,-2.120616482206277298e-01,-3.699830108427733244e-02,-9.675041882727429890e-03,-6.196031761879487731e-03,1.764770944524350973e-02,1.767205148935317993e-01
-4.081315374537806268e-02,-2.103278710379246630e-01,-4.043814447284442559e-02,-1.809318022541443185e-03,4.358682183737193003e-03,-3.877159548940399460e-03,1.700319498777389526e-01
-3.596176826767335383e-02,-2.110155090265488087e-01,-4.550230851257577869e-02,-1.202885913882201056e-02,4.109420555296785030e-03,-2.377745072705775113e-03,1.719489246606826782e-01
-4.227323385877770207e-02,-2.205773334635219574e-01,-4.501764505470751826e-02,-5.701677591262136087e-03,1.856129921290288831e-03,-2.023663290688799130e-04,1.772527247667312622e-01
-4.027812558974401547e-02,-2.080949594334104702e-01,-4.451904235773064544e-02,-6.939830133142628997e-03,1.647180474231922220e-03,-1.212896849741363844e-02,1.675193607807159424e-01
-4.194714778233187003e-02,-2.066117284487329897e-01,-5.146242704775494392e-02,-2.362107427812239549e-02,3.790716359881238055e-03,-1.003446202345036932e-02,1.663044840097427368e-01
-4.822687146545175801e-02,-2.192945215499208234e-01,-4.860581797925424968e-02,1.915468316198552399e-03,-1.113930116707783583e-03,2.813872563014515465e-03,1.709910631179809570e-01
-3.776552293319891673e-02,-2.158683928671506491e-01,-4.250704603252042357e-02,-9.736205866055034491e-03,3.968494581507903823e-03,-1.859617082776820595e-03,1.767502129077911377e-01
-4.421549556866371383e-02,-2.185038459263433097e-01,-4.579294959412381211e-02,-2.183706963198423640e-02,5.043520737624201423e-03,-1.092157057266542400e-02,1.787979602813720703e-01
-3.252101434584309114e-02,-1.659462919721143015e-01,-4.455023771379888059e-02,-2.467095069008124961e-02,4.028930309452482747e-03,-1.347621925596338525e-02,1.369726061820983887e-01
-3.050133963424439543e-02,-2.076688504678619873e-01,-4.566279752125443347e-02,-3.807464395936350100e-03,3.934566152230797864e-03,-2.747413343579448511e-03,1.704249233007431030e-01
-3.283642947044377453e-02,-1.965265277577206426e-01,-4.376941940495231165e-02,-5.281272787270933390e-03,4.642539632346029052e-03,-5.977308574514449656e-03,1.593106240034103394e-01
-3.962425912500740222e-02,-2.054640146439862258e-01,-4.374817029610980623e-02,-4.635827853463956108e-03,8.593724003747419543e-03,-1.435139101562416496e-02,1.665528118610382080e-01
-4.178869478717092689e-02,-1.812997947070127125e-01,-3.915517924518879117e-02,-4.880146788413615780e-03,8.088713674971085080e-03,-1.840619400887773954e-02,1.453333348035812378e-01
-3.719899520014451760e-02,-2.166387811836380239e-01,-4.507670305313943998e-02,1.216500491430331544e-02,5.275651723475227768e-04,-9.037462134532083186e-04,1.769021451473236084e-01
-3.967919916568649757e-02,-2.098327451635652041e-01,-4.036948500211741397e-02,2.069390513321068756e-03,-6.459234274592535671e-03,-3.620392237756807786e-03,1.703308075666427612e-01
-3.942935376047292106e-02,-2.091727315922542185e-01,-4.166421465439364147e-02,6.276177564900078942e-03,-3.018806526118274561e-03,-5.808683666057694490e-03,1.693670302629470825e-01
-4.341763999544209773e-02,-2.136218288092622819e-01,-3.933867272403710619e-02,-1.070804263691425536e-03,-1.972110848709874957e-03,1.984210955999130260e-04,1.723240762948989868e-01
-3.068564331008935553e-02,-2.088661215070279631e-01,-4.706537786262706552e-02,-4.141486206998280491e-04,1.045857130143058302e-03,-6.256983607587484481e-04,1.705960184335708618e-01
-5.142023313965256304e-02,-2.127058079698337378e-01,-4.807440419645717805e-02,-1.562659856519440322e-03,2.703415521717977658e-03,1.664733774708121060e-03,1.630994528532028198e-01
-4.707029564356755152e-02,-2.201933112494140199e-01,-4.386450823796933518e-02,-1.632731992338002248e-03,-2.645420501917316192e-03,-3.367111142521336201e-03,1.749281436204910278e-01
-3.659177313225536049e-02,-1.784896388233648823e-01,-3.911821292460444799e-02,8.344981088154441659e-03,8.781365104649607733e-03,1.146521375001060238e-02,1.435879468917846680e-01
-4.209379282010598800e-02,-1.902182464259605799e-01,-3.542410954661160544e-02,4.878618647025453545e-03,7.424826635441923728e-03,6.579836411377062121e-03,1.527741849422454834e-01
-3.690259509374961555e-02,-2.098698188633158768e-01,-4.048295127270130217e-02,1.336200088266324866e-03,3.146225768682680331e-03,1.277601568344542606e-03,1.713217645883560181e-01
-3.873848480849671067e-02,-2.056683397214688624e-01,-3.127189328944127850e-02,2.766399688914849761e-03,5.035728239102071208e-03,3.878067059866755015e-03,1.712071150541305542e-01
-4.782605314428384907e-02,-2.094262332214780475e-01,-4.741319933397655784e-02,-1.523337795036956883e-04,-2.096615011264106696e-04,2.798614072379476682e-06,1.618076264858245850e-01
-4.050991321312735066e-02,-2.100033237862023450e-01,-3.874249017291522129e-02,7.241886379083062146e-04,1.686495310176889476e-03,-1.588996536235511687e-04,1.704138666391372681e-01
-3.984854393737732869e-02,-2.088253566372161862e-01,-3.543010755787998761e-02,2.408460552651194193e-03,4.750499907631088384e-03,1.257398957446457469e-03,1.714909523725509644e-01
-3.526147748630416301e-02,-2.089557958764967638e-01,-3.754210901541217560e-02,1.160164217593858283e-03,5.843041039877802656e-03,2.466961380792174856e-03,1.729262918233871460e-01
-4.302793233319252703e-02,-2.059767990823197503e-01,-3.475223729679352558e-02,5.892911471698977213e-04,3.700907785420882220e-03,2.433895367223300969e-03,1.674193441867828369e-01
-4.248711684899968144e-02,-2.069516762641716023e-01,-3.037552659773444519e-02,1.251368734783679529e-03,1.855101883169349777e-03,8.776042700693433354e-04,1.708933711051940918e-01
-3.994197586890860241e-02,-2.049732286074779641e-01,-3.598376306522429319e-02,3.318151558076544265e-03,3.717858495252545237e-03,2.726292038323861397e-03,1.673350185155868530e-01
-5.094418564936754878e-02,-1.989465351723294084e-01,-2.973467127008781741e-02,-1.162309444997301853e-03,-7.411721399775059432e-04,-6.392640701693003830e-03,1.600684076547622681e-01
-5.189239682295312961e-02,-2.019552648939005324e-01,-3.479640824936445359e-02,-3.628884451829688870e-03,2.531231307022572402e-03,-8.071437232509423923e-03,1.600961685180664062e-01
-5.350426964002867602e-02,-1.657184611575156785e-01,-3.126777985190282855e-02,-1.298990350616435231e-02,1.945383257423651154e-03,-2.089332943896132083e-02,1.319427788257598877e-01
-5.230862199575297966e-02,-2.167529893357454385e-01,-3.570616121024319800e-02,-2.513269197475348406e-03,3.620995111352937079e-04,-2.656346816964442331e-02,1.793989092111587524e-01
-5.706982191759190498e-02,-2.030107943402747750e-01,-3.560443225115991761e-02,-3.096930149716802232e-03,3.393599982520745500e-03,-7.946273262348264865e-03,1.585716307163238525e-01
-5.533206360450271255e-02,-2.390137465900206426e-01,-5.130713698019379043e-02,4.522188634889337836e-04,-3.282234353233887212e-03,-2.377066625542959173e-03,1.858611106872558594e-01
-4.663223906604803404e-02,-2.215663266210509130e-01,-4.726879547288376227e-02,1.803428301158570778e-04,1.049943908166884915e-04,-3.261898874767750044e-03,1.747084259986877441e-01
-4.816799072049691988e-02,-1.858610159095467340e-01,-3.554685994712391411e-02,5.811600979289023236e-03,-9.383826120531488929e-03,-1.379057257708200465e-02,1.476229578256607056e-01
-4.691127726788349439e-02,-2.448702969329848156e-01,-5.009544786601485833e-02,2.116176687744540565e-03,-9.496057593233870036e-04,1.425226019482537469e-03,1.964428871870040894e-01
-4.714261930486730173e-02,-2.092037853888249199e-01,-4.728119128439455671e-02,1.361947425628793945e-04,-2.276856685519205428e-05,1.592059557652553622e-05,1.619921028614044189e-01
-4.545953423883429545e-02,-2.022735192468480547e-01,-3.583721762107831138e-02,-1.505524620783424286e-03,-2.595875485885764441e-03,-6.462342515301393829e-03,1.623096764087677002e-01
-4.626921348132101430e-02,-2.282690970934392882e-01,-4.239926849724599822e-02,8.817166545442001874e-03,-5.021059795093617273e-03,-9.548027364230915123e-03,1.855414211750030518e-01
-4.792189274422458539e-02,-1.792676569813494991e-01,-3.435525255259407745e-02,6.859326874594243173e-03,-8.017696099752147018e-03,-1.170512051463899750e-02,1.412894725799560547e-01
-3.698017688509076806e-02,-1.939464638897531179e-01,-4.100093110252010786e-02,1.261051406804324093e-02,-8.679434710294297098e-03,-6.613396661074986103e-03,1.576633900403976440e-01
-4.599527452361099056e-02,-2.389815517009220291e-01,-4.983543433063401806e-02,5.686490979801496655e-03,5.374374836547959932e-04,1.531195680354033263e-03,1.913694292306900024e-01
-4.217042338659940381e-02,-2.201492730360224970e-01,-4.156258356680300053e-02,1.080784586727563147e-02,-9.628453539286853380e-03,-2.239441771893928984e-02,1.841686815023422241e-01
-3.489095221260248014e-02,-2.026803737781021353e-01,-4.408350540065398421e-02,9.620954363033343976e-03,-7.722058628044485735e-03,-6.347316110713333015e-03,1.651448607444763184e-01
-3.657427848131806353e-02,-2.068049601204933197e-01,-4.388592462488291601e-02,7.842155523822539123e-03,-6.812285378103322478e-03,-3.747059582303727005e-03,1.677889078855514526e-01
-3.710793895481171584e-02,-1.582048536220025114e-01,-3.818341674201930491e-02,1.470889390102446924e-02,-9.479412559526615573e-03,-2.325169185287545570e-02,1.306749284267425537e-01
-4.514921991433741566e-02,-1.610795916087369439e-01,-3.905305500214163728e-02,2.003617016665813766e-02,-1.131429825515934198e-02,-2.396696182997985064e-02,1.322700828313827515e-01
-3.684866948387442720e-02,-1.902294054310713078e-01,-4.367675101061747195e-02,7.409234644646680440e-03,-8.295590086430625065e-03,-6.623104198911717276e-03,1.517488509416580200e-01
-4.255858234788444106e-02,-1.822758643465084427e-01,-3.768029825181099662e-02,3.569094066442153081e-03,-8.190432951899995553e-03,-1.069666251125939507e-02,1.442533135414123535e-01
-3.472869070566276389e-02,-1.936550898877679172e-01,-4.229531627049222531e-02,7.173017487320171477e-03,-6.050037800802433342e-03,-5.097496162126026117e-03,1.563791483640670776e-01
-4.092155732845784155e-02,-2.334285521601375257e-01,-4.477778325378197616e-02,3.819315938784703657e-02,2.327311731414368617e-03,2.110002319516954272e-02,2.050841301679611206e-01
-4.454576781860393464e-02,-1.940551165089301477e-01,-4.356143085336209447e-02,7.406397475414790328e-03,-9.185389664076466093e-03,-9.562247631448941160e-03,1.522930413484573364e-01
-4.077421777779120793e-02,-2.090155991857658158e-01,-4.016573558500437929e-02,4.899933895887224194e-03,-3.700897472540792821e-03,-4.867206693411466056e-03,1.690919548273086548e-01
-3.638851424908025323e-02,-1.966274988256973277e-01,-3.763344871454551294e-02,7.467750858457320416e-03,-6.823915044784922140e-03,-8.533304281699145150e-03,1.612576991319656372e-01
-2.517956071448650135e-02,-2.021491529343145133e-01,-4.804837443006244879e-02,1.070267650627695563e-03,1.464646132397849632e-03,3.607199157632651459e-04,1.667465120553970337e-01
-4.635836562842152175e-02,-2.140438617770273333e-01,-4.519433433143892065e-02,-1.826272065860965214e-03,3.622707636433674392e-04,-2.471827287166968382e-03,1.683558821678161621e-01
-4.424242651265061776e-02,-2.166998331813598799e-01,-3.995891464638110652e-02,1.817103522896854973e-03,-5.491510911274355249e-03,-5.846505311285347430e-03,1.752185821533203125e-01
-5.090379709757033438e-02,-1.657492794550062820e-01,-4.750659237496406007e-02,6.454522545004755252e-02,2.100595278133951006e-03,-1.395443268730697448e-02,1.633611172437667847e-01
-3.935102342912819018e-02,-2.055332039091133933e-01,-3.926586761150975546e-02,7.395853106083340438e-04,-6.385340634121603083e-03,-1.899849724058782661e-03,1.666297167539596558e-01
-4.273887844073478992e-02,-2.186163314461444518e-01,-3.987358405111902232e-02,8.589750717360484112e-04,-3.719112614214492313e-03,-4.186138553975604810e-03,1.775987297296524048e-01
-4.871529883078308532e-02,-2.131403218697886515e-01,-4.089680073447374969e-02,6.335798145271308128e-03,-8.867775127105950381e-03,-8.093504147821797834e-03,1.701032817363739014e-01
-4.139456169828638343e-02,-1.833777399377103379e-01,-3.456025203522481576e-02,4.774693387485930487e-03,7.011760904227930941e-03,7.626930137217963201e-03,1.468559950590133667e-01
-4.389839884745160015e-02,-2.105743146010806144e-01,-3.558251950620069243e-02,2.185355897597853945e-04,3.913798036257155714e-03,3.412118216335571427e-03,1.712223589420318604e-01
-4.647952657771552143e-02,-2.278910782693724379e-01,-4.473205425627048426e-02,8.212273759569326675e-03,2.387245117003747048e-03,3.665799677900081089e-03,1.830026060342788696e-01
-4.503991440171108834e-02,-2.193336065136125834e-01,-4.360615356349328148e-02,2.332028056506289110e-03,1.553477378496541123e-03,2.767696420297194662e-03,1.751478761434555054e-01
-3.449770083741681564e-02,-1.994667728903360415e-01,-3.894326004021914783e-02,2.649659703241593386e-03,6.647204482320335020e-03,2.234949025030442092e-03,1.633088588714599609e-01
-3.476992143450931966e-02,-2.087327008854233945e-01,-4.024112686025762414e-02,6.232781904503100412e-04,1.368073055853300315e-03,1.785014729999625117e-04,1.713127940893173218e-01
-4.359803179920732075e-02,-2.069087970551596323e-01,-3.371734061452991149e-02,-2.441345482328649119e-04,-2.133483459696173309e-03,1.384616287866700284e-03,1.685266792774200439e-01
-3.806522096412762873e-02,-1.880661797533419999e-01,-3.367413336229355125e-02,5.718324592256780400e-03,6.809146662835790023e-03,6.147807617186656741e-03,1.533910483121871948e-01
-4.110198239798095593e-02,-1.995055977062250019e-01,-3.348827895809316363e-02,3.432301649519561848e-03,5.627026721964836255e-03,2.697871599587530790e-03,1.628124117851257324e-01
-4.039592781785289466e-02,-2.125161441075071878e-01,-3.540690879949751763e-02,9.686897309555563343e-03,7.646595199392780019e-03,1.382899171381746575e-02,1.775939464569091797e-01
-2.413421610213249691e-02,-1.906315349544943916e-01,-4.531618289314794101e-02,5.790697589216040574e-03,3.261819455861449720e-03,2.627596251187158151e-03,1.574691087007522583e-01
-3.079565127223537341e-02,-1.865739564432050690e-01,-4.449272663524885679e-02,1.498650474904550389e-02,8.159688821379556395e-03,1.562689481090943260e-03,1.523208320140838623e-01
-4.591604588237425955e-02,-1.230877032104239766e-01,-4.873451850311202871e-02,1.110445633565995509e-02,3.752073249560909565e-03,1.918764615776859944e-02,8.522065728902816772e-02
-3.618019838483696460e-02,-1.690055085043380978e-01,-5.348066599157418749e-02,1.199993735564592462e-02,5.365233537308596555e-03,4.918048249200094972e-03,1.274160295724868774e-01
-3.731295581729031363e-02,-1.561522735073193058e-01,-4.706485288402047218e-02,1.761308767207517972e-02,7.654164755555962173e-03,8.201393131920874796e-03,1.198631897568702698e-01
-4.371882677059616557e-02,-1.968959737103412322e-01,-4.038173508216852392e-02,3.656349142017809722e-02,1.902439955494735760e-03,1.423245112860727080e-02,1.691589653491973877e-01
-3.327400782373272914e-02,-2.097354573452439863e-01,-4.985658979726410173e-02,1.798734121343811138e-02,6.981744388291628682e-03,2.908403628415524422e-03,1.721327453851699829e-01
-2.220382417777891360e-02,-1.610393450402237137e-01,-4.701079610705444223e-02,2.963482742767893988e-02,3.690637550452288435e-03,-4.128261591397583072e-03,1.384675353765487671e-01
-4.175740486611091012e-02,-2.131989214406607158e-01,-4.219063542743944906e-02,6.518982450621910868e-03,9.635698484495108795e-03,7.405377944276115947e-03,1.728833615779876709e-01
-3.634289346971941725e-02,-2.074224766920664820e-01,-4.981970927866317955e-02,3.621184318339962932e-02,6.165169583035456577e-03,1.889753856710964242e-02,1.796204596757888794e-01
-4.061874921369274666e-02,-2.007957372069880120e-01,-4.762525002686494868e-02,2.975780966801270730e-02,9.056867829599149489e-03,2.559486767780661670e-02,1.716141998767852783e-01
-4.001329245093589171e-02,-2.087254581855133850e-01,-4.039624832310756419e-02,5.409554036148224616e-03,5.029781325939702841e-03,5.113532863815538690e-03,1.692378818988800049e-01
-4.216199958766618516e-02,-2.110470806069635885e-01,-4.295407885674951826e-02,-7.183420508250992981e-04,1.687493953461553396e-03,-2.810683379149744171e-04,1.685210764408111572e-01
-4.201746694221929201e-02,-2.110764598492995692e-01,-4.193852336662873270e-02,-1.142870896669952901e-05,1.974508807192687510e-03,7.682010989874317897e-04,1.691382974386215210e-01
-4.517049851670820043e-02,-2.110492411740661212e-01,-4.504887231775101669e-02,9.904451907110124742e-04,-3.413087633376195871e-04,3.504665019158278712e-04,1.659506261348724365e-01
-4.121561807160589730e-02,-2.108517630055817826e-01,-4.225960565122900692e-02,3.288354647881308124e-04,1.107859473982391197e-03,-2.675929684759269320e-04,1.691290438175201416e-01
-4.321820267285045314e-02,-2.109012416293501724e-01,-4.442026574366583769e-02,-8.529765635397370920e-04,9.169127704846152154e-04,-2.768940791312900305e-04,1.671000123023986816e-01
-3.970072597705281287e-02,-2.090167444842205569e-01,-3.842149387167934083e-02,4.360777092486563256e-04,-1.338918990088019088e-03,-8.287352784206743596e-04,1.699828058481216431e-01
-3.787848568536394261e-02,-2.091548323826755706e-01,-3.742472753404466751e-02,3.374927787105175964e-03,-3.688363307222527858e-03,-1.492543499788350717e-03,1.717416048049926758e-01
-4.249194295785357900e-02,-2.116700593669220698e-01,-3.462461963328079817e-02,8.439389105537528093e-05,-1.378487894548120979e-03,-8.494624600977752470e-04,1.732685714960098267e-01
-3.786373611991120103e-02,-2.119489016277041338e-01,-3.606118342776627045e-02,-6.047020977319190593e-04,-1.210209065433307061e-03,3.148362445995664372e-04,1.750099360942840576e-01
-3.897241931856965103e-02,-2.116013461701386489e-01,-3.747786845925531185e-02,-6.566499623502087797e-04,-2.302996249868229268e-03,-1.814526130623000325e-04,1.734309345483779907e-01
-5.120866502798598202e-02,-1.732977365371536349e-01,-2.478776464305470356e-02,-1.300345073603072048e-03,-4.011642096229415221e-03,2.463760455789652457e-02,1.438884884119033813e-01
-5.770742042886395362e-02,-1.656799418793325485e-01,-4.342077017307593295e-02,-5.248089600953236011e-03,-7.035680719262693127e-04,4.407141488372559590e-02,1.389810144901275635e-01
-4.704319602495311142e-02,-1.722123823812439225e-01,-3.036274686470963324e-02,-3.240541545832928329e-03,-6.095196213366797094e-03,1.606108313872911530e-02,1.376599967479705811e-01
-5.218282059413331675e-02,-2.094422009179485178e-01,-3.047334694125983234e-02,4.056467893586768181e-03,7.245936228565874257e-03,3.145147364739345197e-02,1.782983243465423584e-01
-5.039022421060251888e-02,-2.114796635316226470e-01,-2.814036120154989051e-02,-1.365803267964630155e-04,3.341621100011916631e-03,1.507007901057027220e-02,1.753395497798919678e-01
-5.274346817958160127e-02,-1.571166410068509101e-01,-3.882987192848080804e-02,2.862903102638900393e-03,4.659884842902189440e-03,4.724122881710966088e-02,1.390125453472137451e-01
-3.775208601497793276e-02,-2.014500895433924965e-01,-3.212765596904733345e-02,7.216058048207020861e-03,6.782943758799514153e-03,1.107143067597502438e-02,1.685566604137420654e-01
-4.365275883083733627e-02,-1.662078985729832370e-01,-2.554383626233856092e-02,4.080691805221981980e-03,5.837699074641560307e-03,1.651276487910087812e-02,1.361515522003173828e-01
-4.654593681670989719e-02,-2.150193507316123243e-01,-4.419762103536691716e-02,-2.484053111427619691e-03,-4.983815998438812693e-04,1.179307462054322419e-03,1.697288006544113159e-01
-4.770832626222291928e-02,-2.225411681386230689e-01,-3.768444660635446308e-02,3.945133296786405429e-05,3.390331737832265237e-03,3.342107382400099410e-03,1.802428960800170898e-01
-3.649886191365812188e-02,-1.973100276065093417e-01,-3.827934931350215897e-02,1.212803663740042413e-02,7.030196801166764715e-03,1.354510226568443089e-02,1.634534448385238647e-01
-4.557945535835821599e-02,-2.162919752479352531e-01,-5.360724103723553402e-02,-1.808874158828549517e-03,2.605360585125466016e-03,1.634364386382224088e-03,1.669579595327377319e-01
-3.393622700507609863e-02,-2.124664227839362929e-01,-4.007385397410478250e-02,-1.234283681737270895e-07,-9.180212604799002207e-04,-4.122035692151000057e-04,1.755505204200744629e-01
-4.349168938294672992e-02,-2.365989220754720346e-01,-4.172816615046567867e-02,4.070907307230124672e-02,2.388113809119113157e-03,1.578229878981777384e-02,2.082548886537551880e-01
-4.370576412939819466e-02,-2.317504630261082443e-01,-4.706506320314369357e-02,-8.709982516481334924e-03,-3.493483463575865547e-03,3.725094314341620416e-03,1.872063875198364258e-01
-4.627037587731239188e-02,-2.168532399489591644e-01,-5.002535567328297156e-02,6.521828776401102827e-04,-4.816774589269561191e-05,-1.987903611399111472e-04,1.687408685684204102e-01
-4.536463299966098789e-02,-2.131514441051702291e-01,-5.434805060339335109e-02,-8.080031535114649962e-04,5.964697131157074058e-04,9.363593146207792968e-04,1.634976267814636230e-01
-4.815972664638687450e-02,-2.414170235428596545e-01,-4.649182572964523363e-02,4.053532441684459288e-03,-2.084800308357790083e-04,-6.256733942311504433e-03,1.945260018110275269e-01
-4.583102964673622243e-02,-2.161220166043257007e-01,-4.930768965378535401e-02,-1.489819350219258949e-04,-8.259384353196478614e-04,-1.368365660999196643e-03,1.686024665832519531e-01
-4.123348749611557840e-02,-2.513306247873639543e-01,-3.751859223167554325e-02,-7.527803172525941028e-03,-2.213628869744694271e-03,8.654575121199423182e-03,2.129424959421157837e-01
-3.890707246604260122e-02,-2.013139591896507263e-01,-4.187869297458356177e-02,3.103919300682913152e-03,-4.362483850419649097e-03,-2.885649356382494375e-03,1.612860560417175293e-01
-3.910053580335443035e-02,-2.088207782875030061e-01,-3.886707168927552858e-02,3.145749641831803618e-03,-5.055843622127386035e-03,-1.020045666450738152e-03,1.701591312885284424e-01
-3.891062396995313005e-02,-2.058100649097955870e-01,-4.093616323670412616e-02,3.249431333295084347e-03,-5.235216490527443318e-03,-3.351014561334850379e-03,1.663401722908020020e-01
-4.862163697458050243e-02,-2.119984034502581105e-01,-4.720077369847477250e-02,1.512804534874900419e-03,-1.471080738783836668e-03,1.732078397618456783e-03,1.641599237918853760e-01
-3.733411263268038294e-02,-2.110748343918001368e-01,-4.190213339343203808e-02,9.910418939519106388e-05,-3.460230319017629490e-03,-2.066039831819416715e-03,1.716444194316864014e-01
-3.778227203031433307e-02,-2.044146050328036202e-01,-4.016261740723115620e-02,-3.946752715139629358e-03,-6.396755231073389218e-03,1.810967564339378746e-03,1.659960299730300903e-01
-4.029649066614055669e-02,-2.122412400623311934e-01,-4.243168412475323975e-02,-4.306470383455157994e-03,-3.166161381765051231e-03,3.594686129729166794e-03,1.712509691715240479e-01
-4.490667303904474772e-02,-2.115320300874590220e-01,-4.846811017814739442e-02,-1.335113341937436450e-03,1.285983359001491170e-03,-1.086439711030311476e-03,1.649154871702194214e-01
-5.090198819377480394e-02,-2.185322011463491365e-01,-5.122117995707814453e-02,2.717105677068361487e-03,3.758733241331067756e-03,-3.476111202248356128e-03,1.677714735269546509e-01
-4.659114484165007702e-02,-2.115321925792115476e-01,-4.673203764999103033e-02,-4.967461708067132326e-04,-3.364891657191936675e-04,8.723572399500709174e-04,1.648808419704437256e-01
-4.768601377795944618e-02,-2.160537958392571012e-01,-4.991207127266997917e-02,1.449551857157688455e-03,1.714791948522313226e-03,-2.008815272371322277e-03,1.673472374677658081e-01
-4.096195023959315479e-02,-2.119478293332725527e-01,-4.069286781184212887e-02,-4.572368865068788570e-03,-3.336583558919058775e-03,3.394814437138730066e-03,1.715020239353179932e-01
-4.502918058228418119e-02,-1.314920407326234386e-01,-3.183727731801733185e-02,-9.687532196790298034e-03,-7.915241008686317234e-03,2.830578722054338803e-02,1.079982072114944458e-01
-5.250754863058332278e-02,-2.108408016423763409e-01,-2.878514151467213844e-02,-4.552471374137707243e-04,2.128689573904145142e-04,1.165017659153860623e-02,1.726156324148178101e-01
-4.714982368216431158e-02,-1.627227406215034089e-01,-2.777722862161589867e-02,5.056218487586867927e-03,7.480872440550077711e-03,3.062367313507885838e-02,1.379469335079193115e-01
-4.944702163324433269e-02,-1.336125770001913848e-01,-3.377978317413261877e-02,-1.369540234784541628e-02,-2.468362665576931229e-03,3.847482484171500794e-02,1.169181391596794128e-01
-5.209769592017357565e-02,-1.469250082835013571e-01,-2.906595346213270564e-02,7.807947082954484405e-03,4.191961234132773190e-03,4.110981490164690444e-02,1.304315179586410522e-01
-5.911675774822186535e-02,-1.346971375651119240e-01,-4.093247312859761566e-02,3.355808640783301475e-03,4.131577610113265349e-05,2.640590358275354127e-02,9.768849611282348633e-02
-4.987572295903341252e-02,-2.249571046569641686e-01,-5.060463676200012417e-02,8.010961526395507515e-03,-1.161948106614529809e-03,5.906892428040953769e-03,1.755780577659606934e-01
-4.637233985596142527e-02,-2.130651338236004000e-01,-4.514937249393625313e-02,-3.922731044094068505e-04,4.228564920464716469e-04,5.577341266428963076e-04,1.673133969306945801e-01
-4.645283512015031119e-02,-2.199020810702190243e-01,-5.267149214212649838e-02,1.316234053312741918e-03,-1.281201329007627607e-03,4.583907394438748936e-03,1.706395298242568970e-01
-5.168040862144924336e-02,-2.254855168595373827e-01,-5.601223900113643656e-02,6.884970392717904009e-03,-4.182707372350991104e-03,6.932862732400075188e-03,1.726643443107604980e-01
-3.793901964615797179e-02,-2.112459886880139748e-01,-3.901441303007158884e-02,9.991617184309585335e-04,-1.803463909231334695e-03,1.133399452515407979e-04,1.728087961673736572e-01
-3.791357008575724219e-02,-2.120656125275356685e-01,-4.337470697548502507e-02,-9.739248813039637614e-04,-2.847937603194474442e-03,-8.572213687227990628e-04,1.715723574161529541e-01
-4.096120690691201077e-02,-2.129900940958958100e-01,-4.502409329572096969e-02,-5.473947350445911429e-06,8.199010166832610780e-05,-1.039127607188428375e-03,1.700434386730194092e-01
-3.162734277191946164e-02,-2.057673978456695529e-01,-4.633930890575712475e-02,2.248981052102825683e-03,-4.002754176775414480e-03,-6.294083577682635031e-04,1.674624979496002197e-01
-3.402390260423945878e-02,-1.932267686953840768e-01,-4.306253790155678551e-02,3.948479604471291995e-03,-5.768277048757551421e-03,-3.751092009766620813e-03,1.554897874593734741e-01
-3.697447026701627254e-02,-2.008508061013865031e-01,-4.349124952455094006e-02,1.530994331599124176e-03,-6.871542597698949810e-03,-2.812423822291654132e-03,1.612525731325149536e-01
-3.318744622083667772e-02,-2.089898753560038291e-01,-4.518736457680400803e-02,1.815211478135955910e-03,-1.443422053466334853e-03,2.781870057682082290e-04,1.701682806015014648e-01
-3.174427010488740930e-02,-2.051650873502107175e-01,-4.141779927143082046e-02,2.783007708805628443e-03,-3.306823498222289347e-03,-1.198454557863719468e-03,1.689707487821578979e-01
-4.629292746433748967e-02,-2.199821983208867793e-01,-4.563398501202203805e-02,9.496600679260353321e-05,9.705502651380511995e-05,-1.128560568221921795e-03,1.740308105945587158e-01
-4.526351643239554662e-02,-2.144736993356526344e-01,-4.171662580360675776e-02,-2.409031795635033397e-03,-2.107353941576841413e-03,3.396704316667881543e-03,1.712021678686141968e-01
-4.928599547452749280e-02,-2.135028516585702474e-01,-5.088356008858905405e-02,3.605225296740177557e-04,-2.293176340315610830e-03,-4.033519548732901190e-04,1.634748727083206177e-01
-4.654244340138005004e-02,-2.228809203517085336e-01,-5.036284946209994978e-02,-8.141035920327888359e-04,-3.383857034982679882e-05,-2.982899346114181813e-03,1.745418459177017212e-01
-4.786959902466730865e-02,-2.327142322450549972e-01,-4.826495631528941732e-02,-2.284839358285244669e-03,-5.424277788931054924e-05,8.515628090579817865e-04,1.846955865621566772e-01
-4.975685096871734769e-02,-2.178533538830837724e-01,-3.406713328465371671e-02,-2.384962869294622416e-03,1.838308799822841507e-04,1.291973724819269788e-03,1.765280812978744507e-01
-5.080745068376825435e-02,-2.377356045430788489e-01,-5.184147848771532285e-02,-8.807545105532197521e-03,-5.626049829113598244e-03,-6.507645291561826167e-03,1.876289993524551392e-01
-5.253113752654985091e-02,-2.117393851878158484e-01,-4.626569559846441942e-02,-3.776043620470481612e-03,-3.482729775853885858e-03,-2.209004802794267458e-04,1.626755744218826294e-01
-5.101602580601122955e-02,-2.365830199867556272e-01,-4.839934674887745591e-02,-8.101802495196180898e-03,-1.167144565386436187e-03,-5.229223676443018644e-03,1.876447796821594238e-01
-6.194544596873627351e-02,-3.202748395057044006e-01,-4.736151866868269777e-02,-2.166732217133358201e-02,2.177505475839456098e-03,4.187560732921860596e-02,2.782041728496551514e-01
-4.142076672909159041e-02,-2.264888633619278890e-01,-5.404761789463806421e-02,1.268405704971358253e-02,-5.086298840379922283e-03,-1.624080774804131932e-02,1.828233301639556885e-01
-5.183392827665075225e-02,-2.195179074481205805e-01,-4.772239398007430133e-02,-1.069538437783548648e-03,7.532849013770885355e-04,-4.425021525033843994e-03,1.699651032686233521e-01
-5.717057585473556830e-02,-2.195711774309023201e-01,-4.544606813889300739e-02,-1.478997640181480000e-03,-1.374478822617050807e-03,-5.981257101603114183e-03,1.689231842756271362e-01
-4.438274346825551997e-02,-2.261032084830291444e-01,-4.440934409823477785e-02,6.361689028680125348e-03,-4.470087321881510353e-03,-6.162500211853329593e-03,1.825179010629653931e-01
-4.059703947994698636e-02,-2.014512862888614697e-01,-4.378106234527898155e-02,5.742685400175763163e-03,-1.386655936908009600e-03,1.866719591937806904e-03,1.596471816301345825e-01
-3.759844326657484775e-02,-1.792848358050002922e-01,-4.227436223481895183e-02,-2.844018030659280910e-02,-1.064763678804641484e-02,1.115231385611639182e-02,1.502469778060913086e-01
-3.728076021055208578e-02,-1.959625971358653074e-01,-3.945982738307668436e-02,-1.511740224814771445e-02,-4.928523078686979433e-03,9.811260270518751964e-03,1.608917564153671265e-01
-4.051285964900061543e-02,-1.614721689482980505e-01,-3.615947468451340824e-02,-2.062703982810323161e-02,-1.190951847077273591e-02,2.182983780507628813e-02,1.353079825639724731e-01
-4.406592380993656216e-02,-2.162360077882044818e-01,-5.193437099643478244e-02,-3.409850258164053797e-03,9.484318032235627624e-04,-4.253384180223952760e-03,1.686463505029678345e-01
-4.563567151050292731e-02,-2.209392986803330738e-01,-4.807052613920782813e-02,-1.036145099967724671e-03,-1.492870643681650227e-04,-4.873927419354577443e-04,1.741104573011398315e-01
-4.438853150592142471e-02,-2.369654718550889549e-01,-4.689167635056699923e-02,-2.168209973319908113e-02,-4.745500527801425547e-03,9.140722330451635236e-03,1.958025842905044556e-01
-4.489866805667691585e-02,-2.122216007265309567e-01,-4.552721793167309461e-02,-3.174227363263156486e-03,-1.127216674420013871e-03,2.750738545535172126e-03,1.671793311834335327e-01
-4.441851150755758704e-02,-1.854715126070064501e-01,-3.653318011748421523e-02,1.441070198979249595e-02,1.062064765473972640e-02,2.797320051976301403e-02,1.561386436223983765e-01
-5.077824799060340344e-02,-1.916544189370469886e-01,-2.962108690936570560e-02,1.711269117073610860e-03,4.898643074621875787e-03,1.072394323630232633e-02,1.539481878280639648e-01
-5.023468396449326523e-02,-1.890605523277232303e-01,-2.819054215394248275e-02,6.303937059029804391e-03,1.614177987274856979e-03,3.095763158685764516e-02,1.606892198324203491e-01
-5.258036063113147307e-02,-2.131579050531930142e-01,-3.223813814686921075e-02,1.142359170237151975e-03,4.798306334097114136e-03,1.167106207922425677e-02,1.730522662401199341e-01
-4.424235391269706885e-02,-2.171640424504377442e-01,-3.989765209671054802e-02,4.779581278104487116e-03,5.021299025555070114e-03,6.208721664483535414e-03,1.758746653795242310e-01
-4.619948804822592014e-02,-2.076162882230234985e-01,-3.116125536873518009e-02,1.912899247663729391e-03,4.132481977601574694e-03,6.173331853605594846e-03,1.699573397636413574e-01
-4.265569870186209506e-02,-2.070719375685611818e-01,-2.990272890080457324e-02,1.027946050758450245e-03,4.289494672024180694e-03,4.732885500307960902e-03,1.715158969163894653e-01
-4.377664053517082987e-02,-1.981115417807339241e-01,-3.271143730603127270e-02,1.381145202249607108e-03,5.901595815642743381e-03,5.135214813672386337e-03,1.607444137334823608e-01
-3.909699171188726896e-02,-2.001537403849319441e-01,-3.842991931875727740e-02,1.168973295905230414e-02,9.126789410521390922e-03,1.192017900436777994e-02,1.647218018770217896e-01
-4.282641154783367599e-02,-1.814929126560389239e-01,-3.695724407216715440e-02,1.431757241423481548e-02,8.970744564320922571e-03,1.777051723172017733e-02,1.479205191135406494e-01
-4.580901951318476495e-02,-1.785476050264835357e-01,-3.036416017385354382e-02,1.013140539803616264e-02,8.819326636923936064e-03,2.359705475394254306e-02,1.487277597188949585e-01
-4.001768189285135474e-02,-1.921814998654883810e-01,-3.605191347926933049e-02,3.365258026760928854e-03,8.182139680090126307e-03,8.020454001826160528e-03,1.555660665035247803e-01
-4.197179989910018727e-02,-2.102515856277590300e-01,-3.450604690200003571e-02,-8.072588078616535923e-04,-3.322926824894189765e-03,2.774097376013411054e-03,1.723030060529708862e-01
-4.405857379742991742e-02,-1.950812267548936163e-01,-3.552844058523980247e-02,-4.293388441038951541e-04,-6.326078445326854122e-03,1.854952755794888252e-03,1.558838784694671631e-01
-4.284650922995908440e-02,-1.965259802599628181e-01,-3.106838464646953513e-02,-1.829077023891042056e-03,-4.557386626588879816e-03,-1.027190235368001032e-04,1.601203829050064087e-01
-4.648197443622359426e-02,-2.011890995699479601e-01,-3.185408332856169700e-02,-3.966612991870844792e-04,-4.098695621746604144e-03,3.189770578699837808e-03,1.627657860517501831e-01
-4.864612396655190740e-02,-1.998174654613635859e-01,-2.748860696194571629e-02,-1.853141392913530694e-03,-4.267316800420108830e-03,4.099301498136014715e-03,1.631384938955307007e-01
-2.762256087531918952e-02,-1.912067769079476287e-01,-4.950134091391971553e-02,6.103781960725055029e-03,-4.565678105566862641e-03,-2.322147082539708675e-03,1.544342488050460815e-01
-4.378774885496266450e-02,-2.064617177995217157e-01,-3.245985919334906655e-02,-3.648718233229546366e-03,-3.989534095537847908e-03,2.984284351217197061e-03,1.689624190330505371e-01
-3.747301901790787981e-02,-2.032285738273180153e-01,-4.403541546636226961e-02,-1.771357051275519734e-03,5.783266659985004596e-03,-2.808170991774933470e-03,1.629835069179534912e-01
-3.523483541685656917e-02,-2.097263262866428946e-01,-4.446887001574368475e-02,-1.065400655075770305e-03,4.209816558550488752e-03,-9.724160058127129767e-04,1.702371835708618164e-01
-3.468924853146669596e-02,-1.976872837718828269e-01,-4.224865094829811929e-02,-4.770095626386011006e-03,5.054498391161178251e-03,-1.854371896296786630e-03,1.598391681909561157e-01
-3.544206134797170393e-02,-2.114761094191863755e-01,-4.282270389218662682e-02,-2.888995631842055560e-04,3.107781274514521356e-03,-9.489176848778302245e-05,1.725469976663589478e-01
-3.606215648485434216e-02,-2.128822075731395813e-01,-4.280463293607207620e-02,-8.544328449819635438e-04,3.139765012417541478e-03,6.804183974949819334e-04,1.736425608396530151e-01
-4.640015520118948716e-02,-2.069185904731944414e-01,-2.958868747205975480e-02,-8.795902714607384092e-04,-2.962819057634670690e-03,6.423487381983691499e-03,1.699993610382080078e-01
-4.036353979577118195e-02,-2.107876525676752322e-01,-4.034711832517556135e-02,2.849114883023966897e-05,3.594748317978293476e-03,3.918050457965350554e-05,1.705460399389266968e-01
-4.019364444287415461e-02,-2.112102463284572518e-01,-4.024544509214249277e-02,9.747161324031714718e-04,4.369289496622127261e-03,1.169803019567820313e-03,1.711784154176712036e-01
-4.472489194753127839e-02,-2.032331020172649105e-01,-3.495616368515805372e-02,-9.519572995390569031e-03,3.657381427998088706e-03,-6.394291247682353657e-03,1.649344116449356079e-01
-5.234009739690185375e-02,-2.231789721028423490e-01,-4.149089114778604925e-02,-1.726965675913806619e-02,6.786649113306498365e-03,-2.726657641090762113e-02,1.855273246765136719e-01
-4.755718517092021036e-02,-2.065950878934258994e-01,-3.239212527571649902e-02,-1.490738259236713608e-03,3.389641368794495038e-03,-2.644399872059272419e-03,1.673229485750198364e-01
-5.037485003332170530e-02,-2.139310818368059808e-01,-3.114274679199133256e-02,-5.140268706639408366e-03,1.147505668714830958e-03,-7.746728110266117018e-03,1.747263520956039429e-01
-4.865226859802969372e-02,-1.854011105680470339e-01,-3.038949899344721428e-02,-4.754005709946079413e-04,2.676018968705010039e-04,-4.363658093908843669e-03,1.469326466321945190e-01
-4.227227098975025465e-02,-1.666671585232776809e-01,-3.031288369898958029e-02,-1.290879656244714110e-02,-1.080448827880689695e-03,-2.715637595744384986e-02,1.407857239246368408e-01
-4.063792570314454788e-02,-2.040573974610522257e-01,-4.196929995239398470e-02,-1.023003903036147008e-02,4.187771075459541248e-03,-5.169102508491055757e-03,1.641245186328887939e-01
-4.917054485007068404e-02,-2.055326613693528315e-01,-3.254427071438995012e-02,-3.322276208521511131e-03,1.902589008588593698e-03,-9.100549183177602738e-03,1.661857217550277710e-01
-4.226361970053772732e-02,-1.914683633623535941e-01,-4.197216410377004048e-02,-4.708703736235220205e-03,6.807460675470144648e-03,-5.930899339262878101e-03,1.503884792327880859e-01
-4.382408824635863898e-02,-2.189400944925286585e-01,-4.236153317849597477e-02,-1.424530196179279659e-03,4.359047234378786786e-03,-4.956733137731253978e-03,1.762403845787048340e-01
-3.520649514189772011e-02,-2.134100219512242713e-01,-4.472986981343561597e-02,-7.838467146163950738e-03,4.347821346451363235e-03,-8.804761079674330859e-03,1.749962866306304932e-01
-3.875778356295123822e-02,-1.582714378016503165e-01,-4.245881078611009329e-02,-2.003609037845544352e-02,8.793438875514387326e-03,-1.464099415227071779e-02,1.262310296297073364e-01
-3.789954028694017540e-02,-2.136212260515492067e-01,-4.731325018758177070e-02,2.906765709860623798e-04,1.013032779755021050e-03,2.232926525380031404e-04,1.712192147970199585e-01
-2.654418951333856191e-02,-1.978264356051973594e-01,-4.759652139692076983e-02,2.897270238781807228e-03,-2.950146025797095641e-03,-6.223752779482994574e-04,1.619486659765243530e-01
-3.515536575284120696e-02,-2.071999399680014564e-01,-4.437842308594634744e-02,-1.541792555400698468e-03,3.691448883856237283e-03,-6.621348604913058003e-04,1.677705347537994385e-01
-3.511505053958027811e-02,-2.150124110943205102e-01,-4.470688309653558790e-02,-1.781864571033209971e-02,4.266617445800454170e-03,-7.554195857009206316e-03,1.786276549100875854e-01
-3.092767873475500695e-02,-1.695501990647607649e-01,-4.821800904758048734e-02,-1.680329505620803757e-02,1.266412202761290143e-03,-2.711739894486605781e-03,1.341352015733718872e-01
-3.876385618708958619e-02,-2.116970845937001522e-01,-4.441968363359079935e-02,-7.606197889482264191e-03,7.375666587834624199e-03,-1.214825987587064317e-03,1.711753457784652710e-01
-5.084834327169650281e-02,-2.148973747407356139e-01,-4.789806511046326015e-02,1.586384795221502291e-03,8.072042398510597544e-04,-1.124868646072941462e-03,1.655840575695037842e-01
-3.344490797333034976e-02,-1.985236298289500545e-01,-5.342145666372989654e-02,-7.727414703522595373e-03,1.313278146220161818e-03,-2.678190326086687598e-03,1.567104756832122803e-01
-4.581226514039718478e-02,-2.177882790225422749e-01,-4.816136612027632768e-02,-1.915676152859453665e-04,6.639074492219534029e-04,9.111726097604028922e-04,1.708250641822814941e-01
-4.580778257468076653e-02,-2.196845385630714076e-01,-5.789001150487009528e-02,1.338983355731807046e-03,-6.033390642140269364e-04,2.209021918429457301e-03,1.682242453098297119e-01
-4.636447880871192445e-02,-2.194049285413778305e-01,-5.573221450099917484e-02,-1.667476505290606541e-04,-1.564696942955339648e-03,-2.674179619785296488e-03,1.686375886201858521e-01
-4.511576459137012912e-02,-2.196328464805195613e-01,-5.520913958388795617e-02,2.969592613160840065e-05,-1.244021396058523320e-03,1.911508588246324178e-03,1.697416603565216064e-01
-4.445334287137353568e-02,-2.153343984705455849e-01,-4.874021860058486144e-02,1.266623795518324750e-03,-9.201729635976989459e-04,-2.887878586463183111e-03,1.688743233680725098e-01
-5.533064899400319536e-02,-1.521262490658783217e-01,-3.506175706152531851e-02,5.070656765983888939e-03,1.600129421339417397e-03,1.679324698107400801e-02,1.125744655728340149e-01
-4.836909441601405790e-02,-1.903074131394787427e-01,-2.469752038742964451e-02,1.537288164634233048e-03,2.392525305790553850e-03,1.054452400056940346e-02,1.562835723161697388e-01
-4.220595267965252667e-02,-2.092529615450474112e-01,-3.729072995518532829e-02,-1.186534760813418281e-03,-1.791690236478667023e-03,4.033744941503216992e-04,1.696003526449203491e-01
-4.457052071248687741e-02,-2.096640015415801583e-01,-4.059841575275607156e-02,1.422774468386628658e-04,2.200113275728992658e-03,1.336484309003836387e-03,1.671745926141738892e-01
-3.456793247461614760e-02,-1.553016464734785496e-01,-3.773087785774088820e-02,2.099726073289466532e-02,8.485184831128965779e-03,2.582727496534653958e-02,1.332086920738220215e-01
-4.339260193249348807e-02,-1.815440598757384061e-01,-4.045167732169131780e-02,1.210190300343596571e-02,1.007476012116028177e-02,1.020462413761395390e-02,1.433772742748260498e-01
-4.677211856032372633e-02,-2.277728163456690935e-01,-4.850104221593698473e-02,-3.733405744058694836e-03,6.827233911763437742e-05,-1.455841603388990718e-03,1.802761554718017578e-01
-4.259051141686534536e-02,-2.139860981008652741e-01,-4.466184474825760781e-02,-4.428453734584824122e-03,1.602016688213179314e-03,-2.176908735647769232e-03,1.706061810255050659e-01
-4.783317270594955595e-02,-2.186531549520466522e-01,-4.292675209980040957e-02,-4.884272082362230150e-03,-2.158026146550991349e-03,-1.474541649927937209e-02,1.754408031702041626e-01
-4.096249085351389568e-02,-2.117127602783901441e-01,-4.537370507917509038e-02,-5.081176756483408649e-04,1.118514197370496822e-03,2.151205275770193438e-05,1.686013787984848022e-01
-5.224527155196517780e-02,-2.352577156768233535e-01,-4.831552187255321040e-02,2.934768721259251468e-03,-7.295648582442371089e-04,-4.973822018729420064e-03,1.852831393480300903e-01
-5.200090634299756043e-02,-2.477972362221176061e-01,-4.936542074241287437e-02,8.391438724535540267e-03,-3.427604855676090207e-03,-1.583786054339313652e-03,1.977705359458923340e-01
-5.143671268479303726e-02,-2.394969916471457461e-01,-4.563089566357120264e-02,3.226899745288819461e-03,-1.426154495678591061e-03,-5.330977904502320897e-03,1.913499832153320312e-01
-3.650505908844627057e-02,-2.592484036336777931e-01,-4.824843750675100740e-02,-6.689481504129117517e-03,5.058010932081462296e-04,-8.196951822729076770e-03,2.178837507963180542e-01
-5.634287054936018557e-02,-2.470115821642015486e-01,-4.744102353449032583e-02,-2.309154845392794725e-03,-1.553238165189405311e-04,1.661390411955931840e-05,1.953130215406417847e-01
-4.979062753744629977e-02,-3.504763085483341145e-01,-5.949997264520714979e-02,1.949332714132644140e-02,2.744247928779452225e-03,2.100266875289063390e-02,3.001209497451782227e-01
-3.238471238511721889e-02,-1.972800602529990177e-01,-4.386148104995595681e-02,3.850641214116044472e-03,5.856629974492501799e-03,1.084625344003738992e-03,1.599394828081130981e-01
-2.995248260818590691e-02,-2.061043931625778924e-01,-4.279658248796688880e-02,5.221097406488143557e-03,4.080829573400518266e-03,6.921323366699415249e-04,1.704849898815155029e-01
-3.226584335879383730e-02,-1.840672947392697489e-01,-4.126466146210824165e-02,8.446587376292044591e-03,9.369590308092218961e-03,1.018372303998467399e-02,1.501570940017700195e-01
-2.991585822027086755e-02,-1.967148562256990640e-01,-4.735490316538477906e-02,5.762516705275378542e-03,4.522822595943315656e-03,3.025105499935007176e-03,1.593915075063705444e-01
-3.399707805825237517e-02,-1.894393376382705330e-01,-3.916654494679113613e-02,5.692651222776097010e-03,8.079631925274881332e-03,3.080241428409421708e-03,1.539707481861114502e-01
-4.965169082658493771e-02,-2.178930626665971371e-01,-4.656002347092760840e-02,2.200917380426137358e-05,-7.888358275120981164e-04,2.522939298440314213e-03,1.698700338602066040e-01
-5.283811796949126893e-02,-2.354107577838746301e-01,-5.465367073730162395e-02,7.499377410405409956e-03,-3.310157952074692725e-03,9.695895533842414232e-03,1.829978674650192261e-01
-3.957022264876770834e-02,-2.407799003313256248e-01,-4.778963557194295525e-02,1.893106860054326324e-02,5.806194937021798459e-03,-1.623906665860535767e-02,2.021545916795730591e-01
-3.314018223255809498e-02,-2.078013308936043635e-01,-4.079391948622816677e-02,-1.699865711696429927e-03,-3.476406647544203615e-03,3.216101849756487362e-04,1.710950583219528198e-01
-4.908685515076195716e-02,-2.113119383516532390e-01,-4.800862075773174725e-02,2.968864183093885417e-04,-2.165561152364298136e-03,5.118772581833017695e-04,1.628133207559585571e-01
-4.458171355397228669e-02,-2.135762775147501680e-01,-4.001260535891421055e-02,-3.199988318816993982e-05,3.006825775574756623e-03,-4.662039159839657010e-04,1.714058667421340942e-01
-4.289742024767888295e-02,-2.097606699147238629e-01,-4.275415103452426951e-02,-2.124431064343627190e-03,2.206451505580525694e-03,-2.402959282603503617e-03,1.670710593461990356e-01
-5.084612220778170905e-02,-2.172410436088671459e-01,-4.555361436638982048e-02,-6.335855677186693485e-03,-1.513441236349704917e-03,-2.144596188731394577e-03,1.695199906826019287e-01
-4.150189229135524405e-02,-2.067914938999630969e-01,-4.523013133904529165e-02,-9.111678051400014244e-03,4.379761856372666601e-03,-1.050590605298746746e-02,1.653966456651687622e-01
-4.352275447371101863e-02,-2.121982839638702767e-01,-4.460178409270216388e-02,-2.671094941193771083e-03,2.321592454018537970e-03,2.675623880599656623e-05,1.682503074407577515e-01
-4.723938375491944924e-02,-2.212630893343272565e-01,-4.868310679531238916e-02,5.628009254010686189e-04,-1.613727670200549051e-03,-1.797413403800408025e-04,1.733319163322448730e-01
-6.104850836887777688e-02,-3.489122668850891396e-01,-6.527823522143225143e-02,-1.027724003742672490e-02,5.683077868744863294e-03,-5.780986199858057298e-03,2.866702973842620850e-01
-4.736560552100546606e-02,-1.996044389164325639e-01,-3.232586187443071274e-02,-5.951581105446474527e-03,-4.029413736174575211e-03,8.115415437418041847e-03,1.613847613334655762e-01
-4.962167918354067758e-02,-1.972129062429595903e-01,-2.737870210637587121e-02,-3.802462325394653873e-03,-3.299351943832100863e-03,6.041103006082732332e-03,1.604565531015396118e-01
-5.039074885755857880e-02,-1.833738844136147406e-01,-3.115944943430434128e-02,2.017548764430194576e-04,-5.146239697063825433e-03,5.850549514248013123e-03,1.442014425992965698e-01
-4.729149597611961159e-02,-1.986471006883493429e-01,-2.844350688276835182e-02,-3.249459801859943577e-03,-2.153961730663394615e-03,1.316861950245452363e-02,1.633473187685012817e-01
-3.806421407272557456e-02,-2.115713954733066948e-01,-4.087584952619939538e-02,-1.500472313113235950e-03,-2.127798444586126349e-03,-7.250134215764314711e-04,1.721822321414947510e-01
-4.586842981191072144e-02,-2.145266766802917391e-01,-5.555654873417306683e-02,-6.636337872475992026e-04,1.805714253377442655e-03,-1.076152717427818900e-03,1.640733331441879272e-01
-4.587891607386662685e-02,-2.185820476309920934e-01,-3.983504079319449137e-02,-7.551527158010408296e-03,-2.876453259030984765e-03,3.149572108416208438e-02,1.846037209033966064e-01
-4.830057852139760938e-02,-2.104011760272262443e-01,-3.870953766547143016e-02,-2.945622807384409066e-03,-7.751580192151380846e-03,2.838524026289527408e-02,1.747763156890869141e-01
-4.558881157074176627e-02,-1.858125611556479262e-01,-2.967190954266571423e-02,-1.791432175877283317e-02,-6.623995364563094700e-03,1.187768129570202467e-02,1.538363248109817505e-01
-2.454824868442195135e-02,-1.748621056413076080e-01,-4.872687092238607576e-02,2.886031186515859367e-02,3.491378864027285759e-03,1.267840239849125743e-02,1.502066105604171753e-01
-4.712261564514257789e-02,-2.077430168777059660e-01,-3.275664965495711511e-02,-2.946940727591939278e-04,6.420812787856211828e-04,1.926986885117588488e-03,1.683015078306198120e-01
-3.069227176286284942e-02,-2.065123993608367070e-01,-4.981624925884041433e-02,9.872998136980105227e-03,-2.368437388788534499e-03,-5.123042547425076150e-03,1.682381033897399902e-01
-2.896421446687593576e-02,-1.944002338759945325e-01,-5.065264348300101138e-02,9.774463743280746575e-03,-1.959335741344747292e-03,-2.111994771814713987e-03,1.567256748676300049e-01
-2.753630090005947106e-02,-2.150916136687394675e-01,-5.171743304424844534e-02,3.153134481492030072e-02,-6.575143366622091499e-03,-1.358456036771842242e-02,1.867951303720474243e-01
-2.674182563999580320e-02,-1.946570330687757977e-01,-4.637350410257780331e-02,1.027783837968287463e-02,1.948782584427466089e-03,6.707501264490230326e-04,1.600440740585327148e-01
-3.086547379518876644e-02,-2.118084448991456037e-01,-5.126848134132019202e-02,1.269484896901182380e-02,1.623204885203224251e-04,1.436351530741247599e-03,1.730739921331405640e-01
-3.483120010190367266e-02,-2.083716573989929377e-01,-5.091469948467482187e-02,1.051399661984681391e-02,-3.376885763528970452e-04,-1.436100625885360137e-04,1.670804172754287720e-01
-5.156743234678804605e-02,-2.220513569813221677e-01,-5.263622295633647863e-02,3.064748571785692096e-03,-3.986925009036659112e-03,3.543985197276886163e-03,1.702857762575149536e-01
-4.466444858421830116e-02,-2.243012814784265119e-01,-4.761619016764876561e-02,-2.363856943017017022e-03,-4.126322582038019970e-04,1.988142500999128936e-03,1.782610267400741577e-01
-4.284979161623696242e-02,-2.168213250597634534e-01,-4.066328587533934308e-02,-8.994510068354503313e-03,5.510979700413901408e-03,-7.916805787364606523e-03,1.765590757131576538e-01
-4.476800478526990479e-02,-2.162528662093814447e-01,-4.138207279476594641e-02,-1.106038194279595349e-02,4.070013265207153910e-03,-8.063503356723466381e-03,1.749597340822219849e-01
-3.833236179091979029e-02,-2.129413323101765343e-01,-4.153006350576099459e-02,-1.872050320021357444e-04,-7.744063888623029792e-04,3.391670632416864378e-04,1.730387806892395020e-01
-4.254863178025466985e-02,-2.103138490586239917e-01,-4.721764400880711088e-02,1.163110906348796894e-02,8.533356825832371533e-05,1.791749869686615941e-03,1.667308360338211060e-01
-3.815848081471491515e-02,-2.310023151333692737e-01,-4.928015392598804334e-02,1.890191013099404294e-02,2.649371300188741243e-03,7.418322889048924521e-03,1.908551454544067383e-01
-3.570389002263982259e-02,-2.272790348120254378e-01,-4.865194331846731113e-02,1.050228998337552483e-02,2.784852121464648222e-03,1.257987074546895040e-03,1.864056587219238281e-01
-3.853285382483660759e-02,-2.190905255831238074e-01,-4.778317844521088459e-02,6.522225548809733320e-03,3.094307669582240048e-03,6.058754290216311449e-03,1.768697053194046021e-01
-3.403984642979721725e-02,-1.936862361114548015e-01,-4.435774494922874178e-02,1.728546049188397354e-02,5.726611882800661073e-03,1.491343258786444886e-02,1.600255817174911499e-01
-3.452146554131631934e-02,-2.064690736187707598e-01,-4.518532437236069677e-02,8.548699928674465334e-03,2.179074930168784473e-03,-2.336635218102835968e-04,1.675700545310974121e-01
-3.288953683270678940e-02,-2.083838948821270243e-01,-4.751202640714823067e-02,1.078429281720901661e-02,3.720561416386809848e-03,4.995838001065003829e-03,1.700330227613449097e-01
-3.911632286936287534e-02,-2.155081959618853071e-01,-4.611961476603849974e-02,-2.280971898611613632e-03,-2.741924403353927266e-03,-2.026243263588906399e-03,1.731424182653427124e-01
-4.075111429239101218e-02,-2.115158872491754716e-01,-4.379176782661956674e-02,-9.992853425381266995e-04,-2.905381576886839363e-03,-4.869292749088459989e-04,1.693506687879562378e-01
-3.522265324163911110e-02,-2.085666014886534692e-01,-3.998130871572839334e-02,-2.757640263559481969e-03,-3.158788717016824867e-03,1.634946131873123067e-03,1.711918562650680542e-01
-3.866114139148854600e-02,-2.075888122169053940e-01,-3.963273206585779529e-02,-2.226351153008958913e-03,-5.948359830986764060e-03,1.093928581826978096e-04,1.688029319047927856e-01
-4.092314871498684004e-02,-2.155276993732275215e-01,-3.864358855300791679e-02,-2.244872956202352728e-03,-4.308914017192640167e-03,-5.240474815594426235e-05,1.759568005800247192e-01
-3.826941316116089231e-02,-1.933406845579629940e-01,-4.323998452039500701e-02,-7.748453749559773389e-03,-7.440183316841024290e-03,5.258171796479306839e-03,1.540459096431732178e-01
-4.604537795263528160e-02,-2.135906086277293836e-01,-4.694127860133100183e-02,-2.537396377759614744e-03,-1.208993277988969358e-04,-1.676818039436368292e-03,1.671822220087051392e-01
-3.683348552404067111e-02,-2.152352656715862955e-01,-4.735518082691081432e-02,4.452490759047899975e-03,-5.295830030109778888e-03,-3.087929194927474877e-03,1.738764792680740356e-01
-2.870393537731114053e-02,-1.968673628571795398e-01,-5.089025998268331685e-02,6.155249949699072645e-03,-4.565144508112446362e-03,-3.345396815229668107e-03,1.589024960994720459e-01
-3.411845975866861086e-02,-1.950214581670113301e-01,-4.835444594789514716e-02,2.173693981098182015e-02,-8.791586177102395788e-03,-9.454308100943029786e-03,1.603724956512451172e-01
-4.316239983913678496e-02,-1.574047575604823335e-01,-4.689060494515792654e-02,1.897341537248542487e-02,-9.079516096712899123e-03,-1.207635561284375533e-02,1.200170665979385376e-01
-2.420586177311920273e-02,-1.899918228646070295e-01,-4.566324713852304429e-02,1.283788883410346381e-02,2.981192181220729308e-04,1.778068430028662905e-03,1.577727943658828735e-01
-3.407317109879944017e-02,-1.644333941634134044e-01,-5.186066420589066639e-02,1.378603112945032266e-02,4.123855402386206875e-03,3.169832624957744874e-03,1.250708848237991333e-01
-3.334701224168292594e-02,-1.337065196633699105e-01,-5.083287186610094960e-02,3.251164880836175664e-02,2.992319182933136749e-03,3.094791704261828490e-03,1.088555529713630676e-01
-2.668188553105947658e-02,-1.577473609742406357e-01,-5.154525353428297818e-02,3.209405860859566861e-02,-2.456897432850936288e-04,-1.982238545698018772e-03,1.328144222497940063e-01
-3.480553397208410032e-02,-1.704178180421386246e-01,-5.490322622307299005e-02,1.649209019865486778e-02,-1.848817895123644039e-03,-2.714141060968716830e-03,1.300670504570007324e-01
-2.705642626366885212e-02,-1.634216671375128271e-01,-5.294533713754059900e-02,3.180102411181728872e-02,-1.088772967132885499e-03,1.011494592823244856e-03,1.370252072811126709e-01
-4.566289257794384909e-02,-2.170387278726764180e-01,-5.342431054614993347e-02,-8.123531824589930433e-04,1.521991735609314446e-03,-3.541280983908278151e-04,1.676576882600784302e-01
-3.836284503595729228e-02,-2.119493404711965123e-01,-4.260628407119655681e-02,5.172806341177698568e-04,-4.702793879621812488e-04,-7.710597083233240853e-04,1.715136319398880005e-01
-4.536041567524456974e-02,-2.231886640914338416e-01,-5.697303841929204221e-02,2.508687454484285822e-04,-4.380585413795868980e-04,1.251794408786052401e-03,1.723315119743347168e-01
-4.588237434254550939e-02,-2.205098209188918745e-01,-5.568616834639485147e-02,-9.923101523611889234e-04,1.632989964344102457e-03,-1.636100168525258126e-03,1.699936240911483765e-01
-4.671219576569363846e-02,-2.176390864055110508e-01,-5.268671010261296445e-02,-1.101176446731640113e-03,1.513890460146270203e-03,-5.545595830061613579e-03,1.683248877525329590e-01
-4.526132439616501607e-02,-2.163575309552390191e-01,-5.330710929303657947e-02,5.880805574542615106e-04,-9.631660024734325920e-04,-2.095178854682371375e-03,1.672693490982055664e-01
-4.847927395051086774e-02,-2.150018018559075039e-01,-4.874838767549764806e-02,-1.866735565694662129e-03,2.391752470697365227e-03,9.113867993407416329e-04,1.664785891771316528e-01
-5.184502477471256837e-02,-2.175147242262546188e-01,-5.064416790949193004e-02,-1.508412167807755312e-03,3.182999364629645212e-03,-1.846808706111940045e-04,1.663855761289596558e-01
-4.902181613030453383e-02,-2.114238533151693022e-01,-5.170093265547435341e-02,-3.987824281334562907e-04,8.391127704364775668e-04,7.936397155953612420e-04,1.610930860042572021e-01
-4.634076964703748996e-02,-2.115991012914664737e-01,-4.618009830878070515e-02,2.950979050018268665e-04,9.391687911250019795e-04,8.313842577015571498e-04,1.653537899255752563e-01
-4.601874073830797968e-02,-2.207315587860841366e-01,-4.602585605150424919e-02,-4.374301329680041657e-04,-5.225309530638292451e-04,4.809766350607108491e-03,1.749117523431777954e-01
-4.642847138748253111e-02,-2.117471453081602450e-01,-4.688298377664990024e-02,-1.670693365338930337e-04,-1.064963999633639199e-04,7.239877427114322240e-04,1.650970131158828735e-01
-3.868478491806799646e-02,-1.981077565064929824e-01,-3.809831987543450815e-02,-8.357687033876494420e-03,-6.945757175523581232e-03,7.522293659854128144e-03,1.613491922616958618e-01
-5.204034011760270972e-02,-2.340759162004229510e-01,-4.836499700003031588e-02,-2.572916445532108347e-03,3.288711426742787092e-03,-1.280841894700486018e-03,1.840563267469406128e-01
-4.799849732595246748e-02,-2.108828225178147053e-01,-5.021489144462386311e-02,-6.946617722285489648e-04,1.738984888025358602e-03,5.274182182789530562e-04,1.618226021528244019e-01
-4.936019470413368498e-02,-2.152561435437863602e-01,-4.907185824820352316e-02,1.368933601148175205e-03,1.624039330109332095e-03,-1.198754106643602595e-03,1.660940349102020264e-01
-3.893979621774930344e-02,-2.087645691538697057e-01,-3.289732661540142877e-02,1.785380565629323475e-04,2.482474295929336296e-03,7.027080096917811452e-04,1.729832142591476440e-01
-3.664186796754898695e-02,-2.101851139785709532e-01,-3.636547766479138882e-02,1.086299848579289534e-04,1.119810327995313364e-03,3.649030997120812831e-04,1.736936867237091064e-01
-3.977022178724095441e-02,-2.095332183340577192e-01,-3.439825182318295010e-02,1.223210914748686486e-03,1.065796359534139804e-03,3.919435243979220158e-04,1.725359410047531128e-01
-6.436190290316792795e-02,-3.416293664461169666e-01,-5.191871267386576061e-02,-3.476490832857852264e-02,-2.993828093523422974e-03,2.186542302027710827e-02,2.925220429897308350e-01
-3.002377609868575603e-02,-2.072726629634227269e-01,-4.539251260536606575e-02,-3.539914949091355328e-03,-3.377435334457858356e-03,-9.062850316426809079e-05,1.702971309423446655e-01
-3.742274395376960633e-02,-2.091417956319940874e-01,-3.628425791544801632e-02,2.418428690208799755e-04,1.293523869355448722e-03,5.747690332713079487e-04,1.723090708255767822e-01
-3.753383584896886893e-02,-2.099080670177400076e-01,-3.696699309693592811e-02,-1.822175748108711361e-04,6.426282159596652041e-04,-1.094266696192588783e-04,1.726623326539993286e-01
-4.821902173658028368e-02,-2.104506645037184931e-01,-4.580556540915337732e-02,4.046826522197055566e-04,-7.140402639880659864e-04,6.960466775250617397e-04,1.634623557329177856e-01
-3.946084098813285729e-02,-2.099570318061615426e-01,-3.635151017495719811e-02,2.544323266073866092e-04,4.372419611599061653e-04,-5.517661006066967768e-04,1.720768064260482788e-01
-5.032707246824255631e-02,-2.447490730093027367e-01,-4.549155349374951751e-02,-2.605613476222697240e-03,-2.458905270779419665e-03,-9.080126890555796637e-03,1.976089030504226685e-01
-4.093037528523094798e-02,-2.115529488914352774e-01,-3.958899288499780067e-02,-3.377773948047605953e-04,-3.524139956134063768e-04,-8.722142976677644145e-04,1.713059544563293457e-01
-5.339691032412093724e-02,-2.355460549596261888e-01,-5.051986534805302798e-02,-3.531428371316318489e-03,1.549957287495082889e-03,-9.292413487415870921e-03,1.844296753406524658e-01
-5.005326502826401569e-02,-2.290345783121921497e-01,-5.066795066956052140e-02,6.649211539229539850e-04,4.401128870084339458e-03,-3.120449696706198341e-03,1.789226680994033813e-01
-4.462001243986944005e-02,-2.109208359637868013e-01,-4.209723914301070208e-02,-1.200115980849246087e-03,-2.481893653011035534e-04,8.640600298456047653e-04,1.675965785980224609e-01
-4.610687553600872207e-02,-2.137155198565682257e-01,-4.518200242750776419e-02,6.857809962789400806e-04,1.792416208128375392e-04,-2.059742829137614292e-03,1.681153327226638794e-01
-4.408206961509265193e-02,-2.131363792739458529e-01,-4.207588789172151539e-02,-1.081278180055724857e-03,-1.617023589327087115e-03,-6.830209821948407078e-05,1.700996905565261841e-01
-4.154536975742705723e-02,-2.115301677655248846e-01,-4.307287568964125735e-02,1.160141431598559576e-03,-1.941756450861859343e-03,1.983742620873471540e-04,1.692719161510467529e-01
-2.624054826448579680e-02,-2.015709416148814270e-01,-4.265695178036313373e-02,1.946460346288353144e-03,3.643293802263216936e-03,1.536646867865415619e-03,1.678994446992874146e-01
-4.546029436323219958e-02,-2.113129800841088701e-01,-4.684780391171944336e-02,-2.970405587983992839e-03,8.194876773687305872e-04,1.569699635504681785e-03,1.652718782424926758e-01
-3.745865140781389629e-02,-2.124197930701880177e-01,-4.064092886614568273e-02,-3.614259458909385627e-04,-1.023233469109386231e-03,-2.282043299773070879e-04,1.734025478363037109e-01
-3.671693242237000776e-02,-2.115922236612204355e-01,-4.038277834356990975e-02,1.468077621326591663e-04,-9.213523674354137574e-04,-1.322585462692811727e-04,1.730791777372360229e-01
-3.895876690357411021e-02,-2.118194822034872304e-01,-4.103019755255930129e-02,2.918887529812453025e-04,-4.112082702698001760e-04,-7.278647183988219260e-04,1.718412041664123535e-01
-3.950029804581601384e-02,-2.126912309048762939e-01,-4.072154190678275304e-02,-5.948658329015037117e-04,-2.483106799363854304e-03,-2.592717811407285354e-04,1.726407855749130249e-01
-3.167617463955527818e-02,-1.472203007115113205e-01,-3.617525471258506431e-02,5.187045370777083886e-02,5.142419945413210028e-03,9.941570130529302912e-03,1.459394246339797974e-01
-3.324935900337133710e-02,-2.005953130712349319e-01,-4.380044170032119932e-02,1.786120742546492418e-02,2.362130742527942390e-03,6.214252364109893248e-03,1.656501442193984985e-01
-2.821629827683950348e-02,-1.876043439162654869e-01,-4.608129902811453765e-02,2.162732945208383634e-02,3.645439526849250308e-04,3.518143162817594094e-03,1.559390723705291748e-01
-4.131012173472133064e-02,-2.081516324765865233e-01,-4.721162691058178318e-02,3.387558082843222795e-02,-4.940414762538183598e-04,-9.613059556385824536e-04,1.741621941328048706e-01
-5.525676620690982838e-02,-2.146165582515566495e-01,-5.320873197006160266e-02,7.844138104037162718e-02,4.483363545793510839e-03,-1.492770446485699488e-02,2.119294106960296631e-01
-4.691017523391915328e-02,-2.081625289058096628e-01,-5.024378150602909487e-02,6.463859552159498256e-02,3.097923756818206018e-03,1.840322141196336359e-02,1.976237744092941284e-01
-3.741445741884662918e-02,-2.118229828442546592e-01,-3.956881461737746242e-02,4.104975175607473623e-04,-5.384933032363506573e-04,-7.023369513170187777e-05,1.733454018831253052e-01
-3.199472738581901621e-02,-1.825284829398763353e-01,-5.082642163775852318e-02,-8.556249432958955292e-03,-2.114846936357288668e-03,1.861545773882340412e-03,1.429114490747451782e-01
-4.542219967639521405e-02,-1.795994950256663558e-01,-4.988838992182877130e-02,-1.022549174248556757e-02,-7.888078139173788569e-03,8.530652658133821425e-03,1.346955597400665283e-01
-3.537345148770025538e-02,-1.364222841834589195e-01,-4.010935748688713998e-02,-2.127429054330183533e-02,-7.588942049306055329e-03,1.613380658023873954e-02,1.098462492227554321e-01
-4.020073685487456777e-02,-1.510611427509354621e-01,-4.627558378047137710e-02,-1.760376375388122624e-02,-8.498210516721740881e-03,-3.084555684112447356e-03,1.132623180747032166e-01
-3.366153151248619385e-02,-1.846227134392239289e-01,-5.212958981135064340e-02,-2.361840062578835636e-02,-1.025924956654041898e-03,1.556793389208533133e-03,1.484126150608062744e-01
-3.960115878576796200e-02,-1.911756337221240387e-01,-4.744581955500799808e-02,-2.060099718300267141e-02,-9.313851837891294269e-03,1.900904547114167648e-02,1.564122438430786133e-01
-3.164724870097517656e-02,-1.989500965980076641e-01,-4.740295416341219759e-02,-1.039794153038626351e-02,-3.816930327302300342e-03,1.135045956199077274e-03,1.611658632755279541e-01
-3.615837968374282368e-02,-1.949797054401649632e-01,-4.762957914610400911e-02,-2.722467587501626110e-02,-5.497904095940770591e-03,3.771222050150830826e-03,1.609062701463699341e-01
-3.783596269797993850e-02,-1.768338129324025232e-01,-5.597880303264624047e-02,-3.123863933097500642e-02,-5.501397204068878867e-03,-2.185733713396000727e-03,1.419874429702758789e-01
-3.716958461446177864e-02,-1.301464631094424729e-01,-4.893141072767141775e-02,-2.090606387545567574e-02,-8.467548608434989979e-03,1.196437186029808419e-02,9.820992499589920044e-02
-4.543941154895218826e-02,-2.428186207957629406e-01,-4.727403606458037422e-02,1.042033748083621286e-02,2.134278582932181562e-03,3.651461180104258707e-03,1.974315494298934937e-01
-4.633546126048031233e-02,-2.110480374738676890e-01,-4.504348680756205953e-02,1.026322807557782015e-03,-3.803720970413984321e-04,-1.654247636506580969e-04,1.653734594583511353e-01
-4.471671979701326294e-02,-2.093762252603552643e-01,-4.600082151177591755e-02,5.537242946429088257e-04,-8.273410829066515882e-04,-1.700189771968450597e-04,1.640305519104003906e-01
-4.982039094609144736e-02,-2.237547220300606932e-01,-4.722374389075428142e-02,-5.766061110118767897e-04,-1.563997256102910276e-03,-6.244601106741361641e-04,1.752742081880569458e-01
-5.535712174492309068e-02,-2.506639881323314278e-01,-5.523179446175525975e-02,-4.124747382230439796e-03,-7.279861735172867346e-03,-6.727540622715171698e-03,1.962525844573974609e-01
-3.908593354034235051e-02,-2.029779980552300356e-01,-4.531975141870715068e-02,1.286731296125269430e-02,3.394821109769610191e-03,5.279857122300194924e-03,1.627658009529113770e-01
-5.349055685265249882e-02,-3.283619310797297741e-01,-4.969470969595329857e-02,2.498742189898918442e-02,8.409867271313865161e-03,2.167352157686426584e-02,2.830310463905334473e-01
-4.675375813386307283e-02,-2.130830400724826323e-01,-5.273366275795621921e-02,1.757712802137946539e-05,-1.991025191237418696e-03,1.945591594193288852e-04,1.634581387042999268e-01
-4.823485403577471020e-02,-2.217748242294436678e-01,-5.076726057598646841e-02,-1.034036330514079977e-03,-1.418841501974631462e-03,-9.452175937811292325e-04,1.723223328590393066e-01
-4.496558669212599030e-02,-2.137564752596732010e-01,-4.519286647700183901e-02,-6.660450650352025756e-04,6.381528548578202856e-04,-7.008087331973235226e-04,1.686892956495285034e-01
-3.982629652750663274e-02,-2.119409550212327797e-01,-4.118549944367384807e-02,2.638867266430751628e-03,4.277104673833008811e-03,4.142527497605075215e-03,1.718098372220993042e-01
-5.291530066195940241e-02,-1.910468013476651072e-01,-2.713085228307553221e-02,3.798844033671371686e-03,4.485735790478706173e-03,3.739121094975272896e-02,1.661467999219894409e-01
-4.168476534438935593e-02,-2.114061447958510698e-01,-3.712614530548119518e-02,-3.145711640035734301e-03,-5.572352750136367987e-03,9.744036848075470283e-03,1.732267290353775024e-01
-4.598294023446631434e-02,-2.115082331828804230e-01,-3.807796996409890805e-02,2.384353589098734717e-03,1.542634728036760411e-03,1.307212052762805540e-02,1.711911708116531372e-01
-4.953587984995787286e-02,-2.109937248124324205e-01,-2.746109130879748061e-02,2.517161820749001062e-04,2.075601123108667193e-03,1.277385627596921459e-02,1.749934554100036621e-01
-4.715380398215069518e-02,-2.095206236201669903e-01,-4.714127034281780093e-02,-5.642650796346569475e-05,-4.550968502939947816e-05,1.774938492700198450e-05,1.623731404542922974e-01
-5.069664703382402438e-02,-2.105946330030462055e-01,-3.916464246261303073e-02,2.225182874454943380e-03,-1.524659497392737823e-04,2.845875928642966832e-02,1.731730997562408447e-01
-5.194934309077610390e-02,-2.158378617384726361e-01,-3.419932521625139443e-02,-5.022363226356880463e-03,1.734008792210970642e-03,2.171304555279369303e-02,1.777149289846420288e-01
-4.223569974954920203e-02,-2.114798255052049991e-01,-4.187693971795840991e-02,1.596061356174527379e-02,5.622942651224565290e-03,1.703779891660536783e-02,1.744544506072998047e-01
-3.856825446866032209e-02,-1.961852800006688435e-01,-3.589972194297521429e-02,2.261753519570461335e-02,8.259380112555619532e-03,2.558073764451583923e-02,1.702154129743576050e-01
-3.982448948895217500e-02,-2.069781585002318236e-01,-4.072776944188050141e-02,1.192284389136997330e-02,9.982007896354960080e-03,1.543462336764189757e-02,1.709685474634170532e-01
-3.656667793665814570e-02,-2.136502664633974646e-01,-4.677333283513999962e-02,1.687745941729622973e-02,8.007932134776234168e-03,1.304283863725109842e-02,1.766709238290786743e-01
-3.591950654229997958e-02,-1.772140531475100977e-01,-4.080577307062448200e-02,2.931149712418964701e-02,9.842024787491611415e-03,1.460333947657745969e-02,1.510148346424102783e-01
-4.550554174798755735e-02,-2.103310304786755736e-01,-4.615651205539333252e-02,-4.018293469300098577e-05,-1.490865146503942737e-05,1.075163093275625145e-03,1.645115315914154053e-01
-4.111590362285134220e-02,-2.218200873407039642e-01,-4.283778697016790704e-02,5.421250520073970722e-03,4.681990212873698293e-03,1.303041300270474899e-02,1.816841363906860352e-01
-4.665371214378576104e-02,-2.183554279529468234e-01,-4.506129208497137995e-02,-9.219983997639399865e-04,5.664717342036512497e-04,6.127678798786438587e-05,1.725136488676071167e-01
-4.912116390012605249e-02,-2.118652382476560736e-01,-4.851686039528687461e-02,4.139333093120774252e-04,-1.756255796391615383e-03,-5.996789102432546585e-05,1.630770415067672729e-01
-4.519529278277333029e-02,-2.350660927802626921e-01,-5.254738418604539690e-02,-2.216577807928081598e-03,-1.079051337049296818e-03,-2.440747721762974529e-03,1.864004582166671753e-01
-4.274560334464603401e-02,-2.209117797455682763e-01,-5.207230960754506005e-02,4.364002346460089422e-03,-1.309497485537982394e-03,-1.830806525320721745e-05,1.738699227571487427e-01
-4.581779544853623043e-02,-2.424708459882501943e-01,-3.748593146484308081e-02,1.100040398495791478e-04,-9.725735370750169606e-04,4.454130360058985993e-02,2.152556329965591431e-01
-6.001710844637396514e-02,-3.417514460484647465e-01,-4.771074836533463481e-02,-2.552511704035340459e-02,5.560294302116509241e-03,4.300036306950928700e-02,3.009771406650543213e-01
-4.674636350785683209e-02,-2.212028969194139161e-01,-5.175349084134465982e-02,-3.784149147028166224e-03,-2.806347591868820716e-03,1.800625729865588031e-03,1.722293198108673096e-01
-3.239770031993062516e-02,-2.094584219079176080e-01,-4.810397028555731674e-02,2.023802459052379335e-03,-3.382570893428632399e-03,-5.552746963569882635e-04,1.698933839797973633e-01
-2.720260101233182293e-02,-1.932973215256668653e-01,-4.687839516127881301e-02,9.953237541044443817e-03,-1.793476227907546254e-04,-1.474455491054723743e-03,1.581466645002365112e-01
-4.150336856872639812e-02,-2.198975929189218026e-01,-4.876390034091534348e-02,1.007867786971596187e-02,-2.729091945007768114e-03,-3.999716672253067831e-03,1.759461611509323120e-01
-2.612297805964953340e-02,-1.877500636913397858e-01,-4.655014783671827805e-02,2.723170723385063760e-02,1.467941792761075269e-03,5.519323012982886058e-04,1.595966070890426636e-01
-2.290055860865575915e-02,-1.620800787681601629e-01,-4.588522111277065774e-02,1.822637152657209658e-02,3.194040306270544503e-03,3.044045604217885791e-03,1.332488059997558594e-01
-2.926799241844034449e-02,-2.005467716669031009e-01,-4.597184303538062733e-02,9.117908245557273389e-03,-3.872561526748815632e-03,-3.562874041831414797e-03,1.645810008049011230e-01
-4.064918575101163917e-02,-1.905760911181658690e-01,-3.268277109608835884e-02,4.945691898168878137e-03,9.757547073560019282e-03,-4.722596444474007858e-03,1.554407924413681030e-01
-2.659551070926206850e-02,-2.044280399964850670e-01,-5.327310732887359512e-02,8.017027116101454326e-03,4.781945478706806085e-04,9.749690759074034190e-04,1.666982769966125488e-01
-5.330028787089001463e-02,-1.312567987957412585e-01,-4.364040106063986346e-02,-5.220965754431716038e-03,-7.175461096396910585e-03,7.202945930518515200e-03,8.553049713373184204e-02
-6.217106519533238673e-02,-1.427969600382126281e-01,-5.041301421400446597e-02,-2.663256315345179440e-02,-9.546612929617885601e-03,1.678458584318212599e-02,1.040829047560691833e-01
-4.509396693636244513e-02,-2.051130528997542335e-01,-2.903866082119103964e-02,-1.568636836389516228e-03,-1.987490766578729924e-03,9.530374217944119009e-04,1.686860769987106323e-01
-5.174353247084218649e-02,-1.396462494726284920e-01,-5.148650301593572787e-02,-2.309384672988036222e-02,-8.402657213865055014e-03,1.617492918178606298e-02,1.017163842916488647e-01
-4.645523314668770221e-02,-2.142517632352277102e-01,-4.732672680311252045e-02,-9.609901689922085728e-04,9.718092127276021543e-04,-2.829411423965310767e-03,1.674509495496749878e-01
-4.762140819207909270e-02,-1.175159236938712048e-01,-3.985558078383222291e-02,-1.284776972187313265e-02,-2.305827772082227889e-03,4.297629394074249654e-02,1.074261218309402466e-01
-5.169637020778775072e-02,-1.822077372796545858e-01,-4.063792035626780791e-02,-3.132340414096098941e-03,-7.290930594791049033e-03,8.915098469675048626e-03,1.379351466894149780e-01
-5.036892364059624566e-02,-1.611139217540361601e-01,-3.688958307996179076e-02,-1.421528691623596269e-02,-6.148474971796922574e-03,2.071358229571239676e-02,1.262763142585754395e-01
-4.518860387170319654e-02,-2.104348995759353635e-01,-4.545029657614149676e-02,-9.010649198680116003e-05,1.012838291714846325e-04,2.772126941626993691e-04,1.651164740324020386e-01
-5.077539486493491683e-02,-1.072986833673460622e-01,-4.030214435459299194e-02,-1.220721151566049774e-02,-4.996800202415448144e-03,2.358052489619797895e-02,7.801685482263565063e-02
-4.258255576621288591e-02,-2.106386737481176219e-01,-4.044945171613666124e-02,2.057860104709290669e-04,1.664960308556874763e-03,1.378661059922215836e-03,1.691745668649673462e-01
-5.731969568091865863e-02,-1.603867257118252176e-01,-3.904427461036753810e-02,-2.316332093389810148e-03,-5.650615892845804560e-03,1.862135897146227625e-02,1.182900965213775635e-01
-4.542771676863203989e-02,-2.185555362259590240e-01,-5.476825943749188269e-02,-1.290957814381288229e-03,-1.901686405412218153e-04,-8.127879116543917709e-04,1.686726659536361694e-01
-4.550807840890375155e-02,-2.198646768513637384e-01,-5.435584103557360852e-02,-2.295763387142737771e-04,-5.968803992574906120e-04,-1.387892992392394768e-03,1.701259762048721313e-01
-4.976375032192779935e-02,-2.516573839704872584e-01,-4.603429896167028634e-02,-7.761924782404938487e-05,1.039432400091246014e-03,7.334041332491366381e-03,2.041874676942825317e-01
-4.829662460734199247e-02,-2.423769513601715386e-01,-5.298137914360952910e-02,-3.626058474121387262e-03,-2.165642784057245085e-03,8.956546402568068416e-03,1.925462931394577026e-01
-4.373158825684383966e-02,-2.313335094919664880e-01,-4.097993301420091439e-02,-6.381919641087959415e-03,-2.007714603271495979e-03,3.192021540443562566e-02,1.972542703151702881e-01
-4.400742354181234189e-02,-2.184278896056971730e-01,-5.468829530232897917e-02,-4.897617617710468656e-04,-1.858757543346670985e-03,-2.389651307027805213e-05,1.693655848503112793e-01
-4.722216788074010130e-02,-3.028111200942373848e-01,-5.300471435058201619e-02,4.296480587759504699e-02,6.842820284674582844e-03,1.915211806542706230e-02,2.658194899559020996e-01
-4.683473087105473331e-02,-2.425760520765577466e-01,-5.526364343925177502e-02,5.334370275792752088e-03,-2.117335111513345028e-04,1.055825379302940265e-02,1.927582770586013794e-01
-4.071317355391555065e-02,-2.015257809302806735e-01,-3.620396953003659352e-02,3.357250010380474249e-03,6.974825261511618385e-03,6.330205934100521098e-03,1.640309095382690430e-01
-4.735015614813015139e-02,-2.107555801856799693e-01,-4.783114364082301229e-02,9.446106235318181077e-04,7.514562859680588673e-05,3.921498122864675831e-04,1.631751358509063721e-01
-4.896912704475529093e-02,-2.264471817440357193e-01,-3.960083131477386276e-02,-1.525873824517391501e-04,5.549659259445329992e-03,9.093522905156829414e-03,1.832742094993591309e-01
-4.063358682412297057e-02,-2.221009562648579849e-01,-3.904929886450305559e-02,6.578154265446323028e-03,6.623824798700229596e-03,1.319049172879766321e-02,1.844012439250946045e-01
-3.517274529204207634e-02,-1.743873999441483691e-01,-3.486676695056995651e-02,2.343270709678556968e-02,9.255359922028704583e-03,2.708083854457339623e-02,1.533876955509185791e-01
-4.557671703695729409e-02,-1.902938195415755374e-01,-3.915738157538647263e-02,1.460512419451171981e-02,1.025716495896997031e-02,3.108994977822404290e-02,1.605258435010910034e-01
-5.869785565296103957e-02,-2.548062744262780122e-01,-5.249655208702776188e-02,-4.531295526579628280e-03,-2.297217556404317421e-03,9.548337839711037306e-04,1.994824856519699097e-01
-4.838978620901283195e-02,-2.177867572871580726e-01,-5.040016399495320792e-02,-6.926243318427054152e-04,-1.400923884509218138e-03,-5.300822402376113504e-04,1.684250384569168091e-01
-4.528282186855133590e-02,-2.158163679840340299e-01,-4.666387523244990010e-02,4.047930824353102855e-04,6.053659620990839560e-04,-1.026754017297673224e-03,1.698612272739410400e-01
-4.839397071060975997e-02,-2.090769536243587690e-01,-4.613561556119648299e-02,1.133178118569058094e-03,-1.316962892221317091e-03,3.014193087801173530e-03,1.619361340999603271e-01
-4.934730924076128483e-02,-1.285261615687283976e-01,-5.391845587775359605e-02,-8.715788407723100428e-03,-3.383910904939269309e-03,9.396773883040691541e-03,8.034546673297882080e-02
-5.218687574000668850e-02,-1.353918938350992529e-01,-3.517109552870324035e-02,-4.114670552086748673e-03,-5.205479227830555472e-03,3.204407549873881933e-02,1.088161766529083252e-01
-3.701171542801807990e-02,-1.597116986526472271e-01,-5.033310317261368433e-02,-3.628153654427654362e-02,-6.470380118693484263e-03,1.249860171008339640e-02,1.346904039382934570e-01
-3.967687883911303476e-02,-2.136133593366737471e-01,-4.440232893691508503e-02,4.874908273570319889e-03,2.196240862409542128e-03,-9.576889612622608130e-04,1.718802452087402344e-01
-4.568730651867455861e-02,-2.462708001905438704e-01,-4.519593078528538754e-02,-3.227249886972510806e-03,1.509756282624613501e-03,7.074071755606072855e-03,2.012976706027984619e-01
-4.762680304716360169e-02,-2.153332597373001922e-01,-5.001788810460659762e-02,-8.493796313519945971e-05,-3.204490274390843648e-04,-2.494481459548586466e-04,1.665253341197967529e-01
-4.540064409345434537e-02,-4.296112856435646554e-02,-3.582173763296005176e-02,-2.438042454104224696e-02,-5.868946281316993890e-03,2.236549446901456295e-02,5.883479863405227661e-02
-5.011076358409924381e-02,-1.256861247775796775e-01,-5.144168401755216946e-02,-1.094855376053636975e-02,-5.351999861530276452e-03,1.133461684995937246e-02,8.027319610118865967e-02
-5.519723200707603306e-02,-1.151928444426452980e-01,-5.160961380972627077e-02,-1.306341663301493518e-02,-8.000576892854611988e-03,1.190632724857817147e-02,7.040493190288543701e-02
-4.714069730700166244e-02,-1.266731025209416328e-01,-4.440957470044652050e-02,-8.620914948901858485e-03,-4.935213825141190544e-03,8.529016785756403027e-03,8.404961228370666504e-02
-5.545265393557488598e-02,-8.310861494344694289e-02,-4.958078527812973674e-02,2.074842085985427464e-03,-2.772166296492460311e-03,2.551839656307923476e-02,5.432548746466636658e-02
-4.893710854643559816e-02,-2.108714064899392115e-01,-3.562674925666906023e-02,-9.045665174110228664e-04,-1.421290507645168273e-03,8.174501133896724904e-04,1.690142154693603516e-01
-3.557573518439010457e-02,-1.898268835389515796e-01,-4.876428108370056691e-02,-3.048675838198282306e-02,3.523244153602993201e-03,-1.139933406301371806e-02,1.585824936628341675e-01
-3.794441739230820093e-02,-2.104797236277228811e-01,-4.405767092672870089e-02,-1.827641815486387693e-03,2.510364624913569848e-03,-1.023103600712295071e-04,1.696467250585556030e-01
-4.220631552109493922e-02,-2.158919930861755709e-01,-4.024144435317377616e-02,9.889363257592070910e-04,3.118148766308035530e-03,8.428330079368110111e-04,1.747743636369705200e-01
-4.881697114472832721e-02,-2.127409713155696269e-01,-4.600782095213588191e-02,1.024845084835832726e-03,-1.213748719506246854e-03,2.186538119733285809e-03,1.654127240180969238e-01
-3.978194680399764482e-02,-2.120671862720016065e-01,-4.210351792587019998e-02,-6.142962084662260134e-04,1.786865311798338128e-03,2.751130564082479796e-04,1.711682230234146118e-01
-4.424832077738840436e-02,-2.147173814770227951e-01,-4.144298655623588484e-02,2.116909318647457530e-03,1.085835670006807252e-03,1.196083083866514990e-03,1.719507724046707153e-01
-3.893325262480314825e-02,-2.011757846343367184e-01,-4.053299067476294482e-02,-2.869753214420028668e-03,4.566523617794885845e-03,6.543930918418378127e-04,1.617226153612136841e-01
-3.863802306672506348e-02,-2.138984402961128795e-01,-4.257037406593981721e-02,-6.829366137448941894e-04,3.153399383806892824e-03,-1.120013035952614582e-03,1.734286248683929443e-01
-4.430842125611650362e-02,-2.189383862645079559e-01,-4.403600042720194618e-02,-1.506438004464154615e-02,-2.715777807020312328e-05,-8.593677826820331905e-03,1.773291677236557007e-01
-2.884644934703430030e-02,-2.099090589733230983e-01,-4.507939926506482342e-02,9.233446175660284683e-04,5.781565981856538142e-04,3.938603928673919388e-04,1.735281646251678467e-01
-3.823281422163514465e-02,-2.124413813523596262e-01,-4.117825470708561669e-02,2.391456926981678295e-04,3.141803659510742763e-03,1.838403404124707287e-04,1.728411614894866943e-01
-3.469514938389609005e-02,-2.112133471110844429e-01,-4.572815383005258971e-02,-4.432176868290524027e-03,5.925491709295156208e-03,4.519308149085526569e-04,1.717491000890731812e-01
-4.705364825759859870e-02,-2.154004690783515030e-01,-4.714917494719611524e-02,4.954631326176616671e-04,-5.549139891677258964e-04,1.669829127532186370e-04,1.683042645454406738e-01
-4.896628325259198139e-02,-1.989894617192758675e-01,-2.550531316251763991e-02,7.328494417851174302e-04,-1.811836385037403048e-03,-2.340572893951740018e-05,1.630598753690719604e-01
-4.984955981566795841e-02,-2.189988401468546675e-01,-4.619074624459775652e-02,2.739352683606547257e-03,1.424694565137498109e-04,7.803890573074205670e-04,1.710793673992156982e-01
-3.721461873241393298e-02,-2.088586446581759959e-01,-4.382322463243191329e-02,-1.485344452671121494e-03,2.821155516708668144e-03,7.190606629598011957e-04,1.685320883989334106e-01
-5.151564286874069087e-02,-2.364957782881958737e-01,-5.008173757408350413e-02,3.261141477825402028e-03,-3.935669945977713843e-03,-7.800780899997073609e-04,1.859170496463775635e-01
-4.210256799002334155e-02,-2.092113162918058378e-01,-4.496584806867684470e-02,-7.980257037872626191e-03,1.544707569090338854e-03,-1.219979643652438842e-02,1.676298528909683228e-01
-3.801015765628117105e-02,-2.134319956800993512e-01,-4.485611490454565614e-02,-2.875220636285793531e-03,2.769916433355496758e-03,1.110457565767581679e-03,1.722506135702133179e-01
-4.966598397278577243e-02,-2.207770153543353042e-01,-4.710473766239899052e-02,1.021252302140741516e-04,-8.589141071514630596e-04,1.502043405889018574e-03,1.724320650100708008e-01
-5.636510301559240904e-02,-2.365258516805913147e-01,-4.676507063846777057e-02,-3.542189487329547759e-04,9.280532470645780786e-04,-1.093529343163009496e-02,1.861217468976974487e-01
-4.940096812341754351e-02,-2.496420595713716994e-01,-4.950068939704357907e-02,-1.045151942975769757e-02,-4.942764939466080712e-05,-9.739136697902436163e-03,2.017146497964859009e-01
-4.566320984600198002e-02,-2.115235361609265619e-01,-4.399879031589529199e-02,-1.818564523832184518e-02,5.887053663532554803e-04,6.925101747055776094e-03,1.700751036405563354e-01
-4.436512639827314836e-02,-2.118716781875082944e-01,-4.308788056097947322e-02,5.686509077712047916e-03,9.781200165106100110e-04,8.509458081729277118e-03,1.690891385078430176e-01
-4.994473526913138089e-02,-2.200144668589299191e-01,-4.531897952808709024e-02,3.629739820994989973e-04,-1.900019233825259472e-03,7.131141361129851846e-04,1.724661290645599365e-01
-5.122286561995526011e-02,-2.487046918045773825e-01,-4.879252592729187155e-02,-7.470118932257150367e-03,-8.790214199239532612e-04,-4.183744509435682532e-03,1.992665678262710571e-01
-4.762569048929999466e-02,-2.291081105825455433e-01,-4.533198727163974956e-02,-6.285653680865933499e-03,-2.384402043383338898e-03,2.671001712172368925e-02,1.887677311897277832e-01
-4.706361828693282623e-02,-2.163238117104941960e-01,-5.049556341906756562e-02,-2.089739282463901754e-02,-1.249065021699437977e-04,5.220731411749597595e-02,1.938217282295227051e-01
-4.751925768044393261e-02,-2.210710319790137324e-01,-5.028655095124304891e-02,-2.112269975482790850e-03,-1.416541942291060828e-03,-2.320575391236726244e-03,1.722880303859710693e-01
-5.245744811103693339e-02,-1.612236825617115177e-01,-3.815900992103270217e-02,-3.702635562333497082e-02,-2.574365329605044980e-05,5.046604029422128296e-02,1.591949909925460815e-01
-5.792723852246147581e-02,-2.023864058333460225e-01,-4.409408958412171231e-02,-4.653033534784678515e-02,1.789064060272920267e-03,4.786246811779267668e-02,1.908805817365646362e-01
-4.515927907764111932e-02,-2.157548432885694201e-01,-5.339556996276524636e-02,7.288506023118369241e-05,2.387502844177381324e-03,-1.108619940643287578e-03,1.666925698518753052e-01
-5.292326986625792151e-02,-1.642164022123637213e-01,-4.993239337071990469e-02,-3.733885739827527694e-02,1.047645498970911724e-03,5.262025523649135200e-02,1.588096618652343750e-01
-5.041289409776950753e-02,-1.695086222049377866e-01,-4.664734393272043644e-02,-3.333036365290702185e-02,4.890158103200312363e-03,5.318581632993237690e-02,1.629021316766738892e-01
-3.918961025129399228e-02,-2.115529099955652803e-01,-3.999869507392930790e-02,2.698346751620589294e-05,3.330176681265400659e-03,-8.201525084952215059e-05,1.720569580793380737e-01
-3.656116451587876348e-02,-2.126537093086890429e-01,-3.829447790462472967e-02,-2.594764223113690555e-04,5.157315269297369983e-03,1.660598750764574099e-03,1.754840016365051270e-01
-4.952364676937291710e-02,-2.098805780864562154e-01,-2.656159128121715618e-02,2.951478969084548286e-03,7.403657044025250958e-05,5.410353931609577366e-03,1.733138561248779297e-01
-3.327385133427706448e-02,-1.526225332025813453e-01,-3.256267751695197249e-02,2.492160908179308007e-02,7.784112901009346275e-03,2.383806259405690797e-02,1.344592422246932983e-01
-3.339432247014914590e-02,-2.055701116029248487e-01,-3.930052277883509804e-02,1.145150496135691892e-02,7.341673883452586209e-03,5.350148743274685606e-03,1.711825430393218994e-01
-4.121135678815559394e-02,-2.106774078606691303e-01,-3.995504829765608029e-02,-3.121280236140821021e-04,3.039190202108072673e-03,3.490725505316814078e-04,1.701810508966445923e-01
-5.083095301026502311e-02,-1.981328541971163482e-01,-4.733327938588937495e-02,7.194087115228063600e-02,3.179539801426015718e-05,1.805990679191564474e-02,1.968000233173370361e-01
-4.724291411572704991e-02,-2.129496316664535871e-01,-4.606881182216701620e-02,1.362927020871130667e-03,-5.273000418875715056e-04,1.268873907218482418e-03,1.663306653499603271e-01
-4.177050593795465089e-02,-2.137197060078728783e-01,-4.114050768519789819e-02,3.305753374253961405e-03,3.603128348036653897e-03,-1.532524227018815157e-03,1.724935621023178101e-01
-4.560145491834517728e-02,-2.130576718389265989e-01,-4.489775814817255351e-02,-9.136507726867189793e-04,-1.402653162427277157e-03,-5.837367163856563290e-03,1.681384891271591187e-01
-3.199147323573441060e-02,-2.127174357528260895e-01,-4.708553319074708365e-02,6.558850709625152660e-03,-3.070411374337439839e-03,-1.627163803256892038e-03,1.741467714309692383e-01
-4.556940742102035674e-02,-2.096368944529268252e-01,-4.670770134610701535e-02,5.977960740318240783e-03,2.849066743684370819e-05,-2.811148762308461873e-03,1.639011800289154053e-01
-4.702401385562943875e-02,-2.112822925140317165e-01,-4.267421766727442362e-02,4.022873653565848737e-03,-6.856232884237721753e-04,-5.438039482513144438e-03,1.668917983770370483e-01
-3.378743421562004773e-02,-1.915530239263129597e-01,-4.817234197302859566e-02,3.810210061788837227e-02,-3.108806897998913927e-03,-1.577175717420270865e-02,1.672064960002899170e-01
-3.917317898591252817e-02,-2.174573039608497516e-01,-4.808685623552167582e-02,7.487112657416999072e-03,-5.823774253389094741e-03,-1.072149438257319343e-02,1.757563203573226929e-01
-3.256963028428873363e-02,-2.057145268629206325e-01,-4.302923629183003085e-02,6.828862729772382061e-03,5.209540582925361110e-03,5.585731787655244876e-03,1.690930277109146118e-01
-3.366638018879863220e-02,-2.084508234529115211e-01,-4.377952069558067871e-02,7.801134462150717368e-03,5.511667828931678115e-03,4.997044081857443532e-03,1.709762513637542725e-01
-4.505315247284430447e-02,-2.147618454728989212e-01,-4.826440897993387186e-02,5.058476048893831810e-04,-3.717271638308524085e-05,6.840213128444217437e-04,1.681325435638427734e-01
-4.870726045866871634e-02,-2.121710468824819507e-01,-4.834171090755503414e-02,1.597306876023843036e-03,-1.703822359505970368e-03,1.594341246322976760e-03,1.637201458215713501e-01
-4.502940017158447994e-02,-2.133467585602498440e-01,-4.812611440317497019e-02,2.057508616149316023e-03,-5.899116084394332056e-04,3.737112867461360455e-04,1.668330132961273193e-01
-4.814843729315746584e-02,-2.125688799199434986e-01,-5.043604978388517568e-02,1.476378668584340647e-03,-2.629546834128966819e-03,1.324947638388978329e-03,1.633882969617843628e-01
-4.748189755493684161e-02,-2.129482405989903682e-01,-5.186623663833227899e-02,1.956374282574176605e-03,-7.981737473643942243e-04,1.589476333145978726e-03,1.633825153112411499e-01
-4.622827553864392730e-02,-2.115801636648177719e-01,-4.683976956145410875e-02,1.923386679660289656e-03,-3.081454008069915034e-04,1.390704496804642332e-03,1.650990396738052368e-01
-2.953200694998783099e-02,-1.964641486914475155e-01,-4.983996465682158372e-02,-8.354330428392491709e-03,-2.811295090129904738e-04,-4.487935269841861175e-04,1.584264189004898071e-01
-3.480363290190674475e-02,-1.980408787964703099e-01,-5.050993234770204121e-02,-1.350442958456570842e-02,3.563247796464546406e-04,-3.780561700009877311e-03,1.578594297170639038e-01
-3.790372391130953506e-02,-2.139229557331958909e-01,-4.375188591997263704e-02,-1.025338141686666857e-02,-6.221836962504992061e-03,4.796876725868147104e-03,1.746085435152053833e-01
-2.894223215398638444e-02,-1.733546231707768226e-01,-4.256794959541031903e-02,-2.028919136481478064e-02,4.394675066620272463e-03,-6.097801543149647570e-03,1.430989801883697510e-01
-3.470452908497682204e-02,-1.912008391697436749e-01,-4.955705408213299801e-02,-1.728682520771598549e-02,-5.894586549015421936e-03,6.952585925234215473e-03,1.534049659967422485e-01
-4.415176944534810605e-02,-2.126602444427407868e-01,-3.380887483976596775e-02,-7.414401657346687217e-04,-1.181664363710910586e-03,-2.001410520328731398e-03,1.739620715379714966e-01
-3.365705481049974246e-02,-1.863546197456498743e-01,-4.918901758087042969e-02,-1.174932612960684526e-02,-5.723166068055961057e-03,1.225074052681385337e-03,1.473193913698196411e-01
-4.298133183444120126e-02,-2.097240600297741175e-01,-4.102830704021725311e-02,-7.709671311589095182e-06,4.179359309471749554e-04,-7.696128147599832527e-04,1.677346229553222656e-01
-3.209856855752786509e-02,-2.134774435161147510e-01,-4.832999161672715122e-02,-7.317573197924286295e-03,-1.433041757744877610e-03,-1.182414425675043729e-03,1.743235886096954346e-01
-4.584762813520958102e-02,-1.831219267593142130e-01,-4.738977444639680403e-02,3.822432530063250844e-02,-2.442813383328806907e-03,6.164058140609696840e-02,1.855661571025848389e-01
-3.475079135930261853e-02,-2.172622497042453471e-01,-4.852380735132606066e-02,-2.298413581985643724e-03,1.565041998438962889e-03,-1.341552680866386904e-03,1.761107295751571655e-01
-3.871290276682267523e-02,-2.125795728764906523e-01,-4.692434299515993446e-02,-2.924151744524075905e-03,1.724838078222610486e-03,3.046958238755345357e-04,1.700123697519302368e-01
-3.265428545868542809e-02,-2.122905230675741772e-01,-4.877942220372113308e-02,-5.691581014411225062e-03,1.591782470609359127e-03,-2.679322119765418652e-04,1.724457591772079468e-01
-3.595622754291035589e-02,-1.913538239295316246e-01,-5.165885007593951778e-02,-2.526026245306818574e-02,6.223557762982359805e-03,2.711603811138492241e-03,1.549430042505264282e-01
-3.338277503430534671e-02,-1.899523539296903984e-01,-5.256642998705923081e-02,-9.904690863240039195e-03,-2.100624531341951928e-03,-2.477937525784863933e-03,1.490115225315093994e-01
-3.340737283644584082e-02,-1.885091804848251229e-01,-5.165203377518542277e-02,-6.618899366304015035e-03,2.815662659888983326e-03,3.053908697030473848e-03,1.474545747041702271e-01
-3.263556356720551110e-02,-1.815356305108496437e-01,-5.163576825849720831e-02,-6.733499775607455426e-03,1.989026890682431097e-03,1.499038391874402999e-04,1.408938020467758179e-01
-3.326634555217639760e-02,-1.850600421437235688e-01,-5.274806469896552857e-02,-8.809726176268614650e-03,-3.326720324127750272e-03,-3.427701120606257632e-03,1.441004574298858643e-01
-4.420550889587646776e-02,-2.109828259266090522e-01,-3.864587344974591138e-02,-2.748878955155889883e-03,-1.493571854064421793e-03,-3.495406825688141504e-04,1.697130799293518066e-01
-4.391839938979479052e-02,-2.205443399878426747e-01,-5.531680465257039769e-02,-1.438275461204708248e-03,2.769426148689075121e-03,-2.050651898582241291e-03,1.713336557149887085e-01
-3.966216888440783628e-02,-2.129095351518196511e-01,-4.005752056079409790e-02,-6.471140516672443336e-04,-6.337296094179479394e-04,-9.201801489871935563e-05,1.730572134256362915e-01
-4.405331818470668848e-02,-2.277553223277958561e-01,-4.622913969315794319e-02,6.581299534442659489e-04,6.049495164562610286e-04,-6.239099344119944900e-03,1.829498112201690674e-01
-4.910681599788585538e-02,-2.359789819161564606e-01,-5.604126907346566877e-02,-2.230222253471248785e-03,3.575069645697814824e-03,-3.137470025187618326e-03,1.837286949157714844e-01
-4.366073125919560372e-02,-2.276586208729692029e-01,-4.095190896026368321e-02,-5.053637416192881954e-03,-1.061326319540745449e-03,4.180701584691942641e-03,1.857240200042724609e-01
-4.725270061432246260e-02,-2.432670226508740485e-01,-5.758590004598840989e-02,-5.484371247899795347e-03,3.756289921004210292e-03,3.286150864333338677e-03,1.914886236190795898e-01
-4.159739795257971079e-02,-2.319729465162834459e-01,-3.545120710128321639e-02,2.042358076998148503e-03,6.594684595884505764e-03,8.489857155886950876e-03,1.944477409124374390e-01
-4.352551795242919769e-02,-2.129376683854226626e-01,-4.186375666221093389e-02,1.274630779402202013e-02,9.055658960191590584e-03,9.884989263159692230e-03,1.732377558946609497e-01
-3.961845873211821550e-02,-1.918212898020181800e-01,-3.831622455192828375e-02,1.580463681339275978e-02,8.869417920587447518e-03,1.384436230674038204e-02,1.578795760869979858e-01
-4.147105066278080482e-02,-2.100349398442656890e-01,-3.955500518504805746e-02,7.379763184316107203e-04,6.629914392780983075e-04,3.484152555673581059e-04,1.695398092269897461e-01
-4.604304042166853378e-02,-2.161332455157320420e-01,-5.490755728724570905e-02,-1.495617091206470194e-03,3.618507554211703738e-04,4.992794340661188112e-04,1.658594012260437012e-01
-3.998423617876761815e-02,-2.098878223109609253e-01,-3.524939910755409134e-02,5.018092894278588286e-04,1.424098151268411152e-03,1.122529890530487174e-03,1.723506152629852295e-01
-4.294035481473416904e-02,-2.110232345451341640e-01,-3.965694713293997642e-02,-3.511235272462517095e-04,1.163639381897936618e-03,1.314113247670515823e-03,1.697767078876495361e-01
-4.375007611342361658e-02,-2.102237779008868657e-01,-4.383062293694873351e-02,4.663814066865388619e-04,1.199242749736664348e-03,4.121214583574335988e-04,1.664498895406723022e-01
-4.803967346493652479e-02,-2.105627342952994252e-01,-4.678173630356750184e-02,-2.974554787824380299e-04,-9.302001936544391147e-04,-5.496377018455965695e-04,1.631672084331512451e-01
-4.616714852804203184e-02,-2.146944010304830397e-01,-4.547042067948484784e-02,-1.468647642819364153e-03,2.047492964257067354e-04,-1.294435676369842976e-03,1.689110994338989258e-01
-4.616652359719941590e-02,-2.132220507661004294e-01,-4.675103920971388632e-02,3.149801793563014271e-05,-8.138086545375594182e-04,1.551583640024231355e-03,1.667916625738143921e-01
-3.550415806339693447e-02,-2.047335503305590110e-01,-4.028090326554926298e-02,2.195576325733580164e-03,4.639500002349092669e-03,4.199929529258432034e-03,1.672871559858322144e-01
-4.339661225958507673e-02,-2.106090973754298490e-01,-4.215108958243597020e-02,-4.629225670025307801e-05,1.738155954192174184e-03,2.423250527309645820e-04,1.678662598133087158e-01
-4.082400963672243310e-02,-2.002987815471942712e-01,-3.394037618149878949e-02,3.284188045388315019e-03,6.276300934035895784e-03,3.404646125673190492e-03,1.635929793119430542e-01
-3.833453457707203249e-02,-2.096483955846316083e-01,-4.017242243566120780e-02,2.260778008227084558e-03,4.498830734837710316e-03,3.551320197412381318e-03,1.707361936569213867e-01
-3.808424536210131689e-02,-1.854514891681194877e-01,-4.012719304482836175e-02,9.706564653013907695e-03,9.156549356932122685e-03,1.038186781425836855e-02,1.492573022842407227e-01
-3.093882430503865077e-02,-1.996709008646512240e-01,-3.795149957877672064e-02,2.805779734345621203e-03,3.744449061415966451e-03,3.527864797404657842e-03,1.656485646963119507e-01
-3.943515413062095160e-02,-1.926360297308456482e-01,-4.351358639122061833e-02,1.488041662159213935e-02,4.568926079335691726e-03,2.801710993619599757e-02,1.610717326402664185e-01
-4.457501606757283130e-02,-1.951563591227573058e-01,-4.945149519540979755e-02,-4.438179752783082133e-02,1.784084790211262110e-03,1.613532334884895669e-02,1.693045794963836670e-01
-4.155176851321516068e-02,-2.110430320082062605e-01,-3.898095841423566965e-02,2.875285880472919000e-05,2.885232063619091927e-03,3.506415546995537112e-04,1.708653569221496582e-01
-5.628500512363919517e-02,-1.188048754945700558e-01,-5.206220609029343915e-02,-3.994342643858704578e-02,-8.143244347276167028e-04,4.691957592923958614e-02,1.248332336544990540e-01
-4.157133454181771715e-02,-2.468234489284427680e-01,-4.868329158235222553e-02,-2.115292673745175597e-05,1.821263663960955763e-04,-5.395603123106394988e-04,2.017925679683685303e-01
-5.302543102911438239e-02,-2.379733966741818529e-01,-4.767237435979235216e-02,-7.698242234822405550e-03,-2.063405420624000834e-03,7.263145033364884137e-03,1.886087656021118164e-01
-4.671520946307790995e-02,-2.182846618339287781e-01,-4.907502804387623568e-02,7.147763730184829387e-04,-6.232090285350276419e-04,3.782842268988260070e-04,1.704109758138656616e-01
-4.773684482571492749e-02,-2.107368262821721627e-01,-4.795587106769754610e-02,1.781154599521777562e-04,-6.262620626273861756e-04,5.825267823921302353e-04,1.628976017236709595e-01
-5.280312994297857443e-02,-1.546872854021393850e-01,-5.994583438951465310e-02,7.792600093466430509e-05,-5.146250503427186873e-03,7.637593137928194720e-03,9.979047626256942749e-02
-3.645371433575178566e-02,-2.097829471724764472e-01,-4.378189382629582571e-02,6.315964290118303813e-03,3.120486058517917081e-03,7.971241628531671158e-04,1.702272891998291016e-01
-3.903739836280032544e-02,-2.148324681644039891e-01,-4.587865796828072967e-02,3.676317365857271254e-03,1.925587816193351925e-03,-1.121805694288627916e-03,1.726368814706802368e-01
-3.118134791255856852e-02,-2.050624286931514439e-01,-4.675852537736571723e-02,-6.010474798346750712e-03,-3.403901917686478432e-03,3.992696236973449983e-03,1.672114282846450806e-01
-2.980623099257543457e-02,-1.980413301468567089e-01,-4.860117661960912383e-02,8.896053531005761184e-03,4.897716696175690755e-03,2.201157955410009434e-04,1.606357842683792114e-01
-3.122915126711868494e-02,-2.078171502169850748e-01,-4.868415544587259558e-02,1.270074645935281334e-02,3.533996664359667292e-03,6.403904461054176801e-03,1.704408377408981323e-01
-3.401679471183102765e-02,-2.065854046910506892e-01,-4.223152885184803390e-02,1.111809141570644505e-02,8.195284363005555031e-03,6.076423416895288324e-03,1.706250160932540894e-01
-3.746762282515828796e-02,-1.829898869874956313e-01,-3.459352872014438696e-02,-2.611295786277369191e-03,-5.917839530468973694e-03,1.655963213987627844e-02,1.501712948083877563e-01
-4.309535952098108441e-02,-1.897277578651930252e-01,-4.163328901346385197e-02,-1.028692036633228890e-02,-8.479082538909176597e-03,8.090926700881236749e-03,1.498236358165740967e-01
-4.398399146219910544e-02,-1.994273695769361032e-01,-4.841089299625513098e-02,-2.979640910152554084e-02,-9.473828079560989851e-03,1.401101926351281703e-02,1.643647551536560059e-01
-4.274994673074979101e-02,-2.133793640917771017e-01,-3.708473006167102570e-02,-6.939267838112661568e-03,-4.116391640113008232e-03,4.279584659038229710e-03,1.742509305477142334e-01
-4.404262940627695633e-02,-1.900518651555215266e-01,-3.484792418034386718e-02,-5.187818946224552127e-03,-7.258821796331127278e-03,8.052603749288400614e-03,1.522468328475952148e-01
-4.795117876710625060e-02,-2.130468155334317437e-01,-5.122666046819713409e-02,3.091377988197916370e-04,-1.188934742059729200e-03,-1.559229016156690490e-04,1.634965837001800537e-01
-5.124546167175950129e-02,-2.136998932220121883e-01,-5.142825621124088448e-02,-4.394736878096862256e-04,-3.613610487747497511e-03,1.762534530160992101e-04,1.624857783317565918e-01
-4.750741833552210580e-02,-2.131468612587647526e-01,-5.182493446310963009e-02,6.646926999099390726e-05,-7.580750625986494443e-04,3.625843682378645681e-05,1.635287702083587646e-01
-4.819007666382092020e-02,-2.138384982568145021e-01,-5.332416518449145659e-02,1.286555548247214111e-03,-1.978623368983965444e-03,7.203907942049271986e-04,1.631979495286941528e-01
-4.588038917422485735e-02,-2.169555598666664809e-01,-5.290630808521236406e-02,1.053306831323313087e-03,-8.639909557540028772e-04,5.881169968324198496e-04,1.676923483610153198e-01
-4.715262268302351789e-02,-2.241555164966699265e-01,-5.072331766943483089e-02,4.744834097774272043e-03,-8.342797616377052149e-04,2.603800956463151600e-03,1.755013316869735718e-01
-4.794740272776751300e-02,-2.071255202840307785e-01,-2.759000068672727568e-02,-1.556944885816974019e-04,1.010896323994287161e-04,3.122584350611487731e-04,1.702731549739837646e-01
-4.831632328197455611e-02,-2.216830477356419582e-01,-5.060119939194729355e-02,-1.167197668942794196e-03,-1.759445073107271645e-03,-8.435295373318891414e-04,1.722806692123413086e-01
-5.216112943770058463e-02,-2.087034739026021324e-01,-2.876066282072169134e-02,4.150716886127321301e-03,4.504046063228258831e-03,1.211120504792796357e-02,1.710813790559768677e-01
-4.515155644795502965e-02,-2.024664628417898737e-01,-2.621096042364409739e-02,5.263659124595793494e-04,1.012809052687563445e-03,5.603246089232402378e-04,1.676043421030044556e-01
-4.274426257140549051e-02,-2.100850921376401503e-01,-4.141346428104691890e-02,1.142386251251251530e-04,-6.113966792769690364e-04,5.411925903187732659e-04,1.680162549018859863e-01
-4.359435149736902437e-02,-2.150110069571248284e-01,-4.197144640271503052e-02,1.800141318790099768e-02,2.178800436626395463e-03,5.334296536872380409e-03,1.753175854682922363e-01
-5.220278265885142099e-02,-1.864264446588080326e-01,-2.677260830915862561e-02,2.797964720065372786e-04,3.573052523261274218e-04,1.266606541800916787e-02,1.501929461956024170e-01
-4.725900356461775614e-02,-2.062200934522413487e-01,-3.215982818664524234e-02,4.608857511217430425e-03,3.526102229484004424e-03,2.719095305215955827e-02,1.738271117210388184e-01
-5.392631285148702380e-02,-1.658655118788877614e-01,-4.082398592638960405e-02,4.111680682655948632e-03,5.334574043029220725e-03,4.561547492836764972e-02,1.433426886796951294e-01
-5.338496292418876132e-02,-1.842822616441470440e-01,-3.161460870060327222e-02,-1.777163799642197516e-03,-3.074197994993044421e-03,9.259002785827355128e-03,1.440581381320953369e-01
-4.622338265558379594e-02,-2.137040857963926066e-01,-3.709997335683111463e-02,2.575765623163419997e-03,7.854942851221995842e-03,8.890294742885024304e-03,1.735025495290756226e-01
-5.013714252296444518e-02,-1.845330893570323871e-01,-3.020220832638276232e-02,2.339534883826357525e-04,6.052863074418233201e-03,5.751918320349444849e-03,1.461101472377777100e-01
-4.937101072066284874e-02,-1.943275766112255720e-01,-3.146698924762952876e-02,2.557253201353941116e-03,5.326652523152471293e-03,5.963984376647381985e-03,1.553695946931838989e-01
-4.836356644193172405e-02,-1.999495830847117517e-01,-2.631991300939660883e-02,4.018228653619823620e-03,3.261094783772037261e-03,8.327478365665708787e-03,1.646029651165008545e-01
-4.026090115928547541e-02,-2.227061274810144265e-01,-4.819973278950776679e-02,-5.901499757101208270e-03,5.128584834952134176e-04,4.321266289810206038e-03,1.790591478347778320e-01
-3.878087498420281637e-02,-2.064591924078953422e-01,-3.572590537529862081e-02,-3.749800019212377097e-04,-3.863357626357677953e-03,3.685619950838837791e-04,1.693611741065979004e-01
-4.786509715523461217e-02,-2.085914173474585076e-01,-2.891050346895542023e-02,3.813936842858294961e-04,4.137654895701618069e-03,1.068672810940960935e-02,1.721428036689758301e-01
-4.619859933271308616e-02,-2.159089924820463136e-01,-4.245156036486170265e-02,1.152434642917233047e-03,-2.888284512747268766e-03,-6.231515301828883038e-03,1.720380038022994995e-01
-4.473630823022048397e-02,-2.153689892406765172e-01,-4.359333952448793403e-02,-1.211963001649764672e-03,-1.914711236571962471e-03,-3.353488381502157646e-05,1.712520271539688110e-01
-4.457104689498988387e-02,-2.148668337188630872e-01,-4.269425985010161934e-02,-1.088364035378023079e-03,-1.629241357290211979e-03,3.653455097545836973e-04,1.712766885757446289e-01
-4.400597657201420210e-02,-2.044952562799572937e-01,-3.440306682930033277e-02,1.400045943742675089e-03,-6.035306847997176649e-03,-4.642348290331615654e-03,1.660421639680862427e-01
-4.019601854080462333e-02,-2.062705738684092460e-01,-3.977495184920483429e-02,1.086232859646862718e-03,-4.421433763970188113e-03,-5.216011972544999827e-03,1.667173355817794800e-01
-3.655966021048903669e-02,-1.911600238614291625e-01,-4.023635499036709584e-02,1.248617907350615085e-02,-8.314427687173959330e-03,-7.928206992473828957e-03,1.555957794189453125e-01
-3.843138729819386284e-02,-1.833200261358972349e-01,-3.420764713498315734e-02,7.157812632399469105e-03,-7.657971447500240385e-03,-1.315255673103419946e-02,1.499037593603134155e-01
-4.277140277411921321e-02,-1.905372445652653846e-01,-3.482484708958087649e-02,3.578758235808617016e-03,-7.835664646999369876e-03,-4.458134440769267320e-03,1.528213322162628174e-01
-4.566454951579714677e-02,-2.120824618502964443e-01,-4.304570256064001177e-02,-1.059264911587665028e-03,8.788149306633439217e-05,-1.150496905731591708e-03,1.677646040916442871e-01
-4.676754806023059735e-02,-2.124634199091091080e-01,-4.661640308466385996e-02,-1.481841379748113832e-03,8.537799479934013208e-05,-3.350784630772934633e-04,1.657924503087997437e-01
-4.030503778849862939e-02,-2.012996373634641512e-01,-3.789954994664952725e-02,1.352462461268920000e-03,-4.548858085905921507e-03,-1.241680266867829698e-03,1.624330878257751465e-01
-4.386492676089324277e-02,-2.148634217078352338e-01,-3.798275990035461513e-02,-8.594103675234495126e-04,-2.404623129122527604e-03,-1.258432347122121278e-03,1.740840077400207520e-01
-4.413540150935837264e-02,-2.108572785841939523e-01,-4.461923429872275554e-02,-9.858159255748662284e-05,-1.252694032294770804e-04,-2.594341843569216658e-04,1.664813160896301270e-01
-3.214889283640554041e-02,-1.686178638369595362e-01,-5.469869047843561871e-02,3.818450512723096935e-02,1.446888475379894861e-03,5.172274299242724926e-04,1.429551541805267334e-01
-4.909017366092137402e-02,-1.338119060294696849e-01,-5.474034179562140001e-02,1.019671871652116923e-02,-8.300838877083153988e-03,-1.691480425650191896e-02,9.004425257444381714e-02
-3.236556438845846623e-02,-1.367242976374068442e-01,-5.192120450803720116e-02,3.425513759829898475e-02,-9.418632868814409004e-03,-2.216711083833232745e-02,1.203863918781280518e-01
-4.668630477755299213e-02,-2.262612313441058620e-01,-4.469584278501077118e-02,-1.461503863210790672e-03,8.110089786838606219e-04,7.704524742933847609e-04,1.806065142154693604e-01
-4.236667998276706648e-02,-2.131150459350222848e-01,-4.304003336035429339e-02,-5.880741141551346259e-04,2.158950690908184155e-03,-3.750609445776565201e-04,1.704579889774322510e-01
-4.418176970257545189e-02,-2.050188680256770091e-01,-3.561451142150684479e-02,3.433701171183137484e-03,5.326492432756323343e-03,7.629120176935964663e-03,1.661776155233383179e-01
-4.187585766569096313e-02,-2.082495254493307024e-01,-4.110114068558708839e-02,4.653357755578403990e-03,3.607219445753692254e-03,1.387137702595522999e-02,1.687925755977630615e-01
-4.661070658492029450e-02,-2.104510175221789847e-01,-4.765466711739078237e-02,-1.203807797426945971e-03,-1.217670604416290579e-03,5.897816930464483409e-03,1.636668592691421509e-01
-4.814187625426890466e-02,-2.113865846273260130e-01,-4.978412589587391524e-02,9.127071485291774703e-04,-1.188818776379606344e-03,6.878294734361838558e-04,1.624549180269241333e-01
-4.655927664918119158e-02,-2.139505261356313137e-01,-4.216704262377685142e-02,-8.586405200651305329e-04,1.312393787199040785e-03,2.752698968989504558e-03,1.697187572717666626e-01
-4.413537546005878720e-02,-2.135884353181749518e-01,-4.300514455346873821e-02,-1.014196761762488786e-03,6.302627653165994047e-04,-8.108800838713783096e-04,1.700393706560134888e-01
-4.290264042225541696e-02,-2.101674313881050082e-01,-3.499251663020827574e-02,1.959388213595532162e-03,6.061255710466666169e-03,2.787790248476503755e-03,1.717795580625534058e-01
-4.857231394888573278e-02,-2.181104638564805021e-01,-4.417659499435697135e-02,9.986232557467885490e-03,1.048621655690353850e-02,3.017155217861027666e-02,1.812947094440460205e-01
-4.606642394284390235e-02,-2.138430213105644295e-01,-4.673375126250569472e-02,-5.315433492966946394e-04,1.418947935731890674e-03,1.471745899317327636e-03,1.674838960170745850e-01
-4.506345155272374614e-02,-2.119537033469855725e-01,-4.130543701433105758e-02,6.309786624786641214e-03,2.949382045825471414e-03,5.592258671286355620e-03,1.695081442594528198e-01
-2.508531796850230200e-02,-1.664862287441115640e-01,-5.297578518688801641e-02,1.923831644801191759e-02,4.674001087384491680e-03,-1.603057979623829826e-04,1.341801434755325317e-01
-2.690936585664804870e-02,-1.952881680599930225e-01,-5.182841620138491090e-02,9.740887127201620921e-03,8.302430587385018412e-04,1.265833730562873280e-03,1.583289951086044312e-01
-3.546458998614914621e-02,-1.989394937108381056e-01,-5.461024112414981924e-02,3.276128467231143732e-02,9.199560583825389798e-03,6.652830197668021910e-03,1.660341769456863403e-01
-2.889712114506995388e-02,-1.959236667562735956e-01,-5.012836521180414479e-02,9.705366004696380430e-03,4.025726467396732733e-03,1.229945665565544818e-03,1.585502773523330688e-01
-3.779023786476744945e-02,-2.099317466986790892e-01,-4.433673604994187167e-02,-1.175470891017472812e-02,-7.665862790458543956e-03,2.394167497637756520e-03,1.707531660795211792e-01
-4.112416431125927307e-02,-2.271707474925429293e-01,-4.402468096589147450e-02,-8.354075410292174236e-03,-6.192323282591958092e-03,1.845010182031622641e-03,1.855174750089645386e-01
-4.095266464059199585e-02,-2.043679115884332043e-01,-3.402099373837572799e-02,-1.165851207872195018e-03,-3.136546922933647948e-03,2.210371769407134396e-03,1.671334207057952881e-01
-4.719260965874159941e-02,-2.062061711679381570e-01,-2.989094814935359945e-02,-2.619087189167242612e-03,-4.305869461322565581e-03,7.814651409338999044e-03,1.691013425588607788e-01
-4.610255022107213885e-02,-2.193883614628882595e-01,-3.619273066612399559e-02,9.658149307021409585e-03,-6.275298289497057737e-03,-2.219935951095306642e-02,1.836295723915100098e-01
-4.219047402985633827e-02,-2.117581584726266897e-01,-4.162638208468966150e-02,2.772707543153752783e-04,7.989830191689053585e-04,-3.887743960007914454e-05,1.698567569255828857e-01
-4.143916822545264111e-02,-2.119999670483566079e-01,-3.987875063161772787e-02,-8.707403182505869636e-04,-2.489259561274180630e-04,4.476719674099609672e-04,1.713552772998809814e-01
-5.893381208397657778e-02,-1.359530038012069508e-01,-4.094172685808354639e-02,-8.926414155173024306e-03,-3.087562892236136395e-03,3.060483249807692888e-02,1.035326793789863586e-01
-3.797951468858536822e-02,-1.948630320499618040e-01,-4.447477211230865812e-02,-2.783786343035146715e-02,-6.396684092533106748e-03,3.362222498257579940e-03,1.616079658269882202e-01
-4.142286226435746427e-02,-1.981117800848719579e-01,-4.200735516943556597e-02,-1.829588140780392252e-02,-8.048355818328991468e-03,8.820492678667805203e-03,1.609102934598922729e-01
-4.151257275361607685e-02,-1.921279107440208578e-01,-3.618397921388821076e-02,-4.822129296892877989e-03,7.111745154589720411e-03,-9.155956600228162129e-03,1.548835933208465576e-01
-3.835104284992056634e-02,-2.167464774764549795e-01,-3.882128613451587412e-02,-1.407512287342568315e-02,9.621957596460773560e-03,-2.286647915639292844e-02,1.848836541175842285e-01
-3.772146997257830314e-02,-2.113285750924477902e-01,-3.712715137074320410e-02,-1.935284134934665010e-03,6.116686567054045731e-03,-1.748306976930070946e-03,1.742859929800033569e-01
-4.809616164161136659e-02,-2.337142991074967480e-01,-4.666901792405409033e-02,-1.501939166586604285e-02,2.818918901918612829e-03,-1.320858594702931273e-02,1.895917207002639771e-01
-2.554826703282387507e-02,-1.537555474999479643e-01,-4.260732394236285692e-02,3.164143884497792880e-02,1.076863942533409085e-02,7.807888795390662863e-03,1.344445794820785522e-01
-2.849184788414005354e-02,-2.113693931303642359e-01,-5.001747425811522985e-02,1.374499971106596038e-02,1.229827160861059459e-03,-1.209204881281415430e-03,1.747761219739913940e-01
-2.754761351168187600e-02,-1.986411029515594562e-01,-5.004493273984524093e-02,3.462883276777363462e-02,5.800374077549762253e-03,-3.555905034470829341e-04,1.721300333738327026e-01
-2.879379597065599705e-02,-2.057199598900891491e-01,-5.199313293616198567e-02,3.067946243330166994e-02,3.841402886607191147e-03,-2.175977739025013007e-03,1.749819070100784302e-01
-4.130087171308542693e-02,-2.135410046648525961e-01,-4.208436323620320940e-02,9.565775058135161935e-03,3.142715466144317942e-03,9.395658284193909165e-03,1.734972745180130005e-01
-3.542661362049024515e-02,-2.059025641994714773e-01,-3.790976592753610153e-02,1.184430859768878172e-02,7.150985440250544681e-03,1.297772738068354512e-02,1.724077612161636353e-01
-3.431548951872535891e-02,-2.099060987042576654e-01,-4.358489122289272572e-02,5.816199724718921354e-03,4.171483968436154322e-03,1.895938923661991354e-04,1.715930104255676270e-01
-4.033704929278393581e-02,-2.117220957398808778e-01,-4.179121958207845239e-02,2.921654683276202636e-03,2.433461034038787892e-03,2.536376608713492714e-03,1.708461195230484009e-01
-3.009128752662419692e-02,-1.990305730836076925e-01,-4.715310365970187129e-02,1.330918145473986014e-02,7.394348858338705907e-03,3.216581620383309002e-03,1.633268147706985474e-01
-4.314610588850141537e-02,-2.049770604021447507e-01,-3.287770061213145939e-02,-2.888063422761966668e-03,-4.427990510176817163e-03,2.711984536487536002e-03,1.675182133913040161e-01
-4.848868681396437119e-02,-2.129169077250943620e-01,-4.674168759354502961e-02,-7.090408391920782966e-05,2.933231308679314786e-05,-4.977722647996904795e-04,1.653109490871429443e-01
-4.916716372871432483e-02,-2.188984320732840216e-01,-5.122006724045453929e-02,2.717926611975232491e-03,-1.852180319871204756e-03,2.690532307485191208e-03,1.688746511936187744e-01
-4.389821584432569007e-02,-2.213258574832129844e-01,-3.799662265845668574e-02,4.996199007200309572e-03,4.634576165829972644e-03,8.510065287312832197e-03,1.814361810684204102e-01
-5.043818384105182295e-02,-2.287926475358406653e-01,-4.883261388191451752e-02,2.333963250546019792e-03,-1.813743833163049225e-03,-5.540286132229754659e-04,1.792383491992950439e-01
-4.591867885371647695e-02,-2.054979422547043577e-01,-2.870574813408544035e-02,-7.058749966929590662e-04,2.225098009383481845e-03,-2.542177095219252253e-03,1.689508408308029175e-01
-4.092995197463523277e-02,-2.049326672052744769e-01,-4.078072117625707038e-02,3.656817852007542002e-02,1.278815418885713429e-03,1.437516262040659451e-02,1.776455044746398926e-01
-5.910179983809033671e-02,-1.315937676698298031e-01,-4.383485839777191695e-02,1.497382994344831960e-03,-8.086755997079528042e-04,3.195987038295313495e-03,8.145076036453247070e-02
-4.871350455193944329e-02,-2.051691483464547772e-01,-3.071757851547098073e-02,1.010284166124972467e-03,-4.596861225346542471e-03,-1.228070876437368023e-02,1.677399426698684692e-01
-3.387765076034202766e-02,-2.090358381220430994e-01,-4.524832331355273241e-02,8.053907248090831639e-03,4.091438876287488945e-03,8.106685544714055738e-03,1.710555106401443481e-01
-4.045381476073348775e-02,-2.160253418899436562e-01,-4.506549342768151334e-02,4.021533507868265550e-03,2.932087789224759218e-03,-1.454700695476200041e-05,1.735259592533111572e-01
-3.321088775125997927e-02,-2.128059238142926135e-01,-4.646287488304725460e-02,-2.016385887816955248e-03,2.984066402675734399e-03,3.193657800224010022e-04,1.734624356031417847e-01
-3.966273398166796776e-02,-2.144030188389451919e-01,-4.358637892134547415e-02,-5.297644479969393285e-05,2.713615853824511912e-03,1.299101331478352134e-03,1.728904396295547485e-01
-4.046898280190468905e-02,-2.115132468454330450e-01,-3.993160099407343233e-02,3.043340487022471678e-04,2.628596282608941428e-03,8.932639118403640005e-04,1.713818758726119995e-01
-4.324523523346422704e-02,-2.059997139048205250e-01,-3.554505304674045185e-02,-2.830970343103291040e-04,4.004138249518052889e-03,-2.601662367568305032e-03,1.669436991214752197e-01
-4.230502848703517754e-02,-2.158489853454017837e-01,-3.959221611426527732e-02,9.769902024523427139e-04,2.656374726749030288e-03,3.188672420358933026e-04,1.749856919050216675e-01
-4.806170182533275187e-02,-2.214331909307900581e-01,-3.713511059678889503e-02,-1.634676365132849358e-03,8.811295834104709152e-03,-1.283233593365924220e-02,1.811252683401107788e-01
-4.276112616730234905e-02,-2.140106726947220983e-01,-4.409698958707247707e-02,6.098054105318549776e-04,6.638417826210904135e-04,1.196300807474063276e-03,1.706052720546722412e-01
-4.234051952184249290e-02,-2.152728931174565374e-01,-4.131466116122221865e-02,1.294963665949825336e-03,2.584416925443703411e-03,7.126133080858534485e-04,1.735242158174514771e-01
-4.870618144283343082e-02,-2.207477038763639432e-01,-4.655362952861990394e-02,1.891206336980513682e-03,8.417608388887551103e-04,-5.038584254794366626e-04,1.731671541929244995e-01
-4.861345660283034747e-02,-2.049819982211479874e-01,-3.281668113787453156e-02,-3.917818652344961898e-03,3.435205164587033441e-03,-8.346229570469822570e-03,1.657142341136932373e-01
-4.460919273223175330e-02,-2.164032704630894088e-01,-3.923791393503310576e-02,-1.841233150041353059e-02,9.358807861445321563e-03,-1.864877523359799449e-02,1.810744106769561768e-01
-3.238692010654117825e-02,-1.272252259500781801e-01,-5.139987573005906640e-02,3.044062314503093170e-02,-3.797778486962551363e-03,-5.633788672969098667e-03,1.023280173540115356e-01
-3.906345095063640249e-02,-1.837919428808083566e-01,-4.618966748251049359e-02,1.120633445037568128e-02,-9.204606825745524634e-03,-1.213147308724426936e-02,1.450454741716384888e-01
-3.887331997106896475e-02,-1.528064452097092629e-01,-4.576379597779668684e-02,1.789461175164849815e-02,-5.455434607469603590e-03,-3.971802152546138887e-03,1.155008450150489807e-01
-3.008110802322517402e-02,-1.640212081715616832e-01,-5.322602633221422408e-02,3.998567933714713973e-02,-1.262206315748750751e-04,-2.078815249138892159e-03,1.420745551586151123e-01
-4.219824963732855816e-02,-2.105550584526425795e-01,-4.028451513096962394e-02,6.890046909699051960e-06,3.112613916716969447e-03,2.376863803782528763e-04,1.694080978631973267e-01
-3.731086906189036434e-02,-2.415023728502551648e-01,-3.991282125670282677e-02,2.611757969129810744e-02,4.361587384199949735e-03,1.721528222824288482e-02,2.101480364799499512e-01
-4.157290769864087354e-02,-2.650563136598012015e-01,-5.039487535051115352e-02,2.630723994729682741e-02,3.271659320498196237e-03,2.868858044661367485e-02,2.294090837240219116e-01
-4.563015827592228207e-02,-2.292745139578447056e-01,-4.393402114354339610e-02,3.684126285371785992e-02,2.607106135074538020e-03,2.163294494209992008e-02,1.988360881805419922e-01
-4.922668532603168695e-02,-2.175941610940425597e-01,-4.617883957541162043e-02,1.813770019854389322e-03,-1.516324748915828758e-03,-9.678739548136745851e-04,1.699694991111755371e-01
-5.543044973486783988e-02,-2.126921338481363721e-01,-4.566673865982832231e-02,9.432531505118860659e-04,-1.184296628027692831e-03,-2.359852368500406971e-05,1.623850464820861816e-01
-4.039806078647097121e-02,-2.421549072698611083e-01,-4.209926140372488579e-02,1.453393936996214171e-02,6.303831311689723702e-03,1.136569226101172628e-02,2.037300914525985718e-01
-4.753415497819420826e-02,-2.165270333192808594e-01,-4.465797580241093884e-02,5.757962948023659724e-03,-4.470649448926964763e-04,2.928511632263672802e-03,1.708177626132965088e-01
-2.523949329654012752e-02,-1.989860194046286501e-01,-4.717376358566516270e-02,5.073148793354081629e-03,3.306095739628233006e-03,1.162322238947723291e-03,1.642315983772277832e-01
-2.822521734746896716e-02,-2.005639719995495618e-01,-4.687380383299320774e-02,8.128580907877479625e-03,4.462063241483146467e-03,1.975852977578523503e-03,1.646335422992706299e-01
-4.262502848984934395e-02,-2.118904424118971397e-01,-4.196829415662983731e-02,4.788648966291996672e-04,-2.247907616227786624e-03,-6.413922178341559472e-04,1.696450859308242798e-01
-3.160710412036481232e-02,-2.054026230271737696e-01,-4.479244139833725435e-02,2.050863100586814911e-03,4.658824872153532332e-03,9.117557605907624513e-04,1.678314954042434692e-01
-3.132578438821296413e-02,-2.019709900563424754e-01,-4.277650829438779667e-02,2.013510482925274462e-03,4.398220396486089180e-03,1.530415380392788696e-03,1.654512435197830200e-01
-3.135633255411877929e-02,-2.016750797165359488e-01,-4.421091412599706394e-02,1.761966657947128647e-03,4.496764573726221362e-03,9.608756439172520163e-04,1.644903868436813354e-01
-4.034317838863721306e-02,-1.990283327952636350e-01,-3.968209125912014468e-02,2.958874731071369640e-02,9.490322182547951402e-03,2.556258206872763505e-02,1.736183613538742065e-01
-3.518058057379581244e-02,-2.095381366404925338e-01,-4.608724648073963398e-02,-1.088110165408574283e-02,-3.778365403601252354e-03,1.602873520616849429e-02,1.725880503654479980e-01
-5.006871500766704730e-02,-1.490402047405252062e-01,-4.331778233738781125e-02,-1.406358477365527056e-02,-7.735937169243587916e-03,1.199480940683899689e-02,1.082293614745140076e-01
-5.026276368016795171e-02,-2.185947548881593816e-01,-3.070971895762378279e-02,4.705805143520692263e-03,-2.652251033183159780e-03,2.551483218032162686e-02,1.845262646675109863e-01
-4.914081174207676761e-02,-1.870757840752509948e-01,-4.101599995394797360e-02,-7.876497926421593618e-03,2.313911037644011699e-03,8.975462086669742934e-02,2.111459672451019287e-01
-4.761452157632158760e-02,-2.139224102513502257e-01,-3.858599031793014111e-02,-6.834561239882330210e-04,-2.575359986210192442e-04,-2.989099654150796301e-03,1.710840463638305664e-01
-5.809840851355538294e-02,-2.443120129187573708e-01,-5.775202015333769784e-02,-2.820714396328595150e-02,6.364454688592323210e-03,8.884941903420695564e-02,2.468425333499908447e-01
-4.721449523404341875e-02,-2.060469026469773923e-01,-2.865057366159827479e-02,-4.379804617670710748e-03,-2.048538309680993444e-03,2.683068337576069787e-02,1.753587722778320312e-01
-5.210048324181346807e-02,-2.311721259746103985e-01,-4.665826150250765303e-02,-2.244948189399036814e-02,-4.759635809401743453e-03,2.176957377095292689e-02,1.899275183677673340e-01
-4.704872304311837755e-02,-1.748747380750300950e-01,-4.236110000459988867e-02,-2.224268758312220387e-02,1.103361478309237021e-03,6.862905282847600597e-02,1.804947853088378906e-01
-2.521097413957133770e-02,-2.033056002550383545e-01,-4.891846363388489827e-02,8.525892666347541574e-03,-9.654173576507151314e-04,-9.603634918983462677e-04,1.681701540946960449e-01
-4.212824876702048887e-02,-2.113411151146517564e-01,-3.885648960302785782e-02,9.307261488342414733e-04,3.552020525500668071e-03,4.382667074124014898e-03,1.711589694023132324e-01
-4.193668528775559845e-02,-1.424618242719550287e-01,-4.965526429652895868e-02,3.473742459087439394e-02,7.367046296414122772e-03,1.873103077765130020e-02,1.192661300301551819e-01
-4.467260086017286330e-02,-2.005449332348626101e-01,-2.789783419939019515e-02,5.062277227156699276e-03,7.446551877047958602e-03,1.314489546476074223e-02,1.671941876411437988e-01
-3.648487484156216765e-02,-1.824175923680056710e-01,-4.756700110059244868e-02,1.393414863608610256e-02,7.188656084071328757e-03,5.764492711437077185e-03,1.436632424592971802e-01
-4.042645791734583716e-02,-1.649234376109448008e-01,-3.858233962463553102e-02,1.183313749452600053e-02,1.037341049289998776e-02,1.779406269042779765e-02,1.320047825574874878e-01
-4.751975022050951986e-02,-2.170035847833313714e-01,-3.248904616110440124e-02,5.695065227996868804e-03,4.532931737425385972e-03,2.503680221027671307e-02,1.831327974796295166e-01
-4.717501701189454055e-02,-2.036157930164770868e-01,-3.272134579935616350e-02,9.983789840700891573e-04,-6.492620306072188589e-03,-6.067406635455139911e-03,1.648746877908706665e-01
-4.648961095574734304e-02,-2.121161903895663059e-01,-3.157226689682200715e-02,-8.207133827180552055e-04,-3.596613199297315003e-03,-3.894872090133666333e-03,1.738152354955673218e-01
-4.212588423558162598e-02,-2.123112809177796489e-01,-3.810060348664419394e-02,9.242757200274187741e-04,-2.886448555657776093e-03,-1.165778032465292300e-03,1.723251342773437500e-01
-4.576993003382599096e-02,-2.038157955412807643e-01,-3.937438082817096285e-02,-2.254325244107448423e-05,-4.752704408837972981e-03,-1.088426871488403294e-02,1.626448780298233032e-01
-2.940721948629494709e-02,-1.721589826106367793e-01,-3.865971158718609080e-02,2.336454701782328391e-02,-1.026279976247082559e-02,-1.830683288012150550e-02,1.486673057079315186e-01
-3.982268170431655513e-02,-2.117975396621248063e-01,-4.248297475049050975e-02,8.084631433039564169e-04,-4.787823642664537768e-04,-1.042946614986940386e-04,1.706681251525878906e-01
-4.521460040927820223e-02,-1.654491156610432001e-01,-4.156167163933201236e-02,1.858478740739909077e-03,-8.369436009964478090e-03,-5.736651744621642721e-03,1.234022751450538635e-01
-4.053338663422736965e-02,-1.777949543506060770e-01,-4.285917935892837732e-02,5.207475842807277565e-03,-9.076156467211993206e-03,-6.805426090915247389e-03,1.378199160099029541e-01
-4.930090029302933163e-02,-2.190848390729848438e-01,-5.057981736279374557e-02,3.266549634889086176e-04,2.170425134974690411e-03,-1.770416305285291972e-03,1.692186146974563599e-01
-4.266491069133073605e-02,-2.262264931070907814e-01,-4.251985975593756961e-02,6.839911485263399510e-03,-4.842179622957651017e-03,-1.015453138991608863e-02,1.850446909666061401e-01
-3.200266252328150957e-02,-1.982825471069405154e-01,-4.376824518344304971e-02,1.444883408603749204e-02,-1.003139259355416597e-03,-4.637269271169401456e-03,1.628646254539489746e-01
-5.015830378844973736e-02,-2.155462614968929602e-01,-4.757957196921010212e-02,-2.321102110103502071e-03,8.527528182503532400e-04,3.508380503774228458e-04,1.667484045028686523e-01
-5.213170912648999733e-02,-2.445615851784811445e-01,-4.847575988592958685e-02,3.030211598052598865e-03,1.129969214562490722e-05,-1.013612654763706468e-02,1.951458603143692017e-01
-4.691839827187554296e-02,-2.148652477593309129e-01,-4.994618973166024822e-02,-1.704146054548076042e-03,1.778556115552409368e-03,-1.159034913521959226e-03,1.665203720331192017e-01
-5.124928103456786316e-02,-2.068080188650872342e-01,-2.877867713257407922e-02,-3.346585119019975310e-03,-3.080153184330122751e-03,5.942387632691161978e-03,1.684248894453048706e-01
-4.922671304511554852e-02,-1.673403712515262876e-01,-3.972609245594121985e-02,-6.915999662407066630e-03,-7.752810354106055846e-03,8.623771472872392846e-03,1.253402233123779297e-01
-4.769538713607283237e-02,-1.541850515792904663e-01,-4.330608531902740976e-02,-6.909474942998670120e-03,-6.719213860993734563e-03,1.703371097061855480e-02,1.139115318655967712e-01
-4.891064160643389391e-02,-1.296107995366261034e-01,-3.672851083582461679e-02,1.158136338438850790e-02,6.466045675534807038e-03,2.800072314887883107e-02,1.025863289833068848e-01
-5.467489805939682035e-02,-1.164135014977908111e-01,-3.335139293279047734e-02,-3.452013117848847738e-03,-6.779079497654786658e-04,3.015013943507883695e-02,9.136220067739486694e-02
-5.634358152653443086e-02,-1.916580158556168700e-01,-2.870833792296367815e-02,-4.886461708432181771e-03,3.836230428150617325e-03,2.327756330807260673e-02,1.566986590623855591e-01
-5.433861238303525076e-02,-1.905895602505845443e-01,-2.769061373319960107e-02,2.003654808449700959e-03,-2.973148645039426930e-03,2.325060836068014100e-02,1.567341238260269165e-01
-5.299606633331672284e-02,-1.687567650487710180e-01,-2.768928738679711510e-02,3.948007211340661023e-03,2.884233558416178685e-03,1.533496907756228163e-02,1.332205086946487427e-01
-2.640158046516331847e-02,-2.055408127177686395e-01,-4.817778269182455830e-02,7.141321751070237207e-03,1.953111743328326405e-03,-1.373885059932823823e-04,1.697898507118225098e-01
-3.537234288119946168e-02,-2.108650962785215965e-01,-4.977767158791955582e-02,1.609511246709992597e-03,-1.484460576423976639e-03,-8.428752479742372640e-04,1.688007861375808716e-01
-2.641988815024484683e-02,-2.035142096642283405e-01,-4.979305848368650866e-02,1.389849325067792855e-03,5.889179587727702688e-04,9.571913203888326831e-05,1.666622608900070190e-01
-2.618193910816177250e-02,-2.033937397701360283e-01,-4.811816165858234101e-02,1.562264010355993030e-03,4.322737186039116186e-04,-4.450557933646576343e-04,1.673509478569030762e-01
-4.148256170892826444e-02,-1.255083195412173280e-01,-4.828271287560664815e-02,4.364022019421452681e-02,2.143079965851075325e-03,3.962904047808301494e-02,1.302833408117294312e-01
-2.586858406256234422e-02,-2.040659433733685579e-01,-4.796357541169576910e-02,7.760238805860374123e-03,-1.288676351947856159e-03,-7.540607868333122372e-04,1.687974184751510620e-01
-3.117248018250823316e-02,-2.114655851438300149e-01,-4.957844288348025458e-02,1.395989563103735773e-02,4.934109227178303187e-04,-1.680521322557808946e-03,1.735504418611526489e-01
-2.800780020590189212e-02,-1.905282075141769838e-01,-5.774433063684952100e-02,2.708349386512052051e-02,-4.790511164501500647e-04,6.694768736135948885e-05,1.570528596639633179e-01
-3.876659226410061887e-02,-2.151733934847059326e-01,-4.192030898964362040e-02,5.640512573808155374e-04,-4.129373138105226458e-03,-1.308441823256021978e-03,1.750148981809616089e-01
-3.451017466452431515e-02,-2.104612097159848649e-01,-4.081806188305585337e-02,3.486163133318502094e-03,-2.931427092228493410e-03,-3.396855121563754128e-04,1.730643361806869507e-01
-3.356306709570142099e-02,-2.027922002489622733e-01,-4.039323917313303314e-02,3.218065852281125870e-03,-4.004743963739396291e-03,-1.380209509365182274e-03,1.661751568317413330e-01
-4.563011846485977990e-02,-2.101685240217827655e-01,-4.082681586882684621e-02,4.849747768109190574e-03,-3.660973718622203502e-03,-9.853571757215701804e-03,1.681913584470748901e-01
-4.682544994645165132e-02,-2.114321297812071510e-01,-4.528554983862026484e-02,-2.282495080083198752e-04,4.595999212065107471e-04,6.477122853497234998e-04,1.653881967067718506e-01
-3.752544607134251919e-02,-1.932680746881234590e-01,-3.842541442544599589e-02,9.944576116325636733e-03,-6.457256693377644123e-03,-1.489038743081593126e-02,1.587556451559066772e-01
-4.483304093571781335e-02,-2.132153519277202314e-01,-4.530895636401593984e-02,1.865958040223276992e-03,7.018160984780427410e-04,1.785654428507474530e-03,1.682087481021881104e-01
-4.636451727304229109e-02,-2.022286287937464233e-01,-3.549669702286703532e-02,3.230316383761067632e-03,-2.989103641884912742e-03,-8.276364266773927197e-03,1.623860746622085571e-01
-4.039854457384371711e-02,-2.028368466719305818e-01,-3.471386653215417090e-02,9.273379889453647017e-04,-4.065040661508478002e-03,-2.412732018588909823e-03,1.655643135309219360e-01
-4.333837603585793258e-02,-2.037514455350320497e-01,-4.066682464979582551e-02,-3.389015219919611598e-03,6.596198703191163450e-03,-2.799399521527438581e-03,1.623469591140747070e-01
-5.258693306682546420e-02,-2.203699795881577383e-01,-4.783900407592021897e-02,2.884003988309249544e-04,-3.275539413870072383e-03,1.693156340017364331e-04,1.703021973371505737e-01
-4.344028757747697700e-02,-2.104645700147202425e-01,-3.978402324073795210e-02,-3.393168607604192880e-03,1.911521103771159861e-03,-2.853649234276824272e-03,1.690890192985534668e-01
-4.639645525126549069e-02,-2.187260818391393857e-01,-4.305061811143743450e-02,-5.931549405971936126e-03,7.277119916064247107e-04,-5.883007694434770965e-03,1.746317595243453979e-01
-3.252455471925955188e-02,-2.116964756264737846e-01,-4.651470388779874177e-02,-5.607295698519698668e-03,4.014168213100342310e-03,-2.534131620697818027e-03,1.730710566043853760e-01
-4.546264769581708637e-02,-2.287609031259925374e-01,-4.040355828196640076e-02,-4.899015134096245880e-03,-6.789208036946224427e-03,1.934960638566004393e-02,1.894325017929077148e-01
-3.193069711368527741e-02,-2.125840797336047139e-01,-4.913576911022226462e-02,-2.979979046758423743e-03,-2.069714191119519792e-03,-2.772884993120226446e-03,1.728758662939071655e-01
-3.961311041174583186e-02,-2.131489812769147563e-01,-4.023356330687084120e-02,-3.807950763314501066e-03,-6.155992384614060106e-03,1.452442927398442298e-03,1.736978143453598022e-01
-2.726805713476820187e-02,-1.819644578182656458e-01,-4.179559611202639247e-02,-4.029223763537831404e-02,-2.370311570161749790e-03,5.778875390384409852e-03,1.639576256275177002e-01
-5.315838136080461296e-02,-1.893808076656020023e-01,-4.675804964524404167e-02,-5.012398772024746763e-02,-6.894061357971582871e-03,1.849396138100025452e-03,1.648012995719909668e-01
-4.219766238613885390e-02,-2.114645500803715716e-01,-4.211008456862937177e-02,-1.235940456807836825e-04,-2.640494790397838500e-03,-1.089298946481254257e-04,1.693726927042007446e-01
-3.921819692824497772e-02,-2.046499782298277503e-01,-4.423439438918237016e-02,-4.086861464630450226e-03,-4.259180322081425329e-03,2.812707286962438848e-04,1.633026748895645142e-01
-2.741399609243098945e-02,-9.492454335674975485e-02,-3.078116140648222768e-02,-2.303696467624642696e-02,-4.695871960292621362e-03,2.254845554387088086e-02,8.674819767475128174e-02
-4.408613970341426769e-02,-2.457341871095895525e-01,-5.389242735800263417e-02,-2.887030748617635395e-03,-1.465394063079544914e-03,1.038284038241396243e-02,1.978270411491394043e-01
-3.973553442491239290e-02,-2.114745374653139443e-01,-4.119177593702020440e-02,-8.962794551121328101e-04,-1.294731873440836721e-03,5.825353388368469457e-04,1.710402518510818481e-01
-3.990351853252917247e-02,-2.030738667992543212e-01,-3.360159878041545783e-02,-1.289742103751564169e-03,-3.012241920526765194e-03,2.599670235153042110e-03,1.665684580802917480e-01
-4.075287209580914782e-02,-2.109268026442708277e-01,-4.451424971537513986e-02,-9.447165969214774833e-03,-6.294279196903556674e-03,1.659908541042273353e-03,1.694936305284500122e-01
-4.026446582544725150e-02,-2.162474782941574136e-01,-4.358431448435436811e-02,-5.696680879550156205e-04,-3.824805403534548356e-03,-7.034416493955383907e-04,1.744796633720397949e-01
-3.994448255735702502e-02,-2.113549311107112971e-01,-3.912016479590384871e-02,-1.850648302305408122e-04,-3.592342421681785514e-03,2.451029356251004793e-03,1.719894111156463623e-01
-3.676689658524842641e-02,-2.060401651667819745e-01,-4.015680277095214079e-02,-3.476072306682888909e-03,-5.317896223467276709e-03,-2.130927272178537103e-04,1.679652780294418335e-01
-4.659037239088109628e-02,-2.288280083934732811e-01,-4.710075886130989792e-02,1.721338104765836622e-03,3.807768039100281610e-03,1.179760544978563502e-02,1.832695901393890381e-01
-2.949007968364818211e-02,-1.974801934135328452e-01,-4.842856670531532626e-02,8.550120303252375931e-03,5.066491793232871105e-03,9.043880173146824587e-05,1.602941453456878662e-01
-4.234805387324579867e-02,-2.104427470915623544e-01,-4.182825772540769288e-02,2.587943222216939482e-02,9.509070751009124356e-03,2.895110207738305769e-02,1.820397526025772095e-01
-4.079956633537528549e-02,-2.119344537634835768e-01,-3.785509985861040816e-02,-4.480266139450124192e-05,2.906656124453930318e-03,9.646173996737760327e-04,1.727074533700942993e-01
-2.868994834689128637e-02,-1.955365659348242413e-01,-4.695531265869308524e-02,4.569762860580851155e-03,4.662150002966812014e-03,2.886098963525127875e-03,1.589866280555725098e-01
-3.006302158556282272e-02,-1.792756737472810946e-01,-4.713393603436927259e-02,1.689256553947654158e-02,8.947549355274496408e-03,4.164928581606200733e-03,1.454542130231857300e-01
-2.889041383485429354e-02,-1.986443688260642326e-01,-4.273159306053785078e-02,6.549565926474723576e-03,5.378562182676553498e-03,4.249266018095214370e-03,1.640976369380950928e-01
-3.311288211834224893e-02,-1.950594467447537839e-01,-4.891327065251308698e-02,1.480649464416229459e-02,7.134554225754772064e-03,1.425268697893421199e-02,1.591770797967910767e-01
-2.597183308770775745e-02,-1.785474770232333142e-01,-4.724277509422494803e-02,7.228155550985244406e-03,4.651752706289882799e-03,-4.360488409403292501e-07,1.439027637243270874e-01
-2.814307940524887752e-02,-2.191216166946799437e-01,-5.109025748569745451e-02,1.338862546947259917e-02,2.320548552770024437e-04,8.939549249672474078e-04,1.820914149284362793e-01
-2.435983663770206753e-02,-1.915031942881925686e-01,-4.758813108870527803e-02,7.301465252127900193e-03,1.821276716669113522e-04,3.431128974586482403e-05,1.573341637849807739e-01
-2.543418550218511098e-02,-1.917533510342468994e-01,-5.065203059335884883e-02,5.553361090066644828e-03,1.989948777293025581e-03,1.065773388514321737e-03,1.556007713079452515e-01
-2.810959593129691569e-02,-1.968503449856607856e-01,-4.968964789205710525e-02,9.723113675218379715e-03,-2.490854908418494752e-03,-3.459927982465570932e-03,1.601119935512542725e-01
-3.061685397518938700e-02,-1.696280927266005933e-01,-5.463659620666200950e-02,4.000157647343839662e-02,-9.713360501220535872e-04,7.752165750282116914e-04,1.461747884750366211e-01
-2.659433739775077937e-02,-1.870989604779874083e-01,-4.482745238719071379e-02,7.880462503599687529e-03,3.240152558032186915e-03,5.799860033171443455e-03,1.532527208328247070e-01
-2.485453957947873771e-02,-1.616850742973408861e-01,-5.002412387249924319e-02,1.205520302009969145e-02,2.583036168923566467e-03,3.589878083096247671e-03,1.280890256166458130e-01
-3.309062800405759841e-02,-1.315853335883486741e-01,-5.326025212277991916e-02,3.327901612356452127e-02,3.858007467911139625e-03,6.688476070763242978e-03,1.078088954091072083e-01
-4.178100179462914537e-02,-2.090196188233311436e-01,-3.644361825517276193e-02,3.149870645788444131e-04,-3.789571232829185878e-03,-1.709575704031971247e-03,1.701235026121139526e-01
-4.643178861413171932e-02,-2.099439268269010506e-01,-4.670918701974320630e-02,-6.387026388779476406e-05,5.236749567692757998e-04,3.334906189481659749e-04,1.633771955966949463e-01
-4.360050865681333598e-02,-2.131568036940801047e-01,-4.243590818667491993e-02,1.641937367767161340e-03,2.951993384911998086e-04,7.162286772229452172e-04,1.701706349849700928e-01
-3.808924284256827442e-02,-2.123888899807246933e-01,-4.035488341051609446e-02,-4.356754099697035900e-04,2.859073424661530503e-03,-8.474351337139835773e-04,1.732565909624099731e-01
-3.422953303254084451e-02,-2.109020983731278442e-01,-4.434718640131913442e-02,3.091985958393944287e-04,-2.386809207771088681e-03,-4.516432208553850859e-04,1.718896180391311646e-01
-3.822867006635799481e-02,-2.124679898401569955e-01,-4.484054213848463061e-02,-9.877266818335166988e-04,-1.774919986229576974e-03,-6.548517860638724901e-05,1.710654795169830322e-01
-3.384099024097186187e-02,-2.081805506588635946e-01,-4.350280444670581032e-02,2.561547828996107827e-04,-9.808364706512047622e-04,-1.228807980995596117e-03,1.697374731302261353e-01
-2.479725172022455293e-02,-1.934437578958174142e-01,-5.108987904686196346e-02,2.863130444558159571e-03,-1.034860242990423649e-03,-2.638662771581575060e-04,1.572475731372833252e-01
-4.036879117401713513e-02,-2.028179036258749846e-01,-3.816450702359023422e-02,1.693400556113126496e-02,3.058338945074181962e-03,9.788054552286880317e-03,1.671179682016372681e-01
-3.363557890170355141e-02,-1.514731928499196412e-01,-5.124605578792047755e-02,1.255816427843885023e-02,4.928819326076387328e-03,7.933104507574224688e-04,1.125546321272850037e-01
-4.456263129130578343e-02,-2.100413321642446707e-01,-4.416048499450447168e-02,-3.192534291263371404e-04,1.496892957342592888e-04,-4.280841614428208797e-04,1.656829267740249634e-01
-4.443105369915440611e-02,-2.107050369416287039e-01,-4.313468683514678353e-02,-6.256779880434233838e-04,7.193076119998539279e-05,-6.926290325187896887e-04,1.669338196516036987e-01
-4.124807572737006212e-02,-2.104669049462773722e-01,-4.092571570969709416e-02,-3.189141907142763513e-04,9.951756027767954627e-05,-3.694099813844263741e-04,1.693824380636215210e-01
-4.352985338729330189e-02,-2.104820838964120422e-01,-4.307873447987311394e-02,-1.652673507368747395e-04,1.027926230557871674e-04,3.560311448962763265e-04,1.671797186136245728e-01
-2.587491100486809248e-02,-1.994315830947572532e-01,-4.994974822547361415e-02,3.284477610619538929e-03,1.949828894605857080e-03,7.915421892897713625e-04,1.629994362592697144e-01
-2.572294657330057022e-02,-2.005330280865371129e-01,-4.794002239140942451e-02,1.948425767092761213e-04,1.594187101207559642e-03,1.154063406571714974e-04,1.648519784212112427e-01
-2.374369711805834893e-02,-1.994957341989012090e-01,-4.974657765696015310e-02,-1.434360354940361366e-04,1.916819855591978883e-04,-6.101273437843304521e-04,1.643050760030746460e-01
-2.369045647503138785e-02,-1.993715493853768783e-01,-4.827399715859494178e-02,1.563360853919177305e-03,3.861603223466001256e-04,7.764407211213882835e-05,1.647942066192626953e-01
-4.612741436982059628e-02,-2.114284044305985710e-01,-4.611513335974030958e-02,6.934741634247663629e-04,1.373196027843516836e-05,4.918451200684043068e-04,1.653136909008026123e-01
-4.681003056670800244e-02,-2.106893982902691143e-01,-4.693492229075091338e-02,9.160533457412945411e-04,3.431370559081902999e-05,2.599502357381812574e-04,1.638252735137939453e-01
-4.642415017051954723e-02,-2.101320371054494207e-01,-4.697866305478273774e-02,5.993158732799461902e-04,-2.948761488144490588e-04,5.500879448980719975e-04,1.634382009506225586e-01
-4.673357632883468754e-02,-2.103829433612220690e-01,-4.766009801661494349e-02,6.671079247762329214e-04,1.905636201217781581e-04,3.256240933474865854e-04,1.631934791803359985e-01
-4.725040422369961718e-02,-2.155116884639362018e-01,-4.674453658264035583e-02,-1.724537606983451076e-03,1.049504709388244042e-03,1.044724224493455422e-03,1.685607731342315674e-01
-4.568360878985658347e-02,-2.169415824194046993e-01,-4.615272650100056551e-02,-1.009393344846070458e-03,1.469822999294873164e-04,7.921403040999499623e-04,1.710385233163833618e-01
-4.504499627645310034e-02,-2.239046738493044031e-01,-5.634945094183003295e-02,-3.247170058316300317e-03,1.721597436476763211e-03,3.387631962672142411e-03,1.736997812986373901e-01
-4.748758853503368127e-02,-2.174117064402067701e-01,-4.684223904951401868e-02,-1.778471238303287044e-03,-8.987000177180432849e-04,-6.440116796983527854e-03,1.706476509571075439e-01
-4.819512660162258294e-02,-2.328501160909247081e-01,-4.237510657697092509e-02,-5.627596452612795667e-03,1.703155973712407829e-03,-3.760964039728141237e-03,1.880217492580413818e-01
-2.527794207629285861e-02,-2.012898167000027883e-01,-4.824775481271341426e-02,7.754931374393067177e-04,1.777789553086752501e-03,6.064336899625831327e-04,1.657625436782836914e-01
-2.383732264760370090e-02,-2.019493436956197874e-01,-4.846655677395632356e-02,1.149427751241407798e-03,7.543361716108436818e-04,2.418057653289569671e-04,1.671812683343887329e-01
-4.866094685085537580e-02,-2.098385921725388070e-01,-4.849448075677498943e-02,1.381977940191556607e-04,-1.055659320467337804e-03,1.678063774524886972e-04,1.612717509269714355e-01
-2.371257773142679270e-02,-2.006538151271006487e-01,-4.902347526103728592e-02,9.807548533358871092e-04,6.536155936935417795e-04,3.719106087611167996e-06,1.657542437314987183e-01
-3.986903543470964040e-02,-1.385199747327715558e-01,-3.270801897229599214e-02,2.827051967911065750e-02,6.347160557643466254e-03,3.329131642826096277e-02,1.278013736009597778e-01
-5.072118539430145456e-02,-1.658931637874538623e-01,-3.142433865491883749e-02,1.017970980874719628e-02,2.789504540025524240e-03,4.099798695489893785e-02,1.457262337207794189e-01
-4.551635789967775625e-02,-2.095517161622982849e-01,-2.694364807826235553e-02,1.781274489264139411e-03,2.076337842653891690e-03,1.246148361150532444e-02,1.754635125398635864e-01
-5.316274254346591704e-02,-1.514593495806319523e-01,-2.946094566292897787e-02,-1.165309321822747754e-02,2.039100279480832861e-03,5.037356265030985825e-02,1.434787362813949585e-01
-4.763683804821337159e-02,-2.169122769192176614e-01,-3.484104608596078068e-02,-2.103589051569346776e-03,-4.611071467456355965e-04,1.208536912393006271e-02,1.773020029067993164e-01
-4.793463812292590720e-02,-2.180691276973329984e-01,-3.584839659240898757e-02,1.351649888962840225e-02,4.051060431606882603e-03,1.582399324178720285e-02,1.802681982517242432e-01
-5.119105322310239098e-02,-2.220671878892888640e-01,-4.697548502932958475e-02,-6.935508710739871421e-03,-1.878612984870282540e-03,-3.576062019343342977e-03,1.735800057649612427e-01
-4.183296606125450762e-02,-2.055484673950108421e-01,-3.468939719189673143e-02,-1.362215125715460565e-02,3.808557625392768996e-03,-1.234465149151242266e-02,1.705306023359298706e-01
-4.639846148530203662e-02,-2.889289558019763615e-01,-4.556676556851793625e-02,-6.773965239003531223e-03,5.713081971316863808e-03,1.972954648124940896e-02,2.458186000585556030e-01
-3.936132786587173693e-02,-2.393696492738029147e-01,-4.369843367775155807e-02,-6.861554315082315884e-03,1.928165190962881272e-03,-5.435225568858330358e-03,1.984835118055343628e-01
-3.139432680904390149e-02,-1.450985571079058678e-01,-4.966511990327868165e-02,2.957260696714739470e-02,6.110310619773453786e-03,1.523863439615154997e-02,1.209019422531127930e-01
-4.743342709792433554e-02,-2.844700728268463319e-01,-4.842834522778238782e-02,-1.151554539010006192e-02,2.103985743816214407e-03,-7.272245777760859287e-03,2.377420663833618164e-01
-5.483596426456802120e-02,-2.692297597120212327e-01,-5.113757293948428817e-02,-1.188299552072763325e-02,-3.402885835157597183e-03,-6.730330853681795039e-03,2.176362574100494385e-01
-4.596459166988430683e-02,-2.107347725098558944e-01,-4.585198182105754139e-02,-8.261062760962043384e-04,-2.882575074608945825e-04,-4.054952199443382071e-04,1.648349761962890625e-01
-4.587540912147136662e-02,-2.099112954221759308e-01,-4.566231173745002869e-02,4.906834021404531034e-04,2.936464940400425729e-05,-1.622245755895881014e-04,1.641449928283691406e-01
-4.153650964956082797e-02,-2.152821271417209026e-01,-4.351463807941235301e-02,2.490764575559057466e-04,-1.550222056443997099e-05,1.029317580864838079e-03,1.727747917175292969e-01
-4.542672851399699729e-02,-1.961471554343943713e-01,-3.097013699985275148e-02,5.913869958058360981e-05,4.210701821381117489e-03,1.311792108715569092e-03,1.586281955242156982e-01
-4.378688018356954870e-02,-2.097903528601535450e-01,-4.536437450611572469e-02,1.090376315623924102e-04,-1.526790978486263094e-05,-1.960793099205560875e-04,1.652208268642425537e-01
-4.266801293076687152e-02,-1.421814605522412900e-01,-5.349578631820302299e-02,-7.985258789907174679e-03,-4.370735572425041987e-03,-6.815009533429922540e-04,9.587833285331726074e-02
-5.523708634907550930e-02,-1.196755855605186741e-01,-5.709492317912333303e-02,-8.583806651493244150e-03,-3.960543881680112996e-03,1.689524169951503690e-04,6.560673564672470093e-02
-4.647179499458298918e-02,-1.744878887869664441e-01,-6.045276842735235190e-02,-1.969691080608754197e-02,2.812330717163613256e-03,3.614197038229828140e-03,1.265725791454315186e-01
-4.158098660928546964e-02,-1.546102695928365245e-01,-5.928099655205626428e-02,1.359361937198689217e-02,7.744662812749902999e-04,1.406722901845224808e-03,1.079369485378265381e-01
-3.659203249987717788e-02,-1.137148789014084532e-01,-4.703733813351797244e-02,-1.688096262515310225e-02,-1.850171854972897665e-03,4.577433546841386085e-03,7.860976457595825195e-02
-3.497549020873019776e-02,-1.507779372392994699e-01,-5.167629700849735164e-02,-3.856323964794669545e-02,-5.861569890727889517e-03,8.378516723840878644e-03,1.285697221755981445e-01
-4.680575820647706747e-02,-1.214519418567213405e-01,-5.217059728601335100e-02,-1.406686250189679611e-03,1.875622800879796692e-03,1.926630410809447580e-03,7.230487465858459473e-02
-3.372805714414453537e-02,-1.774263717330829826e-01,-4.636853275963560839e-02,1.111736977175666009e-03,6.488437232996371873e-03,3.511933088158396450e-03,1.384181380271911621e-01
-4.730975889953787511e-02,-2.108423321611513912e-01,-5.016938038147965295e-02,7.439578068981163089e-04,-9.199980147548649694e-04,7.776525956273928810e-04,1.621402204036712646e-01
-4.428786996751940541e-02,-1.504519690878932114e-01,-5.424176473656205227e-02,-1.342478729796614881e-02,-3.599608534298921205e-04,-6.911436836595995058e-06,1.041835546493530273e-01
-5.069923689059826349e-02,-2.053862242917794956e-01,-3.780701453484491131e-02,-3.968752152426090391e-04,1.293515832987486190e-04,-6.471881839049007865e-03,1.619095802307128906e-01
-4.772271950218159864e-02,-2.180551388221434461e-01,-3.560202894843433885e-02,-3.779649326796732847e-03,-2.051966479428474904e-03,-2.506521522026592882e-02,1.821122616529464722e-01
-4.591593955181922510e-02,-2.126544461791730067e-01,-4.581569454203526098e-02,1.238832611709316271e-03,-1.112282476418487154e-03,3.120719107819672341e-04,1.668144613504409790e-01
-4.660746266250753028e-02,-2.114333097226118729e-01,-4.010158677988280573e-02,-1.536242252855608576e-03,1.112116317379604818e-03,-1.036515214598629844e-02,1.691606342792510986e-01
-3.874413852119017870e-02,-2.148510745295288127e-01,-4.030209301444383219e-02,2.536244613344774924e-04,2.349533475400168454e-03,2.023298034059777114e-04,1.753812730312347412e-01
-4.806435930296301673e-02,-2.226722048750705008e-01,-4.720639771695348680e-02,2.964251251225746581e-03,-3.062311675408417849e-03,-4.496262083943882229e-03,1.753669977188110352e-01
-4.682468251211814592e-02,-1.713876662020738517e-01,-3.955795509002514587e-02,-8.965279011998259634e-04,7.146097842742160471e-03,-7.996857454532539655e-03,1.296972185373306274e-01
-4.501742091218227659e-02,-2.334895153177638516e-01,-4.728622403107739930e-02,-8.832326868482665710e-03,2.884052866456063811e-04,-2.021659560891846119e-02,1.912058740854263306e-01
-5.470019236925136030e-02,-2.641003165515898310e-01,-5.516041158632863095e-02,-3.718969021822216003e-02,-1.991640542119515762e-03,-4.822767100714259181e-02,2.342884987592697144e-01
-4.559244944956605122e-02,-2.161169487694667990e-01,-4.771211766239539381e-02,-2.531599712791270280e-03,-1.020310320796696466e-03,-8.552972313810586072e-04,1.695470064878463745e-01
-5.137001892529138858e-02,-2.182781655619638606e-01,-3.120674240802198685e-02,-2.679341247767209108e-03,-3.283629890012933726e-03,-2.441249645349306829e-02,1.829538047313690186e-01
-3.701445343816011507e-02,-1.441815153479750200e-01,-3.021496691970347592e-02,-2.601671725497359255e-02,-1.380003583733357964e-03,-3.251501892764800672e-02,1.321654021739959717e-01
-4.811501426840156248e-02,-2.073345565679284297e-01,-3.300325955000286970e-02,7.762356334867671773e-04,4.145403148614539707e-03,-9.956964552502109173e-04,1.674564033746719360e-01
-4.419789994111825854e-02,-2.007285166241237762e-01,-4.562781937987186315e-02,3.841847157368498411e-02,4.863442537300095847e-03,1.133758197830547244e-02,1.707763820886611938e-01
-3.608987050557949106e-02,-2.108070977978383220e-01,-3.946789282873689603e-02,-6.699840133361965010e-04,8.609306909318296388e-04,-2.688973485419761684e-05,1.730632632970809937e-01
-4.474747981834771571e-02,-1.486068606748702781e-01,-3.843030399737755454e-02,9.058591768265979866e-03,7.137220413651023700e-03,1.623867547634858660e-02,1.125737652182579041e-01
-3.781773617882451533e-02,-1.858268433160357169e-01,-3.982457058440108666e-02,1.473812709216462506e-02,4.459736576625553464e-03,3.130751554848205942e-02,1.589511930942535400e-01
-5.226186086864219316e-02,-2.273226555010640637e-01,-5.666111230134258242e-02,6.390682729414950969e-02,1.381591382696024332e-03,7.373343520721112321e-02,2.417919188737869263e-01
-4.358630047916188521e-02,-2.091974393516912167e-01,-3.140330479931593977e-02,-1.165478311037792050e-03,-1.062744751424240120e-03,-5.144764952440248788e-05,1.720482110977172852e-01
-2.424917274394930433e-02,-1.983220788078470243e-01,-4.942908429730823172e-02,2.128089490854871073e-04,5.037241359281422132e-04,-1.661974441836107179e-04,1.629516631364822388e-01
-3.664006614920994886e-02,-2.118803072735661597e-01,-3.826208302427985819e-02,2.570016203595988972e-04,-3.384965638343323383e-04,-1.819478819895337194e-04,1.744367331266403198e-01
-3.856365766455397553e-02,-1.937477198705964687e-01,-5.133628037580603015e-02,-3.941005825023585611e-04,6.533062500313577964e-03,-1.915731526790743838e-04,1.496387124061584473e-01
-4.309430224081470251e-02,-2.129058925768494148e-01,-4.556360442219797857e-02,-5.060553075112775561e-04,6.065108334653016497e-04,3.382195045639325005e-05,1.685960590839385986e-01
-5.820081113105533832e-02,-1.493924939733221047e-01,-5.296631673857685879e-02,-1.174916396410532896e-03,-2.469842586668053418e-03,-1.422187025776752885e-02,9.721055626869201660e-02
-4.884480222891974394e-02,-1.384330262327402861e-01,-4.724312216260231900e-02,-1.297656500879882865e-02,2.485179038286203755e-03,-3.729513813747448170e-02,1.134398132562637329e-01
-3.131117173284374278e-02,-2.096444324056515596e-01,-4.497342409238178768e-02,9.494497811822103644e-03,3.113294587499215900e-03,3.745750243014968339e-04,1.727799475193023682e-01
-5.152763990833059832e-02,-1.110091319403101601e-01,-4.593193878478757375e-02,1.240767321120449761e-02,-1.827292684160752466e-03,-2.532938088648642103e-02,7.936498522758483887e-02
-4.599419040227767375e-02,-2.100532987280222808e-01,-2.891949062521424751e-02,2.796367571955168897e-04,2.235580847951354998e-03,-1.837633957107031191e-04,1.732729822397232056e-01
-5.684303717258464006e-02,-1.471665153585962893e-01,-3.454512562872227854e-02,-1.056252883153690949e-03,-1.998540117505386536e-03,1.201468769159977010e-02,1.054416447877883911e-01
-2.889072413170231529e-02,-6.386900512680263042e-02,-3.939228786539206856e-02,2.818596670795053220e-03,-5.199335554755395508e-03,-2.879745689366538033e-02,5.965944752097129822e-02
-5.289783609775215723e-02,-1.739075626395980012e-01,-3.383748865793437255e-02,-8.669997634449855967e-03,2.634955117054965136e-03,-2.777547891555880166e-02,1.409748345613479614e-01
-4.326179236524346078e-02,-2.110567210277059236e-01,-4.100547716518424674e-02,-2.682417723221388901e-03,1.582671482299589493e-03,-8.710056514426934085e-04,1.690272241830825806e-01
-5.316394882671303390e-02,-1.697685204971136619e-01,-3.107352162048341443e-02,6.740920149866068412e-03,-4.213434335515195764e-03,-2.968621428445543040e-02,1.396203786134719849e-01
-4.712085209236437089e-02,-2.029825826167974134e-01,-2.447377432870782854e-02,1.156461172437132836e-03,1.070509643779520015e-03,2.689549485957801189e-03,1.684183329343795776e-01
-4.597577275097189387e-02,-1.314226407185435375e-01,-3.983860139251231558e-02,-3.099955354734171276e-02,2.395193916965947072e-03,4.645968550084697557e-02,1.312968730926513672e-01
-4.126428419484670651e-02,-1.601087950334750820e-01,-2.994147026209375423e-02,-1.885704561495314679e-02,-6.536798463452852398e-03,1.620274964199749229e-02,1.325911730527877808e-01
-4.654951192924340619e-02,-2.209946264713174569e-01,-4.772449929788617068e-02,5.271090167896171525e-05,1.572350123594316846e-06,1.046944070063703493e-03,1.738700717687606812e-01
-4.372631960617791996e-02,-2.207260202608768707e-01,-5.219242898004668868e-02,-2.724708165759559021e-03,-8.325489974012432060e-04,7.728916661598296718e-03,1.735097467899322510e-01
-4.096176684653287520e-02,-2.119333724971574906e-01,-4.307902778027970087e-02,-3.565848819578022137e-04,-5.284451594976416564e-05,-4.939741805780452442e-04,1.699261665344238281e-01
-4.438689024957191698e-02,-2.230842365309536612e-01,-5.631923206670930160e-02,-1.444831503751901905e-05,1.716853290125506637e-04,-4.563915113981211608e-03,1.732207238674163818e-01
-4.333190872964533258e-02,-2.231542272540404381e-01,-5.707268722342132006e-02,-7.710044282251216421e-04,1.133070389124632600e-03,-4.214380603441698729e-03,1.735306680202484131e-01
-4.739639610961410288e-02,-2.107058705890085537e-01,-4.781137915206986472e-02,2.358257258639730940e-04,-4.272138781833616596e-04,7.703031562975793311e-04,1.631100326776504517e-01
-4.472947002219491985e-02,-2.321924871310822591e-01,-5.545391180997318731e-02,2.323245587417823409e-03,-8.712145361313061633e-04,-3.714073822927529533e-03,1.825015395879745483e-01
-4.481853186171198822e-02,-2.135088148524610929e-01,-3.341665539216848169e-02,-2.928648539491900539e-04,-4.026194275196468345e-03,-2.550908329523570058e-03,1.748662590980529785e-01
-4.391497948625198294e-02,-2.117852094498142712e-01,-4.200810964730307406e-02,-2.715218570231434157e-04,-3.209818383870736546e-04,1.291181433891705791e-04,1.688334643840789795e-01
-4.751992313830985526e-02,-1.276723490937892169e-01,-4.164916599391949026e-02,-1.217319928983062911e-03,2.948009418753769206e-03,-2.937043278975880450e-03,8.358127623796463013e-02
-4.661667132400100499e-02,-2.116795417390455458e-01,-4.531394232516047088e-02,-1.206709421310918047e-03,5.609655330222945626e-04,2.854688846265908777e-04,1.657348424196243286e-01
-4.242282566744113442e-02,-2.124132886709289014e-01,-4.285350391791298980e-02,-8.343191687802825347e-04,-1.678103086826377268e-03,1.606699781048180078e-04,1.698067933320999146e-01
-4.454754734878941386e-02,-1.965492297248427889e-01,-4.401463051344348121e-02,-1.047565715249756425e-02,-8.640054561550789686e-03,4.938147117399285108e-03,1.543117761611938477e-01
-4.750137858064218399e-02,-2.017853812779742129e-01,-2.730761305926991678e-02,1.588320373212663301e-04,-8.541892865247408808e-04,9.342723617407440104e-04,1.653233170509338379e-01
-4.828112094473630683e-02,-2.109768821952738294e-01,-5.094960537256964378e-02,-5.922857529126505319e-04,8.032619041191148539e-04,7.035108740071217403e-05,1.613873690366744995e-01
-3.900078585222247624e-02,-2.120569569295085444e-01,-3.988018482671720766e-02,4.932328903764721193e-04,-2.412013091716101905e-03,-3.074994769342709712e-04,1.726716309785842896e-01
-3.129201586428037585e-02,-2.134626158605663071e-01,-4.847439424123983764e-02,-7.874515649857454641e-04,4.039339209649459982e-04,1.163795321373697368e-04,1.742229312658309937e-01
-4.317189735040590642e-02,-2.126835329713670508e-01,-4.278741200665132915e-02,-5.555083797044411964e-04,-1.114297192437743896e-03,-2.227089551477377403e-04,1.697183400392532349e-01
-4.059043445928481320e-02,-2.118010956355078633e-01,-3.941421507424103243e-02,-4.327826042911476568e-04,-7.084486684397000526e-04,4.383575980673170831e-05,1.718078255653381348e-01
-4.465170101262090629e-02,-2.117401410130725914e-01,-4.474244294549412082e-02,-3.311631135910854721e-04,-1.116312416718691618e-03,2.892804843961284010e-04,1.670560091733932495e-01
-4.281014803082221210e-02,-2.121333238853461423e-01,-4.381281184948855600e-02,1.898280087599455812e-04,-5.661101531293843752e-04,-4.402395840591780130e-04,1.688289642333984375e-01
-4.571355076460191513e-02,-1.849402964659495330e-01,-4.900485592393669793e-02,1.767094648522678571e-02,-1.493969390521262836e-03,-5.311536924398725656e-02,1.683564484119415283e-01
-3.093893511424271325e-02,-2.081489917433202164e-01,-4.183687733023001148e-02,6.015656941650757671e-04,1.194451348850329286e-03,1.043538977990581635e-03,1.720452755689620972e-01
-4.605536843076587367e-02,-1.978496187360031522e-01,-3.914755716305681060e-02,7.306301594887317646e-03,-3.007289131954476655e-03,-1.841916536395924245e-02,1.591943800449371338e-01
-3.833037671281961517e-02,-2.129834939465357624e-01,-3.727590821538203508e-02,-1.477930493616549403e-04,-3.452653628055976122e-04,-4.106206872391514329e-04,1.751853823661804199e-01
-4.262994643646706577e-02,-2.111621354789351424e-01,-4.362923429209256132e-02,3.895086831707474020e-04,-1.078194139179259579e-05,5.597395848905210684e-04,1.680389195680618286e-01
-3.682782661109960248e-02,-2.122313968969802844e-01,-4.093034825713183500e-02,1.419711664750665742e-04,-1.376566852018194136e-03,-6.078875343489751042e-04,1.734084784984588623e-01
-4.157541258569230624e-02,-1.754447599784235701e-01,-3.725862600846756995e-02,2.407637432760239421e-02,6.210351763751144165e-04,-2.467003377247779794e-02,1.486052721738815308e-01
-4.649821348374134911e-02,-2.116034060840971676e-01,-4.515451311003387813e-02,4.472043120212394491e-04,-5.615075634615442849e-04,-1.746523292971006492e-04,1.657860726118087769e-01
-3.304817924589623090e-02,-2.286175641603973019e-01,-4.233552208107221881e-02,1.277949783552136988e-02,-4.396491945328604226e-03,-2.248077988236231450e-02,1.964215040206909180e-01
-4.664742918097678631e-02,-2.191374127603324395e-01,-5.152186635235082163e-02,-2.276956329628373327e-03,2.140360008988436737e-03,1.437629892649387080e-03,1.702094674110412598e-01
-5.177026943549702109e-02,-2.214469428471481094e-01,-4.311765414775630550e-02,8.776233674130284185e-03,-1.181580977008368609e-02,-2.214379331631005296e-02,1.801503151655197144e-01
-3.878957826875976261e-02,-2.065858376286337783e-01,-3.178630865689470453e-02,5.147516670111449170e-04,1.437773677368313395e-03,4.924346555638013049e-04,1.714277565479278564e-01
-3.629398871942189631e-02,-2.097317389228628981e-01,-3.463911704760082311e-02,3.012176578274009496e-04,9.881826204399079931e-04,1.778077327947497803e-04,1.742805391550064087e-01
-4.493596212851638794e-02,-2.133672942796315808e-01,-4.411009897070302527e-02,7.958987639991931895e-04,3.943545595471424246e-04,-1.381733093527247856e-04,1.688529551029205322e-01
-3.457468069592298243e-02,-2.093958309710953480e-01,-4.255287217933829969e-02,1.525581989090021504e-03,1.265135020315569453e-03,1.301902552662284553e-04,1.710063219070434570e-01
-3.890010407934827580e-02,-2.069984018182429719e-01,-3.226434496973064336e-02,1.120847009364182075e-04,1.880756324100276919e-03,2.353141154851201415e-04,1.715440005064010620e-01
-3.790580630766410969e-02,-2.090485244346325100e-01,-3.416187290904546675e-02,1.648521979185410530e-05,6.536393514363375177e-04,-4.051370126473334511e-04,1.730501949787139893e-01
-5.018728194912900481e-02,-2.134383393962212550e-01,-4.648611083542211059e-02,1.108007546803328140e-03,-1.345673358149237402e-03,1.396457099645320461e-03,1.651780605316162109e-01
-4.609751576117918082e-02,-2.132886000819874672e-01,-3.455714148559475840e-02,-7.650996159366848896e-04,2.197175734688204801e-03,-3.190992410343080395e-03,1.733847558498382568e-01
-4.318823144804158354e-02,-2.126097095111568192e-01,-4.506927725838664328e-02,5.046869818205515761e-04,-2.879942837506364525e-04,-1.318955875691838180e-03,1.685073226690292358e-01
-4.784218336307610037e-02,-2.156469059743420513e-01,-4.485643896013667697e-02,-5.883451856400868452e-04,2.822808160758361268e-04,-5.103305971958346093e-03,1.695516705513000488e-01
-4.739860790470368929e-02,-2.115863633316110715e-01,-3.662375862217662897e-02,8.097336144746643824e-04,5.840333055076859592e-04,-3.270805153080253011e-04,1.698414683341979980e-01
-5.375401216754172040e-02,-1.060582012444475364e-01,-4.106032288812457021e-02,4.248906259408507906e-03,-6.649408221721542916e-04,2.466214757383247691e-02,7.376273721456527710e-02
-6.071284499315056371e-02,-3.576082052377192455e-01,-6.650257859316691111e-02,-4.472253631463395107e-02,3.786429621857607519e-03,-3.576500995343297185e-02,3.103903532028198242e-01
-4.754983021237659674e-02,-2.092823248834300709e-01,-3.698917807012350872e-02,-2.611867239824571039e-04,1.667377776705468223e-03,-7.585403157439427491e-04,1.672937572002410889e-01
-4.575015080053351779e-02,-2.126835719118621570e-01,-3.034352035879878118e-02,-3.468825987400024190e-04,6.780877427271366441e-05,-1.051410943424762809e-02,1.760909557342529297e-01
-4.676754936829884135e-02,-2.045815162022688039e-01,-2.930163077374016434e-02,-6.378055722077531110e-03,2.648582470140914066e-03,-8.162570415081324415e-03,1.682546883821487427e-01
-5.039631559982955811e-02,-2.057595882446937030e-01,-3.938282703153207776e-02,-1.055524138324680748e-02,-4.409430832810043357e-04,-3.723212696562691604e-02,1.745383888483047485e-01
-6.364916624393199274e-02,-2.886923275397780264e-01,-5.661588828252767103e-02,-6.290725544290841353e-02,-6.122223429153554478e-04,-2.315398547335413559e-02,2.564334273338317871e-01
-2.694323195809672500e-02,-2.079665407955472722e-01,-4.847379202789999647e-02,-1.139080283843884375e-03,-5.841768158105684582e-04,-7.469883689587457961e-04,1.712952405214309692e-01
-2.564538442994866718e-02,-1.985930978964270954e-01,-4.896420918447499243e-02,1.010935338181644496e-03,7.302561976944713443e-04,-7.498847430246176143e-05,1.625620573759078979e-01
-4.784386039000341345e-02,-2.093231807102815534e-01,-4.765477702938179794e-02,-3.205010178872571593e-05,9.640807311805008739e-09,5.051888301548833143e-05,1.615739762783050537e-01
-4.111701256365730278e-02,-2.120057570575940575e-01,-3.971700595442644033e-02,-6.321561924766919572e-04,-1.818344536830680228e-04,3.398306825376999196e-04,1.715978235006332397e-01
-3.887955323787933848e-02,-2.123605618011205065e-01,-3.794004800666684468e-02,-5.131727857662243299e-04,-1.497515390726024713e-03,-4.632059198532936404e-04,1.739761233329772949e-01
-4.033629101443104992e-02,-2.123291910495365697e-01,-3.729263360613347539e-02,-5.425827685033387691e-04,-1.362694996015093550e-03,-1.500655715563169851e-04,1.735535413026809692e-01
-3.643930035802382672e-02,-2.129664649773191365e-01,-3.984389419973259627e-02,-2.059554754127567041e-04,-7.691970472636054657e-04,-2.148605775036645585e-04,1.748555600643157959e-01
-5.176907994511452393e-02,-2.123158267305834401e-01,-4.567788485900319689e-02,4.862840592650465054e-04,-9.980730024584895041e-04,1.287823445349840562e-03,1.637038588523864746e-01
-4.357973487842524418e-02,-2.109030964330046998e-01,-4.597167447674788826e-02,9.508535637890316123e-04,-5.525952943590967126e-05,-4.620741734898975184e-05,1.661485135555267334e-01
-4.752320387841003912e-02,-2.096213246177357770e-01,-3.227921687046364507e-02,-6.907784035595186667e-04,-5.314776504337234090e-04,3.642946306059462701e-03,1.703563779592514038e-01
-3.874372940386435621e-02,-2.121177255535676154e-01,-3.755392312669796756e-02,-4.079192354893768275e-04,-2.060886895695047375e-04,1.830357086617060976e-04,1.739740371704101562e-01
-4.889114064309003221e-02,-7.388228484420406028e-02,-4.048124176433465227e-02,-2.283021338549045404e-02,-7.954862288874904944e-03,-2.813328818113889490e-02,7.094644010066986084e-02
-3.099143531954812181e-02,-2.065746909089284933e-01,-4.314415786606817793e-02,1.097615114443122649e-03,2.160468260659984506e-03,2.009868299060177822e-03,1.699208319187164307e-01
-3.692145311321414630e-02,-2.082181211440388979e-01,-3.180251895482136271e-02,2.695530464448317172e-05,2.008191852922667706e-03,5.453428202115066618e-04,1.739500015974044800e-01
-4.342818289634688828e-02,-2.138530936628911250e-01,-4.356371524078596347e-02,8.963375047937433525e-04,-4.320848186411783162e-05,6.205352775870031550e-04,1.703676730394363403e-01
-4.603706693061924982e-02,-2.121150342088361784e-01,-4.460276781972729448e-02,1.158131082546933659e-03,6.324551838534249720e-04,1.271845382974869446e-03,1.668299436569213867e-01
-4.115602710353841176e-02,-1.938800765420381211e-01,-3.204198108901536862e-02,-9.643265423444340612e-04,4.605679265406619968e-03,-4.824959722342762186e-03,1.579110622406005859e-01
-4.676323116606600355e-02,-2.118694716096951036e-01,-4.719326357771484043e-02,4.095301147355075166e-04,-5.479543687423940601e-04,9.364591331484086942e-04,1.649038791656494141e-01
-4.053926395703318086e-02,-2.060924772305752772e-01,-4.284996044296227741e-02,2.101218888268762547e-02,-1.094119404568406201e-02,-2.522368392020219591e-02,1.749943792819976807e-01
-3.802012247796257571e-02,-2.117441089796895382e-01,-3.647432285845788463e-02,-1.699148599301036737e-04,-3.583227199049565052e-04,2.396022269075290896e-04,1.745038628578186035e-01
-2.447555554594700589e-02,-2.010085922351685928e-01,-4.927403155092356657e-02,1.137718443229681343e-05,-3.708922962691003976e-04,7.070951533053700859e-05,1.655341535806655884e-01
-4.424103495069626329e-02,-2.134275251975915610e-01,-4.281251085278718616e-02,1.467990482724809091e-03,6.438926296762791839e-04,8.126336238008260949e-04,1.699337661266326904e-01
-4.455094801440485225e-02,-2.124740898066769801e-01,-4.429317156163262159e-02,1.671323823825565115e-04,7.889210456257320244e-05,8.584439169516980229e-04,1.680590659379959106e-01
-3.808372968661581648e-02,-1.611615589739200105e-01,-4.623130308466330551e-02,-9.020298086555956357e-03,7.019127709793601504e-03,-5.722821029821171038e-03,1.212514042854309082e-01
-5.758661358543883113e-02,-1.977929272388254667e-01,-5.726945421426814231e-02,-2.617669718580271573e-02,1.413943883184687897e-03,-3.126047368103995749e-02,1.571486145257949829e-01
-4.235286042282360164e-02,-2.113908353823121811e-01,-4.151123322238092078e-02,2.132835162828443680e-04,-8.791861537118567007e-05,-3.249164641320016213e-04,1.694617569446563721e-01
-3.723503022954481601e-02,-1.576174948262446807e-01,-4.542700765344168112e-02,-8.042652333020854777e-03,6.878642866756643805e-03,-6.125660747367628507e-03,1.184121891856193542e-01
-4.060769506006504936e-02,-1.808953982346457323e-01,-3.715923765178611587e-02,-1.657181675049147068e-02,1.254950408986645408e-02,-2.043770586953966989e-02,1.507506370544433594e-01
-4.719716689600321480e-02,-2.099752623684191799e-01,-4.825436626108006027e-02,-3.731073279603599503e-04,1.988558635302063043e-04,-3.598675856159778996e-04,1.622549295425415039e-01
-4.319193802176014840e-02,-2.134983227084533142e-01,-3.738948801927256815e-02,-3.209861441134080487e-04,3.698502378408565546e-03,-1.071502971289048541e-03,1.734096854925155640e-01
-3.564206262660715024e-02,-2.111572284313978365e-01,-4.335883705794973952e-02,4.657418653495310791e-03,9.530775531356446917e-04,9.964493833078428772e-04,1.719927042722702026e-01
-3.915201256382672135e-02,-1.759682776356035483e-01,-3.846036485066997579e-02,-8.146625996386856056e-03,7.459709518228789873e-03,-5.092228941763342516e-03,1.387718766927719116e-01
-4.056346152213505252e-02,-2.155989980389538263e-01,-3.908690529382632256e-02,2.324606212819454662e-04,5.833668765490722429e-04,9.698219565361463484e-05,1.757819056510925293e-01
-4.148285167315026584e-02,-2.145364662599267835e-01,-3.669193287218874833e-02,1.828054599150590216e-04,1.092184215316323315e-03,-1.692488722078046683e-04,1.755088567733764648e-01
-4.022583501462321381e-02,-2.153348999369140149e-01,-3.882526459135233338e-02,-6.698100103803193922e-05,1.986407832450969631e-03,3.224881537503814649e-04,1.758481264114379883e-01
-4.655821560067559262e-02,-1.996023282838498836e-01,-2.912171786944049712e-02,1.738335330182536401e-03,-3.340731919585222202e-03,-2.434047902774275855e-03,1.626511812210083008e-01
-4.536511049825113495e-02,-2.069206567289018084e-01,-3.108827300723235321e-02,2.315769218174075559e-04,-1.366789323478342835e-03,-2.241086159808814988e-04,1.691639423370361328e-01
-3.586230814262372085e-02,-2.119443862441384718e-01,-3.954352288624297246e-02,-1.125409374733005164e-04,-6.838183383392082036e-04,-7.371653834508445566e-04,1.742794513702392578e-01
-4.634418095950566807e-02,-2.065069633935753823e-01,-2.848908468304771346e-02,-4.449217314257302900e-04,-7.823639769692633051e-04,-9.536663437328562381e-04,1.698110699653625488e-01
-5.452502265032379419e-02,-1.040459430827496978e-01,-5.830426917596468611e-02,-4.762912984324431430e-04,-1.116662798211711174e-03,1.078266726265013874e-03,4.782637208700180054e-02
-4.534018139608429754e-02,-2.097555083986620272e-01,-3.038181536932194060e-02,-2.047750878350373428e-04,-1.270524251316064402e-03,-4.787511854428577089e-04,1.723983585834503174e-01
-2.883324591228880740e-02,-1.804924231806061263e-01,-4.624329405767979573e-02,4.237408323706400894e-03,5.956374475183291543e-03,4.044260757635279209e-03,1.444735080003738403e-01
-3.544580845752778875e-02,-1.700389575502957440e-01,-4.225187262529536691e-02,1.046485732627646867e-02,7.859719313779305744e-03,1.090771038076375748e-03,1.332779973745346069e-01
-4.471425006156998228e-02,-2.128763513110689121e-01,-4.726564328602685799e-02,-2.499902128842259111e-02,-3.737110749238276974e-03,2.038489245701998256e-02,1.761230677366256714e-01
-3.638006110189113268e-02,-1.761168451518528855e-01,-3.926416433059724126e-02,9.027767300641555831e-03,9.071810345607351361e-03,9.531234152959835310e-03,1.410517692565917969e-01
-3.806532328810635635e-02,-1.791816798659059962e-01,-3.815297794090301980e-02,5.264187993967685969e-03,8.549983526818714236e-03,3.636895321153352408e-03,1.422799527645111084e-01
-3.126813547882626582e-02,-1.912187935641748160e-01,-4.267480304188392415e-02,3.536605531245351920e-03,5.749068342201210484e-03,1.707128199532435093e-03,1.550330370664596558e-01
-3.983281920985855956e-02,-2.125910409680978885e-01,-3.803429625099292305e-02,2.300491976832754761e-04,6.055925399733607855e-06,-3.133160569772879120e-04,1.736657768487930298e-01
-5.006957916527506047e-02,-2.552190382335026153e-01,-4.724679506346438074e-02,2.180071358151682362e-03,4.797896353961774232e-03,-1.368728119126495823e-03,2.067904770374298096e-01
-4.672102558149136137e-02,-2.255083456550685539e-01,-4.542217337496581853e-02,1.164101577667308110e-02,-4.642755326964348103e-04,-3.976642293666045325e-03,1.807026267051696777e-01
-5.789103797896952980e-02,-2.314764777772060911e-01,-4.480780416512938902e-02,-3.172240663722310726e-04,3.314599895055230557e-03,-2.889260576408996320e-03,1.806445121765136719e-01
-5.617514284480145531e-02,-2.207745663019012872e-01,-4.331252771949360703e-02,7.277982920458453929e-04,1.623217810952878567e-03,-9.931168322482651460e-04,1.714294254779815674e-01
-3.634179267627622723e-02,-2.101295311037313374e-01,-3.570003938460459408e-02,-1.715729624617054840e-04,2.395079699487711450e-04,-2.088193417577821295e-04,1.741106212139129639e-01
-3.639938497557366343e-02,-2.093131495917898155e-01,-3.598172917180431085e-02,-4.330236629588468276e-05,1.292076512773968544e-03,4.888212416827007089e-05,1.731374710798263550e-01
-3.474475115622853438e-02,-2.092873283812768936e-01,-3.573762479361840272e-02,3.158852375841560861e-05,9.334779599247287288e-04,2.282505313024582648e-04,1.740562319755554199e-01
-6.348130865214691998e-02,-3.393117315642761866e-01,-6.983623434716895728e-02,-3.811328464959129469e-02,-7.681904001025003682e-04,-4.134634440669641975e-02,2.895826697349548340e-01
-3.477332389215073705e-02,-2.098332110720329546e-01,-3.583269797717669736e-02,2.090691943534744358e-04,8.770535466170361737e-04,2.913972079077757280e-04,1.745403259992599487e-01
-4.763606275031336684e-02,-2.112248252897707124e-01,-4.810627173264130779e-02,6.499255818428640186e-04,4.517757595447405289e-05,-6.792441446026461181e-04,1.633622944355010986e-01
-4.488410030501601561e-02,-2.114813777731573696e-01,-4.696624977087052177e-02,8.115105071780138752e-04,-6.473628021010245561e-04,-3.052880275660534116e-04,1.655766367912292480e-01
-4.562932650819848807e-02,-2.112994629199135832e-01,-4.689014470316001798e-02,-2.854316007005699052e-04,5.943919621487896718e-04,-5.394307143760965033e-04,1.650499403476715088e-01
-4.385274471974122401e-02,-2.120914349567229462e-01,-4.497769732665900244e-02,6.766555025645624132e-04,6.730302940933706945e-05,-6.435569619531665260e-04,1.676868796348571777e-01
-3.597981747595605656e-02,-2.110813488828418016e-01,-3.587973846251271692e-02,9.569283894624648927e-04,-3.127063408182120287e-03,-8.275972979182122467e-04,1.752490103244781494e-01
-2.845718573192072831e-02,-2.075961337511461891e-01,-4.804639139462830999e-02,-7.724495685405938662e-04,-3.036862994123405756e-04,-1.871398656805217989e-04,1.701983660459518433e-01
-3.436971924612233775e-02,-2.089364480010417191e-01,-4.644656251182660567e-02,6.636533832663995712e-05,-6.538183934658729681e-04,-5.388282968199093479e-04,1.688589453697204590e-01
-4.147583147359793637e-02,-2.087571002791884511e-01,-3.348217686740322802e-02,2.827360032708707820e-04,-1.325344423831485751e-03,-5.829093886669152198e-04,1.714369803667068481e-01
-4.391238949861560326e-02,-2.124532606315792937e-01,-4.309350443597350505e-02,-1.902982354193139122e-04,-3.770164754428381856e-04,-6.461912414313241045e-04,1.689570993185043335e-01
-4.097027335965505029e-02,-2.122946859429560851e-01,-3.610273849378117794e-02,-2.786653174144074641e-04,-6.952686661215828857e-04,2.759746795804731236e-04,1.738148033618927002e-01
-4.185139818365914144e-02,-2.104055608198868721e-01,-3.384548175795713820e-02,-3.837384876984342675e-04,-1.871509310684885304e-03,-8.899326305698870127e-05,1.727281212806701660e-01
-5.323528052557068707e-02,-1.877038821185643691e-01,-3.187907096759985681e-02,1.910556909138749629e-03,1.899175972873695358e-03,-6.054901513387485855e-03,1.467698514461517334e-01
-4.914675405186945401e-02,-2.137241367486972798e-01,-4.776517777161255057e-02,-1.095905796688645710e-03,1.520532322038121650e-03,9.949244843001328782e-04,1.653133630752563477e-01
-4.922636073976530136e-02,-2.023710415319336930e-01,-2.737606335155047532e-02,-3.701550942190471650e-04,1.425917799306847342e-03,-4.311429783958855601e-03,1.653458774089813232e-01
-4.343040476761377694e-02,-1.839185480394633643e-01,-2.972956480466220491e-02,-2.023998873937614060e-03,3.761815830699201217e-03,-6.446746218568503300e-03,1.484212279319763184e-01
-4.815493614197635663e-02,-2.093860447447457585e-01,-3.335441376029675553e-02,-1.361303031473162957e-03,3.978718411160955121e-03,-7.004078320741486709e-03,1.697087287902832031e-01
-5.222453537038969362e-02,-1.424446593213355983e-01,-4.807002909427412346e-02,-1.144058883735824331e-02,8.710705155972951579e-04,-3.148100661399180766e-02,1.090864315629005432e-01
-2.742073856528343123e-02,-2.009073479490848246e-01,-4.856911851897743881e-02,-3.056267722976224559e-03,-1.282448131650576993e-03,-6.862539392591623672e-04,1.640434861183166504e-01
-4.874047654652989559e-02,-1.185692157165676580e-01,-4.348601714110029992e-02,-1.903494652456252934e-02,1.208276435755258798e-03,-3.144986533500140208e-02,9.658791124820709229e-02
-5.749804769955188521e-02,-1.456028202150044248e-01,-3.947640238221879899e-02,1.395717691985530170e-03,-3.655967913250780105e-03,-1.415081006266557216e-02,1.015957817435264587e-01
-5.895124818250144227e-02,-1.162812035302124847e-01,-5.609895108142116948e-02,3.503463266280406208e-03,-2.465325572258523969e-03,-1.063006637063889336e-02,6.206796690821647644e-02
-5.575963128871824076e-02,-1.232653603289565886e-01,-5.365001945034522657e-02,3.810966810799983409e-03,-6.115896073532805718e-03,-3.887259183055888356e-02,9.691698849201202393e-02
-5.075208592659621876e-02,-7.728952228415586490e-02,-4.740846255338151266e-02,4.999774222243453040e-03,-2.631774450482401301e-03,-1.390230487473232204e-02,3.846739977598190308e-02
-5.093110291055047423e-02,-2.102502950318162200e-01,-4.789796729236207168e-02,-3.385639111979482077e-04,9.517344112027759095e-04,3.528751223742890319e-04,1.608678847551345825e-01
-2.893015343791568994e-02,-2.109065274288610126e-01,-4.937891877192723128e-02,1.234992993670511706e-02,1.862496034731199197e-03,8.693794997179792212e-04,1.740189492702484131e-01
-3.686728804796799569e-02,-2.132355691926599017e-01,-3.928162863660719650e-02,-1.374096866741901807e-05,-3.508047215511153226e-04,2.835558772978755181e-04,1.751753389835357666e-01
-3.608297195289327658e-02,-2.123200403149174686e-01,-3.902817330198644213e-02,-1.728364546892803642e-04,-6.980788182760904207e-04,7.207103834664041952e-05,1.747875660657882690e-01
-5.403979193430975131e-02,-2.172526404431386893e-01,-4.649040499181491398e-02,2.931561566070281857e-03,-4.062028122381889858e-03,1.417309199573772173e-04,1.673407554626464844e-01
-5.096396820822302054e-02,-2.116785984137596888e-01,-4.652132219998911244e-02,3.499511894662816775e-05,5.819403812105221081e-04,3.267690953327966443e-04,1.629854887723922729e-01
-4.804615868277455071e-02,-2.163125728419005855e-01,-4.668228545409459224e-02,8.364297350732446262e-03,-9.679528565774518775e-04,1.763294776307878110e-03,1.696082651615142822e-01
-4.889820056292989298e-02,-2.093459781616215931e-01,-4.819140922264148613e-02,-3.295984718824780500e-05,5.035242520478705160e-04,-3.914225980220718522e-05,1.608047336339950562e-01
-5.263726251749515500e-02,-2.181339008055679374e-01,-4.728830212183150750e-02,-1.064489651719212945e-03,-9.484799715124956785e-04,-7.107397214594184109e-04,1.682575345039367676e-01
-4.287168825772847552e-02,-2.196629372563418114e-01,-4.806643345929050709e-02,1.054745886837999466e-03,1.131517650332470887e-03,1.409613366287537726e-03,1.742896586656570435e-01
-4.257929718860169882e-02,-2.135456418410456580e-01,-4.689195201455695350e-02,7.784198645034485662e-04,6.474593938637150485e-04,6.771251597339007951e-04,1.688645035028457642e-01
-4.734087341443961316e-02,-9.874361412186706544e-02,-3.432278315938488977e-02,-1.426008050652274699e-02,2.401514370010215168e-03,4.741505654800369507e-02,1.041767373681068420e-01
-4.699276525273995281e-02,-2.116426016073991168e-01,-4.307580522869214334e-02,2.533859279735199265e-04,7.032091043690595058e-04,-3.342237610673170253e-05,1.666478812694549561e-01
-4.804015795126161115e-02,-2.094542250593128818e-01,-4.886368895827495479e-02,1.437753355013128868e-04,4.618099628009247979e-04,9.104661442663936381e-05,1.610061377286911011e-01
-4.783292770452244463e-02,-2.102356594565112369e-01,-4.706019320532246752e-02,-1.595949454681518120e-04,-4.304279798258200935e-05,7.093787373216734263e-04,1.627953648567199707e-01
-4.506463751297783149e-02,-2.112724053548304115e-01,-4.295664075491052031e-02,-7.587059473897436214e-04,-3.242138759620527924e-04,6.439917357654934612e-04,1.672815531492233276e-01
-3.731016868273782233e-02,-2.101204646052358682e-01,-3.817003231662425417e-02,-6.449576630705607366e-04,-2.714390475349876767e-03,-6.381229691617372728e-05,1.724497228860855103e-01
-4.728511717658721164e-02,-2.113049262168036346e-01,-4.625149747093036667e-02,-4.433515503778364905e-04,3.381643870508652724e-04,-2.606871865541469198e-04,1.645425111055374146e-01
-4.666670039152489430e-02,-2.122409251410987130e-01,-4.456045641253495587e-02,8.536942891880944803e-04,-3.445652382922276030e-04,1.294285191894943782e-03,1.666600406169891357e-01
-4.180514495012960241e-02,-2.130452835303126013e-01,-4.175180313176254931e-02,1.240906137728514311e-03,6.603571788724381083e-04,9.583475695595014684e-04,1.712921559810638428e-01
-4.469782774207115006e-02,-2.132908600795956899e-01,-4.476379532915034098e-02,1.373095467527710081e-03,1.255271349844377070e-03,-3.540328762502562747e-04,1.685919761657714844e-01
-4.450102031852538886e-02,-2.133024708079483966e-01,-4.252127506140663399e-02,1.626923175012262015e-03,2.185579327151914602e-04,6.551035628823695996e-04,1.698275655508041382e-01
-4.680930646597493416e-02,-2.111827724338072865e-01,-4.703611737680546412e-02,-3.728057222106859279e-04,-4.970360550166746634e-04,-5.516022102177607015e-05,1.642637252807617188e-01
-4.406864066777044231e-02,-2.107182891591991292e-01,-4.489362663341919107e-02,-4.548292829155348767e-04,2.430099105497409369e-05,-5.579468399795233565e-04,1.662433743476867676e-01
-3.433772762168492421e-02,-2.122490662238178671e-01,-4.308292068854389228e-02,-5.686323375112362034e-04,5.525373912804582011e-04,5.599715797906287384e-04,1.737120598554611206e-01
-4.121046169829241379e-02,-2.117761462864110877e-01,-4.030369395499662499e-02,4.615516005036704840e-04,-7.558134052294551708e-04,1.632821912123045617e-04,1.710279881954193115e-01
-4.852124743566077480e-02,-2.115569162314721585e-01,-5.033009629474958363e-02,1.132333957462087386e-03,-1.015082948597588117e-03,7.615916976335152400e-04,1.621655672788619995e-01
-5.074251977986504736e-02,-2.138878593197682254e-01,-4.966633705018915629e-02,-2.613673660198452173e-04,-3.099222328806570514e-03,3.789370965987349594e-04,1.637760251760482788e-01
-3.581553943756662917e-02,-2.122891696625049951e-01,-3.868278424275293365e-02,1.492600355499323190e-04,-4.880971435427951081e-04,3.606750580466902149e-05,1.750598698854446411e-01
-4.747275257640777568e-02,-2.117920412466294255e-01,-4.903730138666870242e-02,1.352209853184537175e-03,-1.948042995288281135e-03,2.964329016051421182e-04,1.635950058698654175e-01
-5.230647880493602409e-02,-2.502363780266254611e-01,-4.983236716450840931e-02,-2.380153947189095689e-03,2.876939374752710216e-04,-4.027001914295002117e-04,1.992229819297790527e-01
-4.466062442547584499e-02,-2.404222349048177054e-01,-5.044556232670866641e-02,-2.305590400337168000e-02,-2.440103750413659487e-03,-2.361649615722668724e-02,2.012694925069808960e-01
-4.725067551869684135e-02,-2.390307197466035594e-01,-4.825938755191186424e-02,-7.552286245632125819e-03,6.172555923275117309e-04,-4.461291726272814716e-04,1.917289793491363525e-01
-4.842853122737333232e-02,-2.156325613138647401e-01,-4.603358011402294142e-02,2.252077413946781698e-03,-1.712376376196114020e-03,1.339384612500745322e-03,1.685015261173248291e-01
-4.568532052979337038e-02,-2.104545735459168732e-01,-4.848529212896084822e-02,7.206367713329285486e-05,6.776636153218440484e-04,-8.847945646804763684e-04,1.633987128734588623e-01
-4.864331841047198068e-02,-9.335575725322306506e-02,-4.559442666005816824e-02,-1.779060996073119011e-03,2.054396920946289715e-03,5.855370305414773352e-02,1.115911602973937988e-01
-4.391739885514425040e-02,-2.204599687059553004e-01,-4.466994600538130855e-02,-9.049928692036118133e-03,7.633944785738692139e-03,-1.902234311360986169e-02,1.803914457559585571e-01
-4.926756153114168063e-02,-2.200719419866666859e-01,-4.584559611182555117e-02,9.923984721440703895e-04,-1.413140249758965041e-03,5.873744449894826442e-04,1.725697368383407593e-01
-4.773685655269750000e-02,-2.106541419806818027e-01,-3.065166480317735309e-02,-3.620410307763598798e-04,1.274792262818646472e-03,-8.049929329155638448e-04,1.721180677413940430e-01
-4.896744934346970723e-02,-2.041921024583288058e-01,-2.896388801715675532e-02,-4.204848988479898753e-05,1.897405462697056462e-03,-2.380883890961733515e-03,1.662158071994781494e-01
-4.881499895919634568e-02,-2.066535384757128280e-01,-2.763632406050384183e-02,-6.524740275981797647e-05,4.629272737602452888e-04,-2.481176000977791365e-05,1.694255322217941284e-01
-3.626990840176339687e-02,-2.121531107841147512e-01,-3.761225028868024622e-02,1.668346089983988110e-04,-2.744733056384991146e-04,4.786118424979413747e-06,1.752167642116546631e-01
-4.898469761504202491e-02,-2.118927341959882527e-01,-3.031136538147140291e-02,-1.953173805444683873e-04,3.070124332093346776e-04,-1.785839823244515963e-03,1.730309873819351196e-01
-2.968762396790079749e-02,-2.117043796109232545e-01,-4.722258004424847305e-02,-8.742644104388053693e-04,1.052259256955049519e-03,-1.165233087097523505e-04,1.739297956228256226e-01
-3.344961285184545885e-02,-2.119949393908673596e-01,-4.447019001701164181e-02,-1.536088817390383746e-04,1.910137773288749560e-03,2.828109980252098768e-04,1.733305305242538452e-01
-3.081705131503377493e-02,-2.078370903304265216e-01,-4.543035136159236792e-02,-2.370426890715620748e-03,3.026744885852415776e-03,2.848593391667204704e-04,1.703155338764190674e-01
-4.121855293995075470e-02,-2.122116079926856247e-01,-4.311202865597257156e-02,7.546065540393917352e-04,-1.488968579440309772e-03,-6.852024062325194013e-04,1.700829416513442993e-01
-4.608050947520245244e-02,-2.123704687632394783e-01,-4.652531692683088693e-02,-1.655107605812297959e-03,4.039995467140875679e-04,-1.333961338609040807e-03,1.661102920770645142e-01
-4.452661762846757409e-02,-2.121208197201139289e-01,-4.384890976196854223e-02,1.563857193166153198e-04,-6.260897634193154232e-04,-3.945840505980776638e-04,1.679391860961914062e-01
-3.164425754110403166e-02,-2.162646191683588459e-01,-4.637358457395259620e-02,-6.100737539293121618e-03,1.344648920702009578e-03,-2.621069605306951440e-03,1.781010627746582031e-01
-4.045525081172712811e-02,-2.121041140911446021e-01,-4.058561341031772379e-02,-5.219753036605069389e-04,-4.696454214897741609e-04,-3.054170329984212630e-04,1.715888381004333496e-01
-4.070910802857188177e-02,-2.118151109944082511e-01,-4.168871372265810921e-02,-2.856853462480285464e-05,-8.736815064357182983e-04,4.080285350575489438e-04,1.706264913082122803e-01
-4.732658326778484137e-02,-1.827006137331197988e-01,-2.723118953338316689e-02,-8.990003394967317849e-04,-2.677694536598056781e-03,4.435900961395740361e-03,1.467423439025878906e-01
-4.559801625522599822e-02,-2.115402234867362896e-01,-4.664637199909196091e-02,7.212333056537672139e-04,1.033090312343578495e-05,-1.116085953809655123e-03,1.654365360736846924e-01
-3.903350675720909657e-02,-2.053499868477300094e-01,-3.598541262159888482e-02,-1.040601993665925089e-03,-4.350554707998377339e-03,3.096075681584429195e-04,1.680408567190170288e-01
-4.486867671633531368e-02,-2.111672623999170662e-01,-4.616299568745487608e-02,-5.181939474667484127e-04,-6.907479843673914374e-04,-6.813763398527321411e-04,1.656661778688430786e-01
-4.686268163927443525e-02,-2.106174180874211266e-01,-4.805866077995442354e-02,5.934763969255843138e-04,2.096066966895320318e-04,-4.811534483626025310e-04,1.631658077239990234e-01
-3.749454496059215908e-02,-1.874824385645083025e-01,-4.201156017439103274e-02,-7.412446711240716982e-03,-7.803221170637929076e-03,7.357983843511864755e-03,1.494964808225631714e-01
-4.558554512956990851e-02,-1.923070278745122597e-01,-4.197456650230429326e-02,-5.017116599329987832e-03,-8.640207072586478937e-03,1.010735511500236369e-02,1.505854874849319458e-01
-3.708058506556191625e-02,-2.122695373377745387e-01,-4.527975792908459085e-02,-1.381020952930186747e-03,-9.418528432390688154e-04,-1.395421364543530766e-03,1.712781786918640137e-01
-5.608531753394042918e-02,-1.639105796799646686e-01,-2.907510652173591476e-02,-4.399229280867941044e-03,-5.163075595843469659e-03,1.908134189320239912e-02,1.284466683864593506e-01
-5.313039503209263104e-02,-1.853062155597087757e-01,-2.835389955947898583e-02,-4.578574676172345731e-03,-2.057191684600071391e-03,5.607862372050154490e-03,1.467279940843582153e-01
-4.107865511765756983e-02,-1.683819775222196446e-01,-3.804768905507947829e-02,-5.743918812055213638e-03,-8.232096367233507003e-03,7.567568294093165830e-03,1.306723356246948242e-01
-3.429386329287092972e-02,-2.133013030544861632e-01,-4.324561668853153795e-02,-5.898390350818026855e-04,6.696939286106392978e-04,7.825459510163649927e-04,1.747157424688339233e-01
-4.780931644356591070e-02,-1.572395995183963335e-01,-3.565276006388677643e-02,-7.229852618462364157e-04,-6.364039737521375723e-03,1.280247101265663719e-02,1.186079457402229309e-01
-4.506274877913475641e-02,-2.014412688595717538e-01,-3.796125103777291121e-02,-3.390306857608099602e-03,-7.163309888340959469e-03,8.599282431767069773e-03,1.613240838050842285e-01
-5.202462244826631943e-02,-1.744840643029278993e-01,-3.386221908934132496e-02,-1.069712425053204229e-03,-4.278671290135861900e-03,1.199300278248941181e-03,1.327140331268310547e-01
-4.595136409309821812e-02,-1.757385121210681689e-01,-4.229468823357217244e-02,2.516285483971654469e-02,-1.120816846161704766e-02,-1.969323122709395329e-02,1.441267132759094238e-01
-4.068596073984262484e-02,-1.869748024810389819e-01,-4.023730028237273298e-02,1.398700694466552784e-02,-1.200549721450511198e-02,-2.794550673313356964e-02,1.575703620910644531e-01
-3.707448502219078124e-02,-2.113060031410995965e-01,-3.806682162549537840e-02,-5.286025615083530301e-04,-1.794239442413556518e-03,7.093234304456055763e-04,1.737720221281051636e-01
-5.390918028756735980e-02,-2.136773075490372431e-01,-3.710763032130166839e-02,-4.245566410815019252e-03,-6.651788657547614073e-03,-3.068728511054992503e-02,1.774948984384536743e-01
-4.948596109098245266e-02,-2.142312678682291027e-01,-3.862718599266003194e-02,6.424386673722061133e-05,-7.238185702290913202e-03,-2.668323165682435355e-02,1.770339906215667725e-01
-3.625738889648498497e-02,-2.120943887730489807e-01,-3.759056907204802456e-02,3.569002889166043467e-04,-4.599584311144743094e-04,-2.004362085757045763e-05,1.751771271228790283e-01
-4.335577774114058452e-02,-2.822836895457321235e-02,-3.658877424096224767e-02,1.722431322026281471e-03,-2.374122858518928035e-03,1.890110576102449480e-02,3.563465550541877747e-02
-4.596995205772871906e-02,-1.652535602603940612e-01,-4.433220167241438969e-02,1.428336289621491171e-03,-7.595712360120372014e-03,-7.095220147664954222e-03,1.214777752757072449e-01
-4.232669074129762760e-02,-1.872235515026669794e-01,-3.037016355693814701e-02,4.098095157620879514e-04,-5.864802984910281493e-03,-7.113442773839752029e-03,1.520723998546600342e-01
-4.037179649031934214e-02,-1.665564796825846350e-01,-4.212560871825447861e-02,5.397908521772953709e-03,-1.014318265355009310e-02,-9.411279831536424612e-03,1.279301643371582031e-01
-3.147943809992337361e-02,-2.094634319964242819e-01,-4.339153558130420807e-02,7.798748501474857557e-05,-9.326473464698136579e-04,-1.133938407428833426e-03,1.723558008670806885e-01
-3.724743375594322115e-02,-2.122238213699795262e-01,-3.854782928837363620e-02,1.735570724919332922e-04,-2.141410476364230130e-04,-5.414563148352239189e-04,1.743330061435699463e-01
-4.871409855125807126e-02,-2.108229390784887025e-01,-4.916939314188994992e-02,-6.175086497357924146e-04,1.168606027730021389e-03,7.375370025981798326e-04,1.619029045104980469e-01
-4.810912246703799577e-02,-2.103451706646896069e-01,-4.751643679467765224e-02,-6.089775345263604778e-04,5.082932293934514390e-04,8.048604467003742970e-04,1.625449806451797485e-01
-4.757167732860691223e-02,-2.100484308472314043e-01,-4.673123941005723203e-02,-5.657136668209125294e-04,5.140659193452428019e-05,6.611815893257000538e-04,1.629055887460708618e-01
-4.787349279294001586e-02,-2.101430496843718354e-01,-4.690888058517417997e-02,-5.192196224944704841e-04,-1.166306998926009873e-04,7.127058413043193966e-04,1.627613008022308350e-01
-3.745023172915716569e-02,-1.115907027870010060e-01,-3.415409922009686461e-02,3.553956019092471830e-02,-4.493992074940908119e-03,3.810789584783406958e-02,1.181459054350852966e-01
-4.889208429511105597e-02,-2.096831410442627774e-01,-4.920085767524807335e-02,-1.626633286696611055e-04,1.175383964299840260e-04,-1.126079813953384230e-04,1.606373935937881470e-01
-4.391787829284351380e-02,-2.109578437715094734e-01,-4.244672347954306368e-02,-5.365183090948355982e-04,-5.137725625051518460e-04,-7.085623219677328398e-05,1.677853614091873169e-01
-4.287673837193738818e-02,-2.118940386576084189e-01,-4.224907070659279090e-02,-1.176851356289957178e-05,-2.380921991313928224e-04,2.353433474273940369e-04,1.693329960107803345e-01
-5.581349664770544894e-02,-3.211464212110989314e-01,-6.317450065463788011e-02,4.379981038095745460e-02,-5.132110539008362306e-04,-5.097022590685560545e-02,2.864482104778289795e-01
-4.280382255078642867e-02,-2.117198442658068946e-01,-4.191573845629829181e-02,4.167471906328523040e-04,-5.206497188466741163e-04,6.194801429429931607e-05,1.693657785654067993e-01
-4.845372821890040621e-02,-2.091921504611666816e-01,-2.874604181510026502e-02,-2.833908011845917015e-05,2.385890798543009760e-04,-7.387109169470902582e-04,1.714491993188858032e-01
-4.224426692594516336e-02,-2.121771984297378677e-01,-3.915195164812784734e-02,-3.024692763679974301e-05,-4.264470891172772969e-04,1.353336883526510702e-04,1.715017557144165039e-01
-4.307075053317967889e-02,-2.121606077435162219e-01,-4.061965172839810539e-02,-3.493622219788435979e-04,-1.237693156026404900e-03,-4.360202266757714855e-04,1.703448742628097534e-01
-5.211384448805064795e-02,-2.197481825196790362e-01,-5.278196920234008716e-02,-9.819960030129060678e-04,5.404523114325092414e-03,-4.663226546166355548e-04,1.675735265016555786e-01
-4.263232254173210389e-02,-2.336258899023772873e-01,-4.827985207084160846e-02,-6.785875790752593853e-03,2.764239073690351235e-06,2.210981169148066097e-03,1.886388212442398071e-01
-3.820140012286036418e-02,-2.106366990966856145e-01,-4.307764806657619905e-02,-7.498094188389145287e-08,3.598004257100020659e-03,1.929881277720438704e-04,1.701641082763671875e-01
-4.937582229746622503e-02,-2.094810846071887001e-01,-3.837820406983396410e-02,-2.356893693325407338e-02,-4.079777232324586361e-03,2.010888886155758754e-02,1.744847893714904785e-01
-4.420356973208605655e-02,-2.103621665572188437e-01,-3.769202316673615771e-02,-9.224352839046845789e-03,-3.075501292719303240e-03,8.933847590582664339e-03,1.710441857576370239e-01
-4.447275703003344960e-02,-1.717172252027392709e-01,-3.414394113994687063e-02,7.151004924519996234e-04,6.811164806092623834e-03,2.246192480016528416e-03,1.332965493202209473e-01
-4.492119628944922505e-02,-2.159446567909327208e-01,-5.905909829700162206e-02,1.148827590870694085e-04,-1.022515366831035265e-03,1.557446531467320547e-03,1.644428372383117676e-01
-5.014475288753417193e-02,-2.098627878413050762e-01,-4.744147960341033032e-02,1.606816505298648890e-05,6.409244944883003142e-04,-9.090865858289877812e-05,1.610905826091766357e-01
-4.534793146696330934e-02,-2.287891071872916737e-01,-4.932496693791600662e-02,-7.466893212234084962e-03,-3.666534920604144938e-03,8.336651317366994274e-03,1.826280951499938965e-01
-4.032154846835014211e-02,-2.142866457259125501e-01,-4.403537658551215372e-02,-8.741498784309444754e-05,1.407425042435852430e-04,1.087890988250697633e-03,1.721487790346145630e-01
-5.062766534450482969e-02,-1.660784041919110554e-01,-3.624453240871398224e-02,-2.661882088508289203e-03,-5.761170497753557475e-03,1.139320013368271337e-02,1.253257244825363159e-01
-4.361588895755868361e-02,-2.035839798051559124e-01,-4.028922797893712271e-02,-1.010040149844173944e-02,-2.340652431837174016e-03,1.039152712551000973e-02,1.636442989110946655e-01
-4.947886922900888995e-02,-1.404116208881905914e-01,-4.662570808320008753e-02,-2.071016588176080586e-02,-1.360037627426623208e-02,1.670391121196849321e-02,1.059011667966842651e-01
-2.821338342900683860e-02,-2.087242854318878127e-01,-4.888636872158336893e-02,3.939950349409417421e-03,1.003532213948427239e-03,-7.256727322904883530e-04,1.712630391120910645e-01
-4.484144184909216041e-02,-2.142551020218797231e-01,-4.476609875733000843e-02,1.352722732833827254e-03,2.376406013898975044e-05,-4.481851144819385562e-04,1.694693267345428467e-01
-4.882288267416449307e-02,-1.073768142698908051e-01,-5.475560378249255677e-02,-1.979759242921680590e-04,-2.016860320755763623e-03,2.267331077868844219e-03,5.607244372367858887e-02
-3.946912411613851673e-02,-2.120781553687020593e-01,-4.234551959715165959e-02,-2.522426798566517847e-04,-1.236380515330500092e-03,-6.497198106823990228e-04,1.712066084146499634e-01
-5.116722182890760806e-02,-1.265471564625419987e-01,-5.368765866971871026e-02,-1.029666019775169958e-02,-4.445093702213936092e-03,1.107333563307107485e-02,7.901704311370849609e-02
-5.359145092156832740e-02,-2.136166895743578098e-01,-4.476973735461259318e-02,2.017585460153810580e-03,7.114060164915584836e-04,9.028940400905630364e-04,1.646625995635986328e-01
-4.477964145486980352e-02,-2.128351104658748327e-01,-4.389397609924398230e-02,5.126045704588631444e-04,-2.292234413963278785e-04,2.293019251860659372e-03,1.685496568679809570e-01
-3.043100516284363843e-02,-2.047267735905991537e-01,-4.882049130313925733e-02,-3.845909996680731222e-03,-2.691587877359041380e-03,-9.749498927096790935e-04,1.660750955343246460e-01
-4.824563377189750729e-02,-2.109966809549397304e-01,-4.856512891682591981e-02,-1.035619469989638563e-03,4.653825019668037595e-04,-1.425185409793587013e-04,1.626036167144775391e-01
-4.355340407328186364e-02,-2.121184113101546864e-01,-4.374178976400468211e-02,3.376379853441120824e-04,-1.076431191759584483e-04,-7.743777790872668435e-04,1.684773564338684082e-01
-3.121514859407421849e-02,-2.087115840072284456e-01,-4.380434050278751712e-02,-1.802865349987415201e-03,2.619319778842229586e-03,-2.383209602494021915e-04,1.716375201940536499e-01
-3.827816569282740250e-02,-2.124559930313466571e-01,-4.112493519761675764e-02,-4.611990747796000743e-04,-2.512325892556766926e-04,-4.300973517517366236e-04,1.727760285139083862e-01
-5.488681468514424594e-02,-1.374276899320433232e-01,-4.558984670938522055e-02,-6.701444874076643507e-03,-6.881187650615007596e-03,9.566111710419010483e-03,9.065385162830352783e-02
-4.174067960335790806e-02,-1.551881571881465194e-01,-5.154072809346000456e-02,-1.729596155279125580e-02,-9.114697789786584819e-03,6.533697902728205324e-03,1.145832985639572144e-01
-4.116334515213215112e-02,-2.097330842765563752e-01,-3.490205858223406621e-02,-1.046415274628398773e-03,-1.407304972803450488e-03,9.567459205792164289e-04,1.718208342790603638e-01
-4.910823521234131128e-02,-1.422177908042989158e-01,-5.591696819819606812e-02,-1.366279403503922914e-02,-2.469753355748516895e-03,6.074736476814185208e-03,9.365261346101760864e-02
-4.087010975946037822e-02,-2.090222086063731055e-01,-3.415521663206499969e-02,3.826694793626172326e-04,-1.613275442779363907e-03,2.829930366692258621e-04,1.716328263282775879e-01
-6.289486220072795786e-02,-2.729369511928776970e-01,-5.322840238491818865e-02,-5.921700349433434152e-02,-8.512904244806685297e-03,1.677723629428711644e-02,2.404647171497344971e-01
-4.290553342603125458e-02,-2.130972795288391952e-01,-4.676068971064879093e-02,-4.164911151457372993e-03,1.056340202001559807e-03,-6.656861187611630903e-04,1.684657037258148193e-01
-3.141424303499984472e-02,-2.114218525475575206e-01,-4.561944520273435860e-02,-2.904555002040273837e-03,-2.136025413137755940e-03,-2.811948795555385146e-05,1.734545528888702393e-01
-4.332568229762782941e-02,-2.097215207657807667e-01,-4.016500209041263397e-02,-2.181667035903747665e-02,5.325503717662802977e-03,-1.371698434417536680e-02,1.740716546773910522e-01
-5.296290196901257130e-02,-2.596932720319858889e-01,-5.846661341735109874e-02,-3.283750400615080556e-02,-1.568360787107515864e-03,-3.005865878782791253e-02,2.181348353624343872e-01
-3.634849232147756987e-02,-2.132184006340311910e-01,-3.890614433744229300e-02,-3.192391143295178826e-04,-5.258879015215162404e-04,9.843919037261373740e-08,1.756082922220230103e-01
-4.661289701760466114e-02,-2.013742723995332884e-01,-4.527004392812484374e-02,-5.070545948424209914e-02,-8.222025098304234971e-04,-6.018595922208784879e-03,1.788422167301177979e-01
-3.888031366027011604e-02,-2.128212041853297931e-01,-4.690482841472223136e-02,-1.961814433942261557e-03,-8.871571635810572998e-04,-9.072599195198307155e-04,1.701188236474990845e-01
-6.201252437025987774e-02,-2.620936991092608359e-01,-6.049888142267172142e-02,-5.957092873362750812e-02,4.294869547141135120e-04,-2.861833406949640737e-02,2.311737090349197388e-01
-4.034927176112546032e-02,-2.343641365190755055e-01,-4.932503858910197020e-02,-1.334366011291528153e-02,1.209306756617607162e-03,-6.343555039356563868e-03,1.914162188768386841e-01
-5.690988839776976727e-02,-2.352404959636469894e-01,-4.733325982781996788e-02,4.361398943782202400e-03,-1.892946654217932817e-03,5.180729363114540409e-03,1.837107986211776733e-01
-5.179450334279692841e-02,-2.233127631230877874e-01,-4.487976606620113634e-02,-3.204655483016640837e-04,1.537154275525926504e-03,-2.398253528447389510e-03,1.751484572887420654e-01
-3.749288672449265641e-02,-2.142886978018099520e-01,-4.322849498146510983e-02,6.252250293641185364e-04,1.436327726753644941e-03,9.310383666017532124e-04,1.740275472402572632e-01
-5.279686714180051310e-02,-2.140383567256271546e-01,-4.818654792593402708e-02,4.681682052966538570e-05,6.549044469302859554e-04,8.911026166466447240e-04,1.636066138744354248e-01
-3.200650716629944992e-02,-2.007710287906423197e-01,-4.427488918761739167e-02,8.006769061064726578e-03,4.184905174365765798e-03,5.031868806689923299e-03,1.639583259820938110e-01
-4.250379144477114957e-02,-2.132632327652946302e-01,-4.286853102810769811e-02,8.016426823363353299e-03,3.915665118858536217e-04,-1.641164531313126223e-04,1.711431145668029785e-01
-4.994343157241531994e-02,-2.108766674688858644e-01,-4.705774062641646105e-02,2.074962287898624285e-03,2.573791316969731464e-03,3.297275432288228282e-05,1.624962389469146729e-01
-5.925147955343548767e-02,-2.422455404447719229e-01,-4.727016160964475633e-02,8.183892659964896871e-04,2.562429131764885860e-04,-2.847243616582010445e-03,1.893394142389297485e-01
-3.066198329047611221e-02,-1.914433347962619381e-01,-4.319031953393925871e-02,3.684706822647102181e-03,-5.718039811517515794e-03,-1.532266245136029324e-03,1.553677618503570557e-01
-4.974944257664696418e-02,-2.169804002486152017e-01,-5.002099471142855414e-02,1.279909896049282380e-03,3.039812202376747114e-03,-2.355780465755279857e-03,1.672427505254745483e-01
-3.778335333885074476e-02,-2.051292815345236442e-01,-4.133340234302797928e-02,-2.578805890252144559e-03,5.611895105258208824e-03,-5.964010047400580209e-06,1.659445911645889282e-01
-5.183972342401309968e-02,-2.158901869137904994e-01,-4.792084627056077129e-02,-9.127331937651317513e-04,2.926541923863423648e-03,2.708836651222414592e-03,1.661957055330276489e-01
-4.889773524865902860e-02,-2.148579674138905160e-01,-4.400280477664451212e-02,-8.484255109276914132e-04,-5.776829071344863863e-04,-1.482178718729756386e-04,1.684706211090087891e-01
-4.718206502340435010e-02,-2.028257782704737111e-01,-3.015820975224699219e-02,1.154106222768595900e-03,-3.880496250514991769e-03,-4.929300685074983028e-03,1.651862561702728271e-01
-4.385448848477783990e-02,-1.897949596024595953e-01,-3.075314392552048331e-02,3.706839850857336378e-03,-6.558387357198503138e-03,-5.212044977486842215e-03,1.537336558103561401e-01
-4.715933730904723481e-02,-2.022427776957285706e-01,-3.454534654322385934e-02,-9.946190920591493380e-04,-5.695952987750953732e-03,-2.333088667943675068e-04,1.620699614286422729e-01
-4.748567541410222970e-02,-2.050470666633744388e-01,-3.297474139025521195e-02,3.436520783037394782e-04,-6.501518525003802118e-03,-6.571777293023522981e-03,1.660700142383575439e-01
-3.599558804320345667e-02,-2.107149810905528664e-01,-4.565636611006833323e-02,1.713676142433323297e-03,-8.177834599532743474e-04,-7.805862232970913177e-04,1.701320558786392212e-01
-4.093388935121336503e-02,-2.138684168996116408e-01,-4.387714199861066783e-02,-9.442348110851556814e-03,6.154754494317361477e-03,9.570275502191653112e-04,1.725974678993225098e-01
-4.715498212032392944e-02,-1.748047125281729786e-01,-3.663206908860568156e-02,3.774168712581428380e-03,-5.894028821549410907e-03,-1.680599632864509130e-03,1.338052898645401001e-01
-4.845348256875165599e-02,-1.848841389807186486e-01,-3.906239488633449913e-02,1.229550679750280803e-02,-8.801683313050666368e-03,-2.668260705023789078e-02,1.510118544101715088e-01
-3.905287890467862288e-02,-1.701862715512963142e-01,-4.134047024889696276e-02,5.592307344891619958e-03,-9.036835360453507326e-03,-5.909520915696873065e-03,1.316996663808822632e-01
-4.495243541990524144e-02,-2.154845255257543113e-01,-4.949499011740442211e-02,-9.990425781115823758e-04,2.439584562489046076e-04,-2.245784621973978632e-03,1.683611571788787842e-01
-4.189144622840802745e-02,-2.143327737597870430e-01,-4.146374996115015366e-02,2.326866257965814859e-03,-3.978638662357236386e-03,-6.715012184629167227e-03,1.732309162616729736e-01
-4.376659956490013687e-02,-2.140561921599912487e-01,-4.259721437915942738e-02,1.508620850344733443e-03,3.087879247805031891e-04,7.305619395909868433e-04,1.709027886390686035e-01
-4.468772286182347286e-02,-1.376936552920773882e-01,-4.473107068347181858e-02,7.036085582223826525e-03,7.107632861142071726e-03,5.475344128411495023e-03,9.505833685398101807e-02
-4.401294090427810418e-02,-2.134372515256117708e-01,-3.986032336196743825e-02,8.539424182279815477e-04,1.353396745793446513e-03,8.741688601656874124e-04,1.715673953294754028e-01
-4.114994811406291059e-02,-2.134105346325031460e-01,-3.613851967111408880e-02,-6.865600087595749572e-06,3.096080755547369213e-03,-5.330199168077185291e-04,1.749048531055450439e-01
-2.864624879782254330e-02,-2.110113792838306523e-01,-4.980519642853480089e-02,-3.851392604081252825e-03,1.937730154725653435e-03,-1.967636817296704744e-03,1.729550957679748535e-01
-3.095583057970108243e-02,-2.123147799545898051e-01,-4.750303609538709254e-02,2.479963291143905818e-04,1.019785508786211561e-03,-4.410365066173156006e-05,1.736870855093002319e-01
-2.948599803480310422e-02,-2.118925931800719753e-01,-4.796149443355057773e-02,7.087293232240071943e-04,1.332697070025818731e-04,-4.105670907925903254e-04,1.739124059677124023e-01
-5.308230657068146313e-02,-2.138507845322991652e-01,-4.637605911515133711e-02,5.018078530941406327e-04,5.665158813511346177e-04,-1.617749305839642434e-04,1.642297953367233276e-01
-4.098504613166827071e-02,-2.133146865994401953e-01,-4.433817044820775183e-02,3.959642748722646578e-03,-8.509090068741886041e-06,-2.268754508330342876e-04,1.708159744739532471e-01
-2.767726528270474107e-02,-2.095528643277719261e-01,-4.966833052654964081e-02,-7.846457941552081134e-04,-2.461422075111323847e-04,-6.564323162715898427e-04,1.719477325677871704e-01
-5.235986896374775906e-02,-2.172366035703336973e-01,-4.987088172163779698e-02,-2.038933335306014605e-04,3.269522847466553497e-03,-2.653334981213300529e-03,1.662955880165100098e-01
-3.905340395255135072e-02,-2.146743163437888069e-01,-4.191048000776254057e-02,7.973958535006152402e-04,2.162157985890409296e-03,7.220923606202749858e-04,1.742601543664932251e-01
-4.066996052390178806e-02,-2.159401176012041290e-01,-3.946183265482431507e-02,3.057750938250747633e-04,6.587235629842908610e-04,-1.309619603047187421e-04,1.758819818496704102e-01
-3.993168025561957823e-02,-2.160225844097019843e-01,-3.937221934219047037e-02,1.797431748605963836e-04,2.757723729472530243e-04,1.750122911683926166e-04,1.763724833726882935e-01
-5.252501231803687054e-02,-2.121103382513985780e-01,-4.714273889987417171e-02,-1.103000239177534363e-03,7.699342674076447516e-04,-8.491394330072962000e-04,1.623667776584625244e-01
-4.497851872765080972e-02,-2.102025387395762279e-01,-4.609708455362738350e-02,4.582669742859885086e-04,-1.688875846799263252e-04,6.789828557066169591e-04,1.646739542484283447e-01
-5.429578937453260340e-02,-2.180318479613192473e-01,-4.404546340110388619e-02,1.480074060543470470e-03,9.352041734766394386e-04,1.354595296111860343e-04,1.691217422485351562e-01
-3.923905675483806837e-02,-2.155510838728290079e-01,-4.036130927688504760e-02,7.677309509911166892e-05,6.912892740576906999e-04,1.712624577818383032e-04,1.757579743862152100e-01
-3.482823334291858253e-02,-2.141194627766317415e-01,-4.618346971350107549e-02,-6.459912150326917960e-04,8.843601836242756661e-04,6.798898588216076158e-04,1.739062368869781494e-01
-3.980987920521038281e-02,-2.158456321790736265e-01,-4.015267723105099551e-02,1.295168662996491337e-04,1.780073819007281283e-04,1.350158613960698548e-08,1.758650243282318115e-01
-4.910385864646391041e-02,-2.118696213929795735e-01,-5.176328104316769985e-02,-6.984866182452862445e-04,2.420564777221503351e-03,-3.752311464255579979e-04,1.615127474069595337e-01
-4.089756289400327954e-02,-2.155128288862996899e-01,-4.074496640538960435e-02,3.480914733501008947e-04,1.103875047169037405e-04,4.227109488262652476e-04,1.746942996978759766e-01
-4.891462164522115963e-02,-2.481781477140472814e-01,-5.770163673074128752e-02,-2.488628455675372109e-03,-1.870032045069840426e-03,1.297584512181805929e-03,1.951060146093368530e-01
-4.558044835661832772e-02,-2.226354096734122767e-01,-5.606594785712686047e-02,2.605272565073425825e-04,-1.937519608090803149e-03,-3.205227949749635871e-03,1.721748560667037964e-01
-5.906725868123401113e-02,-3.567981162353023317e-01,-5.498927878258344504e-02,-1.947053308057834081e-02,8.693829423508599857e-03,-1.869319569048248295e-02,3.037874102592468262e-01
-4.430609697369926325e-02,-2.471794227802743826e-01,-4.017661425279943355e-02,4.385756785433833627e-03,3.717265560008887332e-03,1.087570839458254501e-02,2.060737758874893188e-01
-5.590792574741582088e-02,-2.543674355623899985e-01,-4.521290683315699888e-02,-1.046750385812030698e-03,-1.195012286810462603e-03,8.502286307607609048e-03,2.045666724443435669e-01
-4.667517313305075133e-02,-2.385132392272277801e-01,-5.679978542828788279e-02,1.569790579974908755e-03,-2.646806738321923376e-03,1.540300377904067070e-02,1.889503449201583862e-01
-4.189069112339255385e-02,-2.128143183707208452e-01,-5.449130271602829756e-02,7.119622941944814612e-03,-2.377950516526163623e-03,7.383495457115329431e-03,1.659894585609436035e-01
-3.603750026333132211e-02,-1.126741731075774633e-01,-3.813436857400213931e-02,4.046606292186416542e-02,-5.228439235958713812e-04,3.931103671596575255e-02,1.235567852854728699e-01
-5.075389052702773685e-02,-2.542996830443073897e-01,-5.858562771565657690e-02,2.146951730952909119e-04,-1.847696169894903501e-03,-7.835654616339270313e-05,1.997711360454559326e-01
-4.466743313633554646e-02,-2.096462675134472819e-01,-3.449138605514912720e-02,-2.694764033183317739e-03,-3.666314759847548108e-03,3.933950192227779127e-03,1.706134229898452759e-01
-5.443580245076426460e-02,-2.342443625794031203e-01,-5.407975148279946243e-02,1.909928486342018367e-02,1.948851405612780918e-03,6.881474456112056381e-02,2.184202671051025391e-01
-4.757356783754145002e-02,-1.480942824467648411e-01,-4.738608524333109973e-02,1.044442224915615759e-02,6.665726843299781858e-03,7.876358163691058942e-03,1.037784144282341003e-01
-4.493998476700829248e-02,-2.137712591044547139e-01,-3.685814831296060912e-02,1.160108657520527581e-02,6.016727977413722367e-03,2.650884478007309308e-02,1.804280877113342285e-01
-5.570336241347018102e-02,-1.714937021523305627e-01,-3.252060700218117884e-02,1.505272089645351419e-02,4.449392755141003478e-03,3.670370107563768192e-02,1.463209241628646851e-01
-5.324068864040328031e-02,-1.742665063941448711e-01,-3.914708818618948399e-02,-7.606182310341562738e-03,-8.474453612317639148e-03,2.218182963345355710e-02,1.357080638408660889e-01
-4.874416148997783027e-02,-1.942670653964295169e-01,-3.125183009415918867e-02,-3.093481917215486210e-03,2.439884502800603473e-03,1.980358259060745196e-02,1.589073538780212402e-01
-4.492534385817788939e-02,-1.409313947752107166e-01,-4.409496354656147754e-02,3.892717970013848117e-02,2.232297932157381072e-03,6.089349436354294515e-02,1.580587029457092285e-01
-4.802793702288525590e-02,-2.114530590548917011e-01,-4.877382285995476852e-02,6.573383743210931517e-04,7.477111494776746744e-04,-4.310262205076569367e-04,1.630642861127853394e-01
-4.926118119627991704e-02,-2.100860774694310873e-01,-4.902375967697770315e-02,2.759635618434523509e-04,7.447324290217300182e-05,-1.978028961035454940e-04,1.609448641538619995e-01
-4.786256657428712008e-02,-2.105248809400105392e-01,-4.885575986126951264e-02,2.745834523261431312e-04,1.196012885790130684e-03,-4.063712746828101780e-04,1.621834486722946167e-01
-4.361423866280988298e-02,-2.077633280466367194e-01,-3.433773251471256005e-02,-7.639482586273247679e-05,-2.730862461921343756e-03,-8.067448251422223169e-04,1.690504401922225952e-01
-4.676023581876920937e-02,-2.017461142757075998e-01,-2.440673713314862880e-02,1.089115260349657072e-03,8.378899481341388822e-04,1.214615060145472856e-03,1.673166751861572266e-01
-2.696724528994014214e-02,-2.056572653476841095e-01,-4.735834178503091352e-02,8.362367057056992485e-04,-9.186878722877171635e-04,-9.686401182177290046e-04,1.694393157958984375e-01
-4.047451439747731805e-02,-2.124692776566463881e-01,-3.532386605223000048e-02,-2.819781404705803745e-04,-1.148480265468926472e-03,-6.479587794618213870e-04,1.746426820755004883e-01
-4.990419553629443089e-02,-2.103695372436686362e-01,-4.899178910602021431e-02,1.450565742891319980e-04,1.440986533401551013e-03,-6.378072241879613816e-04,1.609468311071395874e-01
-3.650011304493035874e-02,-2.142091049491055554e-01,-4.195870439949683089e-02,1.806577280176622428e-04,1.605060014360089457e-03,5.458648054573558318e-04,1.750684529542922974e-01
-4.013198568083518880e-02,-2.146878471983070524e-01,-4.094473207268372467e-02,5.927201857004187231e-04,4.668638039140334114e-04,9.502274751476875742e-04,1.741635948419570923e-01
-5.752878444080712639e-02,-1.369779096054647149e-01,-5.077952495361175156e-02,-2.950782186769814667e-04,-3.454845023340509438e-03,-1.596426989932263297e-03,8.329258114099502563e-02
-3.863583596707532292e-02,-2.139856411309439266e-01,-3.904631636814101525e-02,4.730312458565162485e-04,2.073335675213767645e-03,1.002371993419370151e-03,1.751922518014907837e-01
-3.916791720343203165e-02,-2.146377586448605379e-01,-4.165479418927602040e-02,5.360443903943677181e-04,2.551033163747589783e-04,8.835838430275467104e-04,1.742494702339172363e-01
-2.406651031630713256e-02,-2.042370505671414205e-01,-4.964831152397249786e-02,2.218272023072110494e-03,1.342846466573934623e-04,-6.309809494779866374e-04,1.688868701457977295e-01
-2.838885831534035398e-02,-2.087290670375726853e-01,-5.230575574781443082e-02,-3.904651907710918884e-03,-1.463813886286917561e-03,-6.648763508162829333e-04,1.698084920644760132e-01
-3.612267360754006090e-02,-2.103955593739824104e-01,-4.693536063251290552e-02,1.513748545593450500e-03,-3.762008076660374400e-04,-1.078495080824802424e-03,1.691578626632690430e-01
-2.359351101202507295e-02,-1.883224849719750127e-01,-4.999431751120626821e-02,8.004302824059526811e-03,-8.546048349270558972e-04,-2.920880485272326060e-04,1.538775861263275146e-01
-2.797767747489068868e-02,-2.068636768910615542e-01,-4.926106175376217949e-02,-5.650862512474095047e-04,3.687618145354045677e-05,-1.271771949554608002e-03,1.692681312561035156e-01
-2.760882219820942618e-02,-2.067779920413007622e-01,-4.837420248728625111e-02,-5.890687735907405029e-04,-3.466601878166195613e-04,-1.246651114077044348e-03,1.697596609592437744e-01
-2.804081818857077912e-02,-2.082746177989991121e-01,-4.878358765662677704e-02,-8.062635392310587732e-04,-1.269744661852883864e-03,-2.548708802828599830e-04,1.708300858736038208e-01
-3.755833806924860352e-02,-2.104263502901375094e-01,-4.123274187291832427e-02,2.502569375748364775e-04,2.101940638089151291e-04,-2.085550524010203698e-04,1.710617244243621826e-01
-5.257476133800799423e-02,-2.091405724425773882e-01,-2.922708977273820452e-02,-1.599654675701282086e-03,-4.910831817060940874e-04,-3.562505775177151734e-03,1.695874035358428955e-01
-4.757723019266753284e-02,-2.077217613244115024e-01,-2.737249733748521596e-02,-2.357627241581390361e-04,-2.313041996865690744e-03,-4.276913603814163842e-03,1.713513135910034180e-01
-5.842950315952470663e-02,-2.691808916549077724e-01,-6.052286755237434868e-02,-5.177893980935919377e-02,-4.416627867190337994e-03,-4.870281025178595929e-02,2.433042079210281372e-01
-2.826607944861000976e-02,-2.042629300774681522e-01,-4.142572235938072472e-02,4.777478050548607142e-07,1.793685532603214727e-03,-3.816898709210932703e-04,1.698296219110488892e-01
-4.881447301796491139e-02,-2.080118402123022625e-01,-2.728563152716309559e-02,-1.000627107296893619e-03,-2.367167215279867166e-03,-4.695272660114381894e-03,1.712325215339660645e-01
-5.069609857426381205e-02,-2.141687714106311202e-01,-4.674522633119165826e-02,3.579266373824695592e-04,-2.368329731777113912e-03,4.422646236724624624e-04,1.655372530221939087e-01
-4.830041493826796317e-02,-1.309213656895704958e-01,-5.279321800537561948e-02,7.382848824896722124e-03,-5.767377204729702556e-03,-5.124539451294419373e-03,8.256692439317703247e-02
-2.604133761015894888e-02,-1.978508432216920243e-01,-4.546458951154377925e-02,2.239954186010201763e-03,3.330815540282983274e-03,7.964673830757964829e-04,1.631223708391189575e-01
-4.811463326139387570e-02,-2.081258230289729227e-01,-2.818608406515352161e-02,-3.582329145901484019e-04,-2.964463748559086976e-04,-4.418405026499339756e-04,1.708530187606811523e-01
-4.488656431099049410e-02,-1.978580083882886809e-01,-2.995914695618675377e-02,1.513973972351082952e-03,-3.182056547856687480e-03,-8.397890431821975615e-03,1.617262661457061768e-01
-4.728364226428363737e-02,-2.153588270832149931e-01,-3.963395284624578185e-02,-3.117244838310741489e-04,1.961266124829715712e-03,-3.067827599659640053e-03,1.721440553665161133e-01
-5.549812792520004284e-02,-2.160513445916712461e-01,-4.541681523807322707e-02,-6.715035529003679027e-04,7.510019738649244140e-04,-3.359421585362327425e-04,1.658340692520141602e-01
-4.507116941403578603e-02,-2.147263212471176019e-01,-4.546236406796036467e-02,-1.455449087289905491e-03,-8.800292527177823833e-05,8.341091543418891830e-04,1.694848686456680298e-01
-5.198623079790277990e-02,-2.492723324734575918e-01,-4.941066408066914495e-02,-3.515288259327424211e-03,1.820582409152305629e-03,-6.325272166880917778e-03,1.990065425634384155e-01
-3.788452398994283238e-02,-1.347928684742578653e-01,-3.731894331634165451e-02,4.276991954985187583e-02,-3.144821861738800878e-03,3.501431788181717103e-02,1.365350931882858276e-01
-4.666301439013731400e-02,-2.093337790325417447e-01,-3.332954393630833956e-02,-1.594618861937627512e-03,-1.784012276402532882e-04,-3.166317370306913587e-04,1.697543859481811523e-01
-5.007002011885230280e-02,-2.103844000172732098e-01,-3.489906124249249342e-02,-1.814095444776076590e-03,1.386015688703557281e-03,-1.166466120698651766e-04,1.684596687555313110e-01
-5.235680996920275693e-02,-2.176993952100956808e-01,-3.795276163651778445e-02,1.895711465938784007e-02,-7.125790067642802719e-03,-2.459701128980980311e-02,1.815839707851409912e-01
-4.951358215203723045e-02,-2.118487582903002542e-01,-3.007469818779791304e-02,-8.387065941606154998e-04,3.966252647128106499e-04,-1.763360813356314215e-03,1.729106903076171875e-01
-4.436592219408329318e-02,-2.127847868888246285e-01,-4.549189180289069795e-02,1.833909971917226274e-03,-3.280881788932656594e-05,-2.100761595466853378e-03,1.679282039403915405e-01
-4.542276942760270497e-02,-2.237881239903775354e-01,-5.688231168071287286e-02,-2.785261405359821911e-03,2.176986708624962207e-03,2.114949808269035551e-03,1.730677485466003418e-01
-4.387452693299873779e-02,-8.073442203349276425e-02,-3.027760384697537194e-02,-8.687385620489334118e-03,2.742433711297107436e-03,3.790148578488478082e-02,8.126039803028106689e-02
-3.102359936681110125e-02,-1.984986089295055489e-01,-4.693320353221352992e-02,-5.408449652244734420e-04,-3.756541667858337603e-03,7.016166325863687709e-05,1.602490544319152832e-01
-3.751440318418087366e-02,-1.986346963475020544e-01,-3.542142011854655659e-02,-2.290679410408921150e-03,-5.021624293862969254e-03,2.910714223248131796e-03,1.625366359949111938e-01
-3.699824301511059343e-02,-8.183645253252910812e-02,-2.939880292852772858e-02,2.105118511689247490e-02,5.257556921118073561e-04,4.362947962508893773e-02,9.721030294895172119e-02
-4.975827686254240961e-02,-2.131160510112846962e-01,-3.367093772780617444e-02,-5.709545625514921008e-03,-3.942339151929603880e-03,9.113923449195978493e-03,1.731074005365371704e-01
-3.962443734183525995e-02,-1.827811265969475352e-01,-4.284196842927899540e-02,-2.080980859792162796e-02,-9.115075382315460800e-03,-7.177705422537604234e-03,1.474670618772506714e-01
-3.061449334472755857e-02,-2.051215378001922940e-01,-4.256011915142039054e-02,9.521888709391246102e-04,-6.279839332480015909e-04,-5.405442565127617765e-04,1.688655912876129150e-01
-2.941478350934043084e-02,-2.095298511636105587e-01,-4.733354000984038579e-02,-1.193791706614010396e-03,-1.353345550642507007e-03,-7.647716926435317499e-04,1.718912571668624878e-01
-4.989196734023307322e-02,-1.986784903658694312e-01,-3.482384221838433908e-02,-1.256943700698828770e-02,-4.397236892619274182e-03,1.744758531996810219e-02,1.614052206277847290e-01
-3.125876560773555024e-02,-2.121432926627340454e-01,-4.858682738820726404e-02,-1.780288750888323404e-03,2.259316160825235002e-04,-7.702298445477607060e-04,1.729061454534530640e-01
-4.593900345115191353e-02,-2.040910173702603636e-01,-3.918623814211460304e-02,7.493758963785842470e-04,-3.310071431911412385e-03,-1.104125147418881688e-02,1.628677546977996826e-01
-5.680893924895826647e-02,-2.471772543896833541e-01,-4.526270271461751982e-02,-1.111683017157531414e-02,-3.704656447552826578e-03,9.537882127643310115e-03,1.981319934129714966e-01
-4.759243500506266100e-02,-2.110531558348214543e-01,-3.297691305100443337e-02,1.236248617025080456e-03,1.400154231296045710e-03,1.109716753442090316e-02,1.723426580429077148e-01
-4.777937954774515855e-02,-1.968712468715396180e-01,-3.015434663296880091e-02,-1.158757614517240409e-02,-4.594356743928047380e-04,1.841293783752587926e-02,1.630562245845794678e-01
-4.573883504698408875e-02,-2.145062172929056432e-01,-4.559960508359359177e-02,-2.790153997975603276e-03,-2.807883609757693723e-04,-5.699238280377487854e-04,1.689097732305526733e-01
-3.542195031795342119e-02,-2.098004823753260861e-01,-4.403160420724687441e-02,-1.510981821208506708e-02,-3.902896285849282929e-03,6.059034703091070208e-03,1.726887822151184082e-01
-4.448537618489149109e-02,-2.113508634394120067e-01,-4.664193274174090187e-02,1.007612372263339256e-03,-6.508739003377152438e-04,-1.623203425287836127e-03,1.658345758914947510e-01
-3.530767985912555695e-02,-2.216402780696357655e-01,-4.641944241782361424e-02,-1.057370804912148403e-03,-1.999381470932658049e-03,-1.721888387315163426e-03,1.810996085405349731e-01
-4.597604307151557240e-02,-2.158237864485522406e-01,-4.770249878142676647e-02,4.832212378847798953e-04,6.635264934504580148e-04,-1.108952746504073038e-03,1.690080314874649048e-01
-3.632253119501546723e-02,-1.527031674865935718e-01,-3.534565926430101312e-02,-2.559496640824972941e-02,-7.546144605789572440e-03,1.412923900810669764e-02,1.280396133661270142e-01
-5.248407792026955898e-02,-2.152289050685883276e-01,-4.730277024099407285e-02,8.629394110454588051e-04,1.190245513376436779e-03,-2.329077539273455462e-03,1.654651463031768799e-01
-4.515765443795272116e-02,-2.046509932358388517e-01,-3.119229553428421592e-02,-1.218801135943813063e-02,-6.860044788170470333e-04,4.049668784411244310e-02,1.822842210531234741e-01
-2.773180398329638807e-02,-2.084952528125462168e-01,-4.663440484099873329e-02,3.891067988346510326e-03,1.010334241840565037e-03,5.860888072340221294e-05,1.722333580255508423e-01
-4.577599315280996006e-02,-1.607747268931994100e-01,-5.300728566871401592e-02,2.736072151026567971e-03,-6.037908163317072356e-03,-9.361219643404051008e-04,1.121600046753883362e-01
-3.704775839105117763e-02,-2.240843829953121369e-01,-4.379515282464627179e-02,-5.215373432041205473e-03,-4.723543551273188743e-03,-1.472936479532652729e-03,1.841772496700286865e-01
-4.923583414344923082e-02,-2.102945849650924015e-01,-5.003669373192067005e-02,4.016738260212196466e-04,8.852149129010240336e-04,-2.552806368393337449e-05,1.606686413288116455e-01
-4.918282104742793814e-02,-2.116118634062782722e-01,-4.899943212599830455e-02,-9.177349873851612825e-04,1.716233073486315075e-03,4.966852705056080041e-04,1.625580489635467529e-01
-4.740028238980717457e-02,-2.104069978362363702e-01,-4.830358718432983117e-02,-7.461890584076151371e-05,1.121822190508498483e-03,1.180397037345968543e-04,1.625687330961227417e-01
-4.918719821817849752e-02,-2.102677154928683234e-01,-5.007302878990690931e-02,-1.914609238692399672e-04,1.193695516727836343e-03,9.078084315498712161e-06,1.606530845165252686e-01
-4.088736874476266159e-02,-2.124289769681647067e-01,-3.571419602507115015e-02,-6.196717961171911834e-04,-1.006425997173422855e-03,5.711573348196908191e-05,1.741978824138641357e-01
-2.403744530932735990e-02,-2.007546770667265612e-01,-4.855543588478968692e-02,1.240370931671713924e-03,5.606307892995099785e-04,4.444357268147462693e-04,1.658418327569961548e-01
-3.341396202340315980e-02,-1.628130344870564739e-01,-5.119917968955406407e-02,2.912030837016328123e-03,-2.215229925402921810e-03,1.075009162232013881e-03,1.216662302613258362e-01
-3.987627243733503357e-02,-2.180173519705428387e-01,-4.800698483789461735e-02,4.725313334828631917e-02,5.689568320632559881e-04,-6.464836500730521129e-03,1.928130388259887695e-01
-3.906731106500248990e-02,-1.995043039451297462e-01,-3.029528467968693045e-02,4.843166084804215177e-03,4.471765797458610373e-03,5.299902103841234655e-03,1.656470894813537598e-01
-2.792737267271618029e-02,-2.041892041526358614e-01,-4.897739011226286132e-02,2.660208037759514976e-03,-2.180267091530363206e-03,-1.547474275895446101e-03,1.668643057346343994e-01
-2.831732130600711494e-02,-2.093589364379929707e-01,-4.991376339009149371e-02,3.894739372570085387e-03,4.034499520091089212e-04,-1.247074073478639114e-03,1.714155077934265137e-01
-2.588322387797049873e-02,-2.023676096725780527e-01,-4.954122301293260172e-02,7.097663361759886519e-04,-6.814926149455159633e-04,-9.324429579975995579e-04,1.659418046474456787e-01
-2.977172608407188670e-02,-2.048924261531844260e-01,-4.538055940865402815e-02,2.476827062960390070e-04,-1.822010146109074051e-03,-1.827588973213198830e-04,1.678919494152069092e-01
-2.688833435330302557e-02,-1.987696002852150645e-01,-4.705856023925747422e-02,3.639649725589412781e-03,-2.321217557727660481e-03,-7.973204447775530208e-05,1.629080921411514282e-01
-4.590306120955344599e-02,-2.039884694991749292e-01,-2.949959906557746148e-02,-1.207401943614939965e-03,-1.533596331242607696e-03,6.790753630634755638e-05,1.669271141290664673e-01
-5.132479435238983256e-02,-2.046705503408386695e-01,-2.920794444329796735e-02,-1.762255909285160302e-03,-3.107873231459906942e-03,2.163737254795490474e-03,1.656741946935653687e-01
-5.400893405592665369e-02,-1.107990479816500923e-01,-5.939905039150251281e-02,1.792481855063736244e-03,-1.530158450743181490e-03,1.442655472265574673e-03,5.450662225484848022e-02
-4.688246297561698278e-02,-2.027264792793445625e-01,-2.712596636774744496e-02,-6.530540925499333463e-04,-7.245951047869890601e-04,1.323101251112268487e-03,1.666274666786193848e-01
-3.532423393728786887e-02,-2.108223353162814451e-01,-4.291503846000326028e-02,1.154550336069058714e-03,-1.546202840395774665e-03,-7.966558518167930541e-04,1.718665361404418945e-01
-5.358334884888053123e-02,-2.229075227934777526e-01,-4.640788336411625498e-02,-9.945193706849850095e-04,-1.355719497926683196e-03,-1.600102277411478502e-03,1.730702370405197144e-01
-5.331778788767038701e-02,-2.298779795938272752e-01,-4.880772722576341704e-02,6.608035897691943994e-02,1.049701118768126950e-03,7.560579138868733784e-02,2.494834512472152710e-01
-4.497190542761212578e-02,-2.055630071818350113e-01,-2.872798887312923155e-02,-8.781296842012254692e-04,-1.323453808918991078e-03,7.305515404375711791e-04,1.693256199359893799e-01
-2.925916337743827977e-02,-2.397494736570946749e-01,-3.971008238290543724e-02,1.538152441462800266e-02,3.528821968525859901e-03,4.025878785102921138e-03,2.073917239904403687e-01
-5.684988958176695473e-02,-2.678308262794953931e-01,-6.106801188702599970e-02,-4.717165793248720429e-02,-4.036109501935436321e-03,-5.120860634215683438e-02,2.413133531808853149e-01
-4.485526697118672607e-02,-2.156973349704650045e-01,-4.692521521341375818e-02,-4.080384825966662955e-04,-5.832891710390631940e-04,-1.782867089479202522e-03,1.698491126298904419e-01
-4.543311244064009852e-02,-2.209628050331712279e-01,-5.552640058823728186e-02,-9.975759614804244682e-04,8.345270163716264405e-04,-1.245252197224649450e-03,1.707354784011840820e-01
-4.614756633444613843e-02,-2.210966165865484445e-01,-5.643630350712801336e-02,-4.519867848796498043e-04,1.861536037298187332e-04,-8.776244858396066353e-04,1.700472086668014526e-01
-4.440860045835622050e-02,-2.195149144714151068e-01,-5.482982453792158845e-02,-2.612702658544502408e-04,3.668679636628643242e-03,3.336824403396699678e-03,1.703525334596633911e-01
-4.706802584704419812e-02,-2.148960471107314585e-01,-4.527513174632764176e-02,-2.180305118864764823e-03,-1.481495929980460903e-03,9.569130854319336105e-03,1.696051508188247681e-01
-4.635986187536978581e-02,-2.216413529504540070e-01,-5.833219948584466436e-02,-1.416324945667181987e-03,1.491143425026344310e-03,-2.667975062214022943e-04,1.696505546569824219e-01
-4.865050397520676029e-02,-2.410221506643521472e-01,-4.823083914400844163e-02,4.667419655827019336e-03,1.549058840890854853e-03,-5.687840391442016384e-03,1.930216699838638306e-01
-4.739336712091276466e-02,-2.127840852090380208e-01,-5.007053967532494598e-02,-6.838380314477350216e-04,-2.077937281978340441e-04,-6.932297374425333211e-04,1.640775799751281738e-01
-4.617482036113149807e-02,-2.140857697252790681e-01,-4.664545293332050813e-02,-6.787913357937582371e-04,1.196466141204144060e-03,7.251126020658482186e-04,1.676977574825286865e-01
-5.127838619206476212e-02,-2.192882944776900489e-01,-4.461963404725683563e-02,1.235830342743876077e-03,2.240976886678151033e-03,-1.873478759444217266e-05,1.714935898780822754e-01
-4.047277921435451370e-02,-2.136490844233611130e-01,-4.437516766632005477e-02,-1.688590471332850063e-02,3.600348975210869700e-03,-4.439191111459967441e-03,1.740197390317916870e-01
-4.673363058474303694e-02,-2.125806290083448458e-01,-4.970530708539058762e-02,-5.108653129435182082e-04,-5.375078903736431974e-04,-7.864237903219791544e-04,1.643919646739959717e-01
-4.549902244730324313e-02,-2.104174768457386380e-01,-4.500791720282041469e-02,-8.885542745053049926e-05,-2.499308665903270457e-04,-5.805213620961276118e-05,1.651652306318283081e-01
-3.491881972698274855e-02,-2.067268189270272116e-01,-4.623528812548406003e-02,-6.548231998895063296e-04,3.758068113402400143e-03,3.514688798746348113e-04,1.665707528591156006e-01
-4.452178653633603184e-02,-2.126124040083688937e-01,-4.737067926997445833e-02,1.888235375067712826e-03,-8.002746441413879225e-04,1.228201700424153952e-03,1.667358428239822388e-01
-4.539525904337105705e-02,-2.135397533018795202e-01,-4.330136621232649752e-02,-1.297541850151576453e-04,8.188716534203869038e-04,-5.575879593814153613e-04,1.692100018262863159e-01
-3.779668798484952380e-02,-2.120947878019646127e-01,-3.781666751027498025e-02,1.262279480931856345e-04,-9.908542756323973286e-04,3.538765490976661919e-04,1.742977797985076904e-01
-3.774367841046730870e-02,-2.115801712841903215e-01,-3.770774022517391078e-02,-3.224605456572894526e-05,-6.003506853361366196e-04,-1.256766716302528991e-04,1.738577187061309814e-01
-3.770007553291110369e-02,-2.123004277645117732e-01,-3.708340895497441031e-02,8.112884921082640460e-06,-8.361554158993342789e-04,1.460309791440507065e-04,1.749156862497329712e-01
-3.879318655160925167e-02,-2.140271952977382819e-01,-4.490695671593038230e-02,-1.992688933318131385e-03,-1.353413660219615448e-03,2.392953987408285958e-04,1.723095327615737915e-01
-4.106606214033046293e-02,-2.098413766941244762e-01,-3.371527282535854292e-02,-2.094971821273638665e-04,-1.124070949187044085e-03,3.266956381261964712e-04,1.725804656744003296e-01
-2.572328512239852039e-02,-2.013088775293987998e-01,-4.950696710440082027e-02,3.890049026435569903e-04,-3.361167396828380568e-04,4.438294414054703031e-05,1.649869382381439209e-01
-2.793813762296726289e-02,-2.079076967018852751e-01,-4.689839560217335529e-02,1.916578043166700411e-04,-1.682733837872212642e-03,-1.521563416162889388e-03,1.713237166404724121e-01
-2.897998363866399057e-02,-1.929170387724228330e-01,-5.190051890148143776e-02,1.061691471067622954e-02,1.512351848784106688e-03,7.003884019147187676e-04,1.548860073089599609e-01
-4.603277999011211319e-02,-2.478640308088715938e-01,-5.079467431751547024e-02,-6.157355028829796829e-04,-2.287995251306285810e-03,-4.592745881991133414e-03,1.996936500072479248e-01
-2.752746727167648677e-02,-2.019141989365306200e-01,-4.809229390677706439e-02,-3.416210433327353420e-03,6.649649878481670752e-04,-7.628308078533663824e-04,1.651832163333892822e-01
-2.793063026811688776e-02,-2.070989293428802114e-01,-4.605623951600971988e-02,9.482255434887394956e-04,1.040353815365622613e-03,2.448726245897608076e-04,1.708461493253707886e-01
-4.544194544590294399e-02,-2.198943205094073539e-01,-4.628994034710821881e-02,1.019899141764865451e-02,-6.469981816059896607e-04,-3.067882661470869039e-03,1.750084757804870605e-01
-4.327968102317381743e-02,-2.109452726848040360e-01,-4.465332984870483413e-02,-8.484114269260681525e-04,2.776422646216069982e-04,-7.258720896448611062e-04,1.669948995113372803e-01
-3.538996065070590391e-02,-1.607458612536157017e-01,-4.712930400097096323e-02,1.070789286840565652e-02,6.322697424687579761e-03,5.927077928591568436e-03,1.222686171531677246e-01
-4.836125017864960351e-02,-2.361654624990928431e-01,-4.954010829621831313e-02,-3.657125162680746697e-03,1.182014149461417529e-03,-1.328797487706040968e-03,1.873500198125839233e-01
-2.777287427592560476e-02,-2.083914545593770762e-01,-4.606587550882766668e-02,3.892891195538563092e-03,1.317297377625987380e-03,2.688105494169967303e-04,1.723500341176986694e-01
-3.837164081782856728e-02,-1.941653178902670862e-01,-3.847259467726125287e-02,1.017800298847193241e-04,6.578784221240168394e-03,3.023486514764639477e-04,1.561604887247085571e-01
-4.505095630503377913e-02,-2.199447749327327339e-01,-4.292939793945524385e-02,1.672308703561107331e-03,-1.804731955215984609e-03,-7.301286999646616933e-03,1.764695048332214355e-01
-4.400348669147074315e-02,-2.156160725862318606e-01,-4.894424319177548971e-02,4.218004503650006273e-03,1.190547497386552217e-04,-2.397551628207674184e-03,1.694050133228302002e-01
-2.435875027549160021e-02,-2.019449688941214738e-01,-4.953380379036650960e-02,1.357668334756763351e-03,6.604629645796800249e-04,-2.406328373851060356e-04,1.664539575576782227e-01
-4.982534893814018206e-02,-2.328626047628607476e-01,-5.636256340454286889e-02,-1.699149317364289638e-03,3.209863903915128810e-03,3.907309534545891361e-03,1.800949424505233765e-01
-4.643252652916535911e-02,-2.081804132025486531e-01,-4.405136195128304955e-02,-3.328830442496802291e-03,-4.019959953199821298e-04,-3.714990892853070603e-03,1.631818860769271851e-01
-5.019419740550106618e-02,-2.340771706507039362e-01,-5.086833905157024660e-02,-3.356750314279932298e-03,9.025692700545457671e-04,-4.989704303591527973e-03,1.838487833738327026e-01
-4.995863494099565816e-02,-2.314899789284724507e-01,-5.472891263612435220e-02,-5.428895442543657524e-03,3.961960184800441057e-03,1.231391215668786948e-03,1.795842051506042480e-01
-4.397060013633258269e-02,-2.151349441588363554e-01,-4.975833685454979227e-02,4.009976655282589098e-04,-7.398456982145300721e-04,-8.654905413972542941e-04,1.683580875396728516e-01
-4.173768168855572502e-02,-1.409459640959252469e-01,-5.683097202424134547e-02,3.517868464697137057e-03,3.672255518956999906e-03,3.418352962771085881e-03,9.319522231817245483e-02
-2.684329045842005768e-02,-2.049382264160501954e-01,-4.569229493839749301e-02,1.192969380150441829e-03,1.122584269122550238e-03,-3.026480067540225053e-04,1.694830507040023804e-01
-3.717820553164354752e-02,-2.113444158532182260e-01,-4.608522523202692595e-02,3.051536992880840137e-03,1.157037574978087360e-03,4.793684292675020058e-04,1.699839532375335693e-01
-3.093548722378176158e-02,-1.496903820199865787e-01,-5.506871212493364559e-02,1.436698513251382855e-02,2.324043934589216376e-03,4.761256089656782167e-03,1.119046136736869812e-01
-4.517843015616449659e-02,-2.160604356147522442e-01,-4.777763610330133109e-02,-1.113393349196765969e-03,1.235241371770211174e-03,1.849436837438314316e-04,1.696221083402633667e-01
-5.143516080702625198e-02,-2.266976834133675456e-01,-5.689586343341359459e-02,5.057043500232009936e-02,-2.571368300640593674e-03,7.281125417180631110e-02,2.310543060302734375e-01
-3.698551534750704750e-02,-2.138828692405425058e-01,-4.843038800977995939e-02,3.744658303373657893e-03,2.455362149551983640e-04,2.261923625510212942e-05,1.715847998857498169e-01
-3.694693610042578541e-02,-2.123290316636276820e-01,-4.833274237599923667e-02,1.345225441385763422e-02,1.734459881055762896e-03,-7.816003758882526234e-04,1.715966165065765381e-01
-3.202105296159227232e-02,-2.085832087000044077e-01,-4.826814114234345698e-02,1.070234780307952223e-02,4.412073821986644412e-03,2.220955784803501851e-03,1.702538132667541504e-01
-3.667209431658367824e-02,-2.117351756511556826e-01,-4.452326534634789418e-02,3.062920477623516484e-03,4.688471665982850726e-04,7.971446465955846477e-04,1.713621467351913452e-01
-3.355552063917646710e-02,-2.092637825919200223e-01,-4.576522730781894255e-02,9.628411946043465702e-03,3.349351465557488805e-03,1.299971425535833159e-03,1.708624213933944702e-01
-3.323209846438909820e-02,-2.099203785360574115e-01,-4.560421619639574292e-02,-2.901716131450023377e-05,9.048982026503912682e-04,1.585461842601832523e-03,1.708678156137466431e-01
-4.109635795743397241e-02,-2.116100941518320733e-01,-3.384168049759919000e-02,6.355529929384816021e-04,-1.490623745676558426e-03,-6.918054766490534324e-04,1.742810904979705811e-01
-5.620361045423349217e-02,-2.167212563800560154e-01,-4.515858604287882605e-02,-4.215020717892202159e-04,-2.362761002734347639e-04,-1.361280143273065210e-04,1.663177162408828735e-01
-4.855749255682126342e-02,-2.016673439832240289e-01,-2.406735307924465217e-02,1.597219199728608418e-04,5.534943212680506520e-04,1.126172694019045946e-03,1.667239516973495483e-01
-4.181853342323486183e-02,-2.092964677036648902e-01,-3.641568207902572823e-02,1.203985573228669284e-04,-3.803800901268663409e-03,-1.261241862137111723e-04,1.703713685274124146e-01
-4.660120222615862784e-02,-2.086907216261424669e-01,-3.244609552320261436e-02,1.202128517694052998e-03,-2.951418524939396996e-03,1.530627105327622716e-04,1.697006523609161377e-01
-4.498934489760821748e-02,-2.057239919363134661e-01,-2.841654848190250382e-02,5.439276395055247463e-04,-4.069743321610072573e-03,-1.708274690619439101e-03,1.698041111230850220e-01
-4.295192975429729110e-02,-1.134907945139264351e-01,-5.167015766645886854e-02,1.807428000240320076e-02,2.799936807097957742e-03,3.859325394287344349e-03,7.406082749366760254e-02
-3.894476594459360397e-02,-1.663343073441382047e-01,-5.665502390339508670e-02,3.547453674827187597e-02,3.668937798845404042e-03,7.175117931564570228e-03,1.351140439510345459e-01
-4.247906051518635095e-02,-2.062864293763726486e-01,-3.247268674709084119e-02,4.024518526924201036e-04,-2.888562017409310005e-03,-1.109682923745822312e-03,1.691192239522933960e-01
-4.471432734908661194e-02,-2.271036286271054250e-01,-4.115783140975151633e-02,-1.730793420924347376e-02,7.074800279858330966e-03,-1.901040513594774717e-02,1.898952573537826538e-01
-4.542645038911449773e-02,-2.171828384670455581e-01,-4.532100403889342821e-02,-2.079331705061927913e-03,-1.842850195384229510e-04,-3.992143331777015772e-04,1.718485653400421143e-01
-4.613183704505600946e-02,-2.116101425282206350e-01,-4.610153103474452785e-02,7.858088557177815006e-04,-1.395264715281449856e-04,6.289280161370447778e-04,1.655028164386749268e-01
-4.329622698026503597e-02,-2.136754861176826392e-01,-4.350566179456544225e-02,3.537859022552824920e-04,1.921106186663076930e-04,8.200492114712256168e-04,1.702819913625717163e-01
-4.525691569481884308e-02,-2.127600422440075190e-01,-4.522151884704421476e-02,1.245223588199625454e-03,-2.862901043150336872e-04,2.455446821598560470e-04,1.675359904766082764e-01
-4.777154951793122217e-02,-2.143210518436469980e-01,-4.347260348598048357e-02,-1.659431419689285769e-03,-5.503166618964223499e-04,-1.126365981509426083e-03,1.687784940004348755e-01
-4.580940377213005288e-02,-2.102728200644189971e-01,-3.751095496040494914e-02,-1.296741661607579612e-03,-2.201137731349758243e-03,-1.168837459278107126e-03,1.688358634710311890e-01
-5.474112729750930939e-02,-2.068530648580355624e-01,-4.456896374223293100e-02,-2.341361846586253320e-02,2.926768033548449773e-03,7.362746027773355018e-02,2.066933065652847290e-01
-4.417389463782563780e-02,-2.129646618766367627e-01,-4.494925435765059762e-02,-1.404088538096160679e-03,1.753870891002106281e-04,-5.656484412877260627e-04,1.684251129627227783e-01
-4.428312702635261999e-02,-2.125809311106327260e-01,-3.524459051202485926e-02,-1.052180364706922213e-03,-8.323862804046224364e-04,-1.295937849537095662e-04,1.730100065469741821e-01
-4.660836078704602703e-02,-2.129459632964005866e-01,-4.333609928954239993e-02,-6.591643345036344876e-04,4.169663189320159478e-04,7.612043414310848194e-04,1.680082380771636963e-01
-3.447003603132893501e-02,-1.971995073155338174e-01,-3.850647300098291453e-02,1.915500058122050243e-03,5.985127071215763130e-03,6.714037058064356448e-04,1.611215472221374512e-01
-2.891650645157272520e-02,-2.036236438952139793e-01,-4.125497880250687116e-02,-2.392383258789045113e-05,1.847374451479749571e-03,-8.609124631529769351e-05,1.689066737890243530e-01
-3.219206415548171024e-02,-2.055254708951736453e-01,-3.925858846426688586e-02,1.972474992306285204e-04,1.185071433369629243e-03,1.038645753285314917e-03,1.699326485395431519e-01
-5.110849406209209272e-02,-2.119039802017445573e-01,-4.701032478317457297e-02,-6.116397687336562971e-05,-7.680567677685768303e-04,1.666791432358766126e-03,1.629142910242080688e-01
-4.438323620343966047e-02,-2.133368135304532509e-01,-4.370341965239923215e-02,2.888025496820197880e-05,1.730069738515286509e-04,1.623657153927563976e-03,1.693181395530700684e-01
-3.167533277230148714e-02,-2.015301030719848230e-01,-4.590227690001080774e-02,9.311669322060608933e-03,3.770959846834527358e-03,1.828975962946851642e-03,1.641625761985778809e-01
-3.225462366947554060e-02,-2.081120283431095452e-01,-3.851392082162009844e-02,7.303944155522601239e-04,2.937320294013602302e-03,7.605257500644991859e-04,1.728973090648651123e-01
-3.222363725854844596e-02,-2.078207909482487348e-01,-3.967615697245960305e-02,3.070061418506270668e-03,3.884541747481743638e-03,4.161587517509314927e-04,1.722072064876556396e-01
-4.633604146448558336e-02,-2.178977363086925800e-01,-4.838107877565410442e-02,-1.020907281161742911e-03,2.718218436286033344e-04,5.263194107062670914e-04,1.705606281757354736e-01
-3.928953051886257403e-02,-2.157556035591106924e-01,-4.066702541343739097e-02,-1.471193636359115827e-04,1.282329237560654762e-03,-2.616869115008211254e-04,1.757961809635162354e-01
-4.177822531091309605e-02,-2.156520466053968577e-01,-4.011424460021075639e-02,1.053004365961981710e-04,4.012748919761198853e-04,4.576567089478265752e-04,1.747150272130966187e-01
-4.456292612017460214e-02,-2.036365933804359374e-01,-2.651534840657100711e-02,1.435787438492262249e-03,1.314869092183570216e-03,1.675451273789124078e-03,1.688811182975769043e-01
-3.215209336652816163e-02,-2.092732046532823076e-01,-4.345197715748854578e-02,-1.299816102414242313e-03,-1.388375212620886895e-03,-9.312440491914643955e-04,1.717893481254577637e-01
-4.052442599539236162e-02,-2.157648078714607121e-01,-3.946426365019164301e-02,-2.459321125686637845e-04,1.269505456642045123e-03,-1.761620095447241944e-04,1.757873892784118652e-01
-4.196405746168368339e-02,-2.137112015310116409e-01,-4.304610570909211953e-02,1.389111476138831219e-03,1.486701718824835153e-03,1.271588312438708731e-03,1.712591201066970825e-01
-2.738383952097843410e-02,-2.047732191625177833e-01,-4.473391731480827471e-02,1.340905463335972546e-03,1.226768169992202649e-03,1.399504469635494321e-03,1.694286912679672241e-01
-4.189704718256415800e-02,-2.136872651075484297e-01,-4.300332957028207143e-02,1.399809506821021472e-03,2.888382175377297205e-04,7.370149794655191360e-04,1.712624132633209229e-01
-3.126111078265268739e-02,-2.095340376184607889e-01,-4.606676169863313519e-02,1.806594984600282073e-03,1.105436263617483750e-03,2.746328943921737893e-04,1.713904291391372681e-01
-4.079656427359266979e-02,-2.145302343376339071e-01,-4.114490567274308591e-02,9.826524638632417458e-04,4.551072504409011494e-04,1.921190506806828575e-04,1.735702157020568848e-01
-4.102844460737974097e-02,-2.143896736992375596e-01,-4.088690565413654471e-02,2.575250466539307035e-04,-1.253225905355087079e-04,-8.871273934177760642e-05,1.734328120946884155e-01
-4.339380167018633272e-02,-2.135945991381971720e-01,-4.309322965656205151e-02,8.771050547187585894e-04,7.032053600555067180e-05,3.222900207969135950e-04,1.703590154647827148e-01
-3.599998974272008295e-02,-2.089688682663510821e-01,-3.835542462192150642e-02,1.209364573937158748e-03,3.816643957873216714e-03,7.593541723612100020e-04,1.719481945037841797e-01
-3.451430498335027186e-02,-2.102119808053199423e-01,-3.780692784104660448e-02,4.304717856789219113e-04,8.146941128209065101e-04,-1.360971835991153030e-04,1.740821897983551025e-01
-3.912987156964104624e-02,-2.077056413967198756e-01,-3.244242941329879282e-02,5.235225464943593209e-04,6.422640147584429780e-04,2.737931544153251844e-04,1.720236539840698242e-01
-4.067566957193444188e-02,-2.053373028480773022e-01,-3.067953992194218105e-02,6.828282346605552174e-04,8.064799610189828452e-04,1.039040074870575640e-03,1.698998063802719116e-01
-3.458014033611207794e-02,-2.096050558298588329e-01,-3.615360613566272197e-02,3.878481902581914348e-05,4.189005833560754044e-04,-1.081801610304007153e-05,1.742450296878814697e-01
-3.553239157441415164e-02,-2.088314813158335115e-01,-3.658854602334567219e-02,2.480754253467749447e-04,1.436920890550753968e-03,4.162742779397857217e-05,1.727919131517410278e-01
-4.600203859626963293e-02,-2.150263454441634914e-01,-4.529677743888651381e-02,1.181121351731470592e-03,2.917872804396250304e-04,-2.027967054277063082e-04,1.693915128707885742e-01
-3.440680630440236254e-02,-2.060916554099565257e-01,-3.613660690829680056e-02,-4.975894769409869170e-04,3.523814636536832471e-03,-4.837149098605504518e-04,1.709397435188293457e-01
-3.617660270330678995e-02,-2.095166614692030582e-01,-3.422749379424102484e-02,1.754821883599644783e-04,4.869242959513658060e-04,1.150610202510328267e-04,1.743251979351043701e-01
-3.622797612592475180e-02,-2.098375318769249154e-01,-3.609653172427639001e-02,1.926118755509243605e-05,1.225567693229479406e-04,7.936970372899901610e-05,1.736755073070526123e-01
-4.778493187995701275e-02,-1.648174436567378387e-01,-4.053634179000039500e-02,8.722139789452416914e-03,6.586667156231871233e-03,7.837993285673614668e-03,1.230453327298164368e-01
-3.582898276353065070e-02,-2.097280914879930958e-01,-3.546243069437859941e-02,-2.255887857993614076e-04,3.656219717760528037e-04,-2.393449174878152725e-04,1.740847527980804443e-01
-4.930440495459482986e-02,-1.635228701500580917e-01,-3.737275974208999901e-02,-4.525565399275761815e-04,-7.942076093766663875e-03,8.507776362437560747e-03,1.223030164837837219e-01
-5.379244900655692774e-02,-1.146682084995927220e-01,-5.526842505124147931e-02,2.210595135535464023e-03,6.871837669046712343e-04,2.527594243669533097e-03,6.044359877705574036e-02
-3.618066445419024224e-02,-2.104956966957714504e-01,-3.552887163250950664e-02,5.938070669797676415e-09,8.636936037146721794e-05,1.169817703262866423e-04,1.746420264244079590e-01
-3.417813374007990651e-02,-1.959574430956210755e-01,-3.901046477839077709e-02,1.608240871148910968e-03,5.638213366675732738e-03,6.399260608941392033e-04,1.597450524568557739e-01
-4.548737372587157574e-02,-2.135515191586825068e-01,-4.653815808721978309e-02,1.659584755991558823e-03,5.283991192751989372e-05,1.322961460800956088e-03,1.675815731287002563e-01
-5.039823591904315364e-02,-2.155122610704517383e-01,-4.849141602945984675e-02,2.111799462977469437e-03,-2.489655062771970254e-03,-3.340515125782120027e-04,1.661728918552398682e-01
-5.245560699228256352e-02,-2.161378769545849177e-01,-4.621557652008959072e-02,-7.432598174426732502e-04,-9.415755302389578266e-04,-1.150041710281262438e-04,1.669028550386428833e-01
-4.775118601107584959e-02,-2.128423456524743962e-01,-4.895618476769688504e-02,7.016737733877908634e-04,-1.267677551734404514e-03,6.206289668870235924e-04,1.645146310329437256e-01
-4.744543373975355915e-02,-2.144105872965250126e-01,-4.733385291214806112e-02,3.049412044252785073e-03,-9.641316486406686448e-04,-3.964204333614756136e-05,1.671128273010253906e-01
-4.807826905545428686e-02,-2.106844926335299517e-01,-4.782934064237496369e-02,4.853634453327566141e-04,-6.766683480590879329e-05,5.513989498232127386e-04,1.627358496189117432e-01
-4.630598571979240713e-02,-2.169740099048772242e-01,-5.530957196683398969e-02,-1.867419208429823251e-03,7.824918147141202368e-04,1.989134880638215603e-03,1.664216965436935425e-01
-4.885142768227442728e-02,-2.110040197505220760e-01,-4.805560249847724841e-02,6.398839056952325150e-04,-1.227909966679331319e-03,8.168514902233118711e-04,1.625758111476898193e-01
-4.684002408688971164e-02,-2.084801655640790008e-01,-2.992735970368333442e-02,6.977908870800571955e-04,1.219949609672876757e-03,3.776332510438901082e-03,1.708685010671615601e-01
-3.939023795846132575e-02,-2.109181625257643411e-01,-4.368967643141477564e-02,1.355551980180336614e-03,5.260730960731561066e-04,-1.449275830870221235e-04,1.694380342960357666e-01
-3.464922690926175441e-02,-2.101017022648730137e-01,-4.266381574182610825e-02,1.184900895027266726e-03,8.515111784084167289e-04,1.243541047893712134e-04,1.716043651103973389e-01
-4.705911768193554723e-02,-2.127066894893624716e-01,-4.630568196118928920e-02,9.766030988069525701e-04,-3.316973285320444433e-04,1.098867840837918289e-03,1.660460978746414185e-01
-4.706715816874367658e-02,-2.127091355026090591e-01,-4.634726371567143149e-02,6.729397097981948319e-04,-3.213234357841480114e-04,1.693928726444691004e-03,1.660340428352355957e-01
-4.157186127895515226e-02,-2.098494205564638282e-01,-4.299796959726686491e-02,5.292786261880233056e-04,-7.002240329847783705e-04,8.447929932596732116e-05,1.675760149955749512e-01
-5.019156113589086365e-02,-2.118413688660930605e-01,-4.763882912887187210e-02,9.720049413378748090e-05,-1.753255688447861007e-03,1.262238887655972325e-03,1.629842221736907959e-01
-3.480985157206082509e-02,-2.078589251626463130e-01,-3.661400501359618476e-02,-1.518899365440408553e-04,8.934055631009708018e-04,6.313633438806244081e-04,1.721647083759307861e-01
-2.666360885595449315e-02,-1.973357752971064416e-01,-4.878105055764110631e-02,3.085804179487562551e-03,-1.949094308675110819e-03,-7.899897774392609191e-04,1.608887016773223877e-01
-2.446187995282311789e-02,-2.005446494642240951e-01,-4.900180612118223977e-02,4.261299625856456580e-03,8.831186185175455682e-04,3.885696077159074492e-04,1.653588861227035522e-01
-2.379640017595238688e-02,-2.003331621054184608e-01,-4.983744004471410416e-02,1.257530817179956708e-03,1.775869700926172967e-04,-1.539160247155979848e-04,1.650789976119995117e-01
-4.360116935814431494e-02,-2.106025634500975352e-01,-4.443238091726327971e-02,-7.982949330523391243e-06,4.815831537595158620e-04,5.879915160135779518e-04,1.665925383567810059e-01
-2.413718863269904980e-02,-1.939983565128631238e-01,-5.037077469986148137e-02,4.696294142382805362e-03,-1.534780494760386326e-04,4.195340976299869384e-04,1.585929244756698608e-01
-5.243241504006029841e-02,-2.086670000047307905e-01,-3.064900570409984093e-02,-5.913289449084429758e-03,-4.740729990762155427e-03,3.150371693327548572e-02,1.773044317960739136e-01
-4.908959739518652110e-02,-2.110062262112252507e-01,-4.756083024754490657e-02,5.970555167551213141e-04,-1.719706849886297505e-04,8.722813529349425889e-04,1.626969724893569946e-01
-3.288882967602588248e-02,-2.111086065734128769e-01,-4.618316685447332315e-02,-3.448688117961364085e-04,7.931612769159065643e-04,3.527633187877142950e-04,1.719660758972167969e-01
-4.998555931845188871e-02,-2.123736430231325523e-01,-3.350475166460298304e-02,1.041396402709386985e-04,-6.545992825461970088e-03,-2.803887811132350222e-02,1.783393174409866333e-01
-4.101101101349644701e-02,-2.104631958600187702e-01,-4.086999632659649162e-02,-3.607351307728360766e-04,-4.407244472462205177e-05,-3.280407806849133454e-04,1.695248633623123169e-01
-4.524581922492092179e-02,-2.132964460410657903e-01,-4.328216655935188811e-02,-3.652794473242446105e-03,8.576240138749841697e-05,4.520275366071487715e-04,1.691612452268600464e-01
-5.511148172756504676e-02,-2.372360595397295102e-01,-4.551921043812931500e-02,-7.236585948992613898e-03,-3.255437808120619815e-03,-1.088420125798777484e-02,1.885541230440139771e-01
-4.865922434619438658e-02,-2.129640727168602976e-01,-4.273575633116864780e-02,-5.058509190551463593e-03,2.911888324120224646e-03,-1.622774743894217064e-03,1.676738709211349487e-01
-3.615245536175842184e-02,-2.124400867675909355e-01,-4.151330754535201978e-02,-1.104020057696413230e-03,2.745529524680124026e-03,-8.094764050164578986e-05,1.737449467182159424e-01
-4.934394312961118412e-02,-1.774637714328340943e-01,-4.470967329069094193e-02,3.953300718517604659e-03,2.437149554095876386e-03,-5.471185141824482651e-02,1.614768505096435547e-01
-3.466323738011536232e-02,-2.124811417815831716e-01,-4.316973707186549936e-02,1.082933196266181700e-04,1.045331075436195523e-03,6.309537921633057243e-04,1.737339049577713013e-01
-4.575514487138523934e-02,-2.145258871984803417e-01,-4.336533544262474726e-02,3.454140865500635645e-03,1.161647813546633949e-03,-5.141430596639958849e-05,1.700954288244247437e-01
-4.688988250243572575e-02,-1.221433622949449904e-01,-5.264553534662419487e-02,-2.081974819427446360e-02,1.753365332595365096e-03,-2.742989906108937725e-02,9.396748244762420654e-02
-4.958534401470901520e-02,-2.222478209989050268e-01,-4.549937141319652933e-02,-4.485739595222761576e-03,2.118028195634278840e-03,-5.846834745054219247e-03,1.752452552318572998e-01
-4.463787506586260750e-02,-2.070877489170963037e-01,-3.448183479972807136e-02,-1.716889696722245437e-02,-8.675577734077514341e-03,3.330100401048270015e-02,1.804991215467453003e-01
-3.994919273145859651e-02,-2.016547191490890290e-01,-4.046594974659641075e-02,1.736385073050631528e-02,-3.165212982907718471e-03,-1.334466092073437193e-02,1.659342795610427856e-01
-4.185989405357122550e-02,-2.153106733083813562e-01,-4.191236592289956930e-02,6.662538182725782823e-04,9.057638748435406766e-04,1.859415961958583757e-04,1.734357774257659912e-01
-3.962478845606001721e-02,-2.155885818584712676e-01,-4.078197152263048769e-02,2.860513499068492865e-05,8.596903305071183950e-04,2.239543489167803195e-04,1.753948181867599487e-01
-4.293046873226503968e-02,-2.140812260116133903e-01,-4.361862055259917159e-02,1.119282001537465557e-03,1.385600266194587547e-04,1.552749463197224036e-03,1.708400547504425049e-01
-3.768519728326819723e-02,-2.106259761522570606e-01,-3.762336659030568464e-02,-2.013328679747859555e-03,6.214029425386160578e-03,-1.814755605349507210e-03,1.733698099851608276e-01
-3.669427325139081736e-02,-2.077371766400989972e-01,-4.387991955094545926e-02,-2.289363794970360687e-04,1.076848168738655468e-03,-2.921421422724815656e-03,1.676529049873352051e-01
-2.988017323851112350e-02,-2.076481256126306851e-01,-4.155187712241498188e-02,1.099303503484388989e-03,1.089641430857896803e-03,-3.463557961596089568e-04,1.722508817911148071e-01
-4.218484430331880669e-02,-2.154032343463576360e-01,-4.493327857204099107e-02,-1.001462580433680558e-03,1.340665027035615065e-03,1.179616148077333683e-03,1.718972325325012207e-01
-3.892401835348103384e-02,-2.118549262764865826e-01,-4.307397933572953280e-02,6.022118665640184164e-04,2.695277819506994646e-03,1.256072651924840938e-03,1.709744930267333984e-01
-3.690071458626838219e-02,-2.099900517392746246e-01,-3.616945187216587254e-02,3.385150072101112588e-04,1.065322488266905480e-03,2.498691141475214072e-04,1.734674721956253052e-01
-3.802823396278665752e-02,-2.132803289886113229e-01,-4.312222453719460891e-02,3.385304821393378665e-04,1.275399037344978215e-03,6.120842753011463983e-04,1.727797985076904297e-01
-3.966402487626216611e-02,-2.137074528319335975e-01,-4.344465037111790856e-02,1.244460495940635097e-03,1.337093260614980470e-03,1.005033140406519972e-03,1.722221076488494873e-01
-5.217997553018773743e-02,-2.135784851758876224e-01,-4.756718470266717291e-02,2.400265878068059240e-04,-1.170578367629542937e-03,7.835475293370059748e-04,1.637723445892333984e-01
-4.759602489476536663e-02,-2.106789466857917903e-01,-4.712115109975432981e-02,1.563345659565988578e-04,-5.755882163795942880e-04,8.955723694679942545e-04,1.633315086364746094e-01
-4.696427641462036506e-02,-2.119611241565089732e-01,-4.725311203933642984e-02,1.110850655063701665e-03,-4.592651037964779652e-04,8.714741822020345046e-04,1.648726761341094971e-01
-4.732830044463979396e-02,-2.098485614793587084e-01,-4.766923974799709002e-02,1.460058375442690147e-04,-2.123581095795760195e-04,3.497027520279454710e-04,1.623518019914627075e-01
-4.178054952214409201e-02,-2.078444432150737819e-01,-3.253368486967658096e-02,6.209913980743807412e-04,9.844199590424086883e-04,9.121173900479690160e-04,1.708942651748657227e-01
-3.972238005197378102e-02,-2.124500632345484585e-01,-4.433340017386034476e-02,1.111856638411468697e-03,4.571962694251779599e-04,-8.385904946385001413e-04,1.704878509044647217e-01
-4.772832406947061235e-02,-2.105223738067216188e-01,-4.729476102700060081e-02,2.741089575626778170e-04,2.908164301655567145e-04,1.001676004433544660e-04,1.630128324031829834e-01
-4.705554941283850157e-02,-2.098099826033961168e-01,-4.583124894689982048e-02,9.573805434166931800e-05,-1.121422402416889671e-04,-2.549071254551875431e-04,1.633708178997039795e-01
-4.864380658949923886e-02,-2.142674827293388207e-01,-5.103071279218703710e-02,5.499600057192803007e-05,-2.200088946694549359e-03,-3.877495722428692506e-04,1.644887626171112061e-01
-3.894253053271292536e-02,-2.108757015706146376e-01,-4.100361738703669351e-02,-1.714477989565556726e-05,-1.367263866623388033e-04,-5.541584220192203670e-04,1.709148138761520386e-01
-4.373054145177876495e-02,-1.659239042001531828e-01,-4.281456354640018891e-02,1.390489622730581472e-03,6.770685565626154666e-03,1.348337622595753831e-03,1.232589334249496460e-01
-4.626002835758866172e-02,-2.109999639802575822e-01,-3.298258551999713739e-02,3.416068613132702131e-04,7.404067481618223021e-04,-6.981427756308846181e-04,1.717740297317504883e-01
-4.598150623969017581e-02,-2.101520822757139140e-01,-4.492151497724684861e-02,-2.139149573940517311e-04,-3.049719468199501519e-04,-1.656699021906381307e-04,1.647046506404876709e-01
-4.866039970411564081e-02,-2.137127524700253578e-01,-4.926761749764348164e-02,-3.649483149486174683e-05,-3.409954142966267927e-03,-2.945489901009172573e-03,1.649343520402908325e-01
-5.146410307174531518e-02,-1.744444040224970016e-01,-2.586267875886896772e-02,-1.445354832127288102e-05,7.313794250114567927e-04,7.659366837113991758e-03,1.382232308387756348e-01
-4.850988046351319832e-02,-2.133102797594591260e-01,-5.006511611659093808e-02,1.182217418656036217e-03,-6.010556186019050222e-04,1.855423216986716009e-04,1.640447080135345459e-01
-4.612069840388685615e-02,-2.096700794299310444e-01,-4.764561602521577566e-02,4.141296779242860490e-04,1.086635307034912164e-04,3.158181922559451498e-04,1.627948880195617676e-01
-4.701094373480745048e-02,-2.291804261292106348e-01,-5.176404950785116338e-02,-2.114583697761444891e-02,-1.301219930298931366e-03,5.302856469199701550e-02,2.052438706159591675e-01
-4.841370351986397369e-02,-2.107486618962025049e-01,-4.910265521515654735e-02,-6.281633193623817508e-04,1.352665409992088530e-03,7.525905466291913769e-04,1.620174199342727661e-01
-4.638637113411008678e-02,-2.124627607481917035e-01,-4.655753158419898702e-02,-9.312826210613666875e-04,1.320299998935131538e-04,-2.091538531629500992e-04,1.659992635250091553e-01
-4.709463135487109570e-02,-2.118259962228264959e-01,-4.529444318590745283e-02,1.403073493023379733e-04,-4.676302480919887049e-04,-1.204312376566706825e-04,1.656410843133926392e-01
-4.820386688644098111e-02,-2.112818636930563210e-01,-4.607070136503230162e-02,-9.475473681670602876e-04,3.108455827946058920e-04,5.847141695749843299e-04,1.641671806573867798e-01
-4.508733402136597818e-02,-2.114926982026901769e-01,-4.349992024744952362e-02,-6.862372963762390036e-04,-1.134540915841115121e-04,4.960573690302178939e-04,1.672112643718719482e-01
-4.479013605428534134e-02,-2.113847804829576127e-01,-4.304582481721919845e-02,-8.107734159284391354e-04,1.448515063048880832e-04,3.527302161896441954e-04,1.674807965755462646e-01
-4.592409296184901679e-02,-2.376221926584124455e-01,-5.475321277791098812e-02,4.614614119059510036e-03,-2.226552623029838464e-04,9.598131187536752817e-03,1.883454173803329468e-01
-4.900665126295813967e-02,-2.533986172053485086e-01,-5.777605511367268215e-02,-1.013383448659495659e-02,-1.462949238702112827e-03,7.314364795462270988e-03,2.013345211744308472e-01
-5.128639410126274029e-02,-2.136157983002589522e-01,-4.633633374372253533e-02,-4.316313503264553736e-04,-5.595692143612216937e-04,1.327093136154143625e-03,1.648807525634765625e-01
-4.109368816053983464e-02,-2.175417756449648521e-01,-5.531654979140457340e-02,-1.211012196745058118e-02,-3.424762233627689600e-04,8.271804300677540814e-03,1.716747134923934937e-01
-5.345956445223651321e-02,-2.884282998355118810e-01,-5.121709746499727989e-02,-7.050113058633818500e-03,-2.287201461584144162e-03,2.844285391913981692e-02,2.415244132280349731e-01
-4.995521025357472361e-02,-2.121880636309274037e-01,-4.689406674278051579e-02,-1.845580602117214634e-04,-7.512331806242798782e-04,5.633014139505451668e-05,1.637903898954391479e-01
-3.036125153245846503e-02,-1.896817400359406269e-01,-4.437561655405131145e-02,2.397895318172388324e-03,6.016062896808371460e-03,6.258008324837131819e-04,1.532111316919326782e-01
-4.655554792152434562e-02,-2.553528608116132359e-01,-3.575438147105469699e-02,-4.167556755938904567e-03,-2.496975271680865107e-03,3.568064541742981335e-03,2.146560996770858765e-01
-3.732641126699606099e-02,-2.115206421121897107e-01,-3.772497938257710071e-02,5.294218138220570518e-05,-1.783234810353775479e-03,6.336148727486544655e-06,1.740227192640304565e-01
-3.577061448747148598e-02,-2.120804940552084850e-01,-4.071026230705317162e-02,1.664801488813516831e-04,-1.152579164573478039e-03,-1.092693994630060004e-03,1.739146858453750610e-01
-3.831167596490848287e-02,-2.130317300720099283e-01,-4.125068485457159678e-02,-2.068557148441147939e-04,-9.138679226472050127e-04,-2.026897306778837953e-04,1.732771992683410645e-01
-3.731710039265422746e-02,-2.132138077264857379e-01,-3.791757806972840400e-02,-3.359613480905910372e-04,-4.556275317425045814e-04,-1.576926007702571578e-05,1.755999773740768433e-01
-3.695559405437696260e-02,-2.124423979014428976e-01,-3.983235365485988944e-02,1.863064000366155290e-04,-5.884006053980220686e-04,-5.725077334076519777e-04,1.740723550319671631e-01
-4.210402574105434614e-02,-2.102418081783333781e-01,-4.196778119366142978e-02,-2.576944597610215069e-04,1.415841012269912448e-03,5.726683089541541706e-04,1.682273447513580322e-01
-4.027078738839572070e-02,-2.145864660725447237e-01,-4.332785608080624157e-02,2.210355435040913560e-04,8.966175235931751622e-04,7.083071997442196791e-04,1.728191822767257690e-01
-2.851553216588816053e-02,-2.058167260095148388e-01,-4.285538199714371971e-02,5.580377604877189649e-04,1.430199551557065048e-03,7.649253643434909909e-04,1.706097871065139771e-01
-4.906191853905697564e-02,-2.149888366889967373e-01,-4.589333335006803849e-02,-9.165381043425523382e-04,-4.760174611534762654e-04,8.899992225031949471e-04,1.675503253936767578e-01
-3.028991660476036685e-02,-2.064154036809411064e-01,-4.130645483236613374e-02,-3.077240782851967896e-04,9.017952977968491865e-04,5.955851393447754482e-04,1.708948463201522827e-01
-2.885843998433428037e-02,-2.037720193310965655e-01,-4.361020541536925893e-02,2.574083252954487665e-04,2.014199857857718393e-03,8.778215865319296705e-05,1.680609583854675293e-01
-4.379654258493252683e-02,-2.387059932515015748e-01,-4.086181822507711781e-02,-2.017899814909849751e-02,-7.484520446994042189e-03,9.202261557939513809e-03,2.005342543125152588e-01
-3.471912438662787953e-02,-2.095549678569887386e-01,-4.161049612759097627e-02,-6.084788101165796380e-05,5.303673263448570319e-03,1.769679264790720514e-04,1.717402040958404541e-01
-4.592247293007272607e-02,-2.200959530242781736e-01,-5.476227282818688785e-02,-1.755142764881381656e-03,2.473297219402802519e-03,3.427774666761134771e-03,1.701109260320663452e-01
-3.507926796383646628e-02,-2.147547205108420454e-01,-4.359214402057051685e-02,1.855555310751925112e-04,1.046303340991813942e-03,-2.307107713462451417e-04,1.755839735269546509e-01
-4.996044918212393798e-02,-2.333049128450127019e-01,-4.587327143134899143e-02,-5.122790257873972505e-03,-2.248142611852299577e-03,7.717284962457147436e-03,1.861553639173507690e-01
-3.931757267564945507e-02,-2.154455854613374077e-01,-4.111748231782363927e-02,-3.442982866289650179e-04,3.798825070661615805e-04,3.484980049649679269e-04,1.752382814884185791e-01
-5.886613347336737412e-02,-2.889708396108090493e-01,-5.436466482265064903e-02,-7.376162298922461780e-03,9.010028272770488709e-04,2.920172339186888691e-02,2.381766736507415771e-01
-4.533744762022230701e-02,-2.215075634653889125e-01,-5.841807487137123250e-02,1.978492996921009113e-04,1.469723799653311052e-04,2.561195101006520040e-03,1.700660437345504761e-01
-4.472546554111032913e-02,-2.213440282614740351e-01,-5.997004714018158017e-02,1.215124957989959214e-03,7.216681204822508744e-04,1.888949645883783316e-03,1.695604175329208374e-01
-4.392726462637155244e-02,-2.161104265884212228e-01,-5.675693498070335380e-02,1.293648229115095276e-04,-2.437272621705958807e-05,-1.085792593295934871e-03,1.661510616540908813e-01
-4.531580537234815298e-02,-2.178437394763688140e-01,-5.338670810099729186e-02,-6.067264723518431095e-04,-1.918245546739510499e-03,7.381362821725753667e-04,1.686782389879226685e-01
-3.669858584571605159e-02,-2.105847202835600673e-01,-3.645989260232878476e-02,1.363899829583063283e-04,1.252281945243283547e-04,1.428416697199132851e-04,1.740060746669769287e-01
-4.418740375455175451e-02,-2.275388652924041355e-01,-5.398724688752489648e-02,-4.989395012899114785e-05,2.130576021967812463e-03,1.974818125026901738e-03,1.787241101264953613e-01
-3.515508957126584760e-02,-2.098926125128894316e-01,-3.833892537516637999e-02,7.696060178078502909e-04,8.379556758729942182e-04,2.867583665106099690e-04,1.731794774532318115e-01
-5.048835905775538729e-02,-1.354432607313011128e-01,-5.331336172299602771e-02,8.229302675989973170e-03,-7.775696683592634231e-03,-6.988841469377563009e-02,1.484016180038452148e-01
-3.397543695289988175e-02,-1.367060079301898878e-01,-5.896392342814187060e-02,3.035980785105995422e-02,-5.570988687537705396e-03,-2.841341194887457566e-03,1.072072461247444153e-01
-4.172484015995663043e-02,-1.305870219726384673e-01,-3.466566187163155899e-02,7.188895843472452307e-03,-5.210658282862600486e-03,-1.732519283221383224e-02,9.854234755039215088e-02
-3.539291549631485428e-02,-2.100490503648514695e-01,-3.619082760352439893e-02,7.680106158548933822e-05,3.236256518180738733e-04,6.547175259255712372e-06,1.742594987154006958e-01
-3.353799432882694637e-02,-1.737775221252116364e-01,-5.000868842429539995e-02,1.756698787588014234e-03,2.661297488648502706e-03,6.839290670761562652e-04,1.328927278518676758e-01
-5.722959209484745902e-02,-1.568976792068979553e-01,-3.906224962902099529e-02,-3.056509179393602626e-03,-1.344992965581488613e-03,-1.633955170945951968e-02,1.136172562837600708e-01
-4.472667636890080567e-02,-1.154805811892895412e-01,-5.292190193111783597e-02,1.486778411201135353e-02,-4.036398432698805674e-03,-7.014783229880811564e-03,7.316477596759796143e-02
-4.033361151592609883e-02,-2.058681481344672715e-01,-4.056788826174798079e-02,-2.681498983303376698e-03,-6.568043046891662400e-03,1.747864834789649314e-03,1.659009009599685669e-01
-3.925108782308473626e-02,-2.155495822354262514e-01,-4.052088228297194561e-02,2.041458998947366947e-04,1.096439511066004020e-03,4.199957691623011180e-04,1.756791621446609497e-01
-4.566085438050059703e-02,-1.008629397768079639e-01,-5.575131495035424989e-02,3.479338138242552003e-02,1.508197251974606294e-04,1.828264820524798297e-03,7.895509898662567139e-02
-4.562833653133065853e-02,-1.307135159935391699e-01,-3.626337533933540747e-02,9.742404021773707484e-03,-7.115379589477555979e-03,-1.679659066252041366e-02,9.698976576328277588e-02
-4.027806922538902656e-02,-2.151776146231060005e-01,-3.950691895592846337e-02,-2.209717504558015823e-05,1.947924000406150340e-03,3.051952220173661558e-05,1.753188669681549072e-01
-4.193889716163604758e-02,-2.148519276626290053e-01,-3.943533662418673841e-02,5.438465841582070057e-04,1.963079719270217991e-03,4.333492063637733199e-04,1.742156594991683960e-01
-3.728334400865705722e-02,-2.101884829972670565e-01,-3.953838987274861660e-02,2.024550167714193351e-04,6.312208938007801782e-04,4.039642161122768203e-04,1.717939823865890503e-01
-4.059704584036893243e-02,-2.148607777675438923e-01,-4.027584881406909290e-02,5.152623102291113352e-04,1.543036104209242055e-04,6.548599891676709899e-04,1.744307279586791992e-01
-4.021632176054573682e-02,-2.160456858513149503e-01,-4.085158771669717553e-02,6.548373657330745681e-05,3.544536352168341730e-04,-1.287651145809126608e-04,1.755138486623764038e-01
-3.999203162308113957e-02,-2.158004665315078896e-01,-3.999000551738530335e-02,5.093465892873478125e-05,-1.025250738553471646e-08,-3.082843599354717591e-04,1.758102774620056152e-01
-4.022813537296811986e-02,-2.150367799488556719e-01,-4.158815969378285016e-02,3.350477387272517800e-04,3.077502441912230956e-04,5.430346177743737221e-04,1.741369366645812988e-01
-3.849243551579161621e-02,-1.988358360357297960e-01,-4.351504967610793362e-02,-1.467146667831745709e-02,-5.652221091431768214e-03,1.187909324598051576e-02,1.615389287471771240e-01
-4.761455626659625434e-02,-2.101285499643620325e-01,-3.270427836085820772e-02,-1.295140341190771996e-03,-3.126742322027612864e-04,3.726781892250409598e-03,1.705967038869857788e-01
-3.856680473872496628e-02,-2.016250060952420875e-01,-3.759725661048920337e-02,-8.638902004066174867e-03,-5.905040550929888804e-03,6.956666210617992903e-03,1.649869531393051147e-01
-3.131948865764311307e-02,-2.051423866024410514e-01,-4.565888786370730229e-02,2.221316098810344544e-03,-3.096640515298369409e-03,-8.865733468499991179e-04,1.672526001930236816e-01
-4.559617706238368318e-02,-2.096211831509849355e-01,-4.460456386187484218e-02,2.739945882190513815e-04,-2.585867140472726923e-04,2.658032086280564567e-04,1.645249873399734497e-01
-3.226346560811756831e-02,-2.078843581190575329e-01,-4.104842948079470005e-02,2.184221312746472896e-03,-4.062498263767816940e-03,-1.084459992545373005e-03,1.715937107801437378e-01
-3.389169202442626760e-02,-2.087329875052449379e-01,-4.088391949916286849e-02,2.486225105784007857e-04,-2.025194666604911153e-03,-2.718414217098579942e-04,1.714892089366912842e-01
-3.209433954592150195e-02,-2.085300188941820454e-01,-4.324969805306067006e-02,-2.706305456140656492e-04,-7.920369490119239268e-04,-6.823532899559443636e-04,1.711411327123641968e-01
-4.248816802701944895e-02,-2.094133540463051224e-01,-4.302601355682222906e-02,-1.573297040474787994e-02,-1.711174429415269821e-03,-8.371810577544065018e-04,1.689023226499557495e-01
-5.569198586056490347e-02,-2.227201455364458405e-01,-4.242199794630339971e-02,2.308325355124446303e-03,-2.184460490008306548e-03,1.241203583960974379e-03,1.741432845592498779e-01
-4.686330527564999682e-02,-2.117556865251336018e-01,-4.651018107267321927e-02,1.105534626507047227e-03,-3.263470962630524315e-04,7.419499549686490742e-04,1.650862991809844971e-01
-4.446819565795039064e-02,-2.462377915211023671e-01,-4.373957292226633708e-02,-2.943917283459786954e-02,4.268659261477419746e-03,-9.525031740347127129e-03,2.092494964599609375e-01
-4.960330691174563711e-02,-2.097448188650346546e-01,-4.716141263026522173e-02,-5.199358575150991320e-05,-8.686929785311124858e-04,5.554160131936399566e-04,1.613862216472625732e-01
-4.645980222629260414e-02,-2.087461984755686339e-01,-2.754675018611735249e-02,-2.671935392991535538e-04,8.435575135678316950e-04,4.725539769414505153e-03,1.727230399847030640e-01
-4.908759440332537138e-02,-2.639280332678108909e-01,-4.959248959578833882e-02,-2.346298504471498042e-02,2.569237493020036078e-03,4.184394154231303210e-03,2.185682058334350586e-01
-3.128404266623469043e-02,-2.068466702331263063e-01,-4.688051291536138310e-02,-1.129941332618096886e-03,2.380957773036273400e-03,-4.215877600348714787e-04,1.683707237243652344e-01
-4.249882900750222292e-02,-2.139642171448219443e-01,-4.558925326928614519e-02,-2.465925163476660482e-03,8.009043301906811812e-04,-7.820675881933197935e-04,1.700059771537780762e-01
-4.146081053647044518e-02,-2.104674225926019826e-01,-4.035315655673038515e-02,4.896202622592836035e-05,6.733532092436581148e-04,-1.365311880663869107e-04,1.695673465728759766e-01
-4.314941214683649939e-02,-2.239571741487252909e-01,-4.164608198576290332e-02,-2.393541998342026134e-02,2.491845716610105801e-03,-5.188552607896645269e-03,1.865036785602569580e-01
-4.454749809539306632e-02,-2.122799391300717875e-01,-4.340234519457764062e-02,2.806666601981414890e-04,1.329258561730787148e-04,1.085550162479184417e-03,1.683192998170852661e-01
-4.884754736124034130e-02,-2.220759490775187639e-01,-5.061763326913092109e-02,4.297841017187519798e-03,-3.062130829381907050e-03,-3.194934429653168047e-03,1.726810634136199951e-01
-5.897241727862590627e-02,-1.813253153105534865e-01,-3.767549865040487056e-02,1.260333430486768394e-03,5.108202207329845350e-05,-1.762719067685263909e-03,1.343265622854232788e-01
-5.280545026196092201e-02,-2.344843812375968506e-01,-5.235854410054040231e-02,2.671732118763927959e-03,-3.801747125679152701e-03,-8.720740402318126125e-03,1.827061921358108521e-01
-3.591984970468944244e-02,-2.116287109837390046e-01,-4.399365260815526341e-02,-9.377919008781888813e-04,3.693098496554882842e-03,-6.005148725466659052e-04,1.719441413879394531e-01
-4.820752967596590721e-02,-2.093491733123809539e-01,-4.726289352199355975e-02,2.751613531671892360e-04,-3.422647710824639400e-04,3.320213343372295576e-04,1.616188436746597290e-01
-2.847976036133845895e-02,-1.973561323066241602e-01,-4.336505338978195040e-02,4.395929972817675183e-03,4.420447348495285672e-03,1.629143714910402359e-03,1.623317003250122070e-01
-3.893843424186490404e-02,-2.151689222495747900e-01,-3.942597295999306084e-02,-1.202421316095850516e-04,1.989512102675035712e-03,1.822428776645197224e-04,1.760213673114776611e-01
-4.185980658033117835e-02,-2.148611055607178577e-01,-3.946949861408999977e-02,4.483828243779020874e-04,2.254376131733372359e-04,1.640985539158324007e-06,1.742109209299087524e-01
-3.173788600030170992e-02,-2.119583708150811485e-01,-4.426694803038503517e-02,-1.187886252461249799e-03,2.714509920069193075e-03,1.737863961357393567e-04,1.743698269128799438e-01
-4.349942884536751181e-02,-2.115253146703518494e-01,-3.668140418760451604e-02,4.170721438624301006e-04,9.562305027135019819e-04,3.580680545267364828e-03,1.716581434011459351e-01
-3.657693441187292310e-02,-2.132823837217316387e-01,-4.356945473163589821e-02,-8.294833651014525428e-04,6.619234443829044145e-04,2.134551422359248155e-04,1.733251512050628662e-01
-3.702512326280713029e-02,-2.148461803995702080e-01,-4.206532543196252194e-02,-1.996157109298884915e-04,1.220348572849555340e-03,1.595385081658666211e-04,1.753685921430587769e-01
-2.786421171944832020e-02,-2.037161236931834263e-01,-4.822057181214355059e-02,1.052506240538417237e-03,-1.008448531310483136e-03,-3.617847271630803777e-04,1.666293442249298096e-01
-4.000085088637632402e-02,-2.154863522796143793e-01,-3.994127693596954964e-02,6.914229403711093995e-05,3.643037641894662760e-04,3.381396545057362797e-04,1.755174547433853149e-01
-2.927614067603749592e-02,-2.054294496331481867e-01,-4.580303143298362911e-02,9.395186363890485268e-03,-3.025105662309801775e-03,-2.155303330413568808e-03,1.694050133228302002e-01
-3.860235597899289162e-02,-2.155713002760226704e-01,-4.172509088289096113e-02,8.708354194811014724e-05,6.109893674369046204e-04,1.511943100566685481e-04,1.754318773746490479e-01
-2.486422036754962206e-02,-1.994871324036175952e-01,-4.874803634426679022e-02,1.660227783695223096e-03,-6.958928571863356224e-04,8.943250339939808752e-05,1.640203744173049927e-01
-2.716814873807980868e-02,-2.031341824945504526e-01,-4.632189806835723678e-02,2.277387462954571021e-03,-2.866240406271884991e-03,-1.005818090693859444e-03,1.673431843519210815e-01
-2.587603314320256753e-02,-2.054718999162699622e-01,-4.945771044159708030e-02,2.093246555923501673e-03,-6.572353469924013293e-04,-4.624362252251254849e-04,1.690877974033355713e-01
-2.934128541624876629e-02,-2.087055151025435096e-01,-4.688246097665252354e-02,1.942668451306368458e-04,1.463186636259701827e-03,1.699979415149605375e-05,1.712877601385116577e-01
-2.772918971896236318e-02,-2.076674946857072768e-01,-4.663734060135341086e-02,3.168992435305249995e-04,-1.292944178168516263e-03,-9.549009313897253905e-04,1.712923347949981689e-01
-4.196068335844523739e-02,-1.887306702010141390e-01,-3.092496006361808436e-02,1.615846091087614874e-03,5.854706539377186464e-03,4.526185412367244795e-03,1.531504243612289429e-01
-4.032511003646727793e-02,-2.033510457221423817e-01,-3.477082853616338814e-02,6.669452259353805118e-03,4.530206750701916592e-03,7.483152996051930898e-03,1.669634729623794556e-01
-4.767601756022613047e-02,-2.009121634870896234e-01,-2.684347889585837754e-02,5.326493574342551019e-04,3.000949746678489589e-03,2.591592001226855624e-03,1.647896468639373779e-01
-4.761791660398634329e-02,-2.060287374423558360e-01,-2.671541810083873092e-02,5.433640083715267355e-04,3.127451128511918831e-03,8.541729711500477967e-03,1.705614179372787476e-01
-4.947781170175784976e-02,-1.950046275550419983e-01,-3.189798176779857358e-02,3.525423765735868561e-03,6.916588934808886105e-03,6.973415334296301747e-03,1.561157554388046265e-01
-4.498749172565603971e-02,-1.988830110699996156e-01,-2.663685538260295027e-02,3.535265893228496919e-04,3.450347430590336700e-03,3.003743788567260226e-03,1.640360206365585327e-01
-4.244028958939415064e-02,-1.836819115847510009e-01,-3.379956832905356423e-02,1.220649462203430777e-02,6.857938283774560329e-03,1.826312205095826507e-02,1.511059254407882690e-01
-4.734245407997041133e-02,-3.276000574858712877e-01,-5.949768960162585274e-02,-2.573517242151180870e-02,-4.784901668307481662e-03,-2.667534654299821839e-02,2.819145023822784424e-01
-3.864676360055425974e-02,-1.644188018044091815e-01,-4.633591012409210563e-02,1.990818414935868752e-02,9.427680780494961110e-03,9.216330627461440453e-03,1.289229243993759155e-01
-3.816337264286380482e-02,-2.047508389783379013e-01,-4.192212075634585422e-02,2.397516462733628034e-02,8.296514406630040028e-03,3.014081077520331178e-02,1.783134341239929199e-01
-2.442365211115893331e-02,-1.998825046289283147e-01,-4.887774188316292012e-02,3.853928868306912003e-03,6.859497448941375168e-04,-5.475108502011278916e-04,1.647422015666961670e-01
-3.395316995178856989e-02,-1.448643301059794886e-01,-3.808321587073977554e-02,5.093378162910319751e-02,2.032313166340192923e-03,4.426983140780890724e-02,1.597963422536849976e-01
-3.232288207125526280e-02,-2.058721149385504545e-01,-4.998464644933713064e-02,2.732369558259887046e-02,4.223980815179349813e-03,9.083533580880320812e-03,1.729361116886138916e-01
-4.800437091409635870e-02,-6.481712635926739630e-02,-4.762885232211033770e-02,6.696400574373137515e-03,6.357253039142866024e-04,2.208984543709773679e-02,4.345969110727310181e-02
-6.216197220131453038e-02,-1.237892412879673942e-01,-6.091746328002203836e-02,-5.288859000028983681e-03,-9.524947883701166034e-04,-1.585229317430667754e-03,6.301064789295196533e-02
-5.737179241252233358e-02,-1.006448233111674057e-01,-5.671494977139877186e-02,2.792851712009037073e-04,-1.051031338764620536e-03,6.653816383693993142e-03,4.514175653457641602e-02
-4.830365599954030559e-02,-2.095778536685529991e-01,-4.768503944070118239e-02,2.979912129504276369e-04,-2.657692149663361909e-04,1.243531975298988032e-04,1.615860164165496826e-01
-6.130959027990254967e-02,-1.150774874115150642e-01,-6.235939089070508673e-02,1.109232952818470317e-03,-1.759210389329812513e-03,-5.667163836787257776e-03,5.426757037639617920e-02
-4.178532597914963453e-02,-2.103216453442429412e-01,-3.977428703737447696e-02,-7.022091349489401163e-06,5.001467688617156461e-04,-4.226591383351156403e-04,1.695545762777328491e-01
-6.061605928257628173e-02,-1.076676721659882846e-01,-5.965273065294195154e-02,1.947598759337023852e-02,-3.199111615770537567e-03,-1.270658060351387113e-02,6.255497783422470093e-02
-5.468389546639561977e-02,-9.359215074112048338e-02,-5.675847076084387932e-02,5.001138048195956799e-04,-6.103672803456649826e-04,-5.936306608021546007e-03,3.930680826306343079e-02
-4.580399545287860280e-02,-2.093380411482061443e-01,-4.473715124801323773e-02,1.159782655547651010e-04,-4.159512832885067096e-04,4.799946898840904731e-04,1.640738844871520996e-01
-6.049488155517018795e-02,-1.185966998445139586e-01,-6.170447136886690609e-02,8.279478367268382211e-03,-7.157411358416920517e-04,1.140422465099218997e-03,5.931351333856582642e-02
-4.688480069420374735e-02,-2.102978633139170883e-01,-4.606761333474982539e-02,1.229417273132887248e-04,1.374656393352480822e-05,8.462436856830178470e-04,1.638298779726028442e-01
-3.091344951439405075e-02,-2.115726014825486112e-01,-4.598939772524771735e-02,-5.113132424085110178e-04,1.298455881783788790e-03,-5.172534349723596336e-04,1.736319363117218018e-01
-6.043755702233841870e-02,-1.206953904581879317e-01,-5.687415960305361451e-02,4.073382998364087973e-03,-2.023673016505454260e-03,6.615619009311145271e-03,6.365366280078887939e-02
-4.918511795993736613e-02,-1.912531785944392992e-01,-3.247702246596412268e-02,-4.174821454893842647e-03,-4.005916790446622210e-03,-5.514556073341445215e-04,1.514513939619064331e-01
-4.040166167464079305e-02,-2.075379503074817056e-01,-3.233355893372876627e-02,5.574118321304954299e-04,-3.574070067370324535e-03,-2.379277103191684752e-03,1.714769452810287476e-01
-4.451539599465948599e-02,-2.025549146868940165e-01,-3.094646114301325551e-02,6.327163006251555928e-04,-3.980483170300830667e-03,-5.394786493497194003e-03,1.656534820795059204e-01
-4.837445598394997381e-02,-2.088589256326764398e-01,-3.090037769754130914e-02,5.005129229176154271e-04,-3.534408346053219234e-03,-3.171379020777805469e-03,1.700979918241500854e-01
-4.074574271814092319e-02,-2.142926403534476110e-01,-3.657191727044851320e-02,4.680534750709221758e-04,1.373744608692026564e-03,-4.056381430246264357e-07,1.756889820098876953e-01
-3.995143499466304038e-02,-1.971181145588238870e-01,-3.715924040665637140e-02,1.641139815870861548e-04,-6.865550204598359733e-03,-1.515569284965648982e-03,1.590483635663986206e-01
-4.570722454829024423e-02,-2.082919950753985561e-01,-3.193351761027843350e-02,-1.390312513802991086e-04,-3.808206418702954430e-03,-3.183019156720647783e-03,1.701084226369857788e-01
-2.650781002280699905e-02,-2.026038655629367469e-01,-4.769670674772708008e-02,9.410179860752845155e-03,3.025512478316303832e-03,3.152417518137946850e-03,1.674826443195343018e-01
-3.899476258946116269e-02,-2.153441035577618179e-01,-3.891388472594877607e-02,4.404586642489371757e-04,7.193958690276413583e-04,1.268012038668611175e-04,1.763959825038909912e-01
-3.197686340896239987e-02,-2.107957910851914751e-01,-4.600238032902377594e-02,3.162232980063371885e-05,7.445947336013983850e-04,3.072951482751835992e-04,1.722406595945358276e-01
-3.221571732156765233e-02,-2.046199850858750890e-01,-4.287541214116775273e-02,3.683672331048127202e-04,3.334529017161311573e-03,-3.037516033684776844e-04,1.674309521913528442e-01
-3.585799057423454117e-02,-2.086365675393837549e-01,-3.572479766812423213e-02,8.003810738263214325e-04,1.987891929158344759e-03,4.016286958739660458e-04,1.728864610195159912e-01
-3.664373753554218960e-02,-2.040663287103019474e-01,-4.230132734118532967e-02,2.691366401458797786e-03,7.522308223409560936e-03,3.203249745276119057e-03,1.653402298688888550e-01
-4.494593623861901227e-02,-2.123806610428684849e-01,-4.612595496268807882e-02,1.794219390752819750e-04,6.278695249611698868e-04,1.918438725691656572e-04,1.668520122766494751e-01
-4.380606689599086945e-02,-2.136812778467963581e-01,-3.931616079062014851e-02,1.484547322874027768e-03,3.164011156252732535e-05,-1.298061962176400280e-03,1.721979677677154541e-01
-2.664950562447337967e-02,-2.045663268580720784e-01,-4.901487062743144912e-02,2.004029203646278279e-03,1.970518851141486380e-03,2.659482881644873982e-04,1.679265946149826050e-01
-2.631645881945460230e-02,-2.010109766300612888e-01,-4.500619302219038831e-02,1.259631826188360336e-03,1.311459658556905035e-03,6.282673948732876669e-04,1.661733686923980713e-01
-3.096744190125021168e-02,-2.053084506870086479e-01,-4.298159774610544465e-02,7.838468823349490711e-04,2.841629479920159632e-03,1.217040473788601630e-03,1.687456071376800537e-01
-4.197359150730493177e-02,-2.147851265807134424e-01,-4.344054597854231370e-02,2.453850982128271763e-04,7.304475004154247636e-04,-4.679421760068253522e-05,1.720879375934600830e-01
-3.964053589353125351e-02,-2.102830553658250334e-01,-3.725493657706727829e-02,2.877844783039539738e-04,4.200022308395915771e-04,1.953511653809020005e-04,1.718503385782241821e-01
-4.687819560675614283e-02,-2.185707102164251014e-01,-4.488506902263737774e-02,-2.883529805576080579e-04,6.650867786900571590e-04,-1.643737804974521651e-03,1.727257370948791504e-01
-5.153597544193968399e-02,-2.158217197853000702e-01,-4.586984277437041596e-02,-2.390901033261195845e-03,-4.431120677717570195e-04,-5.158752791357926627e-04,1.672462671995162964e-01
-5.645538696682148722e-02,-2.373410508636592808e-01,-4.626106610463878721e-02,-1.461665744625428604e-03,-2.135624909627117419e-04,-6.693394714485844700e-03,1.865703761577606201e-01
-4.061136891375049379e-02,-2.157944505322231254e-01,-3.931386214355687275e-02,-9.924448906768603502e-05,5.483048952809931129e-04,1.882917773484282927e-04,1.758383810520172119e-01
-5.537686843632992628e-02,-2.218126744541632778e-01,-4.562464969409309179e-02,8.706532766676863605e-04,-1.746428460412101792e-04,-1.074395772021310286e-03,1.715369671583175659e-01
-5.683242248972999316e-02,-2.178283926701873319e-01,-4.512864686853478718e-02,1.113588452236864701e-03,1.584663120610424036e-03,1.009385689765704202e-03,1.671982407569885254e-01
-5.676485932342723029e-02,-2.204090220874399542e-01,-4.523123568750253565e-02,4.047817743127468410e-05,1.552535933826657564e-04,-4.727274769995985949e-05,1.697054207324981689e-01
-3.862138116706483049e-02,-2.096453476028530827e-01,-3.527012561327950990e-02,6.104836594349523794e-04,-1.050523609148327521e-03,-3.510787710120363359e-04,1.727378666400909424e-01
-5.213909136145624540e-02,-2.155649970136500060e-01,-4.484935694866531292e-02,-1.537514806569555094e-03,3.285377231747011254e-03,-3.429577742167589163e-03,1.674134284257888794e-01
-4.416563285978239439e-02,-1.802105022152244995e-01,-3.924413048334820381e-02,-6.315380848610266905e-03,-8.167495427102855129e-03,8.853304301549142635e-03,1.405592113733291626e-01
-4.680465397212629081e-02,-1.454409761085795338e-01,-3.757097273729667619e-02,1.186667740437994962e-03,-8.236268266488459919e-04,5.570351605854149263e-02,1.415629386901855469e-01
-3.627769748218642731e-02,-2.119180539424666554e-01,-4.315315445311840997e-02,-3.382523958969188040e-03,-3.850243546291121869e-03,-4.258135781577827546e-04,1.725356280803680420e-01
-4.955331491144850109e-02,-1.984896224296126555e-01,-2.456101860245130108e-02,-3.362259545143204487e-04,2.691004926768055840e-04,3.910964074390106010e-04,1.628800630569458008e-01
-4.910692726489168658e-02,-1.643975255113299672e-01,-2.724973219632473992e-02,-1.057406341234920499e-02,-6.211860911287681204e-03,1.261194204031122930e-02,1.312172412872314453e-01
-3.884974230974618664e-02,-2.105361496970028223e-01,-4.198342908388641437e-02,4.553800489412932048e-04,1.203018706933160428e-04,-2.845977660053518538e-04,1.701438724994659424e-01
-5.198240104916362903e-02,-1.280942327844195039e-01,-3.741571757662005837e-02,6.281428354659493105e-03,4.618680624738507462e-03,2.836043986300456482e-02,9.853529930114746094e-02
-4.561847863196392960e-02,-2.035277660592717530e-01,-4.809454337377096211e-02,-8.839269550367359618e-03,-3.849844692051606829e-03,8.340177329879037982e-03,1.582340598106384277e-01
-5.135916292816291445e-02,-1.183250457547822959e-01,-4.642457373797328340e-02,3.059238796756031525e-03,1.103705510644769922e-03,1.259225274737365251e-02,7.312082499265670776e-02
-4.486524215725902487e-02,-2.098008680131382697e-01,-4.437814336741196380e-02,-3.996578824814020123e-04,1.956047029897533163e-04,-2.659602211355307664e-04,1.651821583509445190e-01
-4.548034944064799356e-02,-2.068918705898922794e-01,-2.877287991262143796e-02,-4.026496620773829761e-04,-2.482652486831276369e-03,2.284485105354302700e-03,1.704823523759841919e-01
-3.822579303760446218e-02,-2.104468699475422477e-01,-3.707195532016068634e-02,-4.516259392247485801e-04,-2.426270442725419595e-03,-1.889333890433468968e-04,1.728540509939193726e-01
-4.476610942677160254e-02,-2.194765904968464243e-01,-4.539498677983685310e-02,-1.526405737303962885e-03,-4.950506966338230272e-03,8.086897669338949726e-03,1.751884222030639648e-01
-3.643349685366932544e-02,-2.203135404832781141e-01,-4.784088142687477341e-02,1.703334150642272712e-02,-1.210045521890560152e-03,-3.748060682178112717e-03,1.810009628534317017e-01
-4.574041138483453395e-02,-2.026163399658524045e-01,-2.579011814270971981e-02,-1.376867522960612033e-04,1.875048357020290754e-03,9.427635367877997561e-04,1.677827835083007812e-01
-4.190456009732014542e-02,-2.099859937058185244e-01,-4.099888593037781526e-02,7.241305322490070961e-05,4.546157345709490004e-04,4.353873285434200330e-04,1.685396730899810791e-01
-4.134536192174756430e-02,-1.950594415886957866e-01,-4.038028633098334624e-02,-5.134369500411197027e-04,-7.140072295901488120e-03,5.851532477508139062e-06,1.546965688467025757e-01
-5.121134241190338637e-02,-1.971493438688869948e-01,-3.254913521275849819e-02,-4.902440074173874821e-04,-4.989514244968044562e-03,5.856548626728469084e-04,1.563526093959808350e-01
-3.250128063095206188e-02,-1.647208074232869301e-01,-5.040515388543959779e-02,4.990562274393888637e-02,4.364464064804859369e-04,-3.678026327454758659e-02,1.642131507396697998e-01
-3.827060274040673671e-02,-2.120378504346175919e-01,-3.557354878659373804e-02,4.069631596915789570e-04,-1.424302857036983602e-03,-3.645480138607737688e-04,1.751512885093688965e-01
-3.137617412534192407e-02,-2.076385937714398944e-01,-4.580697943843972664e-02,1.504606180345831280e-03,-6.589029948693272748e-04,-5.457485631093657568e-04,1.695348620414733887e-01
-2.795300286634570808e-02,-2.088126308653602270e-01,-4.817361261017169549e-02,-1.148973176760375615e-03,-2.995476970491063118e-04,-1.958914293712932795e-04,1.716575920581817627e-01
-3.143653560677345249e-02,-2.100913595237734743e-01,-4.347009180157342112e-02,5.623560484868140317e-04,-9.865620859758721106e-04,-1.237725770224469557e-03,1.729767769575119019e-01
-4.044387239941608231e-02,-2.066281362273605926e-01,-3.323159055767941489e-02,-1.327281383492940128e-03,-2.236234455426149188e-03,1.486268674157354948e-03,1.699844300746917725e-01
-3.873488449370549036e-02,-2.124420466958494291e-01,-4.441525270890564481e-02,-2.309539894676996110e-04,-2.766207554883159947e-04,-1.322757820803406505e-03,1.709542721509933472e-01
-3.238816402641089831e-02,-2.085180665196492145e-01,-4.727670171533127769e-02,2.614532551576619762e-02,-5.352021526851072526e-03,-9.045140137939285119e-03,1.760772615671157837e-01
-4.492407292237352023e-02,-2.717550529909823487e-01,-5.675404693268074063e-02,-5.242045924975798077e-02,-5.028314291826395388e-03,-2.214768754098674769e-02,2.422807514667510986e-01
-3.172085845236923690e-02,-1.886960492512952947e-01,-4.175314377247322378e-02,2.015409465863548036e-02,8.149975209356504630e-03,1.563885178581445740e-02,1.591181606054306030e-01
-3.803693316843479583e-02,-1.252095797906123131e-01,-4.867258264740600970e-02,6.364581779302941333e-02,4.165441444228916434e-03,2.140433236233766669e-03,1.378521621227264404e-01
-3.080345255099161544e-02,-2.000775714833187280e-01,-4.469490411434121763e-02,7.321337152980982727e-03,-5.118880040752538628e-03,-2.217872651795763268e-03,1.635524630546569824e-01
-4.578804993598763196e-02,-1.657316690755830935e-01,-4.318383523457827722e-02,6.571409439574862899e-02,-2.870930234584131470e-03,2.778641108622467021e-02,1.732097566127777100e-01
-2.700237109451184003e-02,-1.943507541644113323e-01,-4.836251775045809220e-02,8.663044987197700275e-03,-6.577596623552865599e-04,2.291728398603571845e-03,1.585223972797393799e-01
-4.856727456034224538e-02,-2.033415450412334180e-01,-2.952474596566649623e-02,1.223287429475697253e-05,-2.327218362878513518e-03,1.733655181382038420e-05,1.651703268289566040e-01
-3.735705981471988679e-02,-2.121046231041449071e-01,-3.883265113639362137e-02,-6.954966709520026805e-05,-1.297113155556708594e-04,-3.114650529376100522e-04,1.740154772996902466e-01
-4.448322247638467758e-02,-2.133546256159857823e-01,-4.578932793187386052e-02,1.817815037286737902e-03,2.355476355238614889e-05,-1.762685879350355065e-03,1.682793200016021729e-01
-3.856304272529194332e-02,-2.104027029204166288e-01,-3.779768761197221244e-02,-6.700731289894204697e-04,-1.743522134231290967e-03,7.235549008128972078e-04,1.722585558891296387e-01
-3.962025218797193132e-02,-2.100184906753347347e-01,-3.772980747575468280e-02,2.131183439672238323e-04,-9.643183598463501245e-04,-3.070580300080084208e-04,1.713606417179107666e-01
-3.975701700089797480e-02,-2.124880846166536386e-01,-3.588036184859593608e-02,-6.580333273276632719e-04,-1.091425692228136391e-03,-5.046859313011606979e-04,1.747177839279174805e-01
-5.149605385265656338e-02,-1.784358060641756394e-01,-3.649679300560992878e-02,-5.951077699331789456e-04,-6.223079472000146717e-03,1.168493085200732803e-03,1.355139166116714478e-01
-2.998469400549622077e-02,-2.114785568204398114e-01,-4.684247943444203727e-02,-2.546511175632012406e-03,-7.974478312245632033e-04,-2.805394029601418222e-04,1.737418174743652344e-01
-3.675892708844571977e-02,-2.123793607910456904e-01,-3.854385976646872852e-02,-5.015757037237987515e-05,-2.420194231406563265e-09,7.376781991383178898e-05,1.747348755598068237e-01
-3.946408085635683127e-02,-2.106271754864777190e-01,-3.721192537364628045e-02,-1.000062135624263469e-03,-3.239654922770384641e-03,2.824796925784878090e-04,1.724009513854980469e-01
-4.078025413873306859e-02,-2.080878363548612220e-01,-3.360968657028817752e-02,8.745364696127320059e-05,-1.948140167847994082e-03,-9.623602611489493299e-05,1.710390895605087280e-01
-3.836171232583928531e-02,-2.098037523175879659e-01,-3.731261859906245121e-02,-5.615895549300608668e-05,-2.439692759933889503e-03,1.086595803477541377e-04,1.720210313796997070e-01
-3.354373525887303920e-02,-1.536187099087238939e-01,-4.968004729357744509e-02,2.715456926586671399e-02,8.710270238991603409e-03,1.918655001240788388e-02,1.276123076677322388e-01
-2.871879015077549724e-02,-2.065952973292119466e-01,-4.299566970287214268e-02,7.516130266905087865e-04,1.496554661745214164e-03,6.391939929649148588e-04,1.712133139371871948e-01
-2.505068872094602661e-02,-1.929072971325639929e-01,-4.501413240030260193e-02,6.367961005058697492e-03,2.927480105089055179e-03,1.478362516301684340e-03,1.593025475740432739e-01
-4.489814185940248920e-02,-2.143133413972910239e-01,-4.479035089416846110e-02,-2.291082043450581515e-03,-3.959483648556590021e-04,6.490496658875693266e-04,1.695206910371780396e-01
-4.975564652964745149e-02,-2.089093895214794716e-01,-2.795713468083731168e-02,-4.658904372714798214e-04,4.314941912256283759e-05,-9.698650439933923558e-04,1.711078137159347534e-01
-4.887785750440988564e-02,-1.957106818827378247e-01,-2.403162650156115410e-02,2.045023048445864379e-04,7.571059718769766788e-04,9.402555931286368926e-04,1.607169955968856812e-01
-5.260585529530781290e-02,-2.101321752987008740e-01,-2.938215960083503941e-02,-6.423690010458281939e-04,8.258746562188855334e-04,-3.336026792228575025e-03,1.704373657703399658e-01
-4.715925741748254463e-02,-2.021649087850671545e-01,-2.552954704882201553e-02,-1.003010482368235667e-04,-4.634451864585499808e-04,-6.317421691358962848e-04,1.668807864189147949e-01
-4.651775583341252046e-02,-2.149320341783995114e-01,-4.674705314284435809e-02,-1.332602058273489338e-03,3.687881330804279102e-04,-2.228544869036899571e-03,1.683610379695892334e-01
-4.786364929166564419e-02,-2.107858765478979879e-01,-2.993551302218072641e-02,-4.930702690965043777e-04,1.255158921378091803e-03,-6.996426750595851566e-04,1.726061552762985229e-01
-4.128164420016957464e-02,-2.106021536380891512e-01,-3.475046052573359939e-02,-7.162201811793016473e-04,-3.184168160516886049e-03,3.008477314510296565e-03,1.728498339653015137e-01
-4.768399363246795392e-02,-8.212307080324135478e-02,-2.705348850238998085e-02,2.011465984064971305e-02,-4.520349608644203508e-03,3.623898924843417524e-02,8.681622147560119629e-02
-4.766538457040726817e-02,-2.085896995614103244e-01,-2.864244118601023958e-02,-3.973915534410983196e-04,4.076334956255662687e-04,-3.646191702043044807e-04,1.712341457605361938e-01
-3.474732697782518392e-02,-2.119325538825527488e-01,-4.239194143087603867e-02,-3.440531302414385996e-04,-2.054919824483986395e-03,-5.695857768639956071e-04,1.735296249389648438e-01
-4.942446009002077895e-02,-1.982443497466383486e-01,-2.545274564585868482e-02,3.954651348888023397e-04,-4.684550262490003690e-04,8.854059961956340383e-04,1.621510088443756104e-01
-4.045726251992878136e-02,-2.113349802515293585e-01,-3.722882227654514264e-02,-1.136389195263962787e-03,-3.438626322993147168e-03,7.137354211605813001e-04,1.726330220699310303e-01
-3.341368268246802664e-02,-2.036483126397810040e-01,-3.902376561117508469e-02,-9.379738110026142805e-04,-3.506847900502080458e-03,3.759380894698697499e-04,1.676193028688430786e-01
-3.613870210950699546e-02,-2.083404730748242284e-01,-4.020107410666841352e-02,-4.106334158957541253e-04,-4.249183812425769147e-03,5.094837517618661105e-04,1.703697592020034790e-01
-3.662082146893046869e-02,-2.112676262790325610e-01,-3.928085315998397498e-02,-1.150510688353546243e-03,-2.262760235124379113e-03,3.313196654957805028e-04,1.733888089656829834e-01
-4.640597975652046431e-02,-2.068534806501662326e-01,-2.766114605989074271e-02,-8.696186428799166810e-04,-3.833896098660192694e-04,1.540518686624947706e-03,1.706228554248809814e-01
-3.843052881788249636e-02,-2.119485931981525129e-01,-4.279123226967775084e-02,-2.520016247632408859e-04,-7.551633336077851616e-04,-6.501018787587276113e-04,1.713885664939880371e-01
-4.288491946362960050e-02,-1.973454929408143543e-01,-4.898166431184364233e-02,-2.531401057147517411e-02,-8.693057645754523333e-03,1.195062271700961069e-02,1.597845107316970825e-01
-5.443347300818202061e-02,-2.799103966825686740e-01,-5.288768388861249392e-02,1.026982083306438726e-02,1.635629186262074763e-03,7.898264605335898053e-03,2.273815125226974487e-01
-4.767896948226196807e-02,-2.220817053364330107e-01,-5.154401601024501817e-02,1.775370771470133942e-03,-2.949144628293961026e-03,1.139166051807762991e-03,1.726169735193252563e-01
-4.874606379482356033e-02,-2.237674809043155855e-01,-5.296478161188408751e-02,2.778986365122903916e-03,-2.067858518507113656e-03,2.265566952393196370e-04,1.730551272630691528e-01
-4.675349268745136039e-02,-2.133760320744745864e-01,-4.757242805353071452e-02,-3.259593664463641526e-04,-8.971470530236904132e-04,2.072320409564795164e-03,1.662615537643432617e-01
-4.633997636291212197e-02,-2.176875266262798259e-01,-5.410714906572681310e-02,-1.366816399074983644e-03,-3.592155364015516168e-03,-6.007696929105493799e-04,1.677343845367431641e-01
-4.986063292269477670e-02,-2.200397248654959448e-01,-4.846301409834646856e-02,1.824772315303366862e-03,-2.309996789014725008e-03,-4.393798160001275983e-04,1.709599345922470093e-01
-4.845251159753182629e-02,-2.302860236235954594e-01,-5.351290231316723628e-02,-2.743971598099277133e-03,-4.288757248961246396e-03,3.279111404636044207e-03,1.796633303165435791e-01
-4.553645521757878484e-02,-2.127482472124982704e-01,-4.736908058181509007e-02,1.608535231289026039e-03,-1.031704206610510805e-04,2.056893934373333656e-03,1.663646399974822998e-01
-4.729489164459825534e-02,-2.481883433661013494e-01,-3.720368178152362593e-02,-5.554948458364929870e-03,-9.280701442371440619e-04,1.010195265421999847e-02,2.070955634117126465e-01
-4.512838097179044938e-02,-2.545385552363665926e-01,-5.993912977439785211e-02,-4.321521547872332614e-03,7.968011614586950229e-04,-7.234781716692720820e-03,2.029418945312500000e-01
-4.140541689008599147e-02,-2.382157012617354963e-01,-5.605980906313431239e-02,-1.941524040470304913e-02,-5.126325092969081072e-05,1.783990748140592284e-03,1.928867995738983154e-01
-5.545333856591164179e-02,-1.361354155039790625e-01,-4.110787632456237850e-02,1.510010946425694757e-03,2.587773607738823485e-03,2.926636060229573320e-03,8.902492374181747437e-02
-5.169500782491361079e-02,-2.430295525995632144e-01,-5.240833782925173601e-02,-1.287728691181246055e-02,-3.411541689396373027e-03,-4.559007033308330498e-04,1.923692971467971802e-01
-4.326962423403971081e-02,-2.478500476853456036e-01,-4.200092203517769018e-02,-6.315573958992050374e-03,-2.947506044119144446e-03,-5.148549684074145948e-03,2.057657837867736816e-01
-4.788750234539063122e-02,-1.972635639118249795e-01,-2.707273767920560792e-02,9.636746958068425663e-04,3.080509710297403732e-03,2.430255781089363416e-03,1.609492599964141846e-01
-6.381988082953338193e-02,-3.045428040583038065e-01,-4.694328925308077771e-02,-4.110755609574717750e-02,-6.477805400966821919e-03,2.602912796659266267e-02,2.636718750000000000e-01
-4.840952364211025677e-02,-2.003491353566283495e-01,-2.352495352760061720e-02,5.006746711295445140e-04,8.170680945434900116e-04,1.928781502079802068e-03,1.658304929733276367e-01
-4.758370640286399555e-02,-1.959540462283081430e-01,-2.789690700252593636e-02,4.526153485349591698e-05,4.523259436398897881e-03,1.327614209625772000e-03,1.593390703201293945e-01
-4.935431754162093732e-02,-2.427491889337062836e-01,-4.603663677558901546e-02,2.996653523765794246e-04,6.796474458071627986e-04,8.997579249682408770e-03,1.957006156444549561e-01
-4.625992448391995360e-02,-2.372282854402852914e-01,-4.359924135700325720e-02,-4.259194571542480011e-03,-1.303973255574628022e-03,1.093760131292281779e-02,1.933972984552383423e-01
-4.489606557020055233e-02,-2.726750652552597035e-02,-3.939248825276931570e-02,5.065666171655699990e-03,-8.122137075866179851e-04,1.511749938108301015e-02,3.175867721438407898e-02
-3.169101731720076059e-02,-2.042830819525454644e-01,-4.572862944014571829e-02,1.270703199983503045e-03,-3.847169644252989608e-03,-1.437039154950129531e-03,1.661858558654785156e-01
-5.079839904813873708e-02,-1.030513283364308669e-01,-4.345300478963477070e-02,-9.997980045245994513e-03,-6.029868199176574399e-03,1.841347615817174460e-02,6.778102368116378784e-02
-4.759141716343397860e-02,-4.546485404023965782e-02,-4.010318698342921900e-02,-1.696731030653483852e-02,-3.982927075611960091e-03,1.491647171338023742e-02,4.029187187552452087e-02
-4.261238124993910886e-02,-1.989454924829223148e-02,-4.313840886633320271e-02,-1.331132970893712797e-02,-2.866053173531077445e-03,8.269878789189421750e-03,3.591262549161911011e-02
-3.955078226366953720e-02,-2.045590617677777168e-01,-4.492535676334064032e-02,6.262229535393802615e-02,3.328893398081583625e-03,2.704474297029494431e-03,1.954216212034225464e-01
-2.802147295424878976e-02,-1.853642521691557243e-01,-5.256574933157456136e-02,1.135807745224003476e-02,-2.840527643036104018e-05,-3.505698768236547528e-03,1.480580866336822510e-01
-3.101311278090096435e-02,-1.903327182216620339e-01,-5.019471411428691465e-02,2.356868410178647802e-02,-3.430113275207162006e-03,-4.486394908803659383e-03,1.563866883516311646e-01
-2.422506851112843362e-02,-1.983448275959696916e-01,-4.923345008179446508e-02,8.500106004983833336e-04,1.125331924132607492e-03,-1.690558585429406454e-05,1.630785763263702393e-01
-3.360672502986319921e-02,-2.105602064103152538e-01,-5.034138136021019949e-02,9.107652739829960251e-04,7.388558408259007532e-05,-2.069259300627592586e-04,1.692157238721847534e-01
-3.996272935291304146e-02,-2.051748307845205899e-01,-2.839827947066547731e-02,-3.195948828903633066e-05,2.373827359070994521e-03,4.656939528648263642e-04,1.713386178016662598e-01
-3.162437837170284372e-02,-2.160744256595714952e-01,-4.679869466215715035e-02,1.286068599523833116e-02,-7.375094329244154083e-04,-3.132096344685814191e-03,1.788307279348373413e-01
-3.333613563278062242e-02,-2.124011757066688599e-01,-4.569513015082601881e-02,5.950061994632148540e-04,6.949394370248790625e-04,3.176915044894188184e-04,1.732246577739715576e-01
-3.579478517138292432e-02,-2.092376847387800998e-01,-4.706700075142258161e-02,1.136277933001537781e-03,-1.453121485544832132e-03,-2.079653737172980094e-03,1.681594401597976685e-01
-3.067416609145251494e-02,-1.934118336388254422e-01,-5.845464806882183506e-02,2.395128505306146766e-02,-3.021035749952270897e-03,-1.018804132671681864e-02,1.574615240097045898e-01
-3.344524857609487700e-02,-2.099405769052543891e-01,-4.769078917572169146e-02,1.320979181243747778e-03,-9.653379657409148404e-05,-1.160852531155447728e-03,1.698486655950546265e-01
-4.634561139575133631e-02,-2.154360212235699179e-01,-5.086164810980982331e-02,-4.607139580123508914e-04,-3.316718824378728713e-05,-2.210731878930460165e-03,1.669240742921829224e-01
-3.900244759528493504e-02,-2.087467958511199095e-01,-3.448241921848554242e-02,3.370644394457271865e-04,5.168182189385706667e-04,4.501236932803517193e-04,1.720539778470993042e-01
-4.431802836790458416e-02,-2.210349845760212206e-01,-5.170778921168511094e-02,-1.116004763108198759e-04,-4.163594569565319016e-04,-7.656280069287022851e-03,1.736491024494171143e-01
-4.131005852134352757e-02,-2.080622945362657628e-01,-3.187692057651261845e-02,-2.917823952943141876e-04,1.051325372739751914e-03,1.004361914624482544e-03,1.716825217008590698e-01
-4.929414876798603184e-02,-2.051974782120615792e-01,-5.204689952354844829e-02,3.629452313534607677e-02,4.633650128914377879e-04,6.126165871444177319e-02,1.977264732122421265e-01
-4.450899599528618245e-02,-2.347298320542595962e-01,-5.256433234769624513e-02,-6.485675321335772001e-03,5.161206076818873525e-04,-2.439543493082496628e-02,1.913869529962539673e-01
-4.154517752131413333e-02,-2.107496313195842963e-01,-3.759566393189741479e-02,-4.644151378325034178e-04,5.310066488503242365e-05,2.006384134981684033e-04,1.712156385183334351e-01
-3.961978715079195190e-02,-2.167381051244081924e-01,-5.205941869746771866e-02,-7.957919287692422766e-03,5.019278379491406652e-05,-3.924734765795439249e-03,1.719260364770889282e-01
-3.534187932883750549e-02,-2.074725598981396468e-01,-3.670554424748560807e-02,-1.756235032703056063e-04,2.710847858605537099e-03,4.347670257201613183e-04,1.715191155672073364e-01
-3.787105051722230997e-02,-2.091260853125701813e-01,-3.497484415189226759e-02,3.971272963043728777e-05,5.851132164176478610e-04,6.481637311530296080e-04,1.727279871702194214e-01
-3.872808409116516165e-02,-2.069213754057181998e-01,-3.184981049202723069e-02,2.182311786689957410e-05,1.222744120291362376e-03,-1.500357521281437247e-04,1.717490255832672119e-01
-4.595885038177657811e-02,-2.484983919615907366e-01,-5.540141915123331789e-02,-2.887012598086459696e-03,-2.650100802525506838e-03,8.269146812517304962e-03,1.986206024885177612e-01
-4.801119283877232358e-02,-2.541287391299190124e-01,-5.644898119562789807e-02,-4.198762853271961748e-03,4.773060721194409398e-04,5.764548087053397024e-03,2.024097889661788940e-01
-4.627796376921562704e-02,-2.218465182799770619e-01,-5.442581538485281173e-02,-9.591144274660127339e-04,-1.394517021733262608e-03,-1.610897086608679453e-03,1.716874390840530396e-01
-4.372735699642930907e-02,-2.099490992892464325e-01,-3.443960568199357086e-02,-9.199343614491088889e-04,3.806663975044077657e-03,-1.215537618834114635e-03,1.712022125720977783e-01
-4.286151185852504070e-02,-2.143931056716430472e-01,-3.901201271534350534e-02,1.895496475727982168e-03,2.476915250539553186e-03,-4.405606203470548089e-04,1.735741496086120605e-01
-3.472054943451782782e-02,-2.081388139670148907e-01,-3.800562721871322824e-02,-8.133580438683403035e-05,1.029684403899067732e-03,-1.974791745385881699e-04,1.718089431524276733e-01
-4.038467594082724432e-02,-2.134942281607323800e-01,-3.725969024887906128e-02,-1.478940152934063836e-04,3.249538923467002252e-03,-3.816854912410400221e-04,1.747850924730300903e-01
-4.487092674560452799e-02,-2.130688877892136790e-01,-3.373790851194646834e-02,-1.233487046374611850e-04,1.733475621556929570e-03,-3.029260753933326559e-04,1.740585714578628540e-01
-4.305179154355662924e-02,-2.131392053425094635e-01,-3.591664660452464214e-02,7.487955612182706569e-04,6.170625290259383264e-04,5.683428975001012570e-04,1.737758070230484009e-01
-4.679458693501920702e-02,-2.097827946441634672e-01,-4.749483786873279906e-02,5.138186690459784281e-04,1.491300161721103363e-05,2.673486183339465879e-04,1.626423150300979614e-01
-4.067695865815817990e-02,-2.471609997069721398e-01,-2.744347594409443647e-02,-4.663290802754523068e-03,1.121542265084599782e-03,-2.283890343140915907e-02,2.172030061483383179e-01
-3.615116190499954862e-02,-2.102557324758053126e-01,-3.559205967020850209e-02,7.339777790750599135e-05,1.893040843840519274e-09,3.937369409491499762e-05,1.743848472833633423e-01
-4.140629465306916446e-02,-2.324212185891411375e-01,-2.632560054728283472e-02,4.193750971800486865e-03,5.164740915202800826e-03,2.253117805277107810e-02,2.031022310256958008e-01
-3.356285360120238315e-02,-2.125912973049420285e-01,-4.476744240009467718e-02,-2.808337689162669474e-04,1.786550272387901327e-03,-1.179379458869870282e-04,1.737257540225982666e-01
-4.754008254933338173e-02,-2.455446858789432918e-01,-4.845506600405992403e-02,-4.976324688958865504e-04,9.903747425742538517e-04,5.740614289996533517e-03,1.978080868721008301e-01
-4.527275062337918210e-02,-2.154764437341634697e-01,-4.958316301257736231e-02,-9.994318801002689823e-04,-8.886635488280422701e-06,-5.989159668773154019e-04,1.681020557880401611e-01
-2.959128204596453079e-02,-8.825599930181241004e-02,-3.681085046416784912e-02,1.955458697866272605e-02,-6.429723693311175650e-04,3.818053994646154747e-02,9.269187599420547485e-02
-4.911624774819436240e-02,-2.285239248686354308e-01,-4.309794543041958748e-02,-4.980831979944816065e-03,-8.838046920179315350e-04,6.985747633997753218e-03,1.831017136573791504e-01
-3.196443680615762561e-02,-2.033145016462422627e-01,-4.150871629051279543e-02,1.139184516909997995e-03,-6.060472068469170345e-03,-2.795825852020824382e-04,1.671252250671386719e-01
-4.328862053754343325e-02,-2.061596681109771345e-01,-3.270737040104868681e-02,4.538802301473979228e-04,2.480978678955588802e-03,1.040267837782784437e-03,1.684774458408355713e-01
-5.135781824100014298e-02,-2.400408894400620774e-01,-4.078200032385503881e-02,1.698248618250558788e-04,-4.681249514321009567e-04,1.527540340337775991e-02,1.959831267595291138e-01
-3.547255745656423265e-02,-2.104612462379611415e-01,-4.040927458676742134e-02,4.181637522356992145e-05,-1.412501779477956174e-03,1.475235747231275316e-04,1.725908368825912476e-01
-3.801268267940954848e-02,-2.120011873837756855e-01,-4.403568487907650458e-02,2.396235617562424841e-03,1.258826105830102926e-03,6.393990491925178113e-04,1.711243689060211182e-01
-3.705494195802645774e-02,-2.048864163658727922e-01,-4.090856181378349499e-02,1.534675404909778334e-03,5.723408491815283952e-03,2.751625328588169859e-03,1.663236171007156372e-01
-4.484704803097860903e-02,-2.124011292802374107e-01,-4.378971031759240629e-02,-9.002545183397057558e-04,6.523853323765131489e-04,-3.880113525946726522e-04,1.680976152420043945e-01
-3.196741327992967674e-02,-2.090184478333246554e-01,-4.302950035358224512e-02,1.645026183025559072e-03,1.775819489807386586e-03,6.551672268069228628e-04,1.718422323465347290e-01
-3.599432990935966248e-02,-1.580863252468762137e-01,-3.651439402556280744e-02,-1.500703906393526139e-02,-2.184233518761938622e-03,-3.898834959768398417e-02,1.417513638734817505e-01
-4.714598639569170940e-02,-1.954448101749419742e-01,-2.873383451126942933e-02,-4.888443622454421902e-04,-2.273769453339582591e-03,5.838366549015306956e-04,1.583644449710845947e-01
-3.092426606014150869e-02,-2.130319340436725994e-01,-4.514680062416086964e-02,-1.796555351447987276e-03,2.629387698087005585e-04,2.438038025339863722e-05,1.754575222730636597e-01
-3.446654277580447900e-02,-1.997315680648540648e-01,-4.918440081108271800e-02,-5.424286565597973789e-04,-5.722915326362646403e-03,6.999715388945110977e-05,1.587323248386383057e-01
-2.820269829131243078e-02,-2.029139483382431941e-01,-4.915414528219858026e-02,-3.869002007046234981e-03,1.272573563180823524e-03,-1.546752452801782268e-04,1.653855144977569580e-01
-5.091784632862319387e-02,-2.126016053877024525e-01,-3.059657807449879530e-02,-1.107026363265115575e-03,2.677274863463842197e-04,-6.913671164566711526e-03,1.731689870357513428e-01
-3.737967817542638821e-02,-1.891874738331475181e-01,-3.509129654255949138e-02,-2.106200428598989371e-02,8.095256935330558123e-03,-8.539416042512171928e-03,1.585699468851089478e-01
-4.811171863589346065e-02,-2.082817826684227047e-01,-2.871939447581520199e-02,1.980155113734999761e-04,5.130277062303067580e-04,-3.540643152047477909e-04,1.706981658935546875e-01
-3.084972285152881577e-02,-2.068818946206816001e-01,-4.287896355471027682e-02,1.356568360754658404e-03,-9.897044652920350405e-04,-2.258844376824448332e-05,1.703612506389617920e-01
-5.153925941131243249e-02,-2.037936971643237172e-01,-2.829162365088197517e-02,-1.233506875210194347e-03,-4.883355782945957013e-04,-3.914712484246430160e-03,1.652654707431793213e-01
-5.408377490924465986e-02,-1.916780667040353658e-01,-2.912173582743828038e-02,-4.117063861987445522e-04,-2.013713879182569937e-03,1.126910387927580531e-03,1.516786366701126099e-01
-5.685852812497815822e-02,-1.690340747064550952e-01,-4.559824443870942601e-02,-8.161625114473295903e-03,3.655770488075556993e-03,-1.491539001873872297e-02,1.219861134886741638e-01
-5.199372182510057089e-02,-1.826184523309098695e-01,-3.373050148447865465e-02,-1.700146122347207000e-04,-2.199033433497892941e-03,-1.931125926000774179e-02,1.446214467287063599e-01
-4.924997454757280152e-02,-2.106256436171372037e-01,-3.571623780987995267e-02,-2.990284777488369755e-04,-9.556206221543215662e-04,-3.230484076563224774e-04,1.685603857040405273e-01
-5.005269087678773654e-02,-1.901444378663345036e-01,-2.602473293183485414e-02,-4.489587606863935476e-04,4.293102993487256250e-04,1.097110378496465605e-03,1.535380333662033081e-01
-3.225023784176054426e-02,-2.046275309617697769e-01,-4.260481021411309521e-02,2.261611917403822303e-04,-3.574805589521131040e-03,-2.735260754451571304e-04,1.675558686256408691e-01
-4.244865529785398633e-02,-2.136718061136471669e-01,-4.423558848993000558e-02,5.758385278988641196e-04,6.443650768836605585e-05,1.175420801674636768e-03,1.703518331050872803e-01
-4.278933228968904295e-02,-2.038236352093993342e-01,-3.626975682881004165e-02,1.111111296191638186e-04,-5.690958133376365809e-03,-3.446850574966174498e-04,1.646875292062759399e-01
-4.860687295892521936e-02,-2.118532054947139809e-01,-2.981778830580862627e-02,-7.953588180841986068e-04,-4.458160443932841625e-04,-1.807533445781181339e-03,1.734414547681808472e-01
-4.414840554641132064e-02,-2.112149590298741941e-01,-3.723322010526398246e-02,2.449129782904196093e-04,1.744567057460161665e-03,-8.929172972412599421e-04,1.706635653972625732e-01
-3.923137784545562695e-02,-1.834648320909186836e-01,-4.720674882758481294e-02,-1.161343577920187844e-03,-6.645499368623596081e-03,1.835486861549844593e-04,1.409014463424682617e-01
-4.969629861488857742e-02,-1.968165654253324626e-01,-2.833149944818595667e-02,4.399040907371328901e-04,2.235590796654961156e-03,6.619265612231900638e-04,1.589368134737014771e-01
-4.552563921657654805e-02,-2.196049678331520871e-01,-3.434212298942582176e-02,9.460046084648239539e-03,-5.561976324004062021e-03,-2.276726051880849713e-02,1.851805299520492554e-01
-3.876014614403191366e-02,-2.033531956686406850e-01,-3.117385593207311345e-02,5.762329594086529816e-04,5.886184183792221060e-03,1.159474951592306437e-03,1.688373386859893799e-01
-5.349433453609590827e-02,-1.478443820783602591e-01,-4.275330494827791344e-02,-1.574081225737106703e-03,-2.185109587520986743e-04,1.098718905848194028e-03,1.002093628048896790e-01
-3.566694666579093426e-02,-2.093576043746257498e-01,-4.002692438371122097e-02,1.290087655508301377e-03,2.104175008794513524e-03,8.642773831940510267e-04,1.716120094060897827e-01
-5.188719322710575593e-02,-1.970874848494311160e-01,-2.737260322933494916e-02,-3.485845262926278950e-04,1.811976265733632662e-03,1.116459897984742322e-03,1.589263081550598145e-01
-4.660535644847894204e-02,-2.127144075793769573e-01,-4.540998353272879262e-02,-2.122998984235977731e-04,-7.530268975331974590e-05,7.768014455412306437e-06,1.667104065418243408e-01
-4.075635026340635597e-02,-2.100665059380753541e-01,-4.022060251998626351e-02,2.229974591227121587e-04,7.888985902065654863e-04,7.866262423470014213e-04,1.695900857448577881e-01
-3.992393803473340275e-02,-2.099717639164944694e-01,-3.985631875737211116e-02,-5.254975102227991100e-04,1.191436574982605509e-03,1.447474051317237703e-04,1.700967848300933838e-01
-4.411178281363013071e-02,-2.106565111114477307e-01,-4.419251010742587804e-02,2.874894319865059587e-04,-6.786467290540287162e-04,-1.838746610796069040e-04,1.665095835924148560e-01
-3.855885353709425506e-02,-2.102559127363930469e-01,-4.101994280742145282e-02,1.276086742439175737e-03,5.029534566437109024e-04,6.880311003812872393e-04,1.705005615949630737e-01
-3.732662520054016303e-02,-2.119305753948418913e-01,-3.801636912731628376e-02,1.628861517772353098e-04,-8.356388880378350916e-04,-4.288602287748552173e-04,1.742679178714752197e-01
-5.754450589538329108e-02,-2.933429443765636080e-01,-5.324831839449689630e-02,1.232782635650433306e-02,2.861890625334770257e-03,6.448227375468898459e-02,2.637930810451507568e-01
-3.792963019248748319e-02,-2.140559379044148502e-01,-4.800368385280572719e-02,6.024758603231013601e-03,-3.532943698247542445e-04,1.876769191626017491e-03,1.716609746217727661e-01
-3.532906975594870408e-02,-2.042866329191883601e-01,-4.121096120613890884e-02,2.763064226882979172e-04,3.600160225121616479e-03,2.841240616039185461e-04,1.662131696939468384e-01
-3.948936257906151409e-02,-1.753392378117229478e-01,-5.729609377115373048e-02,-4.016373535053714694e-02,-4.607096159654652107e-03,-9.184705952534198692e-03,1.466606855392456055e-01
-3.827129713859654669e-02,-1.218957779440385525e-01,-5.339669601560421280e-02,-2.668164298514708738e-02,3.994041416998713595e-03,-7.639243159889388610e-03,9.119012951850891113e-02
-3.741644067547095220e-02,-1.517880625091054259e-01,-4.185795948867662708e-02,-2.551025396059339659e-02,-8.667164208230770939e-03,1.405237885739593975e-02,1.239463463425636292e-01
-5.648472275249571961e-02,-8.276103407342468021e-02,-4.982547952977293970e-02,-2.510324237975119360e-02,-3.423914713219121473e-03,2.442077481421960766e-02,6.800427287817001343e-02
-5.275615337979677744e-02,-9.091657578434433895e-02,-5.324317158061328548e-02,-2.270641261563025731e-02,-1.595672877631494190e-03,4.285088256615218055e-03,5.520270019769668579e-02
-5.029647364745125360e-02,-1.175967748216018988e-01,-5.300207801275529096e-02,-1.361318838326407675e-02,-7.049150189838980160e-03,6.336357400109280703e-03,7.197248935699462891e-02
-4.731047487500101428e-02,-2.124977396763785276e-01,-3.956154277977720624e-02,-1.169522280634375643e-03,-1.630560076966323588e-03,-1.101694564695785902e-02,1.703029721975326538e-01
-4.870765016343760190e-02,-2.087827912718530632e-01,-2.819447587377423015e-02,-5.781270481655153209e-05,-6.807937875481702992e-04,-5.420930024947108201e-04,1.712622940540313721e-01
-6.227450429241088159e-02,-9.530654137883604049e-02,-4.398840345429021886e-02,-7.020267031049925999e-02,-8.008440214036047916e-03,-1.513317991417961403e-02,1.330195963382720947e-01
-3.607522023142480105e-02,-2.106204894591094390e-01,-3.620022756289707766e-02,-1.804350321212726586e-04,3.258988654819181506e-04,2.787210196808988412e-04,1.744846552610397339e-01
-6.139227546019462162e-02,-2.511924709129785271e-01,-4.969855651730460677e-02,-1.142022902444033480e-03,3.307262645630811015e-03,9.324885982864192582e-03,1.966670155525207520e-01
-5.031861054354087870e-02,-2.217419032617357066e-01,-4.500569245082492592e-02,5.429749100820782486e-03,3.509036646004660347e-04,-5.032176869379246003e-06,1.743953675031661987e-01
-4.486913748846958067e-02,-2.042267696065639959e-01,-3.079489464564853785e-02,1.537147342752154429e-02,2.446726403609189669e-03,1.715828989800928517e-02,1.715977936983108521e-01
-5.423567877346186644e-02,-2.211752402014806052e-01,-4.300854061646387783e-02,3.315517869014776835e-03,-3.092458873163524309e-04,-2.498718636234151767e-03,1.729772090911865234e-01
-5.550949650118346124e-02,-2.221776288464451798e-01,-4.716088878924740158e-02,3.254465169718259200e-03,9.579423629645806302e-04,-2.423328369456392763e-03,1.711477637290954590e-01
-4.466744905930244980e-02,-2.332066470240781730e-01,-4.023712616442146062e-02,1.089621807201123296e-02,-5.088818947121345922e-03,-2.186642403862715939e-02,1.956278085708618164e-01
-4.531760648971010219e-02,-2.195440769661019531e-01,-3.549279129681875977e-02,5.523332572199698368e-04,-2.461958236254696997e-03,-9.626054457685821741e-03,1.801671832799911499e-01
-4.495077446684107858e-02,-2.134854459239795554e-01,-4.048569719826936031e-02,-2.149317942035834303e-03,1.588911256903930347e-03,-3.482343509759928957e-02,1.812066286802291870e-01
-4.511971223498309480e-02,-2.436531123431715795e-01,-5.870026035491427568e-02,-5.249901075786276954e-03,6.799222180201723933e-03,5.325576338773032464e-03,1.928994804620742798e-01
-4.745374595909110371e-02,-2.294293418160134324e-01,-5.315758118868680465e-02,2.528065199383268489e-03,3.891140309175763947e-03,-7.512855249225783598e-04,1.793766468763351440e-01
-3.469106362201988120e-02,-2.071152366474444673e-01,-4.248048254681507929e-02,-7.986319180043648580e-05,-4.721372833246363990e-03,-3.188281086803664683e-04,1.688635051250457764e-01
-3.616293822932380164e-02,-2.072461086713014433e-01,-4.160997084616731984e-02,-7.993881035360104104e-05,-4.928503069668606698e-03,-3.188062146705998015e-04,1.686428785324096680e-01
-4.147023415216930659e-02,-1.944915085572317404e-01,-3.762510329264120296e-02,-4.978390940222293757e-04,-6.229216574787888386e-03,-5.998694464792025531e-05,1.553571522235870361e-01
-3.438697712723275124e-02,-2.124166863774736291e-01,-4.479781901375274461e-02,2.835177311300583541e-04,1.690754924375532757e-03,1.682053144133111890e-04,1.730850189924240112e-01
-4.706784937691905341e-02,-1.525941067122666417e-01,-4.394500586840755646e-02,6.263186060463646343e-02,2.885700644624218745e-04,2.713009933023092721e-02,1.595359295606613159e-01
-4.308329152914264215e-02,-1.379627715521699882e-01,-4.200241541874156354e-02,-1.807094645324290507e-03,2.324945868318906172e-04,5.312263872909204349e-02,1.325965374708175659e-01
-4.438094006522712992e-02,-2.308098855567510543e-01,-3.800550107035816083e-02,-1.660631178806616648e-02,5.263781737569469404e-03,-1.226002371073001834e-02,1.932519525289535522e-01
-4.804698760184943074e-02,-1.771145667304084848e-01,-3.370210803797799026e-02,-7.555876262075374855e-04,-4.089907435619009879e-03,1.045178979178202185e-03,1.370067447423934937e-01
-5.111388995037362271e-02,-1.702622703305893825e-01,-3.333550710226543257e-02,-1.345704128389647088e-04,-4.832131917705769809e-04,2.791491159186771081e-03,1.290535032749176025e-01
-5.640361649067389405e-02,-1.163024102161964446e-01,-4.241180922990581137e-02,-5.546157250346864243e-02,4.660111220640645929e-04,1.794179852171597783e-02,1.217212527990341187e-01
-3.427842602276359729e-02,-2.047124234296012479e-01,-5.105019698921788029e-02,3.068580932810989481e-02,8.714496923893132532e-03,-3.796323640941506351e-03,1.719490587711334229e-01
-3.228009093994456402e-02,-1.279471535057309928e-01,-3.466248182621762403e-02,4.347676468737529665e-02,5.504665340622416289e-03,2.115544944422304008e-02,1.266262084245681763e-01
-3.217300025712152567e-02,-2.124568317918033578e-01,-4.553936397995010654e-02,-3.022860891280338097e-04,9.010855769384179753e-04,-7.902075711870384413e-05,1.739939898252487183e-01
-4.725626508095910616e-02,-1.445274494410156985e-01,-4.111090548291369828e-02,6.025003922183070487e-02,1.169598716721773502e-03,3.375414096393300478e-02,1.562355458736419678e-01
-5.752078220701978273e-02,-8.853840871673983315e-02,-4.652249075662825278e-02,-2.360064823215610088e-03,-6.786386901366250890e-03,-3.485236038875273029e-02,7.227124273777008057e-02
-4.853333059800828131e-02,-1.722828514950645040e-01,-3.276734315057555635e-02,9.105199210508784034e-04,4.464222527217915487e-03,1.179906760728603038e-03,1.325895786285400391e-01
-4.328932075734691354e-02,-1.483883898716923944e-01,-4.755316616412980785e-02,1.606848402414092197e-03,-5.668220232028019917e-03,-5.965982382529074705e-04,1.035425886511802673e-01
-4.756319889409262036e-02,-1.471255985623153295e-01,-4.513343481553455661e-02,-8.514604559659304413e-04,-6.034089144023931095e-03,2.239477400602776346e-03,1.014245525002479553e-01
-5.246272240243150115e-02,-9.847116573277693574e-02,-4.670780822678435862e-02,-5.638170586284138933e-03,7.564888896209345749e-04,-5.175399111410748480e-03,5.091275274753570557e-02
-4.956551860936734416e-02,-1.100162591400353218e-01,-4.633216888326811139e-02,-1.147288835140812188e-02,-2.157504205079531674e-03,6.063357368528657934e-05,6.533806025981903076e-02
-5.837958332374344750e-02,-1.511364965673145655e-01,-5.332594365822997118e-02,-8.078852735132122765e-06,-2.300179694650031359e-03,-1.445284139989031109e-02,9.869483858346939087e-02
-3.620823167938036491e-02,-1.723079629712741534e-01,-4.921255387546891874e-02,-2.296379455781350463e-03,-1.839234541609153931e-03,5.575267919982206154e-04,1.301893442869186401e-01
-4.670357487159666754e-02,-2.084605075190646972e-01,-3.018889380972802905e-02,-2.581866087465990115e-04,-9.009933775422264294e-04,-6.576909871267935543e-04,1.706263124942779541e-01
-4.563799452385695898e-02,-1.715589618025829266e-01,-3.222157844090532686e-02,1.126614231872973253e-03,7.066630799678616688e-03,1.667910887179382138e-03,1.337440162897109985e-01
-5.965464700547569443e-02,-1.138486092552038614e-01,-5.875253052605894366e-02,5.812953231075330789e-03,-7.195048186508204609e-04,6.699135635180868999e-03,5.678246542811393738e-02
-4.589271093502026583e-02,-2.162580591801604446e-01,-4.911110335304713637e-02,-2.455086152201779379e-04,1.730142574923776390e-03,2.144211573208586370e-04,1.688067167997360229e-01
-4.669356402863057698e-02,-2.096904689449022863e-01,-2.871959883787815471e-02,-4.308002042839445328e-04,-1.093982396376514364e-03,-6.951074855552847112e-04,1.727030724287033081e-01
-4.337731989279537681e-02,-6.166461198890071937e-02,-4.461218557931493495e-02,2.942225249048257066e-02,-1.761723730812610276e-06,1.748667856035171497e-02,6.186861917376518250e-02
-4.437769362984385346e-02,-2.202796145465227978e-02,-3.776548092503914655e-02,-2.905550150401247506e-02,-1.315006748296646509e-03,-7.574122955104735724e-03,5.572617799043655396e-02
-3.848442440850579488e-02,-1.949604458211054991e-01,-3.872244505738650644e-02,1.253020811970729782e-04,6.203116161339541391e-03,5.684828455588325155e-04,1.567291021347045898e-01
-5.674748485897030542e-02,-7.365250384424075480e-02,-5.623690100025773714e-02,-2.741323226386791281e-02,-6.684342222934300595e-03,1.596930681974071927e-03,5.187311023473739624e-02
-4.825460988418461827e-02,-1.728163616638509759e-01,-5.900150806675286130e-02,-1.606995261468682074e-02,-1.974873358247507434e-03,6.212235702117207886e-04,1.228009015321731567e-01
-4.432426926262580252e-02,-1.483272982019903097e-01,-5.120783905964689658e-02,2.041071583594298959e-03,4.527212568737188497e-03,1.106643846030753520e-03,1.011224985122680664e-01
-5.611251773588801783e-02,-7.187392480076498780e-02,-5.633761731089960423e-02,-2.180925038204823210e-03,-5.109543663073603213e-03,-2.548942854065895484e-03,1.889464631676673889e-02
-2.742692927108199286e-02,-1.962675278516358424e-01,-4.635881721618810569e-02,1.387775709072030638e-03,5.057313414513264771e-03,5.096371436154616043e-04,1.604754775762557983e-01
-4.728118582637062806e-02,-1.658071117382369231e-01,-3.630129795399315851e-02,6.102236285574683117e-02,-3.093618291955800050e-03,3.452944970560252458e-02,1.739169359207153320e-01
-4.606556092467813807e-02,-1.635432625987359723e-01,-4.607049205405940040e-02,1.590156072414372580e-03,6.650313464189528539e-03,1.416804087649259618e-03,1.180962249636650085e-01
-5.099595321156588645e-02,-7.102020426832333921e-02,-4.939784469361248320e-02,-5.136643345136349820e-03,-9.623160590491791275e-04,-5.140632223895271261e-03,2.442820742726325989e-02
-5.685692992879877450e-02,-9.846688048959467698e-02,-5.499939332322646007e-02,-2.939460342632409066e-03,-8.258582405073774209e-04,1.435524857770736689e-03,4.296836256980895996e-02
-5.667297928504365367e-02,-1.157175966341394968e-01,-5.011323906999554101e-02,7.590606771145025833e-04,-4.193086520604399382e-03,5.996658126427784237e-03,6.386680155992507935e-02
-5.170912244976577643e-02,-1.215429629864162447e-01,-5.452017186458497228e-02,-1.002861434036656473e-02,-6.320170536368178993e-03,4.671160523672343926e-03,7.194006443023681641e-02
-2.635492208918435719e-02,-1.992464600009422881e-01,-5.157544355174258077e-02,4.337098951177149799e-04,-9.588366576471835838e-04,5.479149508329740143e-05,1.617729067802429199e-01
-5.700631426203195407e-02,-1.306377268919724499e-01,-5.318049600104982760e-02,-6.668523419985288719e-03,-4.305330626227864277e-03,1.004032935863745715e-02,7.879950851202011108e-02
-3.587387477497890054e-02,-2.106765767823811086e-01,-4.416657225127484238e-02,5.699647532726712096e-03,3.976500363452699360e-03,1.356918235841360690e-03,1.712471544742584229e-01
-2.901119823548209409e-02,-2.033560960783417637e-01,-4.438238309292091843e-02,5.078474932980895154e-04,1.836047702091012004e-03,7.723077035328427317e-04,1.672279983758926392e-01
-3.672968448552287740e-02,-2.105701032644892723e-01,-4.389557214287817533e-02,5.493378573568671007e-03,3.171569029729827925e-03,5.621666033403877527e-04,1.707271933555603027e-01
-4.324247085545873670e-02,-2.119453604889783849e-01,-4.499452322176018121e-02,-7.547400702717951652e-04,3.391069041329976253e-04,5.617414176726520398e-04,1.678426563739776611e-01
-3.641306098864698082e-02,-2.118341052016572690e-01,-4.460560321586214821e-02,-4.761264946056530394e-04,2.162759600184114422e-03,9.758943705280727875e-04,1.715228408575057983e-01
-4.560661990904775476e-02,-2.172670616265168220e-01,-5.279532039911418589e-02,-2.135917619157878214e-04,1.120317538327346690e-03,-5.349243504057042686e-03,1.684479564428329468e-01
-4.533411640747515847e-02,-2.228542227563063416e-01,-5.612714458567456821e-02,-8.147043724827433505e-05,2.123513167019966863e-04,1.430765909107914024e-03,1.723954528570175171e-01
-2.747668388966952036e-02,-2.059189004570331216e-01,-4.498946367984919814e-02,2.185483042850986431e-03,1.301757598020253500e-03,1.097683536465924106e-03,1.704298406839370728e-01
-3.035851613613932409e-02,-2.119458642413386829e-01,-4.903183352361716041e-02,-2.539830559015294857e-03,-1.007099385355056907e-03,-1.118647060644607132e-03,1.730837076902389526e-01
-3.202060868243271352e-02,-2.134628326838496348e-01,-4.771657537500079149e-02,-2.682440803756381241e-03,-1.859670833105732521e-03,-1.341638903885140812e-03,1.742328703403472900e-01
-6.165660506637961336e-02,-3.651124432295170807e-01,-5.170404200175378329e-02,-3.455951974819426731e-02,9.427559628396215991e-04,1.354938182891611900e-02,3.151843249797821045e-01
-5.195624809157649293e-02,-2.371015977732221502e-01,-4.926296502265666011e-02,-2.821682921262129787e-03,2.085140573514912728e-03,-1.839350957446261609e-03,1.866327524185180664e-01
-3.470772903157022526e-02,-1.686463474733949641e-01,-5.040278476698136639e-02,-7.387298566074475530e-04,3.263875173825482937e-03,3.759956225441458532e-04,1.269556432962417603e-01
-3.211769263236419203e-02,-1.998625759435521676e-01,-5.319157945518906971e-02,-3.196893372827788087e-04,-3.894458695276241476e-03,-3.975211954724648656e-05,1.584084331989288330e-01
-2.842819591155243408e-02,-2.091832371963158743e-01,-4.938461494978477195e-02,-9.807223180625761205e-04,1.571967069909421528e-04,-5.528439720253764409e-04,1.712526082992553711e-01
-4.657719391123558983e-02,-2.380221488300292010e-01,-5.298258723265681508e-02,-4.767579371186590233e-03,-4.514993022818165024e-04,1.780265602804624201e-03,1.885317713022232056e-01
-4.678827912545343443e-02,-1.239776992762663121e-01,-5.452140335702544693e-02,-1.354189345018599194e-03,-4.224745091154942338e-03,1.099462183098359226e-03,7.405245304107666016e-02
-4.747022142356879804e-02,-2.339597612326015930e-01,-4.551699138476204831e-02,-7.327070922704772594e-03,1.289527743362027480e-03,-1.957542817584326245e-02,1.909504085779190063e-01
-4.624443516313551245e-02,-2.178066552779646670e-01,-5.424373649639080419e-02,1.010797067327675464e-03,-3.486832930427684156e-03,-1.643871387373165537e-03,1.678477078676223755e-01
-4.431948394532991831e-02,-2.090261418107930980e-01,-2.985121974760200636e-02,8.051504912158417935e-04,1.505961310454048208e-03,2.152044224413375128e-03,1.724623888731002808e-01
-3.697411259752557411e-02,-1.703853175742470749e-01,-5.646323376297537888e-02,-9.137390921017943994e-04,4.467305817937645323e-04,-4.783361596681590610e-04,1.248282715678215027e-01
-5.314074971306637779e-02,-2.246474860918282745e-01,-4.690904696665240681e-02,-7.879155531736332582e-03,2.935199582946745878e-03,1.819802306350430351e-04,1.753121912479400635e-01
-4.221256304982196061e-02,-2.137160843716770509e-01,-4.475629910173931775e-02,-1.065951554533896978e-03,8.900051349271301520e-04,9.182856038270359195e-04,1.702703237533569336e-01
-6.207858235172688394e-02,-2.404508056186963616e-01,-5.063912224385827554e-02,-4.562518062702070314e-04,4.366270172095057175e-03,-2.040295913055076120e-03,1.845489144325256348e-01
-4.955199345789963739e-02,-1.350951344228141227e-01,-4.184368956017196772e-02,1.418522904204598100e-03,4.297461592558142127e-03,2.948477849631451261e-03,9.013301879167556763e-02
-3.227560370573091808e-02,-2.098420900523604860e-01,-4.516963682674399183e-02,2.328306162609006594e-03,-8.852289768324698950e-04,-1.704503212575720923e-03,1.715630888938903809e-01
-4.460986152544681865e-02,-2.218397315991138541e-01,-4.510645404069241193e-02,1.898299969837971644e-03,8.760679454777373478e-04,-1.873559519553507757e-03,1.770488768815994263e-01
-4.081743670283313752e-02,-2.328680243585731779e-01,-4.558476595336349163e-02,-1.420519708404876201e-02,-3.514174174173996090e-03,6.532392175984359610e-03,1.917316168546676636e-01
-4.134634047439578880e-02,-1.945184919403999124e-01,-3.339872001303655774e-02,7.019571510626887402e-04,5.923222424900990817e-03,1.332171379848787456e-03,1.576524078845977783e-01
-4.877287127145942675e-02,-1.237313472103426237e-01,-5.130427691251102096e-02,-3.424775176618325020e-04,-3.811208358507408613e-03,-2.899992684189492713e-04,7.402439415454864502e-02
-5.749239572515667251e-02,-1.049491385983315067e-01,-5.300218649429321027e-02,-1.509766914980676137e-04,-2.110120185485980359e-03,2.278930093924449139e-03,5.014381185173988342e-02
-6.236305766450801757e-02,-1.507000273843491223e-01,-4.803134880553511232e-02,4.156865856105266687e-04,-4.968594757311705322e-03,2.019441264246262316e-03,9.675562381744384766e-02
-3.597082551099159420e-02,-2.153116301250868059e-01,-4.812934489391867965e-02,-3.863608627515084746e-03,-9.601472405544758150e-04,1.309439391552118335e-04,1.737182587385177612e-01
-5.051525600471368227e-02,-1.526038573127234677e-01,-4.312228038953613840e-02,7.741414105625337751e-03,-6.600559626745269165e-03,-8.035229589225031249e-03,1.083312630653381348e-01
-4.410164470191533376e-02,-2.170254097001478588e-01,-4.947085819478596463e-02,3.217423164948474980e-04,-6.646439121280371893e-04,-5.357592570274080559e-04,1.703099757432937622e-01
-5.365462768118690884e-02,-9.691440713915196181e-02,-5.440449531898325364e-02,1.756461490573265564e-03,-2.868551869126702682e-04,2.380291880810644998e-03,4.319758713245391846e-02
-4.446558954554595544e-02,-1.496907598357359592e-01,-5.779559252961835591e-02,2.243228749556134063e-03,2.277544529879737580e-03,-1.513940951195775597e-05,9.938828647136688232e-02
-3.744344826599725617e-02,-2.335953402757284803e-01,-5.060342976117354619e-02,-1.472133747395946470e-02,1.494352197654887906e-03,3.809742740745612494e-03,1.917492896318435669e-01
-2.562627517764756724e-02,-1.981297276000618945e-01,-4.970797777164534526e-02,2.731172903899287477e-03,1.958722485051592188e-03,1.017324023019031782e-03,1.619264781475067139e-01
-4.618139850510849520e-02,-1.633088229351587484e-01,-4.481636256720334527e-02,1.520056149000818726e-03,7.032323367703276727e-03,1.662770780051539034e-03,1.185080856084823608e-01
-4.316694035438079641e-02,-2.104750815440012690e-01,-3.915268421862531933e-02,-1.619371841806848956e-05,1.489055100096863286e-03,-8.205520763898758703e-05,1.693706512451171875e-01
-5.772945642997912713e-02,-1.112685276243160215e-01,-5.656708537566679240e-02,1.965891027413050121e-03,-2.213943603760633837e-03,3.107870226051351889e-04,5.437466502189636230e-02
-2.632788669372855550e-02,-2.062086456455815564e-01,-4.598341633919317273e-02,6.583852550751294677e-03,2.343718422583488444e-03,1.640260265551915248e-03,1.713545024394989014e-01
-2.682411948469869134e-02,-2.021221786521870956e-01,-4.760491056804044829e-02,1.653329385961895296e-03,3.466219383247546530e-03,-5.688028755831243895e-05,1.660200953483581543e-01
-2.624718362196414023e-02,-2.036685398471594910e-01,-4.994912927696565363e-02,6.717585898611248656e-03,1.867494516894292484e-03,-1.911761660229805337e-04,1.672747433185577393e-01
-4.264320712079787412e-02,-1.411560792864751390e-01,-5.518525955654738496e-02,2.297852724775869930e-03,-1.413919517003233870e-03,1.145650200247573227e-04,9.299684315919876099e-02
-2.352658155910419824e-02,-1.691008073471375883e-01,-4.463259246259265733e-02,2.941319272558142947e-02,4.112420970499925527e-03,7.674673886974882342e-03,1.462452560663223267e-01
-2.847967233221168626e-02,-1.923874013136256944e-01,-4.994217304140921576e-02,8.084462891502799259e-03,4.538043168930926824e-03,7.214921923156593928e-04,1.551384329795837402e-01
-3.360643152575935877e-02,-1.754692296669791984e-01,-4.956751884530521957e-02,1.226594537174459983e-03,4.035826143295668036e-03,4.983601868496494603e-04,1.347948312759399414e-01
-2.363158558705963364e-02,-1.991745421549036554e-01,-4.966581088648801962e-02,1.379862220008433709e-03,1.809678178733036729e-04,-1.815292212981140733e-04,1.641002595424652100e-01
-2.562729132709355706e-02,-2.011838457675658720e-01,-4.895621525043305361e-02,3.249475046923725472e-05,-9.286908860971413273e-04,1.683273536078887819e-04,1.651407629251480103e-01
-2.353272957826178791e-02,-1.992428467798468550e-01,-4.873762505012502189e-02,1.539355981294298487e-03,-1.293117201764659707e-04,-1.256225636022913401e-04,1.645836681127548218e-01
-5.350227475942374855e-02,-2.176734198724464275e-01,-4.737577197698043113e-02,1.643614567539979912e-03,6.858008561189747306e-04,-8.643018475688557479e-04,1.673536747694015503e-01
-2.980273363602745085e-02,-1.796857980826196410e-01,-4.799085485374166016e-02,6.304714557458565745e-03,-4.557498923105278085e-03,-5.063740408069500234e-04,1.423094421625137329e-01
-5.829999806265590001e-02,-2.216053811246838090e-01,-4.455393147711594892e-02,-2.924520161164675469e-04,-7.729802853337580746e-04,-8.571775922267970988e-04,1.706067472696304321e-01
-4.870499693242893308e-02,-2.182530589813676536e-01,-4.472029080158503728e-02,-1.120304272551720911e-03,-1.657177409570118618e-03,-2.288940419370770907e-03,1.716558933258056641e-01
-5.586684549100822544e-02,-2.197052004643311740e-01,-4.477376729827196866e-02,1.867348928372116823e-03,8.796379784052009952e-04,-2.666745261797500224e-03,1.697576195001602173e-01
-3.159858009439735910e-02,-1.934292239216297560e-01,-4.964499142746916366e-02,-4.970399509701924241e-03,-1.779016371749529831e-03,-9.859710522377516505e-04,1.538859754800796509e-01
-4.768438683963024255e-02,-1.361983525564355035e-01,-4.279419940281767309e-02,5.146911509845176341e-02,3.521655995279468921e-03,-9.479952413343281301e-03,1.286293566226959229e-01
-5.769813391446038109e-02,-2.333894823883568281e-01,-4.774629188087689546e-02,2.939554995812099052e-03,2.482054014899849181e-03,-4.765444887230034857e-03,1.811835318803787231e-01
-5.170049426831930389e-02,-2.143243967863444344e-01,-4.870555195677776783e-02,-8.627432208905391666e-04,-1.645353965393444228e-03,-1.020272542863160260e-03,1.641829162836074829e-01
-3.059924960412545303e-02,-1.987723823095843001e-01,-4.881755620846124633e-02,-6.782958732425164745e-04,2.359415390913984466e-03,3.709678701910114123e-04,1.599023938179016113e-01
-3.800237526743020094e-02,-2.138642254197779535e-01,-3.798571661195798005e-02,-1.476858581457209259e-04,3.978586928604081752e-03,-1.630358813889951140e-04,1.760055422782897949e-01
-4.600277449322225792e-02,-2.169516378338728901e-01,-4.437231628116768828e-02,-3.957985782483006143e-02,6.163482240888933442e-04,-1.365219417062515060e-02,1.864534318447113037e-01
-5.178293720990114618e-02,-2.205753996782440773e-01,-4.574768005101798735e-02,-4.971482285381455604e-03,1.267599917571297485e-03,-2.701074829534453638e-03,1.721826940774917603e-01
-5.081143085489123884e-02,-2.187391749314763212e-01,-4.676309153964638282e-02,-1.818299159489630270e-03,-2.588809393056731769e-03,4.453498033466329713e-04,1.700781136751174927e-01
-5.258608338756599887e-02,-2.206030953554379836e-01,-4.342303199418934279e-02,-5.233492036912414927e-04,-7.133897999346817910e-04,1.767742847856773792e-05,1.727876663208007812e-01
-3.937748782872119852e-02,-2.124624185673916199e-01,-4.308241610069687283e-02,1.913565523106543263e-04,-1.775997466167379625e-04,-1.903275621518319566e-04,1.712634414434432983e-01
-5.582004885896406365e-02,-1.052025630918424631e-01,-5.599128133266055574e-02,-5.920240019341326725e-04,-2.546512150281440845e-03,2.925243126290761383e-03,4.976326972246170044e-02
-3.832099556748467389e-02,-2.114980513928189643e-01,-4.319095425766041746e-02,-1.699799109632689747e-03,-2.123127162589302092e-03,2.414349503837884582e-05,1.708591133356094360e-01
-4.681423540096850411e-02,-2.118409822811089249e-01,-4.992067584345739883e-02,1.994243949122957021e-03,-8.877700652918230203e-04,6.625002623791254280e-05,1.635394096374511719e-01
-4.162499509954367682e-02,-2.118753889895106657e-01,-4.076282546905065501e-02,-7.066891803250966884e-04,-1.994623402649225649e-03,1.080766392977235103e-04,1.707225590944290161e-01
-4.740035698413146148e-02,-2.335697109378376546e-01,-4.376881123063977586e-02,5.536044547252936057e-03,2.612875328525026374e-03,2.206434048581198959e-02,1.921489834785461426e-01
-2.965618114692082641e-02,-1.960886270584611402e-01,-4.610624178390822225e-02,-5.222861202130897607e-03,1.793423702463133821e-03,-5.053987183366404762e-03,1.593758165836334229e-01
-4.374406181177457886e-02,-2.135751095141609213e-01,-4.218821864909270275e-02,4.606021018946867586e-04,-6.875480782353741906e-04,-1.242435966783400582e-03,1.706338822841644287e-01
-3.106707514706172346e-02,-2.026060467293000489e-01,-4.785236547589689915e-02,6.384188862377908075e-05,3.154151068707801171e-03,-6.463520098748717479e-04,1.638876050710678101e-01
-4.355305800506596020e-02,-2.130684069243544143e-01,-4.465339673847844304e-02,4.952638023862541376e-04,5.995190559473359744e-05,-1.034722603912980677e-03,1.689795851707458496e-01
-3.906337938965480372e-02,-2.037697309575217108e-01,-3.658298713775105099e-02,-3.002542547250304072e-03,-3.935051551789753820e-03,1.132678599848616768e-03,1.661933213472366333e-01
-4.073329511265954411e-02,-2.100300339930742388e-01,-3.708880799107635434e-02,-1.425221079316046306e-03,-1.378876120530139488e-03,4.681134757466950047e-04,1.711844652891159058e-01
-4.787551426582645209e-02,-2.118854084291209028e-01,-4.783802897101944313e-02,8.630779021239321598e-04,5.135587699288416205e-05,-8.313086697386608010e-04,1.640418022871017456e-01
-4.860566443489549443e-02,-2.127802972387890512e-01,-4.514936680055069151e-02,-9.133249215107066893e-04,-4.749054816627000346e-04,1.838504986016599452e-03,1.659699082374572754e-01
-5.029679431147709989e-02,-1.255108629554544664e-01,-5.883397361795735664e-02,-1.102129756259035732e-03,-1.640930816129893346e-03,7.510445462995811753e-04,7.142364978790283203e-02
-4.712283818530747792e-02,-2.140719520477278870e-01,-5.221770880610549642e-02,3.986303538258049420e-04,1.231524326979092573e-03,-8.172584553922147832e-05,1.644762158393859863e-01
-5.317032986864251437e-02,-1.119568709259762818e-01,-5.271636644287777673e-02,1.062007494343961828e-03,3.459655713242141845e-03,1.934065268096583348e-03,5.944126099348068237e-02
-5.203106599201315352e-02,-1.661703823418910209e-01,-4.985048099577055192e-02,-1.940323210925667952e-02,-5.423608689497682375e-06,-3.256733132045677714e-02,1.326377689838409424e-01
-3.889996296724393399e-02,-1.403290845957437805e-01,-4.308728665330537055e-02,6.379034087782228801e-02,1.455271259434258316e-03,1.353277818266727765e-02,1.504794657230377197e-01
-5.087498601128224995e-02,-2.128185024045899931e-01,-4.905017483241481263e-02,5.851934335359052202e-04,1.530980747142730858e-03,-5.887784019898644437e-04,1.628915220499038696e-01
-4.807548233352545997e-02,-1.817760543256365935e-01,-4.015057854800747200e-02,7.303239138015739677e-04,-6.859983687023420845e-03,-1.983502112694318122e-03,1.383936107158660889e-01
-3.303728272468575006e-02,-1.763301152726225729e-01,-5.420024904080143757e-02,1.500358677766608275e-03,2.659582392365792813e-03,-3.939322666810612895e-04,1.340770125389099121e-01
-4.796920241622124742e-02,-2.113946778040455277e-01,-4.939228995764220753e-02,-1.134333684991979761e-03,2.781659882380898077e-03,-9.546733039549661895e-04,1.628101617097854614e-01
-5.039207309116816580e-02,-2.104300645094492606e-01,-4.948545344060734791e-02,3.470713027710537911e-04,1.064810072738915821e-03,-3.385492928721802299e-04,1.605060100555419922e-01
-5.269967516387932815e-02,-2.117007908934524230e-01,-4.765543117160392361e-02,1.117585775766663948e-04,9.542596894200207997e-04,-4.504057072516739146e-05,1.615908890962600708e-01
-2.561833311797979962e-02,-1.912184632023635755e-01,-4.928458171499508489e-02,3.402758863899527086e-03,3.098220942353755412e-03,2.743025731450575086e-03,1.554042100906372070e-01
-5.011045075297990148e-02,-1.435620655336045381e-01,-5.079327806172059812e-02,7.762680755985682142e-03,-6.242729681537724507e-03,-1.148574923041734055e-03,9.471805393695831299e-02
-3.511630018338773862e-02,-1.178959250450393320e-01,-3.921811007723627340e-02,3.797842215944942368e-02,-3.010940063430561729e-03,4.427588620262706831e-02,1.294800639152526855e-01
-3.335772542371878702e-02,-1.192458118400092359e-01,-3.855379231134680590e-02,4.245766005822761147e-02,2.458389839260015711e-03,4.362474744494872908e-02,1.345099508762359619e-01
-4.155415787962984248e-02,-1.107714013937876746e-01,-4.462242009275709659e-02,4.854784392234400003e-02,1.223855242264400636e-03,2.481156337083946159e-02,1.162328645586967468e-01
-3.482457297237370047e-02,-9.458100318664153239e-02,-3.785566250318032205e-02,3.679793551387770811e-02,-3.958566873389648966e-03,2.961149162073422117e-02,1.006910502910614014e-01
-4.053100254801021707e-02,-1.673084863907984277e-01,-4.041182598297186901e-02,2.001508425871544733e-02,1.193508063261090359e-02,2.283452609882044224e-02,1.388562172651290894e-01
-4.504745855019655354e-02,-2.070613076555298804e-01,-2.698933250143009666e-02,9.260750722062751922e-04,2.778379355776329929e-03,7.707118560434852821e-03,1.723490059375762939e-01
-4.603797580223917274e-02,-1.780378149242092534e-01,-2.630961340324501629e-02,1.023752594826110932e-02,6.909129333420739767e-03,2.894196909832040879e-02,1.529308557510375977e-01
-4.335066044661987916e-02,-2.101449787681675119e-01,-3.599490351366498725e-02,-2.306192732979634385e-04,2.242173228627303803e-03,2.569444954389610465e-03,1.706938743591308594e-01
-4.593771986001483898e-02,-2.090517946390815229e-01,-3.364736217578633004e-02,1.267096711998847575e-03,1.837757621956237139e-03,1.082614113771591079e-03,1.696480214595794678e-01
-4.467469167065936386e-02,-2.056767887075152401e-01,-2.769889830084296123e-02,1.645838729009822072e-03,1.740913680292539715e-03,1.372187917448107908e-03,1.701935976743698120e-01
-2.561985958723177192e-02,-1.995553175514771516e-01,-4.769844500611681443e-02,3.881618702837561787e-04,1.645924678421750850e-03,2.432954621884320925e-04,1.640412062406539917e-01
-4.324062661774930733e-02,-2.101727717938989271e-01,-3.749764083265258452e-02,1.023496021350465003e-04,8.673708733221915934e-04,-4.106488350195648348e-04,1.698846817016601562e-01
-4.620878343071992134e-02,-2.210460734550975248e-01,-4.426847473679879769e-02,-1.632076261167336555e-03,6.930904853765087808e-04,-8.913988604219550554e-03,1.765188127756118774e-01
-4.504729105063283445e-02,-2.170456803915136457e-01,-4.700104173720200118e-02,1.359458504710584327e-04,-5.573353861383334960e-04,-3.405851131124609972e-03,1.711344718933105469e-01
-4.856742250973948571e-02,-2.155724709199096090e-01,-3.462155434952404742e-02,3.421052850469555404e-04,-7.288004233839916451e-04,-1.183006620461837452e-02,1.756018251180648804e-01
-4.449806377316282979e-02,-2.259501972456282870e-01,-5.414388826628410006e-02,-6.977157190090657298e-04,-9.514528613943365942e-04,-1.040170952343111473e-03,1.768476366996765137e-01
-4.508991525301641462e-02,-2.225925535806791977e-01,-4.811160129391263418e-02,9.651377895871236833e-05,-6.336591193485067303e-04,-5.448232563405018720e-03,1.762675344944000244e-01
-4.810542761052062632e-02,-2.372911317885021409e-01,-5.689375309195628810e-02,8.276485493125139772e-03,-2.771377889218018011e-03,3.270270905724333241e-03,1.856514662504196167e-01
-2.996154445781173958e-02,-1.999647307136842300e-01,-5.493676396411474594e-02,-6.911573618822693457e-04,4.707158900391386039e-04,4.147464686065470288e-04,1.590018570423126221e-01
-5.378082803379169441e-02,-2.145284757404158360e-01,-4.698368157112380039e-02,-3.238495375379126960e-04,-3.332416465286594780e-03,2.682917624284109699e-04,1.643547266721725464e-01
-5.238106256456842580e-02,-2.454957330988236097e-01,-4.568758021475569087e-02,1.902165970630291785e-03,-2.913829571438007748e-03,-5.323496863638449862e-04,1.966414600610733032e-01
-2.947918371042847208e-02,-2.103328524207884742e-01,-4.604406442369821800e-02,-3.146284590313258188e-04,2.019181322872758144e-03,3.481959289053242787e-04,1.732036918401718140e-01
-5.315536489636298045e-02,-2.167328118545554516e-01,-4.640443463679917724e-02,1.769662491454638024e-03,-1.109719522981900738e-03,7.256229625968493293e-04,1.670991480350494385e-01
-6.651875206619414782e-02,-3.562755238273885849e-01,-4.596826844894788544e-02,-1.165668755328538864e-02,5.447456663894142612e-03,2.414180176152423349e-02,3.042713999748229980e-01
-5.396725740896285428e-02,-2.335714264082275338e-01,-4.939462561091524651e-02,1.641624385058604253e-04,-4.291110785908961930e-03,4.847976150669003684e-03,1.822790801525115967e-01
-3.815055912822283568e-02,-1.912715084588767211e-01,-4.906096558685597853e-02,-5.312738903884548815e-04,5.459832299364123301e-03,1.031752845000143571e-03,1.482832431793212891e-01
-4.889099810938659502e-02,-2.073088340669499430e-01,-2.865193203434143743e-02,-2.070615480682689387e-04,-9.884328815396730989e-04,-8.120377446619030408e-04,1.694611907005310059e-01
-4.706339325193345524e-02,-1.343740073151017400e-01,-4.884938106715260020e-02,-3.166622354216286350e-02,5.603253852233426070e-03,4.916634526912057324e-02,1.335096359252929688e-01
-5.269434091996215430e-02,-2.246647554713629147e-01,-4.875077183770885197e-02,1.087552125521486094e-03,-3.121707740457509150e-03,1.079694010859357650e-03,1.740799546241760254e-01
-5.374811765649427364e-02,-2.170237543177022110e-01,-4.686727897276215388e-02,1.850395827915288314e-03,-3.331665395150572567e-03,-2.005683735828767134e-03,1.669892072677612305e-01
-4.713791759098207718e-02,-2.104744983520213941e-01,-4.766323103901055208e-02,9.851225312853726344e-05,1.925781571028563571e-04,2.836950610655069671e-04,1.630757302045822144e-01
-4.731551219454863122e-02,-1.679551188750224300e-01,-4.658876930130675942e-02,-9.806534084125879871e-04,6.761401046280499615e-03,-2.103786788749972846e-04,1.215824186801910400e-01
-5.909915337994998963e-02,-3.600032309442803280e-01,-4.890711070679218397e-02,1.168737682364144343e-03,1.178760928735861011e-02,4.973762488632428418e-04,3.068153262138366699e-01
-5.854570430457455704e-02,-2.188068180393153428e-01,-4.607530104633754398e-02,-2.194505063321824587e-03,-1.953249246466581303e-03,-3.194834490139926170e-03,1.670154780149459839e-01
-4.457218539276188579e-02,-2.127809129977416003e-01,-4.568178891378842782e-02,-6.537201554546341869e-05,3.715872816050017871e-04,1.178841755457188910e-03,1.676703840494155884e-01
-4.643543750764206335e-02,-2.163733271397880187e-01,-4.429610395875157453e-02,3.565490649670726223e-03,2.895313660323779650e-03,1.881885239860260151e-03,1.712335497140884399e-01
-4.241884327234188290e-02,-2.433191742273533020e-01,-4.186676516447018770e-02,1.598805682693883734e-02,6.328926311729547900e-03,1.199135621232217189e-02,2.044273912906646729e-01
-4.632162233480689728e-02,-1.904503896663830020e-01,-3.965637239342147125e-02,2.686588580327224163e-04,6.114597257971380630e-03,-6.990537448944341564e-04,1.479595452547073364e-01
-4.724280383373178488e-02,-2.122001523900983178e-01,-5.100067981279771817e-02,1.238025827348539741e-04,-7.001493196862720913e-04,6.024093888681103862e-04,1.631188690662384033e-01
-4.844970918572383961e-02,-2.159167692851442499e-01,-4.615789843329591580e-02,1.972620029088412684e-03,-1.490291840236897953e-06,1.414950289525259341e-03,1.686770617961883545e-01
-5.169699099809309251e-02,-2.381863628763654095e-01,-4.459571109298206271e-02,-1.828963538435956354e-02,-1.426142034944301177e-03,3.631142111369492498e-02,2.027762830257415771e-01
-3.600922223641456199e-02,-1.516582261368698836e-01,-4.297150350752104719e-02,-4.143139132695497495e-02,-2.931365132599264046e-03,-1.091374902007509126e-02,1.347248107194900513e-01
-4.541047676594851812e-02,-2.192090160174730296e-01,-4.655631268306547471e-02,-1.631030775999878397e-03,-1.104808398385149831e-03,-7.138114781615725792e-04,1.732664704322814941e-01
-4.786501074873650285e-02,-2.209826898175028531e-01,-4.663286928611263399e-02,-2.767100788082374951e-04,6.136170688696314639e-05,-8.621988608161835262e-05,1.737377792596817017e-01
-4.268781635897195281e-02,-3.282834389360912986e-01,-6.028559968262189872e-02,5.425737377869999101e-02,7.249164179777923232e-03,8.743152284164308966e-03,2.933722138404846191e-01
-3.188020114328532495e-02,-1.710912584470276332e-01,-5.206388871654109296e-02,1.624820420944791521e-03,-1.477503298314298413e-04,-4.960584153083872488e-04,1.303304731845855713e-01
-4.556274426246370579e-02,-2.776175153354078495e-01,-5.503142730044044417e-02,3.547176309402610972e-02,4.260421567424235549e-03,-2.788687187792106281e-02,2.406325936317443848e-01
-5.723831342172763792e-02,-2.585060520105744164e-01,-4.687402545738308945e-02,-2.158276312757086493e-03,5.328662524073305004e-04,-1.464787683317140665e-03,2.066963464021682739e-01
-5.529767450745282087e-02,-1.112546739252844724e-01,-5.892626032667598601e-02,1.798602256556078305e-03,-2.188103963438765669e-03,4.733936219972032129e-04,5.446143820881843567e-02
-4.637389892738475600e-02,-2.056451148810112817e-01,-3.121260248011513416e-02,-5.064200725135745108e-04,-2.583107373846772834e-03,-1.324526930355599767e-03,1.674454957246780396e-01
-5.253047103474557666e-02,-1.368706252371476029e-01,-5.140792730262651322e-02,1.154090758652205053e-03,-4.017986569509399142e-03,-3.971762803379247017e-04,8.521795272827148438e-02
-4.719305931681275906e-02,-2.107310732959123134e-01,-4.674459772799089557e-02,1.011116728398328904e-03,-1.863676096351475121e-05,1.979572057331863892e-04,1.637724339962005615e-01
-5.528139668066299472e-02,-2.439326711433921491e-01,-4.790831204946180422e-02,3.621241948265234867e-03,1.398929362856158026e-03,6.624006052049771168e-04,1.925646215677261353e-01
-5.454353375161236084e-02,-2.389682434765594277e-01,-4.686044456114743517e-02,-8.141605285212323920e-04,1.542236136825399315e-03,-9.550555650505916996e-03,1.891328096389770508e-01
-4.482038794868645204e-02,-2.124901075481234747e-01,-4.528788335928510267e-02,1.042194304045718591e-04,3.037095260489907061e-04,-4.110919187011896517e-04,1.674388945102691650e-01
-5.607855821932424684e-02,-2.228865745307438417e-01,-4.622026448128217779e-02,2.914271430159706862e-03,-2.293449738549621988e-03,-1.641592570832975818e-03,1.720926612615585327e-01
-5.524381870784616372e-02,-2.347103088456831133e-01,-4.738638411198559108e-02,2.247504786610426096e-03,2.330363579958362864e-04,-3.563644248399092454e-03,1.836668848991394043e-01
-5.190513039747031432e-02,-2.671961112773908464e-01,-5.005169935904189848e-02,1.685552844246953480e-02,3.125859483111025506e-03,6.193744085537630957e-03,2.185163497924804688e-01
-4.310764136001321578e-02,-2.099972931103498697e-01,-4.147380162944280801e-02,2.781670868941888471e-03,3.034970681929635705e-03,9.514076639940810196e-03,1.686709672212600708e-01
-3.422844797946605899e-02,-1.731098189107829755e-01,-5.932601083720702440e-02,1.461771488336691127e-03,-3.412015120561022550e-03,-1.641901241453109324e-03,1.283813118934631348e-01
-4.733601129572368588e-02,-2.212265219247771808e-01,-4.517990241056603351e-02,4.144432402982728761e-03,3.551110296647875218e-03,-1.663594058285088354e-03,1.752573698759078979e-01
-4.507983380812782132e-02,-2.118396228032845829e-01,-4.330093363736640250e-02,3.502429592190345635e-04,1.149388437647869436e-03,6.744958787260133936e-04,1.676733046770095825e-01
-4.493978442606886420e-02,-2.114609930192351550e-01,-4.383497552382406570e-02,3.078681230917215358e-04,-1.003813829740493211e-03,7.050941957227697195e-05,1.670862883329391479e-01
-4.717824241369849431e-02,-2.080626792687416682e-01,-3.824822083847886217e-02,-1.721671658778087287e-04,1.222055565383029559e-03,1.205428845356173312e-02,1.668554395437240601e-01
-2.660758772103700986e-02,-1.900208878396879575e-01,-5.006853866285156107e-02,1.298689485853621230e-03,3.719233511258115553e-04,1.813159880121189042e-04,1.530557572841644287e-01
-3.587328105599753986e-02,-1.998895262246717097e-01,-4.510357688713292207e-02,4.769051901005070745e-03,-7.529741985744953930e-03,-5.862351994399168931e-03,1.606674641370773315e-01
-3.812476370651891877e-02,-2.143439563138563320e-01,-4.440866827373886327e-02,-1.764795239862156605e-03,2.973680068871620893e-03,8.290132065252024023e-04,1.732722669839859009e-01
-4.393006926222173952e-02,-2.153305289195742989e-01,-4.282715182590667718e-02,1.639576236976555577e-03,2.519243628804010600e-03,8.095196360659328606e-05,1.720334291458129883e-01
-3.690985880364304472e-02,-2.051781084988317794e-01,-4.083616279091609180e-02,-1.088591504582135270e-03,5.637936309282217534e-03,1.489828510419242741e-04,1.666371077299118042e-01
-3.466879247715323742e-02,-2.097549436817517932e-01,-4.282078854258395545e-02,1.529311246129552932e-03,1.262903401444831920e-03,3.296462686687546238e-04,1.711912453174591064e-01
-3.293293768483074313e-02,-1.954552260851677437e-01,-4.303046030461566557e-02,-5.299480804710496665e-03,5.530072433850005860e-03,-4.429406796510623290e-04,1.582749783992767334e-01
-3.154899023418226978e-02,-2.062198458726980377e-01,-4.725801550397994155e-02,-1.147555392387130573e-03,4.563907825898831823e-03,5.794059386566286201e-04,1.675715297460556030e-01
-3.729754955012871964e-02,-1.703847560000046335e-01,-4.460250982347957471e-02,7.254437913762796196e-03,-9.417664064557353457e-03,-4.226424138415538038e-03,1.314188539981842041e-01
-3.739810807438114643e-02,-4.510224852676933405e-02,-3.619029216647984964e-02,9.242110331183463895e-03,8.112109666277821920e-04,2.847341920508297125e-02,5.254092440009117126e-02
-5.635785822674142104e-02,-1.138483801821888047e-01,-4.738041947414266264e-02,4.737524106248753621e-03,-9.722993720558229273e-04,1.444623910893510707e-02,6.780945509672164917e-02
-4.164098553338650005e-02,-2.209828343008830021e-01,-3.906997692141751105e-02,-2.712009156432797306e-03,6.839255773635612851e-03,-5.384771132362832502e-03,1.813300251960754395e-01
-5.502672612036810240e-02,-1.706257830713726609e-01,-5.186096952773882468e-02,1.771416884906466187e-04,2.379640924668031954e-03,4.481651059174852751e-04,1.172894164919853210e-01
-5.023980047474851940e-02,-7.694453514420226958e-02,-5.252648652351217529e-02,8.189237961443496250e-03,-1.140951942093710843e-03,8.608545356977252011e-03,3.293514624238014221e-02
-5.230777467499120315e-02,-7.460800902237149645e-02,-5.244541652661216524e-02,1.189260092611148494e-03,-1.411168526632643064e-03,8.856010615309734685e-03,2.719841711223125458e-02
-4.069954122182182360e-02,-1.819703234876240971e-02,-4.147947942234746221e-02,1.172335431802378793e-02,-3.026500957719625504e-03,8.832753563456745283e-03,3.461740165948867798e-02
-4.031607575247933561e-02,-2.021149645816281426e-01,-4.066910585913133952e-02,1.047610908950317039e-04,6.637810101880146745e-03,9.156921823824620387e-05,1.620312482118606567e-01
-5.693602161657589783e-02,-1.009997349309688097e-01,-5.729090004974000255e-02,3.293214717781438056e-03,-8.260966368574575169e-04,6.631219849277125884e-03,4.574496671557426453e-02
-4.821157902192755446e-02,-2.108753822930889144e-01,-4.741639605533716495e-02,1.509443974087236831e-04,-1.962843107578632557e-04,9.032078230417415858e-04,1.630709171295166016e-01
-6.043643875191853643e-02,-1.376092031253164372e-01,-5.279209949040350458e-02,1.875372168778769106e-03,-2.501053081225649947e-03,3.371622329579907970e-04,8.144731074571609497e-02
-5.637148338437469181e-02,-8.498324546157717818e-02,-5.021944287200302837e-02,-7.597617843473928809e-03,-8.253730871215978187e-04,2.211672179252417020e-02,5.172199383378028870e-02
-3.498436609568671141e-02,-2.135789736551724771e-01,-4.518444928170708280e-02,1.148840683092617774e-04,4.163426473244949758e-03,-3.083448669025199308e-04,1.738698482513427734e-01
-4.355191447716248720e-02,-2.181570334137868938e-01,-4.596408512441158001e-02,-5.000040823820606217e-03,1.389056100547479472e-03,-3.329740635303648968e-03,1.737401485443115234e-01
-4.979972923721957129e-02,-1.323622730379787060e-01,-4.857422063129497591e-02,1.700206029922931780e-02,4.986101848532258941e-03,1.273510640984790339e-02,9.136519581079483032e-02
-5.751527892899169214e-02,-9.926419567428809709e-02,-5.702104118393331450e-02,2.594860627737682955e-04,-2.175874580360685675e-03,7.017606739512212768e-03,4.388616979122161865e-02
-4.109011750882646946e-02,-2.144398490823740677e-01,-3.808546717467464759e-02,6.188798590684827135e-04,1.026324528436576948e-03,5.088717216048553376e-04,1.748859584331512451e-01
-5.877397514988989130e-02,-1.098938986783811189e-01,-5.686682236917055960e-02,1.002869357222103876e-03,-2.023299451031314831e-03,2.277043901149908896e-03,5.239494889974594116e-02
-4.870833079734979143e-02,-2.061198061838526441e-01,-2.837806854320783223e-02,-5.304124906240616309e-04,-1.522434301001574604e-03,-1.152580205845457189e-04,1.685222387313842773e-01
-5.853803014423829970e-02,-1.379402097685185624e-01,-5.076777522198649278e-02,1.659416208772007857e-03,-5.819411027426603551e-03,-5.472784383589398595e-04,8.421884477138519287e-02
-4.204301862087808650e-02,-2.389821212424707852e-01,-3.878276012769205083e-02,-2.747341929521312370e-02,4.466125787983440260e-03,-9.842378424032082601e-03,2.050671428442001343e-01
-5.652291195635376214e-02,-1.189604364897001165e-01,-4.700458421297183664e-02,4.259952765212607698e-03,3.598661205601891375e-03,1.076748796549224785e-02,7.088337838649749756e-02
-6.069914531371043559e-02,-1.274919510912724818e-01,-5.313920285758554074e-02,-3.861159617324669540e-03,-4.134891999326739329e-03,9.078170823404028977e-03,7.325734198093414307e-02
-4.682108881595506422e-02,-2.125585186230692925e-01,-3.042685119166158025e-02,-2.315086202463812696e-03,1.544793649083470817e-03,-7.666827634450452435e-03,1.750839352607727051e-01
-4.166942754118733994e-02,-2.154365489209472684e-01,-4.567256997211436437e-02,-1.792579284611832023e-03,1.750560296904473409e-03,6.111322647390353977e-04,1.718585938215255737e-01
-4.711459600891713256e-02,-2.132606646188890398e-01,-5.045888716997019852e-02,8.466751035175823850e-04,-3.706492561693696471e-04,5.544854830188932892e-04,1.645100116729736328e-01
-4.626800336085933052e-02,-2.220873423874616392e-01,-4.717760922904816467e-02,-8.631592113151683333e-04,1.842068300394616201e-05,-7.374335007514061730e-05,1.753727346658706665e-01
-4.529877236477979074e-02,-2.139443619871398972e-01,-4.753337678189139409e-02,-2.481360234490415095e-03,4.578251639062471648e-04,-4.977387409598758340e-03,1.678180396556854248e-01
-4.610232566830611833e-02,-2.163346005974137176e-01,-4.474559187522512971e-02,-1.205342685855749886e-03,4.858422872088337570e-04,-4.953522397089991230e-03,1.711446940898895264e-01
-5.224189965299287641e-02,-1.345194480262645598e-01,-4.542321184275656398e-02,5.847970671513296002e-04,2.678051518715295412e-03,-7.617078241932552334e-04,8.603136986494064331e-02
-4.718444440615650326e-02,-2.095036337947918104e-01,-4.727434225216439745e-02,6.424965883007926527e-05,8.186066381019800435e-06,-1.279341231001610718e-04,1.622744500637054443e-01
-4.662634823053075223e-02,-2.110261335150786510e-01,-4.384202034206123588e-02,-1.518112999614174268e-04,-4.529714221566919115e-04,3.681271578496410129e-04,1.658127754926681519e-01
-4.858012548928060392e-02,-2.120073129794455280e-01,-4.608161317760723491e-02,2.085118646376649153e-04,-9.047222146661721559e-04,2.247978029452095579e-04,1.646989732980728149e-01
-4.762751094559466297e-02,-2.106767797832310163e-01,-4.668779595785299552e-02,-3.073616173654780486e-04,-5.466855269927657114e-04,-7.588513492945602379e-04,1.635300368070602417e-01
-4.934130445954605648e-02,-1.961771590043714097e-01,-3.016480195236343614e-02,2.354357840241775419e-04,-6.425478897342730596e-04,-1.025323570280514511e-03,1.573177129030227661e-01
-4.581759213687174037e-02,-2.210236205044565361e-01,-3.473471535328390147e-02,-2.314327100825265375e-03,5.191688258559578988e-03,-2.623113962597104724e-03,1.813266128301620483e-01
-2.505559825614314673e-02,-1.914587483822227654e-01,-4.644317308723626414e-02,7.620423280921638683e-03,-1.642742933495931800e-03,-1.017617138812680708e-03,1.573972404003143311e-01
-4.639974354846886084e-02,-2.112687602731798120e-01,-4.600095714133549396e-02,9.929399615499557349e-04,-4.294905732717672789e-04,-4.811694556380372018e-05,1.650794297456741333e-01
-2.663794623377133131e-02,-2.048441835477983197e-01,-4.568509343235702125e-02,7.654990575196139605e-04,1.257305952353350489e-03,5.273535882458447663e-04,1.695089042186737061e-01
-4.520286083423934870e-02,-2.114942906193719163e-01,-4.588397424629372945e-02,-1.172104363341387940e-04,-4.077796969625084719e-04,-2.196640697105703270e-04,1.659539788961410522e-01
-3.764886943770934247e-02,-1.901973257071742640e-01,-4.733763963951088949e-02,-1.420538258707800330e-02,-4.809817222173680580e-03,3.924309471493566369e-03,1.503591686487197876e-01
-4.241371321003462036e-02,-2.344734159615286528e-01,-4.678137505839926463e-02,-1.828963373931333236e-02,-2.288425561941078920e-03,-1.900560359351380346e-02,1.953715384006500244e-01
-2.683829625952782738e-02,-2.018792929820134585e-01,-4.637719683621174815e-02,9.230024541495654173e-04,-6.743611693283074011e-04,-1.251166387548264701e-03,1.661614477634429932e-01
-6.555629929796791266e-02,-8.843495313346030895e-02,-5.466912235543406468e-02,-7.113467328441359927e-02,-3.316579783237689170e-03,-1.462475223604806952e-02,1.294068098068237305e-01
-3.826954892359350074e-02,-1.819563256355612446e-01,-5.242083908673378367e-02,1.223564938731737644e-03,-7.409158066350477086e-03,-9.041991165610050775e-05,1.377751678228378296e-01
-3.192648122702745894e-02,-1.670100950842924870e-01,-5.276966707634048181e-02,-1.823424102483355708e-02,-6.335240393438631296e-04,-3.887354037045425304e-03,1.300401836633682251e-01
-3.747277009815660337e-02,-1.579595714703301845e-01,-4.618968776114136532e-02,-2.883684081329579083e-02,-7.930970464185720104e-03,6.193071071397316524e-03,1.278328299522399902e-01
-3.191821957896551210e-02,-1.996129855413347476e-01,-4.823800444950730737e-02,-9.002344906189872070e-03,3.644652113396814469e-03,-3.437922682376415729e-03,1.611507385969161987e-01
-4.503567753911293103e-02,-1.594636956479795753e-01,-4.657708456776119693e-02,-3.246960379065997465e-02,-4.646955806597245081e-03,1.350114755633122741e-02,1.292061060667037964e-01
-5.857289246439396219e-02,-2.503461234643126754e-01,-4.764758463357260387e-02,-4.273724352507089937e-03,-2.950322894558588243e-03,-2.244609467255244753e-03,1.977056860923767090e-01
-4.309031157012688240e-02,-2.163165128122457315e-01,-4.538104884157064672e-02,-3.182457794271641160e-03,1.087265780002975857e-03,8.535793539533236083e-04,1.721971631050109863e-01
-4.998101019188362637e-02,-2.087375591267711106e-01,-5.888692819149507485e-02,5.970302013009098907e-02,6.435099708990590743e-04,-4.080690952695222723e-02,1.988951712846755981e-01
-6.586395860337296293e-02,-3.221695054343769460e-01,-5.282143699790681213e-02,-5.810103499342284677e-02,7.318660085874500489e-03,4.438957737319824265e-02,2.922408282756805420e-01
-5.185288159724867063e-02,-2.499065489232479564e-01,-4.604796641546296532e-02,8.288146349242766359e-03,-2.806859451453024793e-03,1.403814883814451502e-03,2.016042321920394897e-01
-3.841674804630082485e-02,-2.098805100324629413e-01,-3.963733150059174648e-02,3.675252773050751180e-04,1.011396488269828559e-03,-2.233599845145873544e-04,1.708673387765884399e-01
-5.100633819745249709e-02,-2.449312054532569727e-01,-4.723436138479551738e-02,-4.646338818020968528e-03,2.280736882370723096e-04,-6.698615002944944413e-03,1.963468790054321289e-01
-4.916511303216920814e-02,-2.169793835948029270e-01,-4.260822340361127697e-02,-7.801340707274577804e-03,9.370418418143355811e-04,-8.173438863099177082e-03,1.723095923662185669e-01
-5.004530260948467091e-02,-2.072766739584870899e-01,-2.744852261026346774e-02,3.615645196116209657e-05,5.287609271274135506e-04,-2.775459939819797050e-04,1.696653068065643311e-01
-2.890450673525961356e-02,-2.051790829878278877e-01,-4.496771603180600707e-02,1.272440068416385263e-06,1.977130647135920058e-03,1.390438180885801263e-03,1.688690185546875000e-01
-2.829030347090737835e-02,-1.997894200827802780e-01,-4.247167474959123723e-02,7.510569892297722615e-04,2.041397333901327944e-03,2.383979053583303205e-03,1.649612337350845337e-01
-3.254878827930947349e-02,-2.121688386791915071e-01,-4.252481701958121113e-02,2.652536042220148116e-05,2.417051042703866406e-03,2.813729203690814055e-04,1.748964190483093262e-01
-5.403663860909934530e-02,-2.275966771774555752e-01,-5.270386977630706765e-02,7.253062647996117926e-03,3.087804282909340468e-03,-5.991028970628311384e-02,2.032494246959686279e-01
-6.225357372666971006e-02,-2.247047769239960413e-01,-4.649654411167275514e-02,1.444365403380881620e-03,-1.630077910237025035e-03,-1.185535823191070579e-03,1.709294319152832031e-01
-4.793195473363928705e-02,-2.199011584154637045e-01,-5.011660002350273174e-02,1.778000423064859253e-03,1.031481326889690121e-03,-2.257318776774576430e-03,1.709691435098648071e-01
-3.514099357250355382e-02,-2.298765589970765133e-01,-4.236095746637325715e-02,-1.268038535599726006e-02,4.699863008122438031e-04,-1.596720875168268841e-02,1.944633126258850098e-01
-4.202963590465979421e-02,-2.145674760926724045e-01,-4.189427470892643363e-02,-4.432458297456563410e-04,3.531095039745640960e-03,-1.282469817681747780e-04,1.727157384157180786e-01
-3.952764381899679519e-02,-1.749637237500976938e-01,-5.856460257610086872e-02,-2.151265593018372550e-03,-6.161383169387498263e-03,1.423434992206919604e-03,1.275182217359542847e-01
-3.836949235075308440e-02,-2.146865181926841948e-01,-4.054885945238484446e-02,3.895321926795253806e-04,3.009634240682164050e-03,-1.764823162939212794e-04,1.753165870904922485e-01
-3.481183347333841743e-02,-2.080024572675960304e-01,-4.403015733438724044e-02,6.692948638685873607e-05,5.100684892079484362e-03,-4.197633917096101953e-04,1.690030694007873535e-01
-4.815210905259589835e-02,-2.234855891377813264e-01,-4.660616949332741649e-02,3.215579577418727943e-03,-6.974558782495639308e-04,-1.339480630200658683e-03,1.762190014123916626e-01
-4.319819583294916276e-02,-2.585845689746916753e-01,-4.949815621031740387e-02,1.310265906216232130e-02,1.397592279096539734e-03,-3.764554791529606259e-02,2.232633233070373535e-01
-3.190210482356484190e-02,-2.092384724669109630e-01,-4.681064661733314730e-02,-5.840612847803681659e-03,1.687269632221637811e-03,-1.868759731367685382e-03,1.707278043031692505e-01
-6.207385422778747414e-02,-1.019849733910702244e-01,-5.928456084800910741e-02,-6.816917178708845927e-04,-7.653861285602495297e-03,-1.324348454699253268e-02,4.914580285549163818e-02
-2.546441281024035275e-02,-2.002727843709548594e-01,-4.578227398090055356e-02,5.801940603165514718e-04,1.947207081318830637e-03,6.411636203307370684e-05,1.656244099140167236e-01
-5.022040859212683478e-02,-1.440529794416659515e-01,-3.761445157711919285e-02,-1.903356433629666391e-03,4.176711525092141803e-04,-1.831007594499487606e-02,1.056573688983917236e-01
-4.645565771250745324e-02,-2.074315336012915734e-01,-3.512450008016947123e-02,3.541532159917464158e-04,3.988386843356868730e-03,-4.964695873402081867e-04,1.670763492584228516e-01
-4.556343987429319758e-02,-2.136867988665146212e-01,-4.272686060889679949e-02,-3.099199184429435230e-04,5.328372019724996866e-04,3.083240207986096774e-03,1.696468740701675415e-01
-4.631870587193998023e-02,-1.081150605928867248e-01,-4.322530057680990662e-02,-1.123681668031922994e-02,5.550842540595559912e-03,-1.089830669970854107e-02,6.962092220783233643e-02
-4.765952237222820242e-02,-1.167728346964675701e-01,-4.531765304078452794e-02,-1.285455474738001098e-02,5.313720089690299533e-03,-1.239173896701572380e-02,7.736329734325408936e-02
-4.442603880038524522e-02,-2.663277294948299678e-01,-4.952395322894986851e-02,-5.055982498972035055e-02,-4.804990021632777469e-03,1.714992805256659175e-02,2.382343858480453491e-01
-4.152107949128057418e-02,-2.142967556090482617e-01,-4.075489356723722978e-02,2.599411924530407782e-04,5.246446281278658013e-04,9.578436769718627879e-04,1.731709539890289307e-01
-3.852876823427101027e-02,-6.789282459568343753e-02,-3.952033465291777264e-02,-1.331039388121838668e-02,-1.575930068864147366e-03,-3.481906893467601183e-02,7.078253477811813354e-02
-4.321335470452598859e-02,-2.126634668425826380e-01,-3.852208580567966639e-02,2.231953962787077447e-04,3.708245042927073992e-03,9.168750386246724362e-05,1.719642728567123413e-01
-4.957921151445954938e-02,-1.499357487609978279e-01,-3.385155077072120322e-02,4.199913311540041591e-03,-3.353186883876485645e-03,-3.461067254137407956e-02,1.248099058866500854e-01
-5.156267121612838344e-02,-1.383953000555263324e-01,-4.775715001306970325e-02,-8.146890342077602737e-03,2.980251848733058394e-03,-3.898140120998515312e-02,1.125577241182327271e-01
-5.088187239103872384e-02,-1.460062933189430479e-01,-3.899463562498297481e-02,-2.456728912244408522e-03,7.395815644621493365e-04,-1.592218113258360782e-02,1.053613945841789246e-01
-4.243514189138530152e-02,-2.121871021256166445e-01,-3.759212669700954385e-02,-1.087953046259574794e-04,9.804268191984202071e-04,1.329562777281952969e-02,1.737657487392425537e-01
-4.003196775119803597e-02,-2.131259137639661683e-01,-4.435246885811183065e-02,1.311645628879431341e-03,8.138032129731663251e-04,8.534922225680073929e-04,1.710019409656524658e-01
-4.566216007471170929e-02,-1.810969950988361998e-01,-3.936396460718365187e-02,3.885399736784746270e-04,-5.761321759808685390e-03,-2.031242281726000978e-03,1.390958875417709351e-01
-4.050310693802477296e-02,-2.409498860135191323e-01,-2.714730003162994787e-02,-2.083638254474442890e-03,4.333734251204755458e-03,2.421829663018269102e-03,2.076568901538848877e-01
-4.859918418544911106e-02,-2.160539318868967829e-01,-4.099898807889832547e-02,-2.415388897012586689e-03,5.785786653321607327e-04,1.374670553311099080e-02,1.730808168649673462e-01
-5.034998776653237806e-02,-1.794767150001242428e-01,-3.753751230009808731e-02,-2.720064898868116560e-04,3.042679154793397241e-03,-1.496500406042643085e-03,1.361139863729476929e-01
-4.467182969984639235e-02,-2.189750430752919197e-01,-4.493143749110722895e-02,-2.016527609404536545e-03,1.296502155503331778e-04,-1.815079064590764853e-03,1.742370873689651489e-01
-5.045961880470264949e-02,-2.923398129279067836e-01,-5.307680833576802759e-02,1.300226990529790988e-02,3.619658905574999527e-03,3.250369633737183739e-02,2.481849789619445801e-01
-5.443033996948884456e-02,-2.168036986523020071e-01,-4.605498505642927759e-02,2.323588273972383429e-04,-1.607050959003993680e-03,1.248543902208175752e-03,1.667566299438476562e-01
-6.458329176329913324e-02,-3.553606772454291907e-01,-5.751526315318714055e-02,-1.509845844306251586e-02,-1.206720149407835597e-03,3.458812778132938637e-02,3.015525639057159424e-01
-4.826537160340529931e-02,-1.992597245067919687e-01,-2.541053389800039530e-02,-1.833334663292571524e-03,-1.910896942889731389e-03,5.178233300244306815e-03,1.639331281185150146e-01
-5.215898102292558514e-02,-2.543454961948082849e-01,-5.758479720456612105e-02,-1.704034704043280377e-03,-3.013035953788697173e-03,8.642523637124539587e-04,1.996246129274368286e-01
-4.323528315503588626e-02,-2.174733474200158945e-01,-4.615857177907241315e-02,-7.685901318619440918e-05,-5.467926333105284148e-04,1.353744426161562243e-03,1.728135198354721069e-01
-4.445317741904453862e-02,-2.171198355794492219e-01,-4.530677708207620641e-02,-4.542637931322874374e-04,1.916920831857479293e-04,7.153083935414784877e-04,1.722480207681655884e-01
-4.567324117377314502e-02,-2.165694274259350460e-01,-4.710696006776358968e-02,1.567124157474109308e-04,6.530573963225614308e-04,1.341760187705501317e-03,1.702037006616592407e-01
-3.635330248300002592e-02,-2.092337460710189667e-01,-4.129973135955259528e-02,1.054385202505186579e-03,-2.809837101165487804e-03,-4.274497704077602576e-04,1.705419123172760010e-01
-4.507686831646777470e-02,-2.238361094846640920e-01,-5.782073643104587019e-02,-2.026128281050736373e-03,8.098509115963035227e-04,6.405970344007326078e-04,1.727851331233978271e-01
-4.289179704262171405e-02,-2.116170490584752539e-01,-4.145569176254953331e-02,1.271914049211228591e-04,1.062862566070555423e-04,-2.761733414943960208e-04,1.694487929344177246e-01
-5.564641996085080422e-02,-2.165889193038020299e-01,-4.510303641080141979e-02,-4.692913159562085062e-04,-1.683248420266405046e-03,1.618177039021749639e-04,1.664925515651702881e-01
-3.689673574782259546e-02,-1.325491559942224284e-01,-4.911447562481434381e-02,-3.784362430454371595e-02,-3.264705934169541326e-03,1.668701028066923867e-03,1.116546019911766052e-01
-4.147053159620889273e-02,-2.212713419730792386e-01,-4.779046955532863239e-02,-6.032891460605894866e-03,3.334991710630333481e-03,-5.621897827899034750e-03,1.773959249258041382e-01
-2.820705479836904672e-02,-1.933885054453417240e-01,-5.267071901108245913e-02,-8.644590476972285192e-03,-1.713817790893530646e-03,-1.298869191072413772e-03,1.551789194345474243e-01
-2.426018204087158903e-02,-2.048555117725043284e-01,-4.976877968381074324e-02,2.007268549543082901e-03,3.969952643428697808e-04,-2.019976356663618440e-04,1.693260520696640015e-01
-4.482514817128487039e-02,-2.078838917741228920e-01,-4.761443271246923459e-02,-4.392860418647034221e-02,1.029982601381660432e-03,-1.017840122322478860e-03,1.787080764770507812e-01
-4.101725067950591497e-02,-2.122908899258542648e-01,-3.643920594820665437e-02,-1.786269987301090381e-04,-6.420890295998180237e-04,2.047509987541844479e-05,1.736117750406265259e-01
-3.869635755074996020e-02,-1.943338696009491717e-01,-4.162288349103063223e-02,2.098101607916452423e-04,-6.578158470569466822e-03,-1.322467879299854521e-04,1.546160578727722168e-01
-4.562222998383651251e-02,-1.922228838522463956e-01,-4.516767196633787035e-02,-5.554990277319260539e-02,8.257781785329344152e-04,-2.078346682397962802e-02,1.792034506797790527e-01
-3.539129569233512296e-02,-1.939398436154688987e-01,-4.785072933294481912e-02,-2.936742137871333619e-02,-2.339090459861358244e-04,-7.325673433004529361e-03,1.614495366811752319e-01
-4.616319221700907610e-02,-2.123461882106386922e-01,-4.769428667570560498e-02,-8.416409693600715404e-04,-3.172676190257440044e-04,-1.145724849909036686e-03,1.654420047998428345e-01
-3.406388843737156308e-02,-2.076595428302304702e-01,-4.333549434459915695e-02,-7.813854205949375678e-05,-2.521799789537774918e-03,-8.709524299308291567e-06,1.692069768905639648e-01
-4.602353770981678499e-02,-2.114859877675489275e-01,-4.434912320510734501e-02,-3.976633114093826651e-03,9.062602300945777093e-04,-3.826931805717376060e-03,1.665878742933273315e-01
-4.980775036313379867e-02,-2.446300900192748817e-01,-4.761455755824943459e-02,1.034204413867292590e-03,1.011770718740962740e-03,-1.096417191707091572e-02,1.968622803688049316e-01
-5.311754378842549473e-02,-2.168632984215552173e-01,-4.825220837009768643e-02,-3.846959098717157876e-04,7.572647336602088709e-04,-1.306020105635419433e-03,1.662537306547164917e-01
-5.100145597142371340e-02,-2.138960852241504618e-01,-4.570268003304128052e-02,3.845611698580811660e-04,1.044492693715988896e-03,-9.718386898366117039e-04,1.656273752450942993e-01
-5.260270699931141047e-02,-1.988502771418065862e-01,-3.104168001345590511e-02,6.972928038083891708e-04,1.174589145667933850e-03,-1.464153240541700212e-03,1.581723988056182861e-01
-4.864534914575718155e-02,-2.134144031404727471e-01,-4.706037173790005718e-02,-1.465626383445287929e-03,2.310521937608353647e-03,8.275301390974374935e-04,1.656412482261657715e-01
-5.259746599217029334e-02,-2.349163825996276600e-01,-4.640166848171892178e-02,2.247819529525537860e-03,-6.700361396179447214e-05,-6.872230055200961862e-03,1.859167516231536865e-01
-4.496444478114138693e-02,-2.171668067345569608e-01,-5.874632649237418458e-02,-9.412344206022353263e-04,-4.058351845981132233e-04,-7.221483469643658060e-04,1.657559573650360107e-01
-4.307236349180920687e-02,-2.129557678362031803e-01,-3.502603340057673653e-02,6.734987761405832486e-04,9.162593870238910140e-04,1.245333608995649751e-04,1.740573942661285400e-01
-5.150346295686887566e-02,-2.169830356950474548e-01,-4.811875002946407881e-02,-1.111994042509955699e-04,2.590129362023656755e-03,-2.002684282770421462e-03,1.672938764095306396e-01
-4.890274169395507353e-02,-2.177037901988365942e-01,-4.573452906455496847e-02,-1.155283493795278543e-03,-1.296512680607706143e-03,-1.942516412363318005e-03,1.704669892787933350e-01
-5.350204139526898439e-02,-2.138689335201163222e-01,-4.606014339987711537e-02,1.106231883162123999e-03,7.388060701380898352e-04,-1.026109079794830774e-03,1.642401367425918579e-01
-4.846846111054336353e-02,-2.132718356949021565e-01,-4.580017061247073501e-02,8.383385186205231498e-04,5.688137539264612359e-04,8.615611715554487206e-04,1.661695539951324463e-01
-5.076795280656976050e-02,-1.652232338761248642e-01,-3.388919423829749034e-02,7.158657802027541730e-04,-2.271732173414884714e-03,-1.101308552491291493e-03,1.238443553447723389e-01
-5.646929738578020802e-02,-2.209600085663139257e-01,-4.460421928062630048e-02,-3.816967570253506628e-04,-1.164595310355642701e-03,-1.192288995494106101e-03,1.707584261894226074e-01
-5.757880134547630618e-02,-2.216602051465716705e-01,-4.454450976245906413e-02,1.859924363137585752e-03,-1.385559826161809720e-04,-1.000188754005930120e-03,1.710108816623687744e-01
-4.828486677277298716e-02,-2.024715582498834709e-01,-3.329294832071149485e-02,1.544086682247111360e-04,-5.717815479750774053e-03,-4.328857512439637247e-04,1.625071167945861816e-01
-5.618342828829987756e-02,-2.212777228795921591e-01,-4.582790233576199135e-02,2.656375885192178337e-04,-3.383564849330594174e-04,-4.774322577257256541e-04,1.705117076635360718e-01
-4.579679579498019404e-02,-2.333798274362761660e-01,-6.217923178194097178e-02,3.187429450064136437e-03,4.395237803235531662e-03,-3.279579551520228706e-03,1.802870184183120728e-01
-4.637664510679511548e-02,-2.124580849920469916e-01,-4.992105273808469801e-02,-3.565934676041823638e-04,-4.518475394309679513e-04,1.841830594234100974e-03,1.643718928098678589e-01
-5.786277514030351010e-02,-2.485388738201486092e-01,-4.457833565992798397e-02,1.211366474798547446e-03,-1.269537635432680051e-03,-6.059470235750021028e-03,1.979552060365676880e-01
-5.167855476877578763e-02,-2.204994064226019068e-01,-4.753573999226883007e-02,-6.510402488522833717e-05,-3.926451984362649625e-03,8.861814978552370620e-04,1.710720807313919067e-01
-3.561425335979712115e-02,-2.174389846649620317e-01,-4.800856718966668713e-02,-8.362482309912805129e-04,3.518602107266548089e-03,-6.152698808780217776e-04,1.760699748992919922e-01
-5.613225622395025260e-02,-2.161685525545036235e-01,-4.672557817311989020e-02,-1.883707994390644406e-04,1.898361973658388392e-03,-1.947116593279748066e-03,1.650085002183914185e-01
-5.232100353500645368e-02,-2.227010066978943326e-01,-4.665988468533255329e-02,-1.709078912434598523e-03,-1.218231224978793582e-03,-2.266734673938363245e-04,1.733185052871704102e-01
-4.879052455408763866e-02,-1.965077624416549651e-01,-2.621131107908863944e-02,2.836843223066225998e-03,3.793499847057499319e-03,9.042151364596849247e-03,1.611773520708084106e-01
-4.859338434452656341e-02,-2.053082795395269056e-01,-2.694249518577362945e-02,-6.691012907899199478e-06,-1.718225874201056633e-04,5.527574156432293005e-05,1.685865819454193115e-01
-5.052166835887294399e-02,-2.061856289998735825e-01,-2.709618470481446606e-02,-1.067951568668116212e-03,-8.861299061041523614e-04,1.980268619005754079e-03,1.686536967754364014e-01
-4.564438673010528386e-02,-2.064712454008982845e-01,-3.264281282319571320e-02,-1.904122658387935162e-04,-3.016885329106587434e-03,-7.455828467930543553e-04,1.677927374839782715e-01
-4.633603825614859145e-02,-2.045833195894171397e-01,-2.648604995702719123e-02,1.519024895626579306e-03,1.433299087789149939e-03,1.306571379487314697e-03,1.691024452447891235e-01
-3.371954997762761225e-02,-2.096891814509639351e-01,-3.856701962434028880e-02,-5.441362648134163895e-04,-7.010340875743233460e-04,9.733801951521510931e-05,1.736035495996475220e-01
-4.915018520332720131e-02,-1.986163820754272280e-01,-2.628252653517126891e-02,-1.352430915657637771e-03,-1.180855620462285252e-03,4.659216416622425673e-03,1.623447239398956299e-01
-4.094645293879531356e-02,-2.114068192457719264e-01,-3.593948272800452648e-02,3.748133966086818680e-04,-4.773756354674788330e-03,-2.707464557849880576e-03,1.732803434133529663e-01
-5.082816206571744155e-02,-1.939920714217327480e-01,-2.507701709187069861e-02,-2.134125303963841573e-04,6.204254132524545783e-04,6.259175478696207308e-03,1.580015271902084351e-01
-4.169620839766977755e-02,-2.057895380653919637e-01,-3.603077235868904632e-02,-6.241639396635946090e-04,-5.539055320531301348e-03,4.116936137163194399e-04,1.672785133123397827e-01
-4.956422372781572883e-02,-2.016408517986439941e-01,-2.569743343135474922e-02,-1.175451008882386246e-03,-8.275144389685451128e-04,6.634266856430640806e-04,1.653300523757934570e-01
-4.946606069185163768e-02,-2.013549763401853154e-01,-2.534098795138566007e-02,-1.186898333462645767e-03,-1.271953989823787316e-03,3.406751278788150514e-03,1.654100716114044189e-01
-3.776719461028088531e-02,-2.110757773448676544e-01,-4.370332652919230870e-02,6.512900798275600422e-04,-8.778244530893313836e-04,-4.864608619272858662e-04,1.704306751489639282e-01
-5.087976472666734529e-02,-1.997970614045173066e-01,-2.535362128001215909e-02,2.807150781059096709e-05,-5.432985977872680384e-04,3.687018291842905551e-03,1.633122712373733521e-01
-3.667044069263128425e-02,-4.601664290026817594e-02,-4.130560421896040113e-02,-1.905873472179773348e-02,-6.570785483546532670e-03,1.523972485298552559e-02,4.451398178935050964e-02
-4.255491179042272809e-02,-4.300200946771801092e-02,-2.721038412375245685e-02,1.544622999491801485e-02,-6.529040140878471059e-03,9.200139726365699766e-03,3.660718351602554321e-02
-5.451311854715197580e-02,-1.246384700123433636e-01,-5.522932245182832212e-02,-1.225294875090095041e-02,-3.527448937160680958e-03,-2.161151985326721647e-02,8.219951391220092773e-02
-4.989344481621404287e-02,-7.810807181984004421e-02,-5.255287730654561312e-02,-8.917993168890532563e-03,-1.650375936724284877e-03,-3.741101422028419738e-03,3.188813850283622742e-02
-5.177932362315808973e-02,-8.238226812086718587e-02,-5.935691047937234621e-02,-1.823522719857145410e-02,-4.220636389425650413e-03,-8.852678959982443474e-03,4.525687918066978455e-02
-5.200553207713664444e-02,-7.765468872968765701e-02,-5.199954659209825303e-02,7.966915160012511682e-03,-1.803390543816188029e-03,5.815883623613005843e-03,3.097867220640182495e-02
-5.301645997242206143e-02,-7.972028041370288198e-02,-5.344734893127789377e-02,6.303030656661329743e-03,-1.303409072445396201e-03,8.587629510701352137e-03,3.236196190118789673e-02
-5.781005487589384317e-02,-1.275406451541744868e-01,-5.649854622034472529e-02,-2.006676897006314658e-02,-2.124098508158271149e-03,-1.795185479678311491e-02,8.452156931161880493e-02
-5.689810280634273465e-02,-9.760005509931901635e-02,-5.514161092868521963e-02,3.400604829250931374e-04,-3.592444711111415605e-03,-1.648300787240523100e-03,4.217157140374183655e-02
-3.983997223085142259e-02,-2.150119745858196929e-01,-3.655969561459021522e-02,1.542513171573778319e-04,1.665139215653091897e-03,-3.867229243371347078e-04,1.768599450588226318e-01
-6.070291705482102479e-02,-1.323238336855132591e-01,-5.866544185725745125e-02,-1.372520741552621902e-02,-2.749176615857149442e-03,-1.101579790167079437e-03,7.662304490804672241e-02
-4.731966869768283734e-02,-7.734100337178817508e-02,-4.657294947136694785e-02,-2.296866298708066800e-03,-3.886577671312471758e-03,-7.851402097573106226e-03,3.421012312173843384e-02
-3.980171051442922547e-02,-1.885647677250842369e-01,-3.985186121044206886e-02,5.125688040174075644e-03,8.476768134065636173e-03,2.829528532637260244e-03,1.498045176267623901e-01
-5.291310211340828629e-02,-1.302903796913386092e-01,-4.778589066702751409e-02,3.303356078378522770e-03,-6.901140090842635333e-04,-2.337998179038461993e-03,8.037925511598587036e-02
-3.923910853090998435e-02,-2.124598455977435296e-01,-4.178653516401263646e-02,4.597548843866653442e-04,-2.349037009633647558e-04,-2.388859891830956916e-04,1.719640046358108521e-01
-4.099082461192647686e-02,-2.119015673772994823e-01,-4.119662581088451986e-02,4.572926349550384702e-06,-1.072868666005394756e-03,3.162701882440611869e-04,1.708189249038696289e-01
-4.321067653613239190e-02,-2.114229534556976708e-01,-4.449604502660130245e-02,5.216621866541075285e-04,-9.704269416562053040e-05,-4.813934152753222037e-04,1.675778776407241821e-01
-5.338978724873058579e-02,-1.462619157287098348e-01,-5.810919525757549803e-02,-1.232571319110917392e-02,-4.539230409441756542e-03,-5.808669319565273881e-02,1.372915804386138916e-01
-4.181553056416450337e-02,-2.119525725204875199e-01,-4.471014501244855582e-02,6.037579717867450546e-04,-1.739508069812220094e-03,-7.789516967899396066e-04,1.687438935041427612e-01
-4.600423225073629191e-02,-2.145104289918685625e-01,-5.547445398105045611e-02,-1.484428522563742913e-04,-8.553641298669182767e-04,2.182308368422576563e-04,1.639836430549621582e-01
-4.872380512114281303e-02,-2.086745142170433887e-01,-2.792081783188897492e-02,-2.650100558825231289e-05,2.483478792574204518e-04,-6.673039935286822349e-04,1.713066548109054565e-01
-4.050127606200967095e-02,-2.114623634517585615e-01,-4.367091068577740043e-02,-3.272433309509086702e-04,-1.776374226398865852e-03,-4.856992629464517482e-04,1.694294810295104980e-01
-2.670671420046905747e-02,-1.612483190856420917e-02,-3.822878039199444078e-02,4.548119237556181096e-03,-9.451652484938507376e-03,-8.476000948865287585e-03,3.020338527858257294e-02
-4.404530371695992985e-02,-6.850591963332229584e-02,-4.785177045909328603e-02,-2.638349862217015743e-02,-3.433612498144796629e-03,-2.842456803181584238e-02,7.118431478738784790e-02
-5.077413884382856596e-02,-2.061628702341090358e-01,-2.867036750862397843e-02,-2.423449246778870713e-04,-1.522372700590955827e-03,-1.161403283992932286e-04,1.675591915845870972e-01
-5.674617446238361396e-02,-1.038371245933088771e-01,-4.915226534027340027e-02,-1.785392927686371700e-02,-7.053664972881287971e-03,-3.120992983148718203e-02,8.161225169897079468e-02
-5.416999505580648300e-02,-1.608541688798828251e-01,-4.197343621105437128e-02,-9.828770928103545967e-03,1.794161895113390807e-03,-1.490157928660737832e-02,1.174610182642936707e-01
-5.072870721398520938e-02,-9.241847612431421111e-02,-4.094406773166444496e-02,-2.807813454422016658e-02,-6.941263596447369393e-04,-2.025247857352410752e-02,7.641187310218811035e-02
-5.553097909533587923e-02,-1.266992821374104961e-01,-4.747377990498202749e-02,-2.694182348404926611e-02,8.902433971440593726e-04,-2.486081292745564303e-02,9.867829829454421997e-02
-5.170054511387836560e-02,-1.602437860103577139e-01,-4.169514189678860672e-02,-9.546579917931827253e-03,2.499432855576811004e-03,-1.486901649479537187e-02,1.179965138435363770e-01
-4.505579411269209494e-02,-2.150717328668028672e-01,-4.979092270604580650e-02,-2.180899942283461360e-03,3.356367606133031211e-03,3.453956392860688639e-03,1.679483503103256226e-01
-4.709007099063625135e-02,-2.066821951154310388e-01,-3.103548266768925423e-02,-3.189408946236536738e-04,-2.352112123628225231e-03,7.484106129413591523e-05,1.682453602552413940e-01
-4.834398193603391125e-02,-2.362638944032141586e-01,-5.563508750205695824e-02,-3.116192356597960629e-03,2.807827195214270682e-03,-1.140546123384760403e-03,1.845361590385437012e-01
-4.312694592556166190e-02,-2.263368424100633547e-01,-4.373993479408427865e-02,-1.446164481991818636e-02,-1.295299603165766438e-03,2.377360985948550817e-02,1.891611516475677490e-01
-4.887825778579082958e-02,-2.543239320057913977e-01,-5.751135395537068651e-02,-9.414935806723600392e-03,8.315591622794595624e-04,6.171621241715820501e-03,2.022154480218887329e-01
-4.484061270715529457e-02,-2.119192443258087755e-01,-3.367258134021708371e-02,-7.815697871429896481e-04,-1.310977406682233741e-03,-1.194483085454277208e-03,1.729658991098403931e-01
-5.254158797547206494e-02,-1.706909747427856061e-01,-3.062024547937131080e-02,6.816987408503386546e-03,9.163094929044054678e-04,-2.230465817096165954e-02,1.366171389818191528e-01
-4.569351243385439548e-02,-2.222097436766567458e-01,-4.611968981929390199e-02,-1.042781620869672951e-03,-1.176456213314477396e-03,8.800697483132918775e-03,1.769822239875793457e-01
-4.767121963250986472e-02,-2.409784387357102320e-01,-5.065522858659176481e-02,-4.240377921582323510e-03,-1.061948994681143716e-03,4.613010203414934923e-03,1.921481788158416748e-01
-4.610639017539278073e-02,-2.057969604348562909e-01,-2.796682243444920113e-02,-3.074127016172369825e-04,-9.518223309476077061e-04,1.532188518636475971e-04,1.694990098476409912e-01
-4.396603665947617506e-02,-2.107873566174822966e-01,-3.337395557525581202e-02,-1.439062717254444056e-04,-1.478033655533539251e-03,-1.406674532061073270e-03,1.723980307579040527e-01
-3.800999147763263475e-02,-2.146389662991015634e-01,-4.224078521947013248e-02,5.036341386168742551e-04,9.481263123973294495e-04,5.272291169274936646e-04,1.745643317699432373e-01
-3.865015382912802971e-02,-2.122382021965876220e-01,-3.608826568862728151e-02,1.317002983611607588e-04,-9.348238099287091603e-04,-1.056796309409424660e-04,1.748908013105392456e-01
-3.626090063516676509e-02,-2.145050323193644637e-01,-3.989944430813268522e-02,1.050236769649631657e-05,1.861458991424686351e-03,4.307778511022581410e-04,1.764840334653854370e-01
-4.601506647255501625e-02,-1.798266593910705091e-01,-4.600029707189210587e-02,8.324841120112087735e-04,6.838194704388590554e-03,-1.135437900468934055e-04,1.343499869108200073e-01
-3.837907943778325059e-02,-2.148868048477908799e-01,-4.089695665889604009e-02,1.276863562197459853e-04,6.762109171284536990e-04,6.318294667807391541e-04,1.752698272466659546e-01
-3.165187477784901088e-02,-2.004291098192772513e-01,-4.181273159946292950e-02,6.273232504880564553e-04,-3.960522786337728612e-03,-8.914453924621586244e-05,1.640802770853042603e-01
-4.230201621901472780e-02,-2.109139266646797850e-01,-3.860254833145761177e-02,1.058586982097823670e-03,2.141654895597215093e-03,-2.087659370445391007e-04,1.705423444509506226e-01
-4.236943579841885577e-02,-2.052531226950840282e-01,-3.290151547281541106e-02,-3.857769826160120500e-04,-4.689646927317918206e-03,-2.076959937648748162e-04,1.680162549018859863e-01
-4.894700495694509490e-02,-2.096884028919286380e-01,-4.899980459218077761e-02,1.909680878646641852e-04,-1.290379144657154771e-04,1.276117237444838537e-04,1.607156544923782349e-01
-4.588418415571588610e-02,-2.114685789010344319e-01,-4.628370863579797656e-02,4.005643612726790450e-04,-8.786862505222835240e-05,1.675091453220854318e-04,1.653867810964584351e-01
-4.226534064053414502e-02,-2.103335946336497841e-01,-3.884681144329894809e-02,2.074287358059533916e-04,1.087780419146249823e-03,5.065944448888005719e-04,1.698164343833923340e-01
-4.742453748939731706e-02,-2.134632781961662562e-01,-5.072624033257105980e-02,2.637881225051198070e-04,-5.792233946387424955e-04,-4.661406914562242606e-05,1.644164770841598511e-01
-4.627822166126604325e-02,-2.119247405945678953e-01,-4.637481026523045113e-02,-6.277015507562325441e-04,-4.126545172992419452e-04,-5.258008298648699516e-04,1.656058579683303833e-01
-2.960974246418709988e-02,-2.064841059551920655e-01,-4.242163379268878987e-02,-6.246491094410696124e-04,-6.652326234094116343e-04,-1.969610204893247824e-05,1.708364337682723999e-01
-4.211643743929252559e-02,-2.102507407574960574e-01,-4.212440596756805017e-02,4.923165641336824973e-04,1.065400491579868375e-03,-9.063589106711591537e-05,1.681426763534545898e-01
-4.514551215781131832e-02,-2.115148733209887277e-01,-4.591847716411322916e-02,2.880590192100284394e-04,-3.382985387661221078e-04,-3.135996881825281251e-04,1.659868955612182617e-01
-4.218374165293678479e-02,-2.110521205274549228e-01,-3.997490022643949981e-02,-7.626042705770564797e-04,6.242844819149414529e-04,-3.792670180206369839e-04,1.699934005737304688e-01
-4.353125469587904028e-02,-2.105006946567231640e-01,-4.296255511556958812e-02,-1.599234471304604444e-04,3.388912131205013001e-04,-6.881719534289172050e-04,1.672600209712982178e-01
-3.732267236526953802e-02,-2.122754014448365867e-01,-3.673977980239834934e-02,-3.376851345227648927e-04,-4.128133214830090976e-04,2.736875875736583994e-04,1.752479821443557739e-01
-5.107864174759201015e-02,-2.407241987666896010e-01,-5.051719790182905567e-02,5.916617756085942002e-03,3.750722722436520065e-03,-4.670300116905003532e-03,1.904859244823455811e-01
-4.648161336035665225e-02,-2.371332969934911994e-01,-4.875685274101534267e-02,-1.493684274012014798e-02,-2.490645738380870867e-03,-1.675238222041927063e-03,1.913526058197021484e-01
-4.882407049513943359e-02,-2.140055781533468093e-01,-4.484674458440523342e-02,2.706052755506966039e-03,-1.523218238842122523e-03,-3.423848694430970470e-04,1.672931909561157227e-01
-3.595757582226057070e-02,-2.062674351191315369e-01,-3.767748312745618222e-02,3.775843788502047292e-05,-3.559745658403743428e-03,4.860928261516488081e-05,1.695686131715774536e-01
-4.510950195864671386e-02,-1.920960665220194930e-01,-2.555675056887010688e-02,1.021088092697893922e-03,3.046447591625406955e-03,6.487752318737861033e-03,1.581726819276809692e-01
-4.612276646310586176e-02,-2.035316914857598358e-01,-2.792029045153192335e-02,1.016891031039996845e-04,-3.375985242611061199e-03,-2.605730743165601652e-03,1.674178093671798706e-01
-4.602046958140093569e-02,-2.050956437589171455e-01,-3.599060274212183969e-02,-7.249214695401056969e-04,-4.829792586001521032e-03,-2.713060094267256972e-03,1.646045297384262085e-01
-4.743439620361696724e-02,-2.113297017575709036e-01,-3.236212782498253115e-02,-2.488350697129780402e-03,-2.671863178981391355e-03,-2.504975728247766341e-03,1.720986217260360718e-01
-5.038766869307235996e-02,-2.043561280428253246e-01,-2.800945609529803537e-02,1.399766241980480996e-03,-1.807862808937339780e-03,-3.786409656769845235e-03,1.664671301841735840e-01
-5.108099362365536855e-02,-2.079602078394137965e-01,-2.869671176135733803e-02,9.711613324000382746e-04,-1.794908663353091648e-03,-3.364054813264515196e-03,1.693228185176849365e-01
-4.328232538434502452e-02,-2.071788990147266363e-01,-3.157975262618752804e-02,-6.712972499787147641e-04,-9.760545020866924970e-04,9.148443334741506892e-04,1.700699031352996826e-01
-3.750252866368883331e-02,-2.132245944718674513e-01,-3.859755371133527513e-02,-4.461847769493373006e-04,-3.100568502499634403e-04,-1.335584453196303305e-04,1.751797944307327271e-01
-4.486784990652895044e-02,-2.049050630959695640e-01,-2.824144070883123636e-02,-1.664340106026392086e-04,-3.973546258906946772e-03,-1.845070649600988972e-03,1.691356152296066284e-01
-4.518765672434062880e-02,-2.143132454334218395e-01,-4.681084592544091511e-02,2.473330136721719813e-04,-2.354515268111656741e-04,-6.274883098504675100e-03,1.686714291572570801e-01
-4.794093775759925014e-02,-2.056928771971889836e-01,-3.733630551764712674e-02,2.039616329811428340e-03,-6.464072746297569276e-03,-1.379313819811161732e-02,1.654678732156753540e-01
-5.445023218067047283e-02,-2.007687579682940759e-01,-3.275792488349447973e-02,-2.462161848518927033e-03,-3.620426412469591841e-03,-1.073180787429269326e-02,1.595514863729476929e-01
-4.333262405411980600e-02,-2.145438851916477985e-01,-4.614881823782419901e-02,9.951591561681992666e-04,-4.542631279464758400e-04,-2.537765125660599967e-03,1.698881238698959351e-01
-5.164458967643131837e-02,-1.743185236049903108e-01,-2.949978335825282488e-02,7.001093743049129937e-04,-2.331744956721789643e-03,-9.082486675645647795e-03,1.360923647880554199e-01
-3.790018779026375212e-02,-2.122142079594598885e-01,-3.926246105822114862e-02,-1.972305742081385100e-04,-6.072500637440332062e-04,-6.085050022963144675e-04,1.736436188220977783e-01
-5.032021373843750811e-02,-1.967670336814087428e-01,-2.881635052623328364e-02,-3.294159586779099548e-04,4.519756995375230364e-04,-8.786598104459674916e-03,1.590308547019958496e-01
-4.553891680286304561e-02,-2.137414107137149410e-01,-5.259261431992189040e-02,1.998219424520048752e-03,-6.737596493430359499e-04,-3.360828012012871441e-04,1.648304015398025513e-01
-5.005100391525703352e-02,-1.835810745407206457e-01,-3.096627139270766854e-02,-5.123440126936747510e-04,2.401672737525725049e-03,-6.377232335858153828e-03,1.445094794034957886e-01
-4.382755601633920445e-02,-2.118133204239142642e-01,-3.729483780369730744e-02,-5.197141238596946411e-04,-1.013715234520749710e-03,1.524847273666607352e-03,1.713772565126419067e-01
-5.042444692689045105e-02,-2.006202017506804325e-01,-3.243064582763031944e-02,6.106361422084028356e-04,-3.680893746135485613e-03,-1.157866974773832242e-02,1.613353490829467773e-01
-2.818088672914886156e-02,-1.961179498428150536e-01,-4.614649597796859071e-02,-7.752809822559249275e-03,-1.846603867149249588e-03,-7.055128780928470681e-04,1.603139787912368774e-01
-3.462290390637817739e-02,-2.138865466533496351e-01,-4.789317976027444856e-02,2.786624657736874646e-04,-8.563460361395874333e-05,-1.261185422300819918e-03,1.730251461267471313e-01
-3.929169984121132914e-02,-2.098354305410496390e-01,-3.642374172837066493e-02,1.324504035080975074e-04,-7.921767020924593786e-04,1.897492836178242559e-04,1.720015853643417358e-01
-2.914283860944825999e-02,-2.107495750629005127e-01,-4.834740004284740489e-02,-1.346400392995940679e-03,-7.331806017552297897e-04,-4.947978021875555849e-04,1.728291958570480347e-01
-3.870568554781143866e-02,-2.091621927597530350e-01,-3.613252019131416026e-02,4.444540376322937626e-04,-7.908595647414195205e-04,-5.221708429727824757e-04,1.717671155929565430e-01
-3.531527622961652679e-02,-2.089171989033314913e-01,-4.990697134768016380e-02,-8.437444005278170803e-04,8.489251996497079473e-04,-1.298955042020329565e-03,1.668135374784469604e-01
-2.898528723309581889e-02,-2.082603795729144336e-01,-4.997251686259192999e-02,-2.029387657611323587e-03,-1.116381517828617283e-03,-1.501447288484391261e-03,1.698245853185653687e-01
-2.746214811686266410e-02,-2.015985693055628580e-01,-4.686383470063826273e-02,-2.545541004689877949e-03,-1.254219523054236202e-03,3.998530516836524564e-04,1.653663069009780884e-01
-2.949167561071500132e-02,-2.087020519105444449e-01,-5.185880432986106348e-02,-2.777501477988616498e-03,-5.589733413299068738e-04,-1.484475063848939610e-04,1.692110300064086914e-01
-4.557215640907093246e-02,-1.525514791772037970e-01,-4.143362404219681772e-02,1.072402510839832665e-02,7.811306687295958492e-03,8.538699227244819388e-04,1.115109473466873169e-01
-3.073458522728347853e-02,-2.080786094459904922e-01,-5.056708835369130850e-02,-3.282730555206512472e-03,-3.072610012153945309e-03,-4.301695149945734559e-04,1.684881597757339478e-01
-2.909166446736828615e-02,-1.986715145965000651e-01,-5.013819132438797344e-02,7.000977899811645554e-06,-9.208726639116430980e-04,-6.059848560354046208e-04,1.601089090108871460e-01
-3.200285475229493193e-02,-1.949934135047978190e-01,-5.113876014994058611e-02,-4.853671507912432972e-03,-1.840064278199020440e-03,3.126215503505377127e-05,1.545767337083816528e-01
-3.048220462778693240e-02,-1.822980837908498297e-01,-5.366253315709601512e-02,-6.897877215700101185e-03,2.117518696623405265e-04,1.548468049405816137e-03,1.421840935945510864e-01
-4.339783641201830355e-02,-2.231861352947514532e-01,-5.742794215689329962e-02,-7.402127457913804413e-04,3.701625503679447922e-04,-1.012978086949879307e-04,1.732059866189956665e-01
-4.626645242847921002e-02,-2.135821771014539960e-01,-2.930388244099965678e-02,-3.111441175431025989e-04,-7.403364301017286136e-04,-6.782237196089965434e-03,1.768058687448501587e-01
-4.596290869990338895e-02,-2.178214862219060022e-01,-4.466415829458769693e-02,-1.307131442634439523e-03,3.593768200820720302e-04,4.719606567763690768e-04,1.725295335054397583e-01
-3.389372282519419188e-02,-1.600800375848702717e-01,-5.734682766197769788e-02,1.776123707725383444e-02,-3.579229461271824300e-03,-4.430503376929224510e-03,1.206535473465919495e-01
-3.731976265901158080e-02,-2.126711638268904969e-01,-4.812356032504085113e-02,3.330334070663965463e-03,6.721793527635493452e-04,-1.128750398179062401e-03,1.703197807073593140e-01
-4.410496648126020769e-02,-2.117547320468562977e-01,-3.732423325911301409e-02,-5.877023988965596147e-04,-1.020920094769266250e-03,1.527879053785710477e-03,1.711735278367996216e-01
-4.336015631505716478e-02,-2.110766269015467433e-01,-4.466815031353565946e-02,1.387843169580147166e-04,-8.816795029331102643e-05,-8.084897593094500772e-04,1.670724302530288696e-01
-4.479036735977959954e-02,-2.106929139791522410e-01,-3.123802524077660958e-02,-3.327141526224828075e-03,-4.429398328462085845e-03,6.181656061931800616e-03,1.736732423305511475e-01
-3.848413541505012192e-02,-2.103799988637403140e-01,-3.830008233002325096e-02,-1.151930921178605127e-05,-2.127786698156987029e-04,4.588762914180242493e-04,1.719902008771896362e-01
-2.926217855010656427e-02,-1.829158202781656917e-01,-4.784233256650155530e-02,5.686032564750763234e-03,-4.347357628734685453e-03,-1.876784444467195681e-04,1.457859873771667480e-01
-3.413124428360365947e-02,-2.077657537774336149e-01,-3.785285593054499992e-02,3.192769267732206771e-04,8.383912122351038030e-04,6.310042181575594052e-04,1.718144416809082031e-01
-2.665725818328955332e-02,-1.927904797924636093e-01,-4.971466431937417163e-02,1.122668022899969004e-02,-3.052719490300764144e-03,-5.096309520783827776e-03,1.574334204196929932e-01
-2.915958802938107414e-02,-1.789411295877780250e-01,-5.075195590278448743e-02,6.139221440403661717e-03,-3.775387165883445709e-03,-1.641384442478131898e-03,1.408208608627319336e-01
-2.545384825105673210e-02,-2.036933560305596025e-01,-4.853355565265416588e-02,1.195849481401389369e-03,-1.056395858271623597e-03,-1.504041336128788663e-03,1.679366081953048706e-01
-4.492776738809820675e-02,-2.204113698300075863e-01,-3.878658222240005671e-02,-3.630973873709063987e-04,2.974312825758186011e-03,-1.591021378698471989e-02,1.808209717273712158e-01
-4.630162534136686436e-02,-2.103254848691561152e-01,-4.714825992961716589e-02,8.959607456414825930e-05,-5.867637866085016621e-04,-6.028216613631308396e-04,1.636087447404861450e-01
-5.018342524789011494e-02,-2.092840133743411046e-01,-3.621655401724722945e-02,-3.819469314952317947e-03,5.861881706300787163e-03,-4.755711753079833008e-03,1.671673059463500977e-01
-3.771789584592160488e-02,-2.104396723610884312e-01,-3.820147546057346688e-02,-2.300536486672999424e-04,3.621503106954741162e-04,-9.620512733198121312e-05,1.724821776151657104e-01
-4.711980731712187703e-02,-1.984141654302176705e-01,-2.851090102030132134e-02,-1.236488829773764019e-04,-6.688502625642878249e-04,1.204704792688738452e-03,1.614231616258621216e-01
-4.500778972532417516e-02,-2.119636900746821317e-01,-3.700504898234106138e-02,-2.040129478931736184e-03,1.062312160241090948e-03,-9.454408815173492159e-04,1.711519062519073486e-01
-4.615313562784265078e-02,-2.030588400162897100e-01,-2.685937310986913351e-02,-4.722244621539956120e-04,2.114580995282275885e-03,-4.387582835612045817e-03,1.676030606031417847e-01
-4.675075590611620091e-02,-2.035297110948575683e-01,-3.027299590698501186e-02,-2.005784280334872542e-03,3.303014306945370546e-03,-2.643092738008115221e-03,1.658320873975753784e-01
-4.519563545502894991e-02,-2.137797694574168350e-01,-3.404035457481151272e-02,5.480215159429661833e-04,3.044898352196584272e-03,-2.966203117033187550e-03,1.745874136686325073e-01
-4.710339875623508615e-02,-2.099799363273595620e-01,-3.292325500292907214e-02,-9.540001782647274835e-05,1.860206121657107014e-03,-1.589692470969350296e-03,1.704624444246292114e-01
-4.452353839829206045e-02,-2.083619175940389923e-01,-3.857033533812329051e-02,-1.285034582504989884e-04,2.132171079311710824e-03,3.481090538442238331e-03,1.670444905757904053e-01
-2.926535117933884433e-02,-2.043955863530665662e-01,-4.083070971660220788e-02,5.840694886537585104e-04,1.068806991970357688e-03,9.162219024617886164e-04,1.696640253067016602e-01
-4.600606059584507607e-02,-1.938629455930144241e-01,-3.366427713344680855e-02,-1.185691587956115437e-04,5.037783763993018693e-03,-5.096351965028817974e-03,1.548963934183120728e-01
-4.946648788419281961e-02,-1.713416263212094170e-01,-3.174598020763855222e-02,8.304430904315764431e-04,2.520724386592881200e-03,1.365629797095597574e-03,1.317345052957534790e-01
-4.435975790063658580e-02,-2.104512877842084906e-01,-3.193761292752540781e-02,8.226183472757537439e-06,2.623104251899532717e-03,-1.015466451348815986e-03,1.727068424224853516e-01
-4.119388077540812876e-02,-2.099494995958149368e-01,-4.167073865539490385e-02,2.874538848604382994e-04,3.308022873852010807e-04,2.940914934450293170e-04,1.685201823711395264e-01
-4.917487940139740610e-02,-1.917646826453380249e-01,-2.504224811876407109e-02,-1.326406295085965671e-03,2.329858944790205028e-03,8.509046071142396805e-03,1.568249911069869995e-01
-4.910656159627784650e-02,-2.169397526007538768e-01,-3.919319053594551294e-02,-2.632995825383859737e-03,-2.429781907874178394e-03,2.231764706514884154e-03,1.731574386358261108e-01
-4.621475456449819497e-02,-2.104510223990936346e-01,-4.428336468912450613e-02,-7.942497677469254058e-04,1.010370303276629902e-04,-4.711754357768449487e-04,1.652182638645172119e-01
-4.621637494449693656e-02,-2.114385274563217454e-01,-4.695051731510142823e-02,5.359774795385204054e-05,-6.515649101102396513e-04,-1.064020082905343337e-03,1.648705005645751953e-01
-4.437184690389191222e-02,-2.133549239585593726e-01,-3.512546403623331703e-02,-6.345948825821465158e-05,3.784123876625237158e-03,-3.857271637447602522e-04,1.739157140254974365e-01
-4.092171218284669509e-02,-1.939658792007807331e-01,-3.300309257471329555e-02,-6.972613717238341320e-04,5.062974405724871702e-03,-5.316909700677236589e-03,1.576714515686035156e-01
-2.976262184118534659e-02,-2.121386089266759645e-01,-4.818893763130339958e-02,-1.770016387180809456e-03,4.596665470805722637e-04,-1.916662144863198010e-03,1.739570796489715576e-01
-2.822549315147007687e-02,-2.109311369870560116e-01,-4.778811205885775959e-02,-4.573681488285172617e-04,6.074044344274256470e-04,-1.570409776173654903e-03,1.737785339355468750e-01
-2.783579405618654551e-02,-1.958765826325395976e-01,-4.724748678430354398e-02,-8.046290682091547519e-03,2.540022117389090488e-03,-2.407209501852134066e-03,1.599485278129577637e-01
-3.717452763360160062e-02,-2.115725940122958337e-01,-4.686683706609762190e-02,2.279838622228101740e-04,6.281414237505481349e-04,5.802053894301913064e-04,1.697664707899093628e-01
-3.483317540986460847e-02,-2.114714226754503823e-01,-4.857347176206391198e-02,3.535340125034523143e-05,-1.654751140754597282e-05,-9.806228483189231415e-04,1.701931059360504150e-01
-4.507035514512212210e-02,-2.050186024282948938e-01,-2.846326566770834843e-02,8.796311761826614180e-04,8.339171381990043153e-04,5.387372202119284064e-04,1.688809990882873535e-01
-4.724671814438716200e-02,-2.060256763423868320e-01,-2.850455003731494630e-02,9.895523491007785465e-04,3.933658931502945558e-03,7.375874813353072539e-03,1.695595979690551758e-01
-4.613073750712940596e-02,-2.073679470805829816e-01,-2.748677279216382718e-02,-2.250648032325308612e-04,1.266737774093249988e-03,1.414224294947668452e-03,1.713537275791168213e-01
-4.939948500382960322e-02,-2.057313864027079942e-01,-2.521518687718236895e-02,-4.323853228875455053e-04,7.463152955090163448e-04,2.319527992065802818e-03,1.697754263877868652e-01
-4.903193167635733207e-02,-2.025308939757478610e-01,-2.426766283189105144e-02,-2.635814111190708979e-04,5.915074239939876110e-04,1.211446289633860002e-03,1.672786623239517212e-01
-4.185994230505931529e-02,-2.022564706501366050e-01,-3.183589775138162548e-02,-3.165576481287628698e-04,-6.045966822238394399e-03,1.339388431912959341e-03,1.659840196371078491e-01
-3.457769547119693421e-02,-2.095388565098849631e-01,-4.278780326011060592e-02,1.288204893863836506e-03,8.081519050553147721e-04,2.642041012238147374e-04,1.710248887538909912e-01
-4.558709247696157013e-02,-2.156995436455486914e-01,-5.032785705980744734e-02,-1.148151885946086491e-03,-6.746691314559099878e-04,2.359318081000694872e-03,1.678579151630401611e-01
-4.378540377670961381e-02,-2.065623031041184388e-01,-2.935886642267662716e-02,6.755536879089832098e-04,1.920676433062226771e-03,1.126755372865830777e-03,1.704963147640228271e-01
-3.569947049333779820e-02,-2.098047647065528487e-01,-3.489739133553057537e-02,-2.073241955939171435e-04,4.343015925047153769e-04,-1.794477231861373360e-04,1.745099872350692749e-01
-4.475177987763344356e-02,-2.141173914600820738e-01,-3.507112358097283500e-02,6.087113098565966662e-06,1.105717948754141641e-03,4.465492276111555220e-03,1.745894700288772583e-01
-3.935285693622800340e-02,-2.062448142668872886e-01,-3.230996193746456246e-02,6.183233196685123051e-04,2.847108027696743007e-03,1.427309931852660660e-03,1.706150770187377930e-01
-4.012118561650748066e-02,-2.083515848710643659e-01,-3.724162539659909427e-02,8.215041350436547802e-04,2.813140952836688021e-03,1.032595400838012172e-03,1.697738319635391235e-01
-4.022067649299455872e-02,-2.101780711635866661e-01,-3.581478723881029169e-02,1.012941656004113502e-03,2.924174857694224975e-03,1.419806051280421985e-03,1.723035722970962524e-01
-3.823150316491373546e-02,-2.033571312151861432e-01,-3.045057548228600336e-02,2.903603983101935189e-03,4.956484752912751826e-03,3.069627508604985937e-03,1.695261299610137939e-01
-3.029425542570715613e-02,-2.046565559156700020e-01,-5.154652315129598650e-02,1.644556236970100976e-02,4.238699442723907300e-03,7.882712714649046590e-03,1.679284274578094482e-01
-4.483037757280190078e-02,-2.104533450894043312e-01,-3.714363299618558129e-02,2.275100762233394844e-04,6.421834789783612604e-04,2.026466161731651551e-04,1.696015000343322754e-01
-2.840128018361119666e-02,-2.009799284184286272e-01,-4.609706839036327441e-02,9.738651372859074423e-04,8.299041183897150386e-04,3.220129266020883721e-05,1.644613295793533325e-01
-4.587834086205203749e-02,-2.123962430023853265e-01,-4.624564717393724045e-02,1.381872688789032835e-04,-1.097839353930592763e-04,-6.681643302962261962e-04,1.663388609886169434e-01
-4.570101746582586749e-02,-2.123752178784287514e-01,-4.693587244433979067e-02,-1.352047615466837969e-03,8.472986384183595369e-04,-5.165422873247638505e-04,1.660856157541275024e-01
-3.919998046927075652e-02,-2.072484671358959529e-01,-3.421395342431354791e-02,3.727995408422746042e-04,2.767389103137079913e-03,7.445492232916109529e-04,1.706695705652236938e-01
-4.498018809304096810e-02,-2.015900364773478004e-01,-2.523791205726604037e-02,-7.448168170542701942e-05,8.730478021120774467e-04,-3.532530580457260904e-04,1.673646122217178345e-01
-4.866799142141917806e-02,-2.124537365238320930e-01,-4.764326789567308734e-02,1.060289905915954949e-03,1.847815569017153132e-05,-1.302465681066587722e-03,1.643262505531311035e-01
-2.621220566549642417e-02,-2.019089925474485125e-01,-4.593109835439741773e-02,6.069812216786122424e-04,1.211030421711735720e-03,-3.321150899496788504e-04,1.667317748069763184e-01
-4.428207750250659491e-02,-2.117332661675311867e-01,-4.128260591987931161e-02,-1.182577129689766715e-03,-1.145864096781781935e-03,-4.182093802758574683e-04,1.689965128898620605e-01
-4.623567493211203777e-02,-2.135726583361550746e-01,-4.654463938852938104e-02,-2.448964233499542273e-03,3.897880790715401843e-04,-2.032455118069564394e-03,1.672749221324920654e-01
-4.148944961547621629e-02,-2.117689969471437395e-01,-4.419644274790472671e-02,6.148981599227024749e-04,-3.557863632199235104e-04,-6.338768652947837558e-04,1.689503639936447144e-01
-4.591602304311086236e-02,-2.113356726792983975e-01,-4.705876510840311527e-02,-3.264362524487059939e-03,1.626707836674245588e-04,-5.698819574411842243e-04,1.649513691663742065e-01
-4.325772757362519177e-02,-2.038989580263160240e-01,-2.867499561753496240e-02,-3.233342801091063925e-05,2.111017437298726498e-03,2.246474258600632701e-04,1.684469431638717651e-01
-4.583353470909983657e-02,-2.112588986497199173e-01,-4.689733285467848761e-02,-2.049324358242169374e-03,2.330922233801488344e-04,1.502939471042209155e-03,1.649552732706069946e-01
-4.853075855992181747e-02,-2.189006509749201745e-01,-4.653293561931270972e-02,1.656028113221094103e-03,-1.412722983717130097e-04,1.508871991973117751e-03,1.714216321706771851e-01
-4.216642721204932193e-02,-2.091548658159543550e-01,-4.014475761619788752e-02,1.204446392814654144e-03,1.934310654105979082e-03,1.247461121171737847e-03,1.680686324834823608e-01
-3.833188372985645714e-02,-2.090910334042479779e-01,-3.244316353888956200e-02,1.975272514712797750e-04,1.999102236057221944e-03,9.026585326340832993e-04,1.738202124834060669e-01
-4.784176929564208647e-02,-2.106490811667624252e-01,-4.795575417510327537e-02,6.750040819994492132e-04,-1.167205916226044703e-04,3.528945793715496776e-04,1.627558171749114990e-01
-4.666006626267072549e-02,-2.142470977013977151e-01,-4.872647966859471741e-02,2.147349371638838413e-03,-1.351551990201141232e-03,1.124601690330047712e-03,1.666327863931655884e-01
-3.626049440738635110e-02,-2.098907244351034262e-01,-3.539303333271735796e-02,1.043630846387055190e-05,3.332844876113453874e-04,4.183894542351328195e-05,1.740665584802627563e-01
-4.538027457554784372e-02,-2.133719984861134900e-01,-4.943006901923790303e-02,1.157315971518071626e-03,-1.531177630797969733e-04,-7.728519845884316902e-04,1.660215854644775391e-01
-4.818250028580321059e-02,-2.111546289475891847e-01,-4.882342655814949500e-02,1.114989808347358925e-03,-1.498191258932790419e-03,9.537110648645212964e-04,1.626931577920913696e-01
-4.832847842509921388e-02,-2.106429093536160146e-01,-4.733084136140808251e-02,4.256712035444679804e-04,-2.185445172310467163e-04,5.587964196785224786e-04,1.628205329179763794e-01
-4.680623893519538642e-02,-2.130149009329761201e-01,-4.967846386824953386e-02,8.852709098902442715e-04,-1.113651708466741009e-03,4.303858399469630367e-04,1.648114323616027832e-01
-4.731253593449888384e-02,-2.142772082408712087e-01,-5.333791107309216600e-02,4.788509852310603751e-04,-1.703745622322640034e-03,-2.784988909783501967e-04,1.640643477439880371e-01
-4.786988786505680382e-02,-2.188350540740750527e-01,-4.349471759052980779e-02,-4.554789478935809474e-03,3.690780064852005118e-04,-2.166922334732954841e-03,1.734155863523483276e-01
-5.599871000425907935e-02,-2.194588761608143868e-01,-4.680148626545355128e-02,-6.586709916259745647e-05,-3.871047791201807919e-04,1.342666776460032076e-03,1.682648658752441406e-01
-4.021390785409733465e-02,-2.032782006597265156e-01,-3.015607360098577355e-02,3.598130167783764911e-04,3.425247154698667692e-03,2.145754164533886232e-03,1.684654057025909424e-01
-3.639818717362954675e-02,-2.091795593921599028e-01,-3.600653444225328931e-02,2.151331632883379038e-04,1.264234564988541993e-03,3.009539165229885424e-04,1.729925721883773804e-01
-5.575531654206884041e-02,-2.143644219899673853e-01,-4.402988503893605354e-02,1.041818601773961519e-03,-9.206750551199639624e-04,1.053465435027266120e-03,1.648126840591430664e-01
-4.768961552066523085e-02,-2.152168464097971301e-01,-4.359198859225564548e-02,7.822573670468613988e-03,-5.469579300330626491e-04,5.017275803607871947e-04,1.701583266258239746e-01
-4.211361277826727867e-02,-2.238850653451862627e-01,-4.704418403005251881e-02,1.836048519785515865e-02,1.256575458569352422e-03,4.238558209378487547e-03,1.823153644800186157e-01
-5.552148193274761973e-02,-2.182101567440374867e-01,-4.567366100560460440e-02,-1.820388613025878256e-04,-8.868502412517953503e-04,1.843149850176678929e-05,1.678367406129837036e-01
-3.826606186314770314e-02,-2.106923736575174178e-01,-3.645459918452075704e-02,-4.264407707210921884e-04,-1.028875818727890393e-04,8.134345457459454289e-05,1.733408719301223755e-01
-5.748104369942897557e-02,-2.211253923889436035e-01,-4.580830610287153770e-02,1.711771352824501121e-03,-2.720185498271041145e-03,1.342178282299447351e-03,1.698890775442123413e-01
-4.089802470794669936e-02,-2.125429647399379729e-01,-3.879449026821357033e-02,8.232507664829511449e-05,2.088397085505546303e-03,-5.661286242897949333e-04,1.727470308542251587e-01
-2.738231564971398135e-02,-2.055307859388905145e-01,-4.583828113047386243e-02,1.376158464806474715e-03,1.420199331562428148e-03,2.133882365354508939e-03,1.697497814893722534e-01
-2.749610935589597016e-02,-2.033704138453490129e-01,-4.710440536932098549e-02,2.261144549210072040e-03,2.897912647833746167e-03,1.444994790214920851e-03,1.670762002468109131e-01
-2.729760321933767664e-02,-2.016070102409890374e-01,-4.395502127198937237e-02,2.224562968506719508e-03,3.725737370472075993e-03,1.152102936401144459e-03,1.667877882719039917e-01
-2.961319119075861428e-02,-2.057530444485257126e-01,-4.521528492042092146e-02,3.205546562616504581e-04,7.762782863696816946e-04,9.599069368949029752e-04,1.688946485519409180e-01
-2.542181459186218517e-02,-2.048541244163364361e-01,-4.704881621051995588e-02,1.587310437361236833e-03,1.104071493880736743e-03,1.640101850858127156e-03,1.697126477956771851e-01
-2.725764374704366111e-02,-2.035996406940863146e-01,-4.710919567008087921e-02,1.407436977183919042e-03,1.368290985904599367e-03,1.895988405897192086e-03,1.673686504364013672e-01
-2.440589675623641708e-02,-1.906567487180694798e-01,-5.066885672736144708e-02,7.013754882238984641e-03,5.562810884033938131e-04,1.093799138338004797e-03,1.552898734807968140e-01
-3.173553869456017390e-02,-1.952023786787892567e-01,-4.910097153101847939e-02,5.604828951488302277e-03,6.102523301289602096e-03,3.525878499134958710e-03,1.562931686639785767e-01
-2.763742296430382606e-02,-2.035456467565128491e-01,-4.434328275727728030e-02,2.785711190963879869e-03,3.736837579140539142e-03,7.731180207996470998e-04,1.683777123689651489e-01
-3.018462473638779120e-02,-2.065237678892803685e-01,-4.730987707883820004e-02,-6.726951602375088723e-04,-1.179521919452931758e-03,-3.821388175352026409e-04,1.684484630823135376e-01
-4.538256691019752070e-02,-1.127446274669863524e-01,-4.863863461742475025e-02,2.293997116611227668e-02,6.651684825830482713e-03,1.683471363983691030e-02,8.300962299108505249e-02
-5.729162521065467306e-02,-1.449413277641127817e-01,-4.286347481867040787e-02,-3.590503125282421253e-03,1.526404396461993745e-03,2.228606168644589776e-03,9.599911421537399292e-02
-5.764454633176587656e-02,-1.208974748411361377e-01,-5.163776667847833068e-02,5.378901198376234011e-03,6.246650685087847422e-04,8.809770916936580237e-03,6.883142888545989990e-02
-4.713759096509417129e-02,-1.583417568827648614e-01,-3.842862434108308689e-02,7.308339826847569214e-03,5.752863489969444778e-03,1.007634853940997388e-02,1.182150840759277344e-01
-4.334626662052772084e-02,-2.176439000883469421e-01,-4.728823409859306270e-02,-6.185729064467635277e-03,-8.379927523986588616e-04,-5.038779641921109324e-04,1.727014333009719849e-01
-4.273479655293869334e-02,-2.114068014872799439e-01,-4.565296723321952271e-02,5.415141373359432832e-04,-2.194085778204853446e-04,-1.363284099724337926e-03,1.672517508268356323e-01
-4.482533949397294465e-02,-2.119492039434357766e-01,-4.606923209791145835e-02,3.335369326098162500e-04,-3.980460121478641934e-04,-9.969855456300100692e-04,1.665167808532714844e-01
-4.295272843619588748e-02,-2.122228227635207798e-01,-4.131449612668926241e-02,-2.512042634780689955e-04,-7.023899423343519209e-04,2.955030590712830413e-04,1.701008081436157227e-01
-5.003663518012356481e-02,-2.334725136610829033e-01,-5.512645542644415558e-02,-6.970876528919978977e-03,1.243935803501458560e-03,-2.055474401776761443e-03,1.813947856426239014e-01
-4.630483448618896020e-02,-2.069011027087515608e-01,-2.727432317585297417e-02,-1.119297408532168381e-03,-2.564563242037512601e-04,1.727179764494240393e-03,1.709457635879516602e-01
-5.227185740445632750e-02,-2.120568680755688384e-01,-4.825435529599146622e-02,-6.190232921569793940e-04,1.152552872978533909e-03,3.172520974910402695e-04,1.618479639291763306e-01
-4.999519163240302017e-02,-2.391515985137726008e-01,-3.661657374095360351e-02,7.059559643333059974e-04,1.447412910954313852e-03,1.844382873478881552e-02,1.987915784120559692e-01
-4.523564403178811227e-02,-2.119240621697500437e-01,-4.865768639600110551e-02,8.216988554147711815e-04,5.326579265028930348e-04,-8.643186318474438195e-04,1.650195270776748657e-01
-4.064181982740781851e-02,-1.719299357700110331e-01,-2.918118039056338126e-02,9.888210369038991782e-03,7.643585075997674783e-03,1.235087733753780816e-02,1.407081931829452515e-01
-3.373818958369818877e-02,-2.103532615480757650e-01,-4.588490249565799900e-02,-1.374232702941437234e-03,-4.206076988000531647e-03,1.054534274153746780e-03,1.710473895072937012e-01
-5.554235765831904564e-02,-2.138370534035782256e-01,-4.480239956315573008e-02,-1.384880991752334561e-03,1.143269424532853242e-03,-1.790610870259641682e-03,1.639875918626785278e-01
-4.820270455059331993e-02,-2.012518690734459714e-01,-2.464650313530881987e-02,-1.321673264232856287e-04,3.524293204087161299e-04,4.351607589471144164e-03,1.662571281194686890e-01
-4.489676784605379362e-02,-2.094158503619738543e-01,-3.375003586876214323e-02,5.548327166481485965e-04,1.411479844221938656e-03,1.690515892863363612e-03,1.704115718603134155e-01
-4.195503751958768596e-02,-2.098077672903592705e-01,-3.206393962186568358e-02,-5.427366423379085123e-06,1.266936495726857107e-03,9.718422002671936672e-04,1.730325669050216675e-01
-3.022892140824076646e-02,-2.080019477274588358e-01,-4.890912228870997885e-02,-2.729235596342737772e-03,-3.544526991311392015e-03,1.661507670700220027e-04,1.693855971097946167e-01
-2.883255564323292108e-02,-2.006900803120670873e-01,-4.755125328850189070e-02,-3.827131729837291406e-03,-3.517433539291578773e-03,7.125286329798593155e-04,1.635574251413345337e-01
-2.923926438949581152e-02,-2.030950685348735796e-01,-4.430877627991867962e-02,-3.528198902743506435e-03,-3.334813380264034510e-03,1.867995500358139043e-04,1.670443713665008545e-01
-3.217232878878385771e-02,-1.888355035997483222e-01,-4.213757748173804774e-02,-4.810269528379654963e-03,-6.150657176323396334e-03,1.591598671880110850e-03,1.525515466928482056e-01
-3.860518854712766817e-02,-2.104703578347923432e-01,-4.779920531823348556e-02,-1.042804934136599970e-02,-1.745114749001867123e-03,-8.534953061286642065e-04,1.684624254703521729e-01
-4.416389746600142552e-02,-2.049279094533315304e-01,-2.683314389668416122e-02,1.168942673393237076e-03,1.522162306826104969e-03,1.719351513437365146e-03,1.701514124870300293e-01
-4.062852074055937901e-02,-1.946489720768161957e-01,-4.115127176353471083e-02,3.072924311406295705e-04,-7.083660793895388101e-03,-1.722696463694433342e-04,1.542496830224990845e-01
-3.059209924692440907e-02,-2.071710380950741448e-01,-4.541417904881028117e-02,1.198951136527661701e-04,-1.126458060883975916e-03,2.441783661718776016e-04,1.696660816669464111e-01
-3.366324416730787084e-02,-2.060983253235280088e-01,-4.938032832767992597e-02,-1.824284161478987535e-03,-1.408527415436220277e-03,-4.516396909190511285e-04,1.651885509490966797e-01
-2.855613734024864403e-02,-2.072920265669973838e-01,-4.877663792672180809e-02,-2.151231548613306887e-04,-8.496444966739055476e-04,-9.225018051970346406e-04,1.695467978715896606e-01
-4.550572097543278960e-02,-2.147427837332078204e-01,-5.746478566051037296e-02,-1.148552884727408688e-03,8.623405423161652423e-04,2.747698319196137211e-04,1.636053174734115601e-01
-5.125654211747954908e-02,-1.123004372795883138e-01,-4.539042061413418871e-02,6.338795829995126814e-03,7.492770974672966194e-04,1.519479108576313013e-02,7.024051249027252197e-02
-4.286940299311991359e-02,-2.067202021286428382e-01,-3.079728815090092275e-02,8.200951468340744819e-04,3.457348324772807884e-03,1.269750081466302933e-03,1.703336685895919800e-01
-4.604391070913625705e-02,-2.101446994739420981e-01,-3.402321492105667144e-02,-4.058694213842958917e-05,1.026209555881333300e-03,1.538586842868843721e-03,1.704594939947128296e-01
-5.372705534347460565e-02,-7.987732075628216355e-02,-5.182666016957027111e-02,-3.296197856575651397e-03,-1.972128357815686010e-03,5.301028858375690569e-04,2.796872146427631378e-02
-5.335304501566821844e-02,-1.190720486468874878e-01,-5.033715716671285922e-02,1.622181788553378468e-02,1.906790113618638373e-03,2.894681147199658008e-02,8.854596316814422607e-02
-3.501008072527593551e-02,-1.865314955059894086e-01,-4.698448431613457682e-02,1.098532590579384596e-03,6.611214063740863955e-03,6.783385378354720233e-04,1.463689655065536499e-01
-5.447777737830989536e-02,-1.136777538131632515e-01,-5.922811663814709499e-02,1.352559039999893294e-03,-1.050454068426117347e-03,2.440842051485475096e-03,5.720712244510650635e-02
-3.868446704930257607e-02,-2.011573734761460397e-01,-3.521664847279654814e-02,8.275875613791154649e-04,5.470577156863030283e-03,2.537248939426370656e-03,1.645723134279251099e-01
-4.782241967184505671e-02,-1.388069604634625254e-01,-4.881231151625309295e-02,1.158293276994896460e-02,4.416418784813100004e-03,1.062331622334592232e-02,9.480861574411392212e-02
-4.213077672204586233e-02,-2.092960423433199713e-01,-3.334558775068251213e-02,5.128196065751994357e-04,1.046197677893746141e-03,1.600032719904473637e-03,1.717606931924819946e-01
-3.585388766692886725e-02,-2.103233803503855026e-01,-3.540506108861122408e-02,1.994684654171663627e-08,2.301350744045868395e-04,1.474467755195840138e-04,1.746949851512908936e-01
-3.652956353866850664e-02,-2.096801660964184022e-01,-3.509301502586715388e-02,3.185721201361288945e-04,5.542394519005198160e-04,2.227658871660099388e-04,1.738772839307785034e-01
-4.692874545528248620e-02,-2.008331261358031472e-01,-2.478397112750653497e-02,1.681253253446270222e-03,1.084615073188523963e-03,6.731748459278479686e-04,1.661279499530792236e-01
-4.102525511119312768e-02,-2.106695645775244763e-01,-3.911525719012842739e-02,-5.246471434658078574e-04,-1.002696862198939221e-04,2.010805148049579327e-04,1.706101894378662109e-01
-2.838474294266540854e-02,-1.949224559452825134e-01,-5.007992341306233275e-02,6.372024041768202833e-04,3.898758987962243263e-03,4.018443876162285534e-04,1.569704711437225342e-01
-3.957589819851964341e-02,-2.099881465240187595e-01,-3.526901871240183117e-02,-2.673759157246913135e-04,4.624882754132380539e-04,5.000131961739359265e-04,1.726106405258178711e-01
-4.002574055348243759e-02,-2.102408742366883021e-01,-3.816541084450723181e-02,3.474445698131204915e-05,5.346590050849520364e-04,1.011535189745783143e-03,1.711643636226654053e-01
-3.464244669816440858e-02,-2.050674112303144114e-01,-3.805878710318973124e-02,1.219706326252723927e-03,3.455807038536428798e-03,1.119359375205801217e-03,1.688732057809829712e-01
-3.540072975452546178e-02,-2.103368106256130465e-01,-3.591905135958293332e-02,1.482067906885419406e-04,2.536669586713023294e-04,2.209900744846286163e-08,1.746782362461090088e-01
-4.105661322253827822e-02,-2.098297405507599800e-01,-3.391679745630256371e-02,-8.612451831325941163e-04,-3.454128767422339104e-03,1.325173159096987557e-03,1.725793778896331787e-01
-3.202761795559431329e-02,-2.076545709521663008e-01,-3.944484724817886451e-02,2.571461268099630099e-04,1.258408581042274547e-03,5.584459215410815872e-04,1.720554083585739136e-01
-3.182242959188526232e-02,-2.084191050365328257e-01,-3.713816827689706002e-02,-9.966697615353789681e-04,8.646439794994999640e-04,-1.858942154894738187e-04,1.740150153636932373e-01
-2.858433159109985411e-02,-2.076909883110456545e-01,-4.783971359340302015e-02,-1.794508522025432861e-03,-1.159880882771458649e-03,5.904602411256986262e-04,1.703406572341918945e-01
-4.369566288283082550e-02,-2.126421377087480136e-01,-4.616262603786323165e-02,7.107878094701394062e-04,-4.694208289927791553e-05,1.400598566941541425e-04,1.677313148975372314e-01
-2.891817200640187102e-02,-2.068316613115660785e-01,-4.619237109832917410e-02,-1.309286194067536564e-03,-1.083174499801545319e-03,-5.413673571727635426e-04,1.699642241001129150e-01
-5.642583483983543841e-02,-2.179981571625023429e-01,-4.633118884152112593e-02,-1.458534677784007784e-03,1.161874085467265233e-03,4.070443978221057575e-05,1.668801009654998779e-01
-3.764551256291883558e-02,-2.096742361723216708e-01,-3.646321327550195585e-02,-3.205336385929749565e-04,1.135818526856520027e-03,1.477136004002544702e-04,1.726351976394653320e-01
-3.013243841799924383e-02,-2.091841316831513364e-01,-4.505718687650885068e-02,-4.628714185339920847e-04,-1.274468191226181980e-03,2.418788535492322471e-04,1.720919758081436157e-01
-2.979329308358626138e-02,-2.029530683880541309e-01,-4.958747082099239367e-02,-3.555303300992399083e-03,-3.064781970538642004e-03,-4.460477360714573463e-04,1.643631905317306519e-01
-2.935605142635948350e-02,-2.025497028878603112e-01,-4.735964021739871160e-02,-3.619480418946615687e-03,-3.408728283308161845e-03,2.450217157363289260e-04,1.651556938886642456e-01
-4.386099498252324369e-02,-2.192076245336203599e-01,-4.492063950366890351e-02,1.491424595640195028e-02,-5.080347054164736746e-03,-4.174611633614103839e-02,1.911405473947525024e-01
-4.418663827756816320e-02,-2.125298071590038806e-01,-3.824065042027966627e-02,-5.288649234628931602e-04,-3.689606087622339728e-03,-2.363453704834195517e-03,1.715639233589172363e-01
-3.640277406304303492e-02,-1.239433141518065107e-01,-4.800159671439931108e-02,5.589679384327796152e-02,-1.387201328873560670e-04,1.188191204672922607e-03,1.271226108074188232e-01
-3.704907037870971281e-02,-2.046155979188037377e-01,-4.170609838869715480e-02,4.796857849960449102e-03,-3.240860646532360556e-03,-2.962718854770447167e-03,1.656705737113952637e-01
-4.983236417753370007e-02,-2.138340050135608683e-01,-4.509234162283407704e-02,-7.796086278402660982e-04,-3.762615475495659310e-04,1.366971602443993808e-03,1.664458811283111572e-01
-4.488556799046467677e-02,-2.015022405274232986e-01,-3.686606265028475465e-02,2.598827047979702411e-03,-7.850027273786894938e-03,-4.600422322506301023e-03,1.616097241640090942e-01
-4.236138860860412525e-02,-2.129519698700858277e-01,-4.366823690494516658e-02,-1.053207112833484758e-03,-2.102357732287952943e-03,-2.891381617064604868e-04,1.699904650449752808e-01
-4.414715548832785774e-02,-2.121735583841929396e-01,-4.357322579713598931e-02,1.972193240121037380e-04,-6.889061301387769593e-05,1.379056659006346486e-03,1.683314442634582520e-01
-4.570452119651532280e-02,-2.123640714180995148e-01,-4.289671509197639371e-02,-9.940770862089836398e-04,-5.299128735576936339e-04,4.797659026565059630e-04,1.680944263935089111e-01
-4.989103057303898026e-02,-2.099198761336418251e-01,-4.837630890969404907e-02,4.842079500178753017e-04,7.728134464071867308e-04,-2.698901630084865437e-04,1.607999950647354126e-01
-3.708520603020815098e-02,-2.152007265458265317e-01,-4.794146788606690190e-02,-4.109792913007068518e-03,7.876333766683746990e-04,-2.554737783415565559e-03,1.731514930725097656e-01
-4.697740518863528780e-02,-3.472056126187177405e-01,-6.434254922237617191e-02,-3.851163261763314999e-02,-5.067291574190236833e-03,-1.529317101623892464e-02,3.007542788982391357e-01
-4.427499056152785217e-02,-2.120348712712180062e-01,-4.295496033496985777e-02,-2.521501703090226116e-04,-6.853026972958270284e-04,1.307218481505192833e-04,1.684286743402481079e-01
-4.303690195401271845e-02,-2.108843748158066300e-01,-4.168594279859465235e-02,-3.572495269395439951e-04,1.331919270688487506e-04,-6.803241668589046776e-04,1.685324311256408691e-01
-4.523440525773547022e-02,-2.124460030734620641e-01,-4.290761555608105932e-02,-6.825272752223448527e-04,-5.639412930974930941e-04,3.189659434422710766e-04,1.683949381113052368e-01
-4.880694863474113743e-02,-2.119172477359057005e-01,-4.565352584165182498e-02,-6.045426228032261054e-04,3.031893649816216809e-04,6.317410153722613064e-04,1.647174507379531860e-01
-4.331876053586599523e-02,-2.072640634837075169e-01,-3.139724410468006099e-02,6.973371602884313129e-04,1.926324145593577434e-03,-8.682505219232216991e-05,1.702564954757690430e-01
-4.661027329831626126e-02,-2.143716992258550003e-01,-5.464635638667368622e-02,-1.424256402199379750e-03,1.179158634629149174e-03,-4.877596385711347620e-04,1.639246791601181030e-01
-4.116182896726953283e-02,-2.097613585571256323e-01,-3.214236467581439022e-02,1.876256418229216641e-03,4.459233686357708462e-03,2.734242442356581496e-03,1.735525131225585938e-01
-4.917969708408251317e-02,-1.982542265803253212e-01,-3.172667889582074519e-02,-3.195311747629152267e-05,2.117737671056139220e-03,-1.193859069611232599e-03,1.585791856050491333e-01
-4.350885804273998264e-02,-2.100116399383884780e-01,-3.957159697390848219e-02,1.804177563626258420e-04,8.278650602620804847e-04,1.487693587989235428e-03,1.685319989919662476e-01
-4.401394349510983489e-02,-2.142885792638214437e-01,-3.580407280597773523e-02,3.800615174823512464e-04,1.234148693197050775e-03,4.620226570406548230e-03,1.747221499681472778e-01
-4.124786634799502277e-02,-2.065064678426839218e-01,-3.084870072286490655e-02,5.856852127167408830e-04,9.668099969996019147e-04,-1.311905711981207806e-04,1.707073003053665161e-01
-3.826318883112575508e-02,-2.104043727983649081e-01,-3.515160154458678299e-02,1.432374035019337742e-05,6.550883407251747049e-04,4.025339581852850797e-04,1.737229824066162109e-01
-4.290685346922477883e-02,-2.069158359795685298e-01,-2.867967735773252480e-02,4.965347885858413480e-04,1.845878044823378531e-03,1.020239306265254301e-03,1.716066002845764160e-01
-3.962786369483291271e-02,-2.102071174960735145e-01,-3.841086153281291632e-02,2.076950290922871555e-04,6.099167638170450469e-04,8.957846305774200876e-04,1.712016612291336060e-01
-3.880001373935822173e-02,-2.061617194209052761e-01,-3.081728558299191845e-02,9.930160443558568722e-04,3.775310415991019013e-03,1.699696954244419049e-03,1.716509610414505005e-01
-3.341496217204209529e-02,-2.117022732909250859e-01,-4.769259727957552569e-02,6.016122445969176568e-04,3.976716518047001604e-04,-7.009802272805341558e-04,1.716034114360809326e-01
-4.246389493777754515e-02,-2.102111286922179467e-01,-4.290058048525110385e-02,-5.084610275938880131e-05,-9.976765970245014717e-05,2.996162204411867338e-04,1.675302386283874512e-01
-2.910087535487598798e-02,-1.953266889504761961e-01,-5.260681755244703273e-02,8.866267472037572817e-03,-1.688899431149716189e-04,2.259706820485852651e-03,1.566125601530075073e-01
-3.097501189006892502e-02,-2.003890359025663481e-01,-4.036804643163829226e-02,3.146725736559550395e-04,4.073461154650057092e-03,1.851363256701055453e-04,1.650703102350234985e-01
-2.562121321985777467e-02,-2.047411021087688909e-01,-4.867485587530277075e-02,9.081523864246474065e-03,-6.251025865576739522e-04,-1.529516192619410084e-04,1.695131361484527588e-01
-2.785764999541041897e-02,-1.975923005112819042e-01,-4.793308400803425462e-02,2.596268306117619851e-04,2.729101533712407438e-03,-5.053629536891002163e-04,1.607130616903305054e-01
-4.846775770256627619e-02,-2.109274875837964247e-01,-4.799398070212675116e-02,4.576712726455610652e-04,-2.527668307294263011e-04,8.580120371574623392e-04,1.627064496278762817e-01
-2.667870549837725314e-02,-2.043492960597766972e-01,-4.997861662508985836e-02,1.281534816582977207e-03,6.530947053920406822e-04,1.837760393426035263e-04,1.672612428665161133e-01
-2.551396342773309955e-02,-2.027836802840396746e-01,-4.793146343238704338e-02,2.011837414234680238e-03,6.040867652212841138e-04,-5.673940587385386733e-05,1.672315746545791626e-01
-2.679765740424923381e-02,-1.587097562427863262e-01,-5.091257877958489664e-02,1.886918451601314606e-02,-2.321851427554315513e-03,-2.894662634215426590e-04,1.260390579700469971e-01
-2.922654119785038362e-02,-1.891726891671803579e-01,-5.483492116029355101e-02,1.005460590640891785e-02,2.573927991234692576e-03,2.466797500776515481e-03,1.499467045068740845e-01
-3.105528987459760942e-02,-1.837384824192440647e-01,-5.190302052317621873e-02,6.608681021211046738e-03,-5.000329098493164551e-03,2.773064007590301215e-03,1.441970616579055786e-01
-6.399788887635585177e-02,-3.548314908311299698e-01,-4.807567641580702544e-02,-1.423657793432009204e-02,-3.379418534540903213e-03,-1.459750950034435606e-02,3.012473583221435547e-01
-2.450757411164430910e-02,-1.922183798258030318e-01,-4.780158454453858896e-02,5.558820503184031675e-03,1.644295934395037517e-03,3.212567732986037691e-04,1.576831936836242676e-01
-2.508010980366402742e-02,-2.028467230313726888e-01,-4.666614624281427426e-02,1.224692669641000084e-03,1.235159642340321988e-03,1.380966508551912351e-03,1.680608391761779785e-01
-4.318240746372621619e-02,-2.113512149215923952e-01,-4.022989004437924759e-02,-8.952826356893678556e-04,9.194857272179864007e-04,-3.218688887505580676e-04,1.696798056364059448e-01
-4.395937217015684351e-02,-2.092484216124777807e-01,-3.628026091381726659e-02,3.256097097592091207e-04,1.762876239801699791e-03,2.171432499356386152e-03,1.693295538425445557e-01
-4.185664363715151798e-02,-2.103560861211897781e-01,-3.844048881977357723e-02,-5.819670462529606290e-04,7.053116465110773363e-04,9.810977849345607106e-04,1.702490746974945068e-01
-4.552903416224323568e-02,-2.134093434620655816e-01,-3.630588942732155405e-02,-9.046827527348534756e-04,-1.124988802754812653e-03,-3.227716158888155069e-03,1.727852821350097656e-01
-2.667267821272439887e-02,-1.913596773449333099e-01,-5.112219426622682805e-02,2.178388602774443059e-03,-1.470423546635884777e-03,-2.747513604962484660e-04,1.539935618638992310e-01
-2.747829188253825272e-02,-2.037045497483108702e-01,-4.932064784718483835e-02,1.649768438743406647e-03,-6.736348098317562283e-04,-8.161779637176822238e-04,1.664184778928756714e-01
-4.729539475376583202e-02,-2.091911329032743183e-01,-2.760665406837824187e-02,9.403524689954910823e-04,1.657867737078455063e-03,2.276136935878642596e-03,1.726610511541366577e-01
-2.626652010539769211e-02,-2.036321304435081414e-01,-4.776595965825206069e-02,2.164049304158320412e-03,5.272891937606651860e-04,2.412405574098614466e-04,1.676978915929794312e-01
-5.415620094303411070e-02,-8.835596526852773636e-02,-5.347756302108845616e-02,7.266676180657081867e-03,-1.952233395707069375e-03,-1.619815154932733019e-03,3.702718392014503479e-02
-3.975940864559122240e-02,-2.099356730583749886e-01,-3.960545945649536492e-02,1.455281552734935188e-04,1.053274211782781727e-03,-7.307023879249523179e-04,1.702679544687271118e-01
-4.017795604954896294e-02,-2.108295871153288426e-01,-4.159300543710056641e-02,2.513198964907435761e-04,9.420864435127052593e-04,1.306699452952974478e-04,1.699570715427398682e-01
-3.838919892797219846e-02,-2.104549756966291318e-01,-3.759767435872050229e-02,-1.000355461704677935e-05,2.807031442853434784e-04,-2.824251625200062355e-04,1.724642813205718994e-01
-4.697612115459059989e-02,-2.109683472307851138e-01,-4.646102269790843703e-02,-1.446516457971099153e-04,-7.830323355986673660e-04,1.143023085441717432e-04,1.642562896013259888e-01
-3.763363718724413443e-02,-2.101646846358793119e-01,-3.907409408841362036e-02,4.152808350830097090e-04,9.668059591383516924e-04,-9.373223480934827849e-05,1.718250960111618042e-01
-3.963179243784636929e-02,-2.100768587207408056e-01,-3.860444106691905686e-02,1.654754071836223744e-04,6.435788916651952489e-04,9.362173271616453614e-04,1.709726154804229736e-01
-4.814771092631663779e-02,-2.366136948900652848e-01,-4.661057203823605610e-02,3.817535275801922038e-03,2.565767597738039234e-03,7.615876576000230741e-03,1.898656487464904785e-01
-5.091124637722562601e-02,-2.113425848805874085e-01,-4.777335068900714216e-02,3.785515818365695127e-05,3.014065724119411368e-04,4.164391677132413272e-05,1.620239466428756714e-01
-4.978167137172538614e-02,-2.087274671599333442e-01,-3.235832926327705805e-02,6.563973966442730604e-04,4.408367549098460118e-04,1.917023377445938991e-03,1.683734208345413208e-01
-4.728365331193949694e-02,-2.097961300192524581e-01,-4.725248813501790879e-02,-5.135045970802995177e-05,-6.119302415156816443e-05,1.822444924186095757e-04,1.625284254550933838e-01
-4.438632751315559066e-02,-2.096920034435322822e-01,-4.439728591957645132e-02,-4.949524674051838935e-04,4.805975319889451173e-05,-1.848489531842296963e-04,1.653027534484863281e-01
-4.834419058863712038e-02,-2.182818906498082412e-01,-4.429760409739381261e-02,-6.413157502087508564e-05,3.459927630115298980e-05,-1.773542784158790332e-03,1.720241755247116089e-01
-4.574916240454104943e-02,-2.136228661644088977e-01,-4.391785585878884429e-02,-1.395669468363467790e-03,3.242259566304411290e-04,-3.063043556736719654e-04,1.688158810138702393e-01
-4.473800339097007417e-02,-2.144828008383634910e-01,-4.431546669044356124e-02,2.115348623264760516e-03,5.714703308348498875e-04,1.694643049316681615e-03,1.700241714715957642e-01
-3.932081947501579744e-02,-2.259758568986306448e-01,-4.050740072526833047e-02,-1.590211137445433909e-02,4.400957157734126587e-03,-2.943223929193725108e-02,1.950270086526870728e-01
-4.441989187511416470e-02,-2.120168478364300169e-01,-3.518237279110220800e-02,3.401024305664759450e-03,2.254968513846314013e-03,5.116079732883913218e-03,1.727736443281173706e-01
-4.446450946302237667e-02,-2.148582822276617343e-01,-5.130347146704056227e-02,5.966980296307278285e-05,6.599551993303453537e-04,2.743310675356613187e-03,1.671507954597473145e-01
-4.487128514812148417e-02,-2.194794251937864926e-01,-4.546834825101016275e-02,-1.465303525307857808e-03,1.260991464321995067e-03,7.582465101313937692e-05,1.743425875902175903e-01
-5.182540354597889309e-02,-3.060216022069010000e-01,-5.548127053217161153e-02,1.249319497697256968e-02,3.294646266555531586e-03,-4.042152609077172276e-02,2.628731131553649902e-01
-4.336973847243116159e-02,-2.170139156996246099e-01,-4.598512624136822519e-02,5.302700057872478112e-03,-4.990896181388732034e-03,-1.087541950995917807e-02,1.738358438014984131e-01
-6.197031802514783860e-02,-3.497150341538467488e-01,-6.197478276729079250e-02,-3.804757964196657516e-02,1.653968876222108126e-03,-3.050748415130792243e-02,2.998981773853302002e-01
-4.197630642168700965e-02,-2.092465690657951960e-01,-4.151631156727924460e-02,-1.598213502148873501e-03,2.945067122863963358e-03,-1.596245464739890494e-03,1.676240563392639160e-01
-3.470250409043633411e-02,-2.138940770518517054e-01,-4.552727984603995720e-02,-6.410121404199863428e-04,9.417214651458565835e-04,9.580494553160389835e-04,1.740509569644927979e-01
-4.585713966062934105e-02,-2.148886895790174389e-01,-5.195418569719717494e-02,1.802664188368361320e-03,-1.204906909159935433e-03,1.878185717561580998e-03,1.661413013935089111e-01
-4.484555493002892468e-02,-2.120879918584931412e-01,-4.008697298663981001e-02,-9.074479702693435219e-04,6.406627582856952614e-04,1.171764615970656044e-03,1.696948260068893433e-01
-4.547255611459923019e-02,-2.105456182412140942e-01,-4.625259510683561726e-02,3.826637388477153415e-05,-1.264254480113106093e-04,9.797999405032455436e-04,1.646933257579803467e-01
-5.091038157510035383e-02,-1.756513795410923895e-01,-2.600783706877429768e-02,2.383141986572493917e-04,-1.306440958990413414e-03,7.546675198448878075e-03,1.395097523927688599e-01
-3.520057655979415279e-02,-2.104015280683539380e-01,-4.609355703731676801e-02,9.465481445315043069e-03,2.137017914242383358e-03,2.353296217053015265e-03,1.708937436342239380e-01
-4.104519843199108675e-02,-2.265883271209877814e-01,-4.448824935143356335e-02,8.264861145338541631e-03,5.226140498984790331e-04,-1.036126183621328273e-03,1.844132244586944580e-01
-4.349653475712188938e-02,-1.927890827817307362e-01,-3.482460897254350402e-02,-1.598013305078553039e-03,-5.651222950656670588e-03,1.165443141866843958e-03,1.541611701250076294e-01
-4.322471403531168849e-02,-2.092402197943019071e-01,-3.565814509927291154e-02,-1.092080491093329461e-03,-6.149792891963150971e-04,-5.144306123165557146e-04,1.699413806200027466e-01
-4.988366526432131548e-02,-2.110442977212539373e-01,-4.767816501180683481e-02,1.682994685347728920e-04,-8.131775217609602804e-04,-2.766615132601614292e-05,1.622810065746307373e-01
-4.237655293828648806e-02,-2.125761979887912934e-01,-3.269253044910112871e-02,4.436801052454919080e-04,2.420097896326740654e-03,5.149442093596803301e-05,1.752942800521850586e-01
-4.228116498624542863e-02,-2.144673435958058538e-01,-4.472783165895527491e-02,-1.864629862037831551e-03,1.308044324956688037e-03,5.600316892125551966e-04,1.710242331027984619e-01
-5.471125363484283244e-02,-2.173842472187649810e-01,-4.505443592485711829e-02,-4.534767658899077755e-04,-1.773292205285053648e-04,-1.425064875333035847e-03,1.677303314208984375e-01
-4.073817854701436425e-02,-2.221481797322900631e-01,-4.617768056573853808e-02,8.033004176726761536e-03,1.149302579618809378e-03,1.713166630665900921e-03,1.793286204338073730e-01
-4.454490500593919627e-02,-2.107409476985608321e-01,-4.324846227545130900e-02,-6.988381812711064352e-04,-7.666865786961055867e-05,1.091063144787903210e-04,1.668525934219360352e-01
-5.451359039705803988e-02,-2.142650433822944067e-01,-4.709301303948873474e-02,-5.986582633336714511e-04,-5.766350773810527755e-04,8.780099729589175509e-04,1.636014282703399658e-01
-4.318102547839568206e-02,-2.211272292824160712e-01,-4.514550789074656817e-02,-7.845091229478774741e-03,5.814960300144763304e-03,-1.180825858641583459e-02,1.789511740207672119e-01
-4.099554086289476651e-02,-2.144015553886701175e-01,-4.175956647430444785e-02,1.462062193699594154e-04,6.693501331481606625e-04,7.864732819823920702e-04,1.730346977710723877e-01
-4.486121502329790123e-02,-2.101910302098463079e-01,-4.444974484621434102e-02,-6.026588096891945462e-04,1.680361788618774728e-04,-5.614538557213268662e-04,1.655423343181610107e-01
-4.486130648757081368e-02,-2.111428547267330258e-01,-4.338621540262013743e-02,-1.111549899759575310e-03,-8.143068278683002995e-05,3.023866650474342521e-04,1.670359522104263306e-01
-4.518668916630166205e-02,-2.097372607792402088e-01,-4.726036986066162182e-02,1.062340104763137452e-04,-6.376671411019389085e-04,1.641205521737074677e-05,1.635274291038513184e-01
-4.369691935225669677e-02,-2.132395489360385255e-01,-4.394963210338891091e-02,-3.118578171019837503e-04,4.950638756524971401e-04,1.146083609238190710e-03,1.694310754537582397e-01
-4.386985844436634696e-02,-1.979140646965127093e-01,-3.163211114139669738e-02,-1.046820602805187232e-03,-5.087185176483009774e-03,5.343494053480227690e-04,1.607678979635238647e-01
-4.735435284391894400e-02,-2.124170487836933852e-01,-4.711171600085470312e-02,1.158192085132151924e-03,-1.037359276275263802e-03,1.694289897847315240e-03,1.652321666479110718e-01
-4.275073535224118565e-02,-2.148641540391372784e-01,-4.240332704686278903e-02,1.184600671900705709e-03,3.109464560892794601e-03,8.469202569259554753e-04,1.723899990320205688e-01
-4.537118479968565987e-02,-2.108943801081989422e-01,-4.555582070106198311e-02,2.535585130188615236e-04,6.560162796173848445e-04,-1.476722012544183006e-04,1.654356420040130615e-01
-2.842859384199833417e-02,-2.086925734243320063e-01,-4.670026382893541911e-02,4.246707319238202452e-03,-7.997399699141158683e-04,-1.118197064059795473e-03,1.720319837331771851e-01
-4.611065446894541814e-02,-2.114884110537805506e-01,-4.614792744671245700e-02,3.433149611041708040e-04,1.146698875381685553e-05,8.426469121054867969e-04,1.653666347265243530e-01
-4.611384722378018830e-02,-2.123778208201405893e-01,-4.494504212110599778e-02,9.098655039375186848e-05,5.497501266175401288e-04,2.749659717240382647e-04,1.668549180030822754e-01
-4.322008936163666826e-02,-2.117705873410354878e-01,-4.444203681677354884e-02,1.201417406379780934e-03,1.441565179295103895e-04,2.927646091155021143e-04,1.679566949605941772e-01
-4.818992868122801143e-02,-2.375848373561894877e-01,-5.062304722161154596e-02,1.338405126036403079e-03,-1.866954685456553322e-04,7.972093887283398855e-04,1.882097721099853516e-01
-4.697177325988716873e-02,-2.166349878195631407e-01,-4.781282997673026725e-02,-1.589313925464499490e-03,2.302749146577773558e-03,1.829841609423764510e-03,1.693432778120040894e-01
-4.204940959127537875e-02,-2.150787945755801844e-01,-3.121526078497273426e-02,-7.030639067760074447e-03,5.380335658811154047e-03,-2.190099162476192782e-02,1.833173930644989014e-01
-4.774126818014548523e-02,-1.762192754221525159e-01,-3.935581703179735769e-02,-3.934108347151658858e-02,3.787916965238742346e-04,-3.308226688236187707e-02,1.599411219358444214e-01
-4.624744343910777017e-02,-2.113697064838956363e-01,-4.373409272210829896e-02,-9.189375215139971437e-03,-9.309690351890672873e-04,-3.320913414128152941e-02,1.767799854278564453e-01
-4.046668796075694741e-02,-2.125684973299590552e-01,-3.576880387915265525e-02,-2.413111572258502260e-04,-9.337341456429904809e-04,-3.247641834237184437e-04,1.745070815086364746e-01
-4.647746097973921159e-02,-2.148672707569114770e-01,-5.158872554713304914e-02,-5.805421415256450165e-04,4.103095360983048320e-04,2.803676811580331323e-03,1.659688651561737061e-01
-4.472539331536411200e-02,-2.126499069132644082e-01,-3.558575552863313396e-02,-8.324633539352327676e-04,-3.230371125564896698e-03,8.824414297394314946e-03,1.734472215175628662e-01
-4.232527352324928077e-02,-2.046715689788881909e-01,-3.685735138659965854e-02,-9.455745703532292962e-03,-8.583219732630369136e-03,1.119513744960921181e-02,1.677473038434982300e-01
-4.552541652072271405e-02,-2.213729763955813168e-01,-4.779188077824787079e-02,-1.991883076307757530e-02,-9.209713283067329573e-04,1.910408593374660763e-03,1.781368106603622437e-01
-4.633244909437821135e-02,-2.146581802105265724e-01,-4.732624398319809633e-02,5.251738667740775152e-04,6.550750666939935069e-04,-1.382210222038579182e-03,1.678544133901596069e-01
-5.582502256811899821e-02,-1.977919475478369660e-01,-3.113516452975599591e-02,1.531311880284939820e-03,-3.214198343520705079e-03,-1.069321077814289764e-03,1.559192091226577759e-01
-4.575244772445264535e-02,-2.125832804203518223e-01,-5.052961055537939089e-02,3.140569255549276791e-04,6.891102358984979408e-04,1.177539148194703920e-03,1.645121574401855469e-01
-3.679549052043321056e-02,-2.132136512843989529e-01,-4.343732473243358538e-02,-1.056657654457542322e-03,4.006198676222122446e-03,3.797453692625876471e-04,1.733426451683044434e-01
-3.273197230496985299e-02,-2.116366472369171914e-01,-4.445016799289299575e-02,2.820455891349120522e-04,1.964947906108188789e-03,6.298900796137919876e-05,1.733770221471786499e-01
-3.277392802155981028e-02,-2.065946845141758414e-01,-4.540884696684020783e-02,-2.423246387155281352e-03,2.681512627273059494e-03,-6.920103704853506872e-04,1.679812818765640259e-01
-3.147078834865164876e-02,-2.083806672355061618e-01,-4.601129463430620598e-02,-1.656480507284638880e-03,2.900154872703704281e-03,-1.052549645174707124e-04,1.702047884464263916e-01
-3.479739818573129861e-02,-1.954808748824951037e-01,-4.597234402377334272e-02,-4.379078925317619192e-03,5.257279210046381449e-03,-3.562783539876853621e-05,1.558489054441452026e-01
-4.429293143678579570e-02,-2.156604887230266498e-01,-5.741135474254579346e-02,1.100052757777070494e-03,2.218261385548009606e-04,2.320248358865711034e-03,1.652597635984420776e-01
-4.329921384827067898e-02,-2.157131292956445123e-01,-4.268099299068520841e-02,-4.585862630704865515e-03,6.831467268279652755e-03,-4.507951823187068482e-03,1.734865754842758179e-01
-6.135549689677997909e-02,-2.191920426993708704e-01,-7.046528464653015189e-02,-3.017109527779021291e-02,-7.512819018085394734e-03,-9.221265195634714695e-02,2.279632389545440674e-01
-4.883291358010919542e-02,-2.153555176006908267e-01,-3.663573791269836288e-02,-1.481234141517450646e-03,4.217230080547895157e-04,4.659949264187300544e-03,1.731528639793395996e-01
-3.456668446757010099e-02,-2.098160427596924560e-01,-4.158744594325897159e-02,5.104453468428475194e-07,-1.175451410870575510e-03,-8.258469522748933603e-04,1.718645840883255005e-01
-3.356362495786813227e-02,-2.084110482129619690e-01,-4.127115739277310152e-02,-1.085993337384943546e-04,-1.926336509731231463e-03,-5.327383048603010737e-05,1.711565405130386353e-01
-3.131762006471020682e-02,-2.016651526231983960e-01,-4.526085978854570147e-02,1.645737244630886926e-03,-3.878415714842394554e-03,-1.241494176497476027e-03,1.639980971813201904e-01
-2.913101949297383642e-02,-2.038708321257629019e-01,-4.545747424576990214e-02,-4.007115330555557702e-05,-2.247675574160085989e-03,-4.674213688947640019e-04,1.672228723764419556e-01
-3.344908487301065381e-02,-2.059732275653285427e-01,-4.321496537273941674e-02,1.089482234054213851e-03,-6.965579941552650471e-04,1.167487958125590272e-04,1.678694784641265869e-01
-4.533659771013091866e-02,-1.593521576281165530e-01,-3.656035601337674634e-02,5.990778995328428606e-03,5.065700099552768176e-03,1.122972183964855014e-02,1.209965720772743225e-01
-4.472916613278854481e-02,-2.145148827941040781e-01,-4.035954072297928685e-02,7.952051418362224549e-04,-6.505759383092243973e-04,-3.183324925202458012e-03,1.721097081899642944e-01
-4.497930484483591423e-02,-2.162318349559104735e-01,-5.588543608423755110e-02,7.256606757166338389e-04,-4.199314344846249563e-05,-1.001565125394168624e-03,1.660820990800857544e-01
-4.676075226509647520e-02,-2.118349729510212720e-01,-4.663915273985841381e-02,-7.858692675280789207e-04,-3.066938452195290500e-04,8.279684971207384525e-04,1.651477515697479248e-01
-4.649135088706611574e-02,-2.006691969495635330e-01,-3.172962104893634061e-02,-1.858663299851242776e-03,3.597722880451942069e-03,-4.724013204723408361e-04,1.622174829244613647e-01
-4.655760718935320758e-02,-2.099963676126861967e-01,-4.708782103446836065e-02,-8.716412136994692379e-05,-7.170478355898558332e-04,1.098513226242446236e-04,1.631792038679122925e-01
-5.497957902525499319e-02,-1.281926225130784192e-01,-4.822701280763837250e-02,8.875311107670687998e-04,3.007263964496924638e-03,1.078437575234689194e-02,7.923714816570281982e-02
-4.459551421637619750e-02,-1.585438728952608956e-01,-3.673666894714944231e-02,3.257239874685051700e-03,5.094930999248365594e-03,8.831183980868042432e-03,1.195205673575401306e-01
-4.178623845918732344e-02,-1.947946357839121234e-01,-3.632236062927282627e-02,-4.581196891947493348e-03,6.527691835643501840e-03,-1.482804909321904993e-03,1.564443409442901611e-01
-4.377344118147168117e-02,-1.407225059510841536e-01,-4.350146931750417667e-02,1.175666356320085627e-02,7.354910606918685541e-03,9.206823505261831769e-03,1.012758687138557434e-01
-3.623407825432861662e-02,-1.865929290131092544e-01,-4.605573705723307876e-02,8.299076907656777928e-04,6.510872490815130739e-03,9.009132335118873831e-04,1.461476981639862061e-01
-3.497290010228081003e-02,-2.115737546717322837e-01,-4.652297216455647533e-02,-1.843082387424287106e-03,1.959730064796945392e-03,-4.733133699867303804e-04,1.711838096380233765e-01
-3.715045275755206322e-02,-2.111141425809088812e-01,-4.103982971875043406e-02,-1.778583108285090994e-03,-5.189960877261411490e-03,2.590252249372405891e-03,1.723725795745849609e-01
-3.924537687405804665e-02,-2.124178458714371109e-01,-4.005864120137186957e-02,-4.122555038910728775e-03,-4.250486808523257394e-03,-1.068444076206231204e-03,1.730813086032867432e-01
-4.714207346571631235e-02,-2.099832459059504108e-01,-4.643982177078669060e-02,-4.113422651098362984e-04,-6.081546403030526227e-04,-1.715208576846560015e-04,1.631986498832702637e-01
-4.260116758884176236e-02,-2.122896405306706480e-01,-4.623471582712581490e-02,9.915459320813729480e-04,7.632500677249936215e-05,-1.336034233808738696e-03,1.679259687662124634e-01
-4.580466653045885822e-02,-2.189052506977651191e-01,-4.175552160028792037e-02,3.573025319958507244e-03,9.571814131821731369e-04,2.702391699203754785e-02,1.814195215702056885e-01
-4.278154260609175197e-02,-2.124100928675831113e-01,-4.606426143069306672e-02,6.372072692660455361e-04,-8.764333482355907026e-05,-2.184737571369254824e-03,1.680575460195541382e-01
-4.455823491211239468e-02,-2.128136894414584535e-01,-4.614788129679336937e-02,-1.895954805650436543e-04,6.699007835921691988e-04,-1.248301502221978903e-03,1.674845814704895020e-01
-4.779290756991393802e-02,-2.101455473663327300e-01,-4.817806920100412699e-02,1.120957202271511289e-04,-3.998932912274426213e-04,1.934774784791388558e-04,1.621623486280441284e-01
-3.407656856476391077e-02,-2.090797880940704068e-01,-4.475010298413851367e-02,-6.895261285787773406e-03,-5.849597258368608409e-03,1.334653198341835892e-03,1.706539690494537354e-01
-3.786324421471123219e-02,-2.079375844038813259e-01,-3.735641841070223845e-02,-3.366058122768537421e-03,5.443262598181430531e-03,-2.534753452340537255e-03,1.707451045513153076e-01
-3.335657305871482514e-02,-2.117519489693443502e-01,-4.852504485737221818e-02,-3.459539917612572055e-03,-7.512585330146368586e-04,-3.656916723314971359e-03,1.715421974658966064e-01
-4.705731285847084694e-02,-2.112177804016160954e-01,-4.776061305070462143e-02,-9.651323339185920516e-04,-5.695890523463223833e-04,5.653711518501202516e-05,1.638214737176895142e-01
-4.359792670770466089e-02,-2.094798430413120638e-01,-4.383912765301854753e-02,2.463019552680389187e-04,4.387438034459589169e-04,-1.220059266437478128e-04,1.657638698816299438e-01
-3.827362840588882653e-02,-2.092216499639887595e-01,-3.704625525373275025e-02,3.198563420527601210e-04,1.961315137525724683e-03,5.225883592558028864e-04,1.716019064188003540e-01
-5.064493045020981854e-02,-2.152926488306302066e-01,-3.820189439422277955e-02,-2.000108283020297743e-03,-7.235027430938540706e-03,-1.311171203483259273e-02,1.731970161199569702e-01
-3.511222467034083583e-02,-1.970702751806873709e-01,-4.598081485030350302e-02,-6.950704730380401382e-03,-5.454406122492678512e-03,1.917251800998791972e-02,1.610131263732910156e-01
-3.995871860948574383e-02,-2.112128428123684065e-01,-3.370900919227684533e-02,-2.006691593918147418e-04,-8.917088003815899517e-04,7.625341176281714593e-04,1.744751334190368652e-01
-3.408221427914315954e-02,-2.051665902070731740e-01,-4.411454734107635167e-02,-1.065521794116299241e-03,-4.011913657188590637e-03,1.795093648280710790e-03,1.664797216653823853e-01
-3.065927937270455927e-02,-2.091704668372053322e-01,-4.555310316121712749e-02,-5.873867192093452537e-04,-1.584086224328628981e-03,3.260253111164177538e-04,1.715757548809051514e-01
-3.780849898889480226e-02,-2.110243398868974496e-01,-4.405798660811040962e-02,6.751798530152846364e-04,-8.124724724001853313e-04,-3.902501176405232170e-04,1.701883673667907715e-01
-3.310254247973186403e-02,-2.074134934941515573e-01,-4.289616233201797024e-02,-1.233155068299274324e-03,-3.901156975664641334e-03,2.918308659752963299e-04,1.697750389575958252e-01
-4.722881122153492484e-02,-2.106766674357456459e-01,-4.791176621952344949e-02,7.883735155885156567e-04,-5.553264598725969007e-04,3.313778117453468797e-04,1.631170064210891724e-01
-3.232322918450945826e-02,-1.968212969915572041e-01,-5.061044254712782076e-02,2.664123330462450385e-04,-4.946201749402564206e-03,-7.460656744371094249e-04,1.564004570245742798e-01
-4.860076423066191087e-02,-1.491702693187247353e-01,-4.179834023775857998e-02,6.242254309131047008e-02,4.133673011664661459e-03,-1.297189353327697116e-02,1.519552767276763916e-01
-4.653017023868918217e-02,-2.118032015820999758e-01,-4.510311756002267219e-02,1.136542092277843070e-03,-6.220528482510858000e-04,1.255549152602996113e-03,1.660205721855163574e-01
-3.585216632075335225e-02,-2.014651142781709037e-01,-4.236987750092211652e-02,-2.180440319673773958e-04,-5.605888812299945900e-03,-4.252946110483290393e-05,1.627425551414489746e-01
-2.338790532215941076e-02,-2.001617093074957165e-01,-4.810305823019132843e-02,1.564777793842337620e-03,7.325311977953952126e-04,1.961492373776774732e-04,1.658309251070022583e-01
-2.854579565672434732e-02,-1.951583190354839181e-01,-4.670164998320335686e-02,8.986198390352741162e-04,-2.297951569884344909e-03,-9.026786288304108311e-05,1.583750694990158081e-01
-4.967048473503755252e-02,-2.126841552601223817e-01,-4.642598213147692415e-02,2.845530494262228237e-04,-1.301296610608071230e-03,9.298663460343768294e-04,1.646839380264282227e-01
-4.667743682629869884e-02,-2.153071471212867349e-01,-4.744510018443106464e-02,-1.060108439437453583e-03,-2.642050477340670200e-04,3.287161096106773397e-03,1.683541387319564819e-01
-4.907768329185675793e-02,-2.118151857884361389e-01,-4.695096860648112491e-02,-4.193609786727732437e-05,-6.828128118591232035e-04,1.228926173655536542e-03,1.638293266296386719e-01
-4.694108972263241752e-02,-2.141808345459914331e-01,-5.047314218782814055e-02,-2.234295543940184418e-03,6.650933133077125206e-04,7.520908330176754187e-04,1.655563563108444214e-01
-4.771410889262677618e-02,-2.117661312587997557e-01,-4.704947204605847838e-02,1.224702486815498759e-03,-1.220984834722807413e-03,1.533308995146519379e-03,1.644340902566909790e-01
-4.538782934440227512e-02,-2.150213059649263569e-01,-5.846155939579990302e-02,-3.795625443915649311e-04,-1.955255730113060974e-04,-1.262386416082170344e-03,1.635054200887680054e-01
-5.252460609509620321e-02,-2.487669006610051525e-01,-4.134687884788373902e-02,-1.355251865387391980e-02,-5.100842680186104018e-04,-3.273106383953143517e-02,2.111759483814239502e-01
-3.599956740805845129e-02,-2.096034029343590566e-01,-3.872769551621919187e-02,6.212999792528618118e-04,-3.380987085724511919e-03,-1.183217396423916126e-03,1.723710298538208008e-01
-4.892827489957318060e-02,-2.141537733675952515e-01,-3.629365102128437326e-02,-1.268193094848829453e-03,-9.338563650750120486e-04,-3.052425216440417775e-03,1.719943434000015259e-01
-4.703337907272217566e-02,-2.114151322860112481e-01,-5.423229570109516090e-02,-6.011899441926241714e-04,1.036567480003368607e-03,-6.800213485664969551e-05,1.609165519475936890e-01
-3.365168097230707145e-02,-2.096170288988815911e-01,-4.142720147331743069e-02,1.141502165495559065e-03,-3.448219040429245218e-03,-7.971037983976148001e-04,1.723297089338302612e-01
-3.727677495997074042e-02,-2.094595927766523258e-01,-3.761809889449495986e-02,2.161979929740737649e-04,-7.288801849418799538e-04,-2.091534560199687022e-04,1.720178276300430298e-01
-3.829751514089924785e-02,-2.097222495670588438e-01,-3.780406846744282373e-02,1.314140511318793829e-04,-2.112855333662718403e-03,-1.916057263615587023e-04,1.717114597558975220e-01
-4.565648095710378440e-02,-2.167068152299364836e-01,-5.780202025302046825e-02,-1.835026019641984888e-03,8.923600925748974289e-04,1.943681192381171351e-05,1.653503030538558960e-01
-3.577394595096485691e-02,-2.095070505116307102e-01,-3.913995452242818168e-02,-1.284410542096943869e-05,-5.985399398736748018e-04,-5.537374350405843953e-04,1.720805913209915161e-01
-3.475037619011850376e-02,-2.103564454699098640e-01,-4.060468118053905950e-02,4.380286478984931849e-04,-2.163497940086851149e-03,-6.216218572795128303e-04,1.727989912033081055e-01
-4.618872589485618907e-02,-2.123995034404871918e-01,-4.680598359621438581e-02,-9.939521875292039576e-04,2.536760467357475303e-04,-9.213440253228749209e-04,1.659201979637145996e-01
-4.521339064159478338e-02,-2.146821454853635180e-01,-4.137639743512626367e-02,-7.425725523509893629e-03,-6.109254358873313605e-03,3.772066196535537111e-03,1.723505407571792603e-01
-5.086900630364050296e-02,-2.317048103801009618e-01,-4.846121347770138144e-02,-1.157401762248914121e-03,2.021858240619690047e-03,-2.044731392329876205e-03,1.821307986974716187e-01
-4.322750730131076635e-02,-2.133853325186372274e-01,-3.689078790909971345e-02,1.106504888399937724e-03,7.998621378373582062e-04,-2.090354190924793279e-04,1.734295338392257690e-01
-4.326329955248922610e-02,-2.327514944772377525e-01,-4.807327704951946945e-02,-8.392982160463966987e-03,-3.305726903186141912e-03,-6.847833851313508621e-04,1.877844333648681641e-01
-4.726550713834460488e-02,-2.113942515501799901e-01,-5.069590111244581809e-02,9.833233048998418421e-04,-6.318579237498946023e-04,6.487571228575689762e-04,1.624572128057479858e-01
-4.319986448006047502e-02,-1.623063442102934961e-01,-4.478930916839869714e-02,-2.759430477987130648e-02,-4.653138126479893421e-04,-5.324782037078949065e-02,1.574501395225524902e-01
-5.196789874879161053e-02,-2.127537283562737080e-01,-4.750823242121988282e-02,5.675045071543896981e-04,-1.437622521153917058e-03,5.440213708146376774e-04,1.630861014127731323e-01
-3.745513688451485024e-02,-1.722176803155747449e-01,-2.611302698274551443e-02,-3.457300578267757246e-02,-2.468344910105627933e-03,3.240284940684338977e-02,1.630094051361083984e-01
-5.299054363516649685e-02,-2.486830967316882024e-01,-4.291361595806265916e-02,-1.221893945505458587e-02,-1.281105425320894870e-03,6.088488266309963204e-02,2.279097139835357666e-01
-4.233249224826236140e-02,-2.187477241835172892e-01,-4.533124679196542939e-02,-1.490796668152536905e-02,-2.007045893257538086e-03,2.391439707592327157e-02,1.816502809524536133e-01
-4.544940071263586095e-02,-1.939889891539817168e-01,-4.171816835022487679e-02,-4.163353697256236274e-02,-6.256011425552405504e-03,1.740229401380333218e-02,1.698768734931945801e-01
-4.724898092618790707e-02,-2.092940083008467400e-01,-4.796561119594099781e-02,5.590057785658333368e-04,-4.979455031346616094e-04,2.445267320690904772e-05,1.616931110620498657e-01
-5.175890423560502301e-02,-2.175774389663482911e-01,-4.649538459248838546e-02,-1.796065674112457813e-03,-5.893340046800939376e-04,-1.221929215832170783e-03,1.685570478439331055e-01
-5.188059119657520424e-02,-2.737032664288574502e-01,-5.454408685114936484e-02,-2.740423882921790358e-02,-2.653813692305191565e-03,2.937300735131940024e-02,2.312660664319992065e-01
-4.516962574381322426e-02,-2.060772005838365784e-01,-2.972406525851685466e-02,-8.768129214941878472e-04,-1.500622536629010175e-03,8.493396448681746007e-05,1.691868901252746582e-01
-4.619933653236564519e-02,-2.038908037268176709e-01,-3.165370112657359819e-02,-1.256145464936538666e-03,-1.710649879309039494e-03,2.215081755573861545e-03,1.655298471450805664e-01
-4.725696613429312964e-02,-2.035705830796449844e-01,-2.723796222296741287e-02,9.002390265516865744e-04,2.951406066849568584e-03,2.281589693777874225e-03,1.673562973737716675e-01
-4.388545499348239093e-02,-2.030102389037304611e-01,-2.753388024077808860e-02,1.033148405026001462e-03,3.840935740597243436e-03,2.639396514969265597e-03,1.681022644042968750e-01
-4.536324243297944203e-02,-2.034955064334582897e-01,-2.657308557654719516e-02,4.327855923838049164e-04,8.965995655030693789e-04,4.668542481568310754e-04,1.683265864849090576e-01
-4.733818543829899222e-02,-2.107717262714271511e-01,-4.772902100308420992e-02,2.295382076903573949e-05,-2.004878459528226917e-04,-2.051294161545432469e-04,1.632392406463623047e-01
-4.771595509760839793e-02,-2.010784791180588726e-01,-2.553931579573924526e-02,-1.763406815366982613e-04,1.617151475223351821e-03,1.445977363280859045e-04,1.655926704406738281e-01
-5.025959334896303032e-02,-2.154816494665922066e-01,-4.568573493565297045e-02,-8.719556789937925019e-04,4.688632384857450682e-04,1.267913960502951333e-03,1.675789803266525269e-01
-5.041897333435475109e-02,-2.117207537416044005e-01,-4.876647953557944337e-02,1.461665533428385460e-04,-1.397234517314607837e-03,5.388045371718018723e-04,1.621552854776382446e-01
-3.979760752816627334e-02,-2.153338261213653682e-01,-3.912749071100340981e-02,3.052864691248299020e-04,2.758487004544899076e-04,1.019897284978452345e-04,1.758737713098526001e-01
-5.573062686617086259e-02,-1.017923064204792616e-01,-5.744780355499121832e-02,5.940563561831573719e-03,-1.674402396504689724e-03,2.366799360290468626e-03,4.665423929691314697e-02
-4.080434616288215049e-02,-2.079699326037982576e-01,-3.257277041027190068e-02,4.610497295151676179e-04,-2.762401413116612799e-03,-1.440965715175804426e-03,1.715164333581924438e-01
-4.856236513503952440e-02,-8.532671085126437849e-02,-5.301300301255075509e-02,3.129796296397167193e-02,1.565293890914862436e-03,4.930848900505694146e-03,6.501367688179016113e-02
-4.428539989882558647e-02,-1.258809155100686361e-01,-4.918120348413265730e-02,1.605383137953107081e-02,6.800965439688303957e-03,1.587700215874649629e-02,8.916554600000381470e-02
-5.782370540132506648e-02,-8.999762496767731157e-02,-5.817229622243498544e-02,2.638041208081360559e-03,-4.457594950628869512e-03,-2.427263997815098592e-03,3.349970281124114990e-02
-5.513291859161645325e-02,-1.187887338315466168e-01,-5.521928827254007910e-02,7.978600252723070958e-04,-4.604894951451108005e-03,-6.826850029179164052e-03,6.520670652389526367e-02
-4.672633207380690046e-02,-1.211411592927990888e-01,-5.936220564424742746e-02,8.750122538268298791e-03,7.674530161968724556e-05,1.560135482643643622e-03,7.066787779331207275e-02
-3.792613725357941307e-02,-2.100159855721673852e-01,-4.053298803714303067e-02,-3.298852121674036852e-04,1.738168305841364608e-03,4.796017299021949096e-04,1.708308458328247070e-01
-4.378673414404913450e-02,-1.296260256015530909e-01,-5.936916759851384312e-02,2.138858684758059708e-02,-3.278633805373320099e-03,2.101131808817453123e-03,8.770130574703216553e-02
-4.906141303014444066e-02,-1.286925807963953117e-01,-5.591566450778717029e-02,9.680762118444985465e-03,-4.051666822001401616e-03,-6.832318429418718017e-03,7.945270836353302002e-02
-3.303352877968365742e-02,-1.621915786189221942e-01,-3.795250757590475088e-02,3.735722571706925899e-02,-3.487403710896272869e-03,-1.179292101582336653e-02,1.439133882522583008e-01
-3.890864984108378943e-02,-2.241222608126365590e-01,-4.966943638585426951e-02,3.586309170465962204e-02,6.035062268974648002e-03,7.505100232688813322e-03,1.912160068750381470e-01
-4.007507414383058852e-02,-2.468503371390570189e-01,-4.987658807236792363e-02,1.928451522307637195e-02,9.475357262531373546e-05,-5.478617589043579400e-03,2.050149291753768921e-01
-3.917580601643307070e-02,-2.339418875290740774e-01,-5.176044207789379237e-02,2.019659212226933981e-02,-1.762253962964922512e-03,-6.755369333557098392e-03,1.923826038837432861e-01
-4.639315241312821914e-02,-2.140389284297185557e-01,-4.670492779018900475e-02,-1.731906422065463812e-03,2.536398795254456943e-04,-9.227384681007780700e-04,1.675251722335815430e-01
-4.722185663013897527e-02,-2.122266094118411273e-01,-4.469659796874150132e-02,-4.740865696872836486e-04,1.145838821536684021e-04,-8.581730640236845181e-04,1.662905514240264893e-01
-3.419474736521262159e-02,-2.109264768913965138e-01,-4.999063111306592533e-02,1.161910926353808271e-02,-8.433792778343543114e-03,-1.246326156489835357e-02,1.725583225488662720e-01
-4.739070489111905926e-02,-2.125062367935405261e-01,-4.681529866891686459e-02,-1.451875287778157031e-03,4.165831821300673135e-04,-1.861630787517254773e-04,1.654249876737594604e-01
-3.179904482560124562e-02,-2.005461017777176447e-01,-4.700768664593287655e-02,1.969865386573480676e-02,-3.619615118447359631e-03,-8.249732192899284292e-03,1.659760475158691406e-01
-4.609693899587691268e-02,-2.121257304632064022e-01,-4.635953234096196196e-02,-1.022421138200147427e-03,2.627775438406780659e-04,-1.193047053383515087e-03,1.659206002950668335e-01
-5.099699834326951869e-02,-2.160300379704173657e-01,-4.988869729134030179e-02,-7.284728321750957337e-04,4.087800370616834905e-03,3.690339433070495941e-05,1.657460927963256836e-01
-5.253341379044389886e-02,-2.145004062115433707e-01,-4.657038117318005460e-02,9.729918209881292140e-05,3.178216137180367527e-03,-3.372475442803149286e-04,1.651222258806228638e-01
-4.815160054456341793e-02,-2.108955933542133454e-01,-5.005557422534354095e-02,-3.723265685124391914e-04,3.713520753745850234e-04,4.572808544390342413e-04,1.618049144744873047e-01
-4.453783998937606292e-02,-2.126809682743809327e-01,-4.540042100280644588e-02,1.551844330398005536e-03,9.716197490395119029e-04,2.102583349786206392e-03,1.677830070257186890e-01
-5.565952364303914518e-02,-1.672214333690034971e-01,-3.859863575055341722e-02,7.384878471625226605e-04,-5.528973053331593876e-03,-1.086099097361210332e-03,1.213975399732589722e-01
-4.728243342074564537e-02,-2.122280595850439266e-01,-4.740848568868383239e-02,-1.243130849416607423e-03,1.057433389355892346e-03,7.853488573973264799e-04,1.649124771356582642e-01
-4.714982157694780351e-02,-2.119352706490804095e-01,-4.520180588814504130e-02,-3.181759342489389212e-04,4.113570257280289725e-04,-5.576049614293905100e-05,1.657705157995223999e-01
-4.626363914699010288e-02,-1.757198829316431732e-01,-3.209328839418129631e-02,-1.233597558990850301e-02,5.483279785244332856e-03,-3.106073261808768235e-02,1.491146981716156006e-01
-5.010884307540044297e-02,-2.102003676695980983e-01,-4.876349286153482121e-02,8.140131294239412777e-05,8.827999125046423522e-04,-2.826368112944250416e-04,1.607764959335327148e-01
-5.146246997489957453e-02,-2.018562256299633595e-01,-2.993245532386334951e-02,-1.139174838369022167e-03,-7.098077692307472580e-04,-1.024895877818717341e-02,1.632186621427536011e-01
-4.837967678440414920e-02,-1.657924779362736634e-01,-4.202332708831209296e-02,8.974504473081868503e-04,-8.994344447363220724e-03,-6.348883251984862273e-03,1.222232431173324585e-01
-4.934206087002894481e-02,-2.085578970235465179e-01,-2.894895399912343625e-02,-4.182295797200470829e-04,3.890095605906657952e-04,-4.168179730018098102e-04,1.703348606824874878e-01
-4.664793480473605064e-02,-1.763055305020316821e-01,-2.652815081754909821e-02,-3.373991606124987779e-04,-5.502991105996136393e-04,-8.913410443510631082e-03,1.416480690240859985e-01
-5.377717773947322810e-02,-2.226002564283635077e-01,-4.599053913208745598e-02,-8.218237953382231866e-04,-1.649208252743011296e-03,-7.917365562619905952e-04,1.728828847408294678e-01
-4.921729604805055724e-02,-2.063197183287308056e-01,-2.718613395931002152e-02,-5.840118028140979176e-04,-8.092566532891492907e-05,1.238892384053964096e-04,1.692004203796386719e-01
-4.781266953116117269e-02,-2.135331397172215984e-01,-3.664134233120612538e-02,-1.667898749397495137e-03,-1.049504364714531728e-03,-3.245290421551611827e-03,1.717050820589065552e-01
-5.000751708757292940e-02,-1.765757775402006513e-01,-2.973741080169461926e-02,2.329843483980503359e-04,-3.190127989233710205e-03,-9.044159782116176910e-03,1.388237625360488892e-01
-4.775047416176253501e-02,-2.080559292750686073e-01,-2.818655700080691107e-02,-2.652310950917018692e-04,-1.729407788660626902e-04,-3.430825467670069748e-04,1.709311008453369141e-01
-4.602101345119856413e-02,-2.157187714286407099e-01,-4.951989458718870918e-02,7.925172195668746256e-04,-6.452264175245981119e-05,-1.585039840469872627e-03,1.680037230253219604e-01
-4.522406513150160207e-02,-2.189699033724662736e-01,-3.932659737366904495e-02,2.190907723122124430e-03,2.095961244147888890e-03,2.581357503096582892e-02,1.824106872081756592e-01
-4.249123909581607045e-02,-2.139209058102258809e-01,-4.434879818234498117e-02,3.887866617012500684e-04,9.186587524776477229e-04,7.586140583595511440e-04,1.705222874879837036e-01
-4.599627482180534271e-02,-2.146689303766061152e-01,-3.977598163877141269e-02,4.785874786275996209e-04,2.859413882497036053e-04,-1.249744773613760624e-03,1.718835830688476562e-01
-4.927280504696452540e-02,-2.092184697276181504e-01,-2.804017216804051416e-02,-2.819201822128376573e-04,1.988424817301912646e-04,-9.934730787315368405e-04,1.715599745512008667e-01
-5.288861560997250993e-02,-1.939562449109942521e-01,-2.884181988968340105e-02,1.026783709025903650e-02,6.873637706775495267e-04,3.081923437659268503e-02,1.644315272569656372e-01
-4.038314345450571413e-02,-2.138023494017102233e-01,-4.115267954346698426e-02,2.877243260788532077e-04,2.242438258186454231e-03,-4.013855951200619881e-04,1.730814278125762939e-01
-3.334430940357471784e-02,-1.767119175628101835e-01,-4.638346202901949544e-02,8.667514740645237709e-04,6.275618500537927247e-03,5.265304841202166249e-03,1.380524337291717529e-01
-3.806489539030533803e-02,-2.086060982305183442e-01,-3.390976129449713855e-02,2.857565247466354328e-04,5.124012296999970895e-04,-2.398537841615804456e-04,1.726597696542739868e-01
-4.841296848076883513e-02,-2.382510444802418137e-01,-3.717647979422498972e-02,-3.096328298723863108e-04,1.651615266080178231e-03,2.136753985735045935e-02,1.991884857416152954e-01
-5.006921948134186728e-02,-1.911906008703543880e-01,-3.937506965195240738e-02,1.153114519675334888e-03,4.930794982687988770e-03,-9.263021743966254459e-04,1.470315754413604736e-01
-4.612663598852752289e-02,-2.105724018207177917e-01,-4.707685594574547577e-02,7.656066580474628217e-04,6.670532071648982984e-05,1.594056004889735914e-04,1.639783531427383423e-01
-4.528080598404385371e-02,-2.130272926133615075e-01,-3.971394195244763725e-02,3.997982971911417959e-04,-7.433454398909555491e-04,1.379197484026469488e-02,1.722686588764190674e-01
-4.676907761326139917e-02,-2.161697806859809168e-01,-3.862554192554826932e-02,2.308734081729531349e-03,-1.891832070933036763e-03,-8.449992727842525753e-03,1.743082702159881592e-01
-4.800359065335339792e-02,-2.347499312818592254e-01,-5.314000581837815401e-02,-2.835775773554208117e-03,-4.166348263122386132e-03,-5.715255239389592165e-03,1.847039908170700073e-01
-4.583405159386296640e-02,-2.109072957057136766e-01,-4.658131886374388547e-02,1.384168481803156906e-03,-3.733572136087363815e-04,3.221023537886605857e-04,1.647205501794815063e-01
-4.428883357345168859e-02,-2.136453764425849944e-01,-4.679995541788433550e-02,1.684318453541390394e-03,3.532846039612889543e-04,-1.130867221570310411e-04,1.681415885686874390e-01
-2.929575278754006223e-02,-1.885729231354016100e-01,-4.024183213712140966e-02,4.612872670913892650e-03,6.236898779481246310e-03,1.503119676214592811e-03,1.547025591135025024e-01
-4.679134574830506182e-02,-2.149806432668455169e-01,-5.113122835716984310e-02,2.244219614390680247e-03,-2.570654341917319452e-03,1.860639914442573399e-03,1.661982983350753784e-01
-4.165586307585532333e-02,-2.128930725119282386e-01,-3.854189177889168899e-02,-6.051783962554597041e-04,-2.537681098489599253e-04,-1.198862065965855935e-04,1.728191077709197998e-01
-5.546491151362976935e-02,-2.804396184405805181e-01,-4.683468227674365825e-02,3.111114578543169515e-02,-1.423090824804137001e-03,-1.521404899554943367e-02,2.371368110179901123e-01
-4.683303762282212124e-02,-1.296273555145479595e-01,-4.488382611784184906e-02,5.905851472419477305e-02,1.204873351950475025e-03,-3.305287586962779578e-02,1.441028714179992676e-01
-4.844763866738842351e-02,-2.119946158138150127e-01,-4.737927731517607016e-02,-1.502380135978140848e-03,1.502893015149530005e-03,9.833275747105356575e-04,1.641338765621185303e-01
-5.208078797015131683e-02,-2.311737945264872307e-01,-5.386382182725182183e-02,8.681922048845654204e-04,4.494155812030486800e-03,-7.798111856424001526e-04,1.783895492553710938e-01
-4.186753937585836749e-02,-2.119348142090791143e-01,-4.113434999595920460e-02,2.847337302535568561e-04,6.514309424340912046e-04,-1.162110253235648216e-04,1.704396158456802368e-01
-4.266311740483223758e-02,-2.273687046488205576e-01,-4.570824438510311116e-02,-9.849514437189552107e-04,-2.096249546818382790e-03,8.386078553738682013e-05,1.832459867000579834e-01
-2.913761926302886607e-02,-1.956692662148597495e-01,-4.427674019431418473e-02,5.715069889787904520e-03,-4.438621194913296673e-03,-3.568587476946247488e-03,1.601128727197647095e-01
-4.180782366719475174e-02,-2.163314707580695218e-01,-4.245737570306980929e-02,2.484597889210935200e-03,-4.312522566220784725e-03,-7.945079215754840066e-03,1.749549955129623413e-01
-4.511534327305095904e-02,-1.268234814405485023e-01,-5.006485609441226059e-02,5.816687000778803657e-02,1.738365760004146818e-03,7.427719514593781160e-04,1.282855272293090820e-01
-4.686142511559355378e-02,-1.301534594235184694e-01,-4.320125885531456850e-02,6.335441690697024564e-02,3.565501359079154432e-03,2.945312751100294391e-02,1.481140404939651489e-01
-3.087212771888386137e-02,-1.924736979712068363e-01,-4.782557531378523602e-02,1.794838175042973508e-02,6.208070340580062844e-03,3.083582405196486683e-03,1.573955565690994263e-01
-5.869026814466619946e-02,-2.665535626857140628e-01,-6.459940831181701371e-02,2.315680856737467597e-02,-9.007184184524836060e-04,-6.160643475310800116e-02,2.345441877841949463e-01
-4.258838800637353150e-02,-2.118474090381537445e-01,-3.966942653290557452e-02,-3.389445313827610211e-04,-4.375480518409187707e-04,-4.301196579219941944e-04,1.707415282726287842e-01
-4.423763425281618256e-02,-2.137263682971516920e-01,-4.396542726613029972e-02,-1.003369764107415411e-03,-8.398281332656914880e-04,1.141629670808301609e-03,1.696516573429107666e-01
-3.058590724565201507e-02,-2.052054147019412300e-01,-4.161248134621436251e-02,1.033574596098598645e-03,1.055753881068275182e-03,7.047396046486275158e-04,1.693993508815765381e-01
-4.493606032446528092e-02,-2.130491101282304123e-01,-4.018745490234928996e-02,-1.468725460143952824e-03,4.612545020369397561e-06,-3.157735722311448339e-04,1.705567985773086548e-01
-3.350123658134514237e-02,-2.058916291901433659e-01,-6.146785204270910352e-02,3.132160225486613908e-02,-1.033629325219561452e-03,-2.343226901544223292e-03,1.692400872707366943e-01
-3.332990405692430602e-02,-1.904871803170227751e-01,-4.680762518646421066e-02,2.148848905260625913e-02,5.868453720607170326e-03,6.534452073426452040e-03,1.561365276575088501e-01
-3.042015792635860416e-02,-2.122972630900916147e-01,-4.605171077080932179e-02,1.537473311286967868e-02,1.693535878962651713e-03,-8.748328119080328591e-04,1.766370683908462524e-01
-3.012131696416849719e-02,-1.829170289052596265e-01,-5.477601635873764058e-02,1.963255446347415140e-02,6.791069728080269090e-03,7.956596424888866953e-03,1.472135931253433228e-01
-4.332303760233355977e-02,-2.221048055758654272e-01,-4.566829685512524550e-02,7.079162953114303582e-03,1.364658738839165993e-03,8.774472014291720108e-04,1.780656427145004272e-01
-3.483484130147299074e-02,-1.635648166939312753e-01,-4.547528573229291105e-02,1.013757778072513563e-02,7.093801503887389552e-03,4.575041753298363101e-03,1.258449554443359375e-01
-4.294130895683751642e-02,-2.032215920611340765e-01,-3.869705716055381328e-02,-8.505499446388160509e-03,-5.929513234859039306e-03,2.610399983126579287e-04,1.634342819452285767e-01
-4.769161869996155212e-02,-2.137208071255116693e-01,-3.555348650976573877e-02,-1.749880577681220883e-03,-2.132640625752348529e-04,-3.253565794712604247e-03,1.725380867719650269e-01
-2.679604476853823108e-02,-1.869972535673562752e-01,-4.751693635680871719e-02,8.771516055356851083e-03,3.105247993521109348e-03,1.527811002436567887e-03,1.517926901578903198e-01
-4.260533062578392843e-02,-1.526778608848734509e-01,-3.252871560970310716e-02,-3.771665706356844283e-02,8.645080155988882267e-04,-2.677723979815146635e-02,1.405261605978012085e-01
-4.839448439572802130e-02,-2.116383053344685350e-01,-3.024040552275943095e-02,-8.097837443187868439e-04,1.853961982455216138e-04,-1.751106610848821498e-03,1.730691343545913696e-01
-3.682789522072908717e-02,-2.091430659940513026e-01,-3.938804746333172263e-02,-1.325625736429882334e-03,-3.420831234660643393e-03,3.239262554632209865e-04,1.711683720350265503e-01
-4.038045941155979368e-02,-2.128396784227019611e-01,-3.815491635444564350e-02,9.620059408931132207e-05,3.695286903709020694e-03,8.647713802918460466e-05,1.737007945775985718e-01
-3.637944004753090876e-02,-2.115847394946145099e-01,-3.972186342815544474e-02,-5.584448999885964059e-04,-3.089691841253653856e-03,1.528245427341918161e-05,1.736434102058410645e-01
-3.741909785987040937e-02,-2.105072505105864411e-01,-3.773559192173861487e-02,-3.615035224393680778e-04,-1.668251516068461121e-03,7.347282430808570143e-04,1.729600727558135986e-01
-3.653006999343907241e-02,-2.105379846272993349e-01,-3.892082953570111248e-02,-9.535224677474238514e-04,-1.758644968916205694e-03,1.578953757429937311e-04,1.728598922491073608e-01
-3.570937147191055594e-02,-2.077901794022196935e-01,-3.898182045535734247e-02,-1.316796543606772729e-03,-3.082193565116418503e-03,8.887803259772000244e-04,1.705739051103591919e-01
-3.683158863197213972e-02,-2.121963239498025622e-01,-3.925274039175621205e-02,-7.629095202049836731e-04,-1.758397900768625356e-03,-1.655901555613081843e-04,1.741986572742462158e-01
-4.592691111844852958e-02,-2.134570923879713367e-01,-5.529446231745285822e-02,2.170475264493631855e-04,-8.347678753014180827e-04,4.828098675278101192e-05,1.630552113056182861e-01
-4.462445777669617197e-02,-2.121362131932152117e-01,-3.293468935942672760e-02,1.326999836274645925e-04,2.007376878766109745e-03,2.553689014902544197e-04,1.736875027418136597e-01
-4.479752004411836214e-02,-2.111488031015223421e-01,-3.422101555963741326e-02,3.870908938643124515e-05,1.186595731218332336e-03,9.651305712722830837e-04,1.719041913747787476e-01
-4.433660155379709478e-02,-2.147772306488328620e-01,-4.379790596207760317e-02,1.698423438921137837e-03,2.133703672285140892e-04,-5.858860623725842915e-04,1.707393676042556763e-01
-3.687212989677490782e-02,-2.116496474158852670e-01,-4.042369829913902007e-02,-9.176212736697701971e-04,-1.836309439703595310e-03,-1.419602203853371255e-04,1.730657815933227539e-01
-4.245821506868339978e-02,-2.135646301614581577e-01,-4.273499576107874648e-02,5.842169205709608557e-04,6.409873373301026335e-04,4.627140216175049071e-04,1.709766685962677002e-01
-3.631365381460751468e-02,-2.101716403402330569e-01,-3.928901987780899357e-02,-5.631523915378489412e-04,-2.370594059596616877e-03,-2.991938648358703575e-05,1.724412143230438232e-01
-4.890448733296400008e-02,-1.622122171744932451e-01,-5.156345542616834476e-02,-1.821071797076995180e-02,2.285939774286165418e-03,-1.316236227588799337e-02,1.186370104551315308e-01
-3.690483251484483890e-02,-2.065692215548896593e-01,-4.988797027793207689e-02,-1.150185867050834004e-02,4.370755008188414829e-03,-1.189528791638735710e-03,1.649552136659622192e-01
-3.627544136996176810e-02,-2.103403282445110711e-01,-4.415505042541746639e-02,2.717174117237500242e-04,1.274928960305780033e-03,2.852852637886941524e-04,1.702775657176971436e-01
-4.610041260612592756e-02,-2.168340002080158535e-01,-4.902490835305738787e-02,1.397162123660496309e-03,3.461028600488565555e-04,2.674361062853643396e-03,1.693719923496246338e-01
-4.211193986070575074e-02,-2.129632783005279140e-01,-4.432420815676128834e-02,4.746342514203509924e-04,1.627725959293544345e-03,-3.647634460379232208e-04,1.697825938463211060e-01
-3.445901092002077309e-02,-2.036498094448191964e-01,-4.872034070110953935e-02,-6.820281164457943877e-03,3.594355337486635459e-03,-3.016284076352744158e-03,1.631613522768020630e-01
-4.263506481987564684e-02,-2.089440894293404516e-01,-4.143977596185451084e-02,-1.068598037073596914e-02,3.415282996078425424e-03,-8.602451655753774740e-03,1.686964035034179688e-01
-4.526027284324014160e-02,-2.179374729102606656e-01,-4.618516666366236784e-02,-3.716459662988272437e-03,9.700866484819260305e-05,2.645538530983569843e-03,1.723978668451309204e-01
-4.346123177544260890e-02,-2.146349390037970151e-01,-3.975360301314600359e-02,7.428725939105534394e-04,1.127444142391645365e-03,9.353525787612548760e-05,1.730731874704360962e-01
-4.346421826839992619e-02,-2.138827323867207031e-01,-4.205615822241035029e-02,9.982746216362001473e-04,-3.284480240371288380e-06,1.513744875699524857e-03,1.711557060480117798e-01
-3.857055313362097587e-02,-2.123856753229002858e-01,-3.599111314168820797e-02,-3.424522507882832409e-04,-5.859524979436092412e-04,2.768797379408136560e-04,1.751236915588378906e-01
-5.110639956280574325e-02,-1.899027623403610199e-01,-5.821130799380938581e-02,-2.943438182841340289e-02,2.427042367947347852e-03,-2.006095062334424528e-02,1.488385647535324097e-01
-3.806453539274676223e-02,-1.500529016954018635e-01,-4.392105720110551365e-02,-1.404049577545163872e-02,-2.556890184008616968e-03,-4.475815468315707396e-02,1.361643373966217041e-01
-4.304230138656903182e-02,-1.711292789911399437e-01,-4.782992023318036190e-02,-4.569096678579812054e-02,-3.139115681776824280e-03,-3.473024008961077269e-02,1.603966504335403442e-01
-4.363035803153979264e-02,-2.106859993061511727e-01,-3.185210269372108771e-02,-4.552037270075743117e-04,-1.275914914062891087e-03,-6.652845667346825483e-04,1.732650399208068848e-01
-2.927579710524561007e-02,-2.047496536131169775e-01,-4.525315107749065813e-02,5.726031402049384586e-04,-1.123855223656269279e-03,-8.352969943291619964e-04,1.680762022733688354e-01
-3.820481766440317339e-02,-2.123347660636618617e-01,-3.751314670404623519e-02,-1.311202582497210379e-05,-2.789053995138144736e-04,4.575567693107501489e-05,1.744775027036666870e-01
-3.926269740843512518e-02,-2.121578986430746883e-01,-3.715575073603756551e-02,-2.782665847153189100e-04,-2.535985670998821976e-04,2.937808791757741704e-04,1.739602088928222656e-01
-4.533528224682055463e-02,-2.132942948310720954e-01,-4.806023368717692035e-02,1.695244289232705759e-03,-1.289292702752013308e-03,4.761455919752722167e-04,1.666561216115951538e-01
-4.471624973082814064e-02,-2.133447513360531289e-01,-4.428230144742833357e-02,1.322813279413310571e-03,6.771331191953672366e-04,-3.656144367994848196e-04,1.688666939735412598e-01
-4.366354369896290055e-02,-2.139211946519731788e-01,-4.428234398503727576e-02,8.382615623334010654e-04,3.413743209331285169e-04,4.895199259511071304e-04,1.699584424495697021e-01
-4.688103718256304842e-02,-2.131314772842681504e-01,-4.809375872414401593e-02,6.246472862866515961e-04,-8.026093569362682204e-04,3.091742661473458119e-04,1.656576395034790039e-01
-4.381832114760781521e-02,-2.139013150446298361e-01,-4.401132816913627677e-02,8.204275634524759581e-04,5.842940733151649876e-04,1.697882326228751862e-03,1.700209528207778931e-01
-4.065430174042827804e-02,-2.108344009143995890e-01,-3.552027187167793032e-02,2.542666448570083488e-04,-9.568996661085076407e-04,-2.479873551312835613e-04,1.728133708238601685e-01
-4.313685229254075187e-02,-2.091517089028190335e-01,-3.382636163466964940e-02,-2.710577483934589705e-04,-2.189457206501990542e-03,2.494252249621393622e-04,1.709037274122238159e-01
-4.520762182969192272e-02,-2.115017007060935872e-01,-4.597131887433637820e-02,6.597091276975403356e-04,-6.186630844476031892e-04,1.108844982345513416e-03,1.659320592880249023e-01
-4.673108424295736169e-02,-2.150509084043695229e-01,-4.843804952411785714e-02,1.844899659916140718e-03,-8.464533877303772593e-04,7.170628753253268425e-04,1.675143688917160034e-01
-4.311677422258381603e-02,-2.084767620757701501e-01,-3.076473080844721597e-02,-2.852790093613929989e-04,-1.123410851653127394e-03,3.299908796791555855e-04,1.718818992376327515e-01
-4.704527156337051652e-02,-2.115394666569557214e-01,-4.622484296118284375e-02,1.500957178377891697e-03,-2.458466855176714679e-04,9.921419327768162769e-04,1.649359315633773804e-01
-3.286220841041787022e-02,-2.081173043410822210e-01,-3.977583707223789067e-02,8.148826478102752123e-04,1.291103440559197672e-03,8.167592291489479900e-04,1.719287484884262085e-01
-4.524925621920034002e-02,-2.330708299657973104e-01,-4.666152220399413103e-02,7.656866061213460535e-03,-7.605915153800819721e-03,-1.276396610209045920e-02,1.893459111452102661e-01
-4.573810142373239962e-02,-2.135858192032089597e-01,-4.196171794304756619e-02,-8.553558630518715315e-05,-8.909029028330799462e-04,-1.523383429718250682e-03,1.697949916124343872e-01
-4.618597193142235519e-02,-2.101609783218668093e-01,-2.905369061324475366e-02,-6.076499158892514126e-04,-9.481969919279380080e-04,-8.416474965168236960e-04,1.731950193643569946e-01
-4.611341308877532630e-02,-2.013557163204905964e-01,-3.033346114323966225e-02,-1.772120213563177255e-04,-3.943082817625529445e-03,-9.611488458499848828e-04,1.638548225164413452e-01
-3.903164494956481989e-02,-1.292525108953196389e-01,-4.435312742530325703e-02,3.681485529692070380e-02,1.765076598987785341e-04,-4.400876642947860323e-02,1.325308382511138916e-01
-5.061640582021036117e-02,-1.971154183500913315e-01,-3.049265104159561146e-02,-4.814617944312503070e-04,2.710368227779182235e-04,-5.792863339461875802e-04,1.575339883565902710e-01
-3.552876979542428371e-02,-1.919980835525501306e-01,-5.126143486321642351e-02,1.396119083220123680e-02,-4.520237998612508523e-03,-6.517992223754387644e-03,1.517958492040634155e-01
-4.386259748325415514e-02,-2.071324586184311867e-01,-4.108601537076168181e-02,1.705122041441673592e-02,-1.491040186182776344e-03,-2.721693967095478381e-02,1.738369315862655640e-01
-4.988549339789197234e-02,-2.088892046454100537e-01,-2.888106489941696942e-02,-3.457776439168322013e-04,-1.270601792984878981e-05,-1.577473845713039664e-04,1.704804450273513794e-01
-4.143004422501152251e-02,-2.028846027986333789e-01,-4.305983951227568274e-02,3.047835199983948626e-02,-5.466688344503362398e-03,-3.373037181683827268e-02,1.791556626558303833e-01
-4.624522089453082796e-02,-2.108278482345645188e-01,-2.870529419695154461e-02,-5.047752103210166293e-04,-1.069160902147622653e-03,-2.039624818285227202e-03,1.740647405385971069e-01
-4.983577318012411689e-02,-2.092290068406521819e-01,-2.814307772324314838e-02,-3.901795027821222434e-04,-7.447614709957385386e-04,-3.443801748636592195e-03,1.713830381631851196e-01
-4.787677197179009136e-02,-2.103811358033378931e-01,-2.806974670491545198e-02,-3.057290554958689947e-04,3.645340833270885187e-04,-8.459804303666730455e-04,1.732672452926635742e-01
-4.746863216900045618e-02,-2.088986058567796622e-01,-3.581086092181143266e-02,1.556777165386369821e-03,2.282827568643158028e-03,1.117457813437112632e-02,1.687452942132949829e-01
-3.637316278591411212e-02,-2.083636405342343678e-01,-3.358452645372072415e-02,1.322432946874879407e-03,4.600281752821731504e-03,2.869668901261146574e-03,1.736708283424377441e-01
-3.923548799464202791e-02,-2.094421079828854282e-01,-3.750434765627638084e-02,-8.499699900700005998e-06,1.308283857649923882e-03,-2.158255916284087134e-05,1.710937768220901489e-01
-4.548885183903002283e-02,-2.115815252184237716e-01,-2.983171417147369164e-02,1.204113400976165421e-04,-3.926554811082632007e-04,-1.619707832434245627e-03,1.744730174541473389e-01
-4.484475994754776040e-02,-2.130011659167037885e-01,-3.352218855664874930e-02,5.479459365375133253e-04,2.282161090987735248e-04,-8.395564364052096953e-04,1.741031706333160400e-01
-3.362968080798771353e-02,-2.087859862650806309e-01,-4.051872146430746807e-02,5.154991235700259484e-04,3.054099733668445664e-03,2.476377524431084046e-04,1.718996614217758179e-01
-4.823797020102881666e-02,-2.283455124990153018e-01,-4.844711638235150303e-02,-1.518576867831079999e-03,8.098179895609856731e-04,-1.383224134057938750e-03,1.800436824560165405e-01
-4.322992290602672982e-02,-2.138376149887570299e-01,-3.696238907328112944e-02,9.604619076600488109e-04,7.824106732897093434e-04,-1.188784535073508498e-04,1.738395839929580688e-01
-3.834913838577039269e-02,-2.102283343606812793e-01,-4.255063811920747896e-02,-2.176781602771594222e-04,8.937878836460513496e-04,1.652143262482053793e-04,1.698251515626907349e-01
-4.610578485060719267e-02,-2.125496016716592607e-01,-3.362579494000582370e-02,2.973050757346818590e-04,5.170927620435304120e-04,-9.951116744919426792e-04,1.730333715677261353e-01
-4.110922524972986797e-02,-2.043881525867372873e-01,-3.723556780341454736e-02,-1.963437513532544754e-05,5.395021562855067954e-03,-2.227707200914934207e-03,1.655587702989578247e-01
-4.005848648688524472e-02,-2.144653978296771624e-01,-3.940045399525136938e-02,1.135915786650278916e-03,2.387245175480033794e-03,8.929258362483231178e-04,1.748036891222000122e-01
-4.003867787413066537e-02,-2.105279537012818558e-01,-4.159952261448712080e-02,-5.419756115556204762e-04,4.699328240410612979e-04,3.775099859409879167e-05,1.697188019752502441e-01
-3.672902098895987344e-02,-1.991231936378655698e-01,-4.682254450613229646e-02,-1.156117468714315533e-02,-1.378436150291091991e-04,-1.697605756457115514e-03,1.588845551013946533e-01
-4.319164069753608781e-02,-2.145503533469140245e-01,-3.529345358407869754e-02,1.247911103100102768e-04,9.213149597519673618e-04,8.805422020207398991e-05,1.754486560821533203e-01
-3.719200713613927956e-02,-2.111167394208870174e-01,-6.022908068022469336e-02,-2.046568445112042361e-02,6.543775080173898058e-04,-6.507405631070932450e-03,1.678054183721542358e-01
-4.283348141907873663e-02,-2.141438160610384389e-01,-3.875632424414689886e-02,1.001840184627920526e-03,1.267056273929884330e-03,-1.608889034461947359e-04,1.734076589345932007e-01
-3.750990428628617201e-02,-2.108194249815410481e-01,-4.339200240631302385e-02,-4.104934255028859654e-04,8.823199259154171532e-04,-3.003134112856556751e-04,1.704537421464920044e-01
-4.078763440792264328e-02,-2.148782758567061857e-01,-3.919350120507860552e-02,7.481694276877774719e-04,8.682048010849806015e-04,4.018248941108853805e-04,1.749058067798614502e-01
-5.015480170075772848e-02,-2.168073840635869054e-01,-4.693904840695677094e-02,-3.077221695553236745e-03,1.865057557100171647e-04,-1.668294390754787105e-03,1.683929860591888428e-01
-5.762641441325243308e-02,-1.408532858618139483e-01,-5.043452036325452026e-02,-2.120889518255307526e-02,-1.135221477596763152e-02,1.871039750891646120e-02,1.018003001809120178e-01
-4.043440978882387876e-02,-2.149450920551909672e-01,-4.070688329860964322e-02,4.593889602743140860e-04,1.303607856475494505e-04,5.437950410607066132e-04,1.743791103363037109e-01
-3.039710805157312679e-02,-1.801702763464201329e-01,-5.169455993935533067e-02,-7.099255871223707388e-03,1.589529669156759415e-03,-6.570014132302166941e-04,1.409108638763427734e-01
-4.005983380260564469e-02,-2.109164424864751475e-01,-3.824501803190752391e-02,-2.951853803785784618e-04,5.170468275651134843e-03,-1.153740838906159704e-03,1.720168739557266235e-01
-3.991036118957987100e-02,-2.155925068130010724e-01,-3.971064888426214384e-02,3.655984171951134356e-04,4.664720799281395756e-04,2.062613774125694949e-04,1.757854521274566650e-01
-3.112789616605795423e-02,-1.913819217505919323e-01,-4.629532146790572844e-02,-2.822151774669710497e-03,3.610545138263377037e-03,-3.633193918205240847e-03,1.535687595605850220e-01
-3.024125168088317300e-02,-1.829177022941702035e-01,-5.009270066764661550e-02,-6.329172048587404162e-03,-3.352388288364659390e-03,-5.393791360774539793e-04,1.443194150924682617e-01
-3.558154285566556690e-02,-1.149783028132185941e-01,-5.051352758077658212e-02,-3.705731536230391643e-02,1.483790263473866227e-03,-8.071904521267396840e-03,9.830088913440704346e-02
-5.581192689744583768e-02,-1.922589741799810015e-01,-3.684682893523281294e-02,4.377496136216664502e-03,-9.323225092427608841e-04,-2.883710495652869535e-02,1.553062647581100464e-01
-4.834303137716830512e-02,-2.085064297929812849e-01,-2.753759652600555607e-02,-1.896559050152769660e-04,-4.892358368272615391e-04,-1.186289558611674155e-03,1.715298742055892944e-01
-4.904791933289606720e-02,-2.084765811237942468e-01,-2.850677204558768607e-02,-1.664845916803103245e-04,-1.050351361464774060e-03,-9.922701816723290477e-04,1.706476807594299316e-01
-4.918762187422273668e-02,-2.083149258545583804e-01,-2.762410766525691397e-02,-3.938323619858368602e-04,-5.769720372669508417e-04,-1.148524432291008271e-03,1.709480881690979004e-01
-4.816262465629615741e-02,-2.071715227763784029e-01,-2.780901991020172381e-02,-5.854177653205010603e-04,-3.045712569924120057e-04,-9.638032461376296479e-04,1.701134741306304932e-01
-4.966586297197909949e-02,-2.007706270723205177e-01,-2.717253723429113865e-02,-2.159085486981274682e-04,-1.572653540669364776e-03,-4.512501864163343673e-03,1.637256741523742676e-01
-4.446747278631225236e-02,-2.122006285820109972e-01,-3.912645752811432648e-02,-3.576642670150454329e-03,6.856172095512608027e-03,-1.080519391685921598e-03,1.710020601749420166e-01
-3.906303892215474277e-02,-2.149099976782426202e-01,-4.457983102494875866e-02,-2.057087128097271483e-03,9.563610825005574656e-04,-2.575922778316601944e-04,1.731996387243270874e-01
-3.436100267590670720e-02,-2.112563658752696916e-01,-4.447971250784991948e-02,2.581857017278777052e-04,1.378128109223906560e-03,3.586719038517355036e-04,1.720775663852691650e-01
-4.323926759510925144e-02,-2.140866243448550366e-01,-3.707139602597788602e-02,4.612056571177483035e-04,1.993972743147894890e-03,2.405276485104494797e-04,1.740498989820480347e-01
-3.967061184461339457e-02,-2.139539538953578179e-01,-4.244056458380690566e-02,3.512302941574594684e-04,2.014714708877337387e-03,1.629976691104104711e-03,1.729743182659149170e-01
-4.177948990218413594e-02,-2.154748924817286304e-01,-3.968963410514609463e-02,4.098084332468553332e-04,2.101857869712202807e-03,6.773787455482112394e-04,1.747930049896240234e-01
-3.908491652417239032e-02,-2.066148832097953747e-01,-3.812644466404916527e-02,-4.381050050480109399e-04,4.133742642553117630e-03,-2.117017329359613918e-03,1.682054251432418823e-01
-3.711890610747194813e-02,-2.137204857477718045e-01,-4.299504212485748961e-02,2.911653649173863694e-04,2.226749077616221699e-03,4.059656909866774291e-04,1.737830191850662231e-01
-4.005801361828065232e-02,-2.129947405898925672e-01,-3.779054362168593473e-02,-1.743276682760331166e-04,3.872036334474792188e-03,-1.821672597538753161e-04,1.742112189531326294e-01
-3.957750502781526292e-02,-2.146287404960551815e-01,-4.006810463041730885e-02,1.417855332155294680e-04,4.080577210294084067e-04,7.217460340319490231e-04,1.748125255107879639e-01
-4.311091386847673568e-02,-2.145000202808508005e-01,-3.883729330743700137e-02,7.945526434324234628e-04,1.088610014145233651e-03,-1.421281785095910525e-04,1.735812574625015259e-01
-4.428408212499956170e-02,-2.230420084737711472e-01,-4.564775369322981308e-02,-7.205449935158195728e-03,2.059666364600536322e-03,-7.562044849526768238e-05,1.785524785518646240e-01
-4.373962194226357209e-02,-2.140414873451896294e-01,-4.452969332242307648e-02,5.372889282886783710e-04,-2.181000621020692711e-04,1.175903161113988314e-03,1.699233800172805786e-01
-4.377625726000188011e-02,-2.145616913406460102e-01,-4.163151799883849091e-02,1.230956651122059112e-03,4.149209703567785902e-04,1.317958503340584207e-03,1.718977242708206177e-01
-3.988734308823303765e-02,-2.155758343119447140e-01,-4.121643760942008544e-02,3.793018311778628845e-04,6.521999482716615056e-04,5.557426928446725637e-05,1.750326305627822876e-01
-4.177043203643265867e-02,-2.157137895658010618e-01,-3.840113286547239269e-02,6.108666639453690095e-05,7.647241153300349563e-04,2.688566401136533151e-04,1.756578832864761353e-01
-4.815300867797238371e-02,-2.419864444932334213e-01,-4.490979308975485973e-02,-2.593138054104018181e-03,1.118407456808430140e-03,-3.439230087015854309e-02,2.044088542461395264e-01
-4.176637292443113186e-02,-2.140649943338994721e-01,-4.136313287244887393e-02,1.211927018179869298e-03,1.172747120680310388e-03,1.282828732950843861e-03,1.725396364927291870e-01
-4.180339162935586828e-02,-2.152280559645401992e-01,-3.919248529071473613e-02,5.841600356420560561e-04,2.278056253163400274e-04,3.628859836691395975e-04,1.747492551803588867e-01
-4.355294235975086525e-02,-2.082257733656859011e-01,-3.807632433933064858e-02,2.854048531531457934e-04,8.554832306184400161e-04,7.610598225249607046e-04,1.674907803535461426e-01
-4.227662288461051660e-02,-2.106376715255811050e-01,-3.804099856953487013e-02,9.893385148659031465e-04,2.093855473715825182e-03,-2.949137690689571187e-04,1.705662608146667480e-01
-4.366284206161130665e-02,-2.138895635141178642e-01,-4.240391729422458844e-02,1.496893152372422413e-03,2.563054222816078137e-04,9.320611406177006222e-04,1.708875298500061035e-01
-4.009616026593198351e-02,-2.151326852257886835e-01,-3.813460981017184614e-02,5.229191615937472254e-04,3.198042514079713159e-03,4.778860460598027392e-04,1.761168986558914185e-01
-4.086629959190750394e-02,-2.150978611646341410e-01,-3.690185717813854877e-02,5.495830510192170355e-04,6.920827871439347821e-04,5.452773747471330009e-04,1.762564033269882202e-01
-3.965834191650035451e-02,-2.095054516420400970e-01,-3.986968700323943043e-02,-9.250949079837862514e-04,-4.279517261739041074e-03,1.472483011292589764e-04,1.699110418558120728e-01
-3.482638418829432647e-02,-2.120014059677204354e-01,-4.323119369593481781e-02,-3.561689321011283355e-03,-3.753375761949918725e-03,-6.660208412433668741e-04,1.733613461256027222e-01
-4.204731136581828232e-02,-2.121106615927292882e-01,-4.197443744382550052e-02,-1.062486517620679465e-03,-2.461548086248598576e-03,-2.886088162592504976e-04,1.701639145612716675e-01
-3.901143401342194866e-02,-2.111695173297038486e-01,-3.847381059059108016e-02,-2.304564653549379376e-04,-1.788184412998089024e-03,8.852184229482469623e-04,1.724626123905181885e-01
-3.245913754827329384e-02,-1.874309410440925250e-01,-4.562837073378880892e-02,-4.806679942827937584e-03,-5.981320816510544980e-03,3.621289273433454781e-04,1.494184136390686035e-01
-3.024215950738749770e-02,-2.084781973068958183e-01,-4.532735047321530264e-02,-3.269347554288395269e-03,-3.336158468133761882e-03,-4.464903369905065609e-05,1.713837385177612305e-01
-3.845897258490017095e-02,-1.761961375643149308e-01,-3.809751823164377049e-02,-3.914120123777069422e-03,7.028800052825544264e-03,-9.452663971650520497e-03,1.395839303731918335e-01
-3.592174725247664069e-02,-1.896776955212678417e-01,-4.179626646735645767e-02,-2.775641042144332861e-03,-7.260962481413564540e-03,3.540934016476075634e-03,1.516280025243759155e-01
-3.362101264763895508e-02,-2.108068364837921704e-01,-4.122763996934610681e-02,-3.167472470784676386e-04,-1.325424018738103910e-03,1.790010407400186476e-04,1.735239326953887939e-01
-4.385518203773017265e-02,-2.137453609150444522e-01,-3.993128722743539277e-02,9.742718724796371179e-04,1.513874291697116020e-03,1.246987741362841741e-03,1.719275712966918945e-01
-4.317129243093099922e-02,-2.133917854379153156e-01,-3.593348343152014818e-02,7.798160145521653699e-04,1.093823157729400565e-03,1.908448602354253913e-04,1.739682406187057495e-01
-3.631564104175016849e-02,-1.968028683695269010e-01,-4.020376862993115669e-02,-2.894840860829280341e-03,-5.983052917627843491e-03,5.412158897099621181e-04,1.589989960193634033e-01
-3.125332261235098941e-02,-2.119943638830533439e-01,-4.656097051638755091e-02,-5.774917183809635118e-03,-3.946874120698344937e-03,-5.932201205647283284e-04,1.740194410085678101e-01
-2.770835316706399265e-02,-2.021148729545600153e-01,-4.928125580627727709e-02,-3.354567427423905002e-03,-1.172158192304532942e-03,7.403880533242173459e-06,1.647982150316238403e-01
-3.423530192497356572e-02,-2.102349317378990889e-01,-4.622713209669764706e-02,-5.310409421320121462e-04,-7.421780168906068819e-04,-4.035058173500761505e-04,1.703293919563293457e-01
-3.644689522953270533e-02,-2.102585550634205880e-01,-4.433912338621936317e-02,-8.192586907576100827e-05,-8.416786669799009978e-04,-4.870497304261523202e-04,1.700114011764526367e-01
-3.264678181275289248e-02,-2.112185561322379446e-01,-4.406573139077193946e-02,-1.993024202285486517e-04,-1.254028994688221894e-03,3.521087221741860227e-04,1.731599718332290649e-01
-4.642547804355166841e-02,-2.094805806534930093e-01,-3.382813782680298142e-02,4.144459235280190264e-04,2.281820940514869486e-03,-5.163800693734630146e-04,1.697546988725662231e-01
-4.605759659988718085e-02,-2.105462391099719444e-01,-3.184811018346274392e-02,2.757756600981985627e-04,6.464379497535504681e-04,-4.333243969329310906e-04,1.720400154590606689e-01
-4.161228061869979428e-02,-2.123067818800237205e-01,-4.376858791970636431e-02,-7.534305966879845324e-04,-2.172885297444000254e-03,-3.081735037635858918e-05,1.696733981370925903e-01
-3.879824223349066792e-02,-2.057137606164367583e-01,-4.529524414821470973e-02,-3.941366200573054659e-03,-7.566494365092563817e-03,1.331458145302695864e-03,1.644452065229415894e-01
-3.223892480320370013e-02,-2.090765612882778679e-01,-4.355358273230312827e-02,4.833727716064102419e-05,-1.267253864937531406e-03,-4.944995301246080804e-04,1.714767366647720337e-01
-4.967158069687778454e-02,-2.087859743976742399e-01,-2.976639624999972977e-02,-3.236433432551138719e-04,1.205777120553083465e-03,-1.465534433916527600e-03,1.699762493371963501e-01
-3.241919362591190457e-02,-2.033612082145579980e-01,-4.455917836182513025e-02,-2.145702423811546387e-03,-4.198838536092619825e-03,1.357698602668241765e-03,1.654253602027893066e-01
-5.071659575849347956e-02,-2.301178090616748384e-01,-4.890644209013282617e-02,1.034528172206423003e-03,9.084024586687888163e-04,4.316665022629007954e-04,1.803304255008697510e-01
-4.840463808690387282e-02,-2.465037236948254273e-01,-4.619303439709275538e-02,8.295827390560523568e-03,-1.947736227773657182e-03,-6.241343612006722968e-03,2.000523954629898071e-01
-4.155482725826204621e-02,-2.167379241020152003e-01,-4.211180147068357971e-02,4.226355347422224712e-02,2.260165451158723839e-03,-1.091616160083690688e-02,1.905867010354995728e-01
-5.752459341385295077e-02,-1.684419123507635008e-01,-3.632844637303148799e-02,-9.958580099864142751e-05,2.711196309507762654e-03,-1.134474028648076432e-03,1.229995563626289368e-01
-3.315477286421007752e-02,-2.065117223615480779e-01,-4.085644746404432093e-02,1.362608227257533500e-03,-3.456536056298123352e-03,-7.995987094694217935e-04,1.697649508714675903e-01
-3.076072107739039052e-02,-2.054722480339351565e-01,-4.274764973592520834e-02,7.822916111755197073e-05,-9.311496924812725584e-04,3.453038352163555875e-04,1.690459251403808594e-01
-5.393813058969953306e-02,-2.215513186079670072e-01,-4.391560826412696517e-02,2.048259002037272625e-02,-3.971922495249867067e-04,-2.429335769371673490e-02,1.813949346542358398e-01
-5.622509870965420459e-02,-2.198094452607569915e-01,-4.376633940593155359e-02,2.597904026236400911e-03,1.998877804606136958e-03,-7.839633042460641271e-03,1.707914769649505615e-01
-5.546094277201159273e-02,-2.208533243964586057e-01,-4.554902472568414518e-02,4.984023436630064322e-03,3.044363359381801679e-03,-1.439267698733941083e-03,1.708823591470718384e-01
-5.379082542298031788e-02,-2.203376019840304068e-01,-4.722170136253602685e-02,1.957039217808305073e-03,3.007098964236364080e-04,-2.194759971603505670e-03,1.700037121772766113e-01
-3.209135719719544144e-02,-2.502411041562146443e-01,-4.381286144742432831e-02,8.217053278346082498e-03,-4.340256253707110677e-03,-7.894443420423443575e-03,2.135783284902572632e-01
-4.372181634049796678e-02,-2.141158449919102202e-01,-3.884320131315462804e-02,1.061872308085694706e-03,2.880995022836367690e-03,-7.326252763030928049e-04,1.729713976383209229e-01
-4.744827028061813362e-02,-2.156880594728013967e-01,-4.987781833015596245e-02,-1.859451127989718896e-03,-7.258631287022121220e-05,-2.195810708679699422e-03,1.671126484870910645e-01
-2.643793269154158521e-02,-2.023435020808340146e-01,-4.727693647462946624e-02,5.768770418706184629e-04,-8.714403329406822038e-04,1.144339404931007367e-04,1.664771884679794312e-01
-4.749059014592205141e-02,-2.146712079161704478e-01,-5.037331482248630365e-02,-2.339428484318390681e-03,-1.075105547552731001e-05,1.129373388226878952e-03,1.658191084861755371e-01
-4.284675406611069409e-02,-2.174522167809805895e-01,-4.491563797143389297e-02,-2.992926675915725653e-04,1.520740884229606227e-03,5.262379954286993582e-04,1.736034154891967773e-01
-3.966186576849842216e-02,-2.120617174515456727e-01,-3.731412944886047800e-02,-6.581983322318737758e-06,-7.122115583309832553e-04,5.823544731220112831e-04,1.735929399728775024e-01
-4.572187386937386772e-02,-2.133948181339683781e-01,-3.861162834792591925e-02,-1.888319878050978562e-03,6.709182638341042518e-03,-1.745390397144232306e-03,1.717901080846786499e-01
-4.260251366987592020e-02,-2.134416800656910307e-01,-3.774360376189849625e-02,6.150798346483899370e-04,1.096200850922021512e-03,7.051356990718174325e-04,1.733376830816268921e-01
-4.221314751780751162e-02,-2.610387687179401839e-01,-4.543986094963291256e-02,9.769005816109930379e-03,8.087328513645410891e-04,-2.446758629642349810e-03,2.179339379072189331e-01
-4.242183067124705859e-02,-2.146047150069900766e-01,-3.801342434662353942e-02,6.499950029681790878e-04,1.238689170618785008e-03,3.414806748974823182e-04,1.744467020034790039e-01
-4.727855771614852820e-02,-1.992680252491119686e-01,-2.563767012384868260e-02,-4.298821950569008902e-05,-2.290168653788601794e-03,-4.035616403369012353e-03,1.640820354223251343e-01
-4.928002120081173554e-02,-2.087660415681724391e-01,-2.753896826796192743e-02,-5.192182849508282343e-04,-6.265057585325226747e-04,-9.857801572898017457e-04,1.714081615209579468e-01
-4.501989005682890260e-02,-2.133192296736999283e-01,-3.469421661399807455e-02,5.433251830652187928e-04,1.429081929841323094e-03,5.210989488076385803e-04,1.737150549888610840e-01
-3.023129519261273310e-02,-9.818968828878091304e-02,-3.864067894832273753e-02,4.786031411035224226e-02,4.074839338876370780e-03,1.793517443694021135e-02,1.095637977123260498e-01
-4.686271351977607663e-02,-2.076519377467047900e-01,-2.632386771453482099e-02,-2.130093825146520939e-04,-2.178714610491181911e-03,-4.550428998729882024e-04,1.720245331525802612e-01
-4.334551066094386590e-02,-2.070582841541712404e-01,-3.504217355863865901e-02,-1.524690225146566429e-05,5.176900156022788344e-03,-4.537445771576156459e-03,1.684409230947494507e-01
-4.340296796714714772e-02,-2.122424522949380998e-01,-4.469403175473377759e-02,1.105886140371461135e-03,2.904471007132058340e-04,1.637938857415821526e-04,1.682095676660537720e-01
-4.560996808147493170e-02,-2.134488402710880695e-01,-3.842312037696132831e-02,4.906219784834417365e-04,2.915771890991712212e-04,8.596246697603354301e-04,1.715545505285263062e-01
-3.552501495420283539e-02,-2.102407016151831565e-01,-4.281390239735714115e-02,1.768659584933176014e-03,-6.656942974727345823e-04,-7.855395561611214173e-04,1.712243556976318359e-01
-4.557471066798234050e-02,-2.105717782871193711e-01,-3.215222826586576488e-02,4.707968058675417481e-04,6.066482982079114857e-04,2.560145975305960666e-04,1.721070408821105957e-01
-2.420445774102122916e-02,-2.042440190665220368e-01,-4.954045839743901475e-02,1.980054876435789583e-03,2.481054380968773353e-04,-1.305798036370603519e-04,1.688391864299774170e-01
-4.662997509678953878e-02,-2.144729256765132708e-01,-3.878018492574886872e-02,7.119244911816476756e-03,6.026832540758141586e-03,1.317804266901291196e-02,1.741620153188705444e-01
-4.778429226703463650e-02,-2.369004110576733435e-01,-4.150179355969850492e-02,6.290889560860513444e-03,3.460698416969143574e-03,2.008210365969463271e-02,1.958494931459426880e-01
-2.445384266030189990e-02,-2.009262307097783862e-01,-4.985883073771653351e-02,3.930843410870218761e-03,6.703313903170278606e-04,1.400559294096911218e-04,1.653856039047241211e-01
-5.039083210233076537e-02,-2.430570266885264952e-01,-4.827369076917925605e-02,-3.258803609339930296e-03,1.564353953229939307e-03,5.114330515934629486e-03,1.940369009971618652e-01
-3.683394504476020237e-02,-2.139333253216457731e-01,-4.882238236706486212e-02,4.453481202702997202e-03,1.036136110765232301e-04,-1.616918391702964943e-03,1.716162711381912231e-01
-4.447664614682117490e-02,-2.104957655522006199e-01,-4.196734405274574198e-02,4.403839382146814731e-03,2.159365562875723357e-03,9.730942829568498334e-03,1.683492809534072876e-01
-4.648888966073250889e-02,-2.402663022429465944e-01,-3.742053296165866183e-02,4.771368806393319964e-03,5.650149273118769064e-03,1.916899423864213206e-02,2.016323059797286987e-01
-4.577884994431898752e-02,-2.155145610879203311e-01,-4.535414809492267080e-02,-2.609514338258863038e-03,-3.266764897539055357e-04,-1.431920439662831470e-03,1.700275838375091553e-01
-2.341368952542087489e-02,-1.982446193033989834e-01,-4.877780075093968160e-02,-1.141879684054425024e-04,2.350960397368588638e-04,1.792558915447026646e-04,1.636308729648590088e-01
-3.984487202998088923e-02,-2.119563045685507463e-01,-4.130913069173788171e-02,-7.079059855269713300e-04,-6.283608896134988686e-04,1.164719513273731094e-04,1.713919490575790405e-01
-5.134307421958715645e-02,-1.529111034248132051e-01,-4.786376721576884874e-02,8.097045857749087666e-03,-7.115577622093979294e-03,-6.856568120628334963e-03,1.056937798857688904e-01
-4.330464442158089844e-02,-2.016750544952830571e-01,-3.580525643598002350e-02,3.022942398148023915e-04,-4.454851354087142543e-03,-7.532549061105795482e-04,1.624395996332168579e-01
-4.594433431362866804e-02,-1.381020738967195238e-01,-4.053229819290500580e-02,2.230031131347932037e-03,-5.912455008285408438e-03,-1.658846881751541158e-02,9.983196854591369629e-02
-4.491172757530120102e-02,-2.095734587666938098e-01,-3.631256392993392756e-02,4.178467459732970388e-03,-6.192577854405273419e-03,-1.072045976762681097e-02,1.706329137086868286e-01
-3.655078629840386589e-02,-2.015170529991885395e-01,-4.587831543474686635e-02,3.006104979757679568e-02,9.514184619373257726e-03,2.402155126153654799e-02,1.745732128620147705e-01
-4.560280176706554139e-02,-2.045929349881815129e-01,-3.325106607083939264e-02,-9.329773552273682067e-06,-5.511876006460729276e-03,-6.324915044322752464e-04,1.657907515764236450e-01
-5.001612304058706410e-02,-1.884642446287732032e-01,-4.140877163862633631e-02,8.778501412629841072e-03,-1.270262535795590488e-02,-2.717862280774144615e-02,1.528559178113937378e-01
-4.339474092082149653e-02,-2.067404852226917278e-01,-3.899222803745903271e-02,1.672936795433989376e-03,-6.672516216138943412e-03,-9.267459587243242342e-03,1.667931824922561646e-01
-4.369397807191538474e-02,-2.113798089736549646e-01,-3.190322855336265306e-02,-4.380113176335698145e-04,-1.151838449313450675e-03,-9.646090493002879799e-04,1.739024072885513306e-01
-4.017475242273680497e-02,-2.101259767024334368e-01,-3.586323676106240727e-02,2.248131649890232342e-04,-8.068452603084898690e-04,-6.227628720692356297e-04,1.721569746732711792e-01
-3.685534146765562930e-02,-2.116948683539968123e-01,-3.564891552942969777e-02,-5.134192458083971405e-05,-1.092778974713652001e-03,4.251558488387608819e-05,1.754560917615890503e-01
-4.012554071113884346e-02,-1.945305371924143933e-01,-4.125897927838231838e-02,5.307273886279049654e-04,-6.243505060912355777e-03,-2.966096990991966970e-04,1.542246192693710327e-01
-4.761955813142909610e-02,-1.746326685481839058e-01,-3.181418250535860553e-02,-5.571496985124758244e-03,-5.090013975245421748e-03,-2.253380728858664361e-02,1.417173147201538086e-01
-4.549023718428432672e-02,-1.315719323029209131e-01,-4.264868335079856354e-02,1.262684391982910916e-02,-8.079777740216866760e-03,-1.000968126917930329e-02,9.293804317712783813e-02
-5.200960898518863784e-02,-2.336086231241027156e-01,-5.212929250735264669e-02,-3.240722566900293769e-03,2.370899916770389734e-03,6.524736609680040558e-04,1.816758960485458374e-01
-4.811991819117607261e-02,-2.120312997174635394e-01,-4.834953038858387508e-02,1.140708991863745693e-03,7.809175346501798188e-04,-7.139712620292002973e-04,1.638188660144805908e-01
-3.313853317871438831e-02,-2.091260086923119599e-01,-3.742211251594913107e-02,7.629435474993688971e-05,-2.251852126030485460e-03,1.491818803334483577e-04,1.739292442798614502e-01
-3.628951580017202028e-02,-2.102509342680771443e-01,-3.932923559864302809e-02,4.377775833305477446e-04,-1.123948364282007168e-03,5.313227227757731305e-04,1.724767535924911499e-01
-3.327076064791101989e-02,-1.979220660331476034e-01,-5.149708158912854467e-02,7.357533361197974610e-03,-4.318936462364670638e-03,-3.122564823807104980e-03,1.571269333362579346e-01
-4.847849103951627769e-02,-2.139381122443543282e-01,-5.076969150354933985e-02,-4.093340476292328819e-04,1.938189825830435821e-03,1.777819978555189822e-04,1.643621027469635010e-01
-5.538474348272926645e-02,-2.143739576441905659e-01,-4.651230772860996676e-02,-9.291690041907441945e-04,9.502093056715232855e-04,-1.413658577756438757e-04,1.636223345994949341e-01
-4.732925907403792015e-02,-2.110153535620729603e-01,-4.805162068139568615e-02,-8.001998039270799903e-04,6.504972061403317359e-05,6.455270196332779827e-04,1.633358597755432129e-01
-2.589039682855785729e-02,-1.991897981289701414e-01,-5.064640745888792511e-02,9.079448886166325270e-05,1.730304075293008373e-03,4.712160195688525565e-05,1.623710393905639648e-01
-4.298619603024381175e-02,-2.146828500321942834e-01,-3.842979167140542218e-02,1.424415394651043455e-03,2.224525762432878750e-03,-2.735243153419480077e-04,1.740803718566894531e-01
-4.903926538428800275e-02,-2.110231182876800282e-01,-4.809930338796888916e-02,-5.612915441632862867e-06,1.284522086191860254e-03,-2.690064955927160819e-04,1.624717712402343750e-01
-4.785947336477627823e-02,-2.152198625472113713e-01,-5.206315056882488551e-02,-8.236062776990499008e-04,3.063665227474560594e-03,1.305566583515333466e-03,1.654054075479507446e-01
-3.898428316162061424e-02,-2.150909671519627142e-01,-4.158340150738610436e-02,-3.120428585770866018e-05,5.346071494714071341e-04,3.393537662620306353e-04,1.748250573873519897e-01
-3.733903782994429238e-02,-2.098397808057401726e-01,-4.316378030788847742e-02,-3.401088423472497764e-04,-1.479996041933272092e-03,7.358429672785615891e-05,1.696838140487670898e-01
-3.501546926919225228e-02,-2.117476250983132413e-01,-4.316262898216544769e-02,-6.191274876074911917e-04,-1.438299194893340486e-03,-1.243918300269690946e-04,1.728240996599197388e-01
-3.751053191907328943e-02,-2.118933538859280596e-01,-3.745255737201159257e-02,-3.280245396902231776e-04,-8.014070443983784941e-04,1.552261516096274207e-04,1.744184792041778564e-01
-3.397735786472888542e-02,-2.152116039491556720e-01,-4.565583865796688651e-02,-3.478223065964847639e-03,-5.056539725014529835e-03,1.445792078109906127e-03,1.760254800319671631e-01
-3.593871942353051713e-02,-2.118875654858065616e-01,-3.899466387719265764e-02,2.837712702273749183e-05,-9.913455096711505828e-04,-1.846504351449931879e-04,1.744496971368789673e-01
-3.536137317982335215e-02,-2.109773628479224561e-01,-4.026483544854640023e-02,2.289975661262867355e-04,-8.621541726770235716e-04,-4.486789387634609449e-04,1.732249557971954346e-01
-3.786500038367407450e-02,-2.150827022579699932e-01,-4.013891282942207844e-02,5.225115802795939329e-04,3.119155705987684737e-03,4.781761100414018504e-04,1.761788874864578247e-01
-4.207670702318587475e-02,-1.727752589325821653e-01,-4.746689286004150687e-02,-3.821509608638763711e-02,-7.431639803753491797e-04,1.166348390973366220e-02,1.455940455198287964e-01
-4.245387249405129654e-02,-2.117135150588480563e-01,-3.421806595971184362e-02,2.909918820737723605e-04,3.998281647756006182e-03,3.905621701193845137e-04,1.736643761396408081e-01
-3.336430853791683138e-02,-2.099460503461594296e-01,-4.107146703915142555e-02,4.212383726350870338e-05,-1.884350833451766934e-03,-3.649865342679465391e-04,1.728890538215637207e-01
-4.568643192889316335e-02,-2.078529315100816344e-01,-3.296028637386673454e-02,-1.540469948543079625e-03,-4.005907025236775734e-03,1.149033836651863066e-03,1.690647900104522705e-01
-4.635937313451030106e-02,-2.158446815795235785e-01,-4.974982526745853201e-02,-1.181764104352289908e-03,4.460984509466837727e-04,-2.183619732267052041e-03,1.678726375102996826e-01
-4.460007044841087648e-02,-2.139278482781211133e-01,-3.449475612103605759e-02,-8.906370798807683453e-04,5.042158122952482974e-03,-4.663695346290604518e-03,1.750115007162094116e-01
-4.344336863480353916e-02,-2.134772444403254255e-01,-3.772750998105404291e-02,1.420732128803410500e-03,1.388191344996889812e-05,-6.595251481755669753e-04,1.729839295148849487e-01
-3.421418805915526357e-02,-2.063441726879398086e-01,-4.765775106070017225e-02,2.999522123446939970e-04,5.486498215121528473e-03,1.001938529432478179e-04,1.660904139280319214e-01
-5.113895056889887492e-02,-1.917928345323625661e-01,-3.837294424114200825e-02,-1.700902799831566876e-04,6.522767066994187603e-03,-2.524957571123540262e-04,1.478850692510604858e-01
-4.571417632736424208e-02,-2.038728117594023892e-01,-2.831912905374604772e-02,-1.176365810270105314e-03,-2.533489456199861187e-03,2.448345525788231739e-03,1.676583141088485718e-01
-4.009564285693292124e-02,-2.052493818705576345e-01,-3.318257818977055074e-02,-3.992088351491878870e-04,-2.404414246233225333e-03,1.814810458814950043e-03,1.687986105680465698e-01
-4.605544411790830905e-02,-1.906702490436291697e-01,-3.822094271818956418e-02,2.254101894030051325e-05,4.718359280978986700e-03,-2.219572453924799934e-04,1.489118635654449463e-01
-3.923863940589065319e-02,-2.104322225909647792e-01,-3.410651029940053869e-02,-1.180691573079482512e-03,-2.023495101694454661e-03,3.678051878927281432e-04,1.738650053739547729e-01
-4.878493968938790726e-02,-2.019159643391205128e-01,-3.030855442958002577e-02,-8.243077585993078627e-04,2.923551586899775017e-04,-6.562728347832081158e-04,1.631667315959930420e-01
-4.282012138067609747e-02,-2.044168180703736515e-01,-3.258411015914881859e-02,-4.303131420922855135e-04,-3.088887496866409791e-03,8.221175797846071815e-04,1.670436561107635498e-01
-4.417280463149148018e-02,-1.994430200633472428e-01,-3.198549690553706415e-02,-1.589944037551954421e-03,-3.979223525179774283e-03,1.697927843469024126e-03,1.619056314229965210e-01
-4.474777709691891286e-02,-1.967597682657714064e-01,-3.219279526408869163e-02,-5.370307741257194893e-03,-7.106044009756362981e-03,6.783602166403827037e-03,1.598431766033172607e-01
-4.374401493689299147e-02,-1.935101749038077301e-01,-3.571618869870848978e-02,-9.573042154081374752e-04,-5.766322661140923199e-03,3.019296549643115182e-03,1.543583273887634277e-01
-4.525227805925406688e-02,-2.122163784717307766e-01,-4.337075534215638350e-02,-1.108941012271180606e-03,-3.614554024550275298e-04,4.648822698691837071e-04,1.679268479347229004e-01
-4.602809959200532958e-02,-1.813590204015232688e-01,-3.044055693544657493e-02,6.163832438326491371e-04,-4.648311061321795321e-03,-1.090899528707147932e-03,1.440015137195587158e-01
-4.101028713672247306e-02,-2.124198745432434865e-01,-3.659427919699183296e-02,-4.150006701611802431e-04,-8.649334355195240033e-04,-4.304486646144676230e-04,1.736692637205123901e-01
-5.179991727120269313e-02,-2.275669383303323690e-01,-5.209598040707907191e-02,1.569608623170706992e-03,2.954712885210898470e-03,-1.837055905777501595e-03,1.757435649633407593e-01
-2.472356156306743102e-02,-2.024478387045218208e-01,-4.944624227304536546e-02,2.876363031618281831e-04,-3.934734884358220938e-04,-4.415437232870949007e-04,1.667471379041671753e-01
-4.731217399989111339e-02,-2.133783332707697433e-01,-4.660152416221526039e-02,-1.561513750114053170e-03,1.129588095030769875e-03,1.488796781066181263e-03,1.664760708808898926e-01
-4.486026992028419036e-02,-1.673304341938947615e-01,-4.933975873190626915e-02,2.034752262428296890e-02,-9.098342366906337492e-03,-1.447244173715320388e-02,1.287989169359207153e-01
-4.898875153290671580e-02,-2.108211240768457229e-01,-4.860451487974523643e-02,1.188224362359728635e-04,1.001605689842327822e-03,1.299389820708622017e-04,1.620344072580337524e-01
-4.662446138039398613e-02,-2.128637606867242182e-01,-4.495231966421019132e-02,-8.221800722098671467e-04,4.574991253841676126e-04,-4.021650308993825087e-04,1.670910418033599854e-01
-4.670465367015927405e-02,-2.122949870411774964e-01,-4.653832545648149688e-02,-6.027205270452571035e-04,8.928470937041046952e-05,-1.008730962941826754e-03,1.656861305236816406e-01
-4.638347811243822422e-02,-2.155553473422395783e-01,-4.758132542376529439e-02,4.971625124458869342e-04,8.074280494834556446e-04,-4.194688363722647289e-04,1.685857027769088745e-01
-4.907824696528247099e-02,-2.097420924932338893e-01,-4.937843499632717237e-02,-4.342838127620492748e-04,1.488955193572974846e-03,-1.656576075091553300e-04,1.605366915464401245e-01
-4.741440573961074739e-02,-2.126178837965528312e-01,-4.566417193798638641e-02,-9.050551013410141265e-04,2.781868403876959928e-04,1.436574895413134079e-04,1.660937964916229248e-01
-4.971176522870962566e-02,-2.117813576030981026e-01,-4.437701082658995766e-02,-6.273442539327812179e-04,-3.333076626959050135e-04,3.433123306417167194e-04,1.648074090480804443e-01
-2.465467882313797376e-02,-2.052045912342084777e-01,-4.938504836422288879e-02,2.599383393414393326e-03,6.218591048673608856e-04,-3.770665087524329340e-04,1.696073561906814575e-01
-4.518203000627600552e-02,-2.104721771255682050e-01,-4.532365959818365070e-02,2.132928082616500365e-04,6.839273428552856927e-04,3.353693048354562689e-05,1.652240455150604248e-01
-3.981193626489154536e-02,-2.106482136792278692e-01,-3.860564920923634930e-02,-9.092555745216678508e-05,-2.687836223640975835e-03,-8.178335324462307292e-05,1.715059280395507812e-01
-5.096236599946485368e-02,-2.509127388556406935e-01,-4.515417554556269697e-02,1.534745243179700238e-04,-2.379432482015600078e-03,-1.973291976484952207e-03,2.029876261949539185e-01
-2.622545157822463863e-02,-1.781494980963628516e-01,-4.963649419394233764e-02,6.734701339846288319e-03,3.656396916410803704e-03,3.026123767287575194e-04,1.422980725765228271e-01
-2.401163427037726616e-02,-2.048649596941386208e-01,-4.854559220014258158e-02,2.069620510594093795e-03,3.472834298395338550e-04,-4.855402331294605771e-04,1.699609160423278809e-01
-4.769558178789409103e-02,-2.213905242460460498e-01,-4.783994672109541380e-02,-7.512243206740847144e-04,-7.324703931243509289e-04,1.482781068092191030e-03,1.736513078212738037e-01
-3.684402769473743566e-02,-2.329390928529989635e-01,-4.146296415767949245e-02,-2.492643854182746699e-02,4.539308814233233499e-03,-1.107042952006261592e-02,1.996555030345916748e-01
-3.412663243554223125e-02,-1.676976578392865846e-01,-5.067921533138094320e-02,1.990859717233257799e-03,-4.950284264357479591e-03,-7.388626921718239140e-05,1.264503300189971924e-01
-5.290491502518923639e-02,-2.684149596276285132e-01,-5.217668157844114474e-02,-8.560908093651477951e-03,-1.223721143953184105e-03,-2.119673108061804600e-03,2.164252549409866333e-01
-3.929783537124323378e-02,-1.158018098087791325e-01,-3.820179645260641382e-02,-9.379487530158683167e-03,1.718289640241026225e-03,4.705046864575197080e-02,1.133663654327392578e-01
-5.192730358779173994e-02,-2.108845296823412263e-01,-4.664164039825564184e-02,4.213573285402576326e-04,-8.977327810913317404e-04,2.222892810031611415e-04,1.616744548082351685e-01
-3.124614550559713655e-02,-2.024217065687132777e-01,-4.932024707815865772e-02,-4.120915705930992541e-04,3.907912675501640232e-03,-2.090231921976976655e-03,1.630746275186538696e-01
-5.739941826227024091e-02,-2.652494185625188794e-01,-4.540056323756537504e-02,-5.482908755348282065e-02,1.855244893373201405e-03,-2.334288483745349668e-03,2.342752963304519653e-01
-5.057524714659390741e-02,-3.230678234603947541e-01,-4.262593859291642640e-02,-2.509168566672213482e-02,1.030805894794446613e-02,3.511996555478295173e-03,2.805816531181335449e-01
-4.167055900099254917e-02,-1.559615127369218257e-01,-4.761066674086952139e-02,-1.529281780164282352e-02,4.699198201353027050e-03,-9.177262914114900361e-03,1.159281283617019653e-01
-4.525950623768652120e-02,-2.153195218907893449e-01,-4.844290478565289881e-02,1.357171393563506769e-03,-9.050051001559968446e-04,1.051472608936443931e-03,1.685243993997573853e-01
-3.359353690987726404e-02,-2.112340733156070627e-01,-4.637883103684939390e-02,3.481784194897054904e-04,2.673342961197539523e-03,4.478911013436687118e-04,1.716707348823547363e-01
-3.330986628317866849e-02,-2.127886638198451252e-01,-4.256106913211644971e-02,6.258457484976127222e-04,7.544966061185114006e-04,4.291002964870293396e-04,1.750464588403701782e-01
-5.887172439339519864e-02,-2.272469275659819432e-01,-5.154970831151942795e-02,3.575601158100773225e-03,-4.615089864156341273e-03,5.225019669076938836e-03,1.726870685815811157e-01
-2.990835567800667616e-02,-2.379303531892980605e-01,-3.020792368330739441e-02,-2.401505210637500023e-03,1.012080751516592977e-02,-4.165793796459921552e-03,2.087763845920562744e-01
-3.406613631787304419e-02,-2.084244366714196328e-01,-4.299723470578933893e-02,5.390478715374557098e-03,3.709173628307630387e-03,8.584763603250790713e-04,1.704524159431457520e-01
-5.148553839731014742e-02,-2.150890437726488136e-01,-4.634403494832961545e-02,-2.257723957884812810e-03,-2.328786239797716359e-04,5.086758451900387154e-04,1.662827134132385254e-01
-3.018694886073265693e-02,-1.716723864909984187e-01,-5.080493110708721172e-02,2.936798726755792885e-02,8.494405377138761204e-03,7.889595369797138338e-03,1.432366073131561279e-01
-3.765603440565239157e-02,-2.145216017975497547e-01,-4.358054353485563831e-02,-2.206280278586060495e-04,7.378734989588436443e-04,1.192175119143195272e-03,1.739963442087173462e-01
-3.088512879266930300e-02,-1.961070842498219280e-01,-5.380447069670554749e-02,-1.162675314178230040e-03,3.012839416190037523e-03,-6.792874089853087171e-04,1.551434248685836792e-01
-2.883875014772428746e-02,-2.101185212402486013e-01,-4.711370772492085024e-02,-2.667319015861442828e-03,5.326308192317664916e-04,-1.795897748628805723e-03,1.729604601860046387e-01
-4.351224503632217244e-02,-2.119510531613347515e-01,-4.267051864993878091e-02,-9.471274871967882026e-04,-5.475705900335828144e-05,-3.370075190404494083e-04,1.688702553510665894e-01
-4.061217942123139524e-02,-2.107256962535606071e-01,-4.158416248603485216e-02,-1.376197255766029351e-04,3.812626805121885343e-04,2.540517043249641664e-04,1.696316301822662354e-01
-4.019553873873469435e-02,-2.099682158648454589e-01,-3.932419684794961207e-02,-2.770105975979336005e-04,4.919190425851958448e-04,-6.248320183727398228e-04,1.702162772417068481e-01
-4.092002441111473182e-02,-1.972910787080091044e-01,-2.879989078791519996e-02,1.713318391947051553e-03,4.066366602837486605e-03,4.963587464593667564e-03,1.631758809089660645e-01
-3.862332345740428913e-02,-2.035243545875907722e-01,-4.081233583822011651e-02,7.523772293373217398e-04,6.993100470568185470e-03,6.617180385388928303e-04,1.642738431692123413e-01
-3.829605969434115437e-02,-2.051235891402936606e-01,-3.359426705508254674e-02,2.581429014509447565e-03,1.531536622344558925e-03,3.754386193921430094e-04,1.693085134029388428e-01
-4.988128821555953135e-02,-2.082272943820466238e-01,-3.069856904236957507e-02,-4.583388428576390652e-06,1.844948221924841035e-03,8.079476155759154448e-07,1.687873005867004395e-01
-4.004050508887745802e-02,-2.093684875140000012e-01,-3.579271594584067934e-02,1.202939179913424094e-03,2.528482788421568782e-03,2.195477422372132427e-03,1.716020405292510986e-01
-4.766542733958743783e-02,-1.833359864335946665e-01,-3.808559151851534375e-02,1.650002581596568725e-04,-6.925044010475028822e-03,-2.512954478601002548e-03,1.412829458713531494e-01
-3.859652749934994187e-02,-2.078018323574648551e-01,-3.897431853050812439e-02,2.640912119713814633e-04,1.278743051059144480e-03,6.785533835315249321e-04,1.690359413623809814e-01
-5.415055353478617772e-02,-1.607766087827424140e-01,-4.198953054330353818e-02,-9.878777134245772529e-03,1.795341715759479241e-03,-1.482197047200230731e-02,1.173678040504455566e-01
-3.604191691135266717e-02,-1.997995892908003834e-01,-3.746595588436185675e-02,6.385461146909549024e-03,7.723837577055497026e-03,5.130221733720552110e-03,1.642122417688369751e-01
-2.615531644675908596e-02,-2.013040337011786640e-01,-4.484656726155537843e-02,7.686141642022808248e-04,1.100511236958206076e-03,1.118151472104038976e-03,1.666188538074493408e-01
-3.626153735825458913e-02,-2.093381100662379812e-01,-3.490176546238102362e-02,1.618779490021034586e-04,1.120021254595711391e-03,1.457800906968443797e-04,1.737716943025588989e-01
-4.783643820717731199e-02,-1.837519107982144850e-01,-3.989118523173720149e-02,2.058976808238846253e-04,-6.253494509090336793e-03,-2.097473597021940438e-03,1.405228376388549805e-01
-4.605569831255727081e-02,-2.157849328878853057e-01,-5.718764740244609845e-02,6.749278248344191614e-04,-2.479013345053662255e-03,1.279189066253866563e-03,1.645212024450302124e-01
-3.711785055241010461e-02,-2.103025924132608249e-01,-3.858265386819346304e-02,2.150594457873475764e-04,4.972048459365519327e-04,3.751228646811033884e-04,1.724607795476913452e-01
-2.604185094011832180e-02,-2.049907673976013589e-01,-4.711501610501576953e-02,2.221275545481631204e-03,-1.818497439420289788e-04,-8.783888217315111982e-04,1.694490760564804077e-01
-3.171320929435182678e-02,-2.091957316645900178e-01,-4.732055726592381689e-02,-1.167015940751477783e-03,2.377246040886129945e-03,-5.778334500427200317e-04,1.702810823917388916e-01
-3.857424440738386334e-02,-1.939697361987897661e-01,-4.020080287924359536e-02,6.724950909910139361e-04,-7.133280433494164699e-03,-3.771587118806767991e-04,1.550873219966888428e-01
-4.645251054768407412e-02,-2.109641650534762602e-01,-4.321111258615269179e-02,-2.051310817265233335e-04,-2.756016270831240268e-04,8.519623474041317741e-04,1.661636829376220703e-01
-2.916936066581775344e-02,-2.064984901932236105e-01,-4.830052979258948886e-02,-2.710168283465499550e-03,1.901197735178453791e-03,-1.393392711952917869e-03,1.686944365501403809e-01
-3.081234180247713339e-02,-2.128632338832613935e-01,-4.990613757603548639e-02,-7.601834295219992571e-03,9.966891181949239387e-04,-1.512759732592179216e-03,1.738225221633911133e-01
-4.695144545628132660e-02,-2.116651033553302863e-01,-4.595655725752510745e-02,1.822739497370510966e-05,1.417797503046056896e-04,2.518798177828913097e-04,1.652141064405441284e-01
-2.819334784437001196e-02,-2.077571837567538937e-01,-4.852539916402716369e-02,-3.501094298570916422e-03,1.078752208845901173e-03,-8.171080725407525768e-04,1.704345345497131348e-01
-3.450482048473579172e-02,-2.095704493166843929e-01,-4.512133768496041919e-02,-5.265445597304197747e-04,1.824970851234085801e-03,-5.298442920210252177e-04,1.700404733419418335e-01
-2.879836119980241915e-02,-2.047172985284901880e-01,-4.212312836968248875e-02,1.679303201660604927e-04,-2.674558769306677013e-03,1.637579227903094951e-04,1.697131991386413574e-01
-3.697242468822207334e-02,-2.100587129400092734e-01,-4.552527975233112284e-02,-5.511302753585731184e-04,5.204593794745812326e-04,-2.374318196411432844e-04,1.689778864383697510e-01
-2.937830564372451159e-02,-2.092152131480811139e-01,-4.950430585101289749e-02,-2.141478717256040901e-04,-4.436780919634907469e-06,-1.885248303713298827e-04,1.706669777631759644e-01
-4.955808672428055339e-02,-1.345530668874277136e-01,-4.791862138366741880e-02,3.092773744655112796e-03,-7.157162279440700079e-04,-5.686323117337217792e-02,1.307543218135833740e-01
-4.699975921925840516e-02,-2.111919327115334699e-01,-4.683329951197821167e-02,-1.691295908694969525e-04,-4.768167076816586317e-04,-3.672978009293551092e-04,1.642790287733078003e-01
-4.095185349304106270e-02,-2.107273652576947542e-01,-4.871834615508788963e-02,-6.216771587696145497e-03,4.657812628989718706e-03,-6.982068771472828023e-04,1.665772348642349243e-01
-3.640565898121649047e-02,-2.144295728974251192e-01,-4.655173182840408735e-02,-5.829143578916411508e-03,-3.093584344825780260e-03,-3.621029217250971554e-03,1.736640334129333496e-01
-3.257267282154190785e-02,-2.040180335786980770e-01,-4.143288810539939165e-02,1.994536588548188362e-03,-3.562624665475406897e-03,-1.479684029180830702e-03,1.673605442047119141e-01
-2.580740925254117191e-02,-2.026398184454731854e-01,-4.924919160655731598e-02,6.488448278536239604e-04,-8.577848013372311618e-04,1.241311851153652308e-05,1.663653254508972168e-01
-5.067440115264844336e-02,-2.012598174647665106e-01,-2.578669822794341093e-02,9.727349134887350139e-04,2.203493763755803771e-03,3.189275362791196052e-03,1.645934730768203735e-01
-4.725253751577987438e-02,-2.037823192256472127e-01,-2.798100546693918500e-02,1.081969063464313782e-03,1.044261923785958640e-03,1.264449377896716045e-03,1.670362651348114014e-01
-4.448149352496853781e-02,-1.650140116838877957e-01,-2.652742715333587797e-02,7.377750901805963865e-03,5.510150688991312037e-03,2.716443570726646134e-02,1.395800262689590454e-01
-4.479917932629516597e-02,-3.213301020415486597e-01,-4.440620906361264497e-02,2.437788808673127181e-02,1.199971424792418105e-02,-4.381604830174658932e-03,2.808034718036651611e-01
-4.966440203208050824e-02,-2.220443168753740981e-01,-5.194042874221815181e-02,1.711604325213003479e-03,-2.433294199659439064e-03,1.303697657817431748e-03,1.713456213474273682e-01
-4.647745793025427619e-02,-2.442702639861995539e-01,-5.212524092331907027e-02,-7.021358383467774140e-04,-2.500058381323503470e-03,6.850798136765562320e-05,1.950821429491043091e-01
-2.951146570674742509e-02,-2.094693271213790564e-01,-5.040139496157268473e-02,1.431008621706918366e-04,1.705005482682034421e-03,-6.047030530409333538e-05,1.705013364553451538e-01
-4.792232992129000224e-02,-2.103639948381418323e-01,-4.939758555859581624e-02,4.442789344414267878e-04,8.075968352777119575e-04,4.669433187050481564e-05,1.617169827222824097e-01
-5.337963891850210779e-02,-2.187000071574419224e-01,-4.885058437204797821e-02,-3.144620783255449420e-04,6.344072388644099621e-03,-6.239943819925186739e-04,1.679949015378952026e-01
-3.162708758368215634e-02,-2.107860185803264730e-01,-4.527169533110386723e-02,-1.515551865376456872e-03,3.462215081729785957e-03,-8.723420152490814206e-04,1.728718578815460205e-01
-5.441284177947786765e-02,-2.422227279760911234e-01,-4.793459239428093932e-02,-3.396296061028744161e-03,-9.259847485963007552e-04,-4.359932465915664079e-03,1.913776546716690063e-01
-4.062345594486338474e-02,-2.119489892738973813e-01,-3.694601367597832170e-02,-9.653922202721135128e-04,-9.948143866605537334e-04,-1.632109480798738898e-04,1.732104122638702393e-01
-2.758223457015550328e-02,-2.089899836417911105e-01,-4.721360905710651756e-02,-1.001066396240090544e-03,3.763959675558925196e-04,-9.326700703983331316e-04,1.724497675895690918e-01
-4.824138943593059975e-02,-2.109926094611358494e-01,-5.064706276505744759e-02,5.971373836790672216e-04,2.034283660730486286e-04,-1.714019277944476682e-04,1.615657806396484375e-01
-4.121382010986596178e-02,-2.120666073759787384e-01,-4.104602336496602361e-02,3.455904461796290537e-04,-7.016449333988262951e-04,2.954609842898797386e-04,1.709428876638412476e-01
-4.562497715110751251e-02,-2.150237921549071063e-01,-5.090092076886501560e-02,-4.373719111491018437e-04,8.082425939190760605e-04,7.043487924150030124e-04,1.668354868888854980e-01
-4.754849229537257832e-02,-2.157748332806118385e-01,-5.016991495547110103e-02,-1.604537387200588930e-03,1.953035387537693009e-03,3.538918057915097035e-03,1.671009212732315063e-01
-3.763633014906073160e-02,-2.142965803982247175e-01,-4.369435219863079117e-02,-2.712967534463886932e-04,7.043711112523000925e-04,1.156209804477081578e-03,1.737269461154937744e-01
-5.047571743946295542e-02,-2.108898074426084901e-01,-4.812346272718548423e-02,6.599743528837249745e-04,-1.380927980967031239e-03,7.553306573608853641e-04,1.616300940513610840e-01
-3.335627956301499830e-02,-5.582244824101940950e-02,-3.796844293237435636e-02,2.895971827991977374e-02,-1.906595353283248003e-03,-1.773567671158371786e-02,6.239348649978637695e-02
-4.156775779290809714e-02,-1.325930416422964886e-01,-5.741858211573004633e-02,2.655493475927577993e-02,-2.507525759860592882e-03,-1.657913648315048139e-03,9.610737860202789307e-02
-4.605318926268245350e-02,-2.160018047076401326e-01,-4.786712912167699618e-02,1.976981006373238793e-03,-4.066455421084219212e-04,3.440389805302146008e-04,1.690861433744430542e-01
-5.635567908381079044e-02,-2.433078388723796115e-01,-4.931713669896052588e-02,-1.652828922520404101e-03,-1.275181271455410898e-03,-1.280919756034194605e-03,1.906161606311798096e-01
-4.596094855211293323e-02,-2.122343580590503875e-01,-4.728729594150066218e-02,-4.830410663411301522e-04,-3.556116571490263107e-04,-4.975661541043088082e-04,1.656197160482406616e-01
-4.993689991669109096e-02,-2.137774960224516074e-01,-4.675998899477969151e-02,-8.474208234225217781e-04,-3.848565536675178553e-04,-1.388336355559214447e-03,1.654772609472274780e-01
-4.995447334552594043e-02,-2.145131821198217881e-01,-4.518999968072353463e-02,-6.188865047991869584e-04,-3.691594351643877944e-04,1.617083133507724252e-03,1.670200824737548828e-01
-4.367907888625208873e-02,-2.107601687073533681e-01,-4.225330348962265392e-02,2.538293378958139342e-04,1.258498677245117880e-03,9.412415182476494349e-04,1.678211688995361328e-01
-5.017740205252924079e-02,-2.217483936765907160e-01,-4.820975227343073100e-02,-9.718153799079048364e-04,-8.854934631345570727e-04,1.561692950005132228e-03,1.725994497537612915e-01
-4.186875909157258824e-02,-2.462688599575556525e-01,-3.439273393329633777e-02,-7.483300621591460616e-04,4.594798224804429176e-03,-2.989936324515315557e-03,2.084591835737228394e-01
-5.101369096804277137e-02,-2.018680022697406096e-01,-2.781734908730970623e-02,-2.218180856818139485e-04,8.074318985951784659e-04,-4.192442178955956174e-03,1.638572365045547485e-01
-4.838112176166878275e-02,-2.373442188548229859e-01,-5.355336483249477364e-02,3.705780165134626557e-03,-1.921950521561468454e-03,8.505388152103686861e-04,1.865767687559127808e-01
-3.238146854048984391e-02,-1.902612489719970046e-01,-4.539652924100655296e-02,1.856973361601940709e-02,-4.926664772804986540e-04,-8.567020143419865671e-04,1.551709920167922974e-01
-3.632179601213735010e-02,-2.328545167140014804e-01,-5.129169605307122570e-02,1.918637434998416227e-02,-5.983762071855931904e-04,-6.933879778357674752e-03,1.927609741687774658e-01
-3.029288794303770793e-02,-2.085302102352826203e-01,-4.802429214635413335e-02,1.570177527573183435e-02,5.630096327589604113e-04,-3.276050803844519563e-03,1.723233461380004883e-01
-3.353803543190990444e-02,-2.083175263446824521e-01,-5.006112328255762911e-02,1.439746088548770958e-03,3.101341009617346279e-04,3.379185276484053145e-04,1.671521365642547607e-01
-4.586687389330370429e-02,-1.604380789998093304e-01,-5.127154688941107374e-02,2.654307917004612716e-03,-6.591529926381153696e-03,-1.265216213847800576e-03,1.126624792814254761e-01
-5.928440068456312939e-02,-1.392891273103233629e-01,-5.031840902942345123e-02,-1.905761249807171216e-03,2.426954558044369117e-05,-1.761666956353615931e-03,8.496278524398803711e-02
-3.905402236410118050e-02,-1.722168632968353874e-01,-4.900988476666564425e-02,1.039811458104313371e-02,-6.069285568933484309e-03,-4.280939325841828444e-03,1.303670257329940796e-01
-3.819543057337923542e-02,-2.144491902188557231e-01,-4.952306977921926145e-02,6.022418446040467450e-03,1.214165873027115133e-03,-2.243887430418951313e-03,1.712469011545181274e-01
-4.379965340783989469e-02,-2.177568467609836689e-01,-4.899733806880311043e-02,3.056051400016382381e-04,3.815057246734225344e-05,-5.033522935776384242e-04,1.714205145835876465e-01
-4.219724943735553985e-02,-2.202093937272373292e-01,-4.528401342173939137e-02,1.324564572810006148e-02,-3.395559513492846801e-04,2.013071724892682459e-04,1.779752224683761597e-01
-3.696593177987123752e-02,-1.828471527136870944e-01,-4.251120435157600130e-02,1.151094983415319739e-03,-7.730115018826952226e-03,-4.887512871669590780e-03,1.440764814615249634e-01
-4.388124044568268711e-02,-1.421098709889531686e-01,-5.949831779412555893e-02,2.465324973377464035e-02,-6.321802418811758341e-03,-1.641260834167023244e-02,1.054043546319007874e-01
-4.403795433791484609e-02,-2.210164788058311958e-01,-4.533578280312884623e-02,-6.135467376173910732e-04,-3.684043876983916928e-04,1.441661098566337932e-03,1.763552278280258179e-01
-4.724463824699240422e-02,-2.177518014076267328e-01,-4.697898250687727872e-02,1.660933848397433540e-03,-5.604242232921585395e-04,-8.079321547422989303e-03,1.712398976087570190e-01
-2.841270346078866860e-02,-1.961057113277174246e-01,-5.052577263976051891e-02,1.416943462418484515e-03,-4.209589845527010946e-03,-1.483771827058194331e-04,1.579904258251190186e-01
-4.418279981971257042e-02,-2.110437957088503458e-01,-4.247433327166598438e-02,-1.912651579979864178e-04,-5.782890758150607781e-04,-4.440182399826715556e-04,1.677268296480178833e-01
-4.311444904363907066e-02,-2.121773961284207921e-01,-4.336144775495731629e-02,5.797513530144053455e-04,-7.794018200918604558e-05,-1.072504614470079585e-03,1.689528375864028931e-01
-4.855223700217136534e-02,-2.123125735819472171e-01,-4.712384661022621379e-02,1.169937961767464080e-03,1.421539653000444391e-04,-1.082596970544173146e-03,1.645025312900543213e-01
-5.017016279520351146e-02,-2.149739922147127502e-01,-4.858706615288703456e-02,1.250311919470551607e-03,9.701168946134414118e-04,-1.165819896475532493e-03,1.656360477209091187e-01
-4.863003239938080979e-02,-2.111192257757381618e-01,-4.901401274484210729e-02,3.835266821146659393e-04,9.504104299711077118e-04,-8.694634490464267854e-04,1.623142361640930176e-01
-4.924815746670599403e-02,-1.732403504450222564e-01,-3.862196211367215082e-02,5.909521738784956867e-03,-4.669165329947684052e-03,-1.471043067000969663e-03,1.303119659423828125e-01
-2.535562616362596611e-02,-2.022785414060631892e-01,-4.891872772218419652e-02,1.375917925693203887e-03,-8.189425823431575489e-04,-3.471035485644881867e-04,1.664215624332427979e-01
-3.178820368956056935e-02,-1.963070144813995332e-01,-4.811375141714527987e-02,1.326668310834625648e-03,-3.883610341866708567e-03,-2.217031419733632295e-04,1.571552604436874390e-01
-5.873115031189578977e-02,-7.635192940014652596e-02,-5.777863769564660357e-02,1.462279393223413931e-04,-4.656769269873321446e-03,-3.492567056167984567e-03,2.073397859930992126e-02
-4.408157875554651745e-02,-6.276146821753370020e-02,-4.242173336762500302e-02,5.294387400049173700e-03,-2.891354857889977866e-03,-2.972435354659485468e-02,5.605784431099891663e-02
-4.506046582999970185e-02,-2.118117853806036344e-01,-4.240145776874885974e-02,-1.254377348482594223e-03,-4.912388633198999047e-04,-1.058574132773565423e-03,1.681227833032608032e-01
-2.412031771470464492e-02,-2.011934648335699793e-01,-5.056234322499611467e-02,5.673326771232616852e-04,-5.230237132437991557e-04,1.785760777170692769e-04,1.654502600431442261e-01
-3.852353722244390016e-02,-2.089128158990573025e-01,-4.200426363631630522e-02,6.248587231219868664e-03,-3.145182446806356943e-03,-3.303969966704128555e-03,1.692072749137878418e-01
-3.290146701321933903e-02,-1.638296145907021106e-01,-5.658049993483824092e-02,2.638571362973019408e-03,-5.701672211776623441e-04,9.171667106943245918e-05,1.209318488836288452e-01
-5.617988874751220219e-02,-1.464154104849531846e-01,-4.343539795680407406e-02,-5.642864544342364409e-04,-3.768299194552057751e-03,-1.650683749384785487e-02,1.015670225024223328e-01
-4.985734655812314176e-02,-1.409479431859493315e-01,-4.254313753367811035e-02,-1.279254554757637552e-02,-6.402033322626179794e-03,-5.386533167670154443e-02,1.354089230298995972e-01
-2.640560782339812507e-02,-2.082262722378707132e-01,-4.783297102787162358e-02,4.811881916387569075e-04,-2.583261452293960205e-04,-3.118647347834863559e-04,1.721137315034866333e-01
-4.924575576250364572e-02,-6.075444006837615873e-02,-4.135379454438887353e-02,2.733953221659148839e-03,-8.849543756346498749e-04,-1.889581658423771654e-02,3.716836869716644287e-02
-6.220252086312699075e-02,-1.025791003257687378e-01,-5.911106373489501131e-02,-2.178641313700940970e-06,-7.854090533226002618e-03,-1.357093859908850911e-02,5.002218484878540039e-02
-2.643362482380082201e-02,-2.072660879583411442e-01,-4.912007573074053668e-02,3.481477290887068738e-04,-8.176392304609970160e-05,-5.052190725973308184e-04,1.706275343894958496e-01
-3.972477316565389827e-02,-2.122284469122231731e-01,-3.676267432204676638e-02,-8.599972113158064731e-04,-7.350330707388722873e-04,-1.912645623409652061e-04,1.740149855613708496e-01
-4.111122133938806267e-02,-5.414543753537523485e-02,-4.267289877345115112e-02,2.183632924524366720e-02,-7.610621830800169685e-03,-1.926622737977809127e-02,5.357030406594276428e-02
-4.224825842125135011e-02,-1.030408608194561815e-01,-4.227506668144617730e-02,-3.832003913015478384e-03,2.277048232687446834e-03,-2.576721257325425077e-02,7.579951733350753784e-02
-3.380711638026493576e-02,-2.107979069793477489e-01,-4.035301320564047001e-02,-7.938901347488089435e-06,-1.784652292805651973e-03,-7.895281281765012668e-04,1.738431751728057861e-01
-3.258975632473044837e-02,-2.101584513667718035e-01,-4.514142684203371891e-02,1.641394055861882732e-04,-1.768566758467249788e-03,-2.138427758786946072e-03,1.717049330472946167e-01
-3.049895982401638894e-02,-2.068813910344113327e-01,-4.463868245665537915e-02,6.745857531417716324e-03,-3.139631168339186273e-03,-7.112804629998748830e-04,1.702477782964706421e-01
-5.389999086814387108e-02,-1.378533407086445783e-01,-5.393023266608207300e-02,-1.716135210883967983e-03,-1.536328869428029570e-04,-1.084523453361710800e-03,8.401226997375488281e-02
-3.183710185814001004e-02,-2.084480296960576351e-01,-4.508307502500700364e-02,1.735131016135578767e-03,-3.010977895282446019e-03,-1.211374503126954466e-03,1.704937666654586792e-01
-4.270392240720258248e-02,-2.049338442016266637e-01,-3.060831977766552414e-02,4.758462268780701341e-04,-1.063145508885026498e-03,-1.724587597828043336e-04,1.686157733201980591e-01
-2.998288619825607848e-02,-2.080829648989438174e-01,-4.475708071071635846e-02,8.712667250574693484e-04,-1.375811584706331100e-03,-1.062426420022378852e-03,1.712249219417572021e-01
-3.729598732747599343e-02,-2.100189945190211183e-01,-4.112268062085533415e-02,-5.417043266074286594e-04,-1.465912644562238857e-03,-5.191327616847299939e-04,1.708656102418899536e-01
-4.188892554297927312e-02,-2.115937119793963039e-01,-3.940330054757117118e-02,3.587372175796826011e-04,-2.410279541784748555e-03,-2.329073716353345647e-03,1.710608154535293579e-01
-4.130522306087193452e-02,-2.107993304249516364e-01,-3.607411744683249738e-02,3.314874582225851938e-04,-1.702871262775362566e-03,-1.916373420859017690e-04,1.721958070993423462e-01
-4.409372662377083335e-02,-2.169320226966060250e-01,-4.373679822207313106e-02,3.616194224627775240e-04,2.335522415385259189e-07,-6.124698390568776574e-03,1.733430773019790649e-01
-4.323158748436911614e-02,-2.119072754827170391e-01,-4.244387675488921902e-02,2.833751755439165238e-04,-2.602979244739662837e-04,-4.666256091024875762e-05,1.690722554922103882e-01
-4.414032273028137970e-02,-2.141795069808653529e-01,-3.986254941344021668e-02,-1.814831720617339928e-03,-2.418932010874183004e-03,-1.613772114277934417e-04,1.722977757453918457e-01
-4.416803754511638286e-02,-2.122762652297372488e-01,-4.470846147971142132e-02,-7.530427821637924925e-04,3.001031510104608868e-04,-3.910857030939885208e-04,1.678459048271179199e-01
-4.338386787467974487e-02,-2.123423843580945491e-01,-3.852822705926888663e-02,-4.314442558510833865e-04,-1.109285990441098713e-03,-1.321789034850339925e-03,1.714655905961990356e-01
-4.397763620153555958e-02,-2.118866254096910540e-01,-4.317360026428561370e-02,-6.715693401162594906e-04,-1.356327800764505973e-04,6.758046433957426175e-04,1.683207005262374878e-01
-2.944965647677408316e-02,-2.077545781756518772e-01,-4.872233821499567796e-02,-1.008912244089050191e-02,-3.401809331179360841e-03,2.452377664602894795e-03,1.705455929040908813e-01
-3.999831878277908953e-02,-1.964681046177500223e-01,-4.886951644025302327e-02,-2.858123364971239602e-02,-4.431372263857627850e-03,4.306175346395685333e-03,1.604326069355010986e-01
-5.390105650898223411e-02,-1.102565899402785099e-01,-5.668849590924420617e-02,1.705307593210695066e-03,-2.455402588496871652e-03,9.301463547277112566e-04,5.528141558170318604e-02
-3.470425208242488430e-02,-1.575535095496577997e-01,-4.752674573867999436e-02,-1.897543408804959475e-02,-1.048351091214641626e-03,-3.696591123307161730e-04,1.215114444494247437e-01
-3.501376650389119438e-02,-1.557193718896882351e-01,-5.103859633997366585e-02,-1.861515991936214809e-02,-4.728937366654184450e-04,-9.172943971057016506e-04,1.180471032857894897e-01
-3.295267821398896457e-02,-2.114445309712021381e-01,-4.388238743957213750e-02,-4.631880728681665900e-03,-3.301454969295823834e-03,5.105210748637121262e-04,1.735678017139434814e-01
-2.867824501097424039e-02,-2.048117130818587484e-01,-5.073766991424613626e-02,8.053110959591859574e-03,-3.515004530950891718e-03,-2.923679828916023513e-06,1.669006794691085815e-01
-3.095262746428738276e-02,-1.853851652212328838e-01,-4.041497281710602213e-02,-6.712107472709738683e-03,-5.712481482714887315e-03,1.604235296471545093e-03,1.507263332605361938e-01
-3.366008814799323345e-02,-1.890150712396235222e-01,-4.662737469915761990e-02,-1.348690318090079582e-02,-6.545157675359384968e-03,3.607397230916563249e-03,1.516642272472381592e-01
-3.886183313151511665e-02,-7.000322028950864417e-02,-4.157910713529729824e-02,3.581519858488387692e-02,5.906392716091908753e-04,1.770693446613493677e-02,7.538162171840667725e-02
-3.390325854387188365e-02,-2.012842016483069596e-01,-4.345352698840466293e-02,-7.143070608123869899e-04,-5.361186860452297510e-03,1.233641822313477458e-03,1.630992889404296875e-01
-3.223942238320422898e-02,-2.040696577600544792e-01,-4.367224775406826354e-02,-2.826092905037191124e-03,-4.043663537210265280e-03,1.881162681864407627e-03,1.666597276926040649e-01
-3.342147191772741610e-02,-1.936023742440023121e-01,-4.371145905833996592e-02,3.284421390761051163e-02,6.925001002793249212e-03,1.649312184293470762e-02,1.682608425617218018e-01
-2.309931703846843098e-02,-1.939710138626772884e-01,-4.846985345203940615e-02,3.172568855023732114e-03,6.248751748140407352e-04,4.833471360154246912e-04,1.598053872585296631e-01
-3.943240506780353039e-02,-2.103725862710034422e-01,-3.786609418186132753e-02,-1.697749753741430298e-04,9.284145950090364179e-04,4.152184030674591509e-04,1.717379838228225708e-01
-3.880118123259883312e-02,-2.122034432676742077e-01,-3.882867117195777651e-02,4.089927362077979073e-04,-1.446020854822391592e-03,-3.277272126083840111e-04,1.734089851379394531e-01
-3.410094633233268224e-02,-2.061748100063766631e-01,-4.209199296093947551e-02,-6.818362370785471241e-05,-1.364746146289321600e-03,-9.918013644790979987e-04,1.682461649179458618e-01
-3.700282600911344172e-02,-4.781721500696760330e-02,-3.582074600518996010e-02,1.757141175120668442e-03,4.790123055103059566e-03,-8.621606940714857115e-03,2.079005911946296692e-02
-2.355037424966267834e-02,-1.997954044532534168e-01,-4.869989238987519620e-02,1.243872506429793967e-03,3.900000795365943175e-04,-4.158100426166325180e-04,1.651300936937332153e-01
-3.543794834707712782e-02,-2.063084200277527369e-01,-3.813204015754662057e-02,1.108183182012234059e-03,-3.352686343406199865e-03,-1.332030759881287340e-03,1.696654409170150757e-01
-2.582459005663824414e-02,-1.975132693455005639e-01,-5.019998192215757715e-02,1.629568749767521148e-03,-1.244285378180004812e-03,-4.238597398085464638e-04,1.609327048063278198e-01
-3.596469096198959964e-02,-2.049151094940053486e-01,-3.785354360773533766e-02,2.209504834719179403e-04,-4.350810450838698065e-03,-7.190960204675621217e-04,1.681879162788391113e-01
-2.712247824055202816e-02,-1.900896228738103433e-01,-5.485557796653009466e-02,9.668940894606550731e-04,2.735295526863338223e-04,-2.201415349789128187e-04,1.510331332683563232e-01
-3.818494723466567264e-02,-2.109949957575001922e-01,-3.572353825252182896e-02,5.398199071733453171e-04,-1.549649625234506261e-03,-1.680564326907997260e-04,1.740772575139999390e-01
-3.646755591647832945e-02,-2.015688305568602567e-01,-3.770544733828500028e-02,1.517499072296817466e-03,-7.232191868953649280e-03,-2.861664996404228965e-03,1.650574952363967896e-01
-3.696788770243931987e-02,-2.100739746319624235e-01,-4.486753711226002667e-02,1.360690342274255456e-02,7.592979000531980410e-03,4.835557427373798553e-03,1.716368198394775391e-01
-2.778561577138877886e-02,-1.895712937611798432e-01,-5.179392834085037867e-02,5.647393164120472538e-04,3.945035938763381649e-03,4.808967091004881511e-04,1.513774842023849487e-01
-3.564810237911909124e-02,-9.790134570458956798e-02,-3.486172476223103889e-02,3.930833578353289115e-02,-3.091519591986139834e-03,2.113440047611449615e-02,9.964504837989807129e-02
-3.925189596969294592e-02,-2.110189392854946167e-01,-4.264984742325876599e-02,1.566317116647532141e-03,-1.753009187773283068e-03,-9.783091442287035391e-04,1.701506972312927246e-01
-2.663629974918245436e-02,-1.987140496002998413e-01,-4.490079389793397158e-02,3.104394989444029650e-03,3.209444104693641876e-03,3.505471443126419043e-04,1.638951301574707031e-01
-3.745561034675076728e-02,-2.094856110295853779e-01,-3.891714466293005881e-02,-1.151947713511457323e-05,-2.934426335599841715e-03,-6.310071654804152302e-04,1.713827848434448242e-01
-4.043416281923872813e-02,-2.110807226257307434e-01,-3.882558235031475374e-02,-3.598340539189570923e-04,-1.683309928042108676e-03,-1.220990293663432470e-03,1.714954674243927002e-01
-2.729093798743055521e-02,-2.094044830055028783e-01,-4.937906224221414592e-02,-1.288955269710792594e-03,-5.008447275784072084e-04,-4.697123045298697643e-06,1.721523106098175049e-01
-4.421851184913802579e-02,-2.122790831547372581e-01,-3.924303180921109163e-02,-1.371336639583532312e-03,-1.061037431975289224e-03,-8.161805407682432359e-04,1.706350147724151611e-01
-4.276766987022075778e-02,-2.094663030228400835e-01,-3.423020630308475781e-02,-2.760563892939972130e-04,-1.529881126763512093e-03,-4.681467545031315898e-04,1.711502671241760254e-01
-4.068255915047579163e-02,-2.090571746750861937e-01,-3.241047068369614509e-02,1.770755679021256699e-04,-3.623337426953463815e-03,-1.960917277335365999e-03,1.728070080280303955e-01
-4.084148481439670020e-02,-2.053284842782741593e-01,-3.433420257245254487e-02,1.252421110482683096e-04,-4.650525232261908462e-03,-3.094008007008478087e-03,1.681140363216400146e-01
-3.265811927977017859e-02,-2.170280721177564598e-01,-4.900056801458437666e-02,1.020894435049389364e-02,-2.891665652920579876e-03,-1.173093637648198401e-03,1.777306348085403442e-01
-3.856340413018380375e-02,-1.835362044523597136e-01,-4.643671272937688332e-02,2.921094863785212575e-02,-4.348131687643853188e-03,-1.260401322196484826e-02,1.517591029405593872e-01
-3.898892772747625940e-02,-1.987571252707487912e-01,-4.223945619825507369e-02,2.938208483130265100e-02,-1.657081103488818345e-03,-1.217834962322013846e-02,1.675118058919906616e-01
-3.927329060318119486e-02,-2.009651668921677570e-01,-4.736179851618802644e-02,3.822713877354040612e-02,-1.034435692506513070e-03,-9.361735647990587772e-03,1.719067245721817017e-01
-5.395505505203785496e-02,-1.302586704102006165e-01,-4.227113425148079640e-02,1.546026687084273632e-03,-3.032653216838134859e-03,3.182772503535431612e-03,8.315908163785934448e-02
-3.175371611612309852e-02,-2.153572157829140854e-01,-4.698729268117032842e-02,1.074658006050809717e-02,-3.572348634581595100e-03,-2.281914856534713286e-03,1.776112169027328491e-01
-2.633213418602071976e-02,-2.013376367341043194e-01,-4.812968714401058556e-02,-4.568695684456103995e-03,1.131916268138922479e-04,-5.596306887501893484e-04,1.653812676668167114e-01
-3.596267333118121495e-02,-1.988651093432855510e-01,-3.519502801981557599e-02,-3.176821283294866110e-03,-5.899830538174355779e-03,2.602294762228081655e-03,1.637616008520126343e-01
-4.338758077897820337e-02,-2.122599448548564971e-01,-4.305788252127058791e-02,-4.653791767571422116e-04,-1.012230726225013533e-03,-3.985634287846403069e-05,1.690484881401062012e-01
-3.940577267497452629e-02,-1.456274126969880900e-01,-3.957660598749584979e-02,5.931618447852955722e-02,2.404888731266250235e-03,-1.245780001876897573e-02,1.493421941995620728e-01
-3.469372054512083470e-02,-1.611819941456457406e-01,-4.911404940748279740e-02,-2.027500670300226571e-03,-4.861101378769562206e-03,-9.667424465189153023e-04,1.202882081270217896e-01
-4.032926180835640778e-02,-1.099615625720778700e-01,-3.996507914908138670e-02,-2.441397577030337412e-02,5.495207142027737010e-03,5.094145590113111771e-02,1.205734759569168091e-01
-4.381596542785443082e-02,-2.291191409556498082e-01,-4.783374202042087187e-02,-7.339928677496557891e-03,1.808464519524924353e-04,2.617778192367984681e-03,1.838237792253494263e-01
-3.827194899351352153e-02,-2.220507717223531019e-01,-4.856737769352471867e-02,1.672880731148879141e-02,-1.288053330766050992e-03,-1.702419531443378825e-03,1.812230646610260010e-01
-4.288173682401468650e-02,-2.119007242482983111e-01,-4.087620969378145952e-02,-7.761061021262574688e-04,-3.119647615049536823e-04,-3.757553817601965579e-04,1.700380444526672363e-01
-4.322347815174736735e-02,-2.115367397648916237e-01,-4.576530598051937321e-02,7.200422693640501099e-04,-6.212119891282551990e-04,-1.006443296245429541e-03,1.670740693807601929e-01
-3.885411242122802089e-02,-2.125021902158450438e-01,-4.335424734243855521e-02,-1.707596060353275573e-03,-1.805047269302718091e-03,-3.489321625435317341e-04,1.714973896741867065e-01
-2.949346824285006829e-02,-1.952314017772734944e-01,-5.007129520668612832e-02,-4.405308412181150896e-04,-8.609234825245990364e-04,4.377951036344104527e-04,1.564780026674270630e-01
-3.725499101489115200e-02,-2.108171845177753134e-01,-4.217894681558118086e-02,-5.331635274567087532e-04,-1.015320443759316947e-03,4.819086176419792498e-04,1.711669117212295532e-01
-3.952235416319287847e-02,-2.123361564390337797e-01,-4.160005016178048437e-02,4.846766948868769004e-04,-1.967584456542485869e-04,-5.835067765122979502e-04,1.717897355556488037e-01
-5.941930293635264149e-02,-1.115215391775769282e-01,-5.565753007052919726e-02,6.623108326996462623e-04,-1.702369454597031911e-03,2.421061979416522236e-03,5.433585867285728455e-02
-4.651854284136267698e-02,-2.112257202374335230e-01,-3.392038011607054204e-02,1.088719690718042369e-03,-4.460245195414284307e-04,1.276652125825277796e-03,1.713803261518478394e-01
-5.001516045097216534e-02,-1.590347806033061140e-01,-4.690103444224490159e-02,-5.837691578935368282e-04,-7.537107478655743868e-03,1.414182877996611985e-03,1.114088073372840881e-01
-3.718971214195885416e-02,-2.159544675065164232e-01,-4.045344727429383419e-02,-9.787116996807111030e-04,-4.581329373466551391e-03,1.565850976062199088e-03,1.773619055747985840e-01
-5.029974862636938521e-02,-1.421782468861250703e-01,-4.421673419394258481e-02,2.034968552733401430e-03,2.539873210026266995e-03,3.045924766357676738e-03,9.537907689809799194e-02
-4.604323254916307950e-02,-2.224735470465157294e-01,-4.631001997331386788e-02,-1.816029430839772446e-02,-1.051802245709324750e-03,5.247655912997661355e-03,1.793208867311477661e-01
-4.143221684650062742e-02,-2.081520305585058406e-01,-3.058481108962197992e-02,-2.966255371215620849e-04,1.154172496067808109e-03,9.779605283706590147e-04,1.724203228950500488e-01
-4.091690888890318206e-02,-2.126509759373635122e-01,-4.131634447868045429e-02,-4.493450535543497965e-03,-3.507419679598692761e-03,3.871430013865447342e-03,1.719494014978408813e-01
-4.288653199218231404e-02,-2.139963497868279108e-01,-4.509537911507396912e-02,-6.103604067750964936e-05,-1.719097987509738421e-03,-1.787497777622294335e-03,1.700704395771026611e-01
-4.314319099407395997e-02,-1.399984672422660559e-01,-5.077561602126273721e-02,2.969314401371280204e-03,2.107764422383652178e-03,2.083436621284487540e-03,9.355618059635162354e-02
-2.417195274867528498e-02,-2.037813793658407313e-01,-4.748606286665268961e-02,2.781071574035385609e-03,9.677340552473126262e-04,6.715285940494290177e-04,1.692425012588500977e-01
-3.274542369062705127e-02,-1.831292324547641737e-01,-4.568364685827543126e-02,-5.049566937409944931e-03,5.828145786757820204e-03,-4.628841134817118265e-03,1.451883763074874878e-01
-3.516556274037854757e-02,-1.460183608217869300e-01,-4.518835561792094307e-02,-1.230058262979940448e-02,-8.687259548877918069e-03,5.219345257855462911e-03,1.097259670495986938e-01
-3.155169038971523954e-02,-1.842004777233398616e-01,-4.618895907049707511e-02,-6.429803494387372614e-03,-5.929828169118320745e-03,3.170595388314937616e-04,1.466675102710723877e-01
-2.686339685355369766e-02,-1.993858391744182113e-01,-4.791779063245544396e-02,2.849374168857804913e-03,2.820791893466503917e-03,9.117725818117660124e-04,1.631736755371093750e-01
-3.080257409350424525e-02,-1.839918861746080714e-01,-4.657900453809789287e-02,-5.381379636598701208e-03,-4.599092300651608581e-03,2.135196907684961006e-04,1.464566439390182495e-01
-4.554564909942026424e-02,-2.087759151646326194e-01,-3.021384694838669116e-02,1.693019586611240303e-03,1.694104907840466310e-03,3.337405458576074568e-03,1.715587973594665527e-01
-3.152507785454650158e-02,-2.022482274176337635e-01,-4.478043254447598709e-02,6.158414762134811066e-03,5.064912149447237111e-03,6.064603624767048867e-03,1.654091328382492065e-01
-2.839840387616673900e-02,-2.026786844897665585e-01,-5.070026114395910499e-02,-3.090237489858904327e-03,-5.554720197140795412e-04,-4.366452040117903624e-04,1.643604636192321777e-01
-4.332104874998757987e-02,-2.114273725078909261e-01,-4.005005088892335530e-02,-2.507575047999495606e-04,-1.150587106037468093e-03,6.452804436915214863e-04,1.697813868522644043e-01
-3.256028082658415229e-02,-1.402939034247232541e-01,-4.263200735171964600e-02,2.433619470213044950e-02,8.801636504931303201e-03,1.278188552762318450e-02,1.145521551370620728e-01
-3.564690510556983022e-02,-1.973352018425922338e-01,-3.993132305321381997e-02,-3.408742375846037648e-03,-5.767829689395532339e-03,5.263130792118347239e-04,1.600131690502166748e-01
-4.178023677649179979e-02,-2.150736327592336072e-01,-4.660616866669698571e-02,-8.607634978625766653e-03,-8.615504574450462416e-03,5.853300112748035383e-03,1.725263148546218872e-01
-2.768866602993724085e-02,-1.954888676669273018e-01,-4.451915731160851347e-02,6.557731032806983495e-04,3.933421926388172216e-03,-5.737108880541396050e-06,1.601990014314651489e-01
-3.177171728731109646e-02,-2.067194350908751477e-01,-4.539196788869379745e-02,-2.940586833330036294e-03,-3.556219109558088950e-03,-4.199104033746630543e-04,1.687417924404144287e-01
-5.960379062592818800e-02,-2.184688001948557612e-01,-4.532014645249639317e-02,1.562401715691134440e-04,2.785665068376217334e-04,-1.591616130989938855e-04,1.664682179689407349e-01
-4.105184847130308873e-02,-2.119161542529299225e-01,-3.741840609127781991e-02,1.071102267166097180e-03,-2.057778186203524512e-03,-1.105862073268677574e-03,1.727670431137084961e-01
-4.272044982131112389e-02,-2.126584194830672403e-01,-3.524225396110995667e-02,3.320544262639670789e-05,-1.418953649181530722e-03,-1.343870081125207727e-03,1.738307476043701172e-01
-4.108267047877226658e-02,-2.083744378606587899e-01,-3.916424703220991455e-02,-4.128091986825930398e-03,-3.328423753352717507e-03,1.822717850400490218e-03,1.685392409563064575e-01
-3.021695528279387533e-02,-2.071441003295236283e-01,-4.256429741445429821e-02,4.875300668327559907e-03,4.085576685942504671e-03,9.792913676858357435e-04,1.714507192373275757e-01
-5.191087509374638087e-02,-2.141542896185189560e-01,-4.632260899159084538e-02,2.185916081602419687e-03,2.609414898475014228e-04,-6.971711812717744025e-04,1.651569306850433350e-01
-4.335935658148541011e-02,-2.091551856848192226e-01,-3.221788667221704705e-02,-2.904046217529836454e-04,-7.965572644550992414e-04,-4.992474887498172826e-04,1.716464459896087646e-01
-4.453313979431017255e-02,-2.041617264886521066e-01,-3.403122171923673306e-02,1.325498664247785939e-03,-5.455603251022254040e-03,-4.026387189442313594e-03,1.655632257461547852e-01
-4.206542994098140531e-02,-2.003446367090790381e-01,-3.058673866245193579e-02,1.971794727849624125e-03,4.405659769189371189e-03,3.155008287539128736e-03,1.646227836608886719e-01
-4.394561509752215739e-02,-2.102401500858768757e-01,-3.552009464203163130e-02,-8.378277556202014731e-04,-7.518590139988589422e-04,-6.254473273704145263e-04,1.706779301166534424e-01
-4.533542658384676766e-02,-2.100349108088130357e-01,-3.283070651601920076e-02,-6.743060802894980908e-04,-3.614283362047341578e-03,-2.277667920003578240e-03,1.714582294225692749e-01
-3.635946297956832440e-02,-2.011801670835557942e-01,-3.760390616548285603e-02,2.064459631444371876e-03,-7.256482864850915572e-03,-3.193985767573516345e-03,1.648140251636505127e-01
-5.632563017364002750e-02,-2.233865303944189973e-01,-4.603190183264803392e-02,-5.390175987714579051e-04,1.302864346108259172e-04,-8.936181728295649988e-04,1.724479645490646362e-01
-4.265331766666993762e-02,-2.149213500743909766e-01,-4.700737087466515252e-02,6.498406246401660334e-04,-9.256126783099519629e-04,-1.639913827541493452e-03,1.701677739620208740e-01
-4.573041806545732890e-02,-2.059960138100305482e-01,-3.394425049826777646e-02,-3.388473536425694148e-04,-1.139896929056515365e-03,-6.921181770791464717e-03,1.669156700372695923e-01
-5.067432853548997640e-02,-2.039636492351389052e-01,-2.543288327926496173e-02,-1.910624940254011892e-03,6.497167402598458784e-04,4.577354050937339908e-03,1.675680875778198242e-01
-5.261530115969857008e-02,-1.586566603282576482e-01,-3.433581849994305629e-02,-2.309676545738243748e-03,-1.804724705606037746e-03,1.904583400906408736e-02,1.209599003195762634e-01
-3.916933824127073749e-02,-2.108906508285597337e-01,-3.745531386044137490e-02,-5.742302767893136567e-06,-3.536557775719274474e-04,4.435880322505333755e-04,1.725874990224838257e-01
-3.537548135626560758e-02,-2.040891486896431184e-01,-4.354310328088054766e-02,-2.911542926300662512e-03,-5.880968487728560970e-03,2.037735055116438043e-03,1.652109771966934204e-01
-4.026951949158521366e-02,-1.845244670282979449e-01,-4.630288836187569645e-02,-1.650998536566093949e-03,-6.630638828644739094e-03,8.761214177603265994e-05,1.418296396732330322e-01
-3.748718668023599127e-02,-2.114878415393200983e-01,-3.731484423009014811e-02,-9.149059214306605957e-05,-1.060772410173648709e-03,-2.911009638409828100e-05,1.740966588258743286e-01
-4.867413085115496890e-02,-1.796038246740122579e-01,-3.756896296930874179e-02,2.998313635716961015e-04,-6.342056757103218222e-03,1.190163268021033911e-03,1.372774243354797363e-01
-3.663245792717009786e-02,-1.401359930487937056e-01,-4.731726213383062596e-02,-3.768345179684923218e-02,-7.834465379489872561e-04,6.683098191630051400e-03,1.188157945871353149e-01
-4.137506486959257462e-02,-1.271848298159820034e-01,-4.537877526337764922e-02,-5.135715660280711949e-04,2.147027947175533021e-03,-2.431813175838159688e-03,8.407228440046310425e-02
-4.103212905896909402e-02,-2.128189659968701131e-01,-4.352501310699916082e-02,-5.606935172627631331e-04,-9.934442874884900562e-04,-2.208840926978651662e-04,1.705659329891204834e-01
-4.870101478487529056e-02,-2.162427794474942599e-01,-4.476472765691702493e-02,-1.529737659886068078e-03,7.204009897120600830e-05,7.723577414701656395e-04,1.695702075958251953e-01
-3.906505003741483906e-02,-2.120257973757610492e-01,-3.884955960117945917e-02,-4.657322870248377139e-04,-1.114036402962264357e-03,3.387357669609310186e-04,1.730822175741195679e-01
-4.027341280821814667e-02,-2.057417489126860954e-01,-3.313999434434393432e-02,-6.594538914161471180e-04,-3.432366396879750047e-03,1.694041453240566252e-03,1.692816168069839478e-01
-4.506411499407934895e-02,-2.020636580044166131e-01,-2.613670842090728974e-02,8.631452087026674023e-04,1.100731719189121209e-03,8.671251726165741950e-04,1.672926247119903564e-01
-4.105419695863841284e-02,-2.057727691032947281e-01,-3.313424120404737105e-02,-1.418834933588209238e-03,-3.394976997045876053e-03,2.043309821027892038e-03,1.689752638339996338e-01
-4.602377979486357851e-02,-2.137711037047731466e-01,-3.240928348254862312e-02,1.618270473135366818e-03,4.769707264093415305e-03,1.283993191385182642e-02,1.765757948160171509e-01
-3.765307120788181222e-02,-2.124619363985052467e-01,-4.648523842556293029e-02,2.651041654830965308e-03,8.989997333336066654e-04,3.307158971166901872e-05,1.706332862377166748e-01
-4.494182494157097918e-02,-7.052898534549276177e-02,-4.012771933346481051e-02,2.547355738554953064e-02,-3.861734164172826722e-03,-7.157094631593466892e-03,5.427867919206619263e-02
-3.892565494028700501e-02,-2.072396286927420950e-01,-4.156425036596144568e-02,-3.088206952098928367e-03,-3.270211997630127244e-03,3.335196417637132250e-03,1.672916859388351440e-01
-4.387172458033210265e-02,-2.001589126720429990e-01,-3.051901853393683417e-02,6.061172249605742413e-04,5.038500085303066270e-03,4.670695653685212286e-04,1.636115908622741699e-01
-3.848124892808869879e-02,-2.145976499927875758e-01,-5.096742901192928554e-02,-1.502520821835688115e-02,-1.684401226425448787e-03,4.444177805816066328e-03,1.723917126655578613e-01
-3.506791158276621745e-02,-2.087651766148373722e-01,-3.899701626715314923e-02,5.722783416220798662e-04,9.803070208773429633e-04,4.385939192147874917e-04,1.717793494462966919e-01
-4.062764834679032100e-02,-1.946472141917622023e-01,-3.864100471132080744e-02,-6.412588726874675349e-03,-8.959436853902897485e-03,1.175462342429921953e-02,1.575139611959457397e-01
-2.848721105240685503e-02,-2.048786357912628642e-01,-4.379277578612149335e-02,4.519804683087493566e-04,1.492549042453985555e-03,6.543075633967656776e-04,1.692838072776794434e-01
-3.501905780078557601e-02,-2.097555050594036019e-01,-3.584867723537595724e-02,-4.377403489613630543e-06,8.903378625028955445e-04,2.601925122996118223e-04,1.743305176496505737e-01
-6.460277492192906257e-02,-2.064587850875246322e-01,-4.951824400645325752e-02,-6.960601252171991216e-02,-6.356823920374138608e-04,3.550521620809928697e-02,2.020113021135330200e-01
-3.738514582807487413e-02,-2.098988140598099239e-01,-3.549820776743076167e-02,1.247863206379721678e-04,8.924365953254094442e-04,3.604156852178495808e-04,1.734729856252670288e-01
-3.109247486468405541e-02,-1.964626674181075283e-01,-4.560444294797492970e-02,-5.384076149274082525e-06,5.480002452383690714e-03,8.450339909456823886e-05,1.588967144489288330e-01
-3.190564178703138298e-02,-2.069664951885906157e-01,-3.937566569359242374e-02,-7.788287338542348479e-07,2.017633110942232411e-03,-2.028702288171452587e-04,1.714839041233062744e-01
-3.772205851171135660e-02,-2.185729264688381357e-01,-4.833908550740965288e-02,-6.834881176410385548e-03,-4.122854425675176980e-03,1.774831916848976666e-03,1.763526350259780884e-01
-2.695970339233386137e-02,-2.038207053987889372e-01,-4.537784642961454479e-02,3.302730527770499834e-05,8.552291360672487162e-04,6.008212117042996793e-04,1.684187352657318115e-01
-2.808469190623795464e-02,-2.087617256257589815e-01,-4.918753790808891302e-02,-1.085160699165199204e-03,-5.244864604996532812e-04,-4.981423619398105086e-04,1.711193323135375977e-01
-4.042055474297264611e-02,-2.081532482640614801e-01,-4.684017785979197740e-02,-2.835027762425795794e-02,-6.368886097488820654e-03,3.574972562878790932e-03,1.722496151924133301e-01
-3.870393695299382403e-02,-2.016104787886545679e-01,-4.497200051065779192e-02,-2.273740168804252657e-02,-4.622870788747266563e-03,1.509114803519957630e-02,1.668982654809951782e-01
-4.391382908936622420e-02,-1.164982146053680639e-01,-4.379835181454085069e-02,-5.121862497116713708e-02,-6.146241101871129358e-04,4.036376528151468940e-02,1.342972964048385620e-01
-4.748311911003255670e-02,-2.099748098398214746e-01,-2.820743831823595282e-02,1.479131273725781473e-04,2.098852792288200333e-03,-3.285340327144164498e-03,1.730690598487854004e-01
-4.059741051531277206e-02,-1.934290139022047939e-01,-3.862441651024488970e-02,-5.220997561691000360e-04,-7.664252343095010606e-03,4.148920238329613049e-04,1.544036418199539185e-01
-3.836649623775994361e-02,-2.127979886048363412e-01,-4.517484275906317320e-02,-2.122832939867577273e-03,-1.131589692704863641e-03,-1.507219479058163544e-03,1.711995452642440796e-01
-4.660824470248878248e-02,-2.091235789096128062e-01,-3.071395268490245689e-02,-8.843345540565600380e-04,9.163728543802366310e-04,3.975922823489085197e-04,1.710329502820968628e-01
-3.761292657170595827e-02,-2.120065957578443627e-01,-3.800104169852906721e-02,-2.234259242116641727e-04,-7.350054607205019517e-04,-2.938018638867323333e-04,1.742057651281356812e-01
-4.179405024512676536e-02,-1.941004198200218522e-01,-4.055594142073000452e-02,-4.486619134248604271e-04,-6.598411622065920683e-03,2.641772346444349467e-04,1.533582955598831177e-01
-4.739184517065158503e-02,-2.087982227297920934e-01,-2.891716563881287227e-02,-2.137240774426741696e-04,1.544904725780299947e-03,2.703136073609170380e-04,1.714140623807907104e-01
-4.654427910204677471e-02,-2.069544369242711790e-01,-3.255848021443212559e-02,-2.651522783968806446e-03,2.507055966362115550e-03,-8.219454652846989312e-03,1.685618907213211060e-01
-4.595250580353273107e-02,-2.106485056783690690e-01,-3.122888988994421133e-02,4.624073068116314592e-04,8.667997505300400465e-04,-4.199210773000228755e-05,1.725380569696426392e-01
-3.774961982969993884e-02,-2.121653192544527000e-01,-3.801736829298522913e-02,-1.229027287287416670e-04,-1.660625808489422754e-03,4.579912457072614893e-04,1.743076443672180176e-01
-4.206131669277947405e-02,-2.122542062282335995e-01,-4.206931235600176039e-02,-6.573425132230595325e-04,-2.468172543303996658e-03,3.156752116822848352e-04,1.702472567558288574e-01
-4.560648304822673832e-02,-2.167215926943124038e-01,-4.579561378804051369e-02,9.923446439283581562e-04,5.988664818301894441e-04,-1.152165324983628249e-03,1.710440516471862793e-01
-4.585336975973557105e-02,-2.128064368898646974e-01,-3.155255757137774564e-02,-1.970856103369668399e-04,9.175468676328476072e-04,-2.437289041915054362e-04,1.745515018701553345e-01
-4.262238920491095290e-02,-2.030516314936934574e-01,-3.188677500544604554e-02,1.269162208076993030e-04,2.593282624125401673e-03,-3.078506025985342518e-04,1.661192625761032104e-01
-5.166195480843096405e-02,-1.797097297640629643e-01,-3.505683772754989574e-02,9.387261188058185603e-04,-6.174146294125189630e-03,1.755777492780599344e-03,1.375662088394165039e-01
-2.712914030019457357e-02,-2.499870156719171191e-02,-3.757988880152376282e-02,-1.448475760660411331e-02,-9.077473996326169969e-03,9.261942743143361523e-03,3.563703969120979309e-02
-4.300573571571327663e-02,-2.096623792541386366e-01,-3.193221467066130470e-02,-1.382009863567090682e-03,-8.167426614924712261e-04,4.051474056051965265e-04,1.724840849637985229e-01
-5.592399394845394556e-02,-9.554467638179633959e-02,-5.628917711571766042e-02,8.674410448359395204e-03,-5.432878056141128998e-04,1.755618445441677923e-03,4.232412204146385193e-02
-4.684328743022470737e-02,-2.180190523192825913e-01,-5.226628298175568094e-02,-9.578039586187191449e-04,-8.828491992250789018e-05,7.971495960887989285e-03,1.691025644540786743e-01
-4.409395050874594796e-02,-2.222863965836363032e-01,-4.770453749646427072e-02,-1.368397897643149411e-03,-2.939757529715198553e-04,6.555038714256456074e-04,1.764351725578308105e-01
-4.546624448130792001e-02,-2.170408014922179940e-01,-5.291267170362091293e-02,-2.153721403644515316e-03,-2.244854006368850879e-03,2.534640985648200541e-03,1.681189090013504028e-01
-4.615144088039129650e-02,-2.157011566042381090e-01,-5.335308607469959469e-02,-2.668966247593001270e-03,-9.467285230649114588e-04,4.889485391509786234e-03,1.663541793823242188e-01
-4.538146819122861053e-02,-2.163481047838273497e-01,-4.691250364406611417e-02,-2.986390790909318298e-03,-9.143431926797353096e-04,1.314888913159004309e-03,1.703074574470520020e-01
-4.960186683225525917e-02,-2.035128015608186347e-01,-2.625212444766349129e-02,-1.303087984526786350e-04,-1.380635822684156975e-03,1.636698961674632521e-03,1.668573468923568726e-01
-4.858825358934727029e-02,-1.889991766243481752e-01,-2.544804068827768301e-02,1.813619366156248806e-03,3.076441170198680741e-03,7.178532527116061358e-03,1.539243012666702271e-01
-4.838672382754414386e-02,-2.144874992253075208e-01,-4.543759688812242653e-02,-1.859946906152410828e-03,3.981482829424214803e-03,4.458878952263118506e-03,1.679452210664749146e-01
-4.586643253123477010e-02,-2.133608283974801623e-01,-3.672533934174328912e-02,1.562507086838346932e-03,-1.745352389309364621e-03,6.918994169902012090e-04,1.722989082336425781e-01
-4.674711857046328495e-02,-2.186247234422838692e-01,-3.960653430253784080e-02,-3.515939647901030179e-03,4.978868303670815282e-04,1.250326601690807810e-02,1.769944280385971069e-01
-4.797153804487813006e-02,-2.037397939715877015e-01,-2.608042466733354048e-02,1.178701009902636317e-03,8.518229739938835022e-04,2.032037003132072719e-03,1.678441017866134644e-01
-5.021515828005120030e-02,-1.912509757290397072e-01,-2.698676871654124426e-02,5.359355591720849077e-04,-1.632749838666844701e-03,9.640122200568212747e-04,1.540075987577438354e-01
-4.776366308907706998e-02,-2.041286716158539627e-01,-2.759612169986250252e-02,4.506284776917836537e-04,3.793601456752752009e-04,1.281611389785929653e-03,1.673804372549057007e-01
-5.168420331825729352e-02,-1.689928478076755114e-01,-3.334240989866087829e-02,1.202625835463504720e-03,-2.359549246809484590e-03,1.801752088290983897e-03,1.275937706232070923e-01
-4.808525288762548894e-02,-2.025850224652458453e-01,-2.547473947019622542e-02,4.976902308590416954e-04,9.653440733589132693e-04,6.218180526748023473e-04,1.669713556766510010e-01
-4.906941361693012427e-02,-1.971405048302668217e-01,-2.372548833454492245e-02,-5.184663399787268990e-04,3.851564396950350982e-04,2.636315838498104469e-03,1.623027026653289795e-01
-3.699323049139712632e-02,-1.940025076785493185e-01,-3.909929444524230802e-02,1.120260410803878583e-04,6.319785303971668655e-03,3.084336629171881500e-04,1.563515812158584595e-01
-4.519729132050603893e-02,-2.122664195544503030e-01,-4.142065596880781242e-02,-2.655276254165001579e-04,2.365009040025422594e-03,2.228799257563808447e-03,1.690834462642669678e-01
-4.647491479922245122e-02,-1.966589477728297730e-01,-3.033262500675310697e-02,4.622536439264301696e-04,5.707319092143879960e-03,-2.240233585684264762e-04,1.591811627149581909e-01
-4.385435243613396150e-02,-1.769802387179666980e-01,-3.467018081904488236e-02,8.637384898570230713e-04,6.101421901886954977e-03,1.267805421906644707e-03,1.383771747350692749e-01
-2.658619874012374540e-02,-1.977960575187178160e-01,-4.761265149587359802e-02,2.528578547856327220e-03,2.813900303083175132e-03,6.575091674796587453e-04,1.618617475032806396e-01
-3.488620529995572345e-02,-2.085695718376531227e-01,-3.606580737421322819e-02,2.077853675804663806e-04,5.996056060442504993e-04,1.256685292501516559e-04,1.731002032756805420e-01
-3.461704720302172938e-02,-2.083052525628083518e-01,-3.383933058121310622e-02,4.208831484621511983e-04,2.615350325552937265e-03,5.948425721954703075e-04,1.741418689489364624e-01
-4.591783852364660079e-02,-2.025805825989468179e-01,-2.883895615719861416e-02,-9.918217299027214508e-05,2.437662600431900542e-03,-2.545302614004106800e-05,1.659168004989624023e-01
-4.955149700315372024e-02,-2.045168711813819540e-01,-2.646811618842560831e-02,1.850769151821661084e-03,5.745347969140756619e-04,2.232007984924557105e-03,1.677809506654739380e-01
-4.760507974413323573e-02,-2.001327241300058235e-01,-2.500651395826362922e-02,6.377673844410252594e-04,1.025813857831784325e-03,1.077919728677108335e-03,1.650155931711196899e-01
-3.552963263588861803e-02,-2.098753414065093748e-01,-3.622408765480122916e-02,4.097677184454350972e-04,1.018287248571737944e-03,-6.010272480497851565e-05,1.740099340677261353e-01
-3.410407164873894420e-02,-2.009503575396495156e-01,-3.981213746528512731e-02,-1.588677353737644952e-04,4.961511566334828038e-03,1.856482602716123969e-05,1.642918735742568970e-01
-3.497678330685155546e-02,-2.081771804449193408e-01,-3.655307615526574155e-02,4.083054675603228984e-04,2.595235616244910559e-03,3.545398368319934183e-04,1.724787801504135132e-01
-4.598797327208251767e-02,-1.917602418813568188e-01,-2.423058312791888380e-02,4.228549351153766938e-04,2.243221836478755289e-03,1.365348964903627393e-02,1.595915108919143677e-01
-4.848051459033309030e-02,-1.996661528130374286e-01,-2.376007494274796905e-02,3.060970597104882969e-06,2.865329954991304362e-04,6.221463589768788717e-06,1.649418622255325317e-01
-3.530610119718644024e-02,-2.104274403327444642e-01,-3.979106469631587401e-02,3.454822686580058620e-03,4.050635245440376703e-03,3.275921055203097083e-03,1.732611060142517090e-01
-4.995455340339567674e-02,-2.020013207148181056e-01,-2.419230770216682092e-02,3.765643441927063679e-04,1.412726327626715904e-04,1.306700168358262276e-03,1.664469540119171143e-01
-2.541011810655177672e-02,-1.909249627894712420e-01,-5.039798888026058438e-02,7.273661132880276069e-03,-1.508602148303440872e-03,-1.567797022431558027e-03,1.551019400358200073e-01
-3.864230441727855431e-02,-2.103235502689214109e-01,-3.743057857905788405e-02,1.034227665546892043e-04,-3.839649346681839532e-05,5.264401260918245709e-04,1.722928285598754883e-01
-4.565094919507414750e-02,-1.548588713923117477e-01,-4.859038701935301102e-02,2.000932680428042787e-02,-8.534477173825976565e-03,-3.441100947040677972e-03,1.143204048275947571e-01
-3.769558697178069379e-02,-1.418004007246367049e-01,-5.627130505746015532e-02,2.253155927883044446e-02,-5.606534799226172913e-03,-1.686350640845711915e-02,1.082566156983375549e-01
-3.446177032259273298e-02,-1.550620959590238712e-01,-4.314563217254232391e-02,-2.601249266228165130e-02,-2.360434681262417803e-03,6.011945492437309121e-03,1.254099905490875244e-01
-3.612585201789683675e-02,-2.117471725362542467e-01,-4.049655622403125488e-02,-2.591432706500328034e-04,-5.220229033300496750e-04,-1.195980528500584927e-04,1.734803318977355957e-01
-3.861057542685928518e-02,-2.094386333324871896e-01,-3.949513742950945538e-02,7.540319143037235022e-05,-2.717285977103515559e-03,-1.898196751536518237e-04,1.704528480768203735e-01
-3.901814641802278660e-02,-1.475611928590938593e-01,-4.407445813446113358e-02,-7.893062947954703618e-03,-7.848387622943001074e-03,8.324080990496571242e-03,1.088020950555801392e-01
-5.094374920914581523e-02,-2.119775091335417694e-01,-4.699964452158389427e-02,-6.756684258281903457e-04,-5.963603913530226772e-04,2.735827884690452869e-04,1.630497574806213379e-01
-5.124374585928375553e-02,-2.229868427333930314e-01,-4.808008299996725105e-02,-3.454648741363816524e-03,-3.772616918306020972e-03,2.557200731556186213e-03,1.736293733119964600e-01
-3.566557592419859063e-02,-2.118228521677233411e-01,-3.711302164380180652e-02,8.566891279007020701e-05,-8.739355704457343237e-04,-1.266917351037413981e-04,1.754447668790817261e-01
-4.876852110978183857e-02,-2.097677474066320102e-01,-4.810269177237109367e-02,3.405492870485055655e-04,-6.940227276438725411e-04,2.186872268358923703e-04,1.613391786813735962e-01
-3.952299120767897855e-02,-2.121461009335617875e-01,-4.155675584296389391e-02,3.170116939853198906e-03,3.716677749484818653e-03,2.279432192152913445e-03,1.718690693378448486e-01
-3.780177843735536836e-02,-2.097087991070382129e-01,-3.345016730703342239e-02,4.907886611525173683e-05,-2.210136321877711682e-03,1.194842531329930651e-04,1.741658300161361694e-01
-4.462125420180286517e-02,-1.840842764082471494e-01,-3.770018564666814676e-02,-5.596425920634235870e-03,-8.010936043658975492e-03,6.536619270490567034e-04,1.440515071153640747e-01
-5.369445793225383762e-02,-2.415817120375598759e-01,-5.034286185234956856e-02,2.355513442380306049e-03,-6.909453554664935805e-05,9.284185257423447496e-03,1.903098076581954956e-01
-3.628742015835715456e-02,-2.082893769324768996e-01,-3.657558720777594891e-02,-2.908056867837797402e-04,-4.524152971564956993e-03,3.200805903937935714e-04,1.720382422208786011e-01
-4.328791605464904491e-02,-2.036497671559969747e-01,-3.682343371968637563e-02,-2.140231886429884716e-04,-3.846344004195579886e-03,3.679442161306573024e-04,1.638270318508148193e-01
-4.505988964913259370e-02,-1.854890701827633936e-01,-3.041254753707711006e-02,3.508735723991692141e-04,-5.868815046644887054e-03,-6.766912314983843622e-03,1.491069644689559937e-01
-4.559742793057583454e-02,-1.752183657893049973e-01,-2.849482401504577211e-02,6.742694514948216911e-04,-3.612372268754453566e-03,-9.463692020006211209e-03,1.400718986988067627e-01
-4.234047240991112293e-02,-2.048597887244259508e-01,-2.885700389686156331e-02,9.604320981324787284e-05,-2.619943139933937279e-03,3.002819203269659022e-04,1.697249114513397217e-01
-4.693329969583655975e-02,-1.976141788554146295e-01,-2.500532975463959362e-02,-2.773433832864264596e-04,-1.935186017162914300e-03,7.306574318069358645e-05,1.627918034791946411e-01
-4.742761258923353790e-02,-2.053700588201060606e-01,-2.785848758575955320e-02,-9.628220639707877650e-04,-9.185468549277552280e-04,1.218603103914912660e-03,1.686099916696548462e-01
-5.176585387836026703e-02,-2.174002461260328700e-01,-4.675045227367235351e-02,-1.854232471836305849e-03,-5.726502819576202979e-04,-8.630764207645163838e-04,1.682384014129638672e-01
-4.877954237990553277e-02,-1.908609117717600390e-01,-2.661974804875443662e-02,-2.582252373250217242e-04,1.730038606487648446e-03,1.117894217065647493e-03,1.544007509946823120e-01
-4.996399890218379547e-02,-2.020829650690716961e-01,-2.619317516157829151e-02,-6.936589146450569503e-04,-1.610446002528632438e-03,1.363632353489997511e-03,1.653361022472381592e-01
-3.070547491356526854e-02,-1.888472565902725164e-01,-3.687457953859942655e-02,3.033028332424308679e-02,-2.279550369482039995e-03,-3.395797377362261282e-02,1.740864366292953491e-01
-4.724934147172486776e-02,-2.547971580008413506e-01,-5.893870357477667965e-02,-7.640570392979630782e-03,5.444931099099548956e-04,3.915224268907556079e-03,2.025059163570404053e-01
-4.277779807840592641e-02,-2.375561936156589948e-01,-3.823402423648898651e-02,-1.481815156920302315e-02,-5.047587043113680241e-03,-6.426541103824034030e-04,1.989489942789077759e-01
-5.616806676758930722e-02,-1.832869726819609801e-01,-3.105264277670759937e-02,-1.039232440239082345e-03,-3.822613531182275128e-03,1.156520772156913873e-02,1.429370045661926270e-01
-4.527590326704460794e-02,-2.244526254094442175e-01,-5.322653137736235024e-02,-1.762005484340534341e-03,8.627821767276674199e-04,7.664063146974027171e-03,1.758712679147720337e-01
-4.607412575240438929e-02,-2.199002975551840322e-01,-5.548121565193028099e-02,-3.476064537633238773e-04,3.347667196839335980e-03,-3.984536359538947553e-03,1.695595681667327881e-01
-4.938522261234545851e-02,-1.986879281314053447e-01,-2.373346041926242822e-02,3.140479446478714517e-04,3.570595144406941567e-04,5.742690440049134828e-05,1.636455804109573364e-01
-5.026805539965671643e-02,-2.005013379687396458e-01,-2.580440933215334687e-02,-1.147143911264020179e-04,1.606086122083226616e-03,1.528273587246137266e-04,1.638646125793457031e-01
-5.477700517189649371e-02,-1.923920948569841638e-01,-2.770694630684121529e-02,-5.410535404408580796e-04,1.784735038670084571e-04,9.396732788576060875e-04,1.529691815376281738e-01
-4.405970881703845377e-02,-1.885844706325220943e-01,-4.066856865289422002e-02,3.010732572775285873e-03,-8.222180630821702974e-03,-9.485998664811344039e-04,1.470432430505752563e-01
-4.899165151495026016e-02,-1.947117009763705553e-01,-2.369430693287781498e-02,-1.579593018531952136e-04,1.517154983710390214e-03,4.268293792716994738e-03,1.600695252418518066e-01
-5.067245509404811471e-02,-2.283584555156992768e-01,-4.091284997028474257e-02,4.288027188710161999e-04,2.943345055487537731e-03,-1.487072182208606149e-03,1.828520894050598145e-01
-4.838174157571942247e-02,-2.318506550935935939e-01,-5.560007863972690756e-02,-4.902714246765189736e-03,4.369092296009945489e-03,5.946161901397850613e-04,1.803303807973861694e-01
-4.446569368883894480e-02,-1.954828549577853902e-01,-2.692947608587439867e-02,1.557472561818921313e-04,3.841897907873682849e-03,4.614562201707309388e-04,1.606454551219940186e-01
-4.082522303135310837e-02,-2.109736616842671775e-01,-4.313491865324321078e-02,1.165885397107752682e-03,1.641289805272215865e-03,4.777560285838627457e-05,1.690414249897003174e-01
-5.490932530423719982e-02,-9.715616142479398254e-02,-5.443711341863165243e-02,3.658657094812393777e-04,1.041257973877635994e-05,1.523095297042843582e-03,4.257145896553993225e-02
-5.399302504609335140e-02,-7.946254602029992342e-02,-5.274061984294015071e-02,9.889407372605026059e-03,-1.926575354082247062e-03,1.688456821911957229e-02,4.291812330484390259e-02
-4.100245586955759275e-02,-2.061337756014339218e-01,-3.242129993494219375e-02,-8.402560955569367664e-05,2.449018835137247406e-03,-1.382123539749242392e-04,1.696380823850631714e-01
-4.155381096901376858e-02,-2.072560900794229721e-01,-3.160580440360643423e-02,9.328500790014747834e-04,1.248799550679849466e-03,1.441389152534625507e-03,1.709331423044204712e-01
-6.105564358285951038e-02,-1.260407437976847067e-01,-6.422737346699082528e-02,-4.331797575849489698e-03,-1.874437778692485557e-03,-4.641137053032993835e-03,6.448613852262496948e-02
-4.764021852785865069e-02,-1.107282916823032343e-01,-5.474615946472310979e-02,1.086581417797492788e-02,-7.358874231146253671e-03,-1.926200743176418456e-02,7.219439744949340820e-02
-4.234389340098342752e-02,-2.044761152210689548e-01,-2.825629587340995619e-02,5.676234982156008919e-04,9.373646663617177504e-04,4.371842638749346192e-04,1.696276664733886719e-01
-4.478216785289820812e-02,-2.122654189010329262e-01,-4.204677578978991553e-02,3.524848689403387047e-04,1.843759812381967622e-03,4.910396166784960006e-04,1.689009964466094971e-01
-3.884941005685528526e-02,-2.014387684117847355e-01,-3.360119549788620485e-02,-4.897405308697535490e-04,5.477461698445461498e-03,-4.113334891228931215e-04,1.655517518520355225e-01
-3.980549735134217282e-02,-2.008734882974602676e-01,-3.005876221206030957e-02,-1.938621348971333348e-04,4.583845860353509376e-03,2.707330437134187334e-04,1.663464754819869995e-01
-3.482362128496179626e-02,-2.089746316119129310e-01,-3.665929214178392098e-02,-3.773700592492752726e-04,1.737070029657568565e-03,2.073884905075118462e-05,1.732678264379501343e-01
-3.629844315150237283e-02,-2.060322515349167771e-01,-3.397619025323498493e-02,-6.491895443066480879e-05,3.430736274263306278e-03,-9.189395919236717516e-06,1.710100769996643066e-01
-3.820177491817880466e-02,-1.972583914141582961e-01,-3.417478990394057226e-02,3.721938352143730781e-04,5.637639094181987574e-03,2.739496596169755174e-03,1.614745259284973145e-01
-3.598396458417394556e-02,-2.083496872006982970e-01,-3.412067125439042364e-02,4.574683065052949859e-04,2.555443073590316690e-03,7.794809164734583596e-04,1.733684688806533813e-01
-3.774163511647470742e-02,-2.098324074294105057e-01,-3.364563204430515153e-02,-2.037494247114763864e-04,8.323261981560943837e-04,5.680718161573379641e-04,1.741839945316314697e-01
-3.172889840504911074e-02,-2.081380131758834851e-01,-3.944649939597905108e-02,-6.746889775354383400e-04,2.100846111559072273e-03,1.146584137418250361e-03,1.727334111928939819e-01
-2.831257146035089101e-02,-2.063414273319625347e-01,-5.006633325201338691e-02,3.680078703651062965e-05,-9.226437012118486863e-04,-1.100053745511061283e-04,1.682180017232894897e-01
-4.217068158359153773e-02,-2.033930114245332543e-01,-2.781514469866541717e-02,1.312368449706237915e-03,3.769518924695349285e-03,3.168324388218757628e-03,1.690889298915863037e-01
-4.168582108376880924e-02,-1.987711756550478714e-01,-3.085856624531663206e-02,1.067954660447010097e-04,5.277182625556670753e-03,3.863547877697371866e-04,1.630271971225738525e-01
-5.013826377015833530e-02,-2.120297661884653628e-01,-4.991394114122810893e-02,2.671056679969793573e-04,2.363226623911376077e-03,-6.340143389559683464e-04,1.620598584413528442e-01
-4.961902859804936949e-02,-2.179095297375476248e-01,-4.695271880037755335e-02,-2.042758551832452984e-03,-1.720387824322829485e-03,-2.105174233251628536e-03,1.697416007518768311e-01
-4.092258343508323876e-02,-1.842951583436042151e-01,-4.942839928054709731e-02,-1.032478530919056850e-03,-7.990440887500817324e-03,3.780720713010360607e-04,1.400132626295089722e-01
-4.306351085743571894e-02,-2.056407496478198649e-01,-3.099954790968267870e-02,3.740988232644713602e-04,-1.199062122483950804e-03,-5.250023193004539146e-04,1.689490526914596558e-01
-4.599383111088366921e-02,-2.118478853220218672e-01,-4.817911437182070822e-02,-1.901829815338699722e-04,3.036039561143837918e-04,-1.164100634014499482e-03,1.647857874631881714e-01
-4.426789909986567073e-02,-2.567105320613744524e-01,-5.270530532851565308e-02,1.508294226769317688e-02,-2.309511081976854327e-03,-1.138805198775976954e-02,2.109458446502685547e-01
-4.133772182496317504e-02,-2.093599698863711223e-01,-4.697681544386522745e-02,1.260021761658533870e-02,-1.600465090263606402e-03,-2.013820705245149105e-03,1.667690873146057129e-01
-3.958374322221513975e-02,-2.124065954894611974e-01,-4.128930136415787100e-02,1.392395903891714020e-04,-1.866306358781815919e-04,-5.709917636575184826e-04,1.719797402620315552e-01
-5.932786028523825972e-02,-2.392928055051500857e-01,-5.293031449021023960e-02,-3.131375802354224858e-02,5.702170729855392597e-03,8.242246153345013371e-02,2.387451082468032837e-01
-2.882916757216225090e-02,-1.981984297551021845e-01,-4.879533431637464447e-02,-3.117895292433037289e-04,-1.243740110552186886e-03,-2.924371907937588900e-05,1.603367477655410767e-01
-3.438254936402522499e-02,-2.167093756753585287e-01,-4.973852873603263475e-02,3.006460523143560451e-02,-2.702807791568113353e-03,-7.211622349346652298e-03,1.832174956798553467e-01
-5.587464949372261680e-02,-1.106647714362054280e-01,-5.050270102006403777e-02,3.154140947418768159e-03,-6.251134378827376790e-03,-9.890947471805803387e-03,6.136540696024894714e-02
-4.514340614587689093e-02,-2.213883814025461305e-01,-5.272754465393966750e-02,-4.083083176126774995e-03,-2.430429807313152319e-04,7.119856243677464419e-03,1.731629669666290283e-01
-4.382752060677484740e-02,-2.114257779011000649e-01,-3.744458297085830056e-02,-6.136312435585933311e-04,-8.016013878223124433e-04,1.266079695282070882e-03,1.709021776914596558e-01
-4.006015512977578741e-02,-2.109589671246847875e-01,-4.533991291838294219e-02,6.664675082215184426e-03,-2.269305480855946314e-03,-4.697459522354829929e-04,1.687641590833663940e-01
-4.817051642592234950e-02,-1.410408139412504258e-01,-3.496622935203912846e-02,-3.940104104631634782e-03,2.792302864785425431e-05,-1.693571292899299918e-02,1.045588925480842590e-01
-4.738180391047517453e-02,-2.128474835383128150e-01,-3.742832074440540641e-02,-1.231980378287768872e-03,2.436189269497839364e-04,3.529465737907428163e-03,1.707835644483566284e-01
-3.945332836408532717e-02,-2.058131154517998662e-01,-3.654889634914855467e-02,-1.615450420472712683e-03,-3.311269553395565415e-03,5.968113455390811149e-04,1.679553091526031494e-01
-4.097516997850356862e-02,-2.125609506420813033e-01,-4.178538089993033555e-02,-6.299755308197614763e-04,-1.086942731445058197e-03,-1.312141559660315337e-04,1.711960881948471069e-01
-4.911664351433642911e-02,-2.099812324861538848e-01,-4.902113953922163786e-02,-8.542954258051309606e-05,4.093387143055685551e-04,-5.075746712925392453e-04,1.609163880348205566e-01
-5.019171022634126567e-02,-1.552186641599189176e-01,-3.744826557548771445e-02,-3.171711797280798040e-03,3.761747115298593987e-04,-1.616542094892119488e-02,1.155250072479248047e-01
-5.056352948019544186e-02,-2.118960144606062412e-01,-4.810808443045276606e-02,3.892532161611403601e-04,7.042935985716666661e-04,-9.590413771038198455e-04,1.625885814428329468e-01
-5.811213640277056169e-02,-1.387637609495726843e-01,-5.117229139159296114e-02,-1.099385017438487535e-03,-2.903866925707186859e-03,-1.089503038142861611e-03,8.452834188938140869e-02
-4.766672340377543088e-02,-2.101720297577667207e-01,-4.869853178230998392e-02,-1.682862248815131993e-04,-1.292292129993651809e-04,-2.103810389406782276e-04,1.619926989078521729e-01
-5.605778186090862314e-02,-1.215396651301663966e-01,-5.582142912625238235e-02,-4.752783038593775319e-04,-4.236316515916059393e-03,-6.524977299911755534e-03,6.697501242160797119e-02
-5.616716571372489669e-02,-1.844111060900334165e-01,-3.832251422156644771e-02,1.151694400583144762e-03,-7.428799407513610349e-03,-3.063468867451051708e-02,1.484533697366714478e-01
-4.473956413543940525e-02,-1.129821876647694873e-01,-4.876093374950104392e-02,1.167885816647720211e-02,-4.879255830650982770e-03,-3.016276244921375742e-03,7.004784792661666870e-02
-6.140249732875949218e-02,-2.505895908338788836e-01,-5.414177915325789348e-02,-4.577148718678063916e-02,-8.774317066762471647e-04,5.895057157876759657e-02,2.322305142879486084e-01
-5.272721712586814213e-02,-1.052299348359226061e-01,-5.254147364595542630e-02,2.299183647125989383e-02,-4.740105715294385021e-03,-7.060348419915226000e-03,6.759546697139739990e-02
-5.593025453008511338e-02,-1.242561468664492852e-01,-5.476552437947608543e-02,2.413812622678283837e-02,-6.545171487094084486e-03,-2.084913502574423441e-02,8.904992789030075073e-02
-5.150847466796288493e-02,-1.991560715146076799e-01,-2.566543794320928773e-02,2.106019642242645178e-05,-7.835626804449578832e-04,5.477244742995350611e-04,1.621298342943191528e-01
-3.218522376748295111e-02,-5.513803452169192820e-02,-4.533654375867490066e-02,2.424923447790847814e-02,4.808984326123657465e-05,2.551301350792319414e-03,4.670695215463638306e-02
-3.198176652979041468e-02,-2.045554033138446415e-01,-4.317455372323333179e-02,4.765267489761870062e-03,6.446943236001634152e-03,8.909940796212990162e-04,1.678408533334732056e-01
-5.263772556683379844e-02,-2.858551442695125289e-01,-5.515142361224861789e-02,3.222014950373863762e-02,2.999070511650731279e-04,4.837044271353005409e-02,2.528719604015350342e-01
-3.066308656171520819e-02,-1.935932496344957565e-01,-4.815971674656316370e-02,5.942900153327414225e-03,6.040471058784019701e-03,5.355340443863251809e-03,1.558945029973983765e-01
-4.887870894986903747e-02,-2.095817381321325445e-01,-4.684152626982888978e-02,-1.951230263891049128e-04,1.786936855496367306e-04,5.226106290013014148e-04,1.617344319820404053e-01
-4.736674453243692323e-02,-2.107452246254595263e-01,-4.819772146691305575e-02,3.848307872303035281e-04,-2.067068454846268454e-05,-7.008254470826248000e-04,1.629704684019088745e-01
-4.689661704451110469e-02,-2.108762809106450864e-01,-5.074395145058113732e-02,8.006419291264577857e-04,4.473454427164540257e-04,6.477638648446054203e-05,1.620980650186538696e-01
-4.801913915189735121e-02,-2.106763160227712872e-01,-4.924965233575972351e-02,-3.853926603473770119e-04,9.689115509763074731e-04,1.871507235003574932e-04,1.620558202266693115e-01
-2.511593516916169055e-02,-1.894063701427848856e-01,-4.667425673660217933e-02,3.257155507760570862e-03,2.912708343171147712e-03,1.031493189192451065e-03,1.548378318548202515e-01
-4.792357553783145596e-02,-2.139198818501745758e-01,-4.898448273264963126e-02,-1.811232741354398519e-03,2.477331007601229909e-04,-3.110010715043115721e-04,1.654995679855346680e-01
-4.412818487862753269e-02,-2.116013600498453939e-01,-4.416992653375441391e-02,1.117071119695089640e-03,7.185605768399546322e-04,-2.018272734917534589e-04,1.674684733152389526e-01
-3.565822454340956960e-02,-7.753771708540257990e-02,-3.780266353182445277e-02,-2.230831291488215989e-02,-5.090301767569253150e-03,-3.133348088195307690e-02,7.864324003458023071e-02
-4.920743156884140740e-02,-2.097331933183015917e-01,-4.899461218805818002e-02,-1.704347427852255406e-04,3.597900324763524951e-05,-2.089958618718249265e-04,1.606329679489135742e-01
-4.202929751913660195e-02,-2.120159128080311151e-01,-4.018520909269254066e-02,-3.440275431258813288e-06,2.744213713442605787e-04,-1.541136823960118692e-04,1.709169894456863403e-01
-2.661539347177210857e-02,-1.792163869068514326e-01,-4.618209946947460925e-02,8.832606548903105051e-03,4.450782532476488598e-03,-1.812360014996668676e-03,1.448701024055480957e-01
-2.676923448357954038e-02,-2.009826914459721947e-01,-4.836117591737923438e-02,1.836964824496630433e-03,3.302872764671708865e-03,1.962432691337511988e-04,1.646143943071365356e-01
-3.415716749853829615e-02,-2.071119353107851446e-01,-3.979829950527317278e-02,6.468273048002245486e-04,1.364701682687579709e-03,8.876219013993177139e-04,1.702313721179962158e-01
-3.995914419419022839e-02,-2.111437066368610505e-01,-4.196232967793212670e-02,1.176396521249240337e-02,3.026553379374328796e-03,8.539847726202955125e-03,1.721240580081939697e-01
-4.236096007008691849e-02,-2.120720345402004048e-01,-4.002000579434603772e-02,-7.386284819440371583e-05,5.329848955132691620e-05,-1.919151492753687533e-04,1.708939671516418457e-01
-4.530034186639724653e-02,-2.106761364942792980e-01,-4.537264177959135503e-02,-3.393288622769650683e-04,-2.569407694538735449e-04,-2.053243808923959398e-04,1.653416752815246582e-01
-4.354169212319634191e-02,-2.084638801810089204e-01,-2.975125555928091747e-02,-3.992616258391286062e-04,-2.548423439681230408e-03,-5.483307133594035338e-04,1.722925305366516113e-01
-3.641967473827786156e-02,-2.093450433704351632e-01,-3.605791405640316333e-02,6.923766008865886142e-04,-4.736160236034835450e-03,-5.985476467266707522e-04,1.733080446720123291e-01
-5.432967200614416403e-02,-2.228255765490080309e-01,-4.171455196586906777e-02,-1.864305974126305443e-02,9.110997983321199659e-03,-2.323660305035980117e-02,1.832679659128189087e-01
-4.239466267810430150e-02,-2.114819178516387232e-01,-4.158981715203990265e-02,1.767768657761377557e-04,-9.387939424801860664e-04,4.694131317663424252e-04,1.695011407136917114e-01
-3.571843981158911996e-02,-2.103143808965735606e-01,-4.411522177168616943e-02,1.830569086199435166e-03,-9.871294935728568490e-04,-1.217263807181824097e-03,1.706037074327468872e-01
-4.437466902036477784e-02,-2.122480263170071768e-01,-4.097458624905701147e-02,-6.623166333016936719e-04,-5.769777040063113656e-04,-3.979813412294675302e-04,1.696071922779083252e-01
-4.036835713829182992e-02,-2.127153014339510650e-01,-3.866037095678252766e-02,1.717229048742435483e-05,-1.446314344484156455e-03,-8.772609157391722491e-04,1.732320338487625122e-01
-3.962785982126240669e-02,-2.125646276607547902e-01,-3.660583451165101004e-02,-5.238581243557413191e-05,-5.101521694757991075e-04,-1.354417465839112902e-04,1.744698286056518555e-01
-3.878088295537510805e-02,-2.091824451706682797e-01,-3.296525960943295919e-02,-4.283312238240196372e-05,-2.289506700202739720e-03,1.994714664994770158e-04,1.734282374382019043e-01
-3.299614922094158687e-02,-2.071448511751670385e-01,-4.196678821088181688e-02,1.577914506085022607e-04,9.439720495676438882e-04,7.792491831219300336e-04,1.698546111583709717e-01
-4.065281337122849531e-02,-2.114294284365254017e-01,-3.518407311020797096e-02,-5.505334183565537275e-06,-1.171694741827857857e-03,-5.839159734619321120e-04,1.735904216766357422e-01
-3.960622726677927308e-02,-2.121021187734142832e-01,-3.697913156470334500e-02,-2.281800354193728661e-04,-4.305614710760710955e-04,2.017123584149908518e-04,1.738267242908477783e-01
-4.239227008304372046e-02,-2.133544637754574702e-01,-4.427788097173750159e-02,-1.789895695712018491e-03,-8.848865630486342580e-05,-1.172514908983001921e-04,1.700556874275207520e-01
-2.856655704795066364e-02,-2.052977902441556202e-01,-4.504288287054478146e-02,9.872321157787251455e-04,1.107329290519396513e-03,5.929404497619465697e-04,1.691188216209411621e-01
-3.964566506675578500e-02,-2.099623888713929298e-01,-4.002701914100550984e-02,-4.494702460884726701e-04,7.078753519059985443e-04,-1.839432143537102346e-04,1.701328605413436890e-01
-3.825666532159825717e-02,-2.103152711815624853e-01,-4.125101413699103214e-02,9.930847121419998647e-04,3.236134778325871087e-03,2.056194146927935976e-04,1.706822514533996582e-01
-3.901569619226305519e-02,-2.103481473124196588e-01,-3.958095414142532437e-02,8.631319569472707199e-04,7.496206978910320692e-04,-2.019112245829654095e-04,1.710623353719711304e-01
-3.905829165340016229e-02,-2.077749707606505458e-01,-4.042239500439177846e-02,2.296434770773618517e-03,4.274300888913307520e-03,4.664178708470434823e-03,1.684426516294479370e-01
-3.955852996629098672e-02,-2.053153968848709099e-01,-3.479663372453977582e-02,6.798034209236556141e-04,2.928077500878159978e-03,8.507052872042643798e-04,1.682754009962081909e-01
-6.115970897144065721e-02,-3.214295569515248086e-01,-6.548918684342772134e-02,-2.561405962162609934e-02,-3.495483366753860972e-03,7.718185500062370655e-03,2.623278796672821045e-01
-3.835564689172521469e-02,-2.045417396526985065e-01,-3.626804198380514932e-02,-8.777653645202082577e-04,-4.324476096689741991e-03,1.336182721230337492e-04,1.674143821001052856e-01
-4.275516093445355659e-02,-2.094658739074437281e-01,-3.209091768156477342e-02,-1.455421340346243955e-03,-9.856109268861204184e-04,5.432696953238985889e-04,1.723200082778930664e-01
-4.093128759853972148e-02,-2.143042502842195940e-01,-4.273563728253277488e-02,2.590714975619602678e-02,-2.668487719101830368e-03,-1.377110830986036892e-02,1.798678636550903320e-01
-4.147712176557998009e-02,-2.106605449790993623e-01,-3.859166098353489227e-02,-1.193345808029951279e-03,-2.298986462055356908e-03,1.226932095453211980e-03,1.707166433334350586e-01
-3.632289899194030697e-02,-2.064525465002350069e-01,-3.891049977090895590e-02,-2.648341534779721177e-04,-4.496381668124307431e-03,2.365374306317883822e-04,1.690313518047332764e-01
-4.459657968758985042e-02,-2.121593638058282272e-01,-4.702260265333770700e-02,-2.698164021462047708e-04,4.401285836514786266e-04,-1.697687505467195034e-03,1.663914322853088379e-01
-4.132800206563053136e-02,-1.958008589603261462e-01,-3.543494156364906944e-02,-5.667976971436462655e-04,-6.294438972193182151e-03,2.267903808408273415e-03,1.579308807849884033e-01
-4.307673743245582498e-02,-2.023484078707519229e-01,-2.868330428829114764e-02,1.211906489822681121e-03,1.575774241816969064e-03,3.451097486311119822e-04,1.669709980487823486e-01
-4.743093557074286315e-02,-2.117926958884955579e-01,-5.079596466259439502e-02,9.351562143503960780e-04,1.389557876796827232e-03,-5.405555256362119289e-04,1.627338975667953491e-01
-3.807525262269337990e-02,-2.099360673095659324e-01,-3.658279300861198846e-02,2.233101827782030832e-04,-3.465782881641829138e-03,-5.288990687006128993e-04,1.727190911769866943e-01
-4.565216037570644231e-02,-2.113554163538279296e-01,-4.694706314608109582e-02,5.119138622371919266e-04,2.194291421433902547e-04,1.593462929598104790e-04,1.650626659393310547e-01
-4.788322425046925845e-02,-2.072337147228742460e-01,-3.285429634836461998e-02,7.508985875118038070e-04,-4.289952726556972226e-03,4.663545025621486546e-03,1.677362918853759766e-01
-5.315161013324646438e-02,-2.139452130017187870e-01,-4.675924810445541285e-02,-5.571585682437050039e-06,5.121720953410227031e-04,-1.262695962446118772e-03,1.641001701354980469e-01
-4.442887623485539117e-02,-2.062608230182495506e-01,-3.754669714505080164e-02,-2.541052024494441439e-03,-6.244903649936628387e-03,3.110966358488518116e-03,1.658797860145568848e-01
-4.658045215762544877e-02,-2.110617079551186381e-01,-4.828859233847748039e-02,1.028868547654774018e-03,2.118598882655699364e-04,-6.591555979012079548e-04,1.636479645967483521e-01
-3.059237009147967173e-02,-2.046646234188260471e-01,-4.093686330101906773e-02,-3.034090127753913489e-04,1.238847164086857335e-03,-6.687208908753358846e-04,1.691558212041854858e-01
-4.743022177654219323e-02,-2.056184048491569161e-01,-2.761064092690115879e-02,-7.954456769274644793e-04,-6.532653160847342200e-04,1.839724200634652819e-03,1.690114587545394897e-01
-4.120449449142443016e-02,-2.058392916689954499e-01,-3.411722709878306503e-02,-1.481753888022528491e-03,-1.378354481100496067e-03,-2.739783423273310040e-04,1.683275550603866577e-01
-3.563117057543110922e-02,-2.113616490542356008e-01,-4.082915812584092530e-02,-1.389148191453631583e-04,-5.281084144079808106e-04,-1.586992554431395069e-04,1.731927990913391113e-01
-4.760957425721138586e-02,-2.120624479483343983e-01,-5.415345979831036327e-02,-8.643425157304356109e-04,1.034975159276525173e-03,-4.748106040656769168e-04,1.612995415925979614e-01
-4.205680399518162138e-02,-2.101709051175918441e-01,-3.519987545642466742e-02,-1.021494500828175984e-03,-1.619551687681274662e-03,7.707712185721939373e-04,1.716825515031814575e-01
-4.844763443673438807e-02,-2.102362780556399913e-01,-5.086159554898592866e-02,5.162398166348790111e-04,7.723695327869124251e-04,-1.226614240244537700e-04,1.606034785509109497e-01
-4.334004478142285816e-02,-2.087308725748248106e-01,-3.534284255327978241e-02,-1.297268577115537509e-03,-7.319822457942880799e-04,-3.763842955223117609e-04,1.695518344640731812e-01
-4.648371530973677279e-02,-2.046921032970404897e-01,-3.186278910020232807e-02,-1.578213929801021518e-03,-1.782651364204080853e-03,1.842131840832756393e-03,1.660843342542648315e-01
-4.903012772250731066e-02,-2.105693268175155564e-01,-4.918106445328761234e-02,-5.303012264124049415e-04,3.366773886561955130e-04,-3.772903929263037861e-05,1.614674627780914307e-01
-4.706209228569763203e-02,-2.147291018376158711e-01,-5.440778847528893181e-02,-2.567318205965662351e-04,5.313690066535625353e-04,-6.849012820573454913e-04,1.641249656677246094e-01
-5.793934574026952944e-02,-1.755627740077798649e-01,-3.833091289491778741e-02,-4.498337929872724323e-04,-2.449422574067833779e-03,-1.572804035784864133e-03,1.286553591489791870e-01
-5.331085370346726887e-02,-1.960545531600784153e-01,-3.002412117050456963e-02,-8.729014501878561063e-04,-2.008950445011171808e-03,-2.118010296506482159e-03,1.557880640029907227e-01
-4.613723037612792177e-02,-2.049187139153071380e-01,-2.939737305503152542e-02,-1.150869779802433240e-03,-1.815038054050977824e-03,3.324031202691068434e-04,1.678211838006973267e-01
-4.148009986550037914e-02,-2.149737948999384529e-01,-3.776798514625812064e-02,4.343459381927886379e-04,1.132218205316910115e-03,5.391436556913031851e-04,1.753942817449569702e-01
-4.249108491592433479e-02,-2.129724413377412362e-01,-3.688779886219893667e-02,-1.060014327587176100e-03,-7.626499161261231056e-04,-4.192699211090727507e-04,1.733672022819519043e-01
-5.797079638437367677e-02,-2.236710506431588141e-01,-4.568468564364717988e-02,1.367316502182720035e-03,-1.154117144623539350e-03,-1.183983162545418962e-03,1.722124963998794556e-01
-5.851936832773224628e-02,-2.164589961318044709e-01,-4.429039561184125451e-02,-7.273644018527072354e-04,-1.381563222229035453e-03,2.166536228491299930e-04,1.655359864234924316e-01
-5.079700129177976142e-02,-1.552315213316986520e-01,-4.258228512612956956e-02,8.040282296189592975e-03,-6.532322397296455412e-03,-1.196070659063247499e-02,1.121743172407150269e-01
-5.692160138421722970e-02,-2.186283313988662269e-01,-4.734210690721995379e-02,1.357736022617154689e-03,-2.150138911945776929e-03,1.078553836290768080e-03,1.667716801166534424e-01
-4.270759049798457385e-02,-2.125350480269813103e-01,-3.892538347513926911e-02,-1.214096329320206100e-03,-6.451754295087531099e-04,4.658347758384888708e-04,1.717682033777236938e-01
-4.671376878867917332e-02,-2.105047492087110950e-01,-3.576434544851261194e-02,-1.710608875271053082e-04,-1.310805413169118449e-03,-8.229337294255373086e-05,1.695466190576553345e-01
-2.866644123128458954e-02,-2.089893673759110337e-01,-4.964836796693145732e-02,-4.325116935202448305e-08,-8.858268856988714890e-04,5.915975456324611094e-04,1.708112359046936035e-01
-5.496394701836228996e-02,-2.236133761450103119e-01,-4.575401642186939510e-02,2.135261148206574026e-03,-7.860868741515238123e-04,2.902209920182721899e-03,1.735554784536361694e-01
-4.333517866941733604e-02,-2.095726891717343832e-01,-3.156941859332208777e-02,2.518126811864903735e-04,-1.149207788617119703e-03,-8.313149078918038266e-04,1.724397838115692139e-01
-2.746169387030765463e-02,-2.058376895857730038e-01,-4.861612852649782601e-02,3.858122728865109126e-05,-1.274721469944182400e-04,-1.060110505585906649e-04,1.687961816787719727e-01
-3.991466903755209322e-02,-2.003773781996792958e-01,-3.322634982055905351e-02,-9.613967919361818563e-05,-6.499602339780503370e-03,-4.824799353054812440e-04,1.642975956201553345e-01
-4.613700027910641599e-02,-2.142091703675529923e-01,-4.397345308413384835e-02,-1.628552318495300136e-03,-4.317608761145734129e-04,-1.520597239019266453e-03,1.692099869251251221e-01
-5.768835795633356356e-02,-2.207404596821715137e-01,-4.379685637998369241e-02,2.308672983282317875e-03,2.159297829362171459e-04,5.773472084205928233e-04,1.704732477664947510e-01
-4.707751057648418280e-02,-2.340359337518379268e-01,-4.738382829030087645e-02,-4.525854590392940210e-04,1.830939438557994785e-03,-1.938087105286264962e-03,1.868641674518585205e-01
-4.779259839970425444e-02,-2.176530202011393023e-01,-4.625550531948240118e-02,-5.613718995637787673e-03,1.106053159166104412e-03,-1.064377800874790779e-03,1.709316372871398926e-01
-6.535426359833812482e-02,-3.445858733742367397e-01,-5.159558631668031969e-02,-1.661710167751807160e-02,3.455395434440919323e-04,4.582924407663736821e-02,2.985484004020690918e-01
-3.959077493668305969e-02,-2.129695417716925276e-01,-4.069628844132411327e-02,-5.732218504726667441e-04,-5.584714217262191048e-04,-1.421665109134325400e-04,1.728343963623046875e-01
-5.517741659090908551e-02,-2.335528539548432647e-01,-5.038423502570907320e-02,5.547883833097490280e-04,5.233586548924511021e-03,-3.726048645540567649e-03,1.811642944812774658e-01
-4.633469668910663447e-02,-1.273183645923999796e-01,-3.095553810360798797e-02,5.097310023050052180e-03,4.428214627832858380e-03,3.841112782976103396e-02,1.122646555304527283e-01
-4.012288451960002028e-02,-1.987429541788025555e-01,-3.294249557768445108e-02,3.696315036914724246e-03,4.451949519308761975e-03,4.789577733985980051e-02,1.825741082429885864e-01
-5.536758040787834872e-02,-2.149776233177839169e-01,-4.766345214090814825e-02,1.611917389228485851e-03,3.766290816073424811e-03,-1.357579402492049597e-04,1.637521982192993164e-01
-5.354114584885925898e-02,-2.193470361425537973e-01,-4.531790053983444921e-02,-9.218903741043079410e-04,1.387650221038574418e-03,-1.724065348514979782e-03,1.701173782348632812e-01
-4.643818411444438493e-02,-2.114096210584770485e-01,-5.368402732034825015e-02,3.385676821221676822e-04,8.325669174568419133e-04,2.821623933736253266e-05,1.614779978990554810e-01
-5.625010405153604148e-02,-2.173126550395756418e-01,-4.337175210553698840e-02,1.519813402705723002e-03,2.955470009733970980e-04,-3.497171281997781336e-03,1.680032759904861450e-01
-3.944247342462181560e-02,-1.369370210412894362e-01,-4.287469165889109396e-02,1.256394743065305034e-02,-2.216456529950284506e-03,6.068869461638930207e-02,1.439444124698638916e-01
-3.422747083068300444e-02,-2.097781158308656413e-01,-4.790905048896138690e-02,1.045857388184240171e-02,4.244269531791101772e-03,3.856618993166395287e-04,1.702528595924377441e-01
-4.773510133305682024e-02,-1.521828490103900311e-01,-4.215845535117190845e-02,-3.276454473927591093e-02,4.107052325468669302e-03,5.801231975819961389e-02,1.577667146921157837e-01
-5.057063515141108079e-02,-1.677752116295001539e-01,-2.691685487834644119e-02,4.903476272779601353e-03,4.264143088475262459e-03,1.647622470043851733e-02,1.342006921768188477e-01
-4.727747026443114564e-02,-2.039251688918183314e-01,-2.498147319770387120e-02,6.980051911811989331e-04,6.053535201453873627e-04,3.312227948382001023e-03,1.690080016851425171e-01
-2.997110941117202276e-02,-1.567236311359833656e-01,-4.316119187916341027e-02,4.993537739275084181e-02,-4.935233403891502949e-04,1.799112012384892871e-03,1.485239714384078979e-01
-3.484412045324748741e-02,-1.319414466300654065e-01,-3.573843698545607628e-02,5.711949414321915164e-02,-1.197330564460411494e-03,1.779074146375675750e-02,1.417166143655776978e-01
-5.818010751562863875e-02,-2.377781436031368711e-01,-4.894708047401581663e-02,-8.468402579422620868e-03,3.318524841570495362e-03,-2.833204843320419764e-03,1.851248145103454590e-01
-4.356075301539967526e-02,-2.136168339460102206e-01,-3.945297713118587485e-02,-5.839314258275429218e-04,1.454923576525622925e-04,4.133209777152350821e-03,1.722986698150634766e-01
-4.499392808344079842e-02,-2.282117096882612106e-01,-5.082686012986902674e-02,5.715106588893497513e-03,2.004955075013389702e-03,-2.934830030004371201e-03,1.807483583688735962e-01
-4.356414908204913478e-02,-2.155206501272775577e-01,-5.048358127370435738e-02,3.932886242030005867e-04,-5.209385699849781396e-04,-2.079764539628736232e-03,1.686455756425857544e-01
-3.714212575585999765e-02,-2.354160758766861428e-01,-5.084971056264861455e-02,1.287078524088121866e-02,-1.623069674822302409e-03,-1.176827195983277431e-03,1.931104063987731934e-01
-4.164610710026395851e-02,-2.225753390719146796e-01,-4.490587097703881841e-02,3.540605133473698207e-02,5.868585192971599584e-03,1.544583734227258573e-02,1.916664689779281616e-01
-5.024159290202565020e-02,-3.515715061653856832e-01,-6.354255685842309653e-02,2.028591990727893896e-02,3.662194600869025343e-04,-1.442475636047103188e-02,2.980399727821350098e-01
-4.612343164913729893e-02,-2.115438975069450778e-01,-3.524764232526967495e-02,-2.096558498959337383e-05,1.207373631656380713e-03,2.509256045265794983e-04,1.711311042308807373e-01
-4.830737343537515327e-02,-2.455260053823326571e-01,-4.818688353757998033e-02,1.313799745658138403e-02,5.536616069282833440e-04,3.500234000830779093e-03,1.986818164587020874e-01
-3.646680907926248827e-02,-2.147552874673336054e-01,-4.697004801096325149e-02,9.918508668856438476e-03,1.822043867192219046e-03,-1.936516963715385377e-04,1.741542220115661621e-01
-4.655168294697822895e-02,-2.358889958433763590e-01,-5.496792140467200716e-02,-1.597221116862413640e-03,2.235086955247022873e-04,1.945991499129676443e-04,1.852939873933792114e-01
-4.345605116855578987e-02,-2.329222463658414122e-01,-5.493511475446045261e-02,-1.350621090006763440e-02,2.053931462213218380e-03,-1.998991968154812532e-02,1.887141019105911255e-01
-5.093973730550949847e-02,-2.176106385306146307e-01,-4.438395464332790114e-02,6.445931318454334313e-03,-1.267989385523652897e-04,-6.120583768648199096e-04,1.704131662845611572e-01
-4.404659529533911516e-02,-2.180945915826584258e-01,-4.584915831411748993e-02,-9.703143219651669911e-04,1.361824806435363018e-04,-1.251753470155686282e-03,1.731756478548049927e-01
-4.912330659735619776e-02,-2.178311200079314780e-01,-4.487311460036889910e-02,6.372875661204010882e-03,-1.735169766418301601e-03,-2.498211909717383203e-03,1.713097393512725830e-01
-4.092281572040219750e-02,-2.095702678666431784e-01,-4.727986631562757641e-02,1.290512687910544409e-02,-9.544290250964608448e-04,-8.449945844372487667e-04,1.670771539211273193e-01
-5.766405125967641321e-02,-2.233869025844493483e-01,-4.657582182813169158e-02,1.672079066197593123e-03,1.298776248343254240e-04,-5.537759246129997197e-04,1.715632379055023193e-01
-4.553129348673386895e-02,-2.207896667328031193e-01,-5.003751390870855853e-02,-5.095109634658920479e-04,-1.335599253354238227e-03,3.452130605302615191e-03,1.731702387332916260e-01
-4.315731160273259676e-02,-1.434395868873169499e-01,-5.600778813386622645e-02,1.539533664028417586e-03,1.351575165352056525e-03,3.184711149575221792e-03,9.474182128906250000e-02
-5.714102510976946936e-02,-2.240436623422202844e-01,-4.584553011572557735e-02,-1.617753454507247579e-03,1.615686417606713337e-04,-1.431096465471116540e-04,1.728505641222000122e-01
-4.811374873835527061e-02,-2.133983535869830583e-01,-5.237257764203687854e-02,1.482622172371528355e-03,-3.223949933189728008e-03,1.419778864476047182e-04,1.633127480745315552e-01
-4.668271052186705877e-02,-2.191195468380556788e-01,-4.715795018387924920e-02,-1.366396817254906301e-03,3.997426038824310624e-04,3.488057941003871098e-04,1.722184270620346069e-01
-4.943167978239100535e-02,-1.959023049902522962e-01,-3.324186849260161308e-02,8.155656150885307563e-05,-2.234893317765737283e-03,-1.278380414234846912e-03,1.552642732858657837e-01
-5.043191407512530311e-02,-2.066842179825096049e-01,-2.786415864562370726e-02,-1.312691029586669756e-04,6.274278770733224524e-04,6.048273449387187300e-05,1.686760038137435913e-01
-3.288334637646415926e-02,-2.064720336727449146e-01,-4.779071403051009248e-02,1.647072567463024996e-03,-5.151609703536384553e-06,-1.236681434647523160e-03,1.666740477085113525e-01
-4.035062145806734418e-02,-2.124449302451765775e-01,-3.736913620569491667e-02,-3.558763643204087808e-04,-1.317987678004024299e-03,-3.963660521978755176e-04,1.736217141151428223e-01
-3.852346830238539271e-02,-2.100969754136187695e-01,-3.803500403602021879e-02,6.762212698426556690e-04,-1.972797576778797558e-03,-1.065897438393928909e-03,1.718661338090896606e-01
-4.984393818990791314e-02,-2.019559542770142935e-01,-2.409625776089312221e-02,-1.357645949003510367e-04,5.765642626605635239e-05,1.566649858907136206e-03,1.665081679821014404e-01
-4.773489667937600572e-02,-2.187684308137008149e-01,-4.939895295946700182e-02,-1.664440621994886472e-03,-1.987111759287870164e-03,-3.155154101688714598e-03,1.703544855117797852e-01
-4.414404040447415106e-02,-2.212237532526280526e-01,-4.582891692644081028e-02,-6.340700170065430167e-04,-8.434462955518970580e-04,-1.893045091621269917e-03,1.762832850217819214e-01
-3.799902142670557453e-02,-2.080325520073924295e-01,-4.175487895211083683e-02,-1.160145116289973324e-03,-3.991096076120817515e-03,-2.216326205061926007e-03,1.683848202228546143e-01
-3.593454429658504701e-02,-1.742348780368917494e-01,-4.721011375159601953e-02,-7.496918639545834678e-04,5.196926730702780550e-03,-7.849562186891437254e-03,1.340233683586120605e-01
-4.106476731209977166e-02,-1.756390460770640705e-01,-4.872413486829116347e-02,-7.352482192506724565e-03,5.580587309642992370e-03,5.414188289016131457e-04,1.318887174129486084e-01
-4.380207409873999175e-02,-2.110996538065056383e-01,-3.351481839253893369e-02,-1.331326474522765238e-04,-1.174144900985140457e-03,-1.847381857161590991e-03,1.727129667997360229e-01
-3.898287760228465876e-02,-1.676236917779977964e-01,-5.996393883329535074e-02,2.772047612103810746e-02,-1.107752153504953756e-02,-2.835002506144189416e-02,1.391913145780563354e-01
-3.150682708835739199e-02,-1.664529101940613320e-01,-4.793419363876558204e-02,-2.472524291227633231e-02,6.956344369172679995e-03,-1.365762819307737158e-02,1.371213793754577637e-01
-4.828959009815177172e-02,-1.494508602549720067e-01,-4.376570750246844277e-02,-2.964262068933930239e-02,8.982341594437471925e-04,-5.288675164768281284e-02,1.474490165710449219e-01
-4.806511567246406907e-02,-2.013032698659560915e-01,-3.043713798392876091e-02,1.256384586149417778e-03,-2.639087604311045679e-03,-3.711348248951864062e-03,1.629751771688461304e-01
-4.334740070486117758e-02,-2.149077750323908353e-01,-4.299590677991328713e-02,-1.734143047293208685e-03,1.074827875393747495e-03,1.085068605347784716e-03,1.717830300331115723e-01
-3.163470416114552708e-02,-1.840351468680785918e-01,-4.827875339798856635e-02,-5.926382124140079297e-03,4.166213867856973993e-03,-4.909364370055071050e-03,1.455888152122497559e-01
-3.575590334093511208e-02,-1.990416816402933997e-01,-4.918967999827879994e-02,-6.001099190456367881e-03,5.721055933631854183e-03,-2.743216627600725873e-03,1.577275246381759644e-01
-3.570399590064562284e-02,-2.093675221644317741e-01,-4.555133752094360500e-02,-1.344611885344745980e-03,3.746810218970026297e-03,-1.085094895555946854e-04,1.690959483385086060e-01
-4.767817639678598868e-02,-2.105381100928924165e-01,-3.052348045519318043e-02,2.944372454490880916e-03,7.074036460536208687e-03,3.051743330383204639e-02,1.805035471916198730e-01
-4.535959196115957326e-02,-2.047272095614787735e-01,-2.636305342579323141e-02,-2.827246137025581584e-04,1.184959781569646861e-03,1.242221083267331999e-03,1.696921288967132568e-01
-3.695530525768623425e-02,-2.115364132530461738e-01,-4.418604879532336133e-02,-1.682876970509923110e-03,6.976147451519051565e-03,-3.641516490866689333e-03,1.716472357511520386e-01
-4.434057647484655751e-02,-2.129425341878415368e-01,-5.438318362801543987e-02,6.734065882419714463e-05,5.112712660414891769e-04,1.265377182613314482e-03,1.638287901878356934e-01
-4.278675154588831853e-02,-2.183961737584650120e-01,-5.830189460905636084e-02,-1.853250742909459182e-04,1.691790650683622796e-04,1.576628624771819623e-03,1.684114933013916016e-01
-4.558495152791611910e-02,-2.106538339964433293e-01,-3.217265592308318767e-02,-4.162351476727804049e-04,-5.427517674384930253e-04,3.650918358347504406e-03,1.722874641418457031e-01
-4.094057336166149336e-02,-2.061719676986930039e-01,-3.044737614343299287e-02,1.001754165441306153e-03,1.058406712419654970e-03,1.274338637013345795e-03,1.707529425621032715e-01
-4.911182438046172993e-02,-2.053577548541587472e-01,-2.471737700928321180e-02,-6.945777885178918646e-04,4.219633417953484516e-04,2.350339017288422330e-03,1.698174476623535156e-01
-5.030056943632895544e-02,-1.942792390412282910e-01,-2.414381763628457855e-02,1.439968391446336032e-05,-5.054890026789456321e-04,3.449759226782066809e-03,1.587971001863479614e-01
-4.348326097045179112e-02,-1.995769733975085169e-01,-3.160077921707268866e-02,-3.661773524653061124e-03,-4.761036306145181862e-03,7.786456990534732121e-03,1.632523685693740845e-01
-4.066643609197032744e-02,-2.047641393123511566e-01,-3.126472687384432986e-02,9.624857323607462775e-04,1.048998231279726912e-03,9.400832849681166814e-04,1.690206527709960938e-01
-4.530308021392456114e-02,-2.131707592543225505e-01,-3.744643161291365263e-02,-1.270803989403449831e-03,-1.425559158771601406e-03,-2.424457180876111052e-03,1.720137745141983032e-01
-4.676850184450175724e-02,-2.126167020588000112e-01,-4.688287750624003242e-02,-6.192389951537912232e-04,1.356685418164209475e-03,-6.156287735770708119e-03,1.661536693572998047e-01
-4.662632505287746254e-02,-2.137315168077528194e-01,-4.911459796213487466e-02,1.296101333947175926e-03,-3.766832554643651551e-04,4.328081463517579469e-03,1.660608202219009399e-01
-5.092175287199717654e-02,-1.982311306329967715e-01,-2.387552825328057016e-02,1.871952286956727907e-05,-4.945429317665558889e-04,4.938630195885642619e-04,1.625336259603500366e-01
-4.668823960512177157e-02,-2.076073807667374038e-01,-3.083385815255741680e-02,-1.129244294359696291e-03,-1.577751688563959389e-03,1.284553980503844693e-03,1.694516092538833618e-01
-4.622031570150041124e-02,-2.171796163943443825e-01,-5.360873289623045712e-02,1.029508691664896957e-03,-2.273698064829640132e-04,5.882034982643371580e-04,1.674004942178726196e-01
-5.038221932382599272e-02,-2.190083137558907211e-01,-5.026699268363456902e-02,6.186716508856210731e-03,-1.503877865854992991e-03,7.467842385506129332e-02,2.128530442714691162e-01
-5.997901106274501626e-02,-2.670776024890716416e-01,-6.489313831644775987e-02,-3.070656949034947236e-02,-9.734767864361523401e-04,-6.227728894423635586e-02,2.374092936515808105e-01
-5.061845604200027049e-02,-1.737456172677390442e-01,-3.697040526905537999e-02,-2.650410185170618384e-04,-5.385402846555028405e-03,-1.567776683265397278e-03,1.308495551347732544e-01
-4.743001050360479143e-02,-2.120779023773766148e-01,-3.307549691939812297e-02,-1.270446685144244669e-04,-6.676887851657459997e-05,7.315548743712459081e-04,1.722791045904159546e-01
-4.888376444827493422e-02,-2.155517865923167742e-01,-4.084284836848547234e-02,2.256162177239893693e-03,-2.755938202232239106e-06,1.331961705312671544e-02,1.724255084991455078e-01
-4.654081841571088701e-02,-2.144980659358791952e-01,-4.633152523612311252e-02,-1.119979743995359357e-03,6.109651781274887681e-04,4.598693035765268403e-03,1.682651489973068237e-01
-4.834484078956932662e-02,-2.151481421480521683e-01,-3.616464408193882651e-02,-4.861677723649698553e-04,-1.761327818717690300e-05,4.211694339611546552e-03,1.733704656362533569e-01
-4.574986093881565352e-02,-2.188885773161944326e-01,-5.784952703661729034e-02,-1.599882945197027371e-03,8.509665153517040033e-04,-8.525742661074475325e-04,1.674530655145645142e-01
-2.716677109834310377e-02,-2.019560502694425774e-01,-5.099363232712147975e-02,-4.114520629793241846e-03,-1.466838110871016400e-03,-4.110801998903506108e-04,1.643535196781158447e-01
-3.938996523377406161e-02,-2.087327314984346038e-01,-3.315656540607791330e-02,2.510465456851656142e-04,4.031595524659996994e-04,-2.704600153095187715e-04,1.725465357303619385e-01
-4.733376051165116838e-02,-2.310137507871133367e-01,-4.313038706164021296e-02,2.729262452616181174e-03,2.649599277903893785e-03,7.701473768499899480e-03,1.864119917154312134e-01
-4.455652528864000039e-02,-2.150078498142651562e-01,-4.819339180928201849e-02,7.391031737071047047e-05,1.131213642427132161e-03,2.961133771357585785e-03,1.687516868114471436e-01
-4.508780262507025571e-02,-1.911721707626870548e-01,-3.160272476717044393e-02,-6.713076996773855842e-04,4.491903770262570955e-03,-3.484028764348588020e-03,1.535927951335906982e-01
-5.101646638612612750e-02,-1.989975577753805291e-01,-3.016455721878484597e-02,-1.052674135261494684e-03,-1.273033675346792561e-04,-2.487547469911309626e-04,1.594441980123519897e-01
-4.057380453040643209e-02,-2.029246347984341725e-01,-3.817798782700294880e-02,1.400685444507236287e-04,-4.591315586906286050e-03,-9.617612175703087705e-04,1.637637615203857422e-01
-4.817900244230506612e-02,-2.070154611590115379e-01,-2.640703328806098815e-02,-2.058492336310542819e-04,-8.353151149618195720e-04,5.935262588911420674e-04,1.707761734724044800e-01
-5.157358381081002252e-02,-2.195065969482827284e-01,-3.672898686419451275e-02,-1.073860506989204183e-02,1.287818214066566375e-03,-2.410178580188785530e-02,1.816820651292800903e-01
-4.907530339655453988e-02,-1.585034029448762483e-01,-2.981327342659993718e-02,-6.272531958797596466e-03,2.525298159131196974e-03,-2.170946958447065797e-02,1.265085339546203613e-01
-4.984674930727291120e-02,-1.667074766769731098e-01,-3.570099612545737933e-02,-1.420721880771483531e-03,-1.000236186324393031e-04,-1.277453931806063307e-03,1.245816871523857117e-01
-4.448955479220226966e-02,-2.137624055316740546e-01,-3.874833866222528178e-02,7.335045015286158134e-05,-5.158594964237723374e-04,-3.653593244841457990e-03,1.723338365554809570e-01
-4.793613577150096505e-02,-2.103040980546474481e-01,-2.884794167474367954e-02,-2.209769146676433089e-04,3.428270946644468298e-04,-9.052226112594420572e-04,1.727135926485061646e-01
-4.665848735196027885e-02,-2.084006896971745126e-01,-2.851349362977669000e-02,-8.691356820971982144e-06,-1.112997310486800234e-03,-5.834472507448681868e-04,1.715497821569442749e-01
-4.569028356388271650e-02,-2.111023665373362168e-01,-2.933214327491309725e-02,-4.459823086743368910e-04,-1.012758257574718820e-03,-1.979096168538820120e-03,1.742125302553176880e-01
-4.930559484244481649e-02,-2.004536775031882656e-01,-2.720932570806533501e-02,6.679311625664959354e-04,-1.037481212033019434e-03,-4.762246957333501896e-03,1.635432690382003784e-01
-4.687973695002756180e-02,-1.792274586756486821e-01,-2.881769122437671110e-02,4.093929421399268402e-03,6.915541639146690310e-03,5.383898509599534254e-03,1.432247906923294067e-01
-5.143001979636480092e-02,-1.693545091470109454e-01,-3.171585228164439801e-02,9.525309900239474145e-04,2.248787198099208400e-03,1.113938436272970305e-03,1.290009021759033203e-01
-4.832803981589992026e-02,-2.067822162944755182e-01,-2.825319171842753663e-02,-3.527939424674945718e-04,-5.995367006564432518e-04,-7.465086156047338580e-04,1.693953722715377808e-01
-4.030667346170452303e-02,-1.403222807265293581e-01,-4.417517226150657894e-02,3.091271118487662339e-02,-2.644899426440546104e-03,5.604429790807408801e-02,1.481277793645858765e-01
-5.041418099871089464e-02,-1.303538883206907251e-01,-3.693101579234225884e-02,6.410428926372042577e-03,3.652454280811115103e-03,2.795052106529544861e-02,1.007818952202796936e-01
-4.739575922140820685e-02,-1.373437777651880243e-01,-5.209672757877595317e-02,1.174110434289130089e-02,4.115696041881833356e-03,1.240800566011646296e-02,9.282325208187103271e-02
-4.422047405278906052e-02,-1.491598416607077815e-01,-5.039685410140515298e-02,1.545773710312993389e-03,-6.937859521603857542e-03,-1.049439659108046888e-03,1.027479767799377441e-01
-4.612503510222841496e-02,-2.036354926673028531e-01,-3.249387033013054898e-02,4.652081464498522404e-04,-2.626601917376499094e-04,1.244493098575821972e-02,1.661562174558639526e-01
-4.994287055433885292e-02,-2.044518447017406038e-01,-2.469182611661166482e-02,-6.661849431886823249e-04,2.069629137271767271e-04,2.573708568441025225e-03,1.686223149299621582e-01
-4.865384122051795435e-02,-1.998719386836197154e-01,-2.537936467983734068e-02,-4.975785321644182572e-04,-1.416680458614083798e-03,2.350340345576135657e-04,1.641190648078918457e-01
-4.737955967813810287e-02,-2.035629450238820859e-01,-4.099049149747318460e-02,1.867445560297451707e-02,9.490503791859904864e-03,3.135029141484382831e-02,1.723278015851974487e-01
-4.680932482468461164e-02,-1.931919425686212666e-01,-2.655569203489260149e-02,-8.218868333327561783e-04,3.472097575504355486e-03,6.972104511144884033e-03,1.580723971128463745e-01
-5.379575927431966276e-02,-1.349718826533514437e-01,-4.356483650769320259e-02,3.798921192394470389e-03,1.402826642490727100e-03,2.047662622943660637e-03,8.710062503814697266e-02
-4.389859112408591585e-02,-2.169505200401279921e-01,-5.754441635649176073e-02,9.695261053597523495e-04,1.554683538500878717e-04,1.367793941496339618e-03,1.666740775108337402e-01
-4.654179212826355105e-02,-1.144712208746613974e-01,-4.912042284085044869e-02,3.726759784561557709e-02,2.160088673285811764e-03,2.256788880823935514e-02,1.007692441344261169e-01
-5.297404678878757378e-02,-1.919242663859010711e-01,-2.692712322474745401e-02,1.715524958435105758e-03,-1.602175470836170786e-03,1.972049823396764684e-02,1.574422270059585571e-01
-5.020521379507165982e-02,-2.100918862567710543e-01,-2.682591344455981242e-02,-2.024692129408014064e-03,3.753147104829653393e-04,6.706314096291077220e-03,1.731936037540435791e-01
-4.596413994128567548e-02,-2.065646708548350974e-01,-2.716795507555740119e-02,6.589503679103401036e-05,1.284216307644330500e-03,1.584316884507554332e-03,1.708127558231353760e-01
-5.583766089560748130e-02,-1.538025414813478930e-01,-3.619589844335027728e-02,5.315052236337466755e-03,2.103054119024243621e-03,1.304560145826419090e-02,1.118735894560813904e-01
-5.023502186652934604e-02,-1.559161182460188089e-01,-3.695259199207180656e-02,9.822899125367249087e-04,3.863459195391407992e-03,8.342389041724889570e-03,1.140398159623146057e-01
-4.518066313759058067e-02,-1.120952489565420346e-01,-3.809969950041318387e-02,2.363233749328606803e-02,8.132215472538232431e-03,4.210516682044374015e-02,1.104260757565498352e-01
-2.941749504801681458e-02,-4.647663322486818294e-02,-2.489863157312333791e-02,2.663588363132646068e-03,-4.740820192121731474e-03,6.690808214392742620e-03,2.472919784486293793e-02
-3.224095959091258234e-02,-1.336779091234779338e-01,-5.056292973148435871e-02,3.017120545747968563e-02,-4.930968731667694296e-03,-5.459749786600782626e-03,1.079810112714767456e-01
-3.759545871847577714e-02,-1.607550950635556752e-01,-5.281440749084630182e-02,1.452534071201864313e-02,-3.766007433980199902e-03,-5.138189773540256518e-05,1.191682219505310059e-01
-4.656273587450381751e-02,-2.146025649745046393e-01,-4.635092240626922239e-02,1.038941133732960265e-04,4.216563342772035089e-05,4.616779159740530374e-03,1.683359891176223755e-01
-3.731885750570826388e-02,-1.518369750143155894e-01,-5.460665140667257667e-02,9.182111061782235323e-03,-5.183466080019012538e-03,-6.873487506738918361e-03,1.091273277997970581e-01
-3.867042597396724846e-02,-1.520754967913080236e-01,-5.550087346091175933e-02,1.487652391973234844e-02,-1.281476835270335679e-03,-1.660941611524808311e-04,1.091066375374794006e-01
-5.406767802295215503e-02,-1.045628435451454730e-01,-6.101576997331135954e-02,2.381986459283440272e-02,-3.573042424032315569e-03,-7.944371099448215706e-03,6.462963670492172241e-02
-4.630220400282228366e-02,-1.205823019738689328e-01,-5.787114401026479532e-02,1.507822638124019232e-02,-3.370189139275270567e-03,-2.750705095370847061e-04,7.421854138374328613e-02
-4.765666462785513036e-02,-2.186929064927405908e-01,-5.835644711803353313e-02,-7.915825918624970394e-04,1.205072031279460750e-03,1.593722855329666359e-03,1.659870147705078125e-01
-3.357427200420234903e-02,-2.085651381767294754e-01,-4.082915881227183741e-02,2.904757473276419898e-04,-1.432686508301435086e-03,-3.876235011750582397e-04,1.714985668659210205e-01
-4.867248309634752274e-02,-2.195909690532573399e-01,-5.392381373081925333e-02,6.277527328445476305e-03,2.423267833051386444e-04,7.556845414952534368e-02,2.135259360074996948e-01
-5.315389852438395790e-02,-2.503264295834776165e-01,-5.824086170507644655e-02,5.847228157003281357e-03,5.205723909953403200e-03,-6.808630192636645762e-02,2.280153036117553711e-01
-3.734466068519073229e-02,-2.116656843212201267e-01,-3.759199722783176240e-02,1.326730485063519656e-04,-1.391261692181258681e-03,-1.978959569580858685e-04,1.742146462202072144e-01
-3.668328415251924379e-02,-2.115271150030255953e-01,-4.077953144163021931e-02,6.749662257189100768e-04,-3.085024224691932174e-03,-8.099839092455189508e-04,1.729243397712707520e-01
-3.580730929636176396e-02,-2.084300755283694517e-01,-3.800405087349580796e-02,1.332930629587968964e-03,-2.865299258703192953e-03,-3.669566400769052575e-04,1.716234236955642700e-01
-5.001347928671534548e-02,-1.825062472603436736e-01,-2.693152856589544480e-02,-2.324976318704909117e-03,-7.288019279541115317e-05,9.850838963939394233e-03,1.464672386646270752e-01
-5.007003941732210417e-02,-1.979573181983356467e-01,-2.694596746271142595e-02,-1.031955828867685623e-03,1.617797461095701471e-04,1.262754411847136216e-02,1.621935963630676270e-01
-4.880056032595184168e-02,-2.369101510036476510e-01,-5.662601079526941722e-02,-2.366348096289644549e-03,2.407281703821182589e-03,-8.815348096666611975e-05,1.844142675399780273e-01
-5.132404740473707483e-02,-1.506998093670410543e-01,-3.357528628112685376e-02,-6.788628919151730315e-04,-1.449373284273420019e-03,1.520007593021888148e-02,1.124951913952827454e-01
-4.401204424360840445e-02,-2.059409888139563383e-01,-3.143097114535368247e-02,4.743214606212998790e-04,3.967825460235118590e-03,3.630047158939752380e-03,1.688311100006103516e-01
-4.683828526351160176e-02,-1.123062270649655692e-01,-4.790198343150326582e-02,-2.255536075335713014e-02,-7.078239190800802733e-04,5.668752179749739217e-02,1.240391284227371216e-01
-4.811360175568769187e-02,-2.088202821967531930e-01,-2.738689500135384203e-02,-1.702079221051294136e-04,-3.918861780637385400e-04,-1.051565489733014957e-03,1.720204055309295654e-01
-4.503567434660769170e-02,-2.261357399028204596e-01,-4.535657013165562274e-02,-8.407585934037738185e-03,3.110383626331312754e-03,-4.528753342013885907e-03,1.817741394042968750e-01
-4.610850121244549488e-02,-2.163795604825992647e-01,-4.798784813378422637e-02,1.970996253880982242e-03,-4.871715117311600524e-04,7.014203488712189311e-04,1.693800687789916992e-01
-5.150083381726403009e-02,-1.198169592212953438e-01,-3.672140601462040022e-02,-1.040206911351751473e-02,-3.030090246395592338e-03,2.834012356697827861e-02,9.304213523864746094e-02
-4.462171571453557584e-02,-2.144594041576468879e-01,-4.198162082835730363e-02,8.469882257735677177e-04,3.120745663787203119e-04,-3.004333487034021276e-03,1.712592244148254395e-01
-4.932404459462544355e-02,-2.100096006046463515e-01,-2.895069805463668100e-02,-1.089960677392740919e-03,-3.618765010715028281e-04,1.188337310655676604e-02,1.730208843946456909e-01
-5.279874636715519570e-02,-2.120501519052104267e-01,-4.640861453855964214e-02,5.718085690852551275e-05,6.615658797510158779e-04,4.122497910778519367e-04,1.625463515520095825e-01
-3.806949266826351042e-02,-1.634671662406413650e-01,-5.057772995487237744e-02,5.433955978923384056e-03,-7.045542011944408260e-03,-1.056186188370125244e-03,1.206373795866966248e-01
-5.877877199206023306e-02,-1.432739147402517510e-01,-3.423272602586217850e-02,-1.039239462228955246e-02,-1.379244871386841112e-03,2.892356079258340956e-02,1.124961748719215393e-01
-4.672587036743960226e-02,-2.111937357406681870e-01,-2.939387914755094144e-02,4.807094210740419347e-05,-5.714067940611276125e-04,-1.905461290578092408e-03,1.738174706697463989e-01
-4.877765107104596598e-02,-2.041064444815513523e-01,-2.898549904397879073e-02,-1.367334294354178290e-04,1.191004974963846483e-03,-1.702191241874615206e-03,1.661507040262222290e-01
-4.197575147760086722e-02,-2.490951228122491867e-01,-2.467770996681750706e-02,1.097739377408398723e-03,1.136381331199251728e-03,4.687428035948877983e-03,2.164574414491653442e-01
-5.541101993872631082e-02,-2.036404160132513075e-01,-3.160891501038468054e-02,-8.276621928400763233e-04,3.029103977559485621e-03,-6.575428971594614140e-04,1.615473479032516479e-01
-4.657131170831708272e-02,-2.041160444280046837e-01,-3.045347995279568121e-02,-1.160622732889915899e-03,3.346606400003410836e-03,-4.966614712519806015e-04,1.663063019514083862e-01
-4.405014806950534323e-02,-2.218562952652285425e-01,-5.732230718619153731e-02,-1.384310025713883204e-03,4.886537158581153242e-04,-1.693525397274773820e-03,1.715994626283645630e-01
-3.684034589394783593e-02,-1.556242060859909793e-01,-4.174349625739486036e-02,2.624797045619000138e-02,1.109039747856619719e-02,2.064593363632937634e-02,1.313996016979217529e-01
-4.417837335125179843e-02,-2.163601615237469855e-01,-5.579251171525399788e-02,3.986885526154657728e-04,-2.004272186377319262e-04,-8.691558174664553490e-04,1.666870564222335815e-01
-4.589292299482486404e-02,-2.162757848887441048e-01,-5.452716098885924262e-02,-2.625631177935791767e-03,2.051015386925579033e-03,2.814598128264061451e-03,1.664055585861206055e-01
-5.054901444605853361e-02,-1.944479492980748514e-01,-2.449092043136709418e-02,7.768628750430556099e-05,-6.558843475815650083e-04,4.389151796691995351e-03,1.587285846471786499e-01
-3.795745746312183255e-02,-8.017337554662265497e-02,-4.715314570283282714e-02,-2.214002047472185195e-02,-6.638876439003231489e-03,-2.985668093872223885e-02,7.586546987295150757e-02
-4.354078136972588942e-02,-2.323312651421035879e-01,-4.894519248868482719e-02,-3.346229096406280572e-03,1.437476733966394421e-03,-4.857197426508796381e-05,1.862539947032928467e-01
-3.690504524752168114e-02,-2.040831633092458630e-01,-3.638268583074942553e-02,4.792352548534920442e-04,2.576635546493478805e-03,6.526783050748601912e-04,1.675052493810653687e-01
-4.918056660073050201e-02,-2.581980204886872299e-01,-5.893844968557485076e-02,1.540174611794919036e-03,-1.201192340648763552e-03,1.229624019537841739e-03,2.043524533510208130e-01
-5.043699815721668783e-02,-2.003027668607044176e-01,-2.591574092251591743e-02,-5.696663052998794836e-04,-1.179163612805342494e-03,1.803289647004188852e-04,1.635273098945617676e-01
-4.675475167292017509e-02,-1.990833528458715862e-01,-2.537864866133179853e-02,1.186553057015953937e-03,1.412949376761798125e-03,5.841029841560885184e-04,1.640986502170562744e-01
-4.662536524183510250e-02,-2.228516167251489155e-01,-5.589850308023872061e-02,1.475924965990922221e-03,-1.151655084739462969e-03,1.872094288379617423e-03,1.718387007713317871e-01
-4.625618929014263525e-02,-2.143195656143034034e-01,-4.581168916094257443e-02,1.173533882107401921e-03,1.479727993617312252e-04,3.532071691119332679e-03,1.684096902608871460e-01
-4.673620539050410416e-02,-2.091014871584599422e-01,-2.571260408165701450e-02,-3.886245753899106423e-04,1.035179127804210794e-03,3.183639166250525326e-03,1.739311814308166504e-01
-3.250525322569346176e-02,-2.091791070141527098e-01,-4.366832044647721289e-02,2.401122638359111557e-03,2.404184025372387533e-03,1.518391994666701663e-03,1.714864224195480347e-01
-4.411173578817965263e-02,-2.183585735317306875e-01,-5.542203458341365963e-02,-1.755565838153692231e-03,-2.447628655482242573e-03,-1.122277300360498276e-03,1.689677387475967407e-01
-4.629278726990664755e-02,-2.242981475764652399e-01,-5.414970383653040092e-02,-4.617535955230400724e-03,4.190053577331482974e-03,-2.996718107375069117e-03,1.746214181184768677e-01
-5.035821258723466309e-02,-2.521682683150339721e-01,-5.510072548765734823e-02,2.372171580822608934e-03,-7.071689801740920541e-04,1.307609597935851164e-03,1.995400041341781616e-01
-4.030710746662037602e-02,-1.568590360747525447e-01,-3.489921734900421069e-02,2.872967742063637503e-02,4.306554782853073797e-03,5.209276185281115634e-02,1.578502058982849121e-01
-4.927419914331002126e-02,-2.006294280509275940e-01,-2.381293832070242866e-02,4.647561900734391727e-04,4.986310543136755836e-06,1.519692147386642175e-03,1.655836701393127441e-01
-3.670864230695373986e-02,-2.055231284994349650e-01,-3.336708301743532973e-02,4.906300428233879938e-04,2.556632380683842611e-03,1.224417953797414093e-03,1.705826222896575928e-01
-4.511381567423393413e-02,-2.139574257207281227e-01,-3.667634438727012530e-02,-1.213591531627588281e-02,6.338972385285840568e-03,-9.131767195014066363e-03,1.755463629961013794e-01
-4.546639243995261731e-02,-2.130370135913365326e-01,-3.862224086792229866e-02,-4.370568438097548821e-04,5.610836521204883411e-04,1.675511800875264948e-03,1.711244434118270874e-01
-3.604407772239131419e-02,-1.939592425455472779e-01,-3.652965968283634207e-02,2.317446504906320174e-04,7.782765122279975724e-03,6.587107136985072622e-04,1.582527458667755127e-01
-4.589926612146815604e-02,-2.254986384082744433e-01,-4.825712807423521850e-02,6.110489176670697150e-04,3.416562321056323178e-04,1.378750918847034468e-03,1.784522235393524170e-01
-4.428415131937687987e-02,-2.210608595960640854e-01,-4.649285208235281325e-02,8.390601692087577704e-04,-1.848066041364276304e-04,-6.559403079564874763e-03,1.760560423135757446e-01
-5.584852411056544230e-02,-2.148457946575412780e-01,-4.617601197737837559e-02,9.244994457453886922e-04,-1.184454538248162336e-03,8.365727263307886448e-04,1.640745699405670166e-01
-4.595545087848081078e-02,-2.130885981625769143e-01,-4.583129716249031982e-02,-3.661088448891314153e-03,2.063569844746894737e-04,-6.753226353664426931e-03,1.677242070436477661e-01
-5.026540157569786560e-02,-2.164208627790368267e-01,-3.564574873343112627e-02,2.263791321075069984e-03,4.919130686361900331e-03,-4.748880238299972231e-03,1.743735373020172119e-01
-4.322306974180523814e-02,-5.641225495569836268e-02,-4.084907991411136641e-02,1.896723606895340045e-02,-9.585448213923476691e-05,3.069592049723614963e-02,6.416319310665130615e-02
-4.526006336543469261e-02,-2.143304050957000606e-01,-3.681016070217479896e-02,-5.769704661285405406e-03,2.725011655560514133e-03,-2.049984659010759686e-02,1.773913353681564331e-01
-3.788853367262554755e-02,-2.116436239382324391e-01,-4.500337533937351364e-02,2.629153214065536523e-03,4.728096706789660102e-04,-8.600085643344352986e-04,1.703785210847854614e-01
-4.396842836676902178e-02,-2.145333740177273740e-01,-4.123417937723201920e-02,-6.813264525652961128e-04,4.904609420471404101e-03,-2.061866482757784575e-03,1.721991747617721558e-01
-4.637133094104287090e-02,-2.130147357113015283e-01,-4.506647240801246040e-02,-3.417184228722923282e-04,5.220299271932269530e-04,2.814317582403443822e-03,1.673741340637207031e-01
-4.980306282259361339e-02,-2.171866916364164068e-01,-4.847638638307016912e-02,-7.396190644163436320e-04,-1.879244232157666322e-03,1.148280603229109680e-03,1.680990606546401978e-01
-4.529162712876983604e-02,-2.111662865833621727e-01,-3.604832316209716225e-02,9.083416666391511173e-04,3.025456529194715978e-03,-2.470735330286364610e-03,1.708254069089889526e-01
-4.679122493204181804e-02,-2.144383659994629210e-01,-4.369234398007044301e-02,-8.347226874970542759e-04,-1.364162415580706927e-03,9.840836103567846081e-04,1.692491173744201660e-01
-4.460594079988033922e-02,-2.121805009992525637e-01,-4.340107349709784734e-02,3.067388988678165264e-04,-7.755522043873701917e-05,8.931177724302778557e-04,1.681882441043853760e-01
-4.928762838648483718e-02,-2.129874861855392543e-01,-5.091038697480898545e-02,1.967568780986518780e-03,-1.398325198240450706e-03,1.208852466829997679e-03,1.629616320133209229e-01
-4.632239743056412729e-02,-2.178943943088104684e-01,-5.718968258427106766e-02,1.383972894230132023e-03,-1.796148288994085405e-03,6.969118259373212852e-04,1.664554178714752197e-01
-5.979442843413385056e-02,-3.408518603086347354e-01,-5.112451519507722753e-02,-2.542886129855301616e-02,-5.777520095871659968e-03,-2.380805237277419661e-02,2.919686436653137207e-01
-4.565605692663297910e-02,-2.194470607629022130e-01,-5.582149014346110549e-02,-1.498684693598940996e-03,1.397456024388272263e-03,1.801612748601241721e-03,1.690039187669754028e-01
-4.576701037517490189e-02,-2.121364520907608742e-01,-3.083493530150366313e-02,4.553026619812989184e-04,1.964327702820385310e-04,-1.973097337863320699e-03,1.743514090776443481e-01
-5.017909922971014458e-02,-2.063971161274522348e-01,-4.419286941299236521e-02,-7.788015219361329143e-03,1.001971802965578168e-02,-1.562344037658710758e-02,1.630658805370330811e-01
-4.400620706585382097e-02,-2.183017627124915205e-01,-5.686765221238802154e-02,7.467168830562059280e-05,-1.221889537936524193e-04,-1.514676947353808421e-03,1.682545989751815796e-01
-4.716777516708440393e-02,-2.472185710582893714e-01,-3.306071832528674481e-02,2.139873420662760997e-02,6.044874958303059730e-04,3.041091283583809493e-02,2.172342985868453979e-01
-4.542923538758330410e-02,-2.127859595390487468e-01,-3.319967897156939074e-02,3.740627679940191123e-04,5.938774985846954815e-04,7.763006885303003245e-04,1.738039702177047729e-01
-4.540709365146612664e-02,-2.222045580796571107e-01,-5.771006667579534760e-02,-8.422103582507080993e-04,5.133260509950080593e-04,-4.313655993797837216e-04,1.709884405136108398e-01
-4.849375627980767600e-02,-2.528893825226419256e-01,-4.690501689872864088e-02,1.707518290649787432e-04,6.065845661197412191e-03,-2.562284969944799221e-02,2.102020233869552612e-01
-3.092962408493154375e-02,-2.028243222472929652e-01,-3.891160868058488043e-02,1.079704596812396502e-03,5.899809316048631493e-03,5.824512874988095872e-04,1.683697551488876343e-01
-3.510074836574095247e-02,-2.099239266685028471e-01,-3.607943821177781590e-02,9.441359847515530329e-05,7.093118470347573425e-04,4.796666897490773642e-04,1.743422746658325195e-01
-3.631152209406330461e-02,-2.096808423239811536e-01,-3.499594126657112197e-02,1.885665075078234827e-04,5.037853730398668753e-04,-2.250317044529786376e-04,1.740337759256362915e-01
-3.631477170003252763e-02,-2.098143048329346450e-01,-3.543889441405697477e-02,1.758382699225799939e-04,8.699858297958261400e-05,1.152886284270106363e-04,1.739395707845687866e-01
-3.530428207682388686e-02,-2.056271756693425212e-01,-3.778807492667980023e-02,7.855928900798744927e-04,3.812752699085350354e-03,7.725987012512629953e-04,1.692343503236770630e-01
-4.563963351721058576e-02,-2.140473862134801841e-01,-4.512733865519190368e-02,-4.392742375408049743e-04,6.918570710988801876e-04,2.607462024227456907e-03,1.687309145927429199e-01
-3.719297917353752564e-02,-1.378522723596103117e-01,-4.837463901923913512e-02,-2.118717106950016027e-02,-5.967265017235673201e-03,1.681154947955493945e-02,1.069260612130165100e-01
-4.607935826238433730e-02,-2.096828598429590906e-01,-3.019696266498012038e-02,4.020190550800983880e-05,1.213419823353272149e-03,2.120940807812366456e-03,1.721472889184951782e-01
-3.631524045494544106e-02,-2.094143724368672799e-01,-3.480292307432092391e-02,-3.060094699505060177e-04,1.039699988621723813e-03,2.281664855637416368e-04,1.738708019256591797e-01
-3.775965643739237487e-02,-2.097106376889759094e-01,-3.352144652030979166e-02,-1.090741042664869980e-04,7.396234825873641838e-04,3.874004669691252442e-04,1.741148829460144043e-01
-3.779666553553382574e-02,-2.075752945342949074e-01,-3.318687419398239774e-02,5.612633903426042644e-04,7.564434782994825749e-04,3.077130082051425519e-04,1.721383780241012573e-01
-4.427820746439409261e-02,-2.173788699512513856e-01,-4.625091192944739971e-02,1.239667783807476241e-03,6.313755238471418715e-04,-2.494972836804813625e-03,1.721938848495483398e-01
-4.529928132315568651e-02,-2.147834056120787871e-01,-4.714503307061648080e-02,-1.714667060073270442e-05,4.675111211203336419e-04,1.181049042871923013e-03,1.685831844806671143e-01
-4.593556979575647015e-02,-2.150598161315581125e-01,-5.394844143456318381e-02,3.137892789901293119e-04,-8.639317749806254285e-04,1.001222255496894871e-03,1.652803272008895874e-01
-4.219191825650495109e-02,-2.102382227693846417e-01,-3.462872611267720641e-02,2.643699258161898548e-04,9.730110870382709847e-04,1.233291773309633417e-03,1.719748228788375854e-01
-3.504294688983321249e-02,-2.121584509622425618e-01,-4.551650133629454170e-02,-1.383480748083763150e-04,7.349563301822158124e-04,-3.938187959036721134e-04,1.721241176128387451e-01
-3.235633705825687739e-02,-1.727958856378613295e-01,-5.340635924727273054e-02,9.570053345357499349e-04,1.954435315965314703e-03,1.333444443281005904e-03,1.312617808580398560e-01
-3.410963901946138105e-02,-1.898983589383385073e-01,-3.956104912124308592e-02,1.596359993894781249e-03,7.322087825115872889e-03,4.072571658397475952e-03,1.538467258214950562e-01
-3.440392544863941221e-02,-2.090404038451655622e-01,-3.937456309293725643e-02,5.408064430461024218e-04,1.484228732246017706e-03,1.446264749169489522e-03,1.722449213266372681e-01
-3.525792355285212176e-02,-2.043050928667727861e-01,-3.429143676066333246e-02,1.286560090289367089e-03,2.272489096261565925e-03,9.596273305114002639e-04,1.696009486913681030e-01
-3.749986204928311417e-02,-2.098364973414653667e-01,-3.648755788045834891e-02,-2.501343654444399553e-04,1.286684630384828500e-03,4.265332769567493676e-05,1.728599369525909424e-01
-4.625723139136903028e-02,-2.175075834518865325e-01,-5.329555846065636704e-02,5.511250285337033605e-04,-6.813509369534935783e-04,-9.945946496867322673e-04,1.678576022386550903e-01
-4.179689832331293792e-02,-2.063494737878157070e-01,-3.840939344744374179e-02,2.463026340066689843e-02,4.303749491685637460e-03,2.923529461771978005e-02,1.791258603334426880e-01
-4.595939174161781104e-02,-2.264797239843487908e-01,-4.715867251089653905e-02,1.857439122207658888e-02,3.198948525952350751e-03,1.698345968066175202e-02,1.852122396230697632e-01
-3.983508956067391416e-02,-2.386696509877255234e-01,-4.770616752096631247e-02,2.298591122091735162e-02,3.591496429789818329e-03,8.066526995949185180e-03,1.996272802352905273e-01
-3.637053273857108332e-02,-2.076438104347849700e-01,-4.548997365327685921e-02,5.573510674522656749e-03,3.322087383476771648e-03,4.587130117920608201e-03,1.674670428037643433e-01
-4.602009916750222918e-02,-2.102216198878435194e-01,-4.594648038818041624e-02,3.471347462475661018e-04,9.963916130327336342e-04,-9.387038522482467611e-05,1.642485857009887695e-01
-3.592042115113482093e-02,-2.082723535811166204e-01,-4.349955116843955832e-02,1.361778065081464123e-02,6.372284265383562109e-03,3.969091691976496181e-03,1.708267033100128174e-01
-4.719279707362021570e-02,-3.216014327891142388e-01,-5.624615003113160594e-02,2.475026156860127280e-02,8.190626820862047935e-03,1.066296846740999102e-02,2.743680477142333984e-01
-4.730502832671786007e-02,-1.511841142259696680e-01,-3.968795548621278924e-02,3.146157438752888742e-03,-4.353094498844822281e-03,-1.428421540853669174e-02,1.110801473259925842e-01
-4.044662826705280184e-02,-2.034635649630032739e-01,-3.871013505296842100e-02,8.100983553686420466e-04,6.896521517831375077e-03,7.243975973549801476e-04,1.643375903367996216e-01
-4.788324962515673466e-02,-8.630518371984416404e-02,-4.937936530805667884e-02,-3.572666705816038811e-03,-4.765913204566793286e-03,-1.251537115787246073e-02,4.469157382845878601e-02
-4.574507198364680116e-02,-2.001067573569976221e-01,-3.117281979464112118e-02,-1.895437864734102933e-03,-3.470539818206479481e-03,3.466492691595416190e-03,1.623953133821487427e-01
-4.926284878355351865e-02,-1.737510380149687728e-01,-3.181609226957730213e-02,6.545411917731901001e-03,-2.544565937882280020e-03,-2.038627634447648385e-02,1.391702741384506226e-01
-4.633591962785958696e-02,-2.116291174050695112e-01,-3.746988068062221539e-02,-1.336687353629178489e-03,8.219504523904126768e-04,9.669947282216918155e-04,1.699298024177551270e-01
-5.192304413345770475e-02,-1.824951231275884211e-01,-3.181112254770510073e-02,2.005608032856471916e-04,1.957716872770106156e-03,-7.350579780740203704e-03,1.423141807317733765e-01
-4.571595039696415425e-02,-2.137805443461212596e-01,-3.809075123480737401e-02,4.463368697404443007e-04,6.030041389528811857e-04,-7.137257944290842718e-04,1.720133572816848755e-01
-5.002539865557682763e-02,-1.781333135732811601e-01,-2.983365587616153974e-02,1.079258951976648593e-03,-2.923263883090352309e-03,-8.943268627556569955e-03,1.402681171894073486e-01
-5.097904292287133710e-02,-1.760582849409898232e-01,-3.739687167255625888e-02,8.898658386029467335e-04,-5.267235015575067597e-03,-1.658681856342173995e-03,1.327478885650634766e-01
-3.856769049099887520e-02,-2.058281855921765824e-01,-3.642573278807116621e-02,-1.400985106943403559e-03,-3.231660320280796157e-03,1.121784352517599115e-03,1.684634089469909668e-01
-3.594251698258339733e-02,-2.003770801487468334e-01,-4.214081593366055672e-02,-2.243838757770243858e-02,5.567850000214232334e-03,-9.519748663823584395e-03,1.671324372291564941e-01
-4.531920100733378975e-02,-2.130305551560421895e-01,-3.213514780914486502e-02,-2.879151857021212393e-04,7.932989863307369268e-04,-7.368402576745878294e-04,1.746877133846282959e-01
-3.433927808274460369e-02,-2.091614468555490769e-01,-4.537190184836024931e-02,-2.762684797673462716e-04,4.878332517084096008e-03,-1.710467296860321935e-04,1.697865575551986694e-01
-4.032717102853053404e-02,-2.155171107753439952e-01,-3.934653951727528493e-02,5.497156756515682134e-04,1.353891094025182250e-03,5.459373925547658483e-04,1.757030785083770752e-01
-4.820493496512496395e-02,-1.957108665659263447e-01,-2.449925111284939616e-02,-1.302453784814563888e-03,-1.952672250556013568e-03,4.224320354070295810e-03,1.608936041593551636e-01
-3.656345876639391368e-02,-2.014000955136800997e-01,-4.186063152793465664e-02,-2.247488663809763670e-02,6.630285638402106871e-03,-1.189024579607960569e-02,1.685152351856231689e-01
-4.337068371999888011e-02,-2.141708472728592882e-01,-4.282195486191490985e-02,1.498353982555083747e-03,8.153466718396286308e-04,1.077497331158637148e-03,1.711108833551406860e-01
-4.364155359474888168e-02,-2.141270682380052026e-01,-4.435520902665235354e-02,5.847886046894889504e-04,-1.903954700652924045e-04,6.518655755772629961e-04,1.701368838548660278e-01
-4.516799508066290936e-02,-2.135378383101867450e-01,-4.586485356706371252e-02,4.581735618310653737e-04,-5.748291513363472166e-04,2.112802352383394162e-03,1.680671721696853638e-01
-4.312844473178320537e-02,-2.148282261197639875e-01,-3.652624782381844182e-02,8.323529023137907039e-04,3.057717611202760439e-03,-1.713287718101627610e-03,1.752054095268249512e-01
-4.768369678915809762e-02,-2.128726388223532440e-01,-4.704210721785109101e-02,1.457701430578811370e-03,-1.070506101901908935e-03,1.635532158613522144e-03,1.655645519495010376e-01
-5.229110156732372922e-02,-2.455765669502351645e-01,-4.584999138400809582e-02,-7.975582323959500008e-03,-1.585663090417150072e-03,2.795932374849395899e-02,2.029514163732528687e-01
-4.120018898360810339e-02,-2.084310844084101277e-01,-3.084047727451033616e-02,2.018105142667957815e-04,1.056998139615775503e-03,1.308695168429078320e-03,1.726689636707305908e-01
-4.683881748676031048e-02,-2.156860999884756547e-01,-4.305017891016368198e-02,-2.278455991392296792e-03,-2.084161458600085109e-04,9.515500864241810798e-04,1.708270460367202759e-01
-3.889708877720635810e-02,-2.107880019420138307e-01,-4.203420017800393177e-02,4.100017634544399735e-04,6.606655774417866112e-04,8.215988557837521208e-04,1.703552901744842529e-01
-4.615663884076559587e-02,-2.029168677439771862e-01,-2.623226176094335671e-02,-2.949711412152037152e-03,-2.424208662472662409e-03,3.039915841677999237e-03,1.678259670734405518e-01
-4.354217296850103336e-02,-2.266479878347299470e-01,-4.388896956782116499e-02,-6.232110641506890050e-03,-7.832518280983902063e-04,6.145658879062715005e-03,1.835647672414779663e-01
-4.300221594371292366e-02,-2.393789660347862003e-01,-4.979179979118478205e-02,-5.593092878664851844e-03,-1.877020234094808502e-03,4.708365703656053509e-03,1.935136467218399048e-01
-4.498931548941859093e-02,-2.101589877387070593e-01,-4.668560323535785733e-02,4.939751538866655762e-04,3.506727615137567359e-04,-3.538127133375068003e-04,1.643325835466384888e-01
-4.422701518021240896e-02,-2.317702567603071862e-01,-5.470525496138626403e-02,-5.711732749104581931e-03,1.097456454347588107e-03,1.587241554297670349e-03,1.828282773494720459e-01
-4.925690678445603099e-02,-2.200815115558587554e-01,-4.646183188005822973e-02,-1.630074223511213680e-04,-8.722356904505660377e-04,-1.069455953427386221e-04,1.722461134195327759e-01
-4.889403415063297426e-02,-2.054103790801668494e-01,-2.466510543204206152e-02,-2.863231206041472231e-04,7.542162742760861538e-05,1.599148876038311877e-03,1.699545979499816895e-01
-4.361827549120329828e-02,-2.128602009787027294e-01,-4.430459522630831454e-02,-1.143318776510635326e-04,3.010254520814260176e-04,1.488400652166177581e-03,1.689204126596450806e-01
-4.583776074335064316e-02,-2.218988796364830818e-01,-4.749932774656099449e-02,-1.366999450747206034e-04,-7.990472070720299825e-04,-1.530082282146334391e-03,1.752618998289108276e-01
-4.372003941155917089e-02,-2.111201326012702995e-01,-3.933086848857601098e-02,-1.681367458712787390e-05,5.223416521502365420e-04,1.649213440552039145e-03,1.696637272834777832e-01
-3.955638460296453246e-02,-2.110795414795423319e-01,-4.076455086867703664e-02,1.993727981599407973e-04,6.706165453084461485e-04,5.858510727493298608e-04,1.709295809268951416e-01
-4.586527534079243296e-02,-2.494842155924091587e-01,-3.973603603157524478e-02,-9.412965352444489092e-03,1.229148763815683014e-03,4.616046736635812629e-03,2.075585126876831055e-01
-4.517046617342221349e-02,-2.424440268386362507e-01,-4.685330478023205791e-02,4.570682562516106134e-03,-2.267996870557374006e-03,5.557447084171537877e-03,1.968717128038406372e-01
-3.771596296774334944e-02,-2.454836793540717266e-01,-4.344791657353141989e-02,-2.636236480668747995e-02,4.213276173170386191e-03,-1.035224045756302606e-02,2.108768522739410400e-01
-5.437214999738750054e-02,-2.167174650248657464e-01,-4.570080680372014953e-02,1.306059355651248942e-03,-2.866209598740977575e-03,1.535349425583267284e-03,1.669604182243347168e-01
-4.469400480968144240e-02,-2.190720293640034677e-01,-5.952952094847738240e-02,-8.279101196896100634e-04,-8.809516163929966915e-04,1.029180120943335407e-03,1.674764454364776611e-01
-4.572071086960093067e-02,-6.185298960170607097e-02,-4.850023480812967747e-02,1.708374337535097792e-02,-5.213042428891626404e-03,-1.399405203277755312e-02,4.204434528946876526e-02
-4.463624729050263279e-02,-2.118388272726139665e-01,-4.167660557459951925e-02,-1.388514469903665872e-03,-1.125246239942752862e-04,1.829730074743053658e-04,1.687194257974624634e-01
-5.618625639614641121e-02,-1.273292060213310761e-01,-5.838606105681035802e-02,-8.769569590535992998e-03,-4.276941177850245197e-03,7.133431751369910274e-04,7.208867371082305908e-02
-4.183352026909741006e-02,-2.130111277535245706e-01,-4.063103340293222621e-02,-2.121736187913078608e-02,5.671402374055412379e-03,-1.438847465205874733e-02,1.776996552944183350e-01
-4.793649192657230274e-02,-2.127119136344423622e-01,-5.269564481820870894e-02,1.289477088774013125e-03,-1.955896550635467281e-03,1.267928327915688724e-03,1.625136435031890869e-01
-4.573042593778564591e-02,-2.138603770868682807e-01,-3.810531794697316621e-02,5.798561963861307861e-04,5.864782695649328531e-04,-7.101181506288176126e-04,1.720795929431915283e-01
-4.540337902003580700e-02,-2.167698527460710511e-01,-4.489191212331578029e-02,-7.609096709962852702e-04,1.610179043220411402e-03,1.812913552983729318e-03,1.716792136430740356e-01
-5.481033712886491244e-02,-1.156394842697320569e-01,-5.140472449808569655e-02,1.091486987331864288e-03,-5.108113736863878138e-03,-8.758030547908777358e-03,6.504540890455245972e-02
-4.945681062059639754e-02,-2.034935766382010569e-01,-2.444585087437482762e-02,1.473306135977577416e-04,-1.469010412582127836e-04,2.056547040982649281e-03,1.679830253124237061e-01
-3.873630668441439134e-02,-1.926555068248783087e-01,-4.607843945481217285e-02,-3.808305942663512138e-04,4.778786213100066384e-03,-1.325497516671929061e-04,1.506118476390838623e-01
-4.905694924763272236e-02,-2.014220995154146765e-01,-2.406820508495964572e-02,3.050199619269530911e-04,-1.590092304215477226e-04,1.994818966613874211e-03,1.663108021020889282e-01
-4.141547837023708267e-02,-2.141622386434664516e-01,-3.683054811427489972e-02,4.232327846032138906e-04,1.338230604544180490e-03,-8.475850887829031318e-05,1.751011908054351807e-01
-4.176886225932991553e-02,-2.123778573241286716e-01,-3.793045923288968641e-02,2.910852652216429966e-04,5.050151172345453132e-03,3.913311039138911884e-04,1.727838367223739624e-01
-4.795271901911686563e-02,-1.257754205804511860e-01,-5.238252731258723205e-02,1.091550358167028140e-02,-4.492068372683224661e-03,-1.072169096217487870e-02,8.058598637580871582e-02
-3.963363728987366608e-02,-1.291992734052183622e-01,-5.257801072265755327e-02,2.754026639438215268e-02,-3.925685591174600531e-03,-5.095494904342140127e-03,9.710671007633209229e-02
-4.770033660525027641e-02,-1.017310860327087230e-01,-5.606862877293501690e-02,3.403454137611852670e-02,1.972112212070913605e-03,2.527129382987455472e-03,7.773726433515548706e-02
-3.974746987035555207e-02,-2.144682310944527326e-01,-4.159040390536375420e-02,1.644581229540258160e-05,5.096448283954621052e-04,7.538097316949808960e-04,1.738137751817703247e-01
-4.320803899225997974e-02,-1.017826431503147250e-01,-5.576543125453699290e-02,1.842774046730565052e-02,6.620320735718955444e-05,2.258994219610929981e-03,6.234737485647201538e-02
-4.905144868224425164e-02,-1.094134597015526261e-01,-5.210021588792360103e-02,2.962294893062233231e-02,2.523268915135639529e-03,1.882544953101086133e-02,8.475664258003234863e-02
-4.707574411804974629e-02,-2.298314498002277939e-01,-4.995657769616382304e-02,-9.299203943160324823e-03,3.132836314660122565e-03,-2.731988434697559497e-03,1.821886897087097168e-01
-4.172897028480761217e-02,-2.146274589817761258e-01,-4.065643324497018180e-02,8.253784445958041666e-04,8.035175324154382459e-04,1.139388583023761452e-04,1.734488308429718018e-01
-4.334589724847705966e-02,-2.141755606035257997e-01,-3.712223832976294796e-02,7.276676402994007239e-04,5.751256555766232677e-04,-7.449959938620758404e-05,1.740324348211288452e-01
-4.512913046850246246e-02,-2.248524229507539440e-01,-5.580300356802152945e-02,-5.251191259405336076e-04,-1.903273570096646571e-03,-1.306075918472387033e-04,1.746648102998733521e-01
-4.018784515648086975e-02,-2.131968119673169348e-01,-3.848028049108665610e-02,-7.644333017940522232e-04,2.661776381978246155e-03,-3.379446564250015560e-04,1.739361733198165894e-01
-4.918957918452901423e-02,-1.972508105440821669e-01,-2.866004812984965233e-02,-3.499897399595740689e-04,-1.111201771425473144e-04,-8.385522669969780463e-03,1.599830389022827148e-01
-4.603203492503397942e-02,-2.174383607139067087e-01,-4.634390365902494452e-02,-3.419547992884575224e-04,3.283905514759795656e-05,1.056651711399190889e-03,1.712614148855209351e-01
-4.963728908438854587e-02,-2.119408846189954621e-01,-3.090672516456950680e-02,-1.683609596053433147e-03,-6.702318013133239365e-04,-1.106276511099919466e-02,1.735232919454574585e-01
-4.067955375251582073e-02,-2.151337566798248724e-01,-3.976588003863624349e-02,6.955623793103789428e-04,9.768290349823543291e-05,1.991339402836105955e-04,1.749173998832702637e-01
-4.691807647960052202e-02,-2.178332408433392431e-01,-3.706953925619450863e-02,-6.281280190116530354e-03,3.200860638852289462e-03,-9.670896062676336349e-03,1.772623211145401001e-01
-4.461312917477434220e-02,-2.129366906352718747e-01,-4.505643291552487162e-02,-2.602959858405643617e-04,6.316161509720712077e-04,-5.996102350816869594e-04,1.681097149848937988e-01
-4.841208991543266560e-02,-1.937777260843584481e-01,-2.253414814982006298e-02,4.444190266186792541e-04,7.876669522035208018e-04,3.653385741167562532e-03,1.600159257650375366e-01
-5.151808192299782430e-02,-2.096351048772387149e-01,-4.677027476440272225e-02,1.612177608051861694e-02,-2.392680369020566602e-03,-3.996711814183934869e-02,1.770967692136764526e-01
-4.152992779030759141e-02,-1.658044584075611672e-01,-3.609833918341701087e-02,-4.177973971176375187e-03,6.777805383852470887e-04,-4.527177599918334044e-02,1.495025604963302612e-01
-4.339315794373439089e-02,-2.145006865680727237e-01,-4.715724227821140729e-02,-2.030630608551281698e-03,-1.061220215365220321e-03,2.214479171832239510e-04,1.693038344383239746e-01
-3.883118949345071291e-02,-2.053959243148856251e-01,-3.243648267652567141e-02,1.276184859066395363e-03,8.791625949237223290e-04,3.915131072553187388e-04,1.698749512434005737e-01
-3.677359872899942095e-02,-2.095089968292820348e-01,-3.934878549067021697e-02,-3.668513227325169955e-04,4.804497183046149873e-04,3.685912658167636016e-04,1.714666932821273804e-01
-3.495979327837290401e-02,-2.035165611119345297e-01,-4.289974612570909840e-02,3.340715136591924147e-03,3.851674831741332735e-03,1.159665405711256519e-03,1.649791449308395386e-01
-3.902194526052338297e-02,-2.099804803366713823e-01,-3.820861435193464301e-02,2.119156929282435314e-04,5.964469964385947639e-04,-5.725397263367803819e-04,1.713730245828628540e-01
-4.023918661092787397e-02,-1.550048206346011093e-01,-3.374550964030012534e-02,8.521862587200064454e-03,3.700107871082076918e-03,6.343874774274715911e-02,1.621447950601577759e-01
-3.264537178685643359e-02,-2.078384572788484763e-01,-4.329950994688028937e-02,3.307213577846966276e-03,4.303064203476382119e-03,1.773507711083765559e-03,1.704036295413970947e-01
-3.088030822817078996e-02,-1.995738466470556860e-01,-4.221713977558708142e-02,3.176214999725732440e-04,5.117516546767281529e-03,5.686335867487711266e-04,1.635647416114807129e-01
-4.150654714106841170e-02,-1.551797769698033402e-01,-3.473004715412784937e-02,1.971738076075317189e-02,9.671169750116566377e-03,2.613759348789397932e-02,1.312793642282485962e-01
-3.526065280432805205e-02,-1.634960641685775373e-01,-4.496622889968107661e-02,7.892813243251299571e-03,7.568358771536136918e-03,3.618590441961772822e-03,1.252674460411071777e-01
-3.580532826793383916e-02,-1.739307132212428164e-01,-3.669936716316251485e-02,7.129527198579204382e-03,7.757064465273105780e-03,6.010251862572427856e-03,1.392742246389389038e-01
-2.958030885669182125e-02,-1.878299197853640634e-01,-4.527524618733373696e-02,3.847471520188423897e-03,5.730324471430937872e-03,1.129571719078948950e-03,1.515001654624938965e-01
-4.148259990255665636e-02,-2.105395329292027995e-01,-4.017478746670664208e-02,-1.721897205603017478e-05,1.092707372371400695e-03,1.880698592621792497e-04,1.697254925966262817e-01
-2.823986051598030567e-02,-1.794038623401442156e-01,-4.603485154292031450e-02,5.073886387205878146e-03,5.688973032392094162e-03,5.297856010914310347e-03,1.439992487430572510e-01
-3.309742429572396644e-02,-2.048759590257669960e-01,-4.371579896764134915e-02,-3.777096459285314393e-03,-4.827027035662314475e-03,2.678862599125180193e-03,1.671252101659774780e-01
-3.458967092367547930e-02,-2.096930754416600484e-01,-3.460519836579390579e-02,1.428612585990021429e-04,8.811202050114888985e-04,7.468877575035142130e-05,1.751025170087814331e-01
-4.864932082607600905e-02,-2.472357122402683849e-01,-4.505705018329558831e-02,1.951915403001342961e-02,-2.396811344364830915e-03,-1.019244524202048141e-02,2.040458768606185913e-01
-4.650959009688875045e-02,-2.112984367600304614e-01,-4.915482792027065645e-02,1.334275274033320993e-03,-7.251291789971564278e-04,1.854414483486692281e-04,1.635037511587142944e-01
-3.438489688442028513e-02,-2.161254934649274317e-01,-4.278505848907988157e-02,-3.288972777583741569e-02,4.341949099763437857e-04,-9.476655750994914266e-05,1.865994483232498169e-01
-3.479924252024158005e-02,-2.167808074163752874e-01,-4.311673001451627601e-02,-1.016836398333309174e-03,4.042265776574623798e-03,-1.010805082928729025e-03,1.781236380338668823e-01
-2.789457565164016328e-02,-2.121635309238748546e-01,-4.778009364767803191e-02,-8.461747626457436638e-03,2.426753254179850154e-03,-4.549572440075366764e-03,1.760135293006896973e-01
-3.637922633073761847e-02,-2.098786984002529721e-01,-3.582401991567663035e-02,1.749843940506484925e-04,8.622695092340442900e-05,-4.734101805536848596e-05,1.737780869007110596e-01
-5.633452332115021499e-02,-2.194573720233315983e-01,-4.520903176289133019e-02,5.348551644157924917e-04,-1.284343733445429681e-03,-1.957125126301637540e-04,1.689780503511428833e-01
-4.700796348179844819e-02,-2.101981904244355492e-01,-4.484648133769033457e-02,1.402197991693822756e-04,4.406278604938261177e-04,-4.498513174369955531e-04,1.642854362726211548e-01
-4.317444958340471012e-02,-2.158648607809290909e-01,-4.562735394405409428e-02,1.559742986298322774e-03,2.019502191353961381e-04,-1.973375937726506990e-03,1.715328097343444824e-01
-3.497355706251799312e-02,-1.822978875609722049e-01,-4.835888490992115707e-02,-3.031211953779682639e-02,-1.116731419951076318e-02,1.523807747112426031e-02,1.540741324424743652e-01
-3.056397750173917016e-02,-2.058777878001832318e-01,-4.171770275031973924e-02,1.023643022174136087e-03,1.256523491214245770e-03,2.783456727513683318e-04,1.700354367494583130e-01
-5.217165735864353476e-02,-2.122403024007893380e-01,-4.683487833175723619e-02,5.272467781680478891e-04,-8.934530125068673940e-04,7.223018383928898976e-04,1.628173738718032837e-01
-4.377694512559537898e-02,-2.261598409547412036e-01,-4.278560262271178388e-02,-1.692763760485652136e-02,3.029094223519358808e-03,-1.828662324095284286e-02,1.879778504371643066e-01
-4.982409674029644048e-02,-2.132748734790797518e-01,-4.592414688551330754e-02,-1.288768696021625566e-03,-3.683072933780686471e-04,7.528695025037506101e-05,1.654515713453292847e-01
-5.300780222724188473e-02,-2.166353848032201990e-01,-4.643541146004472042e-02,1.225273798976066111e-03,-1.215672104532509925e-03,1.815144920944932599e-03,1.670671403408050537e-01
-5.700468965346981026e-02,-2.230327617361403114e-01,-4.621195977260768306e-02,1.977075644317216347e-03,-4.163369962554686987e-04,1.211530851368253480e-04,1.717148572206497192e-01
-3.853240971423162187e-02,-2.177047738563316071e-01,-4.697198978936298341e-02,-1.488732896692831304e-03,7.000228147779885817e-04,5.709888407601300571e-04,1.751311570405960083e-01
-2.917511003038186779e-02,-2.059446233466067921e-01,-4.342931066229100551e-02,1.764547011731091132e-03,2.451592179717658124e-03,1.889944552730765844e-03,1.702028810977935791e-01
-4.398866599073501804e-02,-2.134063927055547816e-01,-4.528648315537469465e-02,1.793778544626617889e-03,5.416692541753169096e-04,8.494560448036973799e-05,1.688038259744644165e-01
-3.282953534193271128e-02,-1.964953930123914394e-01,-5.242548604806956253e-02,-5.476582130832465325e-03,-3.411976659192415655e-03,-1.521685591401726037e-03,1.552262157201766968e-01
-3.286380987011078281e-02,-1.442947387063108766e-01,-4.871714404839221080e-02,2.560138107311882641e-02,6.125468350422353693e-03,5.972480815979541377e-03,1.144005954265594482e-01
-4.242515360014174897e-02,-2.136232456245868716e-01,-3.616902539165250258e-02,7.197184155597522413e-04,2.569881865860308787e-03,1.672159441675589325e-04,1.744718104600906372e-01
-4.630403529855649236e-02,-2.160497320622448147e-01,-3.861173290637923139e-02,1.698340529196066748e-03,3.378253473331631600e-03,4.811253305816574899e-03,1.740426421165466309e-01
-3.894257626082174573e-02,-2.145221911277823135e-01,-4.027601225510565874e-02,3.323559831174624371e-04,1.404225947070803339e-03,7.268258445962706964e-04,1.749390959739685059e-01
-4.086263459137536025e-02,-2.160241781626330293e-01,-3.991162286826892280e-02,-7.346413327853484204e-05,4.765266639407638154e-04,2.083359776596917592e-04,1.756413429975509644e-01
-4.492712090255376184e-02,-2.148154964360229902e-01,-3.697202000676261258e-02,2.320788841747254208e-03,2.119760593269516026e-03,3.952924820695480346e-03,1.742220968008041382e-01
-4.586035691208231041e-02,-2.113221902884590553e-01,-4.401262247381035331e-02,3.707781665358777460e-04,7.070294728529557616e-04,-9.308961034419374018e-05,1.663992255926132202e-01
-4.496987566382281559e-02,-2.087904669628826704e-01,-2.828278162156069864e-02,-6.352510194309430539e-05,3.326352409248703804e-03,1.064460103016692111e-02,1.738460958003997803e-01
-4.344415515664086513e-02,-2.148128826344312681e-01,-3.978623759168089385e-02,7.398045582256937988e-04,9.474446428314604570e-04,1.910967242740588875e-04,1.732394844293594360e-01
-4.068066829075975971e-02,-2.155338521737441004e-01,-4.101995668253060473e-02,3.942097659264209397e-04,1.365234301964218821e-04,3.625162272242940238e-04,1.746864169836044312e-01
-4.392316907951167998e-02,-2.099603442853539004e-01,-3.299772524813014696e-02,3.076264384415502897e-03,1.984072128526791125e-03,2.406920681691007355e-03,1.719282418489456177e-01
-3.356074088963346969e-02,-1.517202174376921786e-01,-3.733933731471388018e-02,4.518403487514052047e-02,6.080580819823800352e-03,2.447334517766961218e-02,1.468400806188583374e-01
-2.606429780028833576e-02,-2.008481464895187640e-01,-4.329143122039540159e-02,1.521776276330920026e-03,3.452731125454122033e-03,1.330968679668022032e-03,1.669825464487075806e-01
-3.984638323798345150e-02,-2.229224897790806348e-01,-4.278273486674887688e-02,8.306802274422483284e-03,7.353621283709490218e-03,1.286692564391865752e-02,1.839940696954727173e-01
-3.676165987958357473e-02,-2.091029078479894610e-01,-4.723231662290244826e-02,3.336264225864672694e-02,5.953942538351407986e-03,2.412970314650242018e-02,1.822056174278259277e-01
-4.639562413640498789e-02,-1.976868027460503829e-01,-3.001287894757631580e-02,-4.563580840203328159e-05,8.419235752712324067e-04,-6.233737823819270225e-03,1.604826748371124268e-01
-3.074493227148242941e-02,-1.650913351963663178e-01,-4.162624776035528384e-02,-1.339675035644463837e-02,6.365005452994457018e-03,-1.613218165984509761e-02,1.347078084945678711e-01
-4.119247825254004208e-02,-2.110070597839274753e-01,-3.899670504637095525e-02,-5.707801868941224724e-04,-3.806119885102830877e-05,1.754747683933283024e-04,1.709261834621429443e-01
-3.682997352647783551e-02,-2.108831388046222555e-01,-3.804575790017467735e-02,1.451521873046994558e-04,6.276129708594796637e-04,4.109377688221504737e-04,1.734535247087478638e-01
-2.844378359781972454e-02,-2.053047383076428423e-01,-5.287034934804822617e-02,3.118077600546561440e-02,3.999364144216354180e-03,-1.462516292288636079e-03,1.747211217880249023e-01
-3.813756181817769958e-02,-2.102642559543974610e-01,-3.640390414211373826e-02,-1.801021687696958821e-04,1.225822883315116202e-04,2.063770129238196136e-04,1.730008125305175781e-01
-4.673361508618310151e-02,-9.141333522014122304e-02,-4.942091078593734144e-02,-3.574948809953678447e-02,-2.186944639063754733e-03,-2.423864902744227168e-02,8.657016605138778687e-02
-4.484668656465617964e-02,-2.094206790216293079e-01,-4.587489223666740834e-02,1.041258446659306612e-04,-2.389729609928878612e-04,2.477304370553344570e-04,1.640634834766387939e-01
-5.591752163427542860e-02,-1.374398900493202513e-01,-3.748869153183716219e-02,1.214092717417188105e-03,-3.458942388897739105e-03,-1.580990567849671624e-02,9.632265567779541016e-02
-4.668077460447499910e-02,-2.121174058640372118e-01,-3.728916837878933771e-02,3.954540121685895938e-04,2.536576671237824460e-04,6.446679262973567699e-04,1.703323423862457275e-01
-5.811267948155617036e-02,-2.035275744380604102e-01,-3.567636266331933315e-02,-1.460564310192649304e-02,4.156143448791813771e-03,-1.970010068502674183e-02,1.636078655719757080e-01
-4.679255573927486311e-02,-1.654720321949910145e-01,-3.761097988521328039e-02,-7.212688579292434420e-03,5.552089466584746169e-03,-1.097100821406883295e-02,1.259699165821075439e-01
-4.922985035951053107e-02,-1.880166305342811928e-01,-3.223142102920728558e-02,-4.909590026554417654e-03,2.535873984148570917e-03,-7.564033456543562024e-03,1.489064246416091919e-01
-4.515489729372305222e-02,-2.092852335521719620e-01,-4.701342907049142761e-02,3.222759540182360601e-04,-9.023089095139996988e-04,-2.000409016147615990e-04,1.632178127765655518e-01
-4.512717999690522147e-02,-2.121606525847515301e-01,-4.352184172725018230e-02,2.399121026042775348e-04,-6.426996408693548112e-04,-4.188511315164546601e-06,1.678460985422134399e-01
-4.546451719107937745e-02,-2.170399127504411552e-01,-4.812604116851407904e-02,1.293598575349546188e-03,2.937579531675735628e-05,9.926841001709279470e-04,1.702836602926254272e-01
-4.394735273631932698e-02,-2.167434377908330767e-01,-5.209421448735124943e-02,-3.119464533982445244e-04,4.903204623802020871e-04,-1.774588625197370774e-03,1.689010709524154663e-01
-4.507030041387501823e-02,-2.144095239728008584e-01,-4.539747957135891604e-02,-2.457350542394085013e-04,9.285644400990320825e-04,-1.714643060981212662e-04,1.691843122243881226e-01
-4.497282580639824084e-02,-2.224580038077439148e-01,-5.498657190507705989e-02,3.233498404768860459e-06,-1.965006334408032559e-03,1.975866308038428713e-05,1.727297157049179077e-01
-4.354683523760422698e-02,-2.112182037861593531e-01,-3.995827287514387705e-02,2.182197305265014525e-04,8.136717312767081023e-04,1.477745488380763491e-03,1.695197522640228271e-01
-4.795265843559883001e-02,-2.340799476927494516e-01,-4.673969671971234252e-02,-1.188131541773380928e-02,3.835132218597161850e-03,-1.420580078776932740e-03,1.880007386207580566e-01
-4.496220033259093474e-02,-2.112782231115010456e-01,-4.461562371962691370e-02,-9.588917924831980065e-04,3.162387148214955510e-04,-6.336612728520397801e-04,1.665023863315582275e-01
-4.772342579608165186e-02,-2.213717888148661606e-01,-5.205687594831922421e-02,-3.813988217497179048e-03,3.500797953885316591e-03,-2.982443875072896943e-03,1.718345880508422852e-01
-5.097483918274500758e-02,-2.273823760258599502e-01,-4.721534757185078673e-02,-1.243702490298403615e-02,9.478066087961959491e-05,1.729473875566102728e-03,1.796385049819946289e-01
-4.737915473858689275e-02,-2.135240750210807559e-01,-5.170455089087359901e-02,-3.902022294243195780e-04,-1.233537534363847487e-03,-1.690411774946759494e-04,1.640405654907226562e-01
-4.344468760609755675e-02,-2.163875772945627052e-01,-4.880297854337064395e-02,-1.557072300489783530e-05,-1.129542376146590310e-03,-2.325808303465121910e-03,1.703858375549316406e-01
-2.700629020707036310e-02,-1.948531492872608850e-01,-4.618549971189585268e-02,-1.079723895788194457e-02,-3.454238193157923784e-03,3.492460435447507661e-03,1.604474037885665894e-01
-4.807349264259751925e-02,-2.105620840457434473e-01,-4.788431807420660130e-02,4.311307277383391546e-04,2.018743280278231764e-08,3.266423620755484519e-04,1.625859588384628296e-01
-3.523203586797610254e-02,-1.642415908640051381e-01,-5.257054584492239224e-02,-7.755887900354193698e-04,-1.260940181547975329e-04,-1.719224776901610635e-03,1.213176622986793518e-01
-2.769687920015238836e-02,-1.956185717841993910e-01,-4.998095905179204823e-02,-8.559160135312425879e-03,-6.447611633310426898e-04,-1.599618978351118785e-03,1.586852073669433594e-01
-4.266025722667658726e-02,-1.545549477026135765e-01,-5.103540848342651842e-02,-5.349081254998561824e-02,1.104428958639618388e-03,-2.300070478055325079e-02,1.477429717779159546e-01
-3.478711699338334074e-02,-1.469658036408254820e-01,-4.970645940739060881e-02,-3.189682491499410549e-02,-4.388505689923640797e-03,-6.710828291121402438e-03,1.199087873101234436e-01
-4.514782163849064694e-02,-2.057377617265722658e-01,-2.942094105983213137e-02,-1.350158774436941832e-03,-1.943529838966064419e-03,5.573957187907871164e-04,1.690555363893508911e-01
-3.716343001344565161e-02,-1.877501246913675370e-01,-5.675006906567587467e-02,-1.076222382121470519e-02,-5.864852298742505819e-04,-8.495615159963137986e-04,1.430425643920898438e-01
-5.110997589268026497e-02,-1.973775563979226488e-01,-3.449516372552841742e-02,-1.342647048628471500e-02,-7.467314521009911499e-03,2.130410529536318903e-02,1.617719233036041260e-01
-4.072014924265951463e-02,-2.136316460433502207e-01,-4.290625069896283894e-02,-4.814683857750080322e-03,-3.311234085426315466e-03,2.970241136753836754e-03,1.722035557031631470e-01
-3.941844022808421028e-02,-2.160775193785364201e-01,-4.013491402984600831e-02,1.866438718625613492e-04,3.624274649830830884e-04,1.841622187914854474e-04,1.763036400079727173e-01
-4.574650829074401043e-02,-2.193412432962483782e-01,-4.756913509524072353e-02,-1.437493185253734419e-03,-1.592466902003816429e-04,7.213906289093036800e-04,1.727133244276046753e-01
-5.425475693763704560e-02,-2.188222847990344277e-01,-4.616017287574496891e-02,7.566822893709249575e-04,4.176336525028463416e-04,-1.773780442922796071e-03,1.687950789928436279e-01
-4.364570692854663481e-02,-2.065621777251314128e-01,-3.119577760450983894e-02,6.131902580909613925e-05,-2.178871188468525701e-03,-1.822440545082183207e-03,1.695561707019805908e-01
-4.246134181633089144e-02,-2.327397651937920253e-01,-4.843907716529802232e-02,-7.095962256420605165e-03,6.189865507929271683e-03,-4.486958693142036048e-03,1.882301121950149536e-01
-3.198434965825841525e-02,-2.057266033768626878e-01,-3.928873785329348167e-02,7.418822456319667212e-04,2.948925143023416271e-03,7.333008570043449744e-04,1.702938526868820190e-01
-4.701339005632697299e-02,-2.139593401636075143e-01,-4.588733090921165436e-02,-1.790723447395985417e-03,7.395698266577431599e-04,-9.172303282462831260e-04,1.675529628992080688e-01
-4.335907541030979001e-02,-2.012932610047314386e-01,-3.270217766695809880e-02,-2.255488975674595740e-03,-3.992240233766546249e-03,6.438897289808407157e-03,1.640954613685607910e-01
-4.831509887921257851e-02,-1.994959820858535626e-01,-3.231233851010283098e-02,-1.256454046103200957e-04,-3.579284608998024170e-03,3.526155674644174945e-04,1.599059551954269409e-01
-5.349499117565442718e-02,-1.118033142707619276e-01,-5.130121679246301553e-02,-1.026400630549964901e-02,-4.939177021684119234e-03,6.464789773136142212e-03,6.361764669418334961e-02
-4.916956024206155240e-02,-1.920926786132862718e-01,-2.696727718266312551e-02,4.877191300543454503e-04,-4.191910954941785450e-03,8.134853585351445749e-04,1.553981751203536987e-01
-2.853553264263497535e-02,-1.797720990753679526e-01,-5.400043313560365377e-02,1.055129831007504265e-02,2.367271814931868300e-03,1.422216952577741098e-03,1.415153890848159790e-01
-2.973545565403425128e-02,-1.959996130563903816e-01,-4.843366545293013858e-02,-7.595496404159417063e-03,-3.300604010194703973e-03,-1.894800036111005223e-04,1.583995372056961060e-01
-4.010735196999580532e-02,-2.101820244894443412e-01,-3.986305623681139082e-02,-8.160464250963586803e-05,6.939791824443745536e-04,1.770983801444051214e-04,1.702015250921249390e-01
-4.316498006397100767e-02,-1.937724266036539578e-01,-5.251059730822388305e-02,-3.291768570670790955e-02,-9.308835007635803127e-03,4.045413099713892832e-03,1.578676849603652954e-01
-3.265000086283151304e-02,-1.230477161371088118e-01,-4.726124411217470095e-02,-3.226020063236192947e-02,-3.189131852545413603e-03,-6.870941759591305854e-03,1.017777770757675171e-01
-5.087876616327486473e-02,-1.958865438489741373e-01,-4.378031522481815041e-02,-2.715392518396642779e-02,3.880877621774986991e-03,7.213309374698856358e-02,1.999342739582061768e-01
-4.604323199665941863e-02,-2.101933312516977848e-01,-4.516303889873571342e-02,-2.160692026890643927e-04,-8.889844156372811554e-05,7.474790551804735297e-05,1.645925045013427734e-01
-4.159683778180309210e-02,-2.079106672840809744e-01,-3.307479170037018468e-02,6.991572102687658875e-04,7.713415737141058855e-04,-1.582292235068186496e-04,1.707441806793212891e-01
-3.130507538148534497e-02,-2.080734575606246195e-01,-4.218193671199275269e-02,2.635593491390612105e-04,1.122368722374024854e-03,8.124654211403390270e-04,1.716060936450958252e-01
-4.935573348412594652e-02,-2.044373103760818988e-01,-2.534896500224764759e-02,-1.163449277768348870e-04,1.090643775119083799e-03,3.309432948520281154e-03,1.684817373752593994e-01
-4.098830618253700153e-02,-1.713408366611158529e-01,-4.591535017892502124e-02,-9.391081362597308857e-03,-8.233748735334988147e-03,9.873300680368485294e-03,1.308977156877517700e-01
-4.720197464501536821e-02,-2.093556731288418460e-01,-4.717077549916986329e-02,-3.343112883678587036e-05,-7.981272386364412932e-05,1.185688054646985202e-05,1.621693670749664307e-01
-5.117492563938222383e-02,-1.728550506206156800e-01,-4.727667467788768119e-02,-6.325581584524482028e-03,-8.524281020870015657e-03,9.177082972167471125e-03,1.260407716035842896e-01
-2.794438079615250980e-02,-2.077882349527141181e-01,-4.991890001657119103e-02,-2.650937888097832165e-04,6.061589287826947212e-04,1.776976667063623620e-04,1.699297428131103516e-01
-4.754889393954674776e-02,-2.106861811222963954e-01,-4.920041256190781087e-02,-2.114335232311820073e-05,-6.419440661602341704e-04,4.391226790329547710e-05,1.623216569423675537e-01
-3.941797737553717068e-02,-1.799723750124000987e-01,-5.232543864023178615e-02,-1.377419578351995371e-03,-6.950888678252263066e-03,1.126765566112006289e-03,1.351383924484252930e-01
-2.963789684822931703e-02,-1.952891791688326772e-01,-4.210750183715999961e-02,9.592557473340385804e-03,-3.149678824454629506e-03,-1.844094110948807331e-03,1.607676744461059570e-01
-3.940781769329913808e-02,-1.451287935484053548e-01,-4.486842703130690391e-02,-1.742026481285569722e-02,1.083220475005189668e-03,-5.203458567815598401e-02,1.402360647916793823e-01
-3.062708847972343829e-02,-2.076028385616121574e-01,-4.914144959715824323e-02,5.544987610049841725e-03,4.897487482905350971e-03,2.537340730629612708e-03,1.690269708633422852e-01
-3.442536561723229249e-02,-1.518460934687568265e-01,-5.165825565005935371e-02,1.316501744143690027e-02,6.016574094648292903e-03,6.497138696680937291e-04,1.126539781689643860e-01
-4.567725300156070395e-02,-2.130675238916707459e-01,-4.641230896464960953e-02,2.129486857389070319e-04,-1.577017100218868525e-04,1.204622818918844439e-03,1.670376211404800415e-01
-3.224920237928696753e-02,-1.646179652934084414e-01,-5.129506841437674741e-02,2.031831996130624169e-03,3.014602370009722421e-03,4.656786926139377426e-03,1.243698596954345703e-01
-3.438384005157193307e-02,-2.107143161395475528e-01,-4.546256114992321129e-02,1.760774274921098146e-03,-1.884121414263667310e-03,-1.789875166873639272e-03,1.711467802524566650e-01
-3.308638745234238759e-02,-1.906719725135593568e-01,-3.926197680300297366e-02,2.694020704394754426e-03,6.729583653281000395e-03,3.439923261471945770e-03,1.552137434482574463e-01
-3.157355327836944975e-02,-1.568553684711055940e-01,-4.246774059294460002e-02,1.100192713255564517e-02,7.321122266831299463e-03,4.736788334180017448e-03,1.226401552557945251e-01
-4.734710342939107280e-02,-2.103101168840368351e-01,-4.748628095136599170e-02,-7.037302452979781776e-04,-1.168317169628390397e-04,-3.015862995636555338e-05,1.628981679677963257e-01
-3.549213754549530864e-02,-1.942368799803504409e-01,-3.583652034870190434e-02,5.832533383794303618e-03,7.035352403205076890e-03,1.029302648026426611e-02,1.603550016880035400e-01
-3.538896965250480642e-02,-2.092658396417856337e-01,-3.885141095100854564e-02,1.317486689080169481e-04,3.441354379654744909e-03,8.575888061866419150e-04,1.722814589738845825e-01
-2.678252621792395760e-02,-1.752978044415434145e-01,-5.229394858330628504e-02,8.753730188937981077e-03,2.324826382623917682e-03,2.714857310863189998e-03,1.385171264410018921e-01
-3.378362253263379744e-02,-1.574271338538670295e-01,-4.409643792125150785e-02,8.092024313786805312e-03,8.623828573594380376e-03,6.977399311663607696e-03,1.211798861622810364e-01
-4.044121384731939189e-02,-2.130759141147769986e-01,-4.043743455482647076e-02,2.594831770705880326e-04,2.996805974108241507e-03,3.366185729895157606e-04,1.727161705493927002e-01
-3.342683365236632370e-02,-2.089285750168102251e-01,-3.898072288305846206e-02,1.403929023799318793e-04,3.383195250121037029e-03,7.104733834192508701e-04,1.728956401348114014e-01
-3.875401431160224036e-02,-2.059493260844078855e-01,-3.072923452844539272e-02,1.164671040087669231e-03,3.766939043096937008e-03,1.298987696723307231e-03,1.714994907379150391e-01
-2.942320968962928995e-02,-2.077981342518516183e-01,-4.850067528727142890e-02,-3.844775285214060956e-04,5.863174115404712339e-04,2.932707003802061856e-04,1.696477383375167847e-01
-2.758858315081033630e-02,-2.064745943365010605e-01,-4.881688098016404020e-02,1.474663905565980898e-04,1.049363607121555383e-04,-6.075427959025086989e-04,1.692767143249511719e-01
-2.266114053302360765e-02,-1.653328408658967796e-01,-5.334120745230212790e-02,3.209844449285850776e-02,-1.161336600681175165e-03,1.283534759039536648e-04,1.414720118045806885e-01
-4.761974253598026674e-02,-2.110664302178605345e-01,-4.927433478553269047e-02,1.057670892540970306e-03,-1.872336048903273085e-04,-3.829582672483650954e-05,1.626363545656204224e-01
-4.869269951015782472e-02,-2.118645302534649388e-01,-4.756299959329773896e-02,4.218050239994784885e-04,-7.424801458696428684e-04,1.710885266744604149e-03,1.637730896472930908e-01
-5.268139590600132843e-02,-2.149458410035841593e-01,-4.738630966212881851e-02,-3.050087705625343507e-05,-4.103994641168186926e-04,1.854621364198390070e-03,1.650085449218750000e-01
-4.881518539781815741e-02,-2.097066772762859743e-01,-4.893450446065113896e-02,5.304339466058363272e-05,-7.935647732164376753e-04,9.739300224491126857e-05,1.608378589153289795e-01
-3.907868202399972929e-02,-2.065886942500497758e-01,-3.407770469265573865e-02,5.118105410862250002e-04,2.758459604775572935e-03,6.343838807737790797e-04,1.701386123895645142e-01
-3.645803876833238893e-02,-2.071289356068002907e-01,-3.385025098696926166e-02,3.276611740861927599e-04,2.565604394259346933e-03,8.955044141608757167e-04,1.720549464225769043e-01
-3.992041440711508599e-02,-2.158328871867173371e-01,-4.096149809752119147e-02,1.428390668833112460e-04,2.304621403088365607e-04,2.513704414353702460e-04,1.753954142332077026e-01
-3.693009840653910941e-02,-2.105110872503948571e-01,-3.669759212724528485e-02,-2.965679851619485146e-04,1.141686928061310356e-03,1.090087505093058362e-04,1.737094819545745850e-01
-4.042916499295721999e-02,-2.148342117126982309e-01,-3.906739602261974365e-02,1.055412745961066285e-03,1.510308999872663318e-03,4.126158320595684544e-04,1.751204431056976318e-01
-3.701230540673244862e-02,-2.150965350780703333e-01,-4.066058849598576386e-02,8.669441650820639304e-04,6.428147729624616308e-04,4.342904838512308277e-04,1.762999147176742554e-01
-3.937768375136156684e-02,-2.155654659529203654e-01,-4.042781408970381324e-02,3.483444261128687287e-04,1.383149528632357040e-03,2.918074717814831765e-04,1.756831705570220947e-01
-3.879362782604980214e-02,-2.082898426324885088e-01,-3.650888941675624333e-02,1.302261363883414806e-04,2.289297241578650780e-03,1.587900886239959348e-04,1.706964820623397827e-01
-3.527642954994889696e-02,-2.104947778023847083e-01,-3.929692781492077208e-02,-1.262453701291872091e-04,1.051421764833758692e-03,9.643292897175866074e-04,1.732608526945114136e-01
-5.545076764058346624e-02,-1.226838180043576809e-01,-5.615779040920839543e-02,-4.932687292272309489e-03,-4.928745208090657554e-03,-1.409810807610402741e-02,7.221765071153640747e-02
-5.339125728971612361e-02,-9.927228548501892957e-02,-3.473399908612499754e-02,3.164328838345691151e-03,-1.113287485358840489e-03,2.914556804753043115e-02,7.675497233867645264e-02
-5.428224126181101922e-02,-1.170734573317352978e-01,-4.625096402065090317e-02,2.381665013244404529e-03,-3.414780267430384333e-03,1.833067681247289860e-02,7.464296370744705200e-02
-4.291654498467951245e-02,-1.048116810900016627e-01,-2.676088223997280524e-02,-1.125247999109406719e-02,-3.329828247974008469e-03,3.192337706549768644e-02,9.253320842981338501e-02
-4.580688435913778112e-02,-1.385742538779650701e-01,-4.896585680177995004e-02,1.488706188026293203e-02,4.714612192594487203e-03,1.294620527430978552e-02,9.776033461093902588e-02
-3.157386374536075291e-02,-2.107896959779866908e-01,-4.517885042835494136e-02,-6.728397160676378563e-04,3.519512912834823169e-03,-1.070183392881989063e-04,1.729269623756408691e-01
-4.670562041042509299e-02,-2.108279174086132024e-01,-5.070569389740602756e-02,7.367872014721363154e-04,-6.550302487233865267e-04,7.822672664113594545e-04,1.621739119291305542e-01
-3.529749366091439189e-02,-2.131721213105336188e-01,-4.088268740668701134e-02,-4.572146100539213913e-04,3.169339976759767436e-03,1.529312636903091746e-04,1.752368211746215820e-01
-3.668329674570037363e-02,-2.145910021886078822e-01,-4.160858027721529157e-02,-1.794376633287282728e-04,1.348171713617984805e-03,1.882654540794384795e-04,1.755130141973495483e-01
-4.481526387992701421e-02,-2.109002854617930134e-01,-4.461259419427981987e-02,2.819400687950262630e-04,-1.412810218327558635e-04,-1.732411534052853046e-04,1.661876142024993896e-01
-4.246826702144571725e-02,-2.145575589410052553e-01,-4.298966725995147231e-02,1.209543380706863376e-03,6.783745803362559732e-04,1.577218531562551160e-03,1.718676835298538208e-01
-3.998624522551342403e-02,-1.958316813843730131e-01,-2.995499216959099376e-02,7.472813331213405685e-03,5.201122906109784290e-03,5.960033520999985339e-03,1.621943265199661255e-01
-3.086943609505803099e-02,-2.113825668819945269e-01,-4.570870179657575416e-02,-7.684525396436743452e-04,2.488331096828267502e-03,1.004044034154745598e-03,1.736372113227844238e-01
-3.632709849239708355e-02,-2.143379034767948221e-01,-4.336503098100478321e-02,8.328249573948314031e-04,6.012365235089998233e-04,9.235359505590026719e-04,1.746146529912948608e-01
-4.686455059546703467e-02,-2.113894060500726979e-01,-4.921959100240634599e-02,1.804627159061504473e-03,-6.799748793474128840e-04,3.884313803839760078e-05,1.633942276239395142e-01
-2.712666480955217008e-02,-1.921173580900711331e-01,-5.139005685678629115e-02,8.574745126589845964e-04,1.878063609005824414e-03,1.983287676824663454e-04,1.543383002281188965e-01
-4.837116192139045284e-02,-2.103310942847380627e-01,-3.323734056691057814e-02,-1.561393984611872128e-04,2.442482938319257522e-03,-1.563129295853043794e-03,1.701070964336395264e-01
-3.632724719401946023e-02,-2.089709754859522817e-01,-3.695709435013514593e-02,1.389750159812373764e-03,2.986387376942412249e-03,1.007954256232181664e-03,1.724329143762588501e-01
-4.701467614127308181e-02,-2.144666388803421753e-01,-3.784609029286872123e-02,1.094503186193130934e-03,-8.899355245942156250e-04,-3.465380368892488280e-03,1.723412871360778809e-01
-3.085678988083462304e-02,-2.089863448945339375e-01,-4.440984235009369507e-02,3.031073289275201896e-03,1.088609215960752901e-03,2.341226134347631019e-04,1.718455851078033447e-01
-4.489121840839606359e-02,-2.250785609982214330e-01,-5.998595251789579086e-02,-2.324142921114514052e-03,6.794895977021041993e-04,-5.629134868197576379e-04,1.731877326965332031e-01
-4.556187382789372853e-02,-2.142421959039191859e-01,-3.832976067633513811e-02,-2.006625917941357203e-03,1.155888258563541335e-03,-3.009370092874007890e-03,1.725355833768844604e-01
-4.153462147004878535e-02,-1.926750325479838488e-01,-2.653309167791535056e-02,5.357121335825096309e-03,5.025083878955099309e-03,5.752671749469237539e-03,1.599904298782348633e-01
-4.481143164404625956e-02,-2.108807842272124589e-01,-4.460703647228610180e-02,2.808789606081577191e-04,-5.271514922539568431e-05,-7.765413697755514915e-04,1.661778241395950317e-01
-4.568669661176131408e-02,-2.185790414730516829e-01,-4.753167086270410069e-02,1.274964601169729515e-04,-1.615802573317459538e-04,-6.295611250928565689e-03,1.723230034112930298e-01
-4.584093009684311881e-02,-2.192980949259282775e-01,-5.388601431528683428e-02,-1.634420882392564108e-03,4.871734622276322878e-04,1.328695467400057856e-04,1.696036905050277710e-01
-2.732621113215839836e-02,-2.031250455085291673e-01,-4.931840123478947041e-02,2.638258618762905593e-03,-2.278446890522421373e-03,-1.911822880738590111e-04,1.660097837448120117e-01
-5.324655097005324272e-02,-2.415989000033168244e-01,-4.778133058849937109e-02,5.957825719255729902e-02,5.100813377510119567e-03,3.023654028196484655e-02,2.236188054084777832e-01
-3.128656786471302464e-02,-2.035113876849922732e-01,-4.700605268077317350e-02,1.363248560251817659e-03,-3.234505137386487102e-03,-9.910513791541552923e-04,1.650488227605819702e-01
-5.114208660158241215e-02,-1.376786841771839298e-01,-5.574513549805851925e-02,1.045660197927244378e-03,-7.143675047488341756e-03,-4.356486646614032843e-02,1.138486191630363464e-01
-3.725740197298621492e-02,-1.019577635479528566e-01,-4.496855774821106877e-02,3.538142819102274572e-02,-1.116266432959058452e-03,-1.644693236547932827e-02,9.120012819766998291e-02
-3.964665958899394466e-02,-9.954066814825254794e-02,-4.717196856233194652e-02,3.800179899302159880e-02,-4.570985519298729517e-03,-1.696914345703388893e-02,9.193556755781173706e-02
-4.021477070456277308e-02,-1.672334147903027646e-01,-5.757749302817313092e-02,8.996642435968340429e-03,-5.334327283801713719e-03,-7.808905326455627821e-03,1.214122399687767029e-01
-4.658006586697970020e-02,-2.118706138630422342e-01,-4.517501666102204105e-02,5.591256491443149590e-04,-1.714004467774374665e-04,1.299138286513861493e-03,1.660158783197402954e-01
-3.106219642010678295e-02,-2.050786727403725307e-01,-4.501446512643201420e-02,-2.268102978499520373e-04,3.477720274597482890e-03,5.016998103605841731e-04,1.675877869129180908e-01
-3.614714860499548127e-02,-2.156290311104437363e-01,-4.332832980697204350e-02,1.137509071263543940e-02,2.673188505058518832e-03,2.072440852573412956e-03,1.771974116563796997e-01
-4.067244264900507500e-02,-1.022558503307485489e-01,-4.214472448411468730e-02,4.401714227657427259e-02,-9.057796461079622736e-04,-8.707373726222239485e-03,9.872415661811828613e-02
-4.541702116020931990e-02,-1.198923251331927564e-01,-4.951839560877956820e-02,5.815527328185286782e-02,1.968145568358849705e-03,1.601382282992728796e-03,1.241908296942710876e-01
-4.061989004958936611e-02,-2.135741327346801499e-01,-4.077789047035185188e-02,5.518358488375360452e-04,1.921122563693920034e-03,3.340424916532147201e-04,1.729109287261962891e-01
-4.332961415494454571e-02,-2.149047501592543097e-01,-4.365390940492768629e-02,1.161181252964205417e-03,2.128773030269162647e-04,1.448111994857876391e-03,1.714437603950500488e-01
-4.628276622378953153e-02,-2.130542870812208167e-01,-4.555200953939898129e-02,1.183508423474784101e-03,3.372904921150459703e-05,2.735768666677653154e-04,1.671513468027114868e-01
-5.917806996666591379e-02,-3.524418719362745200e-01,-4.833980068941783059e-02,2.613972589898055313e-03,1.106387712968821130e-02,1.023011250953752456e-03,2.994836568832397461e-01
-3.013856542997220972e-02,-1.602318815859321011e-01,-5.139060526243774407e-02,2.173932500120365208e-02,-8.262163134986197019e-03,-1.462197046444954282e-02,1.299044340848922729e-01
-5.265914287995055593e-02,-2.435849300467081702e-01,-4.898217359451811914e-02,-1.250863595666657337e-03,6.331757749491207518e-04,3.397781294966810634e-04,1.928067654371261597e-01
-3.400436216509597487e-02,-2.100463427857188203e-01,-4.196346657870432539e-02,1.470360611156540614e-04,4.009865134756287336e-03,4.875547063034755190e-04,1.723427027463912964e-01
-4.470672603856467447e-02,-2.185352317991707261e-01,-4.511465853780700225e-02,-1.318889769683955111e-02,5.988436103117712912e-03,-1.943822896389634999e-02,1.786296814680099487e-01
-3.962865472037439829e-02,-1.681512977626235528e-01,-3.998301370819716538e-02,-4.573080682928831742e-02,-4.569876810532261377e-04,-5.767605919672588385e-03,1.511522233486175537e-01
-2.801368175233851648e-02,-1.812153910033313386e-01,-4.425217779620100461e-02,1.172919899203710495e-02,6.303851079816254373e-03,5.059415872555652997e-03,1.478357762098312378e-01
-4.429478712833909149e-02,-2.045572317024334785e-01,-3.172373417691060071e-02,6.658451766520221988e-04,-3.388968005998575783e-03,-1.676405347835645656e-03,1.670358180999755859e-01
-3.993221145712756714e-02,-2.120564763027263100e-01,-3.640975321338726922e-02,4.424273359457388222e-05,-8.817057796859951177e-04,7.449811629771276988e-05,1.739190220832824707e-01
-4.263948766897482368e-02,-2.147811898022887744e-01,-4.395975032268643889e-02,8.829202487897024184e-04,3.421413743421561392e-04,1.199611723850768771e-03,1.715058088302612305e-01
-3.740343538744220209e-02,-1.818858748007310955e-01,-4.558100269045990693e-02,9.878744740304378630e-04,-7.499553819530735757e-03,-4.653061477682296498e-03,1.414112597703933716e-01
-4.759597829940184072e-02,-2.117980892551091232e-01,-4.630807883534401870e-02,1.238686991971325738e-03,-6.338388547497833883e-04,1.242364621431723930e-03,1.648814976215362549e-01
-4.257364393858810436e-02,-1.874129592623233198e-01,-3.971860812692112191e-02,2.266284529471379421e-03,-7.993837587242039883e-03,-1.117188246632927918e-03,1.470066606998443604e-01
-4.281458171779695121e-02,-2.117076817284853640e-01,-3.964635327748761151e-02,-7.150177938665138420e-04,-3.006715465075048541e-04,-1.146291126939091393e-04,1.705047041177749634e-01
-3.820948140288624867e-02,-1.846460530030852309e-01,-4.173923888091597700e-02,2.850458868955319316e-02,-5.185858154127485735e-03,-2.962196700916631953e-02,1.615234911441802979e-01
-3.485764824261453759e-02,-2.131241161804764417e-01,-4.370341439425406982e-02,-4.072421346172369963e-04,1.024055094000494732e-03,-1.876522879249966822e-04,1.740230619907379150e-01
-4.839687115466662082e-02,-1.579554086477985564e-01,-3.709944457744120128e-02,-4.932119717368563944e-02,8.483413747745430656e-04,-3.298213517403886935e-02,1.546990573406219482e-01
-4.005068848059844394e-02,-2.149640153107683083e-01,-4.320453293722199134e-02,2.951655273593408653e-05,2.321754804154366994e-04,1.424210330155641947e-03,1.733759492635726929e-01
-4.203652996470890607e-02,-2.159149015788830450e-01,-3.953093335852238960e-02,2.154016598265447407e-05,4.994140943731476424e-04,1.712332734684813586e-04,1.751469969749450684e-01
-4.251708001365006595e-02,-2.138904682284949732e-01,-4.387539212007855738e-02,7.998694061721760068e-04,3.298149809306633539e-04,1.139598375942532877e-03,1.707162708044052124e-01
-4.669826454996874737e-02,-2.125421366604259843e-01,-4.594177470946810005e-02,6.167488144587908536e-04,-4.306937583705553911e-05,1.613966615732746789e-03,1.662503629922866821e-01
-4.172040326298415147e-02,-2.140455440108523510e-01,-3.941783941005280040e-02,1.479947752579624824e-03,7.166110804067892187e-04,6.086925750706419772e-05,1.735112965106964111e-01
-2.376160507450274240e-02,-2.036746590781551847e-01,-4.782378290820173822e-02,2.435127983105894039e-03,4.553256172722951493e-04,-2.188508862829230623e-04,1.692251414060592651e-01
-2.403924652692072950e-02,-2.044120821056487070e-01,-4.798601088660744973e-02,2.672811105570076316e-03,-2.949727356986236657e-04,-8.679105374308470613e-04,1.697421967983245850e-01
-3.861445353118128643e-02,-1.353951028710803084e-01,-3.927050132544607219e-02,3.098584995824360880e-02,-2.296137579270662865e-03,4.724005961138267456e-02,1.374572217464447021e-01
-4.546999699417093865e-02,-2.112680453936295610e-01,-4.573726084959266192e-02,1.523405123582883105e-03,-4.857245435563342743e-05,-1.014551025346898446e-03,1.656949371099472046e-01
-4.353420490009330540e-02,-2.138823652783425622e-01,-4.351525160060942810e-02,6.631117403158513475e-04,-3.184120261203794190e-05,8.332546981925621028e-04,1.703676283359527588e-01
-4.338201596538116683e-02,-2.148099408830367318e-01,-4.214567993092996345e-02,3.724780747254400628e-05,6.255397885123861789e-04,1.401932399650772051e-04,1.720530241727828979e-01
-4.073587022666042695e-02,-2.144689590314770578e-01,-4.172211163648181786e-02,9.821394542281628240e-04,5.538702209484927183e-04,1.485560231436999746e-04,1.732532680034637451e-01
-4.587510935082847463e-02,-2.138418859942292638e-01,-4.571236364990564210e-02,1.385525977095582477e-03,-7.814751038417935977e-05,-1.901131455861896974e-04,1.680657267570495605e-01
-2.626010551415505767e-02,-2.006821436348284748e-01,-4.928798573047251524e-02,2.900017728939053609e-04,-1.177382677765281003e-03,-4.241263518401830576e-04,1.641393005847930908e-01
-4.839775907220354723e-02,-1.958363455171264200e-01,-2.509860721317107302e-02,3.284986743382312487e-05,5.560547595339700600e-04,1.233653704003081879e-03,1.603797972202301025e-01
-5.017973729609057770e-02,-2.138546404823175873e-01,-4.278848405491291612e-02,-4.851880329460775106e-04,8.753331416699446587e-05,-6.835480422305760355e-03,1.679129749536514282e-01
-4.824656131129922282e-02,-2.185672290623464353e-01,-5.304564575838847940e-02,-1.742830554988635027e-03,1.845718687960669216e-03,1.592279707377550245e-03,1.680527180433273315e-01
-4.722895200937905769e-02,-2.040893877863577122e-01,-2.591234894761108853e-02,2.023480719403704386e-03,1.239563801850275798e-03,2.067927780981291142e-03,1.686210185289382935e-01
-3.912665678319315887e-02,-2.116394286531844693e-01,-4.375320957995875587e-02,1.506259586436541498e-03,8.189252856016822476e-04,-1.241685861151464287e-04,1.702726781368255615e-01
-4.774828674074515361e-02,-1.966059705214908693e-01,-2.402410745854305363e-02,2.051366282500500637e-03,4.962078599667325035e-07,3.792926809947363802e-03,1.621997356414794922e-01
-4.709543491208979110e-02,-2.029996905265680773e-01,-2.510568348591125931e-02,1.226315178129647491e-03,9.466441331750103652e-04,5.870583039271269577e-04,1.680065989494323730e-01
-4.986505308787878704e-02,-2.125685124441819562e-01,-4.909495042247751656e-02,6.815434137950589222e-02,1.130509893704339077e-03,2.479338066635523863e-02,2.058672308921813965e-01
-5.057994834700017817e-02,-2.009319343964057203e-01,-2.400688248589517848e-02,-5.751941629928023153e-04,2.918057651751970369e-04,1.376489369781834981e-03,1.652697622776031494e-01
-5.103691439927217355e-02,-1.814281017795590367e-01,-2.574249788824811008e-02,3.937874849933792679e-03,2.095913783330437328e-04,8.219406799230916105e-03,1.455649882555007935e-01
-4.614342029478340351e-02,-1.859405789675467047e-01,-2.564477457103382652e-02,1.416877062198799910e-03,2.629378124709331327e-03,3.839932474832775423e-03,1.513277590274810791e-01
-4.809498046975286406e-02,-2.094938397093598637e-01,-4.898579188429082881e-02,3.174314965674897814e-04,6.064102219877858359e-04,5.631080324078094443e-05,1.609596908092498779e-01
-5.016959584668328337e-02,-2.151802450618517382e-01,-4.557660499992831349e-02,-2.498373278915114008e-03,4.415860807336236134e-04,1.626857917218336438e-03,1.674358099699020386e-01
-4.806190975734783710e-02,-1.962069866052868761e-01,-2.800618260737300358e-02,-1.486810000135837606e-04,2.655566520769757008e-03,3.409233365822456107e-04,1.591914743185043335e-01
-4.903324005683670772e-02,-2.100483566927729973e-01,-4.920664203615383175e-02,-1.593805033366134188e-04,4.299450863614896735e-04,-5.945965289087049671e-06,1.609304398298263550e-01
-2.626873065282710196e-02,-2.050108342717132381e-01,-4.888043369156165607e-02,8.553627038385212822e-03,-1.172961795076631411e-03,-2.158855283544957801e-03,1.692807376384735107e-01
-4.984527769944652187e-02,-1.944099844014806067e-01,-2.439049131113689428e-02,-1.454908333868202381e-04,-5.283198587754607588e-04,4.261922564853550671e-03,1.590036451816558838e-01
-4.958882286905071102e-02,-3.662977817146628179e-01,-5.966856244551628496e-02,4.901412297882847685e-03,6.500654352931039236e-03,-1.525698222936191367e-02,3.132267594337463379e-01
-3.607165879965275324e-02,-2.550868308947227825e-01,-4.684835170777432167e-02,6.425033575986485723e-02,5.812911602330866206e-03,4.610397004859512898e-02,2.541376352310180664e-01
-3.227020931222797373e-02,-2.094908594688110470e-01,-4.572982369385878570e-02,1.941810644827856019e-03,1.358698197166296725e-03,5.517142660734539834e-04,1.709408164024353027e-01
-3.795499004840260926e-02,-2.117558576621198785e-01,-3.765661422307647194e-02,-4.469190901147414557e-04,-9.971433922985582527e-04,5.553296649209463822e-05,1.739605665206909180e-01
-3.606021955587078442e-02,-2.106469252610279896e-01,-3.676485631720163155e-02,7.848815120553647665e-04,-3.341627022281372286e-03,-9.214249430635266906e-04,1.743441671133041382e-01
-3.595680850458083527e-02,-2.110342402753919711e-01,-3.589172880841455526e-02,5.672220222499909509e-04,-3.125846046079603074e-03,-1.305164745761434745e-03,1.752109974622726440e-01
-3.857589590399632812e-02,-2.119065816808163027e-01,-3.627940109090379422e-02,-4.978622768798699003e-04,-6.224711019727953171e-04,3.888716573824129612e-05,1.744957417249679565e-01
-3.925977578008763708e-02,-2.125136764988497795e-01,-3.672913957119256639e-02,-6.251464671183082074e-05,-3.673170026921274253e-04,-1.225572325476445242e-05,1.745341718196868896e-01
-3.874188883591352800e-02,-2.128281238152414656e-01,-3.670679311721652960e-02,1.427114917551124562e-08,-2.487014856605377624e-04,-9.783402385121119310e-05,1.751132607460021973e-01
-3.712334588295534976e-02,-2.121245471566109431e-01,-3.764133679146974137e-02,2.000482478963133194e-04,-1.194050118573453459e-03,-4.005780793588776091e-04,1.747567355632781982e-01
-3.819175769420653233e-02,-2.127577976238235191e-01,-3.693815516906514412e-02,9.856288211597990698e-05,-1.412095321350864251e-04,-8.171867747379756864e-09,1.751964539289474487e-01
-4.387896964083492363e-02,-2.133778566972615032e-01,-4.557894598378717244e-02,-7.981596937869350739e-05,6.935070886845417517e-05,2.060293133280437401e-03,1.686931699514389038e-01
-5.196310681375461427e-02,-2.371838967569217804e-01,-4.575021559660051584e-02,-9.346985969298171604e-03,-1.089997131461890954e-03,-2.469221101488830970e-03,1.891561597585678101e-01
-3.562231175520333415e-02,-1.690409619117078377e-01,-4.998041555304385403e-02,-1.292486436966873301e-03,4.045922253567881943e-04,-1.012059935970148223e-03,1.268843114376068115e-01
-4.584271738055004791e-02,-2.178187357657457024e-01,-4.624718785165173734e-02,-1.059127382326074431e-03,1.078999032326911954e-03,1.032534858534596596e-03,1.718034148216247559e-01
-3.334195215074803320e-02,-2.133808420524607730e-01,-4.470044677429454993e-02,-5.621311528429679934e-04,1.553104465140222159e-03,-8.425590077945096070e-05,1.746603846549987793e-01
-4.607156188469349600e-02,-2.218613803757642777e-01,-5.684667239970096070e-02,-7.229822139721540659e-04,2.173873853880320720e-04,-8.701908923096029038e-04,1.706692427396774292e-01
-4.472659490221495004e-02,-2.239176297568484797e-01,-5.921234934657628596e-02,-1.212987453997891370e-03,4.919403807313090112e-05,1.110864918967402644e-03,1.724287420511245728e-01
-3.916721607573924596e-02,-2.142052990870667584e-01,-4.494239083794804995e-02,8.395604521881964381e-04,1.949184791239036982e-04,1.738464161104713015e-03,1.722559183835983276e-01
-3.547490350628246247e-02,-1.971216604236480374e-01,-4.163037551476339582e-02,-2.306755430646973120e-03,6.677473388960237892e-03,-4.698092129896669876e-03,1.593376845121383667e-01
-3.713103651616120326e-02,-2.137176041605443610e-01,-4.485627521063875744e-02,4.124701948971638507e-04,1.059178045755267009e-03,1.277705351793315906e-03,1.728788465261459351e-01
-5.522041674633958869e-02,-2.435047540974147606e-01,-4.352323610220440453e-02,-2.472136901922714243e-03,-9.933920925261450086e-04,-7.389238463306495829e-03,1.948725432157516479e-01
-3.947688003010434848e-02,-2.146996941429582806e-01,-4.780462579989758209e-02,-2.249734051467206994e-03,3.136729431178899652e-04,6.982737937998282924e-04,1.712603718042373657e-01
-3.598517788999603534e-02,-2.135906009340981515e-01,-4.439968694177658104e-02,-1.855080867241446028e-03,9.106100342680090685e-04,2.486868181637150784e-04,1.735886633396148682e-01
-3.588223573865283178e-02,-2.141376546710440643e-01,-5.161202808683990756e-02,-1.264104912678591652e-02,5.338445035979003453e-03,-2.212030624838768646e-03,1.726211607456207275e-01
-4.268946458650531989e-02,-1.331039771985688680e-01,-5.459541169707465835e-02,-3.679391327146512569e-02,-1.881302529230394378e-03,-1.530070894377300560e-02,1.096101924777030945e-01
-3.324864406731146277e-02,-1.924735960492655606e-01,-4.309406807977652493e-02,1.580318190385571198e-02,-1.688941078203473221e-03,7.121606549450610604e-04,1.569750905036926270e-01
-2.666804708404842128e-02,-2.040498856349443890e-01,-4.830811327312425213e-02,1.953933744920078892e-03,9.812739408128551201e-05,-4.841535603163386534e-04,1.676491647958755493e-01
-4.164488181762854985e-02,-1.314087617351545056e-01,-4.794830239766505187e-02,-3.637289466241747093e-02,-1.193867875614662739e-03,-1.420434189637019909e-02,1.100454255938529968e-01
-3.615792533263049308e-02,-1.693413332673215088e-01,-4.429859614929748668e-02,7.479178678054095898e-03,7.487368655119190121e-03,1.473120299212785046e-03,1.306231021881103516e-01
-4.054739824308590396e-02,-2.107876485167176628e-01,-4.175350732073969395e-02,5.262562988941363405e-04,2.059056588268454863e-03,6.666625862591618167e-04,1.696842759847640991e-01
-3.530258854113679096e-02,-6.968814932589953437e-02,-4.124973586739859310e-02,-3.262900456084413120e-02,1.047098964015711221e-03,7.499097538221494424e-04,6.490124762058258057e-02
-2.725861396038092854e-02,-2.081695603527222160e-01,-4.622091710083148230e-02,4.152968661228032335e-03,5.870838396483117790e-04,-1.087596813632851333e-03,1.723780035972595215e-01
-2.918810032709001634e-02,-1.916656764611837649e-01,-5.513017439846627094e-02,9.442455780244662054e-04,-2.247868905964620686e-03,-7.920535839172523603e-04,1.512503325939178467e-01
-4.658921980504231869e-02,-2.138972717289572834e-01,-3.828831025791774867e-02,-1.820787470320506859e-03,-3.504823293796029832e-03,-6.733013290165411162e-03,1.721409261226654053e-01
-4.506524033361565540e-02,-2.150719743377977888e-01,-4.656563414261656597e-02,3.050299574224344529e-03,-4.979060038211369693e-05,1.397087662407407770e-04,1.693441569805145264e-01
-3.107253301990113570e-02,-2.089546548292788852e-01,-4.600271914867989920e-02,3.017649274402437257e-03,1.033006635911745946e-03,7.218351290171614188e-04,1.710006743669509888e-01
-4.716481398371445699e-02,-2.100744682775457228e-01,-4.880938583399452996e-02,6.317389679670598742e-04,2.688806785009460612e-04,-4.028531141482506392e-05,1.620980054140090942e-01
-2.783642147304617176e-02,-2.091417204472860725e-01,-4.931968323788508968e-02,4.165401189087652653e-03,4.671254483420392593e-04,1.931890253781434307e-04,1.717292368412017822e-01
-2.465060184195494442e-02,-2.006209296311291523e-01,-4.998182922141662654e-02,4.211713434725023950e-03,6.938389489063512879e-04,-8.306456977266831246e-05,1.649374514818191528e-01
-4.806653115546942467e-02,-2.109481017112669887e-01,-3.117837114042072699e-02,1.730821800075148828e-04,9.462940003815353829e-04,3.950431540440306022e-04,1.719582229852676392e-01
-2.607770163714885625e-02,-2.020190907406573810e-01,-4.647503327277616170e-02,-3.461219952931610545e-04,-2.288999777004010723e-04,-1.033172133416950048e-04,1.666830480098724365e-01
-5.704691918294109432e-02,-1.495339030513632983e-01,-4.565703899116450859e-02,-5.472524730076174741e-04,-3.650286920214250701e-03,-1.354168574170348457e-02,1.016267240047454834e-01
-4.737978836773306529e-02,-2.164066811290082937e-01,-3.184574902507339433e-02,-5.473786019844612515e-03,2.020645090675399214e-03,-6.794646628225379376e-03,1.779823154211044312e-01
-3.499553378519299623e-02,-2.121021973295990903e-01,-4.482470923632584509e-02,-3.693328710111143127e-03,-3.777133364391294709e-03,-3.561337404742142393e-04,1.726460903882980347e-01
-5.921747640978825000e-02,-2.016638929631023869e-01,-3.717602057007039079e-02,-4.158923587520033625e-03,3.763273079678220324e-03,-3.272171658967756164e-02,1.649940609931945801e-01
-4.887772791147748652e-02,-2.185971882552221190e-01,-4.837798926325148630e-02,1.537319817640212796e-03,-2.069676068636174221e-04,2.309366576629513865e-03,1.700381636619567871e-01
-4.449152983621586233e-02,-1.663433915210051350e-01,-3.855644698125047093e-02,-3.807114337039911936e-03,7.327243859119432490e-03,-7.636987853575420010e-03,1.264350414276123047e-01
-5.130753666220560366e-02,-1.564785076089617311e-01,-3.039684584788251293e-02,-1.130796353847513891e-03,4.864191978181863982e-04,-3.000069401536835031e-02,1.280705183744430542e-01
-4.798957334964115695e-02,-2.108497474782189962e-01,-4.955417384980197876e-02,2.955750813925841483e-05,-8.554630044712471489e-04,1.517927765929510649e-04,1.620905250310897827e-01
-4.860366841216232081e-02,-1.553823106124198605e-01,-4.326162401134789337e-02,-7.631034244166540366e-03,-6.387386636081781102e-03,1.741432728341459762e-02,1.149239018559455872e-01
-4.961742173834979286e-02,-2.154102910379102620e-01,-4.698319841624189197e-02,4.022822917975796622e-03,4.928339212877321136e-04,2.081613028816674884e-05,1.672729253768920898e-01
-4.811052840858812130e-02,-1.321801003113026451e-01,-3.534992556062806213e-02,1.600719582758659831e-02,4.637228529594682527e-03,2.642361078218237805e-02,1.059770211577415466e-01
-5.249914119986143907e-02,-2.189196896546308779e-01,-4.457040256518286087e-02,-1.797717444046483502e-03,-2.095890059668352500e-04,-1.092644437361508375e-03,1.705625355243682861e-01
-2.983512717261323222e-02,-2.084596771688713435e-01,-4.260006839004721463e-02,-2.322677456222981473e-04,-2.713935154899992357e-03,-2.342962931751735040e-04,1.726614087820053101e-01
-6.107091368411261822e-02,-1.140600266783209221e-01,-5.000821409712302018e-02,-2.825573715029647097e-03,-2.078898070126928600e-03,1.396415339920743098e-02,6.432994455099105835e-02
-5.709759316265494711e-02,-2.997142272566956089e-01,-6.296501181009724057e-02,6.008329360824379156e-02,-2.696787551678600774e-03,-1.300014073049770950e-02,2.623595893383026123e-01
-3.996732944806832138e-02,-8.506257313232856720e-02,-4.101723573382261290e-02,8.156105627304881950e-03,-3.884704769218376170e-03,3.814971964907971913e-02,8.123040944337844849e-02
-3.072391245792091552e-02,-2.118940249643050389e-01,-4.611393656345116887e-02,-9.764336821697401506e-04,8.459149668578897765e-04,-1.127523431835903041e-03,1.740116924047470093e-01
-4.286638399101399405e-02,-2.253823098805797787e-01,-3.971450548472547915e-02,5.957724852786235904e-03,-9.003487005049919806e-03,-7.969761084067633616e-03,1.855733990669250488e-01
-5.202892969375777499e-02,-2.137325481984632958e-01,-4.426802134209547462e-02,1.749593948834049983e-03,1.736359990949120540e-04,-1.689466613487276316e-03,1.657742261886596680e-01
-3.209267977535679855e-02,-1.959983766462307098e-01,-4.941179407334173046e-02,-1.495751622085007230e-03,-3.572272323590323841e-03,-4.081290896530429869e-04,1.561147719621658325e-01
-5.183645964773214709e-02,-2.315962955145484670e-01,-4.900318334423669347e-02,-8.087663653630077941e-04,1.356919439470008395e-03,-1.457670917559444326e-03,1.812313348054885864e-01
-4.143076492325274696e-02,-2.165389463141920712e-01,-4.456272980009538115e-02,-6.936213811420326864e-03,-3.200079974744143678e-03,3.958707581719509913e-03,1.742019504308700562e-01
-4.267699160637063865e-02,-2.164402147627846329e-01,-4.287897467016237724e-02,-3.011491452985068980e-03,-2.699129456399731574e-03,2.604581464825165248e-03,1.738620549440383911e-01
-4.174202683243787015e-02,-8.016305376328228260e-02,-4.376742470548276170e-02,-1.771541608625320022e-02,-5.829795323059017501e-03,3.254085659976474476e-02,7.498432695865631104e-02
-2.875088757156968322e-02,-2.090845361061467733e-01,-4.861513577552303844e-02,-5.768972684911285705e-04,2.159822968203500165e-04,-7.111051202376164832e-05,1.712710559368133545e-01
-3.291715077876168627e-02,-2.133873846943405428e-01,-4.651536599123490962e-02,-1.220318636402709361e-03,1.602881670732300224e-03,9.799376000496338480e-04,1.741131842136383057e-01
-3.106367484948462099e-02,-2.122688733552037799e-01,-4.751150780464883511e-02,-1.122157930243910260e-03,2.397582116949282822e-03,-7.323553474557930503e-05,1.736273616552352905e-01
-2.649967114231283061e-02,-2.009237376585709667e-01,-4.941235036129888736e-02,-4.679162513075044855e-03,-2.183767840969585289e-03,3.355441225818236095e-04,1.644157916307449341e-01
-5.022891639455878687e-02,-2.149783415674573761e-01,-4.661419868442793352e-02,-5.212351775645638480e-04,2.310742286148326891e-04,1.771522736203239197e-03,1.666173785924911499e-01
-2.850605703104765187e-02,-2.066949776238014569e-01,-4.859747271035373684e-02,-4.277604977117367441e-04,-1.057462826798373804e-03,-6.909648427618970187e-04,1.690568625926971436e-01
-3.700562130829307406e-02,-2.219945860624453760e-01,-4.368114579822770377e-02,-4.791575749943206668e-03,-4.343691520602563014e-03,-1.185014515145836438e-03,1.820996254682540894e-01
-2.889422824624784947e-02,-2.105591658163711299e-01,-4.798881751666263240e-02,-7.867353337732209710e-04,3.403893429601684804e-04,-3.455132217665513408e-04,1.729176044464111328e-01
-4.635639582328869579e-02,-2.342487605453109079e-01,-5.026383882381309232e-02,-6.649406732843102241e-03,-8.966912857973969491e-04,-1.405834982757110836e-03,1.863480955362319946e-01
-5.890861862596737109e-02,-3.152739964532233485e-01,-5.534239066993691669e-02,-2.315362556932370336e-02,-1.635388698416957503e-03,1.412829873409452396e-02,2.624219954013824463e-01
-5.303809311502787061e-02,-3.057854504039922428e-01,-5.841660249483517087e-02,-9.229122892894920521e-03,-2.493934462163164244e-03,-3.666181927858913614e-02,2.585676014423370361e-01
-3.639378207038689028e-02,-2.145801207631397589e-01,-4.623102061943060864e-02,-1.832332969197532661e-03,8.257962336594388631e-04,1.144677379581458473e-03,1.735232770442962646e-01
-4.346709578177861133e-02,-2.121011624144102381e-01,-4.308995610902124906e-02,-6.395166951404045153e-05,-3.279967846985723642e-05,6.462351665654847074e-04,1.688267141580581665e-01
-2.487462703030567102e-02,-2.267994243330784254e-01,-4.047726240858843388e-02,-1.667632897170332612e-02,1.248780038810723197e-03,-3.300733044251404763e-03,1.968201398849487305e-01
-5.786467774753487753e-02,-2.231870815574284184e-01,-4.126409976634064225e-02,-1.264123466959307619e-04,-3.130094636581002253e-03,-3.746243092697555156e-03,1.744221001863479614e-01
-3.369596833903507754e-02,-2.071397246595107766e-01,-4.607902663855933251e-02,-7.582368164869026338e-04,4.213964271159133181e-04,-3.142944640077565549e-03,1.676907986402511597e-01
-2.336443540848502642e-02,-1.935968332203262532e-01,-4.862375222171239769e-02,4.349200056429912073e-03,6.890569272413395478e-04,1.052860754447184467e-04,1.592964231967926025e-01
-4.797672415770801863e-02,-2.114012104227269706e-01,-4.600266795730924979e-02,-7.363096305458560753e-04,1.639041674022056311e-04,-1.186492989158754183e-04,1.644257158041000366e-01
-4.279694507146138138e-02,-1.779898709720203753e-01,-3.189104458707639478e-02,-1.334444030813445453e-02,-7.646999030457434995e-03,1.292276044488026993e-02,1.451933532953262329e-01
-3.172362742022967474e-02,-2.117486683672069048e-01,-4.722390858692828569e-02,-5.734950037673131051e-03,-3.299142012125472201e-03,-1.802725105467552474e-04,1.731769442558288574e-01
-3.438874439822559720e-02,-2.084824035827335109e-01,-3.801569218749668855e-02,-3.561262272479200921e-04,6.439431640452851794e-04,6.075604399641411184e-04,1.723167449235916138e-01
-4.370663876420445570e-02,-2.206169840738633758e-01,-4.566636638645708846e-02,1.441157077814565236e-02,6.114380790071057177e-04,-1.546219930764867892e-03,1.777239143848419189e-01
-3.932956201982883149e-02,-2.290260492370811418e-01,-4.202694424217204988e-02,1.585443662285381666e-02,3.535057512872512991e-03,3.319493683591664968e-02,1.989413052797317505e-01
-4.961551705836635129e-02,-2.508293592210151246e-01,-5.449519806036803860e-02,3.927606630400385691e-03,-2.029925484813213579e-03,8.248789490475321243e-03,1.994786411523818970e-01
-3.839928959496873712e-02,-2.137805081074939939e-01,-4.625669773594251466e-02,2.716780009931142950e-03,4.304860562284354799e-04,2.219842251883868934e-04,1.716540604829788208e-01
-3.016575595735135340e-02,-2.106826227928950690e-01,-4.728895430950637996e-02,-7.146941611647415846e-04,9.597044013161188172e-04,-4.534882099629597711e-04,1.726077347993850708e-01
-4.183430125338816197e-02,-1.480855010429581176e-01,-4.143339776249237161e-02,5.801514314826530794e-02,2.690214366261350909e-03,2.570193268521639776e-02,1.530778408050537109e-01
-5.712545099169569207e-02,-3.407018511274885197e-01,-5.415463738204620570e-02,1.688097675438904668e-02,1.923900915057932077e-03,2.812117022226710839e-02,2.906978726387023926e-01
-5.714359090255152762e-02,-3.131608263004266313e-01,-5.331509005611856367e-02,-8.249889702836906563e-03,4.125775264728451003e-04,1.947826645026721343e-02,2.605427801609039307e-01
-4.792776401978844636e-02,-2.159484579399240656e-01,-4.658597524528790973e-02,2.665770767923416728e-03,-1.559878873110032735e-04,-2.900947762878184418e-04,1.687597334384918213e-01
-4.707393328971387625e-02,-2.421374366978810422e-01,-6.541925219398875280e-02,-2.755570330472951676e-03,2.735176629022020856e-03,-6.731796345718611685e-03,1.870534569025039673e-01
-4.443049688053120339e-02,-2.180696107463376276e-01,-5.319999885958220237e-02,-2.015560412596892857e-03,-9.583677653346875597e-04,-5.624462664077374248e-04,1.694715619087219238e-01
-3.561875043275793823e-02,-2.091502594909670498e-01,-4.728480484427689812e-02,-8.652926930616545650e-03,-3.325708479405854560e-03,-3.023425982282517636e-03,1.688492745161056519e-01
-3.386281005621329110e-02,-1.993265315895990097e-01,-4.722233392431089000e-02,-8.014163236992049178e-04,-4.551437904391362338e-03,-5.267041864157862539e-04,1.594086289405822754e-01
-4.682525103352429274e-02,-2.256360192657611841e-01,-5.465389403357257675e-02,1.038626758299352089e-03,-6.347288263004675956e-04,-6.969760855243894125e-04,1.750446707010269165e-01
-3.273899289917145405e-02,-2.107954265383860104e-01,-4.744387972335133846e-02,2.264440763381113039e-03,-4.723531581331988187e-04,-6.818945006731196631e-04,1.712293028831481934e-01
-4.651492155489291014e-02,-2.126952361505875522e-01,-4.431772236804959464e-02,-7.984177791744625228e-04,4.002692669261408306e-04,1.629232927896266756e-04,1.672971248626708984e-01
-4.046086504005323714e-02,-1.923675252643842759e-01,-4.465856936709401009e-02,9.910808951352996499e-03,-7.827146659653635638e-03,-7.092551522383531287e-03,1.519373953342437744e-01
-4.852408509042854812e-02,-3.745780399929315441e-01,-7.077378893530456017e-02,-2.247409646610162848e-02,-1.201773467134065101e-03,-9.459708913465363078e-03,3.183389306068420410e-01
-4.318923581550206114e-02,-1.326838888351549728e-01,-4.064753688253572306e-02,3.462747666754757703e-02,-3.465624353295271125e-03,-4.701246037647107551e-02,1.360402703285217285e-01
-3.521687951165868719e-02,-1.624035893141493325e-01,-5.446708794960999911e-02,-1.933635800845631952e-03,-2.887708066942173274e-03,5.780573955319553178e-05,1.188902929425239563e-01
-3.370531521117813706e-02,-1.854906852755183744e-01,-5.200226723812005625e-02,-1.332837014373416083e-02,-1.585403385802817847e-03,-3.188112386165370188e-04,1.453862041234970093e-01
-2.592148826148955171e-02,-1.697257302186604977e-01,-5.340567004904769877e-02,1.751496118965349680e-02,-2.286105073367204320e-03,-2.607289151123499613e-03,1.357906162738800049e-01
-5.662134795823371008e-02,-2.166513273925325667e-01,-4.591200910490489395e-02,1.823044696874949466e-03,-5.594468342652089005e-04,2.767468480347913930e-04,1.656781136989593506e-01
-4.184796473472010558e-02,-2.531323675692974673e-01,-4.615762539636919515e-02,-2.978039684967008147e-02,9.111231727594266971e-03,-1.503435855821231822e-03,2.160221040248870850e-01
-4.519194268515243362e-02,-2.155648478948897218e-01,-5.151060118801465554e-02,5.174819373748511080e-04,8.633680160868090409e-05,-2.260168635130059989e-03,1.673513501882553101e-01
-2.643704142498094767e-02,-2.062539928762651409e-01,-5.028492640203457292e-02,-2.000971342623125769e-04,-7.970318974667567466e-04,-2.831734247197289578e-04,1.691652089357376099e-01
-3.636406832344434709e-02,-2.112925883889975043e-01,-4.681772057952415106e-02,6.231296938136914390e-04,-8.773669138651024634e-05,-2.149296382753861187e-04,1.699469089508056641e-01
-6.030404731673583152e-02,-3.232691620884101669e-01,-4.591569639777945411e-02,-1.054480168460227192e-02,6.775371770168035334e-04,3.139579808101033986e-02,2.764658331871032715e-01
-5.409609013668160993e-02,-3.294463656264170481e-01,-5.892933514458195687e-02,-2.083861666888399411e-02,-4.328780774081121205e-03,6.835261593968119075e-03,2.756980657577514648e-01
-2.745541571435937411e-02,-2.061638413499358169e-01,-4.886836154878190092e-02,-3.219176607099473800e-04,-9.348753519500233207e-04,-4.354930702692868215e-04,1.690326631069183350e-01
-5.282856146573618877e-02,-2.138022069754272614e-01,-4.735331372526014465e-02,-1.006669585661784227e-03,9.856692165524419923e-04,1.613922798410050532e-04,1.637983471155166626e-01
-2.719925023893000893e-02,-2.058794131526874849e-01,-4.733522835069484125e-02,-2.894382266607086916e-04,-2.199881109672018747e-03,-3.079893106688422633e-04,1.695559322834014893e-01
-5.306500177204690610e-02,-2.484353453613384888e-01,-4.463958446150868842e-02,1.165574506622324988e-03,2.494667156570643494e-03,-4.578488811189732922e-03,1.999306529760360718e-01
-3.369130010373413975e-02,-2.095771832341055130e-01,-4.384221771381356658e-02,-5.806257194687973423e-04,-9.538784033788402219e-04,-1.840753112142780507e-04,1.710477322340011597e-01
-5.244032910841060768e-02,-2.173313205415010885e-01,-4.754410265601012597e-02,8.027531078748998935e-04,2.727687864178931446e-03,-2.882256584536061622e-03,1.675396412611007690e-01
-2.408711989743382575e-02,-2.007625438152071673e-01,-4.915233473565300965e-02,1.435955809372625822e-03,1.008370566429928511e-04,-4.625518867139662062e-04,1.655926406383514404e-01
-4.591746387959876746e-02,-2.157218176432396106e-01,-5.607744484939668900e-02,4.334806301029254334e-04,3.192052552310157155e-03,2.173939302471507642e-03,1.650964617729187012e-01
-2.450259011933325626e-02,-2.055963168857590784e-01,-5.001682624111380288e-02,2.544995344468301956e-03,9.019817720529813021e-05,1.459282002571461278e-04,1.698380559682846069e-01
-5.987940912402684585e-02,-2.541308914205335778e-01,-4.862578987845858625e-02,2.009173599313933932e-03,-8.729954236595946829e-05,-4.716586035962633955e-03,2.003127187490463257e-01
-5.011128471618452040e-02,-2.188819778396213778e-01,-5.097741723768833833e-02,2.220394009223710437e-03,6.896966449370423718e-03,1.297911116153301937e-03,1.688214093446731567e-01
-4.915832160370254417e-02,-2.093174424305731807e-01,-4.710154537336647823e-02,3.633217792969099076e-05,8.610979352623829601e-04,-2.302965387938325260e-04,1.612047553062438965e-01
-4.042833646185440416e-02,-2.137564030009338478e-01,-4.465517875939095660e-02,3.197029347733289749e-03,-7.712632043525525713e-04,-1.284863735066602442e-03,1.713629364967346191e-01
-2.905765383258478163e-02,-2.101265065953644151e-01,-4.965490587879830414e-02,4.130634225819333934e-03,-2.690942065609277546e-04,2.691038863558438388e-04,1.718495786190032959e-01
-4.754919009120708862e-02,-2.100502002840762827e-01,-5.069802630190536896e-02,-6.042857086544155905e-05,8.071129871521414085e-04,7.564485701466662666e-05,1.609558463096618652e-01
-4.530579188805266416e-02,-2.229459991627289195e-01,-4.409968120104381523e-02,6.804639857403694397e-03,-3.517735710248852052e-03,-1.017143265897074191e-02,1.796055585145950317e-01
-4.742899000534719911e-02,-3.101479702046668341e-01,-4.963975696088426814e-02,-1.159694491871103225e-02,-5.090819292981085473e-03,-2.336614635343106650e-02,2.656397819519042969e-01
-4.713251896812772901e-02,-2.148567710702713462e-01,-4.780955156374128157e-02,-2.829606777145814416e-03,1.740863390458023653e-04,-7.011248143954000936e-03,1.678985208272933960e-01
-3.812629412715563132e-02,-2.104600019050738013e-01,-3.841606156170206121e-02,6.424566293362220411e-04,4.609836867091051285e-06,2.532889830693941776e-04,1.721931546926498413e-01
-3.395593014431166901e-02,-2.052332069220645927e-01,-4.123184850820116321e-02,-9.470316535364335002e-04,-5.911839159590057645e-03,4.523014595316727018e-04,1.680797338485717773e-01
-3.619983164396809588e-02,-2.090273605500307108e-01,-3.493246115497075643e-02,-9.153600477422602365e-06,8.497234033750776256e-04,-3.889231154246036075e-05,1.734709441661834717e-01
-5.282075760996941816e-02,-2.116464783070113598e-01,-4.539744376451521762e-02,-3.583100214226591414e-04,1.381228229440236745e-03,-3.024264449323790338e-04,1.626840829849243164e-01
-4.905691225475862505e-02,-2.116110275496754789e-01,-4.602875090829348925e-02,8.638546323829786647e-05,-5.749934010416745756e-04,7.775104913689788455e-04,1.640977710485458374e-01
-3.676529145963767370e-02,-2.101192066565585881e-01,-3.535629253497919733e-02,-1.604790963407957803e-05,7.737869367754337483e-04,4.171179657153151676e-04,1.740693598985671997e-01
-3.692437096391094908e-02,-2.138842318270387788e-01,-4.875696383448287208e-02,5.423041249355726144e-03,-3.894792072435055352e-05,2.267523616407360614e-04,1.716079711914062500e-01
-3.701415183464139974e-02,-2.096725485662729871e-01,-3.729147973406204963e-02,2.157729504258431772e-04,1.079494681161718463e-03,-2.763234044781240394e-04,1.725310981273651123e-01
-3.943036017792132114e-02,-2.090234554436287140e-01,-3.897725138108987936e-02,1.533179804368343599e-03,2.523474546709261572e-03,3.485354739079923533e-04,1.698981672525405884e-01
-5.337070039316932357e-02,-1.597595392662368718e-01,-4.709561794865685380e-02,1.694307124763486799e-04,-6.343544242907082041e-03,1.519002003981108611e-03,1.102419644594192505e-01
-4.425642308157287652e-02,-2.128266441384796814e-01,-4.494743873100187637e-02,-3.117097771642830892e-04,2.389767504145270775e-04,-7.240657246794072761e-04,1.682318300008773804e-01
-4.659057163029450138e-02,-2.158082113585959860e-01,-4.518022463342780126e-02,-1.886392339983574253e-03,8.422590073949717208e-04,1.210222599049302948e-03,1.699777990579605103e-01
-4.622569685372956982e-02,-2.151113924551335543e-01,-4.328131562869477061e-02,-1.928910286611792502e-03,4.661142895124762244e-04,-8.281267344344526993e-03,1.710142195224761963e-01
-5.924885916362491317e-02,-2.170219902918123500e-01,-4.445728921877555723e-02,-1.354056020469735899e-04,1.690999900793500497e-04,-1.731916172121771057e-03,1.656924933195114136e-01
-4.500298685541648247e-02,-2.961953287146773528e-01,-5.671306172257953304e-02,-4.129007371876924903e-02,-3.060253071620390800e-03,-2.273121101723532544e-02,2.588166594505310059e-01
-2.952875655497912144e-02,-2.123942957240944618e-01,-4.957300080855460422e-02,-2.356850524138917775e-03,1.138588363471772566e-04,-2.976311382782035816e-04,1.737617403268814087e-01
-3.188363684706477241e-02,-2.090663394747091786e-01,-4.239889811172404405e-02,-4.449365943267583772e-04,-2.551805643232773341e-03,-3.961691123340384279e-04,1.722258925437927246e-01
-3.472926473615708942e-02,-2.139592223900954049e-01,-4.322474647854907676e-02,-5.187054349285881438e-03,3.136886342222033560e-04,-2.649241335679877220e-03,1.754279732704162598e-01
-4.504442097433381670e-02,-2.135848538645480077e-01,-4.392277368400279713e-02,-5.417496052209985410e-04,-1.782850301512158659e-04,1.190827618516005545e-03,1.691195070743560791e-01
-4.695934866127395024e-02,-2.146581273588547278e-01,-5.055983455827408463e-02,-6.575313008355082416e-04,6.447390050680627989e-04,-5.634461394949774170e-04,1.659383773803710938e-01
-4.596550216454884513e-02,-2.192466803709528789e-01,-5.511912517259340283e-02,-5.518141403123564322e-04,2.934596484135981558e-03,-1.451329450716357366e-03,1.689883768558502197e-01
-4.427018554160896263e-02,-1.423808477855009469e-01,-5.713791449555313817e-02,2.628895256719071885e-02,-7.507230421835837247e-03,-1.737062868772533061e-02,1.080575659871101379e-01
-4.797290048784601940e-02,-2.221329112937248107e-01,-5.674031873349152932e-02,-1.122837079475391773e-03,1.834122951723571359e-03,1.494253584691045871e-03,1.700065135955810547e-01
-5.740077123587686986e-02,-2.242168770824978230e-01,-4.557983920388347654e-02,-3.998270100179305772e-03,2.231429795734195167e-03,-5.860390222608747885e-04,1.732143014669418335e-01
-4.941114778090364978e-02,-2.441011152467398304e-01,-4.618509671312048814e-02,-4.623355368812729488e-03,1.906120240671046106e-03,-7.572654490962738190e-03,1.969510912895202637e-01
-2.939421061404409730e-02,-2.024562673800567314e-01,-4.709052891350852532e-02,-3.167150236362716378e-03,-3.187948906076072154e-03,1.411682646332445179e-04,1.651112139225006104e-01
-4.631253048427534658e-02,-2.185865022694084281e-01,-5.473985151825608297e-02,-9.278008528385784043e-04,-1.351269017976292324e-03,4.718908781418851457e-04,1.682446449995040894e-01
-4.305561193660269181e-02,-8.207698720395203984e-02,-4.854352488540381733e-02,3.590361862548961669e-02,-1.838203310053585946e-03,-1.363001256194019788e-02,7.598234713077545166e-02
-4.626273273900856353e-02,-2.050764129431906502e-01,-5.379642557730336672e-02,-3.493031821443459695e-02,8.190772561580401782e-04,1.852249939483432972e-02,1.696282178163528442e-01
-2.937409043873427661e-02,-2.059572277942550433e-01,-4.546514556232185422e-02,4.695372154717153542e-04,-1.129482143144094463e-03,-8.429598810279469992e-04,1.691323071718215942e-01
-3.329181056451334386e-02,-1.849671522340133045e-01,-4.273540355920939227e-02,3.889808765500681748e-03,-7.198324650614786741e-03,-5.876637790559230586e-03,1.482115834951400757e-01
-4.663117443716369853e-02,-2.217315934261339105e-01,-5.775609665623029215e-02,-1.101452916484349726e-03,9.127090811580435481e-04,-1.736656192005476456e-03,1.698562055826187134e-01
-4.382408365976971087e-02,-2.177504415868089516e-01,-5.219901542811975631e-02,-3.295714479707406545e-03,2.603872879195477403e-03,1.525260045171380596e-03,1.700699925422668457e-01
-4.477759666586952902e-02,-2.233673857909425631e-01,-5.878527083376208079e-02,-1.928134839528531080e-03,-1.867914262054751494e-05,1.916024717666922530e-03,1.720786690711975098e-01
-2.831928915387552093e-02,-2.055293790466279358e-01,-4.595259749835515356e-02,1.705093088749438544e-03,-1.065550625019441979e-03,-1.937733848310064415e-03,1.691536009311676025e-01
-4.774261116197674182e-02,-2.321008237274033159e-01,-5.204535548158502334e-02,-3.393407277497946257e-03,1.283965017415555519e-03,3.619526144967596601e-03,1.824609935283660889e-01
-3.261598700984216087e-02,-2.082433314158214088e-01,-4.287485372409476081e-02,1.077158096567198834e-03,-1.117455213332472184e-03,-1.273231951032769132e-03,1.707646399736404419e-01
-3.407741476523751256e-02,-1.968742475694809924e-01,-3.426245061105560874e-02,-1.403448926539362443e-02,5.511619507123321354e-03,-2.280527715676114800e-02,1.694549918174743652e-01
-4.366138233849098382e-02,-2.123501416457059254e-01,-4.473569965807272508e-02,6.213252470293649998e-04,-4.227669185886288655e-04,6.143502064827609547e-05,1.681592464447021484e-01
-4.893734237969370182e-02,-2.419467829464881925e-01,-5.561487213640044225e-02,6.556306496952244139e-04,-2.951994741178867732e-03,-8.928802741934013581e-04,1.898373812437057495e-01
-5.185135822431350544e-02,-2.153689337147768057e-01,-4.452888944673996652e-02,1.891448815641876306e-03,-1.232503241038692451e-04,-8.804387038931617369e-04,1.673381924629211426e-01
-5.352437299281408156e-02,-2.146508220764243857e-01,-4.696525329704798191e-02,-7.987770936014498054e-04,1.569091805599426683e-03,1.166110488187201751e-03,1.645447760820388794e-01
-4.561501035682296451e-02,-2.189419669997434148e-01,-5.537275643033981454e-02,-1.221927251850967421e-03,-7.813472780040245846e-04,-1.674161708175050467e-03,1.687035411596298218e-01
-5.022115027677676730e-02,-2.114878109151593355e-01,-4.919805715487810677e-02,1.158350537087111812e-03,2.078265827809930126e-03,-1.388748241203279117e-03,1.618509888648986816e-01
-4.461192666531379331e-02,-2.172188418470579196e-01,-4.820965929057839661e-02,-1.315492742759391672e-03,-2.716307455973836649e-04,-1.984406543209331873e-03,1.708868741989135742e-01
-5.424369812129423846e-02,-2.093285535678581499e-01,-5.342369493714727718e-02,7.592828528039452518e-02,4.349749797263696878e-03,-1.910028364589521493e-02,2.064599096775054932e-01
-5.344236316096404732e-02,-1.057716180400172373e-01,-4.960825560640215459e-02,-8.107608605388337206e-03,-3.833419579456535508e-03,-3.023582719197145594e-02,7.705574482679367065e-02
-4.077148118947149236e-02,-2.138499471522051221e-01,-4.701655244952748086e-02,3.289148024816531193e-03,-3.316780153238603089e-04,-5.036299616634635004e-04,1.701405793428421021e-01
-3.440157843699336027e-02,-5.649219859925055931e-02,-4.167381438729442222e-02,2.846082846530086086e-02,-6.674206406137197893e-04,-1.721543096992906793e-02,6.083369627594947815e-02
-3.928383407994154308e-02,-8.027835818153389313e-02,-4.247230968391541711e-02,-2.001059984444936851e-02,-4.984867559436225240e-03,-2.799810705349885590e-02,7.202436029911041260e-02
-5.521951237352227398e-02,-2.201681991294794916e-01,-3.644676458155433896e-02,-4.768518600737614837e-04,6.887448397048664354e-05,-2.631021169833355072e-02,1.809265166521072388e-01
-4.810892012555097880e-02,-2.139037055749725691e-01,-4.453578992448806173e-02,-2.878799922899538503e-03,7.270069626125902091e-04,-2.101261830467450551e-03,1.677282899618148804e-01
-4.609693158606031210e-02,-2.115402054295327239e-01,-4.753222382491235909e-02,-5.553231668333352689e-04,1.794410318797819549e-04,-1.078951041418819198e-03,1.647440195083618164e-01
-4.873324340257426113e-02,-2.320448456726851849e-01,-4.431939082295888177e-02,-5.074804688081349310e-03,2.161654108270181715e-03,-3.780227785784993216e-03,1.859190315008163452e-01
-3.227783106672069136e-02,-1.997951949475334776e-01,-4.696260192412303469e-02,8.282267309653738906e-04,-4.371507519605858511e-03,-5.506942926887536689e-04,1.608665734529495239e-01
-5.429317192380302137e-02,-1.332903793878808529e-01,-5.062852793476774194e-02,1.817266548357040655e-03,-2.963239290349293110e-03,-3.948303349449559796e-02,1.060964837670326233e-01
-4.481712373728229115e-02,-1.764622782514272126e-01,-5.705140450828724563e-02,1.312056080429437055e-02,-1.454229277791355048e-04,-6.328767877704401246e-02,1.685290485620498657e-01
-3.627973556098831875e-02,-2.103331628007712450e-01,-4.373226499793009259e-02,-7.538441590040434806e-04,-6.345183459485488186e-04,-8.015535528358017558e-04,1.704635918140411377e-01
-5.059345756435579267e-02,-1.465556444651907597e-01,-4.744910187867497353e-02,-1.265858297229258134e-02,3.228356465217780899e-03,-5.349800756036909855e-02,1.364494860172271729e-01
-3.708857483736792415e-02,-2.088851211747493331e-01,-4.587781396857919247e-02,-7.381694252040037338e-04,2.573217463256742468e-03,-4.910931215644598422e-04,1.676411777734756470e-01
-3.553773509699618277e-02,-1.154134815639153155e-01,-4.174304035900183035e-02,3.413464398106831610e-02,-2.479392331321765130e-04,-4.235312124474943651e-02,1.216554716229438782e-01
-3.661553936967510553e-02,-2.123242556035300765e-01,-3.851482879977535800e-02,7.861793057586641853e-06,-3.701586610391113504e-04,-2.500983391732599292e-04,1.747685223817825317e-01
-3.691445997180956007e-02,-2.063199722034862460e-01,-4.326260360275035327e-02,-4.143957245616744587e-04,-4.196693018954656892e-03,1.477826508837320053e-04,1.664828360080718994e-01
-5.640973049075657941e-02,-2.037691224128242995e-01,-4.682465044089970108e-02,5.601841862904611419e-02,2.640060654544816305e-04,-2.965327715470371384e-02,1.878069937229156494e-01
-4.692606151480276794e-02,-1.733383686977061078e-01,-5.566042937563749765e-02,1.210258031280899566e-02,1.605752297230225029e-03,-5.993837755013725621e-02,1.617937237024307251e-01
-3.004575991575067495e-02,-2.075327085040729602e-01,-4.516474583567653411e-02,1.290537491746353727e-04,-2.243129901319095270e-03,-3.270584603485028868e-04,1.704765260219573975e-01
-3.930021624074196696e-02,-1.844291481464870319e-01,-5.478353793115620096e-02,-1.102470677075791192e-03,-5.950037286417796632e-03,8.975539050670416907e-03,1.393075734376907349e-01
-3.012486924028769109e-02,-2.105618903844843071e-01,-4.569346846740664214e-02,-1.938897294311850688e-03,-3.877483727660881131e-04,-7.779734509826376817e-04,1.732174754142761230e-01
-2.969990296741670949e-02,-2.005853491543175826e-01,-4.448209777145790966e-02,-5.610885004368777393e-03,-3.654776908668699517e-03,4.718043196985976574e-04,1.644064337015151978e-01
-4.845376201554713047e-02,-2.168757697227449155e-01,-3.574488280292575926e-02,2.334778084649929454e-03,-3.813232944271526589e-03,-7.656852981896684202e-03,1.757947653532028198e-01
-3.416771234963617010e-02,-2.111799479849767458e-01,-4.135549127070406450e-02,1.494260993517397009e-04,-1.236103975995897063e-03,-2.051357477998604935e-05,1.735434383153915405e-01
-3.267127230563984797e-02,-2.107453710192048746e-01,-4.399118250750255754e-02,-1.001248863520761995e-03,-9.832973718766819561e-04,-5.999137052609192049e-04,1.727128475904464722e-01
-4.302339943395011579e-02,-1.611384168466471478e-01,-3.457451995742452655e-02,1.616247123239533331e-02,-1.650714816691310890e-03,-2.895810616347832891e-02,1.353811174631118774e-01
-4.459052798089876979e-02,-2.219579934004569655e-01,-5.718452836100351711e-02,-2.779820937135696855e-03,-4.862636760149737251e-04,-2.137789665492649017e-03,1.715274453163146973e-01
-4.235214772852163856e-02,-2.122415179970936761e-01,-3.936252350506045522e-02,-3.435073420275726758e-05,-8.743409876625758909e-04,-1.771446713843751749e-05,1.714104413986206055e-01
-4.389713531129565971e-02,-2.132301277464522804e-01,-3.900262570512855881e-02,-9.873303074855730496e-04,-5.513378143110699193e-05,1.546948612824072637e-02,1.739174276590347290e-01
-4.524052840990674257e-02,-2.114597764816864289e-01,-4.361427929029758344e-02,4.428158977772027262e-04,-1.721525093476323912e-03,2.936940048877909612e-04,1.670674532651901245e-01
-2.965644023752674052e-02,-2.079425203794828814e-01,-4.468762161618398260e-02,6.079448235791313441e-04,-1.317977517120859279e-03,-1.174878390293991864e-03,1.712964475154876709e-01
-3.215521784305103159e-02,-2.071392021152930196e-01,-4.089233093454159446e-02,1.704302126382268787e-03,-4.055562688638452221e-03,-1.389996502639443202e-03,1.709699630737304688e-01
-4.389193649455867124e-02,-2.139957362567223020e-01,-4.451767164490980089e-02,2.847980401280427679e-04,-5.348745684523941672e-04,5.182796598427579773e-04,1.697974205017089844e-01
-4.321653496067943967e-02,-2.120392021943249827e-01,-4.328797822112315230e-02,1.182382113178377691e-04,-2.392765882923065157e-04,4.414152873945483870e-04,1.687893271446228027e-01
-5.218455472848329557e-02,-2.189449214526633380e-01,-4.815697787987754247e-02,8.431672462171975468e-03,2.995792750668590382e-03,7.713590907136126662e-02,2.158400565385818481e-01
-3.881159796365216130e-02,-2.112976273734236687e-01,-4.083158050306894687e-02,1.001492008005326341e-04,-5.010060243412495229e-04,-2.557534969284992201e-04,1.714878231287002563e-01
-4.217272260632849018e-02,-2.086359528072785630e-01,-3.203177369080004167e-02,1.573652642258099280e-04,-2.055606810326592038e-03,-7.486364229509730791e-04,1.718003898859024048e-01
-4.397689027859164046e-02,-2.246905971469721486e-01,-3.220468601603572456e-02,-1.178799111338771528e-02,2.162094663397647401e-03,4.203016130017963453e-02,2.016281783580780029e-01
-3.601040212107931709e-02,-1.963663502917092907e-01,-4.781565451973321390e-02,3.093634639372721054e-02,-1.050988917061071275e-02,-1.185126505988834227e-02,1.660850793123245239e-01
-4.787923791245843330e-02,-2.039062447502705822e-01,-3.227378535649062102e-02,-5.187369855159180282e-03,-2.246682362865437196e-03,4.251909980650588061e-02,1.803949028253555298e-01
-5.053367005328694012e-02,-2.116668140386198660e-01,-4.776945979061922309e-02,7.499298851745828109e-05,1.158481054138993469e-03,9.316571528801639466e-04,1.625533252954483032e-01
-4.611082902058838418e-02,-2.121993696646685135e-01,-4.615799836409940904e-02,-2.049860103964574500e-03,2.695954228640112457e-04,-1.662967312307802670e-03,1.661285459995269775e-01
-4.241631805207045358e-02,-2.091568416418297383e-01,-4.261018973540230126e-02,-7.961098494314141488e-03,-3.208761442792278182e-03,1.695259179178604204e-03,1.673312932252883911e-01
-4.806758182817398584e-02,-2.108378562669298850e-01,-5.009739907065750147e-02,2.792489617826201327e-04,6.491799173785623833e-04,-3.329521473180722035e-04,1.617705821990966797e-01
-4.575837627243148353e-02,-2.125483419636175486e-01,-4.584512266281284831e-02,-2.162101337177872382e-02,-3.823952563489013082e-03,1.602768881863880779e-02,1.732667386531829834e-01
-2.839389082362250849e-02,-1.290638881622769574e-01,-4.682508046410173430e-02,3.548653272644057555e-02,-3.317688457208219045e-04,-1.379288444098157986e-03,1.113670021295547485e-01
-4.661954503166871461e-02,-1.247706679282434700e-01,-5.376486987935387429e-02,1.394351020996911251e-02,-3.565415802090893867e-03,-4.431916511162076362e-03,7.925001531839370728e-02
-4.918268214042152003e-02,-1.330658222676465718e-01,-5.387274869063681665e-02,1.357460979435272039e-02,-4.407669375978627915e-03,-1.116510534506962547e-02,8.746445924043655396e-02
-4.989496020160061329e-02,-2.093764857803493973e-01,-4.584514347652865474e-02,4.148090857304427429e-04,8.514819999694047672e-04,-4.187324467339223716e-04,1.615544706583023071e-01
-4.792764323873902749e-02,-2.102279690583772620e-01,-4.697533426118442879e-02,-3.489298340460123145e-04,-4.780235777680233255e-05,5.182367769134228535e-04,1.627821922302246094e-01
-4.897808202398917787e-02,-2.148885882996381114e-01,-5.414538989172956729e-02,-4.156947858134236984e-04,3.031064982493141078e-03,9.435648183295441093e-05,1.634741425514221191e-01
-5.127134108968321030e-02,-2.118540542451677333e-01,-4.831046495935421847e-02,-2.238937030942623281e-04,7.861137475492161733e-04,-1.075898744837778197e-04,1.620897203683853149e-01
-4.660256355450400484e-02,-2.126654498538648186e-01,-5.005506183187793945e-02,5.344536558860712040e-04,4.264990985412810348e-04,1.630158934330438254e-04,1.643683463335037231e-01
-4.421005710247627452e-02,-1.309400272313582803e-01,-3.967871764571870297e-02,1.303891544718691758e-02,-6.069380132047451186e-03,-7.010812975066181389e-03,9.329324960708618164e-02
-4.602049043440648718e-02,-2.121993226867295856e-01,-4.624221849872902496e-02,-7.530869095286569581e-04,-1.236727616955133214e-04,-1.273581767221958466e-03,1.660879850387573242e-01
-5.234188822055754753e-02,-2.116593346897736594e-01,-4.633410545074058418e-02,-1.070367086719341580e-03,1.007531301693792222e-03,-8.548199562673454086e-04,1.624314039945602417e-01
-4.872920997936208698e-02,-1.780758311005770367e-01,-2.980664682388095565e-02,5.661147670805425150e-03,-4.588992869841164446e-03,-6.237036513183144039e-03,1.407558321952819824e-01
-4.364391720255914042e-02,-2.120734359197448959e-01,-4.510083336901794804e-02,6.549163314231172105e-04,9.699174565139781132e-05,-6.669992501996393694e-04,1.677137017250061035e-01
-4.120639710815982015e-02,-2.114214929352130623e-01,-3.813622232146350599e-02,-7.695149307425263501e-04,-1.710206168824210827e-03,1.413895146192674368e-03,1.718189269304275513e-01
-3.223470297968937526e-02,-2.090466734219443012e-01,-4.343057009503076271e-02,-3.813474225022259472e-04,-1.464137105306945359e-03,3.608258829657737948e-04,1.715095192193984985e-01
-4.577526287086680634e-02,-1.826663060666658400e-01,-2.417540531592232006e-02,-2.630136706894811716e-03,2.456080338530785244e-03,1.132260311569529415e-02,1.502863615751266479e-01
-4.911543439534274413e-02,-2.435930551720938975e-01,-5.057498891426215337e-02,-1.832101297595898487e-02,-1.029249436677800783e-03,5.675055615980336213e-03,1.965873837471008301e-01
-3.319677882358185173e-02,-2.107609521747797199e-01,-3.894396938269154007e-02,-1.157111107079240061e-04,-2.071824608273859121e-03,-1.742183959612118621e-04,1.747986823320388794e-01
-4.801497429554213436e-02,-2.170685528864134128e-01,-5.326845090152871470e-02,-2.810452797918288286e-05,-1.249351231085218126e-03,-9.613309700192326757e-05,1.665031611919403076e-01
-4.878863400927008903e-02,-2.388126391237668233e-01,-3.699240354013885734e-02,7.909235631546392142e-03,4.181812506823024550e-03,1.834294247452231824e-02,1.993473470211029053e-01
-5.429673681165521348e-02,-2.955685386327548403e-01,-5.364786141603977709e-02,4.197593373046880350e-02,5.445862111777186564e-03,6.281022309420450367e-02,2.749169766902923584e-01
-4.138871535819040048e-02,-2.125886535887447359e-01,-4.565345889766199428e-02,-4.675094261420733558e-04,-5.491534909918963699e-04,-7.161195976962732041e-04,1.691170632839202881e-01
-3.278396696256818954e-02,-2.114459978521338046e-01,-4.401129939154300313e-02,-8.627422401971732418e-04,-9.595353119216927604e-04,-3.690638809460277010e-04,1.733368933200836182e-01
-3.932375494220483741e-02,-2.100385481760013162e-01,-3.640965655395982103e-02,-4.217697273412894716e-04,-5.078078390825118988e-04,1.874221075390903127e-04,1.721944361925125122e-01
-4.683368225914333327e-02,-2.367356734539288188e-01,-4.309715780710428323e-02,1.530768364400983579e-02,4.091158882012136191e-03,3.632299629624534398e-02,2.037095278501510620e-01
-4.198636772453867572e-02,-2.430963583088647795e-01,-3.107622181033838082e-02,-4.776913014694872742e-03,-2.195976161179618788e-03,-1.868603175144153972e-02,2.094966024160385132e-01
-4.682652818138316464e-02,-2.073000377631294411e-01,-3.077196267932502671e-02,-1.105397566445888609e-03,-3.612570534081371420e-03,6.961348769439953607e-03,1.696290820837020874e-01
-4.270279314611599708e-02,-2.163437495588212967e-01,-3.695583586584511721e-02,1.472785416657291374e-02,4.246020664457910224e-03,2.963938303903339982e-02,1.858020722866058350e-01
-3.580082139038390926e-02,-2.114151794125846417e-01,-4.085999063801305092e-02,-2.543535745396795266e-04,-9.456530802914144343e-04,-8.454404705708441553e-04,1.731547117233276367e-01
-3.883947195730967639e-02,-2.123910596954460273e-01,-3.978846844723776116e-02,1.162565761265436139e-04,-4.849882959160153775e-04,-2.364601379644448774e-04,1.730816811323165894e-01
-4.724266155281820617e-02,-2.101410882756446219e-01,-4.721273638554990965e-02,-6.486924217673061953e-05,1.233067026285164600e-04,3.759885702791894370e-04,1.629148721694946289e-01
-4.015550699242478178e-02,-2.126584508826406816e-01,-3.968611589795799366e-02,5.623100107090335965e-05,-1.531640791825664681e-04,3.925242969401011406e-04,1.727396845817565918e-01
-3.935835039141268032e-02,-2.123221964008485951e-01,-3.895375388075585088e-02,2.487504121118769068e-04,-8.279117012944224585e-04,1.801148400495002479e-05,1.731729805469512939e-01
-3.345802122262838546e-02,-2.095700917991050183e-01,-4.098205003451497325e-02,3.772789426453708201e-04,-1.584038917214347728e-03,-7.166244758253753188e-04,1.725007146596908569e-01
-3.102855527757061166e-02,-2.036891216240433733e-01,-4.225638872409514385e-02,3.102807644482378016e-03,-3.353349246212540633e-03,-3.878425966048266896e-04,1.675177663564682007e-01
-3.947749539726205792e-02,-2.125930586730548910e-01,-3.819006933524146663e-02,1.789200084384528458e-04,2.134949071632704731e-04,-1.738133134346892656e-04,1.737637817859649658e-01
-4.569487559152739242e-02,-1.160184135794866678e-01,-4.541637784448536441e-02,3.143361739486799644e-02,-1.340887328421683103e-03,-2.881596981009417607e-02,1.021065786480903625e-01
-4.786929185700553036e-02,-2.410707181780147312e-01,-5.653972019726927201e-02,4.549673800908621280e-03,7.538848012054347007e-04,-7.799063070599393478e-04,1.891889423131942749e-01
-4.433568818835546821e-02,-2.168066015018284831e-01,-5.645418481924614762e-02,-2.293209936431506494e-04,7.022513242281298949e-04,5.546610698332664693e-04,1.667499542236328125e-01
-4.633699676041588833e-02,-2.405819533619767969e-01,-4.362840703958405231e-02,-1.834060764675604508e-03,-2.968251713078967711e-03,3.882348286072289430e-03,1.958221346139907837e-01
-4.700181768147050632e-02,-2.118144079801284052e-01,-4.366884891302658805e-02,-4.411187198014107505e-04,3.667342951648079217e-04,5.015207714585445979e-04,1.665093302726745605e-01
-3.553532710605045858e-02,-1.453143866587175426e-01,-3.913837329805196913e-02,5.792594376215974561e-02,4.765687217702142017e-04,-1.047712043103266738e-02,1.485433280467987061e-01
-4.438840928772275207e-02,-2.111763162496439195e-01,-4.307259908661992265e-02,-8.286158069252602199e-04,-9.208848728290105795e-05,5.247928612130403885e-04,1.674583852291107178e-01
-2.385812371889609734e-02,-1.555946077670196381e-01,-4.277967367473897720e-02,3.147943462172593521e-02,-3.023261666465409513e-03,1.914811320577407380e-06,1.349820494651794434e-01
-4.318563558230926330e-02,-2.226100373222929252e-01,-4.737000716033142739e-02,1.064774669984492467e-02,-9.392118606338098951e-04,-7.025323380655374393e-03,1.787475347518920898e-01
-4.744429114187816848e-02,-2.127611228056214554e-01,-4.740549608636716178e-02,-5.642483092966274358e-05,3.020356407923800723e-04,1.334258111949244204e-03,1.653532385826110840e-01
-3.915397369215274648e-02,-2.120739455463636902e-01,-3.791595237446087480e-02,-5.396395221353019692e-04,-2.086214088263588576e-03,6.770471288136472600e-05,1.735824644565582275e-01
-4.379864907460054996e-02,-2.125484530816026396e-01,-4.548663026558324302e-02,1.063944937737054284e-03,-5.374409013979842805e-04,1.250684665383643319e-03,1.679388433694839478e-01
-5.030334821859819283e-02,-2.166236596138421677e-01,-5.146784712896115138e-02,6.839119811459007381e-02,7.612303307250377436e-04,-7.770732405583910887e-03,2.041692435741424561e-01
-3.172436748434610820e-02,-1.950055424654156544e-01,-5.383580431182993786e-02,7.502676781713878314e-03,-3.394301620093191380e-03,-2.950190426080198571e-03,1.541714072227478027e-01
-3.043241207945773102e-02,-2.002551119362511733e-01,-4.785339543223207648e-02,2.176031427270056634e-02,5.052564697111277831e-04,3.707724563733602683e-03,1.662747859954833984e-01
-4.300067233953005358e-02,-2.119278823003797330e-01,-3.996862489752095460e-02,3.836053090502585265e-05,5.064953946176845934e-04,-3.984921549477171113e-04,1.704671233892440796e-01
-2.838009243221222000e-02,-2.093434752230430573e-01,-4.968660695384181925e-02,3.647851164844986317e-03,1.190320973025645463e-04,-4.721985839275568688e-04,1.714253425598144531e-01
-4.954073831110597514e-02,-2.099901517359561431e-01,-4.904735332776124362e-02,6.929019501285021054e-05,4.993700641895549956e-04,6.050374981131025239e-04,1.607024669647216797e-01
-4.312792408460149746e-02,-2.101250991547445879e-01,-4.468472453871107780e-02,7.886326740356216364e-03,5.459715078238293415e-04,-2.815574929290542245e-04,1.667879223823547363e-01
-5.092270233299362597e-02,-2.102913494102822967e-01,-4.760883965320096556e-02,4.656762161750266013e-05,6.986963040658519851e-04,-8.347569421704561024e-04,1.610622107982635498e-01
-4.680069883059283925e-02,-2.125059005444789595e-01,-4.997283073779956036e-02,2.449634449018259639e-05,8.627204068115935064e-04,-1.504687940767582971e-04,1.641491353511810303e-01
-4.230014978568000239e-02,-2.281891000522349722e-01,-4.290481220185408950e-02,-1.695816305904743887e-02,-3.999574914270003986e-03,1.757228734664621414e-02,1.904724389314651489e-01
-4.854390323193992496e-02,-2.098675009625621812e-01,-4.801864830115321059e-02,3.027949692228319531e-06,2.238674430093807967e-04,-3.330926489668104137e-04,1.615883558988571167e-01
-4.669131317009109911e-02,-2.151429108883743391e-01,-4.243087343384524535e-02,3.469575663394261315e-03,-2.136130361209416517e-03,-7.423977612180902332e-03,1.712510436773300171e-01
-4.494322046658271591e-02,-2.107232113623532244e-01,-4.491283254944398312e-02,-1.120798250637495891e-04,-6.886180400377806801e-05,-9.096049876542984611e-04,1.658028215169906616e-01
-4.536758656863876249e-02,-2.108959126547108598e-01,-4.773384504045436599e-02,-2.201634451605285830e-04,-6.592607283831591804e-04,3.846407746016594295e-05,1.643624007701873779e-01
-5.068967596325846259e-02,-2.580001783724672482e-01,-4.794480305043710699e-02,1.724721698331192765e-02,-1.100497063493698774e-03,-7.300134857917729703e-03,2.112111002206802368e-01
-4.803343461875463072e-02,-2.083052175785470028e-01,-3.080550798100584187e-02,-7.405340623005919262e-04,-1.473171067111525654e-03,-2.060898385603067082e-03,1.696051061153411865e-01
-4.067605211148504069e-02,-2.062708439004835026e-01,-3.596376276989648318e-02,-7.188826868720296377e-04,-4.714897626748138643e-03,-3.187778200296161654e-04,1.682043969631195068e-01
-4.109718916655843990e-02,-2.129527209205096805e-01,-4.314867587810858329e-02,-6.689946027047296694e-04,-1.100083458596474995e-03,-1.386380409611291708e-03,1.708704531192779541e-01
-4.136016516649564101e-02,-2.126589456813223200e-01,-4.502255719947067386e-02,7.399470988504905323e-04,-5.991961048970989828e-05,-9.310924839046557213e-04,1.695098131895065308e-01
-4.968462873569957222e-02,-2.151722450126742903e-01,-5.339902825126508629e-02,9.556365774365658443e-04,1.700993740040861310e-03,-7.326827555380437118e-04,1.637018322944641113e-01
-4.014226254559268708e-02,-1.967488179697391149e-01,-3.542094983037445688e-02,4.798431479741322760e-04,-6.650639282508466997e-03,-2.699678838933423659e-03,1.595071852207183838e-01
-4.074965205108745797e-02,-2.115756737772816476e-01,-4.165058526048615040e-02,-1.343794959402378061e-04,-3.769559292422080274e-04,-8.591658486267828368e-04,1.703852564096450806e-01
-4.096878998964697399e-02,-2.085845691526285739e-01,-3.235352056383892366e-02,1.418198713476375220e-04,-2.785963577150676884e-03,-1.064993282928916596e-03,1.721629351377487183e-01
-3.574355838033657640e-02,-2.126928220208583187e-01,-4.105910120685634518e-02,4.126780577054250959e-06,-7.867535354665308777e-04,3.511261156676811612e-04,1.743586659431457520e-01
-3.869165543722774547e-02,-2.105167158454646636e-01,-3.799408485243396805e-02,-6.038746233708666570e-04,-1.019086328142070801e-03,-3.637479963817687439e-04,1.721882820129394531e-01
-3.942630960421909109e-02,-2.035451079458333590e-01,-3.687113786387855030e-02,6.040676634021310961e-04,-6.021715671519418597e-03,-3.395750618917851328e-03,1.658473163843154907e-01
-3.152417749624103482e-02,-2.091096841244467208e-01,-4.333955759187819307e-02,-6.686433368488025556e-04,-1.523866172647511110e-03,4.319653694008116721e-04,1.720082610845565796e-01
-4.538375210917781899e-02,-2.033501125210658012e-01,-3.309519422403678357e-02,1.519139907302838842e-04,-5.880939611773271757e-03,-6.583523855564330299e-03,1.651647984981536865e-01
-3.650691073503879031e-02,-2.119824243518188545e-01,-3.903634963638806521e-02,1.569574841196483901e-04,-6.226047576782895929e-04,-7.031207301728349050e-05,1.742281615734100342e-01
-3.709313471223601999e-02,-2.121238714764229760e-01,-3.913551872944354137e-02,1.343608404416705298e-04,-1.548728710489233828e-04,-1.109478363083729970e-04,1.740190088748931885e-01
-4.484361609383758634e-02,-2.131101867304334707e-01,-4.193043759175472257e-02,6.279463020590212363e-04,1.426015037737355762e-04,2.505658890587039896e-03,1.698010414838790894e-01
-4.704793872532039151e-02,-2.164774647774100336e-01,-4.276995894435164230e-02,-1.153750865101649649e-03,3.733066546837172928e-04,2.890678327986102511e-03,1.716943830251693726e-01
-5.606579184783559711e-02,-2.285334837622602366e-01,-4.423342185281073369e-02,-4.933231525719669781e-03,2.119213016884053291e-04,-6.945052448331930778e-03,1.792865246534347534e-01
-4.636487677309555910e-02,-2.038690258335683625e-01,-4.130364454608436570e-02,-1.878944966386052184e-02,-3.753078682438515824e-03,2.647126550214989535e-02,1.698054969310760498e-01
-4.665531881646852591e-02,-2.177797115195481137e-01,-5.071077760179557720e-02,-1.435820456238748365e-03,2.716544461371012457e-04,3.185150710704524185e-03,1.692420095205307007e-01
-3.582580014529607171e-02,-1.453409005643476748e-01,-4.864223320619022461e-02,1.897920631801127550e-02,7.161990483661165828e-03,1.309321101742947843e-02,1.118169724941253662e-01
-4.851628190817007524e-02,-2.312901279206378558e-01,-5.433464397855962413e-02,2.630583499804622569e-02,1.538525200325159027e-03,7.150618226304689129e-02,2.231573015451431274e-01
-4.496274486329728676e-02,-2.161408798933558972e-01,-5.586845811160950914e-02,2.196739897572056734e-04,1.002333953123035629e-04,-1.011010734376610858e-03,1.660039424896240234e-01
-4.527379835455600660e-02,-2.063397576957163582e-01,-3.742343575779821796e-02,-9.853194562984136755e-04,-3.218303227076647899e-03,-6.568808265222668245e-03,1.656252741813659668e-01
-3.054151138489943906e-02,-2.096946657509032308e-01,-4.291286937689289815e-02,2.504315149684113533e-04,-1.183823221962293244e-03,-4.699962590022638948e-04,1.733135581016540527e-01
-3.569143645206897253e-02,-2.151082525050673766e-01,-4.890281630021531267e-02,-5.225576010710195757e-03,-1.630085907678721982e-04,-4.923540060223416653e-04,1.734281331300735474e-01
-4.724119127250404199e-02,-2.111476821699535822e-01,-4.814309675392144938e-02,8.212874208825765923e-04,1.703178320690856861e-04,-5.068167152455233925e-04,1.634662151336669922e-01
-3.965062308607444908e-02,-2.352214881772642652e-01,-3.761617766912295213e-02,-3.815423099330186515e-03,5.880828946821127848e-03,-3.729356690823129247e-03,1.970764547586441040e-01
-6.323809291783233366e-02,-2.301583501721875535e-01,-5.171445692584533682e-02,-6.861538566783315085e-02,2.812791165074501193e-04,5.187991642243135193e-02,2.282930612564086914e-01
-5.597568162795255736e-02,-2.161272785780726513e-01,-4.421782479814345690e-02,-4.864477440184798956e-04,-6.538350902238625239e-04,1.918113381845595227e-03,1.663816422224044800e-01
-5.160569015486436706e-02,-1.801798959191730221e-01,-5.556972584586852837e-02,-8.238931441063305355e-03,-4.711647179252740486e-03,-6.152629566432889913e-02,1.663251668214797974e-01
-3.644415284091512275e-02,-2.152512049214052037e-01,-4.735049326321548457e-02,-2.954624761696888601e-03,-9.201446974717030240e-04,-1.016744832302608759e-03,1.737026423215866089e-01
-4.678500002207407887e-02,-2.113512822660418844e-01,-3.541767426066733115e-02,-6.125796398076641287e-04,-4.606113921602274534e-04,-1.610960196223621972e-04,1.705397218465805054e-01
-5.791722133015544949e-02,-2.164500280255696463e-01,-4.367119909163851010e-02,2.676093262395581873e-04,-6.077328883155606919e-04,-1.654437554140460436e-03,1.661432981491088867e-01
-3.231234602090817670e-02,-1.990594049072052507e-01,-4.752736418086730974e-02,-1.132524171467225605e-03,-4.978684824320986184e-03,-6.488465707850461957e-04,1.599327772855758667e-01
-4.805267416146063314e-02,-2.149534011863796223e-01,-3.471569992147369166e-02,2.754748269986931255e-03,-1.278077974281105413e-04,1.110173688896653674e-02,1.750778108835220337e-01
-3.848775402421912573e-02,-2.135814412160491060e-01,-4.515960279502593405e-02,-2.126117021641873907e-03,-1.132213624679168171e-03,-1.259848644957718786e-03,1.719194054603576660e-01
-4.954257937570621939e-02,-3.293927084985415199e-01,-6.458610004691466011e-02,2.911630304096477634e-02,1.987646550438808279e-03,-1.489754713433444865e-02,2.784841358661651611e-01
-4.913309326551507095e-02,-2.155195582676321386e-01,-4.341723678108917045e-02,3.703395895185663395e-03,-7.016871579339240689e-04,-1.080017865316868463e-03,1.694529056549072266e-01
-4.829140227480957503e-02,-2.126677549867531936e-01,-3.533354632437980813e-02,-6.513855492122390400e-04,7.584560007524098705e-04,4.667687605085981545e-03,1.714229136705398560e-01
-5.135530188923985440e-02,-2.741069108252829900e-01,-5.106973737673860259e-02,4.560890529726249060e-02,5.863742948678151573e-03,4.970418221759118765e-02,2.518673241138458252e-01
-5.549724484720142126e-02,-2.053837092024435040e-01,-3.221190349968937328e-02,-2.355017649316284815e-03,-2.776321713192207545e-03,-1.058910480645187946e-02,1.639343351125717163e-01
-4.784413124849343224e-02,-1.980634097604701549e-01,-2.432322895044486399e-02,-1.050680615907294366e-03,5.210326449248743364e-05,4.804095903448118814e-03,1.634775698184967041e-01
-5.471774903576040461e-02,-3.116206209811245298e-01,-6.227239874252629703e-02,-4.879186974999835669e-02,5.723210202103284037e-03,-1.996171519931354624e-02,2.693528532981872559e-01
-5.012112660562205446e-02,-1.721564634675311067e-01,-3.869206582035434466e-02,4.923208810191082724e-03,-1.068987393430961656e-02,-3.391458995940883903e-02,1.424223631620407104e-01
-4.100682214349064825e-02,-2.094018076065426170e-01,-3.419854557904383058e-02,-1.645592740102204052e-04,-1.860699451293586215e-03,3.897233095615299696e-04,1.719320416450500488e-01
-4.749375337175700679e-02,-2.151356272886253973e-01,-4.440765930196394901e-02,2.686307928378185717e-03,-3.575037549310004802e-04,-1.241850615780249996e-03,1.692847907543182373e-01
-3.470948434863746490e-02,-1.552885071076932355e-01,-4.079474392948515687e-02,2.324014759688481160e-02,-9.356068991005783014e-03,-1.258997302833964570e-02,1.272832304239273071e-01
-3.206980919817824238e-02,-2.085617938661539772e-01,-4.575538497310181751e-02,-1.163593550000367303e-05,-2.259612300433734133e-03,-6.880885385856632666e-06,1.701077222824096680e-01
-4.518821312798709799e-02,-2.131588168065116085e-01,-4.366050222437811712e-02,1.952217769162055243e-03,2.273771626259417540e-04,-6.062074066469629475e-04,1.687772423028945923e-01
-2.958711461020118588e-02,-1.836841919344934237e-01,-4.390399881801135273e-02,6.821000643082547957e-03,-4.819142077560116533e-03,-1.012076097887573255e-03,1.481789946556091309e-01
-3.368620790481677285e-02,-1.800534476182920618e-01,-4.802559229594628026e-02,1.108718272809168124e-03,-4.333483034961444283e-03,-1.926873127783181180e-04,1.399653851985931396e-01
-3.171519953514251311e-02,-2.096864328069833472e-01,-4.324326980309468882e-02,1.076968092556823730e-03,-1.003748143097419818e-03,3.027356687364600820e-04,1.725159883499145508e-01
-5.018595939500385128e-02,-1.425454327158804657e-01,-5.022102514941405305e-02,4.579977849831535705e-03,-5.993014753884946290e-03,-4.451741634176773431e-04,9.326471388339996338e-02
-3.879613036507745943e-02,-9.165615642267307961e-02,-4.105368310968258300e-02,-1.577275417382178330e-02,-2.415400333751987257e-03,-3.390814574119081770e-02,8.302453160285949707e-02
-2.611434634193407489e-02,-2.032704423684055794e-01,-4.837978296701733044e-02,1.566131828007871589e-03,2.222732734146953349e-04,-6.561362729141424375e-04,1.671656966209411621e-01
-4.912136392789253486e-02,-2.027224596462620654e-01,-2.550504081100737896e-02,-8.918208106461968532e-04,-1.312458896932284808e-03,3.437561547537420353e-03,1.667978614568710327e-01
-4.338963104000270743e-02,-2.134726187597092428e-01,-3.491984643237425884e-02,-3.121990139171464985e-04,-1.221666963454759273e-03,-3.057499949572590678e-03,1.745661497116088867e-01
-3.800631390889192690e-02,-1.796243168818916630e-02,-3.925597102282708806e-02,6.558807404340006621e-03,-3.880089817185731170e-03,-8.404993884450141090e-03,2.853975817561149597e-02
-5.889746214417500292e-02,-1.089240223251129736e-01,-5.739030832093201112e-02,-3.063781843662691153e-03,-7.513123162573220534e-04,1.789699078040828421e-03,5.118387192487716675e-02
-4.948689735953279434e-02,-2.407374997442411346e-01,-5.030794278539438280e-02,6.404572350050831940e-03,1.634513075544438959e-03,-5.394279842408235270e-02,2.127933055162429810e-01
-4.629643785624554253e-02,-2.039272720113965709e-01,-3.022692882397395864e-02,-9.319532262823799996e-04,-4.499476546369210808e-04,1.662988767248665218e-03,1.662836968898773193e-01
-4.560743165935443599e-02,-2.113594188443830846e-01,-3.230593003242913930e-02,1.473480330057400350e-03,4.757615160630746312e-03,1.254232742371516780e-02,1.743609756231307983e-01
-4.954315959293625893e-02,-1.958151815732322998e-01,-2.745096058418873552e-02,-7.047680691833833454e-04,-3.022847503603271445e-03,3.652617934072563584e-03,1.586945801973342896e-01
-2.924280651647483131e-02,-6.631313405294908536e-02,-4.136970936038403268e-02,3.212062685129650399e-03,-3.819376079438320699e-03,-2.345874937094133417e-02,5.289022997021675110e-02
-4.446676283972210431e-02,-2.118246818966856293e-01,-4.484845126627499956e-02,1.194208304987668789e-03,5.984260982516419631e-05,3.132766729473655028e-04,1.671811044216156006e-01
-4.873170066149801194e-02,-2.065004406898680867e-01,-2.957431222695827699e-02,-1.929250849079801235e-03,-3.094041398582244532e-03,6.924920850139590876e-03,1.687132716178894043e-01
-5.202542980935313116e-02,-1.146191363627770410e-01,-4.754115219706660234e-02,1.278735336888336960e-02,-3.209732496464389861e-03,1.347149502977770179e-04,6.884968280792236328e-02
-4.864371546322786288e-02,-2.406830002639220312e-01,-5.786115598116871317e-02,-8.188338984690410674e-03,2.241167625577709932e-03,3.371585105636593083e-03,1.882664412260055542e-01
-4.709512170588637386e-02,-2.127577477563567798e-01,-5.088918380143423598e-02,5.985052141951907080e-04,-5.826975714078582802e-04,4.961415477882563435e-04,1.638071984052658081e-01
-3.818039573569841083e-02,-1.609452389968049069e-01,-4.889675790612549311e-02,1.139102666695713736e-02,-7.100905215556782731e-03,8.842183264550212019e-05,1.200458779931068420e-01
-4.980417656406044974e-02,-5.839114778572107589e-02,-4.120060169866940347e-02,2.712984778084140403e-03,-5.535916661009526729e-03,-2.636635076989619908e-02,4.920578747987747192e-02
-3.988243064902644713e-02,-2.136573859790720231e-01,-4.159703437906264040e-02,1.496443257147944022e-04,6.480761881505764247e-04,1.551566934672793689e-03,1.729487478733062744e-01
-4.648702852996697971e-02,-2.213403722489741265e-01,-5.005005968116132964e-02,5.718287566006848011e-04,-2.490231995004844011e-03,-4.785956248637892322e-05,1.731559187173843384e-01
-4.419251763569348457e-02,-1.423795050686904873e-01,-5.971992085783352222e-02,2.177372719263222234e-03,-3.448515090908126166e-03,-6.867892377036671206e-04,9.169793128967285156e-02
-3.401588627893295524e-02,-2.104602289357322686e-01,-4.292753057310432635e-02,6.343852962450670027e-04,-2.392038325842455425e-03,-5.392312572765672798e-04,1.722174733877182007e-01
-4.421692159826995372e-02,-1.954811496477051880e-01,-2.752679030270728522e-02,-1.438537961550471773e-03,-2.799754856257052026e-03,5.367670974365565395e-03,1.606244295835494995e-01
-4.338590059693404194e-02,-1.414499492144795367e-01,-4.457208894563259582e-02,-1.151517099369971618e-02,-5.672521657301793536e-03,-5.167419045798554017e-02,1.341888159513473511e-01
-5.886651125802799811e-02,-3.347372389097389989e-01,-5.650700464886740382e-02,-8.453147554571222109e-04,-1.320448128533608994e-03,-3.143128377824382091e-02,2.823690772056579590e-01
-4.724380203229953945e-02,-2.181808720753699027e-01,-4.693969084294523364e-02,-4.222648925227125778e-04,-1.952221392220452646e-04,-9.613419064369273584e-04,1.710993349552154541e-01
-3.794930330123511691e-02,-1.811239921621299320e-01,-4.921497480614274445e-02,-1.176807496115074569e-03,-5.085677273897939304e-03,8.535314258071009883e-04,1.381914615631103516e-01
-5.491782391237876038e-02,-1.035405925266890126e-01,-5.472296922083113441e-02,2.570025204793420504e-02,-6.380617868002354774e-03,-1.870180364576808779e-02,7.434113323688507080e-02
-4.699671275113807140e-02,-2.164888366516507234e-01,-4.568031255798966211e-02,6.852487674899769901e-05,1.460693718845969020e-04,1.340877978991561690e-05,1.701543778181076050e-01
-5.152559338049123722e-02,-2.351887199200323741e-01,-5.111931487026544901e-02,8.233860942607388808e-03,-4.818551454556735045e-03,7.367496513042723176e-03,1.850481331348419189e-01
-4.532818443170626155e-02,-2.183476519131014038e-01,-4.581276404843894617e-02,-1.934001054241470336e-03,-9.081589412983002117e-04,7.087926633842930001e-04,1.728216707706451416e-01
-4.397564257356818829e-02,-3.655517481707121763e-01,-5.157914822371134633e-02,-2.028548915358163035e-02,-1.252152273009752084e-02,-1.959754660526816933e-02,3.223056793212890625e-01
-3.846029317746620796e-02,-2.085981725485819283e-01,-3.398361016901722820e-02,3.754617469228435644e-04,2.119381883291337251e-03,3.573140022298024578e-04,1.724612265825271606e-01
-4.522032334211552318e-02,-1.102421189212995090e-01,-4.355726818816271773e-02,2.760080725646952074e-02,-2.588017468829145826e-03,-4.586763174809921351e-02,1.138233765959739685e-01
-3.071002562267029223e-02,-2.085240348853995007e-01,-4.545052907620027866e-02,-2.099516532538605880e-04,-1.932765314100090039e-03,-4.311035857737882085e-05,1.709543168544769287e-01
-4.159132501137006999e-02,-2.353518347409668809e-01,-4.835305039200022553e-02,1.186691260556613746e-02,1.767416046928728434e-03,1.489761388317284180e-03,1.916173249483108521e-01
-4.580078711628107757e-02,-2.438628715061819108e-01,-4.541888478766789583e-02,1.132590459098944437e-02,-2.198699580700146095e-03,-6.475557602734900893e-03,1.995733082294464111e-01
-2.851968257807610541e-02,-1.953993194598148686e-01,-4.193177507787083924e-02,7.816747105810716717e-03,5.476116273104364267e-03,5.156565862552840891e-03,1.616896092891693115e-01
-2.655222587915885557e-02,-1.964090668791068917e-01,-5.075818681769919682e-02,2.076388042055564431e-02,1.651771561448384974e-03,3.320194468019838432e-03,1.632801294326782227e-01
-3.428218979081218420e-02,-2.114199453370918524e-01,-4.576962095367442807e-02,-1.718340397590971272e-03,-1.954922667382038085e-03,-1.691521845535486816e-04,1.717419475317001343e-01
-6.055554793572479055e-02,-3.606371843901964858e-01,-5.120457455498921007e-02,-1.395898771628212819e-02,8.635688200658801078e-03,1.776693186059965374e-02,3.077300190925598145e-01
-5.403256361585917489e-02,-1.389731797440452998e-01,-5.903386943887670157e-02,-3.566750630900065739e-03,1.576180998210069883e-03,8.083061337873633043e-04,8.284132927656173706e-02
-4.680010310974352938e-02,-2.145713195929237482e-01,-4.785411590770760615e-02,3.592465360966494523e-03,-5.210303186818106454e-03,-3.102478506694527250e-04,1.676063984632492065e-01
-4.857933180743007756e-02,-2.120600330474969319e-01,-2.935364269676307702e-02,-3.110944878248575354e-04,-1.058729605658810221e-03,-7.130119426487046067e-03,1.743409484624862671e-01
-5.884560817186278853e-02,-2.256254333905228227e-01,-4.834657165052018424e-02,4.277603820779130907e-03,-4.320802948462642082e-03,2.792548369664004868e-03,1.726588010787963867e-01
-4.419069175728437826e-02,-2.124808230158722333e-01,-4.461270741109997495e-02,-7.827454780233151057e-04,1.023102294399816717e-03,-3.261378011083684424e-04,1.680952757596969604e-01
-5.952554712195004538e-02,-2.243474599683966120e-01,-4.573054632790669871e-02,-2.042706343983458940e-03,1.388900696240549576e-03,-8.055258349932800004e-04,1.721933037042617798e-01
-4.649645837540444804e-02,-2.087381596206294709e-01,-4.800252748898797828e-02,-1.935049497959156692e-02,4.360488795513594272e-03,3.928573961815643931e-03,1.652481704950332642e-01
-4.737545007585999141e-02,-2.104642747060732622e-01,-4.834163828047594730e-02,-1.098219392106582659e-04,-4.554134681946716699e-04,-6.968209146141072892e-06,1.626099050045013428e-01
-4.654378184854073008e-02,-1.603449275161563103e-01,-3.674693269336685997e-02,-5.783915105099358620e-03,5.353034640053624255e-03,-1.105939791047083620e-02,1.213046908378601074e-01
-5.145519354141810109e-02,-2.181333286363343338e-01,-4.641553151196532029e-02,-3.002154300134396003e-03,-1.106097950215061479e-03,1.303287484460255528e-03,1.693599820137023926e-01
-3.103077765026150681e-02,-1.559619413223551909e-01,-3.803445758040362168e-02,-1.727024783744237485e-02,-1.840439810021104365e-03,-5.315191456041470919e-02,1.554419249296188354e-01
-4.298451666115354897e-02,-1.118031328188918844e-01,-4.218725462178689323e-02,-2.024668313691460955e-02,-2.393789182519363455e-04,-2.685017115075864422e-02,9.046687185764312744e-02
-4.781739930219605639e-02,-2.111784387160625942e-01,-4.771198527326493688e-02,6.538109701563964106e-04,2.696642294396266659e-04,-2.451587896828529489e-04,1.634189188480377197e-01
-3.985485332633459388e-02,-1.456635000221632448e-01,-5.042080713008330328e-02,-1.592669479932324467e-02,2.742096919167195338e-03,-2.283094970658157419e-03,1.048251539468765259e-01
-4.514531629136526308e-02,-2.133082967158589083e-01,-3.827147293252224775e-02,-1.510907858793776246e-03,-8.232950435915314643e-04,-1.601370555970486843e-03,1.717513799667358398e-01
-4.853209029103159461e-02,-2.161733692261459949e-01,-4.610235634129671717e-02,1.897672559851854533e-03,-1.015541956254089896e-04,9.128437761603948406e-04,1.689087301492691040e-01
-3.580586843330262753e-02,-2.130183094910919062e-01,-4.525918973871938950e-02,-2.960896809036593982e-03,-9.071324306338388651e-04,-2.389414304258660228e-03,1.728128045797348022e-01
-4.875588713610621433e-02,-2.153952450016682063e-01,-4.746224097767721972e-02,-2.746942369764571873e-03,2.032528748515049447e-04,-6.934804955471552930e-04,1.673622578382492065e-01
-3.619032102826526265e-02,-2.125267298975324071e-01,-4.239384534558383183e-02,-1.420234800740463447e-04,-1.171636683264467779e-03,-6.909177340144644665e-06,1.733299940824508667e-01
-6.312476647197354240e-02,-2.514119689294597726e-01,-4.927317061013269939e-02,-7.915281400037409154e-03,1.645217181143888334e-03,-6.398822463884032072e-03,1.963948160409927368e-01
-4.661163028113856494e-02,-2.126347816801655854e-01,-5.365672651685066130e-02,8.806445487187374195e-04,-1.071615733951703821e-03,1.447497682538585609e-03,1.626521646976470947e-01
-4.249612444257229449e-02,-1.633198529543631317e-01,-5.089366288269818461e-02,-1.482132653887848102e-02,3.035016961972072502e-03,-9.508546545642681744e-03,1.208807528018951416e-01
-3.912217118466727872e-02,-2.111060324194304338e-01,-4.432568660336307087e-02,1.487539832475326916e-03,7.995360164639705915e-04,-1.168648688393720007e-04,1.694674044847488403e-01
-4.775124020187854201e-02,-3.575742730130469504e-01,-6.570364517386417802e-02,1.025674908321398682e-02,-7.482503518265869614e-04,-1.883069488011284570e-02,3.035318851470947266e-01
-4.715785840658315298e-02,-3.701843476591885063e-01,-6.621961323118344400e-02,8.976568537512258968e-04,7.140021385730401481e-03,-1.187823269117621941e-02,3.148501813411712646e-01
-3.867219083671037672e-02,-2.410108119281119954e-01,-4.564900488078660334e-02,2.418717885677955023e-02,1.546423474012780094e-03,6.574654157839316792e-04,2.033259570598602295e-01
-4.657399874861447436e-02,-2.134501936262332422e-01,-4.683837557086740350e-02,-1.091621593688089443e-03,-2.313645996588272488e-04,5.154684441975310172e-04,1.667577475309371948e-01
-4.888305580701217401e-02,-2.303814812446919325e-01,-4.756021454737221349e-02,6.249444733667069984e-02,3.295053076707906564e-07,3.246447039835512194e-02,2.192305028438568115e-01
-4.446852306596041360e-02,-2.098087461696804823e-01,-4.498047128930275640e-02,-3.405376223678820797e-04,-6.324279942186094531e-05,9.997856824959260090e-05,1.650860309600830078e-01
-4.146730537620145485e-02,-1.578883660747429640e-01,-3.971273545467463723e-02,-5.254935925216101811e-02,1.936555811451442025e-03,-2.117794795163266408e-02,1.529780477285385132e-01
-4.143275996079366641e-02,-2.119907448393598126e-01,-4.156637637039805461e-02,-3.682120118998381342e-04,-1.946658481701893850e-03,4.317942183928293672e-04,1.705273836851119995e-01
-5.706920483051970000e-02,-2.227593872446557155e-01,-4.808019256940914560e-02,-1.144610711549645058e-03,-8.129381700096564465e-04,-3.144113774175109899e-03,1.704670041799545288e-01
-3.255730270756265754e-02,-2.524916816954474452e-01,-5.095657005919599497e-02,8.132501028734790902e-03,1.870908061111772392e-04,-1.244801999494239871e-02,2.128999978303909302e-01
-5.309192820686289838e-02,-2.414266286448421284e-01,-5.339202334753363755e-02,8.067598522702157382e-02,-1.406874199077434674e-03,-8.608722640759458589e-03,2.348779290914535522e-01
-4.479831445840865012e-02,-1.235829338163987601e-01,-4.368509032235621398e-02,-1.227983287877393477e-02,7.599241574421847396e-03,-8.447610108589468508e-03,8.447292447090148926e-02
-5.541991371734789062e-02,-1.615734409888935352e-01,-4.392162227313394646e-02,-7.793933679377978638e-03,3.921780368173804522e-03,-1.313443604379446912e-02,1.156169697642326355e-01
-3.603343692062357939e-02,-2.137415347911603147e-01,-4.838369305028356049e-02,4.101107784388302244e-03,2.308396468241204864e-04,-1.463141866759741668e-04,1.720134764909744263e-01
-3.530000927958144158e-02,-2.126729808498680763e-01,-4.428809105449708211e-02,4.093380036706216821e-03,3.692713594552455257e-04,-1.775556552627547205e-03,1.732277274131774902e-01
-4.795073582170227000e-02,-2.153572460393974319e-01,-4.258631469354833693e-02,-4.910293584870012917e-04,-3.103268068959394790e-04,-3.016465000999979038e-03,1.702353209257125854e-01
-3.178049309125863253e-02,-2.133900916165968331e-01,-4.988216595646649543e-02,-5.003517939799143749e-03,3.608755965619232960e-03,-6.717962823547761302e-03,1.739880591630935669e-01
-4.419803715421684320e-02,-2.186029652372322163e-01,-5.785243931620131369e-02,1.025188858455091799e-04,1.711406709822368586e-04,1.380115670569892483e-03,1.680117845535278320e-01
-5.636399782540484071e-02,-1.099707887344913010e-01,-5.912006729211687767e-02,-9.430322400714109127e-03,-1.862777997446762694e-03,-3.912091821555460300e-03,5.528703331947326660e-02
-4.560108483085129755e-02,-2.127256979338995879e-01,-4.474084858564388728e-02,-1.199691229023819566e-03,3.717385966758654926e-04,-6.861122955169598678e-04,1.675747185945510864e-01
-4.446526293030059196e-02,-2.181279066941688161e-01,-5.561156064795932247e-02,-1.567627370151227471e-04,3.543995335821048575e-04,-1.699986127947145835e-03,1.683935225009918213e-01
-4.544252291448473702e-02,-2.117023111082595166e-01,-4.719816714215806924e-02,9.576653528493065358e-04,-1.502758000394247169e-04,8.437299732773746947e-04,1.654039323329925537e-01
-6.182879854648459794e-02,-3.539977871684326649e-01,-4.789433709339137313e-02,-1.014306738893604523e-02,4.989152331335067192e-03,2.783264665036911528e-02,3.038673996925354004e-01
-4.600240657071795469e-02,-2.118348533872927153e-01,-3.850769349014096510e-02,-2.242454068464961952e-04,4.127604831745970921e-04,1.916206820458504897e-03,1.697383671998977661e-01
-4.594638798897794640e-02,-2.144711646706526365e-01,-4.412836975362233183e-02,-1.129118935571644163e-03,4.260050717164492648e-04,-4.815530462978541838e-04,1.694560497999191284e-01
-4.943616032443619301e-02,-2.144600939472803836e-01,-4.864065286451218356e-02,-2.192336904900639633e-04,-2.375992110022392186e-03,5.196963024268772078e-04,1.654771864414215088e-01
-4.618084820034211446e-02,-2.127459572556371359e-01,-4.516393516217385301e-02,6.527441630982252433e-05,3.058586369123042535e-04,1.630077287807463692e-04,1.670770049095153809e-01
-4.865855080745563888e-02,-2.143302546963102018e-01,-3.941607905233631554e-02,-1.426101015903447544e-03,-8.992134419099943269e-04,-3.615540627806357234e-03,1.706209182739257812e-01
-4.876530354488390478e-02,-2.097714201147911073e-01,-4.802252590610222444e-02,1.700953884306926028e-04,-9.222725343602221088e-04,4.426103235482116796e-04,1.613887846469879150e-01
-4.838463990839099449e-02,-3.361766065991196872e-01,-5.851192089676571229e-02,2.530143837488827568e-02,8.711774778005262898e-03,1.249172237203329504e-02,2.874517738819122314e-01
-4.593499256339433900e-02,-2.149030145357818111e-01,-5.723599061115752784e-02,-3.647787768238455481e-04,8.548818334506994498e-04,-8.696801725249248558e-04,1.636253595352172852e-01
-4.764506185261468962e-02,-2.139127030427766807e-01,-4.611051500612246140e-02,1.706542963690961577e-03,-6.940216052651106702e-04,2.309648643650324962e-03,1.671185642480850220e-01
-4.392918744872711945e-02,-2.128302380070287159e-01,-4.385539953479491992e-02,-1.354362710720057798e-04,5.622676825612843779e-04,1.533132043118441310e-03,1.689617931842803955e-01
-3.970870236486882116e-02,-2.144281448045014804e-01,-4.490073626512906119e-02,1.203614533828672225e-03,7.679880858007236697e-04,8.572679632345172034e-04,1.722063124179840088e-01
-5.579625451223774180e-02,-2.279091724982286460e-01,-6.025562816575268099e-02,-4.491322081409544753e-02,-1.657410350636949817e-03,-5.479407764544186321e-02,2.096240222454071045e-01
-5.034236200422369939e-02,-2.165868680199841412e-01,-4.559531603764700042e-02,-1.087103170874420370e-03,-1.979389550254807232e-04,1.964488919486553648e-03,1.687133163213729858e-01
-6.308623934062432270e-02,-3.646873764023283448e-01,-5.828488433859931039e-02,-1.696980876700161789e-02,-6.947851682775878050e-03,-1.286845965203490399e-02,3.064962029457092285e-01
-4.092308153485430672e-02,-2.173768695322610411e-01,-3.902539064196770130e-02,1.563231000691580686e-03,4.640707877905539923e-03,-1.176573580394437140e-03,1.776245683431625366e-01
-4.762363080903897483e-02,-2.110887834467132795e-01,-4.927635333448338040e-02,9.882637242614757383e-04,-1.321242226180515268e-04,-3.266828355631356770e-05,1.626542657613754272e-01
-5.448681495194780677e-02,-2.143870563266001283e-01,-4.747427177653520958e-02,-8.645458631849560049e-04,1.381663834219340947e-03,-3.710581254147375251e-05,1.635437011718750000e-01
-4.965731451454931389e-02,-1.978200938998534719e-01,-3.038385611469929248e-02,1.010419349340765764e-03,-1.846704417740242365e-03,-7.440179883228098187e-03,1.592439860105514526e-01
-5.475237009294631196e-02,-2.187859866298769163e-01,-4.712409374150454411e-02,2.836274875442274402e-03,9.842476465766066517e-04,-1.522639847758986385e-03,1.680788695812225342e-01
-5.341340210986113973e-02,-8.937369533150238410e-02,-5.039611462158313793e-02,-8.362773717313719268e-03,-3.119940647131334930e-03,-1.986676117807594302e-02,5.323367193341255188e-02
-4.719604623783938552e-02,-2.130719819921164659e-01,-3.769336936006932592e-02,-1.839657883823838953e-03,-9.344390311560298121e-04,-2.566430631135316505e-03,1.709208190441131592e-01
-5.012021490566431065e-02,-2.003631919584781262e-01,-3.073877364137025947e-02,5.577062257438607142e-04,-3.525643774687503128e-03,-7.558481282360167940e-04,1.609361767768859863e-01
-4.554023158274676797e-02,-2.055227214037682049e-01,-3.832784514087315270e-02,-9.680508422195661456e-04,1.001154557271959674e-03,-7.679382890283701149e-03,1.642650514841079712e-01
-4.825355637229306743e-02,-2.010111291958677771e-01,-2.658778163724001553e-02,-2.797221455808630549e-04,-7.462546804554524155e-04,-4.223376074749298804e-03,1.648311465978622437e-01
-5.326534523635509388e-02,-1.478771791924828882e-01,-4.412682774758135140e-02,7.132134704302977744e-04,-5.406927920419240564e-03,-1.450964140829419900e-02,1.030550524592399597e-01
-4.534234665919655016e-02,-2.134119914117302841e-01,-4.395878339731262852e-02,1.850108933592549453e-03,2.808348534221996508e-04,-5.591171460272519565e-04,1.687995791435241699e-01
-4.351854447028817574e-02,-2.039156729605474672e-01,-3.035561301743473078e-02,6.081978508184614652e-04,3.416174316116139895e-03,1.694476766066997046e-03,1.675008386373519897e-01
-5.465490738983599939e-02,-1.384143723380581170e-01,-5.056038076071731058e-02,-7.529807142034963558e-04,-1.435511567396677594e-03,-1.473601420397829560e-03,8.596374839544296265e-02
-3.857171386196187740e-02,-2.088873157729668750e-01,-3.445508093707232850e-02,6.504895195382895314e-04,2.929849927742724652e-03,4.305281862111556075e-04,1.724907457828521729e-01
-4.726217287847551268e-02,-2.134562283630560553e-01,-3.878563700443568574e-02,-1.279059959801209789e-02,4.509513794465415046e-03,-1.052574735246599412e-02,1.731624752283096313e-01
-5.558176702260915480e-02,-2.535036695402856366e-01,-5.639668065700990940e-02,-5.326412356866493114e-02,6.271163617974971714e-04,-2.473666532792101122e-02,2.221723198890686035e-01
-4.082561659759777889e-02,-2.046966613750361430e-01,-2.995384511218624618e-02,9.950374890213041848e-04,1.156816169241271786e-03,6.714593324621323783e-04,1.695931106805801392e-01
-3.901555589128418572e-02,-2.079018197144690827e-01,-3.187458185928599558e-02,5.469407044405315060e-04,1.450787183464321032e-03,3.985738484837286376e-04,1.725898683071136475e-01
-4.653225201873655015e-02,-2.142243492746389311e-01,-4.403054258455694342e-02,-2.099566974102844152e-03,-2.508865395645032892e-04,-9.798307102828122776e-04,1.690050512552261353e-01
-4.272076750139036649e-02,-2.092229960942386668e-01,-4.121055022974390303e-02,-2.771069787563532321e-03,5.600672260467184829e-04,-7.971584172931270307e-03,1.679027825593948364e-01
-4.065592295080384944e-02,-2.052013092776572289e-01,-2.851660095791402894e-02,-1.321103640477617244e-04,9.804760222007673567e-04,-6.274288954362668798e-04,1.709506809711456299e-01
-4.770536183154751309e-02,-2.101358812889197181e-01,-4.805931238311715592e-02,-8.508473135385254723e-06,-6.755541926015476428e-04,5.033563384683151936e-05,1.622580736875534058e-01
-3.632953984532884956e-02,-2.055497339828505909e-01,-4.563784335906067441e-02,5.149461081793636243e-03,-6.529107161992343290e-03,-5.700820056153313442e-03,1.656861603260040283e-01
-4.578308038519603856e-02,-2.122920747644630179e-01,-4.361999138151175653e-02,-1.240534556492122083e-03,-3.413676193820360297e-04,-1.353919239415117158e-03,1.676322221755981445e-01
-4.660023276765477840e-02,-1.261480067787749682e-01,-4.578095403067729968e-02,-1.163687495090015046e-03,3.730780388416504636e-03,-1.633860874244198735e-02,8.509030938148498535e-02
-4.444399731685200194e-02,-2.249122026004632957e-01,-4.929457775367231814e-02,-9.845500652112731954e-03,-6.615317531990546999e-03,-3.266282779882535847e-02,1.879882812500000000e-01
-5.121240706356579991e-02,-1.943306196800402841e-01,-2.684728658589635719e-02,1.279361342315947850e-03,9.689601330296208946e-04,5.824049945444675219e-04,1.567555963993072510e-01
-5.638091625998462031e-02,-1.964409353026556893e-01,-2.959297239812851144e-02,9.431770904955515816e-03,5.012549618550323632e-03,2.015742403586905790e-02,1.601484864950180054e-01
-4.021786273966298370e-02,-2.086123649350202502e-01,-3.557731879645695261e-02,4.928571081495331397e-04,2.979393678649699690e-03,1.457275444909169899e-03,1.708608120679855347e-01
-4.870401286528846380e-02,-2.129541552790232273e-01,-3.506715941099627920e-02,-1.742465318659158638e-03,1.171362410194244467e-03,6.384581468834115044e-03,1.718704253435134888e-01
-3.098321925007332944e-02,-2.090096945322338917e-01,-4.523364588508536899e-02,3.247301037727324483e-05,-1.508298170093874896e-03,3.940663120366140405e-04,1.713675558567047119e-01
-4.795845732249799653e-02,-1.489105154572893941e-01,-4.743739513872290148e-02,-1.559952755812266806e-03,-6.766607999384981892e-03,9.144395309692762144e-04,1.019380316138267517e-01
-4.465861085286543242e-02,-2.236162930987429243e-01,-6.145242875347679823e-02,-3.425090730019300644e-03,2.817614604758903298e-04,-1.697617764287992709e-03,1.713084280490875244e-01
-5.237056415544225074e-02,-2.467139219863041799e-01,-4.717762162109298552e-02,1.075083778046556984e-03,-3.501572448249330879e-04,-1.009720543888768113e-02,1.977756768465042114e-01
-3.762657158446207351e-02,-2.142558971535899470e-01,-4.715721812738427748e-02,-4.496229385978354337e-03,-7.042094633538233746e-05,1.773602243981941846e-03,1.722656637430191040e-01
-4.252005401827663178e-02,-2.028844448573939863e-01,-3.223140714904917936e-02,1.111109741103986654e-04,-4.198128268275789360e-03,-3.437930878488131914e-04,1.659089773893356323e-01
-3.988947559850485047e-02,-1.902176865187953370e-01,-3.109692142097426198e-02,1.337079430718192755e-02,9.128838461181298242e-03,1.943545436723258940e-02,1.609881967306137085e-01
-3.517844498682513865e-02,-1.444983861915332124e-01,-4.188836102578402665e-02,-1.598403581139652002e-02,-8.007947828324597783e-03,5.517607848483376768e-04,1.105536445975303650e-01
-3.824286239373472090e-02,-1.540166961079963426e-01,-4.328152262967099873e-02,6.762513276523118150e-03,-2.273962817226413309e-03,6.324655193776007600e-02,1.581097990274429321e-01
-4.422466728989787876e-02,-1.774723968756592996e-01,-3.661541058168973906e-02,8.651204875730810146e-04,6.893080954803559347e-03,1.619028310667833042e-03,1.377658396959304810e-01
-4.520717489315480286e-02,-1.918875676310802247e-01,-3.365835964500227956e-02,5.810660167467668683e-03,2.860383956984669223e-03,2.903831390592683317e-02,1.612389683723449707e-01
-5.082053518307337592e-02,-2.108965413028470737e-01,-5.125950792088329599e-02,-1.877840667021067318e-04,2.791047819619225413e-03,-3.722430981260216516e-04,1.599316745996475220e-01
-3.703415687302052950e-02,-2.120472997570464480e-01,-4.519720731296283239e-02,-1.421230611316624381e-03,-9.506049022949026065e-04,-1.298164964890278009e-03,1.711181551218032837e-01
-5.693466099260697383e-02,-9.800617060309541051e-02,-5.688659052873536182e-02,5.131735307491480961e-04,-2.166527211541114176e-03,1.576179293186314671e-03,4.136629030108451843e-02
-3.948759242175309964e-02,-8.284507397703468057e-02,-4.618719131611545570e-02,3.304266221494037842e-02,-1.341855307463783471e-03,1.248234517895241771e-02,7.336592674255371094e-02
-5.423093921485029612e-02,-2.577115915030378512e-01,-5.933326676092773311e-02,1.048459969344425237e-02,1.881934116683187672e-03,9.000014894881364080e-02,2.550150454044342041e-01
-4.858708395580993433e-02,-1.829485034087094397e-01,-3.077422315636854644e-02,-3.937244038925647111e-04,-4.861643780810205248e-03,5.693280013659812212e-03,1.446798592805862427e-01
-5.945940777835515001e-02,-2.135666274226431516e-01,-5.376442141462680485e-02,-4.423069739916796195e-02,3.907276903764310243e-03,6.208860403483481422e-02,2.052777558565139771e-01
-3.977955435814987950e-02,-1.296904655105740045e-01,-3.894134097815415974e-02,-3.630566587239552473e-02,-4.401206466352374641e-03,2.543579783134688674e-02,1.187998056411743164e-01
-3.898841727730687629e-02,-2.032321395286218468e-01,-3.624991638660057802e-02,-1.744832976502422306e-03,-3.426445691035604792e-03,2.706160431243265045e-03,1.658300459384918213e-01
-4.852927026358175994e-02,-2.111476645197354340e-01,-5.040775645137709343e-02,-7.938536509023560658e-04,1.049541818000828260e-04,1.976302129473791211e-04,1.616936475038528442e-01
-4.573412568081884622e-02,-2.107021014014585081e-01,-4.671356703678758437e-02,-1.654400528139257469e-05,2.517907932432696810e-04,1.008678191119341972e-03,1.644902974367141724e-01
-4.265162779216660760e-02,-2.061901911045936342e-01,-3.138271599258402739e-02,-8.633494626655689600e-04,-9.996072181234563758e-04,7.619324691740345795e-04,1.694748550653457642e-01
-2.926717697456060474e-02,-2.038174433200862223e-01,-4.443371309671232533e-02,-4.062947908247535253e-03,-3.529095441948348465e-03,6.988459435423746789e-04,1.677463799715042114e-01
-6.058402520814468173e-02,-1.430147777687417188e-01,-4.466370896612202601e-02,-6.119974872048540571e-02,1.886923700833511002e-03,1.807128256448579245e-02,1.434825211763381958e-01
-5.069769318336087016e-02,-2.101368903936891019e-01,-4.784855136390011449e-02,-1.351675510689247608e-04,4.500025818868270988e-04,-7.109280548110237692e-04,1.608894616365432739e-01
-4.912037605906531545e-02,-2.027068684885833805e-01,-2.580365926407252042e-02,-1.003573552838578960e-03,-8.638391232007997488e-04,7.139200297006367477e-04,1.664944440126419067e-01
-4.575369004094886893e-02,-2.128556127307563717e-01,-4.597942427500709139e-02,1.639985787189471864e-03,6.175575049734968519e-05,2.743759742554044206e-04,1.670140326023101807e-01
-3.448735300750234434e-02,-1.755330285772046528e-01,-4.718557173387211146e-02,-1.755207281226251956e-02,-4.940019149426455938e-03,8.362196452174154582e-03,1.395396590232849121e-01
-3.145383564550276179e-02,-2.126378890802631816e-01,-4.454259051001245584e-02,-2.605925723581787624e-03,-1.095628762861999232e-03,-1.216300823331539034e-03,1.750883013010025024e-01
-3.519316780704590669e-02,-9.469562102888910704e-02,-3.742827765057198802e-02,-3.208419641899680659e-03,-9.462339363427070289e-04,4.921303454225049029e-02,1.034982129931449890e-01
-3.515484102884135209e-02,-1.670738374156041650e-01,-4.668046159987053467e-02,2.298259160207915056e-03,-5.953462100321813000e-03,6.483849169977551861e-04,1.270372122526168823e-01
-3.197846484690658464e-02,-2.119393772991084446e-01,-4.616831041440505601e-02,-1.097981621992494229e-03,2.467898041306976122e-03,-4.449608390197201777e-04,1.733670830726623535e-01
-5.601551344435913571e-02,-1.154235459056779656e-01,-4.633573078157850883e-02,7.631626453767933029e-04,-4.495915873648231517e-03,1.594042823465395553e-02,7.087134569883346558e-02
-4.910235617609667175e-02,-2.001255134352872278e-01,-2.387296998997870401e-02,-3.701811391935359548e-04,5.518708748589402289e-05,1.722858812665849183e-03,1.651183217763900757e-01
-3.382885164248677912e-02,-8.926354825642711377e-02,-3.882956901952326623e-02,2.888136022225882074e-03,-9.199481909848820655e-04,3.566002151100907541e-02,8.162888139486312866e-02
-4.434454078916869046e-02,-2.100185771471069773e-01,-4.463907992168511529e-02,-4.783630343701058153e-04,1.870061489071914054e-04,-3.198364432222779901e-04,1.655302792787551880e-01
-2.705133030312410758e-02,-1.572274764706172723e-01,-5.022131813131448796e-02,2.519510605883673593e-02,7.940877214451412189e-03,3.814634024939195147e-03,1.288553625345230103e-01
-5.378981894143686215e-02,-1.197172236460976175e-01,-5.271549815520124027e-02,2.913612288544995682e-02,-2.744365467184892680e-03,-1.225964517955529208e-02,8.624752610921859741e-02
-2.802123919550823794e-02,-5.005821613845944096e-02,-2.485665687641427923e-02,-9.672524609596475781e-03,-4.051511078518551731e-03,1.319749880518225962e-02,3.765395283699035645e-02
-4.811148513854784231e-02,-2.219065949156488193e-01,-4.312478432440559201e-02,1.389746272445993060e-02,-9.056651989748721113e-03,-1.827132603499538599e-02,1.814477443695068359e-01
-4.686643018439314717e-02,-2.144038321974574002e-01,-4.794967467063887545e-02,-1.178721116307581980e-04,8.801982838006479175e-04,-2.425546127464095914e-03,1.670583337545394897e-01
-5.023302232818567525e-02,-2.104188597496736146e-01,-4.937973507962734043e-02,-2.244852842396351006e-04,1.452857567932862521e-03,5.872503751089710013e-04,1.606375873088836670e-01
-4.734257861593142019e-02,-2.147030350912010610e-01,-4.985157420126846983e-02,-1.334700546656117370e-03,4.116000310398228688e-04,1.654221725581336757e-03,1.661624908447265625e-01
-2.812418796410591504e-02,-2.043177985597977309e-01,-4.902779959238690033e-02,1.261883386561265087e-03,-1.277031137581351779e-03,-2.156288748192362794e-03,1.667983382940292358e-01
-5.733972946395406861e-02,-1.027037662520424027e-01,-5.030682918877414644e-02,4.761412075290423658e-03,2.869380968549879339e-04,1.235916291942757220e-02,5.434063822031021118e-02
-3.975192125053296499e-02,-7.562729595101683189e-02,-4.293784184688630157e-02,3.520072898317781751e-02,-2.945590329341170321e-03,-1.608505177337724371e-02,7.551414519548416138e-02
-5.982702354538008138e-02,-3.390345186095745644e-01,-6.911289119291065541e-02,5.048502475718686516e-02,-1.945048473573378865e-03,-3.992848563510176252e-02,2.964637875556945801e-01
-4.053359778504517230e-02,-6.171880805607467962e-02,-2.858023009323643754e-02,2.814789592847562541e-02,-1.801133551563990345e-03,1.841996745231946897e-02,6.518788635730743408e-02
-4.585327392904723492e-02,-2.118024948894760284e-01,-3.779306014468360869e-02,-5.010897179344735077e-04,8.942445282807228628e-04,2.851392600503003562e-03,1.702035218477249146e-01
-2.596736982493766388e-02,-2.021910143225431611e-01,-4.870472986560145379e-02,4.814464947052494656e-03,3.490422209569554821e-03,2.480543313053083440e-03,1.664014607667922974e-01
-4.728660179837931160e-02,-2.109509620481637704e-01,-3.206440219060700814e-02,-2.272232029690419942e-04,-2.589477514135317404e-03,-8.292030718870708333e-03,1.724401712417602539e-01
-5.786809614921676476e-02,-1.141740326013988976e-01,-6.160373606093287602e-02,5.328066413088714394e-05,-2.036430500051405329e-03,-5.501045257356722284e-03,5.547259747982025146e-02
-4.971620865942805167e-02,-2.119667654819704927e-01,-5.336430667916029769e-02,-6.148568662589256988e-04,1.673401504133086330e-03,1.800257159221019547e-04,1.604876220226287842e-01
-3.624875571289606219e-02,-8.067600705073549316e-02,-3.253445709436156991e-02,3.358866259419083372e-02,-3.478504008297615951e-03,6.813325321040843499e-03,7.558275014162063599e-02
-4.345887316347892687e-02,-1.270290863348229327e-02,-3.929013182187165304e-02,3.684373435041519637e-03,-3.443027784392698343e-03,9.285576085106489810e-03,3.420595079660415649e-02
-4.788242879973957089e-02,-2.167987579167000578e-01,-4.617546361891208817e-02,-1.127065111755189315e-03,1.706416858017875866e-05,-2.137507922377579993e-04,1.697878837585449219e-01
-5.715208485549006651e-02,-2.063234046712250636e-01,-5.828115349033376885e-02,5.295622914001232168e-02,1.568430020905433632e-03,-4.331966843306863518e-02,1.900925636291503906e-01
-4.404515384636079750e-02,-2.135319278239740104e-01,-3.409624806391292617e-02,2.727423010219780404e-04,1.816271849476710706e-03,4.513094385667449303e-04,1.747045665979385376e-01
-2.443879177631551325e-02,-2.021772989365772932e-01,-5.010015703327407033e-02,1.545875847429254530e-03,3.382317529727793233e-05,2.844034687611095942e-04,1.664208024740219116e-01
-3.607806259152815387e-02,-2.156062003345364242e-01,-4.567482421607285681e-02,-1.545360612174004919e-04,-9.399534450265339524e-04,-1.380279648566178725e-03,1.749514192342758179e-01
-4.463648495354834156e-02,-2.245925442706000474e-01,-5.795784906289877525e-02,-2.295264900348106818e-03,5.726825346882612536e-04,-5.451018942007515144e-04,1.737298518419265747e-01
-3.312211631538800050e-02,-2.106917897757262237e-01,-4.374500136396843736e-02,6.363960418475614507e-04,-1.031108690542733219e-03,-2.192598650300900886e-04,1.725168973207473755e-01
-5.613348171829440209e-02,-2.146077345608171649e-01,-4.478412916525615489e-02,1.826967017512007123e-03,-5.613645206497997094e-04,-7.440865292205006785e-04,1.644812971353530884e-01
-4.514624916206745608e-02,-2.111464377799081860e-01,-3.596958952256284342e-02,-6.646383230479069760e-05,3.578293550548824163e-03,-1.120946100768046520e-03,1.708970367908477783e-01
-3.352358346408883250e-02,-2.085090752642966005e-01,-4.254154892793712145e-02,-1.135475036695706309e-03,-3.848443489702656900e-03,1.081560329127370966e-04,1.707968562841415405e-01
-3.856585384778751791e-02,-2.119194166815149827e-01,-3.591653951828487068e-02,9.685500383684089292e-06,-1.054796128162509457e-03,4.781406181472985518e-05,1.747028678655624390e-01
-4.363214844757374450e-02,-2.134385593837535011e-01,-3.651015725473362450e-02,8.624238830049502655e-04,6.207020255604011206e-04,5.602806873339531766e-05,1.734868735074996948e-01
-4.541867699647735707e-02,-2.219391330889682878e-01,-5.592513706497737741e-02,-1.744887797421496760e-03,-1.796686270660676247e-04,-1.270523080962911687e-03,1.715497821569442749e-01
-4.724873806388269620e-02,-2.103035681353425113e-01,-4.774701732934610171e-02,-3.483313781452104666e-04,5.168268685774497388e-05,-2.084355156064656236e-04,1.628078073263168335e-01
-4.294671310697360800e-02,-2.149642894134782822e-01,-4.590164417499769528e-02,-1.263501360295277653e-04,1.321583015345452645e-03,4.345267613357781111e-03,1.707407683134078979e-01
-3.854833009273179317e-02,-2.134311645509807676e-01,-4.137855580304206776e-02,-1.409343698487663509e-03,4.931313299180473467e-03,5.669993328819270982e-04,1.737150996923446655e-01
-5.579931086707977383e-02,-2.999740090561053840e-01,-5.336656962078449584e-02,4.389584665038760714e-02,6.404829339317566136e-03,5.942755379968988477e-02,2.769832611083984375e-01
-3.836945750617736656e-02,-2.099134226771312561e-01,-3.457929124389019088e-02,1.646663743645561178e-04,5.991611900715194689e-04,3.311075722324163719e-04,1.734743863344192505e-01
-5.132071168063416511e-02,-2.490848471072430459e-01,-4.872080679760001920e-02,8.339208716525395304e-03,-2.682924604484271676e-06,-6.146150638758158744e-04,1.996029615402221680e-01
-4.406999881560363930e-02,-2.443276572569701988e-01,-5.037046719310293852e-02,-1.611194391283223351e-02,1.242615293168190327e-03,8.699020603104429261e-03,1.997286826372146606e-01
-4.490963446913243118e-02,-2.089581576854980249e-01,-3.648148786559312490e-02,-5.271780805424137756e-04,3.430903945700182998e-03,-1.569981419445191494e-03,1.685500442981719971e-01
-4.636492414084913277e-02,-2.211523403974406388e-01,-5.580217339136742810e-02,-2.255345074392951180e-05,9.820293501435753067e-04,-2.457440855604442519e-04,1.702740937471389771e-01
-4.070183899868075328e-02,-1.563439421137987617e-01,-4.673660511289505493e-02,-4.625106473119210138e-02,-3.233783642431663696e-04,-8.303482030083375945e-03,1.390549540519714355e-01
-5.116182483648042123e-02,-2.842349324551793344e-01,-6.152024228707241027e-02,-4.474707815098602492e-02,-2.182158314054920972e-03,-3.908133869900373702e-02,2.502385675907135010e-01
-4.288659342568634791e-02,-2.140044624140970686e-01,-3.779885783653138404e-02,6.655990520459919820e-04,1.023989056588689786e-03,6.987208720601089176e-04,1.737347245216369629e-01
-3.033286293430925706e-02,-2.074471619465993177e-01,-4.561110654134396120e-02,-3.039837936657914519e-03,-3.004050811241792355e-03,3.794612867154509056e-05,1.701519936323165894e-01
-3.985228130899122478e-02,-2.326310661085705389e-01,-3.620978398632987427e-02,2.132642293008204376e-02,6.780446727337548565e-03,2.713022733536921485e-02,2.039353847503662109e-01
-5.442234285352209877e-02,-2.156791786089486962e-01,-4.611130836275262324e-02,-7.247302977887975627e-04,-2.422820268063590431e-03,1.503549358297603033e-03,1.656472682952880859e-01
-4.877986493184309491e-02,-2.465626954904087675e-01,-5.172021638920178133e-02,-7.730153167728924524e-03,1.642501410152416358e-03,-1.053802195477309203e-02,1.976503282785415649e-01
-4.694776643489863288e-02,-2.044232796949461695e-01,-3.255300080216420866e-02,2.009503455840499185e-03,1.655240013938724837e-03,2.672430916921422414e-03,1.652704775333404541e-01
-5.020393913934186048e-02,-3.702795930885402487e-01,-6.471978045907370025e-02,-1.724634993498327939e-02,6.173182346252248376e-03,-2.394547998916876641e-02,3.173952698707580566e-01
-4.881645027366902923e-02,-2.107200502303857303e-01,-4.739972299897501212e-02,4.286110286570658356e-04,-1.691515638273669638e-04,6.747899698503100540e-04,1.626227498054504395e-01
-5.528974208885639730e-02,-1.424121753890072450e-01,-4.620807780546146853e-02,-7.187568680206984917e-02,-5.086725770411701722e-03,4.311697834499575964e-03,1.552280634641647339e-01
-5.926415974027576805e-02,-2.082610635911255614e-01,-4.999298846040487604e-02,-6.958755495060546525e-02,7.573625565319580272e-04,3.711879892605868259e-02,2.057421356439590454e-01
-4.887486659372998477e-02,-2.002883809674231852e-01,-2.583379140446004363e-02,1.370200386722740006e-03,1.752320510978722361e-03,8.704993991066405437e-03,1.648873835802078247e-01
-4.647944761744753767e-02,-2.123635737862369921e-01,-4.028705363534097056e-02,-5.322471976385495301e-04,-1.204366195367599819e-03,8.596044035913403929e-04,1.690873354673385620e-01
-4.909065883642524386e-02,-1.921726623753500784e-01,-2.849198551192178019e-02,-9.183447773709122993e-04,-2.563682778728428382e-03,8.717082448984744478e-04,1.544946283102035522e-01
-4.600264626590126749e-02,-2.092858764556305151e-01,-3.391679907675713979e-02,1.213619305363514839e-03,1.630260721589578366e-03,8.244383013237058244e-04,1.696918606758117676e-01
-4.589367335861736785e-02,-3.033122239151997412e-01,-5.951263458205632850e-02,-5.390208575525684553e-02,-2.274842065849260082e-03,-1.380233638271221447e-02,2.687886953353881836e-01
-3.492928173327321945e-02,-1.878723490757782666e-01,-4.196813838334507996e-02,-3.387750568945687140e-03,-7.228626731176475417e-03,4.208341352655173284e-03,1.503625661134719849e-01
-3.761497024373412768e-02,-2.142779015721513192e-01,-4.160754346360737849e-02,4.947564284368745780e-04,1.102768198527763303e-03,7.459528818555389261e-04,1.747181862592697144e-01
-4.766067011905597561e-02,-1.256408672012359617e-01,-5.605013976485088978e-02,-1.603949133366493196e-02,-2.419004574691762700e-03,7.034396094206103039e-03,8.021770417690277100e-02
-4.180483254704664420e-02,-2.114093781619467705e-01,-5.656826890048619050e-02,-1.662991201729905472e-02,7.558212194991819483e-03,-1.429743677496802048e-02,1.676126718521118164e-01
-4.205183097448946666e-02,-3.622919804279892825e-02,-4.772687310357573431e-02,-1.665253188129035139e-02,-3.823444390287384937e-03,-2.319016178910158522e-03,3.148115426301956177e-02
-4.435025688371712488e-02,-2.139178860490844047e-01,-4.264591721356061904e-02,1.274721590966694127e-03,-3.517078227243707121e-05,7.428685199234849514e-04,1.704453527927398682e-01
-4.549964699723831746e-02,-2.302470958763921938e-01,-4.644052876447671285e-02,-8.578065329768846947e-03,9.618713693234628645e-04,-1.980902334407329615e-03,1.849161386489868164e-01
-4.625169436441605580e-02,-2.162121876493401096e-01,-5.165968146785998583e-02,-4.196388771480981969e-04,3.778555084666462491e-04,-2.581925564407120538e-03,1.673846691846847534e-01
-4.370577397833823319e-02,-2.075261218933785456e-01,-3.208448486964727425e-02,-3.208143525680063821e-03,-2.373975905904460344e-03,1.424916677121519475e-03,1.700877398252487183e-01
-4.854803835557296859e-02,-2.119887796120444867e-01,-3.119445478871490929e-02,-3.699085097610169907e-04,1.038249696048667881e-04,-1.947855452772630875e-03,1.728066205978393555e-01
-4.331246879346410672e-02,-1.958502701085712283e-01,-3.010714029069419539e-02,-1.606335373801998437e-03,-4.066166587428711107e-03,5.875670451157786849e-03,1.600543260574340820e-01
-5.438813866362388061e-02,-1.833345508832761872e-01,-3.058888412483574265e-02,2.422695057979093198e-03,2.932919379997513034e-03,9.920162270060314119e-03,1.435306668281555176e-01
-5.783185852950886718e-02,-2.531412798892600513e-01,-6.481476556778950626e-02,-3.045930820812267972e-02,-9.473430761918913510e-04,-5.906963752680510771e-02,2.237953692674636841e-01
-4.273367807321602763e-02,-2.009931123268949849e-01,-3.527174508219649285e-02,1.558530352455334477e-03,5.696094434894585258e-03,3.002673342808613501e-03,1.625248342752456665e-01
-4.217706636206761117e-02,-2.197054038836003531e-01,-5.039864869735773134e-02,1.196202135452269048e-02,-3.590857789944953450e-03,-5.670785296796917140e-03,1.751821041107177734e-01
-4.436560777760822916e-02,-2.210160503810843502e-01,-4.492408443613143260e-02,-4.554266072088241149e-04,1.173992654654719111e-03,-1.436468835988897455e-03,1.764028966426849365e-01
-5.303832645491397130e-02,-1.359245867782628292e-01,-4.995800355983381902e-02,5.918200561399182980e-04,-5.213772694180106825e-03,-1.578208324856308301e-03,8.500006049871444702e-02
-4.016818361297441742e-02,-1.690470959216328062e-01,-3.499086776742765109e-02,2.060829252566253114e-02,1.161442935947948167e-02,2.597825031020531417e-02,1.449386924505233765e-01
-4.875887972735699211e-02,-2.102186434318061292e-01,-3.485803910710529030e-02,2.360880059152117275e-05,5.591219697216288746e-03,2.398580021925507400e-04,1.691179275512695312e-01
-5.124454030079235445e-02,-2.519770051160435398e-01,-6.217714288112737714e-02,3.918950773094583007e-02,1.360114846723171119e-03,-6.280291321783335046e-02,2.338036298751831055e-01
-5.069081136171429969e-02,-1.855050786734614987e-01,-3.232815810447393912e-02,7.765145218976765096e-04,4.664678712897210242e-03,6.501620975531965593e-03,1.455387324094772339e-01
-4.370943177603719976e-02,-2.053491749658691301e-01,-3.026987741208518601e-02,5.824457422224267600e-04,1.910094795439538006e-03,1.110551563280379140e-03,1.688077598810195923e-01
-5.346671692602057019e-02,-2.151061121372548346e-01,-4.974623180024086849e-02,1.863630240987041971e-03,5.341181808346815232e-03,6.570823574075404343e-04,1.638286113739013672e-01
-6.080578831382960070e-02,-3.125989244857968474e-01,-5.288740199139038700e-02,-1.914560910309635183e-02,6.465771507264155525e-03,-4.710878348334596871e-02,2.708118855953216553e-01
-4.875627782993592618e-02,-1.892196445627135626e-01,-2.629563308307070191e-02,5.163393460271705794e-03,3.565238041759178234e-03,8.606651406172971877e-03,1.540443897247314453e-01
-4.705463240824932225e-02,-2.129835452525506156e-01,-3.983980095243594421e-02,-1.476705247417077092e-03,-1.350857894482006434e-04,4.247528406816445529e-03,1.698302924633026123e-01
-3.469128241798521278e-02,-1.751657007052551118e-01,-5.543389443142189565e-02,1.759650814315057415e-03,4.905678123197215572e-03,7.225718317556072915e-04,1.316531896591186523e-01
-4.614977960664300854e-02,-2.204986160093615755e-01,-4.559180307769129803e-02,-1.185530296764017184e-04,-1.002841670802669463e-03,1.067339785837530296e-03,1.746470332145690918e-01
-3.579212727462999927e-02,-2.085571680888778645e-01,-3.385546882209350406e-02,5.603322053215605090e-04,2.353969515229231702e-03,6.017311825412630186e-04,1.737951338291168213e-01
-4.035884369302574631e-02,-2.047104653138369645e-01,-3.169270105975915963e-02,6.006556072213966061e-04,3.110341678444120302e-03,-1.895109322783747991e-04,1.689410060644149780e-01
-5.004574357411215729e-02,-2.273984753054102415e-01,-5.228734095813884764e-02,-2.757391535850894568e-03,2.181335657510287927e-03,4.793750110029625219e-04,1.763497591018676758e-01
-4.659688101001844412e-02,-2.204900875649027370e-01,-4.908041974337531976e-02,-2.722114675704794505e-03,1.766243771834135473e-03,-3.802937068055554405e-03,1.728818118572235107e-01
-4.965133285476336367e-02,-1.906715318290546912e-01,-3.186280669801189180e-02,4.141588200067590833e-03,4.259173399177027149e-03,1.579200773201942798e-02,1.535112708806991577e-01
-4.612850839413169812e-02,-2.193560464725594628e-01,-4.786845163698632416e-02,-2.439524752147684619e-03,-5.853683392454440840e-04,-5.912294951451939166e-04,1.724219620227813721e-01
-4.166838073438972057e-02,-2.008663302620394553e-01,-2.731239853222720837e-02,1.046722776288960561e-03,3.807449196891063859e-03,1.553267847258782116e-03,1.670016199350357056e-01
-5.549376751704816757e-02,-2.189848853782210836e-01,-5.750927059309150075e-02,5.679547523902794132e-02,5.833854272255921012e-04,-5.667298569653565071e-02,2.138166725635528564e-01
-4.035407790805603523e-02,-2.124174318334435263e-01,-2.887683744421630505e-02,-3.090860400529926028e-03,1.291789295942695481e-03,3.519293043403469434e-02,1.883125901222229004e-01
-5.876097563455161266e-02,-3.388515682865443357e-01,-5.736013141260032366e-02,-1.047007621003648303e-02,-1.564857680724956665e-03,1.002792030854326132e-02,2.819272279739379883e-01
-5.332361582266399030e-02,-2.025737608092501030e-01,-3.403560895413382248e-02,8.112619272150154576e-03,-4.966611844109325088e-03,-6.352294067039983456e-03,1.609933823347091675e-01
-6.617125242538655916e-02,-2.625356754529052372e-01,-5.431537095170366203e-02,-5.664725022575013702e-02,-5.057041060116910548e-03,1.187084227700860826e-02,2.261721193790435791e-01
-4.860094229991933357e-02,-2.117287863275346682e-01,-4.942517893577089844e-02,1.136499442979861142e-03,1.517334198401965387e-03,-1.340822507940028774e-03,1.627669930458068848e-01
-4.704327189971004020e-02,-2.145443603233802565e-01,-5.447063418346066027e-02,-1.487913705446734227e-03,1.100590729307752893e-03,-6.315376929073818028e-04,1.639486551284790039e-01
-5.447260326590356444e-02,-2.164657215500326581e-01,-4.749489446735576104e-02,-1.400114680608194849e-03,1.669117496607685656e-03,-6.051739325060017521e-04,1.656385809183120728e-01
-2.958196690765425851e-02,-2.087524114746905912e-01,-4.872600656189107760e-02,-2.771931937944496858e-03,1.897998748192274545e-03,-1.525527720454286119e-03,1.705266386270523071e-01
-4.232061208649855188e-02,-2.343084076888596878e-01,-4.541890294589878696e-02,-9.221781982590025045e-03,2.657938885226853506e-03,-8.121766790303713845e-03,1.916984319686889648e-01
-6.423390927942329576e-02,-2.999450607173238526e-01,-5.310005554989419285e-02,-4.215931786462522035e-02,-4.923445605935464382e-03,2.652434718621993551e-02,2.565611898899078369e-01
-4.308010730450559378e-02,-2.035567837121533552e-01,-2.750677830290136627e-02,8.103686236100451174e-04,2.888158657315802961e-03,1.998282266801439978e-03,1.689183861017227173e-01
-5.345971915463399587e-02,-2.195614779765369673e-01,-4.635209499268506256e-02,-3.863422609265444122e-03,1.724642919834285752e-03,-1.108801058666377499e-03,1.699361354112625122e-01
-4.313150391104360326e-02,-2.072955624423601373e-01,-4.442808906307350869e-02,-2.396142767479362418e-02,-4.508291184527254795e-03,1.745169063134591886e-02,1.715685725212097168e-01
-4.820681619589423095e-02,-2.146215551328730653e-01,-5.345150835628107583e-02,-9.984119490085043822e-06,1.163995943159214057e-03,-3.454272645571959590e-04,1.638688594102859497e-01
-5.860164545868137842e-02,-3.295649674787725081e-01,-5.707750736250136181e-02,-2.168656890223927963e-02,-1.288385647135841146e-02,1.799368240452800007e-03,2.752363383769989014e-01
-4.519244836875783294e-02,-1.982962324024584166e-01,-2.692941810972560024e-02,6.897793940731826792e-04,2.987201920353543469e-03,2.741867202313777105e-03,1.631600409746170044e-01
-3.688257760331453694e-02,-1.981823436403416516e-01,-4.292573121309861683e-02,-2.949025813632650487e-03,6.034173155651679360e-03,-3.628264919549593990e-03,1.589156687259674072e-01
-4.617959356191526227e-02,-2.136966660979063015e-01,-5.012679695878590608e-02,1.596459177883921944e-03,-6.703064801805515326e-04,-3.528075223266940075e-04,1.656070500612258911e-01
-3.510370805385774201e-02,-2.145731195703028948e-01,-4.310105350020581455e-02,-5.162093848842376573e-04,9.441235648106700764e-04,6.166433259238263912e-04,1.756205111742019653e-01
-5.577782802289339703e-02,-1.137784283255597745e-01,-4.925138334949228508e-02,-5.294301440526488767e-02,-1.220138830425054714e-02,-3.172711038582593651e-02,1.251420825719833374e-01
-5.333172403332799710e-02,-1.210731503958781263e-01,-4.799680172188006133e-02,-5.309942301740332854e-02,-1.265222135358134731e-03,1.171567245379438044e-02,1.177029162645339966e-01
-4.298529193618071814e-02,-2.050453058220216285e-01,-4.426218625000521295e-02,-4.019671951161286894e-02,2.800871252072313460e-03,-2.849465584127757953e-02,1.826604604721069336e-01
-5.387321927364902702e-02,-2.173893636294809140e-01,-4.660733765482439478e-02,2.273115981977172351e-03,-4.544223496258531785e-04,1.823367199285731363e-03,1.673454642295837402e-01
-4.601825418716258553e-02,-1.281599231908596426e-01,-4.299999290769498939e-02,-2.703247664984268633e-02,-9.477944244672372939e-03,2.824389319515460336e-02,1.088999509811401367e-01
-3.136094559637030155e-02,-1.994494518759233337e-01,-4.415510613724571432e-02,6.976126018650966217e-04,4.763739702779275220e-03,5.847839370675277006e-04,1.622881740331649780e-01
-3.092463744661001768e-02,-2.084342748102073761e-01,-4.487858072901635548e-02,1.951089894107608733e-03,1.299627025210001218e-03,9.996399375619502512e-04,1.710172742605209351e-01
-3.948848863436327933e-02,-1.950224568364011257e-01,-4.284446009782571368e-02,2.627044193882270315e-05,6.737311030300168792e-03,-3.482171727981416519e-03,1.544430702924728394e-01
-3.579803754542527222e-02,-2.115815838100262303e-01,-3.911559999619487055e-02,1.247130128033930620e-02,2.663505622366354238e-03,3.455631902893456509e-02,1.854669451713562012e-01
-4.586750964890853877e-02,-2.189226555222423265e-01,-5.401929159203418956e-02,-1.506857674147201506e-03,-2.953312891175803763e-03,-2.597301086091851306e-03,1.692839115858078003e-01
-4.414852945190607392e-02,-2.506673004620938450e-01,-4.470951946854531678e-02,-2.787931400956125509e-03,2.608214969522454265e-03,-5.050365195037695432e-03,2.065301537513732910e-01
-3.489778347527863062e-02,-2.133487930629615614e-01,-4.300560266312665469e-02,-3.709269314125578044e-04,9.609841933296818127e-04,1.948924915310373113e-04,1.745478361845016479e-01
-3.942546569419054514e-02,-2.149324758022119752e-01,-4.161966793117018865e-02,2.356869517089011192e-04,4.040674969074188909e-04,5.534707765863678287e-04,1.744247823953628540e-01
-4.361778278213650217e-02,-2.583176215980124146e-01,-3.267342650404014837e-02,3.195339980635931564e-03,5.951313632673678813e-03,1.152372010705733987e-02,2.215870618820190430e-01
-2.995479307985028650e-02,-5.734614156606672453e-02,-3.869453262573169933e-02,5.562452818233591841e-03,-3.336361409915779199e-03,-1.782519740115439538e-02,4.082530364394187927e-02
-3.693383404569765271e-02,-6.628888984229786008e-02,-3.807778642016514115e-02,-2.895246142358362876e-02,-1.022631305026013362e-02,-2.712503484682963692e-02,7.658470422029495239e-02
-4.704066118747982084e-02,-2.527306974054059907e-01,-4.809832202846593685e-02,1.846998595242013317e-03,1.390975071753214071e-03,1.136112370185201823e-02,2.061436921358108521e-01
-5.763574182456277645e-02,-1.036718093779764455e-01,-5.322951085162890700e-02,-1.478493890584180182e-03,-1.756424223764957004e-03,-2.972994258080446949e-04,4.855572059750556946e-02
-5.324456409065017604e-02,-9.316459031725221607e-02,-4.672320396300887191e-02,1.011456595411957225e-02,1.413503461498169956e-03,2.310582192342930385e-02,6.173340976238250732e-02
-3.364006309215095136e-02,-6.213314590504367962e-02,-3.051966144162625294e-02,9.475441565279796308e-03,-3.013341308933604069e-03,1.420199199092742927e-02,4.256976395845413208e-02
-4.291659417142627830e-02,-2.129914395376387160e-01,-3.602922449709942965e-02,-1.190791556520867900e-04,3.159761649244524542e-03,-5.843760912285971085e-04,1.737103164196014404e-01
-4.828819904095940641e-02,-2.291512824352750222e-01,-4.743331862895921319e-02,1.930564135553451991e-03,3.071119411921610946e-04,-3.771468551418753149e-03,1.814412772655487061e-01
-4.973014741849834941e-02,-2.036514246528238203e-01,-2.997552954882866383e-02,-1.525999163405968766e-03,-6.251624263148498114e-04,-1.015009380216061984e-02,1.656499058008193970e-01
-4.699487463773625862e-02,-1.318024908442436416e-01,-5.247578977860994920e-02,-2.490163203638852754e-02,2.833227208344251801e-03,-2.025296935137937612e-02,9.936021268367767334e-02
-5.778149243636875043e-02,-1.114592982229212909e-01,-5.697152532163521355e-02,7.207553949708157175e-04,-1.810648855832492753e-03,2.472718373320508672e-03,5.436154082417488098e-02
-5.202518052838320251e-02,-2.296526653692381736e-01,-4.873544681581867821e-02,2.267726229413608192e-03,-1.511556919464213588e-03,6.220023491415302202e-04,1.793603450059890747e-01
-4.589141844705324491e-02,-2.166416600286865113e-01,-4.473761239616629720e-02,1.143843240781507176e-02,-2.563425863799718638e-03,-8.394461077663575637e-04,1.725350171327590942e-01
-4.951708347660210147e-02,-2.106210893348076096e-01,-3.584255910983652482e-02,-5.182582772100448060e-04,2.433177559962926143e-04,-2.370290469774010648e-04,1.683617085218429565e-01
-5.313369501526584576e-02,-2.134840688061711567e-01,-4.589383852025195193e-02,-1.951426238713562780e-04,-4.516205355447459901e-04,3.901217829476063257e-04,1.640937328338623047e-01
-4.515417740109971267e-02,-9.387257450105043755e-02,-4.087444277459746644e-02,-3.375248700987467515e-02,-5.894694677223337106e-03,-2.339466037910446078e-02,8.811449259519577026e-02
-3.928166716049113355e-02,-7.031933117088511043e-02,-2.567137418205960031e-02,3.238506055842103881e-02,-3.729072594389959069e-03,1.723533789324019003e-02,7.516829669475555420e-02
-4.255789163862708224e-02,-1.029917040886586532e-01,-4.677083126428282361e-02,-1.995394435129974053e-02,2.429696145280508396e-03,-1.755242212472790664e-02,7.451069355010986328e-02
-4.856000666879976835e-02,-2.143067377707897625e-01,-4.606431031844016033e-02,4.332766329652994403e-04,-4.137307809673308550e-04,1.484738319715113745e-03,1.670315861701965332e-01
-4.630924651317040036e-02,-2.138642464204285887e-01,-3.818603312154742607e-02,2.330588677326572299e-04,4.067052595908974329e-04,-6.918526292057983196e-04,1.717668324708938599e-01
-5.623738890801847218e-02,-2.235898140517938448e-01,-4.603503317788290583e-02,-1.951121531681620277e-03,-1.176016219399630622e-03,-9.930096371632050022e-04,1.727334409952163696e-01
-4.898152533255989427e-02,-2.167570639603738358e-01,-4.734319561160874740e-02,-3.087886669500129570e-03,1.755844754875239035e-03,-1.491837060787164779e-03,1.687326878309249878e-01
-3.932702257078974500e-02,-2.151079138405434799e-01,-4.252753873587346300e-02,3.266787700943312453e-04,1.779358449354237178e-03,3.556034930082506689e-04,1.742319464683532715e-01
-4.614185449244860571e-02,-2.516880162493055351e-01,-4.392267912277661446e-02,-1.972854601368593391e-03,-3.148300005628276634e-03,-1.037906748407168081e-02,2.075448781251907349e-01
-4.544568781009072911e-02,-1.785935758465967138e-01,-3.939003917308483288e-02,-1.382145408112957392e-02,-1.042299397235271763e-02,1.192894939558265636e-02,1.410575807094573975e-01
-4.800463570926137569e-02,-2.106079922824328765e-01,-4.734489761140145414e-02,1.169962088550422587e-04,3.491104042806909792e-04,1.943912532201289500e-04,1.629358232021331787e-01
-3.792035267184380026e-02,-2.103278824620679610e-01,-3.907406917152355524e-02,4.597478441597459449e-04,-1.973899586872968070e-03,-1.353621585564701493e-03,1.718854159116744995e-01
-2.899500306910243741e-02,-2.078847499746687144e-01,-4.864344169933340623e-02,-4.438867904091940405e-04,1.682495346752905954e-04,-8.510439764370774643e-04,1.699280589818954468e-01
-4.800113209281990645e-02,-2.107829817603438793e-01,-4.756382582244423479e-02,3.083813790366977947e-04,-7.932579061699770659e-04,8.909487158595801861e-04,1.630149185657501221e-01
-4.910586929549363294e-02,-2.129737986678106598e-01,-4.555412959189559380e-02,-7.765506784104662420e-04,9.495382326284100127e-04,7.637661804056185364e-04,1.656912565231323242e-01
-4.290876098023958807e-02,-1.967540536475533841e-01,-2.840450141291365332e-02,1.822313253729747383e-03,4.462547986724305429e-03,4.283164066113181664e-03,1.619719117879867554e-01
-4.353755553350406593e-02,-2.107620349779509850e-01,-3.358523098227819692e-02,-2.464857484454507745e-03,-2.828963296802888133e-03,8.527583009226142458e-03,1.731696873903274536e-01
-4.687833941971822349e-02,-2.137048712231573444e-01,-5.043112214884076794e-02,2.997778172359666024e-04,-2.791666256037710504e-03,-4.915358696575639280e-04,1.651526242494583130e-01
-4.576891897528740510e-02,-2.050770617501357918e-01,-2.670725617781888328e-02,-3.163139759854835444e-04,1.119544923737812248e-03,1.219013383673877519e-03,1.696691662073135376e-01
-5.273650789492817514e-02,-2.136863642685201126e-01,-4.656370932132415652e-02,-1.982950846650514975e-04,-1.478487476371964995e-03,9.778477443107339278e-04,1.641524136066436768e-01
-3.608365860696324118e-02,-2.142114308718105764e-01,-4.189383602792245975e-02,-6.495047194521859444e-04,2.861612521295734367e-03,5.709716472669010799e-04,1.753713637590408325e-01
-6.062048996753793828e-02,-2.981912060765475325e-01,-6.209444586454168635e-02,-4.453837650477204119e-02,-4.075113622564300458e-03,-5.995316097503949199e-02,2.699552178382873535e-01
-3.923875430978935458e-02,-2.127325219381320243e-01,-4.598058329710474207e-02,6.478975149663025995e-04,5.427604957507316859e-04,1.382962504080605549e-03,1.702461540699005127e-01
-4.873260263432548783e-02,-2.133717042544382991e-01,-4.629400300285635428e-02,-1.266958798570183391e-02,8.279319567429370029e-04,2.181800803835277219e-03,1.673659533262252808e-01
-3.200586268157543102e-02,-2.065073294930080405e-01,-4.576419786691691971e-02,-2.784026928918431967e-03,-2.336058931635758354e-03,3.198030055110691544e-04,1.681640148162841797e-01
-3.671575539386182085e-02,-1.518639124001684437e-01,-4.801534424744945129e-02,-2.952002303073819611e-02,-1.439398671394565097e-03,1.605878569105152797e-03,1.213008612394332886e-01
-4.671274543272990049e-02,-1.230513146791924195e-01,-4.991313608173110483e-02,-8.021936915139743192e-04,2.491817808207324753e-03,2.108013770957929602e-03,7.501596957445144653e-02
-4.830266259237651905e-02,-2.124748459497102226e-01,-4.788450082873930286e-02,2.684391255103553246e-03,-2.000516812599646352e-03,-1.404282228374722098e-03,1.645018905401229858e-01
-4.241025522444619861e-02,-1.151410287421132661e-01,-5.148643262136384791e-02,1.462249154249174211e-02,3.634759470758643866e-03,3.291738557697840815e-03,7.365879416465759277e-02
-4.710091221922464710e-02,-1.203675036773155793e-01,-5.639491539000469900e-02,1.218598701762546241e-02,-2.118709279310833447e-03,2.830844730130176049e-04,7.233694940805435181e-02
-3.224278741342766208e-02,-1.920241927990263830e-01,-4.667310498812547725e-02,1.754198061569862618e-02,-7.561172211969996795e-03,-1.171163165086275618e-02,1.579202264547348022e-01
-5.947804724992457326e-02,-2.165315567339500535e-01,-4.364709718695861107e-02,-2.936275228806503709e-04,-2.304374045497058579e-04,-5.122673537853131721e-04,1.655413359403610229e-01
-4.882893361596612330e-02,-2.109136609856855360e-01,-4.807427202111492354e-02,6.977103441448385349e-04,-3.069097787487048024e-04,4.761530000888706355e-04,1.624708324670791626e-01
-3.475050218550970738e-02,-1.668362824668145894e-01,-5.909763763699864281e-02,1.727835744724409706e-02,1.769251250357444958e-03,7.100537957888829535e-03,1.260150521993637085e-01
-4.922280456839261964e-02,-2.125510722864464019e-01,-3.152179413372457883e-02,-1.484906309864757580e-03,4.937281679826099456e-04,-7.409749493816202535e-03,1.733568161725997925e-01
-4.577042412460402554e-02,-2.188160026338573649e-01,-5.478246573132743158e-02,-2.767684139379438836e-03,5.187186958858413990e-04,2.923389841180333050e-03,1.688665747642517090e-01
-4.611406953823207755e-02,-2.124539312141458525e-01,-4.054762743799394942e-02,-5.565132433125447161e-04,-3.254368340578506040e-03,-6.429597093052981556e-03,1.696542799472808838e-01
-4.439700517146291658e-02,-2.137070228448920695e-01,-3.890390285221113909e-02,-3.140351489189982352e-03,2.243448219564334045e-03,3.362134353834451972e-02,1.818294823169708252e-01
-4.707246171208870344e-02,-2.101479406766755265e-01,-4.614516379120493783e-02,2.316437557257262653e-04,-3.774536207714441018e-04,6.167488999346204472e-05,1.635429263114929199e-01
-3.537316026741293973e-02,-2.136028415754767373e-01,-4.096327531441491809e-02,-7.688086311310447264e-04,3.171701008911661634e-03,-2.496190178754609549e-04,1.755929440259933472e-01
-4.492896547547719360e-02,-2.125961408290838739e-01,-3.812924165360696838e-02,-1.214492288939124538e-03,-8.359602989836656915e-04,-1.695847322832572416e-03,1.712126135826110840e-01
-4.359683541117200661e-02,-1.911397216599462212e-01,-3.473256197401665413e-02,3.237993796269723109e-03,-7.540847740706168104e-03,-3.847687496830607280e-03,1.529764682054519653e-01
-4.740972826590868910e-02,-2.281924527037419159e-01,-4.529627030634235385e-02,1.853975396596266659e-02,-1.496537141929101975e-03,-3.004987576328370033e-02,1.918744593858718872e-01
-5.386371481285054386e-02,-2.425594960725430682e-01,-5.716284606200288526e-02,6.376588003613446742e-02,3.412367749923793554e-03,-3.737720025804564666e-02,2.267571687698364258e-01
-5.516891658085582018e-02,-3.105436362828992714e-01,-5.921336314623967811e-02,-1.926827818084513033e-02,5.736499096637540790e-03,4.764843059382460372e-04,2.557595670223236084e-01
-6.066242188660482537e-02,-1.432111767622235021e-01,-5.136156369706340596e-02,-1.192126513099499643e-02,-3.525557588648009586e-03,-3.321787470495882189e-02,1.069696098566055298e-01
-5.502263910534113678e-02,-8.155844745306414789e-02,-5.621018074997163189e-02,7.477705534193163951e-03,-4.093732732585998908e-03,-2.271532238835400393e-03,3.012558259069919586e-02
-4.926097483438003632e-02,-3.323858255676881424e-01,-6.214304358924788163e-02,3.150194174220059817e-02,-3.726795278490486509e-03,-3.391666983469910496e-02,2.883543074131011963e-01
-4.935528421807131028e-02,-2.413496805423802627e-01,-4.773138662321782522e-02,-2.619206075837769016e-03,1.805867551502072805e-03,-4.182168118713372462e-02,2.060431689023971558e-01
-4.906828861979619510e-02,-2.096008431723866416e-01,-3.040913789099684850e-02,-3.623720444339588106e-04,8.764174704134297753e-04,3.694777453862634325e-03,1.707569062709808350e-01
-4.318758023058706652e-02,-1.399203175361578289e-01,-4.006388673352964669e-02,-8.289516904781822626e-03,4.208057361420901310e-03,5.716157175842137561e-02,1.404661834239959717e-01
-4.711662906317652666e-02,-2.175535193427884650e-01,-5.473356208081117669e-02,5.181528358272413171e-04,8.894551856007311148e-04,-1.752735975057479042e-03,1.667961031198501587e-01
-6.373814136851077561e-02,-3.388170115763182721e-01,-5.148522353426071563e-02,1.074914076535343418e-02,5.272931760279285507e-03,3.748319074798230066e-02,2.895410954952239990e-01
-2.255290345719645345e-02,-1.646256043744706299e-01,-4.543592856289745824e-02,3.046432353550824687e-02,-7.326139601075216034e-04,3.974257322386398096e-03,1.424445509910583496e-01
-3.885969508134418798e-02,-3.388144590020038954e-02,-4.372701667319919827e-02,2.545478424463681888e-02,-3.200680779992445216e-03,1.065121470959272919e-03,4.528442397713661194e-02
-4.294026722260858159e-02,-2.116547435330135840e-01,-4.356746695497234340e-02,5.703846548712976578e-04,-7.557788353586045822e-04,-3.885290118353102178e-04,1.684110760688781738e-01
-3.518437098156957515e-02,-1.364491347459760862e-01,-5.055932131872843682e-02,2.091260499358263761e-02,3.537857990894041019e-03,9.250449291999815818e-03,1.026658341288566589e-01
-5.878638906388284485e-02,-1.246048548641950221e-01,-5.845137920287581113e-02,-1.039503736558923010e-02,-6.212735466366288515e-04,-2.441685982811956854e-02,8.042456209659576416e-02
-3.807279753519659388e-02,-2.097016549851007938e-01,-4.220265831212794555e-02,-1.504627924551027451e-03,4.886002836308360638e-03,-9.208882763127891873e-04,1.698401421308517456e-01
-5.708980306948430172e-02,-3.405764247553436097e-01,-6.889601918698015637e-02,1.696742493412097680e-02,-8.464202018016717122e-03,-4.819072742533490883e-02,2.918951809406280518e-01
-5.036212599239332094e-02,-2.000322108262299059e-01,-2.389278252411432268e-02,-3.008626107844759412e-04,3.814725940056115671e-04,1.443596231211435963e-03,1.645308136940002441e-01
-4.035773772013227789e-02,-5.783431389407066303e-02,-4.321817134838334962e-02,-2.195491041169924523e-02,-9.218192632068350836e-03,3.675623871935333221e-03,4.477870464324951172e-02
-5.625670639179999183e-02,-2.201890818319392207e-01,-4.586467994303630724e-02,1.374081773096372380e-04,2.099892251905465142e-03,-2.412858293145457057e-03,1.694584339857101440e-01
-2.622879880572251063e-02,-6.167720066845103905e-02,-2.610510243519262308e-02,2.231012778114298961e-02,-2.306517207737592001e-03,1.942897808667591597e-02,6.247103586792945862e-02
-2.751155716384087735e-02,-8.041509023193059436e-02,-3.564430072506916819e-02,1.867673216051488755e-02,-3.097398044849172024e-03,3.344033434987853104e-02,8.285339176654815674e-02
-3.034146913144397661e-02,-1.275171899424147881e-01,-3.315972752405507706e-02,2.165519257376902207e-02,2.983361491587201413e-03,4.390566554870131699e-02,1.280385255813598633e-01
-3.409625833920160859e-02,-1.567933208193587058e-01,-5.105658818471276589e-02,1.287181987671547241e-02,4.879744827316489716e-03,1.002510990573430433e-03,1.176126748323440552e-01
-6.586097558699560706e-02,-2.936874657216364537e-01,-6.414322799096414118e-02,-6.992794772886622157e-02,5.173438405746411117e-06,-1.480299716673567391e-02,2.600506544113159180e-01
-3.959359307743286205e-02,-2.295709777086106240e-01,-5.552414007861886797e-02,-1.011648323094724647e-02,-5.091726846020075805e-04,-4.153754392914526389e-03,1.835165172815322876e-01
-4.579726974984846266e-02,-2.145237050491761444e-01,-3.675230938626937449e-02,3.916015701655380945e-05,3.601487928314725875e-03,6.635343759310085654e-04,1.735418736934661865e-01
-2.892514764086106388e-02,-1.881300854348120222e-01,-4.496336634860872983e-02,-3.889185411357377886e-02,-3.026845248084373587e-03,1.378650952816073277e-02,1.678853482007980347e-01
-3.681575206096235342e-02,-1.385572237737303647e-01,-4.514888816094724672e-02,5.592761842178223947e-02,-2.415728611795044112e-03,-1.728016046894051416e-02,1.409608423709869385e-01
-3.771376506250385258e-02,-2.137066308359623634e-01,-4.721005399321438062e-02,4.596803026623751814e-03,-1.777862643814105172e-03,-3.258765576576037621e-03,1.717472672462463379e-01
-3.700126748903156265e-02,-1.883132971849142412e-01,-4.550523019867890734e-02,9.934439776998111888e-04,7.081967954813472854e-03,5.011243454404903756e-04,1.477669477462768555e-01
-6.397090880938063884e-02,-2.023255082620558087e-01,-5.318984774736390531e-02,-5.835593064600749780e-02,-3.561432151388795389e-04,1.192350097769789147e-02,1.771806180477142334e-01
-4.702019807940076290e-02,-2.368730101401133603e-01,-4.998381079143376926e-02,6.558678983000322711e-03,-1.749397623240368793e-03,-8.161605427791115627e-03,1.892836242914199829e-01
-3.867011334924072563e-02,-2.230100455304748763e-01,-4.785700686062376030e-02,5.551674924702813818e-03,-5.177671423517921263e-03,-5.171489959525455218e-03,1.806245297193527222e-01
-3.247676121091827572e-02,-2.159867749845211238e-01,-4.590827983304126420e-02,9.984102966472081092e-03,-3.129202229099848666e-03,-2.329295450178638614e-03,1.781466007232666016e-01
-4.604119174028071387e-02,-2.102370426240043333e-01,-4.700895009852557732e-02,8.586154864839239641e-04,-9.437677388925608301e-05,2.224401142452332193e-04,1.637214124202728271e-01
-6.437891393864297873e-02,-3.780252830541437348e-01,-5.912730703842161706e-02,-7.781711553408959467e-03,4.848262935693264074e-03,-4.633927244088181449e-03,3.168049454689025879e-01
-6.260987756474190036e-02,-3.547992680071959115e-01,-5.359676675810823299e-02,-2.038658498059572194e-02,1.708504395752941281e-03,-1.535584017947167791e-02,3.000873327255249023e-01
-3.952861000980153333e-02,-2.110664664371737775e-01,-4.456291357590793506e-02,9.121525838756146904e-04,-1.044129864019779745e-03,-1.970520849247686841e-03,1.691284179687500000e-01
-4.633662901361149805e-02,-2.089049678540328969e-01,-2.789132893084232678e-02,-6.150615163743951459e-04,2.230945716698575290e-03,-3.349814416793463895e-03,1.726761311292648315e-01
-4.601395391594251261e-02,-2.136572031671850058e-01,-3.997041428766424931e-02,2.816755355761137343e-04,1.369437354113269998e-03,6.171779593939269361e-04,1.707657724618911743e-01
-4.862669165121972364e-02,-2.072694683278060168e-01,-2.884937892878269849e-02,2.492842620853601490e-04,5.359799825037596778e-04,-4.893362279043046324e-04,1.694047451019287109e-01
-5.212334060756349668e-02,-2.213287124150191687e-01,-3.889001950424120224e-02,-2.362410271934487632e-03,8.729205429935784971e-04,-2.894845025123432905e-03,1.763204336166381836e-01
-4.655882002917866719e-02,-2.161248596161171043e-01,-4.469639946667760405e-02,9.536152506679345395e-04,1.967380546127589676e-03,-5.399868781307905902e-03,1.708031892776489258e-01
-4.834424277186986224e-02,-2.118471069211641522e-01,-3.191414579223372794e-02,-1.397753068962539948e-03,3.293730145572272040e-03,-1.119391155213258441e-03,1.724287420511245728e-01
-5.471042384738936115e-02,-1.730364580670721575e-01,-3.744975301203241902e-02,2.246280346849798687e-03,-4.378543436489141746e-04,-9.921188521275973830e-04,1.279063522815704346e-01
-4.717494907632850676e-02,-2.146342038670150387e-01,-4.004952325839843813e-02,-8.600143520580015490e-04,9.021613211204328273e-04,-3.360457105356128623e-03,1.712458133697509766e-01
-5.495299275875352440e-02,-9.423239855573231627e-02,-5.324145667658847225e-02,-2.910511033497995351e-02,-6.037209826841511036e-03,2.915280246762100031e-03,6.549192219972610474e-02
-5.415902765212174397e-02,-1.625029374932079329e-01,-3.948866103015725992e-02,-1.088903631334563193e-02,1.290259084408142132e-03,-1.080357458633935189e-02,1.193898096680641174e-01
-4.727703407894092574e-02,-2.117238281436531200e-01,-5.063457520333998485e-02,8.966641932571244207e-04,2.272409252300142124e-03,-1.163707682476777068e-03,1.628614515066146851e-01
-4.650127864090884688e-02,-2.118266814119127983e-01,-4.633132716214290875e-02,5.460501485716643755e-04,5.997557472619754218e-05,8.692108822675036640e-04,1.654200255870819092e-01
-4.337286132457888327e-02,-2.050493533685768255e-01,-3.245543843135340750e-02,5.361498383735405996e-04,-4.086879116020980009e-03,-2.312782581208422308e-03,1.676024645566940308e-01
-3.523725610060705893e-02,-4.019657563489049262e-02,-4.446632157895794024e-02,-3.924661260122578178e-04,-4.400853697136010087e-03,8.861209245187282035e-03,1.892427913844585419e-02
-5.218681152475034002e-02,-1.902355703074165572e-01,-4.531495475203145551e-02,7.702850751108874551e-03,3.321210732143808474e-03,-5.413258191332562252e-02,1.704565584659576416e-01
-3.089280129779403694e-02,-2.071369361952488941e-01,-4.833495717416480542e-02,1.038847511130316182e-04,-2.370303863197882784e-03,-2.311923125126253613e-04,1.682533621788024902e-01
-6.293689308920227821e-02,-3.454924332242118035e-01,-5.214597827794838214e-02,-1.656446652130155045e-02,-5.042497605561599948e-03,-3.501226988670925327e-02,2.959393858909606934e-01
-6.930458889949335510e-02,-3.154035762453433200e-01,-5.341945419194629729e-02,-2.118402046942093053e-02,-6.459483093264335729e-03,-4.990735146458929322e-02,2.714222967624664307e-01
-3.348550216349466258e-02,-7.275858964340534141e-02,-3.469925386527327599e-02,2.021797451315866800e-02,1.587241078060040072e-03,-1.001563993651560097e-02,5.505431443452835083e-02
-3.901111136310474181e-02,-5.317269785552028449e-02,-4.547175736447534034e-02,2.931556155229914779e-02,-1.487373955732682832e-03,6.551409313501475873e-03,5.352012440562248230e-02
-5.934423111109658755e-02,-1.838903199443807923e-01,-6.323150907300537082e-02,1.784528431327885153e-03,-7.078379759873536584e-03,-6.054904195486253415e-02,1.618675887584686279e-01
-5.576464091586096072e-02,-9.915426583468077426e-02,-5.368355898233823781e-02,-2.266964864574207844e-02,-5.812134057944338614e-03,1.892102266474343999e-02,6.851558387279510498e-02
-5.712372502310474054e-02,-1.653081776947325499e-01,-3.745263077808726193e-02,2.378330597952886538e-03,1.422008855867935113e-03,1.678418020724117485e-02,1.228295415639877319e-01
-6.617142838559079976e-02,-2.094654483296598535e-01,-5.819396199406178666e-02,-7.666550269982946864e-02,-1.494029110652939085e-03,1.360408309758421794e-02,1.998365521430969238e-01
-4.993438199896465396e-02,-2.087435251861717855e-01,-2.802519814470258441e-02,-1.358193518033675145e-03,2.703174354924579121e-04,4.870255326205837065e-03,1.710457503795623779e-01
-5.942705817100228660e-02,-1.705634288064382664e-01,-3.308268335079853767e-02,8.715474359215001458e-04,1.796339018920849195e-04,1.730960889672253757e-03,1.264298260211944580e-01
-4.829003058172889190e-02,-6.558135162599518231e-02,-3.566744138515302170e-02,3.518743221508721913e-03,-6.584651232391013943e-03,2.961449485139427268e-02,5.894788727164268494e-02
-4.573460255864150031e-02,-6.007760840658724760e-02,-2.959849080359714529e-02,-2.038816036141102503e-02,-3.182935341875398234e-03,5.894172420569897090e-03,4.559807479381561279e-02
-4.831750485935475126e-02,-2.113910284296585118e-01,-4.811560993590761892e-02,1.128224963619613511e-03,2.274931068259422151e-04,-5.875036930755419065e-04,1.631899178028106689e-01
-6.505776158959572508e-02,-2.938795094374659356e-01,-5.965852797178562705e-02,-5.368497976250009157e-02,-5.117452221122814268e-03,2.782774704358725523e-02,2.543068230152130127e-01
-4.824106069862840740e-02,-2.334234796398789169e-01,-5.018222308736664666e-02,-4.678793254415528763e-02,5.557840029341824632e-03,1.029657183901674586e-02,2.022742778062820435e-01
-6.372095638023245190e-02,-3.162715262204712219e-01,-5.326012736792380686e-02,-4.782795630519869057e-02,3.882155730772532095e-04,5.330748597530712146e-02,2.862187325954437256e-01
-4.547512818209776403e-02,-2.120019974889069680e-01,-4.495218752557070263e-02,2.003955374469738014e-04,5.374999412145151654e-04,-2.635779553182212047e-04,1.667925417423248291e-01
-5.226027864617156793e-02,-1.917941723560572798e-01,-2.744886458863260437e-02,8.739676637319586253e-04,3.212542744740132065e-03,1.052496364947912155e-03,1.535705775022506714e-01
-3.280179186573194128e-02,-2.072794730010023567e-01,-4.690562002142031894e-02,1.019763422459663872e-02,1.541002521016082575e-03,-6.267799050721179974e-04,1.688219606876373291e-01
-4.742029660570407090e-02,-2.196872845775585392e-01,-5.678355379967694322e-02,-1.171460563025291789e-03,-4.804214769926254381e-04,-1.639030394007934873e-03,1.678197681903839111e-01
-4.536443424286488307e-02,-2.104828469580814487e-01,-4.524524818784832203e-02,-1.231268097327270364e-04,6.167075710713956598e-04,2.061791115017008226e-04,1.651820093393325806e-01
-4.381150074379991377e-02,-2.119715611517801190e-01,-4.285352336735111928e-02,-9.078241339826553747e-04,-3.245441622406316433e-04,4.732668366924043979e-04,1.686513423919677734e-01
-4.469322551695020795e-02,-2.130313437023865497e-01,-4.490120056216886923e-02,-4.068721724955388658e-04,-1.147845618562330899e-03,1.884289588539687617e-03,1.682790964841842651e-01
-3.767672078386530288e-02,-2.129730410518710926e-01,-4.118508553601019084e-02,-2.964247855266271365e-04,3.957186479229804835e-03,1.327679237505256413e-04,1.737049221992492676e-01
-4.607306173901352248e-02,-2.143597421363951372e-01,-3.485437241331533487e-02,-3.017700166117172865e-03,-1.506864164832543351e-03,2.432116855192833875e-03,1.743160933256149292e-01
-3.951622073242740812e-02,-2.117590688415824651e-01,-4.040913682261516870e-02,-1.457120401790412364e-04,-5.434369823435513443e-04,-3.838722675827867660e-04,1.718021780252456665e-01
-3.923879661423131104e-02,-2.106798674966187668e-01,-3.925907906964011540e-02,-7.239817010634028117e-04,-1.672072384847584497e-03,-2.937903397739422082e-04,1.714607328176498413e-01
-4.550095343350318844e-02,-1.973225294584701472e-01,-3.157149955886388859e-02,1.403125363964145356e-03,-4.255175230532405595e-03,-1.092936059736998605e-04,1.594329774379730225e-01
-5.176970189615002355e-02,-2.214565194915281698e-01,-5.345154816582119162e-02,1.113579314497590254e-03,4.175399968334549475e-03,-1.323042768505421378e-03,1.690335273742675781e-01
-4.449697505213889848e-02,-2.221276683744647928e-01,-5.923753741615698371e-02,1.104006708169915762e-03,1.527868957597152549e-03,9.604878187753843467e-05,1.707696020603179932e-01
-6.327822492624404771e-02,-3.414001764729322486e-01,-5.676428579618161829e-02,-2.722760487629503900e-04,-8.114145936281111360e-03,-4.792109720541620765e-02,2.937566339969635010e-01
-3.744707965291771412e-02,-2.119032966868725221e-01,-4.325686157395646630e-02,-8.963294579878012917e-04,-1.218540263859424272e-03,-3.315193269462358809e-04,1.716460585594177246e-01
-4.671628203729211171e-02,-2.146647745343623903e-01,-4.837639286298475727e-02,3.580605547956232631e-03,3.655260900057607891e-03,-2.977480541353648338e-04,1.673602461814880371e-01
-4.679159740141811130e-02,-2.872567850241299903e-01,-5.726795320705348191e-02,-2.017260065254534301e-02,-1.741021223575672881e-03,-3.514511954853482417e-02,2.456613481044769287e-01
-5.055255296582940316e-02,-2.883340832070471760e-01,-5.204951870664728530e-02,4.088315742645595718e-02,2.896143770462021442e-04,-4.894508476715778503e-03,2.475333660840988159e-01
-4.338492180545774901e-02,-2.107656561525882433e-01,-4.648653104015422477e-02,8.451496032104482883e-04,-4.271369342382810809e-04,-6.367741000215461659e-05,1.658598333597183228e-01
-4.718507198624054960e-02,-2.053529558426397117e-01,-2.572450938413209376e-02,1.005181177425939565e-03,9.785033025610557784e-04,1.569247536932023759e-03,1.699567586183547974e-01
-4.143146529404268669e-02,-2.070792014108341350e-01,-4.179750795038602446e-02,2.982527039917085357e-02,4.291277037018632542e-03,3.938738292607449343e-02,1.864313632249832153e-01
-3.519282908031358403e-02,-2.112408599105123630e-01,-4.461225886688700848e-02,-8.131888983353413982e-04,2.836863106970207229e-03,-1.291116097506639728e-04,1.716086864471435547e-01
-3.643034757226081000e-02,-2.140905495467190223e-01,-4.398101831814001800e-02,-1.429770283299944180e-03,1.022411928492773098e-03,-7.864127519297077957e-07,1.740344017744064331e-01
-4.157543561579914865e-02,-2.207628390216068714e-01,-4.218297638038635833e-02,1.705678860007130149e-02,5.648981012989615427e-03,3.050123502448370480e-02,1.891008764505386353e-01
-4.575680317876765907e-02,-2.149060732436126608e-01,-4.341456326217062872e-02,-4.682272864317386669e-04,6.943376107843593449e-04,-9.506180506603474157e-04,1.703466027975082397e-01
-4.569517785515737202e-02,-2.142648246686364999e-01,-4.305488793173165019e-02,-1.421469920415877920e-03,5.098430186386408193e-04,-3.895778206562274903e-04,1.699266433715820312e-01
-4.233070049047400057e-02,-1.989338571934304023e-01,-3.824624275786560335e-02,-2.323589730978743283e-03,1.087391914397060726e-03,3.107577335332269153e-02,1.676237583160400391e-01
-5.420476212668953742e-02,-1.731434714413170595e-01,-3.557535464779727069e-02,4.583418980315379890e-04,5.436959151199132964e-03,1.648214659316750343e-03,1.296406239271163940e-01
-4.319397334950211137e-02,-2.192809818765982799e-01,-4.134683165456000398e-02,2.563588991182409391e-02,2.944937781598024485e-03,3.263716542225880701e-02,1.911242306232452393e-01
-4.517897814603374917e-02,-2.230163748032665261e-01,-5.347886473658878398e-02,-2.995246260365517685e-04,-1.780258223126549846e-03,1.411485950703770566e-03,1.738814264535903931e-01
-4.674087334523988058e-02,-2.181974334038807029e-01,-5.138725152058296053e-02,6.566438091342918434e-04,-7.672556043686186260e-04,-4.432585177167641839e-04,1.691920161247253418e-01
-4.633632610459333112e-02,-2.119889655551789875e-01,-3.391971907285229459e-02,6.892950116060005909e-04,1.863247716206763984e-03,4.407808750140377804e-04,1.722330898046493530e-01
-4.675999998839006078e-02,-2.127905621603184139e-01,-5.049077458728360585e-02,-2.116066347547738416e-04,6.349418522655743890e-04,8.965532348657494818e-04,1.642083972692489624e-01
-4.466841587027670785e-02,-2.107947909772542316e-01,-3.240113282497268654e-02,-5.874961351137487084e-04,-5.062651755933221011e-04,3.809221649942668916e-03,1.727185994386672974e-01
-4.522217602266982717e-02,-1.333488110926218106e-01,-5.092450302678522972e-02,-2.206570509379870981e-02,1.791052017170446931e-03,6.136110578333960064e-02,1.416409462690353394e-01
-3.698837128999347967e-02,-2.035256182755173227e-01,-3.628622325796760500e-02,-3.798772265927439530e-03,-5.776047073093807348e-03,3.366820886128056318e-03,1.674200296401977539e-01
-4.385368882438391708e-02,-2.118022202815961486e-01,-4.636817869994536850e-02,4.203965006985369577e-05,4.166627571213600079e-04,-8.639977952035938656e-04,1.667138040065765381e-01
-4.703093526201250485e-02,-2.173689653415047385e-01,-5.372436613395448896e-02,1.006258888393018330e-03,1.730545828038231081e-03,-1.548860589984656826e-03,1.671493947505950928e-01
-5.164791692896710668e-02,-1.748166088455683220e-01,-3.620788606420213135e-02,-4.519269468122854086e-03,-5.841890308492790097e-03,3.321556829712210557e-02,1.441670060157775879e-01
-3.192615748709152351e-02,-7.163494525627243925e-02,-3.553007181112013968e-02,8.963606023935708281e-03,-3.706637704274239227e-03,2.617513610169651742e-02,6.151697784662246704e-02
-4.893995815538834671e-02,-2.112349160503178280e-01,-4.748450237531250812e-02,-9.045402135743734742e-04,4.467084710618245635e-04,5.738331556438008461e-04,1.630399525165557861e-01
-4.757988163757432415e-02,-2.144407290922964726e-01,-4.610224127282806783e-02,2.015746608618042366e-03,-4.675594157319517804e-04,1.821038470777312183e-03,1.676725447177886963e-01
-4.421583673091831340e-02,-2.179756163115124101e-01,-5.288941854367784634e-02,-2.092577179371098682e-03,-2.023266119730913679e-03,7.178396306059967383e-04,1.696688979864120483e-01
-4.846920824228398428e-02,-2.115245334685350032e-01,-5.330955597488401532e-02,-4.999593265372630647e-04,1.733926876335652048e-03,-1.837415649118894851e-05,1.607202291488647461e-01
-5.292539712688199005e-02,-2.526664428383001981e-01,-4.921651759599982023e-02,-1.555727019250343962e-03,-1.303144616900662718e-03,6.163944087682344218e-03,2.019341289997100830e-01
-4.459357259294514236e-02,-2.178793701491630319e-01,-5.050363607329969723e-02,-4.708136847418600487e-03,4.951921241992902033e-03,-2.648681499195244555e-03,1.708797216415405273e-01
-4.463596308512864791e-02,-2.100663049189278042e-01,-4.550397892960799523e-02,-3.402258100497871111e-04,-1.589559713187532243e-04,-1.781816923801372941e-04,1.649996191263198853e-01
-4.628109454615286777e-02,-2.183154031518629024e-01,-5.236550505335809541e-02,-3.023903824801254625e-04,-3.580721265375632744e-04,2.663275997172702154e-04,1.690768152475357056e-01
-6.088541572674767421e-02,-2.473502125000238694e-01,-6.147543838820333090e-02,-3.899467967278074515e-02,-2.422467122855341982e-03,-6.411889345055613032e-02,2.270958125591278076e-01
-4.540795826318718559e-02,-2.165907459154347015e-01,-5.456632895748012718e-02,-2.154244795703330086e-03,6.939244080896877533e-04,-3.169705729094754172e-04,1.668392568826675415e-01
-4.199246211890102221e-02,-2.147528950472405995e-01,-4.437789678819756278e-02,1.256825577825879201e-03,3.250146438526444739e-04,1.531600671095801475e-03,1.716153919696807861e-01
-4.535219656753751438e-02,-2.290854220350019843e-01,-5.303112310122775480e-02,1.454458667311468723e-02,3.526653375748798648e-03,6.823581688803637135e-02,2.169016301631927490e-01
-6.047483515855597846e-02,-3.017776013026012838e-01,-4.979013963290411515e-02,-2.543181064507724770e-02,5.970701030461461611e-04,3.254350168074607308e-02,2.569787502288818359e-01
-4.527883245895859832e-02,-2.201925360513424246e-01,-5.763350872857289642e-02,1.553207398714047331e-05,-1.647007644087904079e-04,1.837913706117354955e-03,1.691054552793502808e-01
-6.767473715070529416e-02,-3.445273855010503317e-01,-4.809569629390032797e-02,-1.392664340303620581e-02,-1.151515492186137857e-03,-2.550387690491764947e-02,2.915277183055877686e-01
-5.151995697062147078e-02,-1.017780950434423598e-01,-4.731996133123714948e-02,2.175857625193609521e-02,2.735834038723954521e-03,2.855117320907631789e-02,8.150383085012435913e-02
-4.920040087946432605e-02,-2.249096090633048439e-01,-5.299514492116147446e-02,-2.266326277777927977e-04,2.077138017234307805e-03,7.451308073867242421e-03,1.743588745594024658e-01
-4.400107435419252366e-02,-2.144387758614463846e-01,-4.231275825284720044e-02,-1.023379411454881276e-03,-2.475682936017649556e-03,4.811170522491660753e-04,1.713529527187347412e-01
-5.112522081090366960e-02,-2.240246852699050994e-01,-4.906081612193739089e-02,6.908219999129907229e-04,1.782637020115635613e-03,-1.226085183309628263e-02,1.752637177705764771e-01
-5.784292999323121381e-02,-1.311912488174714619e-01,-5.581614824853933787e-02,9.431846704792610364e-03,-3.762659955862859146e-03,-3.870325412967032253e-02,1.016657352447509766e-01
-5.986296140814505173e-02,-1.438631059189867389e-01,-4.378261399745907861e-02,-2.370925536715143105e-03,-4.917812455823337980e-03,-1.623140055527428488e-02,9.769926965236663818e-02
-5.267205475446612439e-02,-3.057982012660501181e-01,-4.990851115723660136e-02,2.257402837631811848e-02,4.578758695347961115e-03,3.200020081192542221e-02,2.635217308998107910e-01
-4.494192056578660138e-02,-2.132457063857718937e-01,-4.928015424675996625e-02,1.606921952149903063e-03,-4.174905121967988791e-04,-8.277782948920225188e-04,1.662082076072692871e-01
-4.948420908868213230e-02,-9.254730097646186870e-02,-4.262620824660423580e-02,1.399075690660767611e-02,-4.311051422021806162e-03,-4.811857353313685887e-02,9.892401099205017090e-02
-4.510330943669546566e-02,-1.977540689254917439e-01,-3.930199228814226786e-02,1.666597680933980252e-02,-7.640488467917310768e-03,-1.605614379665263811e-02,1.612553298473358154e-01
-2.735842644780050667e-02,-9.791613382671314481e-02,-2.118340884139686964e-02,6.296036526117094849e-03,3.592699356094105571e-03,-2.883386664711451094e-02,9.002240747213363647e-02
-5.646022705065106839e-02,-1.674012919232500951e-01,-5.711170932350835561e-02,4.730535135905619346e-03,-2.023297185658653997e-04,-6.507729409482895799e-02,1.581407189369201660e-01
-3.512980672056367076e-02,-1.942050190436267199e-01,-3.644751318744922364e-02,7.431971750374761349e-03,7.662871745317901932e-03,5.460206142860982159e-03,1.597759276628494263e-01
-5.558926838715735202e-02,-1.014652906469739047e-01,-4.763608945374259857e-02,-2.643630618225646135e-03,-4.418445749944441628e-03,1.396679329919312332e-02,5.654618516564369202e-02
-6.487536441687130617e-02,-3.161592801215247217e-01,-5.983309152356738880e-02,-1.694946437106861770e-02,-3.240034718500261167e-03,-5.570854976422312532e-02,2.732027471065521240e-01
-5.857821818403041725e-02,-2.113688011207008888e-01,-3.988117103673043118e-02,-4.800086084220221705e-02,-7.234421158498217583e-03,-3.722336068073037185e-02,1.943637579679489136e-01
-5.590613073405227562e-02,-2.201201840256519215e-01,-4.422825879268410532e-02,-3.862320233433921314e-04,6.580183597041181767e-04,-1.176565060605598307e-03,1.703707724809646606e-01
-5.650462274632690740e-02,-2.239459426927593033e-01,-4.671389557490100014e-02,-2.067463781148731923e-03,1.358358211793671624e-03,1.111122483366758489e-03,1.726090610027313232e-01
-3.435547171783621956e-02,-2.129480843829356096e-01,-4.784633503932094606e-02,1.247351191485626025e-04,-1.327178017413172288e-03,-1.109979975521602387e-03,1.722700893878936768e-01
-5.911857372576895253e-02,-2.612371140096260147e-01,-4.965175166668464590e-02,-5.968097097765014732e-04,2.120219253417883476e-03,-3.117657352466810753e-03,2.071199119091033936e-01
-5.833269365706995890e-02,-3.556620255557937371e-01,-5.923203813410374274e-02,-1.864597146600854502e-02,4.268591733869807336e-03,-2.780150443442003932e-02,3.025798797607421875e-01
-4.695408039434475350e-02,-2.140142168336252593e-01,-4.443492507378132839e-02,1.300026170602380012e-03,6.113100111171282684e-04,1.373203894369252193e-03,1.683690398931503296e-01
-5.498089016860865236e-02,-2.230173394292757072e-01,-4.596969878771824808e-02,2.233694077602365984e-03,-4.936213180216982455e-05,-2.769729919018149196e-04,1.727624535560607910e-01
-3.741882451761679995e-02,-1.380685859276318261e-01,-4.814976905183174227e-02,-4.342003437425151491e-02,3.003901997370296930e-04,-7.991588026530431488e-03,1.225284710526466370e-01
-5.747194079472038586e-02,-3.418993810932747790e-01,-4.787234914864253732e-02,-1.167796687611907455e-02,3.850767489104231890e-04,-2.583386079485555306e-02,2.934846580028533936e-01
-6.206152805896572588e-02,-2.216041749107566239e-01,-4.610688544369506703e-02,1.667977531403280712e-03,-1.391813324652595597e-03,-1.802152000670759029e-03,1.681599020957946777e-01
-5.158461476735977380e-02,-2.142498185957480983e-01,-4.548537359682543191e-02,2.824236822105988254e-03,-1.840251353800917162e-03,9.841965824193524997e-05,1.659018397331237793e-01
-4.994565725184384880e-02,-2.181888387992026446e-01,-4.986052375452154628e-02,-2.018156397742023461e-03,-1.719731838751638840e-03,1.101844294475919496e-04,1.683485209941864014e-01
-3.535471403685960801e-02,-1.796316014777589176e-01,-5.488569171182426654e-02,3.460214688881117773e-02,6.350093506063038927e-03,1.149383765552445744e-02,1.499620974063873291e-01
-5.687693985939928226e-02,-2.157616442654387567e-01,-4.268341541804592659e-02,-4.441861882966447210e-04,1.193917104058794636e-03,-6.946716026847146383e-04,1.664549708366394043e-01
-5.589711602370539545e-02,-2.227211731520546967e-01,-4.360369276626394064e-02,1.583331085127861896e-03,9.772491109167457529e-04,-1.095767818348473716e-03,1.733384579420089722e-01
-5.027995693543865080e-02,-2.248077372120775019e-01,-4.319779817053449877e-02,-1.109386997336327813e-02,5.792807890650521728e-04,-1.429174607734205477e-03,1.792274862527847290e-01
-5.448188887177468631e-02,-2.283034036704624792e-01,-4.422987384220879170e-02,-3.851538548646883837e-03,2.565143107029452772e-03,-5.019104342243935809e-04,1.793489456176757812e-01
-5.844662180868594181e-02,-2.232195666155491753e-01,-4.689382148637412373e-02,2.422349991992235607e-03,2.577785234558217222e-04,-1.229251454029337129e-03,1.709079146385192871e-01
-6.227185902046800114e-02,-2.977692341633110806e-01,-5.934882939460449369e-02,-5.332006001263132206e-02,-4.049934881573579587e-03,-4.948049181168750338e-02,2.684756517410278320e-01
-3.776687193129674852e-02,-2.132926511377100098e-01,-4.264705132070237964e-02,-4.053718526758738616e-03,4.006977898929373755e-03,-2.862571528087151651e-03,1.734893918037414551e-01
-3.357751289168849768e-02,-2.091376461803349796e-01,-4.249800037144229464e-02,-1.568426019815323362e-03,-3.383228933561086785e-03,4.803753562235149268e-05,1.713959723711013794e-01
-4.124787922576481081e-02,-2.138829046709728732e-01,-4.644991515159889450e-02,-1.593938059121999653e-03,3.686067536057949560e-04,9.070388272193753406e-04,1.701245307922363281e-01
-3.060283242013504823e-02,-2.130468815922996195e-01,-4.853164877329827626e-02,-8.236038720936617041e-03,-2.466923294309088157e-03,-1.263127740953664917e-03,1.748222261667251587e-01
-4.968180535850093282e-02,-2.107615704597307071e-01,-4.656965924170281684e-02,2.897244052172205566e-04,-7.273743716889070074e-04,6.188039715922312748e-04,1.626673489809036255e-01
-3.257493240119486988e-02,-2.081876142908627991e-01,-3.889593169593177219e-02,-7.009879547358692227e-06,1.248680102685000536e-03,7.690514413082957671e-04,1.725577414035797119e-01
-3.210326447009572565e-02,-2.074783590905482922e-01,-3.868754589914542852e-02,3.557883819638789856e-04,1.165086768095750704e-03,6.632106617495398372e-04,1.721941679716110229e-01
-2.816413871558945403e-02,-2.046646287298825029e-01,-4.024614820565636242e-02,5.192056232942677749e-04,2.333662301184853335e-03,-1.516606764714177494e-04,1.708307117223739624e-01
-3.628267861476962286e-02,-2.170231224966447936e-01,-4.630230719766823683e-02,-2.024771040769871282e-03,2.008295162961675623e-03,-1.244839184061061503e-04,1.760141849517822266e-01
-3.945676778264365497e-02,-1.119872583322956139e-01,-3.569046686282704994e-02,-4.519901794586206334e-02,-1.922714006717428543e-03,-2.537944965787185952e-02,1.167061328887939453e-01
-4.682594317083793589e-02,-2.092777129163069794e-01,-2.900533992597331689e-02,-7.763149785435228580e-04,-1.483743624035013158e-03,-1.408203149528315960e-03,1.720973551273345947e-01
-6.254694401537004567e-02,-2.247343413947657798e-01,-5.816605914211277900e-02,-5.563351277915094817e-02,-2.684482413041877364e-03,-3.762909491672157547e-02,2.014676034450531006e-01
-3.191833038512654347e-02,-2.057187772357026434e-01,-4.129918914455093376e-02,4.415801113523691764e-04,6.777954878465158135e-04,-1.595549845387273565e-04,1.693110615015029907e-01
-4.619767215193369692e-02,-2.152202189522411935e-01,-4.602845667955011294e-02,2.158787466134444531e-03,2.698332436839713134e-05,1.052020101161355199e-03,1.691583693027496338e-01
-4.169386260860709348e-02,-2.133248026601717584e-01,-4.321233545480938215e-02,-5.940525677213734628e-04,1.009445032839660769e-03,-1.127890484001586955e-03,1.708999723196029663e-01
-4.089467187430276263e-02,-2.133729076886972664e-01,-4.449121088539572527e-02,-1.593365399802140195e-03,9.822133520984137757e-05,1.687345179364106934e-03,1.707557886838912964e-01
-2.843341859611531186e-02,-2.086508012111406019e-01,-4.833595501727915023e-02,-5.736351638277109314e-08,-1.259692035924589882e-03,-1.632781170170435718e-03,1.711735725402832031e-01
-6.284286434001934429e-02,-3.395068942095416098e-01,-4.998069753804763871e-02,-4.448246734905129951e-02,2.426142052301776247e-03,-1.497040528188448710e-02,2.947761714458465576e-01
-4.346922907187948659e-02,-2.139192203497463640e-01,-4.441619466311941267e-02,-4.929074322406088674e-04,2.767367405117075914e-04,1.722455275807030549e-03,1.700074821710586548e-01
-4.831658049604642402e-02,-2.167400657981374268e-01,-4.617316488536885033e-02,1.709807665931626719e-03,-6.682177129978819023e-04,-7.865191888664286365e-04,1.695406436920166016e-01
-5.281518333548421151e-02,-2.226027870596303249e-01,-4.510917786599851625e-02,3.518914629312076565e-03,-1.563777045736336078e-03,2.650158896753630235e-03,1.739573329687118530e-01
-6.112191970612194936e-02,-3.546961700352692093e-01,-6.511831252450939189e-02,-4.092571166103255165e-02,4.222172864175870351e-03,-4.230054754764418778e-02,3.089899718761444092e-01
-4.140505464410214331e-02,-2.025146578497741823e-01,-4.142820007310567959e-02,2.069668326202574865e-04,6.004437630686178251e-03,1.517955599540902903e-04,1.614339947700500488e-01
-4.316931376172691848e-02,-2.268729838375566632e-01,-4.143080839917044622e-02,6.753082208367724645e-03,4.150379060828332002e-03,4.311403660262272050e-03,1.852395385503768921e-01
-3.953159358364231879e-02,-1.783663873102132869e-01,-3.974601755653016377e-02,-6.223715175423972547e-03,6.962053379913084664e-03,-6.740324041545836010e-03,1.401545107364654541e-01
-5.991884436766511945e-02,-2.936565142414704899e-01,-5.983436526224289453e-02,-3.129639880417076775e-02,1.084561367903207844e-03,-4.908986593517715435e-02,2.546063959598541260e-01
-5.511463644365002107e-02,-2.130424502130096598e-01,-4.547007569471626237e-02,-6.968347445859871762e-04,-1.518369964654852407e-03,-8.453843256591579746e-04,1.629965454339981079e-01
-4.483799079802498755e-02,-1.484957122714391231e-01,-5.736167838558670073e-02,1.376816581314594225e-03,-4.629541261880258836e-03,-3.542638682270269224e-03,9.854554384946823120e-02
-4.082268824398668783e-02,-2.074186690667598199e-01,-4.584661192795087825e-02,9.563467884915518441e-03,2.816521312245652293e-03,9.487975574994957084e-04,1.650556623935699463e-01
-4.775751755368481261e-02,-2.236294708140383058e-01,-4.559594962204188001e-02,6.918690165915558979e-03,1.404637427269436441e-03,1.271096880636974139e-03,1.773982644081115723e-01
-4.030784553901161499e-02,-2.101255580694508240e-01,-4.009511397149852219e-02,1.263124704472321641e-03,3.741974344554492484e-03,5.363037748884447696e-04,1.700643450021743774e-01
-4.038717241361843013e-02,-2.149513410067273589e-01,-4.054743166850206110e-02,1.437187969408287944e-04,2.267632084242548161e-03,1.600389554015883159e-04,1.745286881923675537e-01
-5.099979467810624584e-02,-2.208071982744844730e-01,-4.650495921878862460e-02,6.845568585178357646e-02,5.999774428758425718e-05,4.197086282269349433e-02,2.212718427181243896e-01
-2.764792371462339304e-02,-2.157005313108181221e-01,-4.951491721808970459e-02,3.098593005981058884e-02,-6.979476021901498926e-03,-1.499117606513420548e-02,1.882299929857254028e-01
-4.095371543375909279e-02,-2.158530725768626757e-01,-3.926711092061906799e-02,2.611099136875895464e-04,3.404143603871967396e-04,4.188170019886175617e-05,1.757503151893615723e-01
-5.255614466713526278e-02,-1.499359136208590071e-01,-5.604454497297357146e-02,-1.860845406715471578e-02,-7.887035931744605655e-03,-5.290620303227327320e-02,1.370325833559036255e-01
-4.273691340228515101e-02,-1.412328368171389126e-01,-5.426600538378886784e-02,2.297589924351203274e-03,-3.737674749757393181e-03,6.878742503884397938e-04,9.358400106430053711e-02
-4.859369865960070506e-02,-1.280703216059466132e-01,-4.179461503971690362e-02,1.639632420752171194e-02,7.644735770755996945e-03,3.923247533955706579e-02,1.118147373199462891e-01
-4.546990959993753301e-02,-2.136963319723370336e-01,-3.607143427718455253e-02,3.150509208396532141e-04,1.329470440153057579e-03,-6.076275596635582425e-04,1.731364727020263672e-01
-4.467468874278757163e-02,-2.127671261892278287e-01,-3.216238924366719709e-02,6.203402788414475854e-04,2.864079846218857851e-03,-1.075972363202475166e-03,1.747686564922332764e-01
-4.413864664850344205e-02,-2.117224887661871002e-01,-4.210440448320389856e-02,-5.609074029562350315e-04,-4.871292564598203850e-04,8.451185585103692278e-05,1.686151474714279175e-01
-4.800717476622515939e-02,-1.856556417923707347e-01,-5.426354510348729843e-02,1.679674110485305377e-02,1.628182631217154654e-03,-5.320237864940578071e-02,1.657434403896331787e-01
-4.423151170102910396e-02,-2.141039073519693803e-01,-4.466942246264375693e-02,1.569866849908618149e-03,4.987291457807763954e-04,1.403314587905389642e-03,1.696952581405639648e-01
-4.722512400062080229e-02,-2.109827218921050407e-01,-2.952478965843774450e-02,-8.914663572861342101e-04,-1.013966180368628279e-03,-1.979983577065531040e-03,1.733368039131164551e-01
-5.378390154667887779e-02,-1.144657731441461324e-01,-5.423329501281440312e-02,2.194289365006327121e-03,3.436887343728812789e-04,2.446343676192368286e-03,6.072869524359703064e-02
-4.022647819949032311e-02,-4.201227524296302640e-02,-3.114448433512189210e-02,-1.328137875092276661e-02,-7.532769417926374854e-03,-1.521943044612177227e-02,3.868069872260093689e-02
-4.345528982792980915e-02,-2.137277695515426568e-01,-3.685844847891635995e-02,3.868432471041437291e-04,6.051236507703506391e-04,-6.721640328101131847e-04,1.736732572317123413e-01
-4.274170277105079213e-02,-2.148109026432805657e-01,-3.693062482871267704e-02,2.128786691052273101e-04,1.335745653836602209e-03,-4.494972319239731940e-07,1.750627756118774414e-01
-4.134690972947191456e-02,-1.587405244254729841e-01,-4.225946195093140123e-02,-3.852262233261841140e-02,-1.337371568196589131e-03,-4.282946215251583894e-02,1.537380814552307129e-01
-4.382596954878116569e-02,-9.222733240511146735e-02,-4.136884346605316370e-02,-3.564521534625568477e-02,-5.234413350530786949e-03,-2.416166187789854647e-02,9.007195383310317993e-02
-5.517233525726847332e-02,-8.843216125206898592e-02,-5.015958323678257336e-02,-1.865738230907370513e-03,-1.639286881458003808e-03,-1.330571965517995774e-02,4.298486188054084778e-02
-5.802675393791156822e-02,-1.069976359973681124e-01,-5.941304107346490060e-02,2.147608368165646042e-03,-1.683964869210514146e-03,1.310351092931342923e-03,4.857650026679039001e-02
-5.309588104104540074e-02,-1.414245553097682184e-01,-3.430076426884050983e-02,-6.227292014580375693e-03,-4.251828026104747735e-03,1.480261582397827957e-02,1.031662896275520325e-01
-3.188913879988900663e-02,-8.163825729801163500e-02,-3.857016887152165535e-02,-1.619725093033854563e-02,1.100697840034161462e-03,3.026150963779586020e-02,7.566504925489425659e-02
-5.581986390241314849e-02,-2.039044840840584516e-01,-4.960822585796968026e-02,-2.838201504207481241e-02,7.788944472552669206e-04,6.622662218764677200e-02,1.961219459772109985e-01
-4.207540280541831323e-02,-7.730333017468227208e-02,-3.895642397943199775e-02,1.793882764776053365e-02,3.189411722011973715e-03,4.193244473598846389e-02,8.735857903957366943e-02
-4.681991015683242136e-02,-2.053263753645299117e-01,-3.430013109664165061e-02,-1.039847377891871261e-02,-9.433095524071857807e-03,1.131281841913850394e-02,1.680499464273452759e-01
-4.003869366283784037e-02,-8.788348801363993212e-02,-4.550716514439547000e-02,4.180880374284995371e-02,1.477776029103268062e-03,2.426683499742926520e-02,9.526021033525466919e-02
-5.002981642322344713e-02,-1.204829265280657757e-01,-4.177972693288432154e-02,-5.385224869818840132e-02,-4.120035248068714198e-03,-8.596929747664400993e-04,1.198594346642494202e-01
-3.843000080001237467e-02,-2.017537469567388664e-01,-3.303090633373569757e-02,1.456051794864493976e-03,4.372676658710004764e-03,2.720925097200761235e-03,1.663476079702377319e-01
-2.948579791712199749e-02,-2.604523712311351824e-02,-2.659001655001292513e-02,-2.570607959234899121e-04,-5.304304868981735664e-03,-2.009897274744565712e-03,1.034331414848566055e-02
-3.857922141656260073e-02,-1.848358452400905849e-01,-4.944931130030661565e-02,-2.097540816644683902e-03,-6.137777079783045264e-03,-5.899080644964842073e-04,1.415860056877136230e-01
-5.698139504265099797e-02,-1.266551759450417758e-01,-5.859146064651616498e-02,-1.906480102971797042e-02,-1.531578677988022080e-03,-1.651123105655784296e-02,8.160973340272903442e-02
-5.179258889370795538e-02,-1.439802887006106369e-01,-5.393935090680999911e-02,-5.949137420544429317e-04,-6.691936900496813292e-03,1.478869049211929080e-03,9.190889447927474976e-02
-5.329147368734682422e-02,-1.747142836474630534e-01,-2.529651260636262000e-02,-2.823016183473633228e-03,1.239147723217161627e-04,2.359511701233430597e-02,1.435987055301666260e-01
-4.276360738849353804e-02,-1.805206761668918247e-01,-2.873270713323063108e-02,-6.767761117114241658e-03,-7.221530689920818702e-03,1.646824940039575552e-02,1.490442901849746704e-01
-4.542363549279326840e-02,-6.510799064513041190e-02,-3.879363877511649017e-02,-4.122001302004922943e-03,-1.747246225817070380e-03,5.207768207073380784e-02,9.358591586351394653e-02
-4.225835877815690977e-02,-9.002780467633622608e-02,-3.707454658654735918e-02,1.777776081094566488e-02,7.227728459532064631e-04,4.003445275209736864e-02,9.118336439132690430e-02
-4.407518107954966347e-02,-9.744498286449213009e-02,-3.632320512075254415e-02,1.355392391437502085e-02,1.029746104180877904e-03,5.251051839306900004e-02,1.102203354239463806e-01
-5.167329241683950997e-02,-2.146331516200383205e-01,-4.646175451428674608e-02,2.716332786891775819e-03,-1.973609904563326453e-03,7.396014301670944318e-04,1.657341569662094116e-01
-3.624116590682950612e-02,-5.781020655343506454e-02,-3.250876827930190144e-02,-2.126739909067039414e-02,-5.026407865549355376e-03,3.354970386783785643e-03,4.501252248883247375e-02
-4.053484913420617175e-02,-1.738637304939259498e-01,-4.216387886518337125e-02,-3.497949788913132241e-02,-4.621782197773297365e-03,3.198211737756553874e-02,1.560941785573959351e-01
-3.682638988610186653e-02,-7.342928909624010791e-02,-3.298408437907955626e-02,-1.334845666326505038e-02,-8.647909386960986539e-04,2.733890397073281478e-02,6.537743657827377319e-02
-3.926157256212087915e-02,-2.092019984672271460e-01,-3.742230728472244888e-02,-1.099194869187744951e-03,-3.322441332125408535e-03,6.544454904458847774e-04,1.709787249565124512e-01
-4.682605963129254228e-02,-2.122201667021693106e-01,-4.837668414376890269e-02,8.631711339900807289e-05,-1.153565124333477167e-03,1.512445526124141931e-03,1.646573096513748169e-01
-4.486394888300093697e-02,-2.022437169613172103e-01,-2.879831221281324571e-02,-1.810488570666222465e-03,-2.267411233363072782e-03,1.274633956085577087e-04,1.660729050636291504e-01
-5.899670677251992595e-02,-2.296364979219532310e-01,-4.584722376395618249e-02,-4.959759842738680619e-02,-1.026199982139979362e-03,-3.299836098643250948e-02,2.053880989551544189e-01
-4.626157038023959167e-02,-2.164313790103692681e-01,-5.356562864564019116e-02,1.391031279219345817e-03,-8.287050887458702461e-04,1.640956577242442703e-03,1.666857153177261353e-01
-6.214137368550197438e-02,-3.532923086151394942e-01,-4.270618811826951133e-02,-1.950720553559390918e-02,9.730368186746463435e-03,-1.505938042102882013e-02,3.048132956027984619e-01
-6.102487632510597559e-02,-3.537549700959568000e-01,-5.384068369106667640e-02,-2.437010187984576040e-02,7.281071817490626479e-03,-2.039477886319374100e-02,3.017186522483825684e-01
-3.506382740235092221e-02,-2.105269429510139567e-01,-4.727470668559663469e-02,-1.274253498999889083e-03,2.977167644671616185e-04,5.968090212953496097e-04,1.697057932615280151e-01
-4.544012138535594852e-02,-2.092538786783959270e-01,-3.125701300574693087e-02,-5.970962471442782180e-04,-9.489262375940733232e-04,-8.773765202335612775e-05,1.713571995496749878e-01
-5.140791527034772879e-02,-2.388390373800411415e-01,-4.817617610545625595e-02,6.712105706100039877e-03,-2.927874231114799622e-03,7.813871368713892762e-03,1.899753659963607788e-01
-5.556432878883006687e-02,-2.407793330718388525e-01,-6.114707092303498653e-02,2.097932701900212527e-02,3.088391880913387167e-04,-6.527075145111299603e-02,2.177228778600692749e-01
-3.708139076318753974e-02,-1.669601282312456747e-01,-4.804473450861219269e-02,9.917298970457101570e-03,-8.701440120366867037e-03,-9.469648850882972368e-03,1.278905868530273438e-01
-3.992645319691636580e-02,-1.974727772727016550e-01,-3.780271844559155575e-02,2.962831460730141683e-02,4.936471805034531660e-03,3.498911372119845042e-02,1.775929927825927734e-01
-5.663574620063684811e-02,-2.207618613074370795e-01,-4.614649087264968697e-02,1.140742854173796509e-03,9.503028694326486883e-04,-5.622819694166750594e-04,1.696364581584930420e-01
-3.272806877781595652e-02,-1.870497501614767355e-01,-5.726912380271202002e-02,1.077455195658569460e-02,-3.482556519240563239e-03,-3.789871871191063078e-03,1.451136618852615356e-01
-3.590934860581442706e-02,-1.977521430637960431e-01,-4.117273747253046706e-02,2.708473541358872097e-03,-6.142163690528253464e-03,-3.483893202026180566e-04,1.597012877464294434e-01
-4.897317538865227082e-02,-2.119338495159280578e-01,-2.981774090858545223e-02,-8.949762328720665917e-04,-5.728978662794827724e-04,-1.907745970446403762e-03,1.733753234148025513e-01
-5.563803819382757976e-02,-8.026220100702277649e-02,-5.618733210040081222e-02,-1.097969846461853589e-03,-4.177452574872338870e-03,4.855533987557571728e-03,2.682953141629695892e-02
-3.068387947749759426e-02,-1.672847562910279307e-01,-5.357399616200128611e-02,3.894941081662688098e-02,2.242767852975146789e-03,1.139570138230264380e-03,1.436213850975036621e-01
-2.395669881760408015e-02,-1.914937489773813617e-01,-4.712145085922916921e-02,9.030554010338365245e-03,-1.449741940365660607e-03,-2.596435281163909448e-04,1.580363065004348755e-01
-4.371677175278745886e-02,-1.279872338927960929e-01,-3.358770834153945728e-02,5.519847815334777419e-02,-5.503292257928171782e-04,1.447700510261125395e-02,1.335214078426361084e-01
-4.570538677945927553e-02,-1.877017478443715470e-01,-2.841614955024081984e-02,6.399418277513767642e-03,-6.321621636277420866e-03,-1.305485883278979103e-02,1.538535952568054199e-01
-3.177209732082832833e-02,-7.494577259185813967e-02,-3.202002101072000395e-02,2.203012026306773452e-02,-4.433302409458062150e-03,7.904324031350239144e-03,5.962968990206718445e-02
-4.535095278628972770e-02,-1.210715090834030006e-01,-5.399222714158431052e-02,9.454895893279760544e-03,1.921292603730823372e-03,1.829449581564947811e-03,7.377839833498001099e-02
-4.582113520616776237e-02,-1.406115172751429276e-01,-4.335373574982147316e-02,8.461181119600719863e-03,6.975406431786334953e-03,6.793610004228184916e-03,9.861233830451965332e-02
-5.700012497839593989e-02,-2.345960296620343555e-01,-4.887862356924672913e-02,7.149542981122716800e-02,1.378145263801428076e-04,3.730426908024196686e-02,2.292559295892715454e-01
-4.692417824867119169e-02,-2.181165540539942438e-01,-5.067154371818632930e-02,8.830406928194317910e-04,-2.028050675286495984e-03,1.737924112737243435e-03,1.694198697805404663e-01
-4.928884717531638315e-02,-1.887639188195565365e-01,-4.045944018319126007e-02,1.298577561018058983e-02,-8.924384130026372097e-03,-2.471687216872716503e-02,1.527754366397857666e-01
-6.335241344280807818e-02,-3.167861407962394571e-01,-6.421752912323075435e-02,2.961627407905369908e-02,-2.918807431902932514e-03,-5.478042310032857354e-02,2.750813961029052734e-01
-4.646413141354672344e-02,-2.171014943415902065e-01,-5.342215443871777686e-02,9.844367344040531875e-04,2.716824987721631109e-03,-1.490679959553851269e-03,1.673617064952850342e-01
-2.973666064318776503e-02,-2.033399375811824061e-01,-4.642016002062040320e-02,4.875519653299826379e-04,-1.883007912211593715e-03,-1.321604614518939302e-03,1.659419089555740356e-01
-4.895453211852909825e-02,-2.169584122548988692e-01,-5.341945457595380364e-02,-2.085211411302812998e-03,3.333686635423485731e-03,1.896043590945274953e-03,1.659888029098510742e-01
-3.641084379719795872e-02,-2.063033912186812147e-01,-4.464844252730801322e-02,2.999473413857237005e-03,-5.978827723745409016e-03,-4.155039272516303922e-03,1.664867848157882690e-01
-4.468541755610708210e-02,-1.802966302692771694e-01,-3.046219593459895819e-02,-7.711020444545132763e-04,-5.182046901692113385e-03,-1.890218664922663216e-02,1.472268700599670410e-01
-4.863716544400089464e-02,-2.059503730061794102e-01,-2.630466361566165256e-02,-4.258663565097240366e-04,-5.309652021182367483e-04,3.061602148296655411e-04,1.695908457040786743e-01
-5.378632052738954727e-02,-1.871580426695842458e-01,-3.907261625745078043e-02,-9.064319465955781490e-04,-6.881474162036356826e-03,-2.937620303387072224e-02,1.506662368774414062e-01
-5.068667907101030712e-02,-2.438857955476856632e-01,-5.263143817472573649e-02,-1.404376052009371351e-03,4.350932999772101975e-03,2.703690831780116485e-03,1.924541294574737549e-01
-3.631339284681441015e-02,-9.539820297771210711e-02,-3.953031613789783488e-02,3.530868421789631895e-02,9.089117710105235320e-04,-2.242666062026175272e-02,9.253510087728500366e-02
-2.744568449258459608e-02,-2.043239091809166408e-01,-4.523776899945880503e-02,1.341531253183532706e-03,-1.498096801238798809e-03,-2.449687605021070008e-03,1.687766760587692261e-01
-4.887672249308627065e-02,-2.133907272887828332e-01,-4.425519872351356410e-02,7.361630788856465477e-03,-9.176427014427984653e-04,-3.682118975990856125e-03,1.674882173538208008e-01
-3.596422962369201504e-02,-5.652488018632201988e-02,-4.847931201112042759e-02,-1.359331896868548432e-02,-5.160886362553010129e-03,-6.020640825297580989e-02,1.087691262364387512e-01
-3.415684242940607990e-02,-7.418847001697591315e-02,-3.703439344866346628e-02,4.081168844861132912e-03,-1.009245108746007592e-04,-1.504301625063520290e-02,4.716454073786735535e-02
-4.521987150773540409e-02,-2.427176313419037723e-01,-4.662009231341374127e-02,-2.507178876218726579e-03,-3.388124170731498120e-03,-9.188806909173691945e-03,1.975788027048110962e-01
-4.849115177809669441e-02,-7.360943720120048661e-02,-5.382754637316843060e-02,-4.528800683631367154e-03,-4.934850988608560640e-03,-6.116795800424263546e-02,1.090160980820655823e-01
-4.983866599589129032e-02,-1.137660501702206506e-01,-4.983448597999848295e-02,-3.636547080023525003e-02,-1.382553759941718835e-02,-4.426787447666734321e-02,1.204437240958213806e-01
-5.359915166068695419e-02,-1.580342292357629352e-01,-5.127234570635771926e-02,-5.091473827502849409e-02,-6.823786936343238275e-03,-2.011948817370793480e-02,1.424292922019958496e-01
-3.302708776434899740e-02,-4.619728188618571485e-02,-2.509194738072841047e-02,1.001970695742475815e-03,-8.183902260636871954e-04,-1.002434788042144698e-02,2.544428408145904541e-02
-4.559505853591756808e-02,-1.447671939170458999e-01,-3.721375053217683415e-02,8.971083978511767629e-03,7.573621027184202804e-03,4.974893736740284428e-03,1.059448942542076111e-01
-3.657257412340556707e-02,-5.636627222697662698e-02,-2.681343121462689133e-02,-2.313006565220644684e-02,-5.239743901725736445e-03,6.793476390153606152e-03,5.006015673279762268e-02
-4.914502954703795640e-02,-2.310165296837265736e-01,-4.206271305643927150e-02,-2.948689176882158744e-02,-1.035518490397476996e-02,5.438229208355805852e-03,1.934794932603836060e-01
-4.277245542429190112e-02,-2.041840863143562779e-01,-3.262578594399680870e-02,-3.605998382186334679e-04,-3.541204746012099371e-03,7.597643226578427306e-04,1.668358594179153442e-01
-4.538211814136556416e-02,-2.121268232763625916e-01,-4.353709740273212919e-02,-7.204998206899605306e-04,-3.195161393298011636e-04,-9.896451583352424211e-04,1.676891446113586426e-01
-4.333587403364524970e-02,-2.061267916915422715e-01,-3.365634895704763818e-02,7.774874627412261879e-05,-6.239956508918655977e-04,1.103533267011928051e-03,1.678545624017715454e-01
-3.883110579618008484e-02,-2.068835465088357251e-01,-4.543916939730565513e-02,1.513131687205321969e-03,-3.041525524898876860e-04,-1.856459157067044620e-04,1.648697555065155029e-01
-5.294496178731012553e-02,-2.224428115268745620e-01,-4.695311876410470514e-02,-1.563913581862426188e-03,3.698294385415493331e-03,-4.789678897579087782e-03,1.729110181331634521e-01
-4.740468951187117724e-02,-2.187607838657179560e-01,-4.609898675868391582e-02,1.655650808269409566e-04,1.242095817872245324e-04,-6.156640090619169402e-04,1.720163375139236450e-01
-2.475031532333640816e-02,-1.948354586618294415e-01,-4.975195809180295303e-02,3.713255995751775246e-03,1.845113789367718114e-03,1.003615784173084993e-04,1.592269986867904663e-01
-5.271395572620393016e-02,-2.146795216173927323e-01,-4.720052683771727015e-02,-3.270052219665493115e-03,1.968428770179754539e-03,-3.707424506292654248e-04,1.649252623319625854e-01
-5.915832175572199869e-02,-3.291538561553770670e-01,-6.323536324209283466e-02,1.561331032336535146e-03,-4.080643413252935461e-03,-2.553708885252021360e-02,2.717114686965942383e-01
-4.671468722591282097e-02,-3.265678758048464747e-01,-6.386021206465486433e-02,2.981110308243403381e-03,-8.345161703701244656e-04,-6.381332153215985015e-02,2.933576703071594238e-01
-2.906986136759295847e-02,-1.977398242967930431e-01,-4.137447577152986861e-02,5.230591112781637908e-03,3.795220403024373180e-03,1.348102860133231677e-03,1.632675081491470337e-01
-4.650139636951081124e-02,-2.156062519568223701e-01,-4.747596786249001777e-02,3.456014744068268679e-03,3.405409659733282519e-04,-1.706540790571637331e-03,1.687528192996978760e-01
-4.639212196367257374e-02,-2.161438957206092693e-01,-4.333683630913352791e-02,3.535063744762933363e-03,-3.497304749918135960e-03,-2.295455881667428800e-03,1.715623289346694946e-01
-2.797479027418940667e-02,-2.226029693821299782e-01,-4.872639446638576954e-02,1.128157637562276008e-02,2.410981451557236456e-03,-2.198344307478191859e-02,1.900552213191986084e-01
-3.260583274700274564e-02,-1.989552576165028730e-01,-4.709328193577697053e-02,4.051744117810553159e-02,4.685728418836878164e-04,-6.999348678033481645e-03,1.747703105211257935e-01
-4.897777879655487027e-02,-2.208284875673668934e-01,-4.620498737822053420e-02,7.767177499100928750e-02,-6.105867368619096900e-04,3.598589280788615230e-02,2.280386984348297119e-01
-3.110531566760203065e-02,-2.064642650551194447e-01,-4.311485361722142140e-02,1.977383968963507613e-03,3.354896724939506868e-03,8.216978450751788107e-04,1.698132306337356567e-01
-2.464970792367096597e-02,-1.989602149387842411e-01,-4.752247817737188101e-02,1.349993675004234001e-03,9.264143843337243212e-04,8.394281689036263558e-04,1.641051769256591797e-01
-3.046276641434332577e-02,-2.020458331313734757e-01,-4.359873911842958999e-02,1.725072887632283017e-03,3.272931136683321536e-03,6.290849537022919673e-04,1.655344218015670776e-01
-2.897525153050362068e-02,-2.025113385952866385e-01,-4.586728995610427767e-02,-3.497647282920052239e-06,2.354749495330508546e-03,-3.185655595127648515e-05,1.657871305942535400e-01
-4.798974814324574734e-02,-2.189216340941871897e-01,-4.613737037765296145e-02,2.357804387511366982e-03,-1.531028776901038218e-04,3.543057861337454658e-04,1.719153672456741333e-01
-2.551556605274113432e-02,-2.018887868582152079e-01,-4.813575844067116694e-02,5.534030607235002844e-04,9.069281485752909468e-04,7.971622584246970287e-04,1.662374287843704224e-01
-6.065974250388514455e-02,-2.210107035398976849e-01,-4.474300963761335126e-02,1.053192229834606745e-03,1.296531514750219518e-03,-1.908235384803612031e-03,1.689299643039703369e-01
-6.109571971387613154e-02,-3.330798935283486584e-01,-6.489699771773360659e-02,-2.978931924273195420e-02,2.337287271556010709e-03,-2.067317336672533368e-02,2.773385941982269287e-01
-4.693432161605944064e-02,-2.212179044346868073e-01,-4.508835686852963320e-02,2.190936342620943000e-03,9.282888075385972845e-04,-1.495737773950269129e-03,1.752814650535583496e-01
-4.116331454475868207e-02,-2.092503352376985648e-01,-3.407589493125949553e-02,-7.104471952949048237e-04,-1.148790788619493287e-03,4.063541551271433825e-04,1.717578172683715820e-01
-4.420082796813096238e-02,-1.431634693562766625e-01,-4.993741547623678501e-02,-1.164654902582812693e-02,4.980358203411194840e-03,6.473960604664003027e-02,1.493780165910720825e-01
-2.546092251227295711e-02,-2.015401610873359672e-01,-4.493109480983452364e-02,-3.230597813884054752e-04,8.205849761814276461e-04,-5.837278960047853036e-06,1.672035455703735352e-01
-4.737992687949311998e-02,-2.056323277039257269e-01,-2.722552409193294831e-02,-1.050089142866948884e-03,-4.958568895852594367e-04,1.988832232515652838e-03,1.692791134119033813e-01
-3.716985449177907103e-02,-2.075089272497510628e-01,-3.701639381708828058e-02,1.396471413056755507e-03,2.597052576890721692e-03,9.057867107431375256e-04,1.704995930194854736e-01
-5.977339893096939721e-02,-2.158299214356922957e-01,-5.257550548408568974e-02,-6.281855542437436712e-02,1.037736011396046040e-04,5.761928320544258686e-02,2.175481915473937988e-01
-4.088320818586541061e-02,-2.120931672956448411e-01,-4.122180037052759760e-02,-4.633865026501283188e-04,-6.539908867524234616e-04,-3.246719276577068446e-04,1.710474789142608643e-01
-4.275300965864566732e-02,-2.116555976452026422e-01,-3.410553653965399390e-02,1.031698563194867832e-05,-1.895891369060881491e-03,-5.931676178854326190e-04,1.734222620725631714e-01
-3.890385339667946224e-02,-2.103672895746667715e-01,-3.711799584609958014e-02,2.468907415872727534e-04,4.384172447686847320e-04,6.320546297352998527e-05,1.723655462265014648e-01
-4.972224706836023828e-02,-1.853590432421040879e-01,-2.603840855242505609e-02,3.837236269286611510e-04,2.274352553708491268e-03,3.417013945406936325e-03,1.490692943334579468e-01
-3.575503220520690612e-02,-2.090793093253960344e-01,-3.520586379864842907e-02,1.245270893848504038e-03,2.310044353736305685e-03,1.468444532723565520e-03,1.736776381731033325e-01
-4.198688653679045341e-02,-2.116612539184679898e-01,-3.516803552419702633e-02,9.629963991988824536e-05,5.288349392896862962e-03,-5.544273086276370333e-04,1.734292954206466675e-01
-3.802716793708150328e-02,-2.098227329754455139e-01,-3.945891253682402150e-02,-3.903386205322969356e-05,1.467962367543932962e-03,-2.502130307281869200e-04,1.711036413908004761e-01
-3.805633783782547130e-02,-2.104398450667596676e-01,-3.814712770971734335e-02,-2.211679530470431177e-04,2.198647578757405524e-04,-4.597556948139317368e-05,1.723389923572540283e-01
-3.625048486256609442e-02,-2.100742584392583656e-01,-3.903525120595677245e-02,-2.731054909998486299e-05,-3.685061499541587241e-03,-2.219281961878368436e-04,1.725667715072631836e-01
-3.844584491527538311e-02,-2.103407996504531585e-01,-3.850524251348722005e-02,5.104908230679042506e-04,-3.844589113339478789e-04,1.808847568689036221e-04,1.718691140413284302e-01
-4.141496916640025061e-02,-2.105802690329033333e-01,-4.105938662987093646e-02,-3.614576526451516590e-04,1.760177609933960031e-04,-3.510497549584656223e-04,1.693459004163742065e-01
-5.216831888599578193e-02,-2.332817022223372949e-01,-4.928504467432159170e-02,-5.424230438374560981e-02,2.354611908939394614e-03,-3.515435097364715163e-03,2.054579257965087891e-01
-3.505381831065979004e-02,-2.165569108163857281e-01,-4.652010626334825844e-02,8.531510190089495321e-03,3.130891024075269351e-03,-2.196774581830731514e-04,1.767529249191284180e-01
-4.364335639725925448e-02,-2.130872914350142866e-01,-3.699209915381473229e-02,9.839449799590033185e-04,6.824049635426646630e-04,-3.070953932429211497e-04,1.728788167238235474e-01
-3.367729784449416397e-02,-2.093868120134863009e-01,-4.683786960043087588e-02,-1.439980260825956745e-03,-8.054797397636734996e-04,6.434866484527378746e-04,1.695405691862106323e-01
-2.846053848242631468e-02,-2.117044593479308068e-01,-4.692393400626984623e-02,-1.049356485352747346e-03,-1.168597094052283708e-03,-7.103363385206891249e-04,1.747708171606063843e-01
-3.510215010641899724e-02,-2.018337911237433335e-01,-4.885210459993292315e-02,-4.650529551914668949e-03,-6.028535083372177014e-03,-6.285441524347894324e-05,1.608411371707916260e-01
-3.090837587521329255e-02,-2.070710915514503703e-01,-4.927457410273682059e-02,-4.149037652349486446e-03,-2.671947170293340230e-03,-8.859359942382941458e-04,1.679601073265075684e-01
-4.370806446710203547e-02,-1.782824844176524870e-01,-4.054111817619759917e-02,-1.000997561117259425e-02,-8.771098151988069441e-03,5.421052275290204683e-03,1.384415179491043091e-01
-4.838284799552122067e-02,-9.857861262198741592e-02,-4.685439577814620032e-02,-6.885201369298022366e-03,-4.891799300808951159e-03,1.561488237554549928e-02,5.953279510140419006e-02
-4.684072878388793881e-02,-1.355562831953456560e-01,-4.028564632615147523e-02,-5.357623236351007762e-02,-3.898625897054623472e-04,3.631311128552408563e-02,1.451295167207717896e-01
-4.979086012297881392e-02,-3.193389523404045471e-01,-4.515735428973741139e-02,2.176617876013564254e-02,1.081327548189397504e-02,1.634471615414531676e-02,2.765865623950958252e-01
-4.282032597054313133e-02,-2.069485931271632384e-01,-3.170337225539452547e-02,-6.675354153339239623e-04,-1.100765440929569842e-03,1.048516816864868487e-03,1.699839681386947632e-01
-2.925582003354351701e-02,-2.011154874899131473e-01,-4.771204987740209486e-02,-5.380093528634658472e-03,-3.970970848498189126e-03,3.563432739329175955e-04,1.638261824846267700e-01
-3.091240949355712753e-02,-1.876251130228620834e-01,-4.193311654958094270e-02,1.465013319426690386e-02,7.197219570377906724e-03,9.203928177060904242e-03,1.549408286809921265e-01
-5.228807437921319246e-02,-2.355071194522977418e-01,-4.748692372255068628e-02,-8.100578963564242924e-03,-2.125972056832779213e-03,5.135893462662050046e-03,1.864443123340606689e-01
-3.924596227600845449e-02,-1.908194625634257735e-01,-4.585708394605099436e-02,-2.054523366794484373e-04,6.181137743562342517e-03,3.734794935819366816e-04,1.487660109996795654e-01
-4.211853303118617137e-02,-1.940486848716926338e-01,-3.963001747006664882e-02,-4.289284212228571501e-03,7.251197245895595576e-03,-3.104310608130788664e-04,1.538839340209960938e-01
-5.366288757812135574e-02,-2.132722431158685927e-01,-4.691074114599857320e-02,6.021834050189499689e-04,-2.475875494491837012e-03,6.409276128202222051e-04,1.631537675857543945e-01
-5.441498252762059368e-02,-2.307471125563375636e-01,-4.364447027013906855e-02,2.594624262492546164e-03,2.200386293567445882e-03,9.500929227018230575e-03,1.827942430973052979e-01
-5.482030440182052849e-02,-2.493982573014686954e-01,-4.554368478060617786e-02,-2.994525956937543146e-03,-2.769166271843745853e-03,-4.410113006571077243e-03,1.996494829654693604e-01
-5.386953239721566089e-02,-2.510970636672967826e-01,-4.628223363007753777e-02,1.634393687970390335e-02,5.314627839865503252e-03,-6.957467826409544477e-04,2.033230215311050415e-01
-4.116292372783688508e-02,-2.117138535536710886e-01,-4.322618365283289327e-02,-1.647473171723421283e-04,-6.834660523769215713e-04,-1.165180418145557928e-03,1.695450991392135620e-01
-4.998263333747042514e-02,-2.714535359041586049e-01,-5.309509000318483884e-02,1.327440536658705018e-02,-2.838968248099549459e-03,-1.212776343902500532e-02,2.221796214580535889e-01
-4.561116669492006753e-02,-2.158144761129625888e-01,-4.978358670431521499e-02,5.648227187588059257e-04,-4.195017850029139845e-04,-8.432360454153102133e-04,1.681666821241378784e-01
-5.487347395804427486e-02,-2.141789190850323099e-01,-4.705277030627835755e-02,-8.032048307820125908e-04,2.084084826095947661e-03,-1.350055829420595047e-04,1.634022295475006104e-01
-4.712731906154297989e-02,-2.107396938370525163e-01,-4.640693206056639708e-02,-1.045049890962030867e-03,-6.331013084158894615e-04,1.157635691664662730e-04,1.639875322580337524e-01
-4.007844827213249972e-02,-2.489539562365228886e-01,-4.067736949247854894e-02,2.149513121315726333e-02,3.710727185321606187e-03,2.646112470568140820e-03,2.120204567909240723e-01
-5.476172325405879310e-02,-2.394829709909093995e-01,-4.891841241085644054e-02,-7.051093867534782974e-04,-2.328180540631782404e-03,-7.687646995148190651e-03,1.882299631834030151e-01
-3.857111928027047443e-02,-2.103981407526122616e-01,-3.405204098360881115e-02,9.771535638603409603e-05,-6.167110115483962840e-04,-6.887407067997796967e-04,1.741379946470260620e-01
-3.844031495306717700e-02,-2.111855447007057740e-01,-3.776079498390928074e-02,8.741502910613253212e-05,-1.856891027686925072e-03,-6.433972133385636996e-04,1.731195151805877686e-01
-3.890290434783677531e-02,-2.110603033559743658e-01,-4.010896958913899579e-02,3.223132686807556112e-04,-7.019909238188963736e-04,-1.420661459058793024e-04,1.715629398822784424e-01
-3.769398759800286769e-02,-2.121544548335991265e-01,-3.778815189190556922e-02,-1.975579186520309708e-04,-8.449856518014552858e-04,-3.646037793763458150e-04,1.744210273027420044e-01
-4.652647232967518920e-02,-2.013064427606470197e-01,-3.398445943069543229e-02,-2.249662332296063858e-03,6.034174373023411427e-03,-1.385760340931161717e-02,1.635723412036895752e-01
-4.117238746559636481e-02,-2.109294875635353006e-01,-3.727719987978417304e-02,-1.417117360954013496e-03,-1.092005527656573225e-03,6.433942306117162871e-04,1.717693954706192017e-01
-4.104506123040166377e-02,-2.114008594588513146e-01,-3.952934947707791719e-02,-3.154155222274185235e-04,-3.577707240933609934e-04,-4.624174632434658997e-04,1.711225509643554688e-01
-3.551609088657845664e-02,-2.101130511265584810e-01,-3.881300587983384925e-02,-4.502784415976928485e-04,-1.910040636234470275e-03,6.674105263077625711e-04,1.730093210935592651e-01
-4.140878197194276800e-02,-2.101667822867164526e-01,-3.475107633810885222e-02,-7.618566495671011624e-04,-1.180661729024998739e-03,-1.706885878544095762e-04,1.722008734941482544e-01
-3.482895440893576250e-02,-2.098014670815614713e-01,-3.575294929850163228e-02,-2.050152132574321277e-04,4.291247780943935157e-04,-1.772743507105003786e-04,1.745145618915557861e-01
-3.978735703412585034e-02,-2.115010941853100457e-01,-3.722163116843273806e-02,-2.795867174769315071e-04,-7.128538023814926829e-04,-6.412589483306109983e-04,1.730195134878158569e-01
-3.940685260059588468e-02,-2.099518716119279094e-01,-3.617076146016107857e-02,5.207854158033806136e-04,-2.876153708147368652e-03,-1.007932283383987295e-03,1.722691357135772705e-01
-4.175001736889284026e-02,-1.001223600868087343e-01,-4.206398937597682908e-02,3.858939551188166062e-02,1.010313663346341061e-03,3.745114932653767492e-02,1.098515093326568604e-01
-3.087988595899947286e-02,-2.104089430146044992e-01,-4.590195080798899901e-02,-2.677983598593802772e-04,-1.544201197682708131e-03,6.921657191199005743e-04,1.725347936153411865e-01
-3.594114659381481697e-02,-2.124703723069521488e-01,-3.937796824470509577e-02,-2.410183825110735582e-04,-1.411033995984754862e-03,-8.415898651667548156e-05,1.748537868261337280e-01
-4.259645666776466083e-02,-1.391713279840300077e-01,-3.966432225045339599e-02,4.453196385516260819e-02,2.947906833934107237e-04,5.304796433228946284e-02,1.549525111913681030e-01
-3.271030911678784320e-02,-1.436813589196120899e-01,-4.838579697759627651e-02,2.814332328481814610e-02,7.642966984884047750e-03,1.778819340012199532e-02,1.196721121668815613e-01
-5.299524848967961110e-02,-1.389074180971545946e-01,-4.687764393265986262e-02,-6.784046340385915808e-02,-6.234142920170286997e-03,-2.966142706935197618e-03,1.479657888412475586e-01
-3.644792776023458858e-02,-1.659916890810020362e-01,-5.449431337397648428e-02,1.333302648449537220e-02,5.734238575537455376e-03,2.253869902333238001e-03,1.241638213396072388e-01
-4.033750240674456589e-02,-2.118589204031313122e-01,-4.184530530946402316e-02,4.322593537284595105e-06,1.831082407612310702e-04,3.297580855741425896e-04,1.707737594842910767e-01
-4.174169071249853036e-02,-2.107929554929083016e-01,-4.248702467827819573e-02,1.654180574875218713e-04,-1.365155352384951788e-03,-6.110834780091336897e-04,1.686999648809432983e-01
-4.148336854117264799e-02,-2.113152509975353976e-01,-3.795346812330956804e-02,-6.350023692188650794e-04,-1.473856096137378608e-03,1.262800865362798683e-03,1.716604977846145630e-01
-3.340844727112118884e-02,-2.117598630379460833e-01,-4.741956504904584063e-02,4.443718072897315284e-04,5.065358830776199410e-04,-8.233927212092660751e-04,1.717848479747772217e-01
-3.987006434086480533e-02,-2.108207565757698188e-01,-4.133420243943951994e-02,-9.391489783840891326e-04,-1.876001955004415580e-03,-5.049654021357439897e-04,1.702643781900405884e-01
-3.879959549202782743e-02,-2.122235793913394564e-01,-4.134476722001919485e-02,3.486723240511448705e-04,-5.899633591447483267e-04,-7.873769084266264619e-05,1.721696555614471436e-01
-3.960727139879761938e-02,-2.118093063239196439e-01,-4.214723963961968661e-02,8.505714647065940048e-04,-7.012512017499246669e-04,-2.270483100823678622e-04,1.709573119878768921e-01
-2.551668551069911917e-02,-2.374035631226816823e-01,-4.128601530196942399e-02,-5.298356076397000430e-03,7.490609353440912457e-03,-2.548019039747499020e-03,2.051229625940322876e-01
-5.583719725511061827e-02,-1.377887497524746818e-01,-4.031130946279093408e-02,-2.088743148434981517e-02,-8.544241450955024353e-03,2.153075304033865572e-02,1.055844053626060486e-01
-4.868521709946677101e-02,-2.218355738184775161e-01,-5.086540706473861168e-02,-1.091819933156801562e-03,-2.258585219799140280e-03,-6.217549109892776902e-04,1.721288412809371948e-01
-6.129755274936660170e-02,-1.177192087763076767e-01,-5.502642857579023022e-02,1.504406095144873549e-03,-5.621535563654722709e-04,4.858112287994865303e-03,6.045741587877273560e-02
-4.861824058262020909e-02,-2.126854610705943838e-01,-4.911491626144701139e-02,-4.840966177865169790e-04,-1.105267388855963977e-03,-3.026496837040753380e-04,1.638336181640625000e-01
-3.712943923717919315e-02,-2.086605676857395397e-01,-3.500789379131149376e-02,3.054683783529752350e-04,7.629869652221873359e-04,-1.013356113356037941e-04,1.726076453924179077e-01
-3.188252429818658196e-02,-2.044009012456828034e-01,-4.073638193048378930e-02,3.185579617048383974e-04,3.297213123254241676e-03,4.334581380544010368e-04,1.683657020330429077e-01
-2.942792243794752072e-02,-1.986501463564115666e-01,-4.968491941840758042e-02,2.436139571504317147e-02,3.678249353363247272e-03,9.480615839795640543e-03,1.664609313011169434e-01
-3.858233475365559217e-02,-2.112525769161762712e-01,-3.808112065158920923e-02,1.811078561920406726e-04,-2.107950798344426085e-03,-6.326441776332153433e-04,1.729636937379837036e-01
-5.160811281898421143e-02,-1.140846700549543735e-01,-4.239129040570580043e-02,4.325601072614045084e-03,-1.173646523865029458e-03,2.299180728676519445e-02,7.880507409572601318e-02
-5.105634971605434169e-02,-1.479161489792743533e-01,-3.706901440362977973e-02,4.314639272023640046e-03,6.606150138140817231e-03,1.315381820976856131e-02,1.078801080584526062e-01
-5.477649619272169368e-02,-1.734311425588016542e-01,-3.442784031531303385e-02,3.562042651940094430e-03,3.149936686000960780e-03,1.922862144165840559e-02,1.344786435365676880e-01
-4.578905733805431477e-02,-1.347053196080459925e-01,-4.025292420871656729e-02,-1.029000785403521787e-02,-7.812056378432116754e-03,1.173246066991276253e-02,9.665760397911071777e-02
-3.033655125140906350e-02,-1.967103728211376246e-01,-5.443270826090484960e-02,-1.994818178223281818e-03,-2.451857602889673943e-03,-1.402757180158157625e-03,1.558453738689422607e-01
-2.904899085952072219e-02,-1.944211811295323555e-01,-4.784754042352439007e-02,-1.213752273845489921e-03,3.332562738535539649e-04,-2.778110299608301361e-04,1.568361371755599976e-01
-3.709212974066519730e-02,-2.971043343260265646e-01,-5.002134094582874613e-02,-1.184410467941105459e-02,-2.468062497940023015e-03,2.146747216185725463e-02,2.573585808277130127e-01
-5.252800013735350881e-02,-9.629886509940473183e-02,-4.813789151095790309e-02,9.666136028062806071e-03,3.334918578243045869e-04,1.402596388628011767e-02,5.475527048110961914e-02
-5.068843407550941565e-02,-2.181231131184319105e-01,-4.639715634945203865e-02,-1.809551961311265137e-03,-2.127182971490047293e-03,2.281026730089515120e-03,1.697359830141067505e-01
-3.080802899039075671e-02,-2.024058755449149594e-01,-4.514067976039445873e-02,2.354468185107446918e-03,-3.088462821639189997e-03,-7.347932769548012931e-04,1.650413870811462402e-01
-2.904439206697571885e-02,-2.085484170585100716e-01,-4.779229434719247521e-02,1.202115170444302680e-03,-7.966960359444932079e-04,-3.996215226472542661e-04,1.709227114915847778e-01
-5.106538518133837967e-02,-3.063824883224192108e-01,-5.800626257048160928e-02,-1.565218415249122752e-02,3.335699986247241556e-03,-2.989179750961685339e-02,2.586731314659118652e-01
-2.883097053055989900e-02,-2.092716170514143936e-01,-4.946853057044017787e-02,-2.998877719783083883e-03,6.953108334363060621e-04,-1.133291062592378033e-04,1.711413115262985229e-01
-3.059108015521098956e-02,-2.470166022219311419e-01,-4.237163973079194346e-02,1.592400164408891428e-02,3.292747834408087711e-03,-6.008955418392911531e-04,2.126581966876983643e-01
-3.344389649668951664e-02,-2.074684037111889090e-01,-3.730060235302182226e-02,-3.824040407081818137e-04,6.474445372298512661e-04,-4.177333197303580137e-04,1.721350103616714478e-01
-4.223777595537848983e-02,-2.346840472184178461e-01,-4.560982936641168328e-02,-9.186606684306675499e-03,2.403204516784121936e-03,-8.591638299933486433e-03,1.920675784349441528e-01
-4.187141581934061829e-02,-2.416606573792967616e-01,-4.598852977675119136e-02,-5.598963420356758286e-03,4.164113886807936649e-03,-6.980956722816415196e-03,1.985003799200057983e-01
-4.476245099321297938e-02,-2.221724039648237392e-01,-4.126922379645792116e-02,-2.811837104049353525e-02,-1.063687773178413100e-02,1.624582430596786115e-02,1.887044459581375122e-01
-4.496030456551136645e-02,-2.192947654528207280e-01,-3.926947038764137116e-02,-6.391686871460395755e-04,-2.757106738144968813e-03,5.506603344106821701e-03,1.775725185871124268e-01
-4.878717565500158282e-02,-2.400092531266694307e-01,-4.963008583147886232e-02,-1.948773937775601442e-02,-7.966466415694668096e-03,1.057865676057110835e-02,1.951175183057785034e-01
-4.468982208556016716e-02,-1.986392842241049284e-01,-3.556253817310175980e-02,-2.414704820532566094e-03,-1.451559767259576021e-03,1.321391258784448443e-02,1.604260653257369995e-01
-4.540786513037536887e-02,-2.157931898816853322e-01,-3.912339167069526363e-02,-1.739360007604463191e-03,-2.146258455247940754e-03,-5.411376644034247667e-04,1.736813485622406006e-01
-4.643850276815474076e-02,-2.130927142522119067e-01,-3.599258942331653999e-02,-2.149715118207219146e-03,-2.767149923504755738e-03,8.978234344304614201e-03,1.729227006435394287e-01
-4.749944043227877916e-02,-2.262394284482269202e-01,-4.671098653517621879e-02,3.084300866433071879e-03,-4.800593797444388218e-04,-4.662688012547239191e-03,1.793989539146423340e-01
-5.364169115002265231e-02,-3.292546922502928020e-01,-6.423968315269648621e-02,-5.748561407174241494e-02,-2.141530646900274663e-03,-1.112127997092277401e-02,2.888814508914947510e-01
-5.964970651656237299e-02,-2.167661297204994952e-01,-4.458743718945446660e-02,-2.938688916784981545e-04,-2.095857426240364633e-04,-8.881683794079692868e-04,1.651718169450759888e-01
-3.877682268478733346e-02,-2.137904125504271613e-01,-4.505937823767448835e-02,-2.246039513300704480e-03,-4.569131742429752264e-04,-6.330492402628659209e-04,1.720077246427536011e-01
-3.395751175842067621e-02,-2.099155661281915664e-01,-3.818525027632817259e-02,-5.087248404605334206e-04,6.744496733399019898e-04,6.436971051927305437e-04,1.738924682140350342e-01
-3.015815255225429148e-02,-2.117952584241220015e-01,-4.854455891161557624e-02,-2.157670291422827263e-03,-7.767437739685582833e-04,-7.147967637147208770e-04,1.732274591922760010e-01
-4.469144232151463225e-02,-2.106767501178871682e-01,-4.609377435126772032e-02,-6.963593892938715717e-04,-7.662440256066252908e-05,3.172907855950141912e-04,1.652939766645431519e-01
-5.912576063200922216e-02,-3.765358645728560938e-01,-6.540453058124036378e-02,-1.955899568261892582e-02,-5.933715359331039746e-03,-1.322414812755222553e-02,3.171333670616149902e-01
-3.329340106373963881e-02,-1.939932627006888954e-01,-4.586887447277634977e-02,-1.465097349449573545e-02,-3.155644458434262757e-03,2.261470151190060108e-04,1.569576114416122437e-01
-4.329526366326238301e-02,-2.117342957509345536e-01,-4.578825532076253452e-02,3.034521985455560888e-04,-2.764776928339239423e-05,-6.489472431361734996e-04,1.672110855579376221e-01
-4.527564766418162162e-02,-2.113814553814511443e-01,-4.596939670613483381e-02,9.464877931815439708e-04,3.993821304750061712e-05,7.108992566201188974e-04,1.657727211713790894e-01
-4.996663926698129143e-02,-2.418860645708969526e-01,-4.765884869877275165e-02,6.995653151830162706e-04,-5.877254948016458246e-04,-3.217097441300622706e-03,1.931705325841903687e-01
-3.256618992647938859e-02,-1.789096660642005565e-01,-5.179414918504635090e-02,-8.106699196256549403e-03,-3.917883446193629396e-03,-1.006329156733889953e-04,1.386198997497558594e-01
-3.762442566739111760e-02,-1.983488188121290685e-01,-4.224385775170826779e-02,1.929725269206375438e-02,6.931373000076514537e-03,2.144245724380663964e-02,1.665888130664825439e-01
-3.092888617712129945e-02,-2.067701422135874711e-01,-4.159638788953853861e-02,8.847343138729185175e-04,1.062548974424853705e-03,7.876234448483302548e-04,1.707798391580581665e-01
-4.639340892036472597e-02,-2.029289491091973152e-01,-2.833511951355062453e-02,3.750955767763270322e-03,8.391595630585748505e-03,1.408588729261638778e-02,1.688340753316879272e-01
-5.299181278619100044e-02,-3.109150370467719249e-01,-5.051104737030406855e-02,2.093984230527783097e-02,1.064078005300461011e-02,2.679495369952727274e-02,2.664196193218231201e-01
-4.250611778324145384e-02,-2.092260666352998011e-01,-3.338686082595088839e-02,4.162758000975728522e-04,1.126217885835716082e-03,1.568369499426524672e-03,1.714956760406494141e-01
-4.428161224018088704e-02,-1.664775296053008224e-01,-4.011224314710987171e-02,-3.875357841035603421e-03,5.893337024217454659e-03,6.492621975352997656e-03,1.254369020462036133e-01
-4.835134911212658759e-02,-2.121232594685403539e-01,-4.661577836623780752e-02,-8.624200296983888488e-05,9.623873951905269363e-05,3.643827341271777313e-04,1.646479219198226929e-01
-4.838496436132741496e-02,-2.695473610118686025e-01,-4.729043612770827965e-02,-3.326012026184629921e-04,6.193571376149653238e-03,-2.995767174152602370e-03,2.220324426889419556e-01
-4.566395184725155487e-02,-2.136616330447075607e-01,-4.649009332195067762e-02,2.316897067856882493e-03,-1.633302919977064739e-05,1.064531031464785059e-03,1.676443219184875488e-01
-4.216622003332491653e-02,-2.119602429258243825e-01,-3.654683798312414328e-02,-4.362170201814510482e-04,-4.006506234600828846e-04,-9.585644940804229975e-05,1.726754307746887207e-01
-3.967234181088225009e-02,-2.120941708178477048e-01,-3.645857712710819099e-02,-1.310950615097516286e-04,-8.224334630807073705e-04,2.213965337613324209e-04,1.740573644638061523e-01
-2.600547437021232672e-02,-1.743414704739351673e-01,-5.202487082013046438e-02,9.317312108479702121e-03,1.208123530691226254e-04,-3.112766826558564098e-04,1.381366550922393799e-01
-4.327167352641887038e-02,-2.125222337678451812e-01,-4.624429715990812512e-02,-2.735509479098884034e-02,-4.235762590253916611e-03,-6.752502464655679888e-03,1.748913675546646118e-01
-4.411216982728073666e-02,-2.150324713675198229e-01,-4.897480604754677475e-02,-1.654445166784746651e-03,-4.738739224851499891e-04,-3.363965009548613213e-03,1.686686277389526367e-01
-4.529971708794461316e-02,-2.143032253726233627e-01,-5.563446119060476425e-02,-1.807215434348677938e-03,1.735229162000296449e-03,-2.713080959496745820e-04,1.641384661197662354e-01
-3.484120298820426315e-02,-2.096319479663739105e-01,-3.646648904654641032e-02,9.701447134044137097e-05,8.292383022888653171e-04,-3.942673886506237397e-04,1.739911437034606934e-01
-4.438864794677162967e-02,-2.133317667821542085e-01,-4.553285459596573964e-02,2.697628698058902332e-04,-4.162899564621788521e-04,-1.439117816874869137e-03,1.683945655822753906e-01
-4.510248012533777523e-02,-2.128204528979855681e-01,-4.617928956237611626e-02,4.310142527686956770e-02,-1.192967367546702131e-03,-9.371526115672461008e-03,1.838227957487106323e-01
-4.043207925683423021e-02,-2.266964254833612469e-01,-4.655922450482211788e-02,-9.913437682298433667e-03,1.440506857463279885e-03,1.937988820224744758e-03,1.841276735067367554e-01
-3.241069745503829397e-02,-1.796044741049664384e-01,-3.380153178916872614e-02,1.875033679686432045e-02,-9.509455423233394503e-03,-2.128012614847341749e-02,1.553955078125000000e-01
-5.997816914878921490e-02,-3.535047932892688149e-01,-6.329315702513582664e-02,2.127655132789687056e-02,-7.670821745159116245e-03,-4.764409037967654026e-02,3.058435916900634766e-01
-3.167297703520174229e-02,-2.048873752856488484e-01,-3.804684090307565436e-02,6.329901165065187837e-04,2.923414228790822272e-03,7.239981500366744933e-04,1.702005416154861450e-01
-4.630026957549900068e-02,-2.146967895923413416e-01,-4.526076977395455253e-02,8.279056381514912676e-04,7.036133091914440819e-05,-1.143934323220027229e-03,1.689364165067672729e-01
-4.412715457784461420e-02,-2.158659924025291832e-01,-4.481913553540079614e-02,1.868862663445213044e-03,-2.314996334140986302e-03,-5.394791444102421847e-03,1.717257499694824219e-01
-4.945529382970245691e-02,-2.427922767813450178e-01,-4.557033091312605311e-02,-4.341423228034170176e-03,-2.882068760436426718e-03,-9.505711534774970856e-03,1.962088942527770996e-01
-3.160731644330452839e-02,-2.081778593922601339e-01,-3.629094923433311831e-02,1.361159445666168110e-04,1.980176506582744227e-03,-9.528493336283685273e-05,1.743099242448806763e-01
-3.154490923710080719e-02,-2.062498774432957038e-01,-3.803329807438830118e-02,-1.290250611960226472e-04,1.702668208692752162e-03,2.162337858568332357e-06,1.715783178806304932e-01
-4.763168288993321203e-02,-1.900444441455124145e-01,-3.844739156364994359e-02,-1.884827898465576274e-02,-5.477035772842409750e-03,4.198079486776882391e-02,1.676801592111587524e-01
-4.962772314027780879e-02,-2.014182815784760494e-01,-2.632894625260456811e-02,-1.284623551618252089e-03,-1.412288715839858351e-03,8.176133832048699396e-03,1.653215736150741577e-01
-4.099078293438357390e-02,-2.121667574831460346e-01,-3.826331674966804847e-02,-9.089121288098252205e-04,-9.659028426468128231e-04,-3.079388700386679061e-04,1.725719869136810303e-01
-3.389221649433501321e-02,-2.118874258098664698e-01,-4.041586071448992346e-02,-1.002544543782754494e-07,-9.180523071388867369e-04,-3.348211555318727660e-04,1.748328953981399536e-01
-4.437246431645304467e-02,-2.224156528413211986e-01,-4.444231328182602497e-02,-2.557725214822265114e-02,-1.312872277107619487e-03,6.535938456012476729e-03,1.838011443614959717e-01
-4.571450822092806843e-02,-2.098850146743442557e-01,-3.780304554932697320e-02,-6.182899254060689968e-04,-2.546208713315570998e-03,1.266104008768429053e-02,1.697494536638259888e-01
-3.496781125340292506e-02,-2.092522102937526274e-01,-3.780327916991346737e-02,7.211843094730879290e-04,2.977091228205771189e-04,7.432345311834716447e-05,1.728894412517547607e-01
-3.443172963602909170e-02,-2.062301077659475790e-01,-4.944009679654984973e-02,-6.616783940904325152e-03,-5.937330771871742949e-03,3.852116538136763496e-03,1.656597107648849487e-01
-4.840810636610550638e-02,-2.109042107078661354e-01,-4.806073740594426352e-02,-2.309412501613745765e-04,-2.017949232002419664e-03,-5.994176331636921415e-04,1.627114117145538330e-01
-4.938333017561378352e-02,-2.104905606021449382e-01,-4.735906044851337371e-02,4.790064701084192347e-04,-6.089840179790680184e-04,4.794829211113136214e-04,1.621365249156951904e-01
-4.927364710986911756e-02,-2.098345418317995870e-01,-4.732327613588461351e-02,5.668325367314757486e-04,-5.963233273780115841e-04,2.562357396179538527e-04,1.615518033504486084e-01
-5.549873656530411592e-02,-3.672887360527812284e-01,-6.097523540376981188e-02,-1.616599037726163673e-02,8.726373368050429485e-03,-2.809244142595998528e-02,3.145083487033843994e-01
-4.337092531114263710e-02,-1.977826283815619923e-01,-4.379666489682889491e-02,-2.977035538727901276e-02,-8.040188459635048968e-03,1.638649614623034073e-02,1.656373292207717896e-01
-4.155904347112855668e-02,-2.349576236318266231e-01,-4.905676043067348779e-02,1.191977054908159063e-02,-4.326282186924962359e-03,-8.506714761196430830e-03,1.915950477123260498e-01
-4.724674822294245430e-02,-2.092873171019315470e-01,-4.756466934861321161e-02,3.968103940937587021e-05,1.093376577342363793e-04,1.147270640100957412e-04,1.618820875883102417e-01
-5.527781249860047597e-02,-1.293818774146849870e-01,-4.677197735805740941e-02,-6.840138816637946449e-03,-2.338816827254245646e-03,7.750668031836003072e-03,8.081503212451934814e-02
-4.817717290056455770e-02,-2.097559224548096735e-01,-4.805540445773244518e-02,2.906064032284889583e-04,-8.490434033232756653e-04,5.726750457312117064e-04,1.616501808166503906e-01
-4.990250115654300267e-02,-2.103022074044948175e-01,-4.596214217417708692e-02,9.977565368182723764e-04,-1.894062375290334575e-03,-4.062356900511178252e-04,1.624495834112167358e-01
-3.845390802504283084e-02,-2.120756456227831932e-01,-4.281445695780514149e-02,-2.493648208857074107e-04,-7.441292440285780015e-04,-8.428804421066760913e-04,1.714946478605270386e-01
-4.735537283473677250e-02,-1.898071821645142543e-01,-2.408467409109138480e-02,-1.318243678453315856e-03,-1.402115861780863686e-03,7.234598847840409928e-03,1.559394896030426025e-01
-5.306616867612619359e-02,-1.120721672589399809e-01,-5.350171075136933574e-02,-8.507744362532952687e-03,-4.662935167815410870e-03,1.383268374569655021e-03,6.119078770279884338e-02
-4.643714724122685600e-02,-2.127066100492538414e-01,-5.019084743639083690e-02,-4.503923114703317111e-04,-4.000032385426923929e-04,-1.026045930159297627e-03,1.644376665353775024e-01
-3.428631845470466594e-02,-2.099304850436761460e-01,-4.228650963859934692e-02,-8.248274796348952593e-04,-2.152558051515567582e-03,2.612647240750187857e-04,1.718308329582214355e-01
-4.986821235722938006e-02,-1.508574449404921358e-01,-4.524501859989333435e-02,9.862438132047538170e-05,-6.380362935113558301e-03,4.126476101294637515e-04,1.039699912071228027e-01
-4.926980172577041794e-02,-1.705956292486351389e-01,-3.971812962974326233e-02,-6.649109701967678698e-03,-7.081517497892802354e-03,7.765507428952481660e-03,1.281953155994415283e-01
-4.309777863643435292e-02,-2.115432787647725243e-01,-4.509444082840713408e-02,3.311871363658963163e-04,-2.575778762816135050e-04,-6.858962614380247329e-04,1.674618870019912720e-01
-3.668464074312914602e-02,-1.916989193583898410e-01,-3.591775643337170171e-02,-7.707333225765096094e-03,-5.807036444025874024e-03,6.473962509347638491e-03,1.566971689462661743e-01
-3.831427460155737569e-02,-2.124777051988016030e-01,-4.118886965054220639e-02,-2.733711619116379146e-04,-2.831699305759916973e-04,-1.643033255762622142e-04,1.727456450462341309e-01
-3.323686048056823106e-02,-2.091049988010268978e-01,-3.983500626751559220e-02,-1.167698219257501044e-03,-3.729402813366370067e-03,5.790272648236679566e-04,1.727991700172424316e-01
-4.777665197606786873e-02,-2.107135209374935703e-01,-4.691182051111313089e-02,-7.589423282776075431e-04,-1.561162699200077664e-04,-3.929124564092316245e-04,1.633779257535934448e-01
-3.098628262628527752e-02,-2.105887162845998528e-01,-4.350272166424948295e-02,-1.431630075813539616e-03,-6.301995438983563815e-04,-2.354315728476337520e-04,1.737044006586074829e-01
-3.334236697718981346e-02,-2.098527921951322539e-01,-4.261615679091956127e-02,-1.219491830889479246e-03,-1.791301241872517375e-03,4.545418522257100159e-04,1.721038073301315308e-01
-4.572124000784947434e-02,-2.133182483294972509e-01,-4.747472732381095156e-02,1.445740389055943540e-03,-3.503310177900732379e-04,5.335048269892849609e-04,1.667496412992477417e-01
-3.816898870169588981e-02,-2.117285294064463197e-01,-3.907961281031707007e-02,-5.161217400887618275e-05,-1.460489504619317831e-03,1.224498058127666985e-04,1.731246560811996460e-01
-3.408937639024216953e-02,-2.094374317712907330e-01,-4.265288973105537534e-02,2.177219721794825989e-04,-1.390894649234154876e-03,-3.542188559343243423e-05,1.712443530559539795e-01
-3.696997985973501238e-02,-2.126658222843731960e-01,-4.096798728344124008e-02,-7.441041348550079347e-07,-5.426985127812161301e-04,-1.871434440123361691e-04,1.737341880798339844e-01
-4.067908410734098756e-02,-2.122131323348989129e-01,-4.053789024373629507e-02,-5.961369510626708234e-04,-5.964393237612008319e-04,-3.687966458476080981e-05,1.716109216213226318e-01
-4.610394168576439217e-02,-2.103176180912688931e-01,-2.906682248692468717e-02,-6.317143467020329851e-04,-9.908971155516148495e-04,-7.785380073165323140e-04,1.733784377574920654e-01
-4.778683921522020733e-02,-2.193845043034609588e-01,-5.051735579442577506e-02,1.736902940036163297e-03,-2.646618390004233656e-03,3.190998025189651158e-03,1.704267412424087524e-01
-5.731581862186323206e-02,-1.728802843201233674e-01,-4.110737546770958789e-02,1.815309310777981494e-02,5.681691940526556808e-03,3.278238317234283966e-02,1.407141834497451782e-01
-4.858056348467469643e-02,-2.125732012690846884e-01,-4.843996081128033176e-02,4.472612551197800018e-03,-5.664881914663289853e-04,5.108234877352230488e-03,1.644868403673171997e-01
-4.678751186844940652e-02,-2.096400159261985197e-01,-3.386508275254149214e-02,-1.340118693833169256e-03,-9.095407243782584628e-04,-6.522864972313653165e-04,1.697101145982742310e-01
-5.104007809032436171e-02,-1.566013908295282864e-01,-4.601866495177059369e-02,1.368411712626482236e-02,-3.761741760661176386e-04,6.177282107332653094e-02,1.539750248193740845e-01
-4.561561570820119038e-02,-2.077396747076027117e-01,-2.859715609064501785e-02,9.445684487470500578e-05,-1.257916077857032435e-03,-1.128711919024515467e-03,1.712937057018280029e-01
-4.807307621862826758e-02,-2.105935169304137267e-01,-2.914059301780602684e-02,3.077841659356188352e-04,-7.291745288423842402e-04,-1.329867207184013203e-03,1.727872490882873535e-01
-4.487185493124427882e-02,-2.073683446329281921e-01,-3.083483230833702904e-02,-5.507748579229437011e-04,-1.809668518284628276e-03,-3.710477693242207023e-04,1.699831187725067139e-01
-4.928006896895206768e-02,-2.137329200724496503e-01,-5.134925164056380192e-02,3.650772654512043675e-04,-3.545672404717417712e-03,-2.082587257337700196e-04,1.635450571775436401e-01
-5.055393343013992596e-02,-2.126562131558664692e-01,-4.667407451486724895e-02,2.648836017080404264e-04,-1.011073250039118670e-03,8.245066947080661622e-04,1.640928238630294800e-01
-4.525255502922887613e-02,-2.136874609551094317e-01,-4.679230181542563122e-02,1.673552146000363517e-03,1.880325727876219440e-04,1.256848249955739346e-03,1.677098274230957031e-01
-4.606422067811461601e-02,-2.131610552889040555e-01,-4.938892024879149717e-02,1.486120721476019615e-03,-4.992225075741156710e-04,-2.565819693713602837e-04,1.654824167490005493e-01
-5.077001097972684562e-02,-2.534166886119635920e-01,-5.581956733320585229e-02,-2.823020406463603964e-03,-2.334727402865055101e-03,-3.204550921014152876e-04,2.002709805965423584e-01
-5.123810360815575504e-02,-3.222022861336210631e-01,-5.042824621191428769e-02,-1.014221623127112455e-02,8.655768456747578443e-03,2.312821505079000126e-02,2.752812802791595459e-01
-3.515986301570775407e-02,-1.877603165530331297e-01,-4.476676794742241727e-02,8.094382475542296089e-04,6.194729949579713853e-03,5.423074658158339410e-04,1.484289169311523438e-01
-3.734744304447454311e-02,-1.327490190591895103e-01,-5.116654253734698871e-02,2.303500883183024622e-02,2.109238511301488820e-03,1.138346372799789452e-02,9.983985126018524170e-02
-4.422936261710518763e-02,-2.134188058877184990e-01,-4.711083301851087118e-02,7.653777346610726728e-04,-5.438739856721835778e-04,7.092207094557578025e-04,1.677796542644500732e-01
-4.715246722653971406e-02,-2.160057802523614456e-01,-4.840486522401632463e-02,-1.854938135320002368e-03,1.332876662885854480e-03,-2.318482723605926228e-03,1.683250367641448975e-01
-5.266209522607440130e-02,-2.954253888217849289e-01,-6.041420861195739844e-02,4.341118618196808387e-02,1.610527432182224522e-03,-2.054233182649226747e-02,2.530603110790252686e-01
-4.942825931263788997e-02,-3.583841719143381344e-01,-6.339070437988912621e-02,-2.893056927958218352e-02,-8.610502687922442014e-03,-1.153687946697619371e-02,3.073557913303375244e-01
-5.527153463306324482e-02,-2.201441106234816036e-01,-4.602257471664205485e-02,4.794630865191632126e-04,3.339963479653518773e-04,9.029416372165598322e-05,1.696892976760864258e-01
-4.000687386414136792e-02,-2.359428951475376346e-01,-4.907601897244572020e-02,-1.227488290233753020e-02,3.328979431410320367e-03,-2.612544239720137468e-03,1.928780525922775269e-01
-4.962809600212196581e-02,-2.174695822098841602e-01,-4.243705616142390974e-02,-2.713467850463747826e-03,-8.028305219274653676e-04,-4.502576908310156794e-04,1.716218590736389160e-01
-4.575477891283771803e-02,-2.146362627582941440e-01,-4.617291517114024274e-02,-2.904727936003759919e-03,-3.881152772151076874e-05,-1.410502752260979313e-03,1.687655150890350342e-01
-4.277200733010122491e-02,-1.575815582880587817e-01,-2.371245594677929419e-02,6.353640131887086998e-03,5.926250276584867950e-03,2.907747579065576848e-02,1.359988451004028320e-01
-3.685991362438360841e-02,-2.102034643163325778e-01,-3.804295199875631223e-02,9.801256433050907686e-05,2.119137553808363205e-04,-2.343724634423139557e-04,1.727560162544250488e-01
-3.646146139650098539e-02,-2.104676105459227509e-01,-3.616574341692333633e-02,2.144955178498008405e-04,-6.585460252043858127e-05,7.655252126642159627e-05,1.741546839475631714e-01
-3.584945220339641470e-02,-2.101878551270829898e-01,-3.627718462138673772e-02,-2.843993824323114714e-04,2.982046975820621488e-04,-4.266319345341250413e-05,1.741264164447784424e-01
-3.760359521540901362e-02,-2.079082443517675516e-01,-3.332003840921536619e-02,4.542854802892335331e-04,8.611484290577389386e-04,3.349329490000519608e-04,1.724955439567565918e-01
-4.990990209008134421e-02,-1.850544299341653209e-01,-2.547736109049247161e-02,8.906970356605779793e-04,1.523974287326144636e-03,3.121864615695450589e-03,1.490016877651214600e-01
-3.681803002810097453e-02,-2.084944964265635914e-01,-3.484490184584626560e-02,-1.050744522962505462e-04,1.590577168211516250e-03,-2.144946146481159564e-04,1.726939529180526733e-01
-3.912848800020354151e-02,-2.050294356924674544e-01,-3.421518535298638530e-02,8.613198732526036218e-04,4.510799953330386219e-03,4.748302136246232322e-04,1.686010956764221191e-01
-3.016959668400481104e-02,-2.043650373635946260e-01,-3.857446310857403499e-02,2.168109380696202522e-03,3.501891834002003774e-03,4.941610396060338532e-04,1.703004091978073120e-01
-3.410093983249513211e-02,-2.032444773128822546e-01,-3.719747651830600244e-02,3.070579197266069512e-04,4.417857981084530317e-03,2.555728046589485474e-04,1.677927225828170776e-01
-4.263611525729088525e-02,-1.835489444196027886e-01,-3.512410232804207694e-02,2.138454537734623545e-02,1.173761850097852950e-02,2.446666323778872582e-02,1.566922366619110107e-01
-3.724146553786873703e-02,-2.080034120258437424e-01,-3.219148663803999416e-02,-1.917620005094855182e-04,8.194249988061691947e-04,-4.743888818744059236e-04,1.733501851558685303e-01
-4.889264843179612352e-02,-2.163743968935180895e-01,-3.434317651816211348e-02,-4.143951724746169213e-03,7.148701901655010130e-04,1.776660053898751132e-03,1.753884702920913696e-01
-4.758505490942638305e-02,-1.989827461270777531e-01,-2.771955413865925810e-02,-2.300222533668799406e-04,-2.808179605749857449e-03,3.272134924821418558e-03,1.624174416065216064e-01
-5.200273618990371161e-02,-1.356771370267891297e-01,-4.407336181476083359e-02,-1.062674391955001872e-02,2.920190777628656805e-03,5.751886941900762745e-02,1.342288851737976074e-01
-4.283234277456333949e-02,-2.075354478282311899e-01,-3.150682295622807966e-02,1.122717079728821274e-03,4.080801319958077614e-03,3.675228717105801825e-03,1.709239333868026733e-01
-4.858661694128807440e-02,-2.010925645101655501e-01,-2.389024241894850686e-02,1.827273306841499989e-04,7.077711403976004977e-04,1.555492066378369280e-03,1.662623882293701172e-01
-4.825367542831889012e-02,-2.090346959434731811e-01,-2.591070210416072939e-02,-8.456116846497658277e-04,5.957672142992507386e-04,3.308538402461643629e-03,1.731419116258621216e-01
-4.085429709547944849e-02,-2.046870332029496475e-01,-3.518708887002199720e-02,1.921927203422383245e-04,3.788895694088246103e-03,1.240062798702026609e-04,1.668681502342224121e-01
-3.027686535137015869e-02,-4.998168020195609129e-02,-2.509634492265487571e-02,-1.179998972625769492e-02,-2.114254882117121842e-03,1.793311722167629033e-02,4.373920708894729614e-02
-3.516574489823084265e-02,-2.118176099570352466e-01,-4.241444479996556161e-02,-1.201077665955944083e-03,3.055741057002040080e-03,2.113835147307095718e-05,1.732347309589385986e-01
-4.611794284156157248e-02,-2.176008001685580395e-01,-5.297345765931932293e-02,9.837035047343635139e-04,8.031904286390482593e-04,-2.221801878600561039e-03,1.682183444499969482e-01
-4.858939535084017686e-02,-2.175160730892142236e-01,-4.676356937940473468e-02,-7.548673899496860344e-04,3.422746258983678526e-04,1.368218367082692406e-03,1.698695421218872070e-01
-5.101409597017737135e-02,-2.202388071420973148e-01,-4.235993816598285222e-02,3.901029003609302395e-03,-1.401639904990442708e-03,-1.851290469672387581e-03,1.738914102315902710e-01
-4.446828213002654295e-02,-2.150949976393717322e-01,-4.410330325247644595e-02,1.582111760477529234e-03,2.861742914930145553e-04,-5.676111974185449284e-04,1.708350181579589844e-01
-4.169651667073425577e-02,-2.143290126570718823e-01,-3.946644943009475909e-02,1.445104428293187814e-03,6.678560900311937467e-04,1.858321804822073641e-04,1.737804412841796875e-01
-4.313455263728880468e-02,-2.163850700471773580e-01,-5.124830196189364417e-02,5.124215989414748589e-04,-1.020772370781713225e-04,-2.442456666892395441e-03,1.693947464227676392e-01
-4.810336303358009324e-02,-2.323223398873296985e-01,-5.633384121178310749e-02,1.217052466267077616e-03,1.098591759296033057e-03,-1.912850637994910168e-03,1.802975386381149292e-01
-4.812737283894424900e-02,-2.115026848780530433e-01,-3.208196647290405268e-02,-4.785949773490814213e-03,3.201331897313829979e-03,-5.850311804425892617e-03,1.725471317768096924e-01
-4.591911114961586687e-02,-2.087735607917679537e-01,-3.109335252404069050e-02,4.738743051667173049e-04,3.297515204928580176e-03,-4.496521165714850330e-04,1.708499789237976074e-01
-4.435800209191281124e-02,-2.127521392592360561e-01,-3.396544499794226790e-02,1.832105222027693373e-04,1.400104054198290492e-03,9.277722833564370488e-04,1.738482117652893066e-01
-5.173436543082444994e-02,-3.304304961335568502e-01,-5.849908060694977707e-02,3.106084365398507907e-02,-2.049447614479680928e-03,-1.239453202496428562e-02,2.814245820045471191e-01
-4.324022862384008237e-02,-1.263295482325799690e-01,-4.151209294129479949e-02,5.387650193598223641e-02,-1.551518912658078663e-03,4.828815828876316732e-03,1.258396506309509277e-01
-2.992417769326340127e-02,-2.098197877155792979e-01,-4.742544145110653975e-02,2.988355067966701108e-03,-1.101845695576928906e-03,-2.409276948940180466e-03,1.719539761543273926e-01
-2.406502519582812138e-02,-2.046305100837818025e-01,-4.894613383195271089e-02,2.336716969968468359e-03,6.073033644928660206e-04,4.369759303782969561e-04,1.695533990859985352e-01
-2.725713586076622397e-02,-2.039522578506193229e-01,-4.562855540219177414e-02,2.162733742475910631e-03,1.291216639238222229e-03,6.682940768463036755e-04,1.683238148689270020e-01
-3.371793012618325147e-02,-1.929120036120198223e-01,-4.083102255212146120e-02,9.335656877106411275e-03,9.680847085442926409e-03,9.843311456701170359e-03,1.584117412567138672e-01
-4.574146384285223549e-02,-2.019136613112531564e-01,-3.903611437989876892e-02,7.436055198746453765e-03,4.475591496101198434e-03,2.786669174956503403e-02,1.674441397190093994e-01
-3.757251956520869102e-02,-2.066250051433054513e-01,-4.710173344978660359e-02,4.486086307977953103e-02,1.892225065635380632e-04,-6.979297021075448436e-03,1.823248267173767090e-01
-2.640448833760479508e-02,-2.055137902640097047e-01,-4.730527257170599742e-02,6.996859963339648741e-03,2.876241021512135256e-03,1.679881730862735388e-03,1.701576113700866699e-01
-2.509349919580239341e-02,-1.906274071865668995e-01,-4.866537568943055808e-02,5.849256365715301519e-03,2.800821601145015490e-03,1.220610091491705932e-03,1.555178761482238770e-01
-3.259965593315879151e-02,-2.087334170292584057e-01,-4.694160926627370667e-02,9.652743002900256077e-04,1.324746760501849339e-03,1.236546622013216801e-03,1.694560050964355469e-01
-4.073049932187779859e-02,-2.112263104462812902e-01,-4.181615659526366491e-02,2.419437497806245421e-03,4.298696624156497607e-03,2.301786163374104285e-03,1.702169030904769897e-01
-5.234934173032362165e-02,-2.007690541206385570e-01,-5.218660545624917435e-02,7.078546806740369790e-02,4.005352053712312593e-03,2.031975606599171341e-02,1.958855390548706055e-01
-2.838221751808950311e-02,-1.960548043336280966e-01,-5.033424624839288875e-02,2.369210168149865137e-04,-1.796387387104492975e-03,-1.866363874471861574e-04,1.578771322965621948e-01
-3.443299681735291495e-02,-1.667656223721378506e-01,-5.372116725261238956e-02,1.561448442092720724e-03,-3.893753787553458443e-03,-1.135960074805184494e-03,1.240490749478340149e-01
-3.584306524921047898e-02,-1.618777940298929963e-01,-3.630087423353491050e-02,1.828049204435074765e-02,1.028924870244128653e-02,1.227706543783894932e-02,1.326633989810943604e-01
-4.348064183476622185e-02,-1.455079281824292747e-01,-5.444780725630116169e-02,1.961831085919817520e-03,-5.138117833601594207e-03,-6.076112253701632451e-03,9.804284572601318359e-02
-4.991186693945746933e-02,-1.561596142807381571e-01,-4.363560686732036176e-02,1.258364992825711411e-02,3.787189314390902468e-03,6.186283394284964460e-02,1.548997014760971069e-01
-4.912694667814063165e-02,-6.558544915312826407e-02,-4.115151246228392762e-02,-2.384961424368443189e-02,4.544077472835849891e-04,4.882292714114343235e-02,9.655992686748504639e-02
-3.457134652090461391e-02,-5.005638075849086488e-02,-3.901766779545353531e-02,-1.146228065929377239e-02,-6.572750042569730326e-03,1.656586588540751720e-02,3.921406716108322144e-02
-5.505882065732300990e-02,-1.193633998078313524e-01,-5.655593967588805338e-02,-3.168895562188468740e-02,8.927285556257211815e-04,-8.012551425204940403e-03,8.513878285884857178e-02
-4.184023212408528869e-02,-1.383003260354361552e-01,-5.381179808926243868e-02,-1.635846317962906526e-02,4.345029658082196627e-05,-1.588148109948465947e-02,9.926004707813262939e-02
-4.565693708987345750e-02,-2.285806898843175672e-01,-4.918156359656237347e-02,-1.642867637313904236e-03,-1.181075539489505333e-03,4.200991871455249382e-03,1.813670694828033447e-01
-5.538587482120677086e-02,-1.326119526283053851e-01,-3.477014582385087871e-02,-9.309216518777516103e-03,-3.526559709213909679e-03,2.943852973487082886e-02,1.042982414364814758e-01
-4.649612373293436629e-02,-1.008326882997614971e-01,-5.289452582704252948e-02,2.184516299317188631e-02,3.759268637108421213e-03,2.346986336093689895e-02,7.597544044256210327e-02
-3.953852420428433101e-02,-1.553824215225962369e-01,-4.303698831035975003e-02,-3.172643627980131775e-02,-1.205417653326920635e-03,-5.346054258362390593e-02,1.569232940673828125e-01
-5.320844476036296067e-02,-9.771350802655488776e-02,-4.758208071031981568e-02,4.497871884824429511e-03,-6.202852422805507637e-03,-7.656286004693464362e-03,5.113445967435836792e-02
-3.147730430840076088e-02,-1.871620519963302920e-01,-5.142473896140317691e-02,-7.327610274298196162e-03,1.430692154515730407e-03,-2.995317003234329849e-03,1.473915427923202515e-01
-4.798732517015200094e-02,-2.818399492227000591e-01,-5.226295987637026574e-02,5.440795432509334256e-02,8.523117640104178189e-03,2.643043577311657288e-02,2.547543346881866455e-01
-5.183468063882349514e-02,-2.393079792728414756e-01,-4.615827385371529257e-02,4.131116439691426821e-04,6.471161626174565988e-04,-5.386070178260756597e-03,1.906080543994903564e-01
-3.387005937493216268e-02,-2.113590148572458971e-01,-4.541121639226735479e-02,7.925427041992053794e-04,1.274808263905467245e-03,6.717303703276280950e-04,1.720325946807861328e-01
-3.832878335906736433e-02,-2.122675764369134077e-01,-3.880725643644710593e-02,-1.272086473105904297e-04,-4.796122288878534694e-04,-3.471742879154327130e-04,1.737032234668731689e-01
-4.446180258481005620e-02,-2.132340220645620454e-01,-4.433178890231227742e-02,3.125424802792587092e-03,-1.781165216497211136e-04,-1.158040483671470651e-03,1.689362227916717529e-01
-4.430663089620860695e-02,-2.178062432311014818e-01,-4.637183450170824506e-02,-7.823148121029169146e-04,4.575603180775516328e-04,-1.691064350877836703e-03,1.725082993507385254e-01
-3.329631211572266214e-02,-2.108470458401745518e-01,-4.752175308418053051e-02,4.228885456091540556e-04,5.218410729428001223e-04,-1.190653318957722497e-03,1.708990782499313354e-01
-4.051985568413504768e-02,-1.618946260941199755e-01,-4.099315048352018126e-02,6.104262310257470292e-02,-4.792084463973575112e-04,2.665748382668279431e-02,1.672894805669784546e-01
-4.748895310328057895e-02,-2.093410626552264509e-01,-3.156820258076742380e-02,1.627044444131376527e-02,7.468007593637643847e-03,2.455480468269644750e-02,1.783162802457809448e-01
-3.622261668116209116e-02,-2.129707889926702458e-01,-4.471696848432221011e-02,5.390757284056784532e-03,-7.633594975224232372e-04,-1.343703985655800813e-03,1.729307770729064941e-01
-5.076150097508654035e-02,-1.144558598057965060e-01,-5.902282360962690655e-02,-2.174222156838834252e-04,-2.112965744440382671e-03,-1.072172090030673076e-02,6.290805339813232422e-02
-2.751683263882956365e-02,-2.077250298104119652e-01,-4.934119390696675711e-02,-4.262627796267904647e-03,1.417982698017411156e-04,-1.216808148816588605e-03,1.705209016799926758e-01
-2.899174157170454624e-02,-2.093689402170123282e-01,-4.674077696609910126e-02,1.112841642667700815e-04,1.655891458189711262e-03,4.625493093910011330e-04,1.722159832715988159e-01
-4.105439214508058154e-02,-1.113005136871556000e-01,-4.406928823011771468e-02,-3.192379669373165973e-02,-1.275160169122378654e-03,-1.183668627920505395e-02,9.063336998224258423e-02
-4.606146930064604350e-02,-1.554961468755734488e-01,-5.833656248677696055e-02,-3.781075637149637625e-02,1.485976106433694070e-03,-2.510913805853320739e-03,1.228731200098991394e-01
-3.294012694905587568e-02,-2.112018821715502537e-01,-4.519705526529916445e-02,4.990025963011895417e-04,4.191551735288395124e-04,6.148499837800608814e-04,1.724672466516494751e-01
-2.820184413042829685e-02,-2.116971270602718280e-01,-4.866157088555201488e-02,-1.218894316705671985e-03,4.702658655363286828e-04,3.847035363549169344e-04,1.741850227117538452e-01
-3.019814049380670218e-02,-2.072130895833732556e-01,-4.656211520311706598e-02,-1.697440915108378544e-03,2.399501294340920625e-03,1.263474950914543666e-04,1.695033013820648193e-01
-3.742772605704705602e-02,-8.929509814804097168e-02,-4.112241946304171641e-02,-3.121348270109587653e-02,-4.227704772180233481e-03,-2.507370165743891613e-02,8.587652444839477539e-02
-4.287529285612284857e-02,-2.099591736808803233e-01,-3.467983839328997453e-02,1.365133518022090266e-04,8.335821119229467431e-04,1.313563494579306126e-03,1.713500320911407471e-01
-6.300263021069207880e-02,-3.352180994597963037e-01,-5.358213822967873574e-02,2.389878743265727579e-02,8.223122978691953244e-03,2.948278482691312624e-02,2.850937247276306152e-01
-4.427935396046133593e-02,-2.116751145586172056e-01,-3.949686753232516112e-02,-3.716936068875926233e-04,5.136194638941033504e-04,1.642457051696343548e-03,1.698648929595947266e-01
-4.500047481857531034e-02,-2.112513248186228543e-01,-4.370383345664941716e-02,-1.007607608481175809e-03,-1.246129000053033216e-04,1.724956041100963056e-04,1.669124811887741089e-01
-3.439748351368716872e-02,-2.031113810752357973e-01,-3.595780835002856946e-02,-1.688406851800443103e-04,4.552688128967046291e-03,-5.597893985656623430e-04,1.681272536516189575e-01
-4.566562590208701755e-02,-1.440647830141065233e-01,-4.275616881356322785e-02,8.727924461139079798e-03,6.931862611238204588e-03,1.721617825491390894e-03,1.017778068780899048e-01
-4.303010180645801264e-02,-2.434505306941747160e-01,-4.548506804572620410e-02,2.502163469545702970e-02,4.585219675305394690e-03,3.451488611722820093e-02,2.125970423221588135e-01
-3.880784745128933177e-02,-1.902499120544809408e-01,-3.995939089658637894e-02,7.154856595207512854e-03,7.833079479523327032e-03,4.814634328406586575e-03,1.522130817174911499e-01
-4.755092099007614259e-02,-2.104346781753816953e-01,-4.802283489943968281e-02,1.311056727306836114e-05,-1.482312936397997940e-03,3.497028890057578103e-04,1.626697033643722534e-01
-3.184569675970488900e-02,-2.102843672416212506e-01,-4.739391276841101175e-02,8.870457048515814624e-03,3.836340804245364899e-03,1.323039429638703116e-03,1.720266342163085938e-01
-4.868465581431158373e-02,-2.424145554298809402e-01,-4.744256172522276493e-02,5.157141647873757749e-03,4.986387275903701472e-04,7.658017328117197944e-03,1.950126141309738159e-01
-5.259730401906029251e-02,-1.904197385534346920e-01,-2.520981869894345362e-02,4.950318744900183195e-04,-2.706952263738513550e-04,6.524976168181424556e-03,1.537803262472152710e-01
-5.180279414183447395e-02,-2.432032963201583575e-01,-5.076874203784509376e-02,1.907407916651870233e-02,8.623701590467619787e-04,7.506808646710810828e-02,2.341633737087249756e-01
-4.602328379169319528e-02,-2.556237462716758335e-01,-5.837298401480640192e-02,-2.592298986356600821e-03,-2.274671708421872895e-04,3.081010354797213656e-03,2.038262933492660522e-01
-3.927026703571591393e-02,-2.040628378402817300e-01,-3.550137659957378067e-02,2.845012447209750196e-03,6.099182260115109007e-03,2.217775866841266257e-03,1.671601533889770508e-01
-3.647188904371083396e-02,-2.091107555701878506e-01,-3.617212911005317222e-02,-8.415192648711418834e-05,1.317510466480984301e-03,-4.442364844891389388e-07,1.728040724992752075e-01
-4.320447296095138168e-02,-2.121936051761622588e-01,-4.583958906690252522e-02,-1.456196461904219071e-04,2.131477170913067013e-04,-1.220509191710248851e-03,1.677010208368301392e-01
-4.865332248375837942e-02,-2.125164928591956603e-01,-4.850437546640695013e-02,-4.570734603111137762e-04,-1.673310207170098469e-03,1.713770338955785462e-04,1.639654934406280518e-01
-4.865658742419141924e-02,-2.135083925531676696e-01,-2.909317530923401229e-02,-2.338439443584023128e-03,-1.109506984938484191e-03,4.215118550191798708e-03,1.756624877452850342e-01
-4.596872734500064700e-02,-1.589346748676125354e-01,-4.822330706848658444e-02,3.621080770010229322e-02,1.539351266717902539e-03,4.725909433721833114e-02,1.521602421998977661e-01
-4.386104534270800909e-02,-1.983147627392853884e-01,-2.710619187551575882e-02,2.971890103951017751e-04,-2.187731850232142554e-03,3.581092710481295020e-03,1.636386960744857788e-01
-4.169538057844698886e-02,-2.227699095977372368e-01,-5.327991351760932859e-02,-7.191984714148462812e-03,6.308540055783649469e-04,3.543835021418913905e-03,1.761208921670913696e-01
-4.890897314827480358e-02,-2.096087753361002837e-01,-4.940398973277961014e-02,-2.016415247914193215e-04,9.014502936746512311e-05,-2.105912942026800030e-04,1.604537367820739746e-01
-5.015445864871639209e-02,-2.100410367622955743e-01,-4.959095719373012717e-02,-9.565134917131364435e-05,1.038504930958199842e-03,-1.491683124849692212e-04,1.601794660091400146e-01
-4.625641684053186098e-02,-2.132613828794825417e-01,-5.395500733182242298e-02,-2.051360219391643210e-04,7.328626492421365379e-04,3.688376727362472490e-04,1.632984131574630737e-01
-4.913478327654241529e-02,-2.096916857012497970e-01,-4.897770152525329074e-02,-1.201426421874654120e-04,1.152975310066978317e-04,-8.192938703514433861e-05,1.606358289718627930e-01
-4.541274692641923683e-02,-2.101562046988692811e-01,-4.672491707675776457e-02,-1.641970167231950745e-02,2.578407575174915516e-03,2.787949851681214772e-03,1.666674464941024780e-01
-4.395767792130661489e-02,-2.437291770186381934e-01,-4.699782673926050647e-02,2.566885021263855347e-04,-7.969269972492411865e-04,2.576638596533989325e-03,1.983244270086288452e-01
-4.683272564419928979e-02,-2.095089968812097192e-01,-4.909424690326585905e-02,4.889920761831450212e-04,2.943085766289705533e-04,-2.500858243378397848e-04,1.615609824657440186e-01
-3.810833886410355115e-02,-1.856108916017979726e-01,-4.154370410306168493e-02,9.505646019839610397e-03,9.065438510745288392e-03,1.011727095772938997e-02,1.486162096261978149e-01
-4.086252950039083454e-02,-1.766888021672318176e-01,-5.023343899096482934e-02,2.848308627749408448e-02,-1.455948960516168867e-03,6.873511068492429987e-02,1.840585172176361084e-01
-5.008246750414802051e-02,-2.166851555632661186e-01,-3.809927287775048688e-02,-4.213760434195478605e-03,-3.254103900109435281e-03,9.569432789913978957e-03,1.739432215690612793e-01
-4.827278886045279632e-02,-2.026670717605429106e-01,-2.900270055638573541e-02,-4.797321566167020608e-03,-4.594720516321751033e-03,9.494512877325935948e-03,1.660931557416915894e-01
-5.690703715602232066e-02,-1.977562058260203814e-01,-3.618293354054790550e-02,5.860826973004678100e-03,1.498652936432569348e-03,4.256176157894092649e-02,1.695029437541961670e-01
-3.941820511561793666e-02,-2.084368618907309623e-01,-4.093807896594392481e-02,3.680148254592202953e-04,2.064140524902287332e-03,4.514378694309993168e-04,1.683048754930496216e-01
-5.536162591815192713e-02,-1.922438596292965762e-01,-3.045558286019973970e-02,3.065589058078174289e-03,2.058132385361812183e-03,8.690815121380706873e-03,1.517687141895294189e-01
-3.036339656886707927e-02,-2.105289682119132477e-01,-4.745835038951829593e-02,-2.036145271880068428e-03,-7.613996874354459756e-04,-2.348200063363749246e-04,1.722971051931381226e-01
-3.211210568035698792e-02,-4.397034896834896289e-02,-3.615585040197233369e-02,1.001098300658382484e-02,1.195978759466535986e-03,2.868463463394031049e-02,5.368792638182640076e-02
-3.225263889427666675e-02,-2.087797634876551178e-01,-4.361322640391334521e-02,-5.817119923644674569e-04,-8.877964232562117041e-04,-4.160676917092973699e-04,1.711412817239761353e-01
-4.829559613645216520e-02,-1.703538280375853087e-01,-3.305934348667739775e-02,-3.632652898711908381e-03,-5.185092578566906710e-03,9.615313430607454540e-04,1.308169811964035034e-01
-4.970785483946543737e-02,-1.813476146285949997e-01,-3.013116645698567936e-02,-3.373845146103037537e-03,-5.010763645901530720e-03,1.142510338370546219e-02,1.441888213157653809e-01
-4.363935071652202957e-02,-1.959175834297347540e-01,-3.280412428140498660e-02,-1.338332973920140778e-02,-1.023552048579979071e-02,1.257314697527385505e-02,1.621170043945312500e-01
-4.293186150640709853e-02,-2.055381985094550390e-01,-3.099596164578367896e-02,-8.235430848803477989e-04,-8.966856137883428895e-04,3.814216963980162451e-04,1.689053624868392944e-01
-4.643868563774151276e-02,-2.139675394194846259e-01,-4.649907995587596043e-02,-1.760015332617800680e-03,2.674117052603338079e-04,-9.848521531155632336e-04,1.675357222557067871e-01
-4.416044471091565282e-02,-2.152676593420991824e-01,-4.679430439317550788e-02,1.217553662958770037e-03,-7.207920338571161597e-04,-2.634720330631537891e-03,1.698845922946929932e-01
-5.484956238340168294e-02,-2.184778911084315767e-01,-4.581765611797590509e-02,-7.394636657526933513e-03,1.047469869653377180e-03,-2.464548417805540598e-03,1.688763946294784546e-01
-4.369733230674154034e-02,-1.877445963516046201e-01,-2.990077467207765544e-02,-1.645707012808658720e-02,-9.901001879205471867e-03,3.060779593172157503e-02,1.638426780700683594e-01
-4.107046021701903082e-02,-2.111512985115299723e-01,-3.396910340503863507e-02,2.577617692367095551e-04,-1.686804038926546963e-03,-7.766000078588619019e-04,1.737707406282424927e-01
-4.944358640409427658e-02,-2.117519088412176120e-01,-3.071853031892203545e-02,-5.090332883666124145e-03,-4.483617505724995372e-03,1.048891969826181228e-02,1.737870723009109497e-01
-2.906024357137097780e-02,-2.066588626237753634e-01,-4.663684379159780541e-02,-8.331209729023134189e-04,-9.033249000574594982e-04,-5.205274396339945858e-04,1.695109754800796509e-01
-4.306484693441884476e-02,-5.140805953059002925e-02,-3.811197409293544391e-02,-1.918728651715524702e-02,-7.763905250068887237e-03,1.995191645811519518e-02,5.113697797060012817e-02
-4.456741620210774579e-02,-2.154363126618941693e-01,-4.586243105915138729e-02,9.560219416346085438e-04,-7.356186673436608580e-04,-1.393405197002305432e-03,1.702550053596496582e-01
-3.986798985164465708e-02,-2.032204476412947380e-01,-4.911081490527442750e-02,-2.935130048561191210e-02,-5.825690683519197527e-03,4.153826344844548969e-03,1.673251092433929443e-01
-5.253912131574840771e-02,-1.869234195592877623e-01,-3.923965745587332243e-02,-1.148699466923078574e-02,-7.503011388400731251e-03,3.052936277011748106e-02,1.529186666011810303e-01
-4.631876758805832800e-02,-2.142244124283145812e-01,-4.581059409040826730e-02,-3.761408078580105469e-03,4.461476244677903941e-04,-1.990143259819607442e-03,1.683235317468643188e-01
-5.300890826973841952e-02,-2.136727618711948828e-01,-4.674379319627627177e-02,-3.413756826051773420e-04,4.187298679525817773e-04,-1.118020191445930539e-04,1.638890355825424194e-01
-4.613547425132778768e-02,-2.416292906330069212e-01,-5.629518332152865651e-02,-5.178978503442377077e-03,1.220065184650033323e-03,3.833372633155603722e-03,1.909552514553070068e-01
-4.163263986029179520e-02,-2.120422638233546153e-01,-3.934379055967336669e-02,-5.778979625593147658e-04,-2.697368272812999089e-04,3.765487833409621242e-04,1.715703010559082031e-01
-4.532419421417951955e-02,-2.172246630460538397e-01,-4.947525574848797569e-02,-6.593410911381574879e-04,-9.207646557193753046e-04,2.854118250459101915e-03,1.699462234973907471e-01
-4.559078974727982791e-02,-2.157832246101585583e-01,-5.320418261434024104e-02,1.282903092598931295e-03,-1.836719629647389027e-03,-1.321735815424403227e-03,1.665772646665573120e-01
-4.515673721251038664e-02,-2.481332375042598626e-01,-3.484612045049577389e-02,-9.031680780956719695e-03,-2.543876455457944399e-03,-1.998114993676593752e-03,2.089848965406417847e-01
-5.435302900312513619e-02,-2.616932034574589450e-01,-4.447083588594255565e-02,-2.080012580065731045e-02,-6.673994489860031812e-03,-3.742250550610226600e-02,2.253208309412002563e-01
-4.526472053980828275e-02,-2.164687794999202719e-01,-4.540360950380854799e-02,-1.900939130131981778e-05,1.146236744412940274e-03,-2.016978289407633383e-04,1.711465269327163696e-01
-5.007937986473272318e-02,-2.410272470097329089e-01,-4.928289099743635160e-02,-2.406669332242919457e-02,2.971429171558046672e-04,-2.435388258622335142e-02,2.003273069858551025e-01
-5.221245528428846566e-02,-2.122725834698813152e-01,-4.821227525681217457e-02,-7.756134795144944928e-04,1.312593074841140583e-03,2.058099630028554583e-04,1.621191352605819702e-01
-4.886758814809456786e-02,-2.185457145436152659e-01,-4.804968062068391138e-02,9.417291948804125705e-04,6.578533460639135466e-04,1.292800532629870096e-03,1.701149344444274902e-01
-4.970549361944517214e-02,-2.100561815279072264e-01,-4.878072973631696757e-02,-1.367376092202427776e-04,9.189824732121408503e-04,-3.968540651490132785e-04,1.608245819807052612e-01
-4.876252831497544793e-02,-2.120973319251996947e-01,-5.091136237223725658e-02,9.604552297974070472e-04,2.066015718582929310e-03,-1.138834455140856888e-03,1.623310148715972900e-01
-4.520918198010466516e-02,-2.092089050941812189e-01,-3.032146455839354604e-02,-8.298501067849647732e-05,-1.487561124955885574e-03,-7.627956758817495790e-04,1.719521433115005493e-01
-5.286817937305529624e-02,-2.114919084996679799e-01,-6.518145644425102359e-02,1.068322188560519651e-02,5.845453656593421147e-04,-6.897020299412759403e-02,1.948692202568054199e-01
-4.413196006925355908e-02,-2.092731634489993775e-01,-3.169964161610495934e-02,-1.621711376006088209e-04,-1.262263844381565983e-03,-6.897399997028786159e-04,1.717135757207870483e-01
-4.179121376554683492e-02,-2.106829733357702128e-01,-3.368793333106712140e-02,1.153670133055708600e-04,-1.378775265081342996e-03,-1.257341026130987763e-04,1.731024533510208130e-01
-6.064064310705743338e-02,-1.745091146740056776e-01,-3.983949714067218373e-02,4.247968674336629474e-03,-1.058644125894190290e-02,-3.434655262935704112e-02,1.403450071811676025e-01
-4.431740945639373042e-02,-2.104916097808109399e-01,-3.168848280309276289e-02,6.794587874243067198e-04,-1.880572800347932519e-03,-2.281557663779697036e-03,1.729149073362350464e-01
-4.581205266933700837e-02,-2.132082677305977281e-01,-3.717369132331011655e-02,-3.814116998892234109e-04,-1.185391661486409100e-03,-2.496787947175687153e-03,1.719461977481842041e-01
-4.107620358481386957e-02,-1.227691740541930199e-01,-4.474287637751946101e-02,-2.923650705378036049e-02,1.967338799546990147e-03,-2.511060625026401844e-02,1.041883081197738647e-01
-3.481529984811797956e-02,-2.137225631067704024e-01,-4.314785365138788104e-02,-7.574511046725861813e-03,5.554525091547322067e-03,-2.129982974277919508e-03,1.756837368011474609e-01
-4.506811454264058464e-02,-2.135623331207591735e-01,-4.387666047304344952e-02,2.809414343178175425e-04,2.214611954515786679e-04,5.232719974796372570e-04,1.690966635942459106e-01
-4.351255442955407476e-02,-2.134785881851594402e-01,-4.522589117510347062e-02,-4.992187212678093162e-04,2.861750109173123594e-04,1.609746223183543485e-03,1.691417992115020752e-01
-4.801359562311101337e-02,-2.109922126906322859e-01,-4.588102668965788472e-02,1.610665403977047942e-04,-2.295072491396087067e-04,1.351565365890484028e-03,1.640727221965789795e-01
-5.028278591850350587e-02,-2.382183642191684769e-01,-3.794158286517429479e-02,-1.453038586296235418e-02,2.274530629369226741e-03,-3.125890535359281130e-02,2.034003734588623047e-01
-3.604929103016123182e-02,-1.973407373025261036e-01,-3.960695615754904891e-02,-1.532990244735991762e-02,7.615263610960910923e-03,-2.048854243341413292e-02,1.661087125539779663e-01
-5.358485673224683971e-02,-1.492936390639196809e-01,-4.812757077657432714e-02,-1.163648810873634844e-02,3.577128153252217939e-03,-3.724541853263256107e-04,1.007833853363990784e-01
-4.834548972440106535e-02,-2.111031815008890256e-01,-4.719860281744426428e-02,-5.668608517666800595e-04,-1.300387336731639604e-04,-5.357015446067420542e-04,1.633398979902267456e-01
-4.488957739295752064e-02,-2.143673960093836206e-01,-4.635762726133805384e-02,1.605184546023807933e-03,-1.839382952698203938e-04,1.557510013903032385e-03,1.687933504581451416e-01
-4.381606078938287546e-02,-2.123436611963864240e-01,-3.947279191958716349e-02,-4.920813019324984331e-04,-2.418242155272990346e-03,-2.093383879285126356e-03,1.708326488733291626e-01
-4.616452751299700979e-02,-2.154964693511162155e-01,-3.763407661877662264e-02,-2.451575610497568622e-04,-2.914211570193311180e-04,4.365385438667272213e-05,1.737555563449859619e-01
-4.346213074759099071e-02,-2.156896286699746534e-01,-4.490109537231245368e-02,-4.139169211542087501e-03,-1.264302149534933398e-03,9.219812398244417451e-03,1.724174022674560547e-01
-4.677115105265457207e-02,-2.077127409777836664e-01,-3.052613994481287452e-02,-1.525581903438606290e-03,-1.623009828203805793e-03,1.347529823088889668e-03,1.697083562612533569e-01
-4.538336924164065866e-02,-2.147705887306444184e-01,-3.675166898289450312e-02,-3.911289027986075348e-03,-2.624666755896284259e-03,5.295572641279843590e-03,1.742966622114181519e-01
-4.930251917287081787e-02,-2.096630807409004260e-01,-2.888163897008015624e-02,2.052798478759024876e-04,-5.004202276529684263e-04,5.137852139139002447e-03,1.717186570167541504e-01
-3.972642981272672680e-02,-2.123167647587729800e-01,-4.119580874654038549e-02,2.422960424892803765e-04,-1.119842091791607995e-04,-8.037110049350681181e-04,1.718666106462478638e-01
-4.125441537525769559e-02,-2.121357225786608125e-01,-4.461934079247886070e-02,-1.647689901239364583e-04,-8.346332999043832180e-04,2.574938457032668795e-04,1.692309379577636719e-01
-3.753973000025843942e-02,-2.179186710443811181e-01,-4.824428134022731157e-02,-6.642082156446399779e-03,-4.080335457798121498e-03,1.815885772132840676e-03,1.758194118738174438e-01
-3.944885576818447925e-02,-1.753938135003222654e-01,-4.663539922470028021e-02,-6.014924079912940466e-03,6.801380300846161450e-03,-1.950383984842744660e-04,1.334283798933029175e-01
-4.486374772877389089e-02,-1.582957391405415137e-01,-4.903283778895184408e-02,-1.217888798847404849e-02,7.726756450374932649e-04,-1.133296153392514402e-03,1.134103611111640930e-01
-5.766615826180190862e-02,-1.233668458347758068e-01,-5.142022694175725495e-02,-4.716928913644391486e-03,9.029068585448185493e-04,-6.791896112865719766e-03,7.052331417798995972e-02
-3.797850891219544528e-02,-2.116541166093644788e-01,-4.032931883852541172e-02,6.966912537100794088e-05,3.727678941426348664e-03,-3.885927537354113745e-04,1.726343482732772827e-01
-5.602303299503050976e-02,-1.134492489427181283e-01,-5.769809221988900921e-02,-8.403332603505217491e-03,-2.400308195304268286e-03,1.212287678949788578e-03,5.863382294774055481e-02
-5.431869561317159700e-02,-1.085336434908676789e-01,-4.618146840993050256e-02,-2.240703858024685187e-04,-2.295655988018280433e-04,-1.172819369529124779e-02,6.212563812732696533e-02
-5.128962635124185987e-02,-1.562578070566609523e-01,-5.573202576574835115e-02,-2.532929869911806214e-02,-8.298509820270194570e-03,-5.186149422244950430e-02,1.441246122121810913e-01
-4.143066387214441870e-02,-1.542223477144645249e-01,-4.950218813052077726e-02,-1.428607276863961585e-02,2.298286386055990206e-03,-1.357221013906083525e-02,1.142691969871520996e-01
-5.418208737716653789e-02,-1.505713864536774582e-01,-4.016183971919322360e-02,1.675220062063434087e-04,1.617752312913488168e-03,-1.666046593707175283e-02,1.080718040466308594e-01
-4.234326651737616021e-02,-3.957754171866355308e-02,-2.599311562357594849e-02,-1.306319018567190550e-02,1.030796069803646860e-03,2.024664345305056401e-02,4.443719983100891113e-02
-4.982954102293689347e-02,-7.150873241541971792e-02,-5.266965446577796806e-02,-4.812215075946060967e-03,-1.749805243770882713e-03,-6.005341310966708958e-03,2.456282265484333038e-02
-5.260958596525106001e-02,-1.577968010707141433e-01,-3.648417599048926763e-02,8.913231332266814948e-04,5.146366900617174028e-03,1.402063999327616065e-02,1.170134171843528748e-01
-5.808108293617567086e-02,-1.458585973807738356e-01,-4.313106905307786954e-02,6.933997001915162377e-04,-1.093090664886067331e-03,2.404848363042071460e-03,9.624472260475158691e-02
-3.464043401172214182e-02,-8.066576777817666133e-02,-3.193808705607555087e-02,2.951503904449228124e-02,-4.498187690068338254e-03,1.284855223826082693e-02,7.361643761396408081e-02
-5.042272072153404505e-02,-7.281928851542046610e-02,-4.271458534244967908e-02,9.643799509641228299e-03,5.421642839167683863e-04,3.872201534418894669e-02,7.424103468656539917e-02
-4.910153007470444142e-02,-2.046231104814053015e-01,-4.908545531207916118e-02,-3.063210138540175750e-02,-1.505460138955890762e-03,4.464688668113362541e-02,1.816349923610687256e-01
-3.729186741681096706e-02,-1.176837890458546643e-01,-3.943073054905037178e-02,3.236768004064694004e-02,1.720211888264550158e-03,4.219324887415579206e-02,1.216066479682922363e-01
-2.990991456186950503e-02,-2.032379268026238139e-01,-4.823611155414526952e-02,-1.021651540267931799e-05,-2.158068854049146473e-03,-4.886323733976438119e-06,1.649726629257202148e-01
-2.725731096605327197e-02,-2.006436157591894309e-01,-4.942264280722896697e-02,3.335998825298287784e-03,-1.951921691532849121e-03,-9.629017941803517467e-04,1.635804027318954468e-01
-2.761748971455764423e-02,-2.059901397202430484e-01,-4.735380609951013453e-02,1.402927615163017091e-03,-7.013219063164833180e-04,3.630020563582240416e-04,1.693920940160751343e-01
-3.768492212102702438e-02,-2.017346563455229003e-01,-3.779577343450921112e-02,9.540186963760619032e-03,6.302618999419508372e-03,7.548779270733866134e-03,1.657024770975112915e-01
-4.443526732219590242e-02,-2.109643896998198154e-01,-3.640956119950418401e-02,4.085594907900572657e-04,2.798212034008961454e-03,4.471648937408747790e-03,1.709293723106384277e-01
-4.378027043903518628e-02,-2.099733502746431446e-01,-4.293302949850359013e-02,3.430984517426627139e-04,1.002693165695114994e-03,4.518221862075742605e-04,1.666302680969238281e-01
-4.763889902381829300e-02,-1.949360469040359589e-01,-2.410640457664747771e-02,-3.354661548966530430e-04,-1.327790191750722205e-03,4.124198237690554665e-03,1.605401784181594849e-01
-4.979558584221717432e-02,-2.127353771620966727e-01,-3.453760355857390940e-02,-6.931265529589975861e-03,2.537144531529986549e-03,1.855662253069266521e-02,1.745416820049285889e-01
-4.355019969845182193e-02,-2.036155042455594366e-01,-2.857579538332608027e-02,4.576880775269610846e-03,5.302981893490171621e-03,6.895208879891672436e-03,1.689137518405914307e-01
-3.959673491075066387e-02,-2.080107759540855417e-01,-3.413304546941929585e-02,6.762018397496800297e-04,1.085017760211443028e-03,3.865474443752730670e-04,1.712269037961959839e-01
-4.255465172446698530e-02,-2.332822301882395699e-01,-3.588984719279178504e-02,5.165082053252222603e-03,7.790140744294461218e-03,2.338003028842722611e-02,1.989838182926177979e-01
-5.610154783894723968e-02,-2.118002840338720216e-01,-3.070251393780026872e-02,-1.920142743538518632e-03,-1.022566400732631900e-03,1.316905136266240811e-02,1.713950783014297485e-01
-4.355812609897470600e-02,-2.216341572596864096e-01,-5.189367053332284013e-02,-4.110005740015354458e-03,3.710385575356793747e-04,6.129004731568244747e-04,1.742079555988311768e-01
-4.762939478625961148e-02,-2.127540984194495610e-01,-4.642917597326937096e-02,-6.696909123053164901e-04,-1.424101252366594627e-04,-6.286042048364638181e-04,1.657358855009078979e-01
-5.054885809562105481e-02,-2.518988688703246437e-01,-5.620674081842837178e-02,1.866537970524088236e-02,5.650531072799275592e-03,-5.200510415675003301e-02,2.206562757492065430e-01
-6.406055696670917565e-02,-3.517967836782628366e-01,-5.285120447544107425e-02,-1.427391965324326627e-02,-4.962680827487214730e-03,-3.343620795449070426e-02,3.003034889698028564e-01
-4.814397024274198744e-02,-2.092378409563259711e-01,-2.963756879806946076e-02,2.873209645559855188e-04,1.325419748422575206e-03,-1.549642665734094751e-03,1.711365282535552979e-01
-3.032882809267454377e-02,-1.649611438560995014e-01,-4.900048957850498821e-02,2.089605827543294936e-02,-7.401765149085890588e-03,-1.547307072378780249e-02,1.347339004278182983e-01
-4.418130943746773065e-02,-2.165611623827702337e-01,-5.532039650165591904e-02,1.381101859160568457e-04,2.861323623553295838e-04,-1.832965863917954954e-03,1.671200841665267944e-01
-4.824700266946803373e-02,-2.296856790771083512e-01,-5.716801893383575972e-02,2.978857463936650067e-03,3.362492384220545048e-03,-2.192030884865858731e-03,1.773581504821777344e-01
-4.315336017658047418e-02,-2.213605424988834003e-01,-4.243610258837420685e-02,1.187163401269073718e-03,-3.060011215394520430e-03,-4.727624713337333362e-03,1.788449138402938843e-01
-3.251653158966301416e-02,-2.053415918577953247e-01,-4.177529445230725169e-02,3.802457061310413316e-03,-2.929306190762699050e-03,-2.116782017192146790e-03,1.686316728591918945e-01
-4.740281977864257978e-02,-2.101462793133498097e-01,-3.532784148367986571e-02,-2.614135499773688758e-04,-2.545927177984358067e-04,-3.534258566213671952e-04,1.691068857908248901e-01
-5.323644655260854203e-02,-2.308697719864383213e-01,-5.849779085790814126e-02,2.526593278684087507e-02,8.205312301903590648e-04,-4.462042762029704013e-02,1.963078230619430542e-01
-3.572166717072290665e-02,-2.309549793806586204e-01,-3.416177507783835221e-02,1.195710409616031027e-02,7.379162233988269606e-03,1.321659693304778720e-02,1.988449990749359131e-01
-4.497382379323014434e-02,-2.515741995763559613e-01,-5.073934192118415010e-02,-7.479006389844053589e-03,8.179395070119011620e-05,-4.769511892747967802e-02,2.202682346105575562e-01
-4.337209532114499194e-02,-2.274161373763374794e-01,-4.477004027548280030e-02,-1.169476642384838921e-02,2.664699549829842654e-03,-1.171473691071690804e-02,1.856345534324645996e-01
-4.699553663775729584e-02,-2.225900142355633216e-01,-4.132264518730971448e-02,4.517108224297136133e-03,3.239980448607743344e-03,4.094667006826099333e-03,1.788986772298812866e-01
-4.621488221598583218e-02,-2.129677372493889442e-01,-4.696267017487206624e-02,1.294667298021895570e-03,-3.791690676253612041e-04,2.759173587725047413e-04,1.663973182439804077e-01
-5.186264919555200192e-02,-2.193776395866499085e-01,-5.669370431853754111e-02,-4.935011982607045294e-02,-2.961134085610047512e-03,-3.892837167935099540e-02,1.978742033243179321e-01
-3.544050228806007452e-02,-2.084518204867584767e-01,-4.310310509220232483e-02,-2.460361796562478257e-06,1.108219860773191137e-03,9.967717851178611605e-04,1.693297922611236572e-01
-3.507482649145694797e-02,-2.089173773285420976e-01,-4.554761623141400512e-02,2.461555940253565907e-04,7.461351564323710555e-04,3.897047530934497376e-04,1.688567548990249634e-01
-4.431067319986517483e-02,-2.177382275221824148e-01,-5.169856884577085643e-02,-1.815443826309338579e-03,-2.987795027349619652e-03,5.813211809734034584e-04,1.699650436639785767e-01
-4.689847907349094236e-02,-2.132395768672770142e-01,-4.656706660173987739e-02,7.397352033588175694e-04,-5.738204813284159857e-04,-1.354399664022768899e-03,1.665314733982086182e-01
-5.308724682719628829e-02,-2.294286810049991077e-01,-4.657952494874477434e-02,-5.451714497473939377e-05,-2.066715928289895692e-03,2.709338406577370233e-03,1.797806322574615479e-01
-3.440329840220218011e-02,-2.079856921280191784e-01,-3.792651195853523338e-02,5.567778882170930957e-05,7.475642991275706275e-04,4.116674059221006208e-04,1.718542575836181641e-01
-2.544884248856534026e-02,-2.009432847101208508e-01,-4.795239514295234623e-02,6.646400097046047204e-04,-1.898713167291589442e-03,-8.654996198307257421e-05,1.654316335916519165e-01
-2.961214831387740110e-02,-2.059140429745303369e-01,-4.590517711341428331e-02,7.753145051183451923e-04,-1.674985308879443436e-03,-1.042494536402498520e-03,1.687862873077392578e-01
-2.597210596746786504e-02,-2.021325281591910827e-01,-4.663080350339440794e-02,1.779105454088880439e-03,-5.706631857269348160e-04,-2.915039536319040522e-04,1.668255329132080078e-01
-2.907136913651982291e-02,-2.016395116933064890e-01,-4.754450620573502651e-02,1.111093688719006585e-03,-7.946372136316223224e-04,4.320521006818653679e-05,1.641302853822708130e-01
-2.643774510669412436e-02,-2.024969408203835530e-01,-5.281393532418746095e-02,3.137529683791070220e-03,-9.534621174833896344e-04,-1.124504293737673202e-03,1.645746827125549316e-01
-2.642352165098982297e-02,-2.000701566480234117e-01,-4.442458513936464043e-02,2.811219870653164365e-03,-2.657677104212522508e-03,-7.039497492129581039e-04,1.655226647853851318e-01
-2.443070683607462268e-02,-2.011944483403363404e-01,-5.016654379619175930e-02,6.565163445094504818e-04,5.931396807744027257e-05,-4.199071897219590257e-04,1.654098629951477051e-01
-3.520472962409441214e-02,-2.097337319634164088e-01,-4.044255674196051836e-02,1.014972806906048542e-03,1.221546601128175886e-03,4.799280370294301034e-04,1.719939261674880981e-01
-3.438566771469295930e-02,-2.041538793338426305e-01,-3.948048476511468313e-02,3.789649727711644819e-03,4.329408624190761445e-03,1.789453394648306750e-03,1.676042526960372925e-01
-4.406359467790046253e-02,-2.164690977207410771e-01,-4.726266751610102429e-02,-6.022255000499110531e-04,3.813943129249990787e-04,2.898924774545637035e-03,1.709066629409790039e-01
-4.524158569346296149e-02,-2.076223294127326480e-01,-3.126796659128260047e-02,4.010431219701858117e-04,7.777979682704803900e-04,-6.090282396094712182e-04,1.698093712329864502e-01
-4.138828533961334127e-02,-1.839555802812060381e-01,-3.434155990721927953e-02,1.655766434268743370e-02,8.794565381959437017e-03,2.540353957132267596e-02,1.561097204685211182e-01
-3.963285581916779071e-02,-2.092795967342535035e-01,-3.647521906371426620e-02,-6.605401918384292445e-05,6.278240619423266188e-04,1.192502857139223952e-04,1.712510138750076294e-01
-4.071770826646114311e-02,-2.133399389042331951e-01,-4.717054537564773636e-02,2.110974722132004724e-02,6.416233289367754937e-03,2.604916850154812696e-02,1.795054823160171509e-01
-3.433507792249928386e-02,-1.988993747442899251e-01,-4.065999811740877989e-02,2.152235354558194175e-03,6.961636353550544956e-03,2.240441985569388388e-03,1.620336472988128662e-01
-3.687937687178459434e-02,-1.848119186021605354e-01,-4.223011945961722968e-02,3.201498516873647893e-02,1.026147578599860034e-02,1.943652043959619852e-02,1.601412594318389893e-01
-4.266349603870696339e-02,-2.119105488698632689e-01,-4.112668830201796077e-02,1.769009685328860274e-03,2.879633191528990950e-03,2.020337474322823294e-03,1.701573878526687622e-01
-4.470387239488501918e-02,-1.859623687017304683e-01,-3.034714361707569613e-02,8.683918474216151262e-04,6.113377617709083237e-03,3.423611656800104337e-03,1.494577974081039429e-01
-4.622683221495250960e-02,-1.725378642032157073e-01,-3.429900147305697117e-02,1.820212442230503174e-03,6.273541257540346354e-03,1.430920201267928994e-03,1.331822872161865234e-01
-5.152799336273061748e-02,-1.609251363991167083e-01,-3.734490076087675775e-02,2.378490911588784090e-03,3.478039296589126132e-03,1.158034580222184508e-02,1.190632581710815430e-01
-4.143770209573691826e-02,-2.100821281453734424e-01,-4.270627975080643068e-02,4.971769500670820789e-04,-6.900040443868176018e-04,1.358369713111138070e-04,1.680203527212142944e-01
-5.174645343332182068e-02,-1.704025945166776912e-01,-3.319222422824023855e-02,8.943447925963606340e-03,1.996579643825441806e-03,3.944800216773861057e-02,1.467837244272232056e-01
-3.154317593961242228e-02,-2.068967080635166766e-01,-4.928638859433355501e-02,-2.132077368988330793e-02,-2.422283168773319874e-03,1.663320544730760749e-03,1.712950021028518677e-01
-4.163207103298743883e-02,-2.124207098291965856e-01,-3.688798513405801976e-02,6.164594583504662793e-04,-2.943450900108823213e-03,-1.271283280869539654e-03,1.733017116785049438e-01
-3.730899026616536773e-02,-2.333442002494210965e-01,-5.174309529193917706e-02,1.887671415229061345e-02,-3.114560873193227952e-03,-8.127482460684079535e-03,1.926261037588119507e-01
-2.549638660715114469e-02,-1.977959916083461556e-01,-5.156209437651256000e-02,3.523224786396812833e-03,-1.003609566931790500e-03,-1.325879703559425856e-03,1.609999984502792358e-01
-4.265441698652084473e-02,-1.098232223535601099e-01,-4.609443727638764393e-02,5.711015750923682105e-02,7.601756863836999639e-04,4.550091520432045580e-03,1.189158260822296143e-01
-3.747976275282732112e-02,-2.106682400314167092e-01,-4.116601695705821018e-02,-2.646181204903642068e-04,-1.302950120294405715e-03,-6.329209658629119262e-04,1.713940650224685669e-01
-3.704555392013780812e-02,-2.131672695979686116e-01,-4.603330626116437091e-02,1.368188235555192582e-02,6.423043794601874558e-03,6.868727745547471668e-03,1.741941124200820923e-01
-3.551746990249746161e-02,-1.911122427380178568e-01,-3.978973386789947525e-02,8.176973504479722460e-03,7.682188951800042812e-03,5.264339914728822893e-03,1.549968421459197998e-01
-2.506494737809529527e-02,-2.001985098693134513e-01,-4.906067922647501522e-02,1.452956992546643004e-03,-6.702172724315083119e-04,-9.094807352349305006e-04,1.644848436117172241e-01
-2.704494329847749456e-02,-2.026774590302208301e-01,-4.867562281839604710e-02,1.840649606253054894e-03,1.782358745648286984e-03,6.663777445273112287e-04,1.659416854381561279e-01
-3.763392108622413967e-02,-2.207723762817118129e-01,-4.784324495051650583e-02,1.099988967828558796e-02,2.260181936690020682e-03,-1.090076132443775717e-03,1.793211847543716431e-01
-4.440638670509344799e-02,-1.526033820197401081e-01,-4.711174610980222582e-02,1.297076446628265926e-03,6.290815879069779591e-03,5.184714071048818727e-03,1.078221276402473450e-01
-4.799552597662312681e-02,-1.535728069798735218e-01,-3.388300591939372164e-02,-3.704109068385916855e-03,-5.670228364385775273e-03,1.063420501914925584e-02,1.153800785541534424e-01
-6.158992839321431045e-02,-2.628365556187900465e-01,-6.164310411820145275e-02,-5.961340804154946493e-02,-2.316334327676871935e-03,-2.599098196098703628e-02,2.306371033191680908e-01
-3.726231470218924896e-02,-1.748994994868898201e-01,-4.942438830896642155e-02,-1.494847994151628050e-02,-5.708561231210590621e-03,1.077856528189489842e-03,1.348687410354614258e-01
-3.619388004022476568e-02,-1.763157035032176800e-01,-5.731891740280221220e-02,-1.437307276596735614e-02,-3.958940410205160840e-03,4.344679122749078100e-04,1.333703696727752686e-01
-2.911828588090759062e-02,-2.083896956421641966e-01,-4.647660040072047749e-02,-1.100813064339318560e-03,-1.283227216197487495e-03,-1.315744788480347621e-04,1.712785065174102783e-01
-3.631945190642089927e-02,-1.701228831189052493e-01,-5.232558548836517553e-02,-7.343970260160177050e-04,-2.483389900817321687e-04,2.678830709521825074e-04,1.265697330236434937e-01
-5.288654302637048332e-02,-1.904054355013106159e-01,-2.766212596746812913e-02,6.763303733311089175e-04,-1.663650903620776265e-04,6.935717183445215712e-03,1.521917134523391724e-01
-3.883630973373792400e-02,-2.089671956942749653e-01,-3.759316034517462546e-02,7.744673314512299980e-04,-2.079106818136194045e-03,-9.847996234140614369e-04,1.708076149225234985e-01
-3.467983620652936860e-02,-2.113318228465513315e-01,-5.260962325408446993e-02,-2.070085403839240501e-02,-3.788294121928542559e-03,-9.623274990606868473e-03,1.731084138154983521e-01
-4.924442162513073540e-02,-2.285990296594200832e-01,-4.595072677709940295e-02,-1.202896469044135476e-02,3.393521530532486036e-03,-5.220084483649248524e-04,1.823159754276275635e-01
-5.073946515794917900e-02,-1.486251784861067904e-01,-5.090585027305780108e-02,-1.511528202683619544e-02,-8.714234318156155457e-03,1.702387073400252887e-02,1.065270826220512390e-01
-3.221045357607918436e-02,-2.146479496044379487e-01,-5.409549751098166603e-02,-6.991287091724377768e-03,-2.685154702578381901e-04,-3.687080881633495670e-05,1.729641556739807129e-01
-3.141101322513340649e-02,-1.840135991307362551e-01,-4.628908400276759982e-02,-7.351792791673975730e-03,3.881464466782248105e-03,-1.533492689922533398e-03,1.464679986238479614e-01
-2.952861362387488448e-02,-1.854993729225202781e-01,-4.838503114479077161e-02,-4.278111526009556465e-03,2.995931342373978727e-05,-4.816537513333001724e-04,1.476380676031112671e-01
-3.244491155274964456e-02,-1.946605174331393351e-01,-4.548856944146918713e-02,-4.462775937333015447e-03,5.488661825210709375e-03,7.200498570810096835e-05,1.565831899642944336e-01
-3.049549547994113985e-02,-2.063530026452968236e-01,-3.890958126402323941e-02,1.982863111378021896e-03,3.472506698315463384e-03,7.586474682640357171e-04,1.719496399164199829e-01
-2.933267095716656642e-02,-1.820730397123977717e-01,-4.873239791564608347e-02,-8.714724143008778512e-03,-5.311016513247311839e-03,3.444589042029281602e-03,1.452270746231079102e-01
-3.012948957892389729e-02,-1.878280200677734935e-01,-4.768579131584589625e-02,-1.124622722389140295e-02,-6.325014886108658134e-03,4.795623089370756181e-03,1.515813022851943970e-01
-4.320695648865841010e-02,-1.671831568287518444e-01,-4.257571757276455704e-02,-5.425745086091270791e-02,-2.562730819028140924e-03,-3.615207861753734486e-02,1.679910421371459961e-01
-5.493101947742086433e-02,-2.719694788075530667e-01,-5.204591763348190292e-02,-1.632197953825884063e-02,5.711357564451493597e-03,7.014333836345448825e-02,2.517886757850646973e-01
-4.943603759789985674e-02,-2.117746056027121626e-01,-2.846571210511911199e-02,-2.919507384416667340e-03,-1.418731477569039768e-03,3.091600959888691439e-03,1.739486753940582275e-01
-4.358851901520528066e-02,-2.116665572297129760e-01,-3.744931965065532303e-02,-6.165306407662012825e-04,-8.030604052875241075e-04,1.267688225296871758e-03,1.712532490491867065e-01
-4.571110509857980592e-02,-2.087914559695315808e-01,-3.032332548480580481e-02,4.565386489493118076e-04,2.957817020309517694e-04,5.144678123767027628e-03,1.715276092290878296e-01
-5.578480302594528151e-02,-1.600086889313806215e-01,-3.159097722778572009e-02,-4.147229237255042542e-03,-5.568304010533669905e-03,1.601551177118559766e-02,1.219985261559486389e-01
-4.508194664839874216e-02,-2.150117829041893747e-01,-4.428127545654084174e-02,-2.873510398592911408e-04,-2.260260276496399770e-04,2.240529971279883997e-03,1.703769564628601074e-01
-4.907405991514442178e-02,-1.927682190725387157e-01,-4.649553195579258363e-02,-1.738393636865351310e-02,1.734878497236173433e-04,4.865836559142130979e-02,1.703959554433822632e-01
-4.563542756290638047e-02,-2.155279900324538755e-01,-4.297558011781090620e-02,-2.130965451865864894e-03,-1.270499937500692983e-03,8.165575227212496651e-03,1.718747764825820923e-01
-4.459295756841916147e-02,-8.514373327004794156e-02,-4.001969323238954712e-02,-4.456317783083095334e-03,4.358152871794657851e-03,5.293855004766968853e-02,1.018565520644187927e-01
-5.337195456867940835e-02,-1.454586231538303465e-01,-3.175501173622394258e-02,-3.180000734494019092e-03,-4.806762297879690546e-03,2.979859681815805530e-02,1.170529797673225403e-01
-5.301411455919746718e-02,-1.713666252384389299e-01,-3.379983634606368442e-02,7.437015599200085111e-04,2.092121970745691034e-03,1.671814123291012581e-03,1.291268318891525269e-01
-5.649099478548381958e-02,-1.891436537090294967e-01,-3.897074290427563620e-02,8.436121643100266167e-04,-5.825127470472731342e-03,3.792800454438048641e-02,1.569946706295013428e-01
-3.774774225623842711e-02,-1.949680256339948181e-01,-3.284114101005762565e-02,3.195845498083850489e-02,1.025734335254869720e-02,5.291057668485613791e-02,1.931112706661224365e-01
-4.898449013614360886e-02,-2.154376239125884995e-01,-4.755591385019013878e-02,-2.163173820186281744e-03,2.484912690503943665e-03,1.238558625279027403e-03,1.672831177711486816e-01
-5.492550014082066279e-02,-2.021268945444994469e-01,-2.753773618583411908e-02,-1.993276684578395208e-04,-1.768638382202603228e-04,7.724906350627349337e-03,1.631842255592346191e-01
-4.414078532033262336e-02,-1.917664467074967072e-01,-4.985245348735124760e-02,-1.027513984558051270e-02,-8.369229178444624259e-03,8.767475262783900811e-03,1.474457383155822754e-01
-4.284220944775216089e-02,-1.818535760244038568e-01,-3.578128323034361624e-02,-5.730762070343299250e-03,-7.298748168619278130e-03,8.105735759401993742e-04,1.435822993516921997e-01
-3.568332546148891837e-02,-1.984453884925228562e-01,-3.847684398858213645e-02,-3.773375780275867175e-03,-5.100805067066085247e-03,1.484585386448799898e-03,1.617776155471801758e-01
-5.198117915699922154e-02,-1.897776447334674210e-01,-2.760800105918344294e-02,-1.414233061786532037e-03,-1.180461469152549545e-03,1.144324880439534856e-02,1.527857333421707153e-01
-4.669005461440959431e-02,-2.147487527396970686e-01,-4.415013686788595015e-02,-1.641678851963645613e-03,-5.105153050127850083e-04,-5.293438338721944292e-04,1.693716049194335938e-01
-5.034884494350760215e-02,-2.204537676774437904e-01,-4.586945728083712676e-02,-9.020386845121999863e-05,-2.917358144236574177e-04,-1.356900571084454108e-03,1.724050939083099365e-01
-5.174023857190812592e-02,-1.568446598350515253e-01,-3.744130878421944586e-02,2.549368258807262070e-04,5.102657528495849540e-03,9.461602711981141958e-03,1.144602596759796143e-01
-5.329545993096437145e-02,-1.499351298439406399e-01,-3.037019639391448644e-02,5.368044838803326911e-03,3.035929014570437449e-03,4.010273330574808115e-02,1.304571479558944702e-01
-5.042897227327072102e-02,-2.127480683693762087e-01,-3.413727872431239485e-02,-4.539421698667032621e-04,-7.044761467020946950e-04,1.514707503789174559e-03,1.710741072893142700e-01
-4.634327709270925910e-02,-2.197073415048503842e-01,-4.628246298880404896e-02,-9.577280780372667826e-04,5.957198785162202536e-05,-9.490514068627612732e-04,1.734102368354797363e-01
-4.784933985876336365e-02,-2.234257019774884001e-01,-4.035250052334787840e-02,-1.453813910152156226e-02,-2.405017368054179327e-03,3.091296729711480104e-02,1.889915019273757935e-01
-6.283704225250810738e-02,-3.638403210419591804e-01,-5.408247098299409639e-02,-2.353052784208656614e-02,7.046740194528059581e-03,3.572830464912220283e-02,3.145700693130493164e-01
-5.166587028015925259e-02,-2.172696812473017269e-01,-4.124282393311830969e-02,1.738769303662583612e-03,-6.307709362793726153e-04,2.636810552699545007e-02,1.770747154951095581e-01
-4.557826037722565587e-02,-1.862300071938530754e-01,-3.631423882669289338e-02,-1.173085720408905026e-02,-1.250093267134181133e-02,1.737634207448354728e-02,1.515229642391204834e-01
-4.690706206366136721e-02,-1.868619433367004756e-01,-3.081701626853134562e-02,8.851101747467580994e-03,3.554665491553586718e-03,1.566938986913158846e-02,1.520120352506637573e-01
-4.696164124901539005e-02,-2.031292777358991719e-01,-2.719767517638109477e-02,-5.178866599748464285e-04,-7.790674580671737509e-04,1.814152205618063890e-03,1.669668704271316528e-01
-4.811448159095828986e-02,-2.072123728612678684e-01,-3.716544829540446154e-02,-1.427399476214278283e-02,-6.383672858135397768e-03,2.479767455468586193e-02,1.724884212017059326e-01
-4.187179847950153050e-02,-1.244458652616286798e-01,-3.023056832667223026e-02,-1.241038822256492098e-02,1.700263052389262180e-04,3.821396531721736600e-02,1.129527315497398376e-01
-4.587444414683017335e-02,-2.290469162416429449e-01,-5.027556696488802435e-02,-3.718749454003519601e-03,-2.129094054448810256e-03,7.304781439477138483e-03,1.816054135560989380e-01
-5.031770127092986822e-02,-1.742674795653185726e-01,-5.230491737771486571e-02,3.435817141221385318e-02,2.574241816658275842e-03,6.906677399329330669e-02,1.816402226686477661e-01
-4.631175868542002777e-02,-2.140073416920392491e-01,-3.878181159315752941e-02,-2.279216716435814027e-03,-2.468904775826284356e-03,-1.649447565222989870e-05,1.716831922531127930e-01
-4.533584491296267088e-02,-2.113241874641778595e-01,-3.420805771323175148e-02,-3.026879087893958719e-03,-2.829293814201600758e-03,3.050385814590590369e-03,1.720536351203918457e-01
-6.458251983055983414e-02,-3.072248480604205523e-01,-5.191874261525221412e-02,-5.035107853017794372e-02,-4.265970112798664945e-04,4.997456594682893327e-02,2.778615653514862061e-01
-5.035262031343776257e-02,-2.025184254950668783e-01,-2.665147014110863521e-02,-1.028534380461516677e-03,-2.002125461615560879e-03,4.214734698792174661e-03,1.655027866363525391e-01
-5.475346328283967057e-02,-1.421419634363085827e-01,-4.439212409869101872e-02,-6.227246148508895802e-03,-6.165493883521621504e-03,1.419533398649279118e-03,9.426552802324295044e-02
-4.806707166723146046e-02,-1.947347455879592237e-01,-2.914622906141858816e-02,-1.607483531002323537e-03,-4.622292289842137337e-03,2.848458489700320985e-03,1.572916805744171143e-01
-4.905994544122548040e-02,-2.017109012481062558e-01,-2.611537130700945786e-02,-1.362298996123203305e-03,-7.274020821420231495e-04,3.624378216585037379e-03,1.654625087976455688e-01
-4.339113907723943231e-02,-2.082039611736631879e-01,-3.632637596712492978e-02,1.011666118976927743e-03,1.330052378853389169e-03,6.631746427640834848e-04,1.684851199388504028e-01
-4.421510922812139921e-02,-2.114816583922776716e-01,-3.799315708368448952e-02,6.703311141565361422e-04,1.667879873056497039e-03,2.588307873049572067e-03,1.705500781536102295e-01
-4.183933789255218222e-02,-2.116093468573752578e-01,-4.438784604499165787e-02,1.219577011460508712e-04,-1.184148965620445304e-04,-1.100283456745817894e-03,1.685212403535842896e-01
-4.105541067553737655e-02,-2.104678726957735502e-01,-4.123630285228886694e-02,-4.224598045791573423e-04,1.557709933735547001e-04,-2.981526445645690240e-04,1.693246662616729736e-01
-3.886648948108579332e-02,-2.072336014770931878e-01,-3.602809628997216684e-02,1.575324035178472457e-03,2.241671626622994580e-03,2.006682013413718137e-03,1.699059605598449707e-01
-4.333345033526496415e-02,-2.048920634577041655e-01,-2.831840752095697578e-02,6.938993700395417515e-04,1.351878498056626691e-03,4.366944140009208970e-04,1.695875823497772217e-01
-5.178409769737319507e-02,-1.754052484122465283e-01,-2.713116528541418410e-02,1.460258968852856318e-03,2.235209482058423715e-03,6.947289967183845755e-03,1.382163465023040771e-01
-4.678136467529524223e-02,-2.031198768370045260e-01,-2.536204143645474918e-02,8.897199166507136370e-04,1.059240226278243460e-03,1.180943703340322885e-03,1.681044548749923706e-01
-4.779324864132559331e-02,-9.456803197834318109e-02,-5.417124614697171187e-02,3.433826269581984059e-02,-6.479175632414451802e-06,-1.510435209571528339e-04,7.394354045391082764e-02
-4.323258648625766948e-02,-2.024195726824250807e-01,-3.005878360868289439e-02,5.412932415436770778e-04,3.416396920591824923e-03,1.505508829975199915e-03,1.662944257259368896e-01
-3.898939248185150086e-02,-2.093449977062841194e-01,-3.686567719231492041e-02,3.748736555337451931e-04,2.207225361823403863e-03,4.919387080691696272e-04,1.714732944965362549e-01
-4.842326145920762548e-02,-2.106076731670690760e-01,-4.726861544538264737e-02,3.700474751251379394e-04,-4.335456457070873781e-04,6.796483483022005938e-04,1.627720594406127930e-01
-4.637430393314190963e-02,-2.129801383879458831e-01,-4.602340285109351309e-02,2.702314487923144961e-03,-2.018967789851653467e-04,2.793346494909228553e-03,1.669177263975143433e-01
-4.046179794686918102e-02,-2.150579071113676577e-01,-3.832930395305523402e-02,3.479550597115847418e-04,2.892982771592186083e-03,5.450997121880041610e-04,1.757470816373825073e-01
-4.135962743792263169e-02,-2.163923509487537811e-01,-4.295805378428615290e-02,-2.516829062407668384e-03,4.905226008976708643e-03,6.910008760262697450e-04,1.745045930147171021e-01
-4.723100546959117796e-02,-2.118323362656202580e-01,-4.722977671869914296e-02,1.494419039020353874e-03,-2.321533051651818592e-04,1.165980832656762604e-03,1.646351665258407593e-01
-4.715144075605328527e-02,-2.106199906949779432e-01,-4.767231061685391763e-02,8.979211827604686351e-04,-6.824630131522637982e-04,2.435130733868526905e-04,1.632209718227386475e-01
-4.723779714458050533e-02,-8.538849139764367879e-02,-4.439808934465575702e-02,1.694743222457250481e-02,-3.106835459675101434e-03,4.188691974442459304e-02,8.789779245853424072e-02
-4.737041146787646095e-02,-1.356294872103221971e-01,-4.371033254759594533e-02,5.779080055177586439e-02,3.092350784342470099e-03,3.858212873551309513e-02,1.504654586315155029e-01
-3.560129163358842497e-02,-1.887396054924374011e-01,-3.930506830231373511e-02,2.938800579483140602e-04,7.868718058644324012e-03,3.536377929222764109e-03,1.520572155714035034e-01
-2.552518470187205291e-02,-1.924627459650532502e-01,-5.113106402388051253e-02,5.687963147300140708e-03,1.946116566195214316e-03,1.467800147644841456e-03,1.560900807380676270e-01
-4.228711171387358747e-02,-1.550022185370756866e-01,-4.198683931950445564e-02,3.458120759420664492e-02,1.071977390740235826e-02,2.427550713121234480e-02,1.357897371053695679e-01
-3.814717459546008993e-02,-1.706138862996687267e-01,-4.406794308369400143e-02,2.029189721555989950e-02,1.050064553317826138e-02,2.381773993598614025e-02,1.416548937559127808e-01
-5.175615012739281928e-02,-2.461452853301988319e-01,-4.912170392792565565e-02,6.108904915356909437e-02,3.458768523868099593e-04,4.256510633442586733e-02,2.343875467777252197e-01
-5.389413535517997150e-02,-2.126338029703205290e-01,-4.693753459640991055e-02,5.434454587600762989e-04,-2.309766921835322909e-03,7.573079419735058481e-04,1.623871177434921265e-01
-2.790976430108899065e-02,-2.108199282332343105e-01,-4.766095343533077039e-02,-3.648579817088389021e-03,3.101506922647488109e-04,-1.251738998200165823e-03,1.740071028470993042e-01
-4.618146772089542357e-02,-2.369502420287259992e-01,-3.955802869933859600e-02,-1.998590733179319429e-02,-4.295186989713754844e-03,5.326193214249087121e-03,1.975826472043991089e-01
-3.492943744360306468e-02,-2.098070108838301917e-01,-4.461066612940144116e-02,-5.895099979412339857e-04,-1.745280612964600830e-03,1.076867017475310412e-04,1.702735424041748047e-01
-3.211619524886304144e-02,-2.111268899009976496e-01,-4.628262346030171531e-02,-1.261377075281435757e-03,-1.296986578553720963e-03,-8.590636200421443349e-05,1.723932027816772461e-01
-5.264191850794988636e-02,-1.263426931397164388e-01,-4.465297440826471176e-02,-5.653981099589328735e-02,-2.505423854565859594e-03,6.110801737120603178e-04,1.252781748771667480e-01
-3.193363750326903838e-02,-2.005266377897086394e-01,-4.402786370825695350e-02,-5.078867479978788416e-03,-4.638175489922914327e-03,1.488800426429955992e-03,1.633384227752685547e-01
-3.842667381019691797e-02,-2.048521738167567718e-01,-4.429589278388977591e-02,-4.555008238151944493e-03,-3.032786995613113209e-03,-1.805960784379499729e-04,1.638445705175399780e-01
-4.483861933239263742e-02,-1.898835199485923164e-01,-3.238835555545094280e-02,-6.119552163728514578e-03,-7.054800952031405059e-03,6.770456346789912976e-03,1.529642194509506226e-01
-4.520081900313425993e-02,-2.128793479153258117e-01,-3.991433373071248680e-02,-1.123979688855787726e-03,-1.330094156961951664e-03,5.218014131299049743e-03,1.706494837999343872e-01
-4.057354872358969605e-02,-1.945296121643630971e-01,-3.118704364517860261e-02,1.190496084703067739e-02,4.605835612210850555e-03,1.578625908933868269e-02,1.627025753259658813e-01
-4.254453116555827197e-02,-2.047867717541978216e-01,-2.888315402346135208e-02,8.638426434719882318e-04,1.185861397748109915e-03,7.768423448462785132e-05,1.695054769515991211e-01
-4.103673390445330277e-02,-2.062140784636656843e-01,-3.206076211165406059e-02,-6.600503630481393462e-05,7.418370018973667775e-04,1.658321160081154206e-04,1.698484569787979126e-01
-4.638641022513285972e-02,-1.163749285236073405e-01,-3.171153148861165921e-02,1.551413995946187771e-02,4.852767831688007544e-03,2.964322038535015247e-02,9.782480448484420776e-02
-4.377677521916684827e-02,-1.980801115539749802e-01,-3.231360864230117813e-02,9.722117410860597886e-03,7.069144822555873536e-03,1.909065254537851281e-02,1.650350391864776611e-01
-3.670811217796374204e-02,-1.888130437893676405e-01,-3.963020284161845180e-02,1.217614040439053344e-02,8.994305342804320702e-03,1.091105035557730918e-02,1.540928483009338379e-01
-4.552930279917635770e-02,-1.927909183688266137e-01,-3.225480093006047322e-02,2.244451526822657393e-04,5.400483556477060805e-03,-4.201988969429954965e-03,1.547825485467910767e-01
-3.790702168785822779e-02,-1.755583759145322997e-01,-4.001163352204202550e-02,-3.308941662600454331e-02,3.684502087891616167e-04,-1.847447002963657769e-02,1.515640914440155029e-01
-4.251399166101837990e-02,-2.146689876250175710e-01,-4.463013446909426529e-02,-2.248048368658624348e-03,3.187704689231126137e-03,6.861266696981489430e-04,1.712441891431808472e-01
-4.900700998187284413e-02,-2.133661836610434015e-01,-4.547064121314787349e-02,4.661559567779783491e-04,-4.905376029088455523e-04,5.406124477720785238e-04,1.661623567342758179e-01
-4.510900265079811899e-02,-2.125928398152829302e-01,-4.479346407630233756e-02,1.777538653726876291e-04,4.128648209137093881e-04,1.142272234373315626e-03,1.676553040742874146e-01
-3.377761453781161216e-02,-1.955826351323697865e-01,-4.842465217779769182e-02,-8.749722912532953423e-03,3.899089207210608594e-03,-1.941644005381328161e-03,1.559231430292129517e-01
-4.313956390743571567e-02,-1.632120710481341219e-01,-4.888038193542904031e-02,-1.598848606793662475e-02,4.557036639590467814e-03,-9.999332632812071506e-03,1.220254227519035339e-01
-3.738077869863611763e-02,-1.953440292892181795e-01,-4.129506343073423985e-02,8.075933250696273619e-05,8.038944264794057465e-03,-3.974798008320632250e-03,1.568141877651214600e-01
-5.657834801820935122e-02,-2.355210980618323846e-01,-5.712806761310045695e-02,-4.615573192828145710e-02,-1.720725950017099265e-03,-4.894404476298586798e-02,2.133282423019409180e-01
-5.203388126730512653e-02,-1.377457860732413109e-01,-5.060907863988434174e-02,-5.373810375388805155e-02,-8.503328996626837366e-04,1.137728050997197787e-02,1.285477727651596069e-01
-4.446839861410036704e-02,-1.873768228872366715e-01,-2.831915343515898492e-02,-1.203128444139449187e-02,-1.460921214829299236e-02,2.985677530567696150e-02,1.635246276855468750e-01
-3.399697360251473233e-02,-1.141971624761363435e-01,-4.028683365161219582e-02,-1.850254091739611875e-02,-4.681365763914913797e-03,-2.497506608039224557e-02,9.450515359640121460e-02
-4.843271178004412980e-02,-3.284643192821951052e-02,-4.131296001606531154e-02,-7.437943410712480330e-03,-2.678312298773995962e-03,1.639945010421816479e-02,3.430695831775665283e-02
-4.683581475242643011e-02,-1.388110438664600377e-01,-4.514821369181699906e-02,-2.249593091598327266e-02,-1.231087235643445188e-02,1.589103505102805458e-02,1.065267920494079590e-01
-5.256126989385919573e-02,-1.502636363485485294e-01,-6.198053382724751093e-02,-1.600403341009228736e-02,-5.837879451297871281e-03,-1.798885350007180641e-03,9.795166552066802979e-02
-4.713688501742801379e-02,-1.824006673017895541e-01,-4.286688912002344087e-02,-7.423826713145471184e-03,-1.030238811745317479e-02,7.585870426168405886e-03,1.398159265518188477e-01
-4.130106868061514391e-02,-2.131418511337804245e-01,-4.680008661941862519e-02,3.977196312000102520e-03,-5.779351160756937230e-05,-9.444706704220114058e-04,1.693064570426940918e-01
-5.042376682079584282e-02,-2.141445424020489430e-01,-4.605164275067594876e-02,7.074182653359967947e-05,5.583000913419375582e-04,-1.569635236900969650e-04,1.659531295299530029e-01
-5.321424490152201758e-02,-2.160977546645727054e-01,-4.673433455222448379e-02,-4.768473883272705371e-04,7.995170081497467423e-04,-1.994786406634379075e-03,1.662619411945343018e-01
-5.664249777595165708e-02,-2.202277154258739933e-01,-4.471119901889669679e-02,-5.618855537048398231e-04,2.189203105190144977e-04,-1.367154363943892366e-03,1.698851436376571655e-01
-3.756873457169534331e-02,-1.986660932372154853e-01,-4.108725454741043309e-02,3.039287389609561865e-02,4.711502044274740349e-03,1.599535415890684931e-02,1.703033894300460815e-01
-4.791461884698350326e-02,-2.113455061335365870e-01,-4.584674561954690808e-02,-9.347478710536068344e-04,1.078729848931756006e-04,-2.756694321732128959e-06,1.644826531410217285e-01
-5.794421294576194981e-02,-2.673424218144856424e-01,-6.901830560736521569e-02,7.908315785357214467e-02,2.952510957557514387e-03,-3.862051476192512878e-02,2.547833919525146484e-01
-5.457957334314450515e-02,-2.172270310301104290e-01,-4.697308706345770801e-02,1.714133417354501716e-03,4.386293640127170547e-04,-5.342837162409625699e-04,1.666117608547210693e-01
-3.837731458907932269e-02,-2.026113798630899132e-01,-3.858969052753891127e-02,-8.595151146794403549e-04,-4.262090708286186275e-03,4.056698438379256229e-05,1.643006801605224609e-01
-3.407698830403003976e-02,-1.818665191806654868e-01,-4.871430138021581868e-02,-1.239511433613211741e-02,-8.595805130531528060e-03,4.348502177898800475e-03,1.436386555433273315e-01
-4.018117787657807249e-02,-1.878038800098199290e-01,-4.203458640730479978e-02,-9.239837838782763825e-04,-8.262100196702665961e-03,3.002404022717044142e-03,1.475014686584472656e-01
-4.033898116452590971e-02,-7.480331842836041023e-02,-3.902532259436154033e-02,-1.610697897239872500e-02,2.521738526533850739e-03,2.956394988179801564e-02,6.822209060192108154e-02
-3.190098994906559460e-02,-1.965667869757643516e-01,-4.740442598866094481e-02,-9.642469702027286864e-04,-4.802209775291225308e-03,1.844259764352047966e-04,1.577161103487014771e-01
-3.225409368465045890e-02,-1.860201035513283641e-01,-4.588927087949859485e-02,-4.668336934100038131e-03,-5.896365370987866061e-03,7.883128050323343029e-04,1.480027735233306885e-01
-4.391637952078279727e-02,-2.165123138494431942e-01,-4.419965523837883492e-02,-3.029570941814428015e-02,-1.111541663381581356e-02,1.299808613858298260e-02,1.826788038015365601e-01
-2.634310266457562388e-02,-1.950046978017062616e-01,-4.495772669247986852e-02,-8.483070409578973708e-03,8.085983229115974169e-04,-1.002096938620152151e-03,1.608556061983108521e-01
-2.833788441274674719e-02,-2.040185581965191508e-01,-4.361145805649398188e-02,6.017304498619776123e-04,1.383555176376456697e-03,4.262741680180298599e-04,1.685855388641357422e-01
-4.783690245820051978e-02,-1.886713966296979517e-01,-2.628608978442435740e-02,-2.526768576665195613e-03,-2.504861659157996134e-03,1.201847392921010296e-02,1.542893350124359131e-01
-3.134702274162294577e-02,-1.887427917829622159e-01,-4.024024270330582576e-02,1.412085630205628904e-02,9.240094873594541236e-03,1.019657128360586251e-02,1.569044440984725952e-01
-4.823754841727970200e-02,-2.015491001286847106e-01,-2.833396172358035314e-02,1.437912030839124181e-03,3.415805603712416920e-03,3.223621620940354555e-03,1.643910408020019531e-01
-4.681054301014375696e-02,-2.148482369534672753e-01,-3.133037137857518084e-02,-3.640363806784088514e-03,-1.598890202436264747e-03,1.018280974792118779e-02,1.773021370172500610e-01
-3.892327616111490585e-02,-1.288134831172601247e-01,-3.273743487986519041e-02,4.355555412826039299e-04,-6.833157956258146745e-04,6.487482389783480463e-02,1.459546387195587158e-01
-4.239764810525549488e-02,-1.555791985028176505e-01,-4.532125553930821393e-02,1.394764095418431563e-03,6.744261934544726854e-03,6.956756816583799415e-03,1.130274012684822083e-01
-5.640180456734682213e-02,-1.428618502623725528e-01,-4.148717934242271421e-02,1.260740018095370465e-03,3.670244974904801009e-03,2.583657464943068041e-03,9.514468163251876831e-02
-3.612313871401057197e-02,-1.884424227263635787e-01,-3.930909624829460880e-02,9.139014992961024594e-04,7.443612913100147201e-03,3.044018130807239503e-03,1.514019668102264404e-01
-4.725776781838736396e-02,-1.250790330610752621e-01,-5.278397121507906464e-02,-1.617874151441606179e-02,-3.003225077624228651e-03,6.579585587673626550e-03,8.123310655355453491e-02
-3.817255278691803616e-02,-1.828665897659958739e-01,-3.660547402229616387e-02,5.588054364566817991e-03,7.807242112337201868e-03,1.216406582392366709e-03,1.464463919401168823e-01
-3.725141027376706326e-02,-1.293175155834838386e-01,-5.284662458870692525e-02,1.957287645992092373e-02,1.458121371101001214e-03,9.771244112461577921e-04,9.188102930784225464e-02
-4.785323509831997807e-02,-2.195905947626887733e-01,-4.124030410700081639e-02,-5.057615015195850551e-04,2.373804332160669224e-04,7.156872827948912441e-03,1.755782961845397949e-01
-3.010630733491769656e-02,-2.025428308361955920e-01,-4.059556400316181174e-02,1.858179462497795221e-03,3.579221540357126717e-03,4.389970655687542005e-04,1.675858497619628906e-01
-4.752954700610075023e-02,-2.091874960858142729e-01,-2.854376482398995885e-02,-3.123451366732506087e-03,-2.352247249007492595e-03,5.153610304442167098e-03,1.723035126924514771e-01
-4.951545637271233258e-02,-2.059131199532818479e-01,-2.634528791951108728e-02,-2.841108766084772834e-04,-1.059776441376796777e-03,1.602045706480361049e-03,1.692103892564773560e-01
-4.716388144982708308e-02,-2.162166551165493611e-01,-4.618091671269597409e-02,-3.680353357444275490e-03,-9.410010142562606804e-04,6.200802898393433481e-04,1.696774065494537354e-01
-4.579005801105413137e-02,-2.135205416016457691e-01,-4.291257456720197483e-02,-1.545854569580407947e-03,-9.164458248319194526e-04,1.711466744426909901e-03,1.692421734333038330e-01
-4.780224617022217626e-02,-2.118840566818982196e-01,-3.335132583484581859e-02,-1.073958491053216176e-03,2.767225663424110896e-04,1.080507202750124931e-03,1.717847287654876709e-01
-3.359071472800597563e-02,-1.611107924123517110e-01,-5.917449424560575211e-02,1.329169936067560974e-02,-4.132445134080014668e-03,-8.469957359436045344e-03,1.202077940106391907e-01
-3.266981239404331133e-02,-2.019775270458676331e-01,-4.332512516506999839e-02,5.228959561107309091e-03,-5.113801398111274266e-03,-4.233687884750021377e-03,1.648904532194137573e-01
-3.337611867911451785e-02,-1.755749055184536722e-01,-5.082174210668122250e-02,9.526603389189367823e-04,-4.126461740006795095e-03,-1.534601219699021583e-03,1.345546990633010864e-01
-2.849492913061914962e-02,-1.958319468662103602e-01,-3.818497532444779796e-02,5.523910120902962573e-02,3.226569472185837183e-03,8.466820626683954631e-03,1.894054859876632690e-01
-4.914788817902264462e-02,-2.599755418274751761e-01,-4.917599590143464927e-02,3.518434795846038521e-02,-2.932020519932799097e-03,-2.287753187359659740e-02,2.230518460273742676e-01
-3.969005949442019898e-02,-1.270175133497623565e-01,-4.602887083976682503e-02,4.296824567277550411e-02,-2.828675618625818653e-03,-1.350528246717026468e-02,1.149900183081626892e-01
-4.521061243534241214e-02,-1.471361036907185005e-01,-4.285243494996450464e-02,-7.709542101464436409e-06,-5.693097549821061337e-03,-1.409934607023916216e-02,1.064346507191658020e-01
-3.183819229334548112e-02,-2.066360689753435897e-01,-3.922650962014190279e-02,4.291363926102333788e-04,1.349413694785284688e-03,7.764285317835696674e-04,1.712461560964584351e-01
-4.695153824719346114e-02,-2.201415536112864557e-01,-3.596866880704858993e-02,-3.478304715302654986e-04,-1.885643519576537174e-03,-3.863980092012751083e-03,1.790903359651565552e-01
-5.412167052908142123e-02,-1.714951403181856349e-01,-3.540240018452232851e-02,-3.955808499055088814e-03,-1.350341640730217925e-03,-6.334451758238230073e-04,1.279754191637039185e-01
-3.608327055909642950e-02,-2.077466248275353367e-01,-4.102899482669598169e-02,1.133984351038272659e-03,-2.802632592671937782e-03,-6.282013481789952905e-04,1.693291813135147095e-01
-4.459881033381139781e-02,-1.147473457815958164e-01,-5.760232680771910224e-02,1.912136228021933324e-02,1.182394300269277781e-03,5.609653159642357528e-03,7.330217957496643066e-02
-4.656453730464731045e-02,-2.017318125261611805e-01,-3.330224278603902827e-02,3.079002389883511389e-04,-1.443492392834004904e-03,-9.914228660167272167e-03,1.631320267915725708e-01
-4.421620423631657248e-02,-1.843594766881922475e-01,-3.493018899352204332e-02,-4.574669811239863220e-04,-6.694495445786958522e-03,-2.523257779731232636e-02,1.518975496292114258e-01
-4.903154824856450350e-02,-2.125416141411508586e-01,-3.537021741283014054e-02,-2.651982983157919437e-03,-3.026657992291665374e-03,8.075569831922056740e-03,1.714647561311721802e-01
-5.156399041729653465e-02,-1.408301786452584858e-01,-3.592035181542889422e-02,-2.945665648209735629e-02,-2.545813953039479001e-03,5.046711112668630927e-02,1.409714072942733765e-01
-4.763686586114197069e-02,-2.043454680516745281e-01,-3.566615374240202085e-02,-5.698537848562267374e-03,-3.359852586092194286e-03,1.095940740022683171e-02,1.645247936248779297e-01
-4.560498191494267300e-02,-2.105507522634359752e-01,-2.865805552292494118e-02,-6.803730124673443899e-04,-1.000973847643691619e-03,1.124977358212477657e-02,1.751390695571899414e-01
-4.876114925906252506e-02,-2.117714943441025288e-01,-3.429367584648956857e-02,-2.629501464974068163e-03,-2.068308106359346282e-03,1.306270945081851754e-03,1.708178073167800903e-01
-4.873312297877091526e-02,-1.856435102854680219e-01,-3.120800735394022030e-02,-1.491792339221241053e-05,-5.531320607788197535e-03,7.772655200653262944e-03,1.473905891180038452e-01
-4.348050950898564582e-02,-1.994409714284573198e-01,-3.140027941379189974e-02,-2.343596201759155697e-03,-3.700976624829525278e-03,2.367520948873399686e-03,1.625669747591018677e-01
-4.864774203343462389e-02,-2.140472398931101972e-01,-3.031437291171673598e-02,-6.620080825011907290e-03,-2.252046999095588982e-03,3.401972977472014770e-02,1.853217631578445435e-01
-4.495106599321727764e-02,-2.075929468426971347e-01,-3.621807580813636573e-02,-1.610913964887702890e-04,8.137923027927561771e-04,1.054668733696814817e-03,1.671956926584243774e-01
-4.284969950140339601e-02,-2.068507552437994224e-01,-3.474741691566610169e-02,-1.326099815017220775e-04,2.414962176960637648e-03,1.135075712030527133e-03,1.682622730731964111e-01
-4.045063480193591965e-02,-1.997946285372960151e-01,-3.443205645548187005e-02,3.717718913830116243e-03,6.739251957152031167e-03,3.588589846606111272e-03,1.631015241146087646e-01
-3.513568979133236542e-02,-2.014101743025503433e-01,-4.427406784551039115e-02,1.165051109980327557e-02,7.486069739965344784e-03,3.167135610512579035e-03,1.637579202651977539e-01
-4.834139816697016756e-02,-2.003923750731373965e-01,-2.404095783823582966e-02,6.360465062654399723e-05,5.052842382381292526e-04,1.193282269741251407e-03,1.655595600605010986e-01
-4.911873522389813285e-02,-2.086572318449040897e-01,-2.845053750846419927e-02,1.054506240053166123e-03,9.578940677385096129e-04,4.138259871131436118e-03,1.709811240434646606e-01
-4.714611818056148318e-02,-1.981341272730877678e-01,-2.633251747916372232e-02,6.630596698135083917e-04,3.001041778958995262e-03,2.353523199923696248e-03,1.625365912914276123e-01
-4.651479775896349977e-02,-2.131123065095670843e-01,-3.917431154048958003e-02,1.194436323805868078e-03,3.796430959607665842e-03,3.757966916372829352e-03,1.706499457359313965e-01
-4.653804476832202469e-02,-2.250435614481644808e-01,-5.551357724228239698e-02,-5.105022724459853944e-04,-7.990007683439403520e-05,2.056625040143335347e-04,1.741939336061477661e-01
-4.495948502976009759e-02,-1.249372875881348682e-01,-3.787017176364483595e-02,8.647895764324533413e-03,3.698810974967100401e-03,6.071981700898718137e-02,1.354244649410247803e-01
-4.248691108234306513e-02,-1.981628425102244240e-01,-3.512139780872429451e-02,-5.690427367621275073e-03,-6.745791900619828828e-03,6.307029535786575283e-03,1.605891436338424683e-01
-4.382652924577580544e-02,-2.123540113047909794e-01,-4.473178498882737775e-02,-2.280488396215850496e-04,-5.315329401836771470e-04,1.039831318607518798e-03,1.680893152952194214e-01
-4.636006395476516967e-02,-2.122057840909704063e-01,-4.884768974594110719e-02,7.878903024411471794e-04,3.053907824041518851e-04,-8.874317922799225978e-04,1.646296828985214233e-01
-4.680889263368154252e-02,-2.136148763177952437e-01,-4.717555246270056096e-02,-3.012037925548291181e-03,9.409601164262627448e-04,2.416116452531544626e-03,1.667650938034057617e-01
-4.806126128710215550e-02,-2.105058613593081551e-01,-4.991685468173533841e-02,7.706926751807823906e-04,3.872606867328441498e-04,2.127726824689469848e-04,1.615321189165115356e-01
-4.756034664222149461e-02,-2.119080141662404992e-01,-4.825768895044734580e-02,9.136453706450559185e-04,2.814866707335138231e-04,-7.301717714228300737e-04,1.640133410692214966e-01
-4.425792051125246318e-02,-2.157330608962900742e-01,-4.496796868375387002e-02,1.993551498746092693e-03,-6.091043588354698706e-04,-1.758255798393412598e-03,1.711864024400711060e-01
-4.473746266409407701e-02,-2.111876581182798307e-01,-4.613263717476515785e-02,4.422129197786211466e-04,1.214777796637149396e-04,1.901883187355735410e-04,1.657592356204986572e-01
-4.390931779258724910e-02,-2.613173080990870423e-01,-5.116637761017597819e-02,-4.086214671319261804e-02,2.043597765185834153e-04,-5.284317559086863358e-04,2.252804189920425415e-01
-4.003921611997620505e-02,-2.143272356865681127e-01,-4.305401883292855197e-02,-2.010266002325409446e-02,-3.451254289421854925e-03,2.207623337932197727e-02,1.804719418287277222e-01
-4.817572284058230236e-02,-3.145548757750312729e-01,-6.002953997053134261e-02,-4.006831979430323931e-02,-3.782037442522341066e-03,-1.508760106453774751e-02,2.710774540901184082e-01
-3.466349898680495811e-02,-2.085444914162136731e-01,-3.388614976192710210e-02,4.608590583916766258e-04,2.612869683362330567e-03,6.139988430301905088e-04,1.743347942829132080e-01
-4.803551800669678129e-02,-2.180679216226039385e-01,-4.668543919258871105e-02,-5.454159505239536063e-03,8.805013289583738922e-04,-7.965691201783272604e-04,1.709849983453750610e-01
-5.044412904503122602e-02,-2.113968031604073206e-01,-4.840945125163152729e-02,-1.073920313396940822e-04,6.586929918064114145e-04,-2.854049540954457223e-04,1.619844734668731689e-01
-5.302901727124720299e-02,-2.159686034453703329e-01,-4.665565424851390863e-02,1.276455356743303859e-03,1.142062406121464261e-03,-1.918307589041121390e-03,1.662776023149490356e-01
-5.922541756531427698e-02,-2.168978433220219437e-01,-4.443424601282920661e-02,-1.211381971107010569e-04,4.122934250524354057e-04,-9.507674136885698769e-04,1.655741482973098755e-01
-5.833919795427485594e-02,-1.122470498901800562e-01,-5.560745818528922690e-02,2.308068379837421857e-03,5.020822728000241966e-05,2.027336368337318354e-03,5.557967722415924072e-02
-4.518557131445226360e-02,-1.508701233768147132e-01,-5.407879319680594654e-02,-1.201465458487686010e-02,-6.312643609454919418e-03,1.608296542541022035e-03,1.042535454034805298e-01
-5.044178507681335022e-02,-1.440120230912873556e-01,-4.533171077167192503e-02,-5.392197361844146058e-04,-7.076432870851010783e-03,7.600485665927234069e-03,9.789818525314331055e-02
-4.771313009641013625e-02,-5.922649948812048343e-02,-4.549114651180786312e-02,-2.253308025105550672e-02,-5.276276595075454073e-03,4.972385313874665147e-03,4.294167831540107727e-02
-5.486143430619058042e-02,-1.298643428432040559e-01,-5.310232724425319184e-02,-7.816150116628416133e-03,-4.983848756993255330e-03,1.150398628238470666e-02,8.009548485279083252e-02
-4.165757842042643044e-02,-1.568520098709861865e-01,-5.276862926194136882e-02,-1.565340224155811061e-02,2.878915870762785781e-03,-9.098969297510705028e-04,1.134712174534797668e-01
-3.310208866624151508e-02,-1.963239434672412187e-01,-5.041560879059653333e-02,-3.969514790965137513e-03,3.746131234189736814e-03,-4.570599101773995324e-03,1.557794213294982910e-01
-4.747736372676147898e-02,-8.616638878513069311e-02,-3.935589706163497570e-02,-2.476003377447403772e-02,-5.304098320572869611e-03,3.930928990911046472e-02,9.184905886650085449e-02
-4.695056802359683090e-02,-1.222567112317553550e-01,-5.494943636596971714e-02,1.154240276713961073e-02,-1.586000063574541851e-03,-1.932989544378286889e-04,7.443099468946456909e-02
-5.440524465502839802e-02,-1.091208646371073371e-01,-5.831455397878065883e-02,-1.660509669269502608e-02,-1.076021006795312715e-03,-2.402546347147273579e-04,6.021640822291374207e-02
-4.005262094003566448e-02,-3.580762338989387089e-02,-4.460517878717400186e-02,-5.053401419097045162e-03,-4.373599005148591989e-04,-1.820199042127470732e-02,3.360347077250480652e-02
-3.824121583747142755e-02,-2.109452471939499141e-01,-4.281968324552189870e-02,9.675025633407351383e-04,-2.193692620639419322e-03,-1.895640166682163437e-04,1.705118119716644287e-01
-3.496004369802476613e-02,-2.094116340331472204e-01,-3.876603767344997259e-02,3.785335557515584503e-04,-8.907789512385109760e-04,-7.213788721972968663e-04,1.725927293300628662e-01
-3.562658139334633212e-02,-1.962232581113422525e-01,-4.148511872463956501e-02,1.531558246590153383e-03,-5.990010825963952221e-03,-4.293939834907155436e-04,1.581138372421264648e-01
-3.862871956444020871e-02,-1.987369536983047968e-01,-3.618560240253786836e-02,1.368306842454881803e-03,-5.864366533909912138e-03,-3.730919723409586650e-03,1.618095338344573975e-01
-3.408752327447999581e-02,-2.044035777757480243e-01,-3.930977917521840531e-02,4.162175314081470630e-03,-3.187485285618928566e-03,-1.711991853699519443e-03,1.680376231670379639e-01
-3.990181712056069946e-02,-2.110150492685810841e-01,-4.093882929473435794e-02,-7.697616618227092573e-04,-3.370634558640269417e-04,7.430181597499146517e-05,1.706033498048782349e-01
-3.544726636781395102e-02,-2.120985426817785513e-01,-3.919729790576483019e-02,7.703252594615566046e-04,-8.804835970864277649e-04,2.734075466977779019e-04,1.748188138008117676e-01
-3.879346680571777589e-02,-2.116058523716888851e-01,-3.779060713113430170e-02,1.952738023118057089e-04,-1.481913994661942071e-03,-2.192726824519189888e-04,1.733357459306716919e-01
-3.987901266345863366e-02,-2.125930850789504722e-01,-3.778833857976213184e-02,1.278651260597298846e-04,1.888359727580119082e-04,-2.281320434996439407e-04,1.737697422504425049e-01
-3.623606268005358233e-02,-2.050784630674437059e-01,-4.100146923714288738e-02,6.321750844887545455e-04,-4.740832394945576622e-03,-7.713856741680802766e-04,1.667221486568450928e-01
-4.376012390869060686e-02,-2.060948547094006988e-01,-3.981750519988064979e-02,-1.011005551939275597e-02,6.037234859457642905e-03,-1.313143986203005320e-02,1.671568751335144043e-01
-5.088292280979760801e-02,-2.133329719105289679e-01,-4.821101391233140881e-02,1.086728391621796753e-03,-2.386190851671478839e-03,1.639021671998825780e-03,1.638898849487304688e-01
-4.380212628078144349e-02,-2.184779305448676379e-01,-4.363297704332227966e-02,-1.860940470744196218e-02,1.682982637271034304e-03,-1.989629674230766754e-02,1.810420602560043335e-01
-4.275537248732333429e-02,-2.255691505834386268e-01,-4.948847250951765586e-02,-1.375303406023498792e-02,-3.338085120369361797e-04,-3.269143625362810196e-02,1.897610872983932495e-01
-5.580268447361617923e-02,-2.482349657718670166e-01,-5.849967593687158129e-02,-5.433104825009743566e-02,-3.009899893455056808e-03,-4.587043975447524513e-02,2.274060845375061035e-01
-4.820821494866964207e-02,-2.533573197568437796e-01,-5.478535518945598648e-02,-1.889594450133216114e-02,-9.667711205468398211e-04,-3.506026096537306902e-02,2.134051471948623657e-01
-5.413864947834325092e-02,-2.147075309593877435e-01,-5.136371027084422891e-02,3.694259534775127043e-04,-3.879066462697164028e-03,1.240880255331374728e-03,1.621289700269699097e-01
-3.855349318568026401e-02,-2.081313320499328934e-01,-4.161597001962256265e-02,-1.719531498687918575e-02,4.836843488856590149e-03,-1.186141375568135030e-02,1.721220314502716064e-01
-4.512091001386922540e-02,-2.160860362590916461e-01,-4.324813027139538107e-02,1.090222456980846811e-04,1.640621954825787756e-03,-3.540246763474660593e-03,1.720420718193054199e-01
-4.784951952610005943e-02,-1.561524956467617575e-01,-4.685099697949553915e-02,-3.690502165211791141e-02,3.086957850339982438e-03,-4.518752924545064997e-02,1.485898494720458984e-01
-3.484350428921371978e-02,-2.017665837900745052e-01,-3.641384966398728690e-02,1.594263088045060452e-03,5.407540391400245290e-03,1.251608759758835246e-03,1.664442867040634155e-01
-5.343644342593886071e-02,-1.477514786067213315e-01,-3.966842904447917539e-02,1.029400074080926049e-03,-4.229405190664814115e-03,-1.298895167098767546e-02,1.046250239014625549e-01
-4.078488431467501563e-02,-2.061145217621768722e-01,-3.807546773677551732e-02,8.462366732372605569e-05,5.248957509741753423e-03,-1.567724506537753306e-03,1.669707298278808594e-01
-4.129537513173428542e-02,-1.497298782095921876e-01,-5.397950460524583716e-02,-1.665908421970979311e-02,3.395858950500144600e-03,1.502334225687297869e-04,1.068212017416954041e-01
-4.690117535498384421e-02,-1.731987306021716411e-01,-3.118548493390021353e-02,-3.811459422249067423e-03,3.716668985557813540e-03,-1.641147772021317452e-02,1.381156742572784424e-01
-3.980921040801170541e-02,-6.895430206648392457e-02,-4.039034978420196625e-02,-6.693591023574650516e-03,-4.399295931750882294e-03,-3.530198540583308342e-02,6.902174651622772217e-02
-3.643419992906292426e-02,-2.100612768815453002e-01,-3.616071634358847958e-02,1.821569719910857586e-04,4.179444911086087583e-04,-4.457687423517462961e-04,1.737674921751022339e-01
-3.651655355793249902e-02,-2.104073977249694694e-01,-3.619938506149394247e-02,2.852086401454605223e-04,1.144527140748154804e-05,2.415444992478210390e-04,1.740508526563644409e-01
-3.831592731787642619e-02,-2.103759887498301284e-01,-3.754431920151726776e-02,-1.127544902063280698e-04,1.955431505650801329e-04,-1.631281573723972460e-04,1.724478304386138916e-01
-3.224625942661207834e-02,-1.620132497725036425e-01,-4.266168617192493684e-02,2.345082407463200749e-02,9.753469425935554910e-03,1.888915348191646387e-02,1.363891065120697021e-01
-3.779235466323102588e-02,-2.084990773039930856e-01,-4.036497368530006513e-02,1.334708071714257134e-03,3.383793852656544719e-03,1.589780873530817398e-03,1.695745140314102173e-01
-3.846240114441198954e-02,-2.051451044880157615e-01,-3.222613075087693568e-02,1.045792168376403998e-03,2.406708247451951749e-03,4.384485697577855212e-04,1.699491888284683228e-01
-3.944637017220743030e-02,-2.084277137970392269e-01,-3.259090108730453711e-02,7.228389538283289898e-04,1.118163872825389147e-03,8.065073084693566473e-04,1.725323349237442017e-01
-3.190596651344970724e-02,-2.088741320843843230e-01,-4.441217090003396484e-02,1.665311976530080285e-02,5.558214731677954025e-03,6.115870325665523875e-03,1.740626543760299683e-01
-3.409626883341605047e-02,-1.988197566135709304e-01,-3.374962598818703058e-02,2.402495026421526576e-03,5.038080686735130903e-03,2.189499023072425613e-03,1.652237623929977417e-01
-3.488163168588832852e-02,-2.037564747670264631e-01,-3.464770733640298861e-02,2.558560354061524544e-03,5.108988368570605530e-03,2.555213962963781386e-03,1.693393141031265259e-01
-3.881548847367793931e-02,-2.102545792032819993e-01,-3.967349429552517043e-02,7.341619497947626891e-04,4.469518541279504523e-04,1.819224599737404090e-04,1.710184663534164429e-01
-4.621432504003064601e-02,-2.194754790437241920e-01,-3.452146578482204187e-02,1.332461666088128639e-02,6.201559460363537807e-03,2.661166266590675802e-02,1.869615614414215088e-01
-2.868363287892147784e-02,-8.974744010803517580e-02,-3.081739883675390854e-02,1.913573592094154618e-02,-3.047379786644678016e-03,4.994770664492011875e-02,1.105158552527427673e-01
-4.022982883662104547e-02,-2.100530233695905857e-01,-3.950866115683796670e-02,1.516428290978277110e-02,5.708967416665791834e-03,2.764099501337884818e-02,1.790045350790023804e-01
-4.719933733782941121e-02,-2.146299235608649658e-01,-3.268039000960400176e-02,-1.906093036554189831e-04,4.661431565775579766e-03,7.337350308865266992e-03,1.757882833480834961e-01
-4.131217847569133850e-02,-1.453425716219937935e-01,-3.859700458994368144e-02,4.237235782008499235e-02,-2.078697329544903962e-03,5.255584455974268016e-02,1.574729084968566895e-01
-4.545313305380688229e-02,-1.162566946159045989e-01,-4.276825552977404216e-02,4.213860642914177973e-02,1.183801974952477425e-03,3.371628872816542777e-02,1.181186139583587646e-01
-3.943304981465178827e-02,-1.645813988002741424e-01,-3.544443330979967638e-02,1.123748245360862638e-02,3.623992091544243899e-03,4.854225765029525352e-02,1.538326442241668701e-01
-5.788340282878287613e-02,-2.246878060168026048e-01,-5.565857716698165841e-02,-1.298866814080966610e-02,4.709955556529418080e-03,1.044358026689125862e-01,2.479777187108993530e-01
-3.473449166927736892e-02,-2.077990997851955624e-01,-4.139896675355387440e-02,-7.865208317427366670e-05,1.989135373674138889e-03,3.518876263688667681e-04,1.698665618896484375e-01
-4.736224472470747932e-02,-5.162727744539165331e-02,-4.094214354416537971e-02,1.041609568472365299e-02,8.174887745374125091e-04,3.250314103685947309e-02,5.986353382468223572e-02
-4.427902016788766437e-02,-1.583146259246229759e-01,-4.702098307749336126e-02,3.073034340525095456e-02,6.775683161656421982e-03,3.204609551369189124e-02,1.369328498840332031e-01
-3.168593415580385486e-02,-2.100844479845707657e-01,-4.994062719774047809e-02,4.147804230721774746e-03,-1.531548937116152236e-03,3.227998019600218519e-04,1.701811254024505615e-01
-4.011968537046178146e-02,-1.949158723186504016e-01,-3.366308510182104696e-02,8.354684503155795916e-03,9.101536709856833385e-03,8.770918486534032624e-03,1.602863371372222900e-01
-5.020228366530243846e-02,-1.987439394105018908e-01,-2.532806522566617702e-02,1.353091110324833313e-03,2.206343961238831086e-03,2.835535611666050414e-03,1.625497639179229736e-01
-3.284634232215138255e-02,-1.341751795381674883e-01,-3.524920726344628330e-02,3.553269257853620966e-02,4.656473699451706139e-03,4.210066567617307132e-02,1.385640352964401245e-01
-3.961303255434737991e-02,-1.485947754082698746e-01,-3.876965650928042295e-02,2.980130485040873370e-02,5.490718606709628184e-03,3.923688287014669845e-02,1.390792578458786011e-01
-4.943614962901921733e-02,-2.308904250754832410e-01,-5.107613258415466539e-02,5.380088052682090866e-02,5.149640453377951101e-03,3.504489772229365391e-02,2.123166471719741821e-01
-3.574534925091974596e-02,-1.974379918050664373e-01,-4.799975984195596623e-02,3.033872281366834650e-02,5.578711331347980390e-03,5.806056372259991299e-02,1.930828839540481567e-01
-4.008590653080511962e-02,-1.050209629814168322e-01,-4.303333448024576624e-02,4.275194928124337324e-02,3.951630223387154507e-03,3.504915315957946031e-02,1.151052564382553101e-01
-3.992311381343029153e-02,-5.093496237138998850e-02,-4.181109398401343380e-02,3.225602942326717681e-02,-1.192219153526643144e-04,1.492887058912683966e-02,6.240228936076164246e-02
-3.570887670300607053e-02,-2.097332668743844553e-01,-3.706373585439551310e-02,6.528089971481404810e-04,9.906180074703665236e-04,4.708643499043656104e-04,1.733650267124176025e-01
-3.100727564744223258e-02,-1.969713333086979268e-01,-4.604528021169243535e-02,1.331349813229096811e-03,3.939860051288374479e-03,5.267461190846890783e-04,1.591450870037078857e-01
-2.621910181596261158e-02,-1.975708869033137582e-01,-4.774229307726487320e-02,1.997275059037083994e-03,3.222960877454436775e-03,8.360466814749798652e-04,1.618081331253051758e-01
-2.668471945865766304e-02,-1.532006330970388519e-01,-3.991633050186806780e-02,3.232959122557846343e-02,5.483935200888368118e-03,1.393885719742882570e-02,1.353367865085601807e-01
-3.690085416640683652e-02,-2.086916244293566258e-01,-3.716968523142062664e-02,5.351346612527524676e-04,1.394651035232445224e-03,3.649842409060718930e-04,1.716771721839904785e-01
-3.390762119975469085e-02,-7.418487806413415209e-02,-4.349013720189676829e-02,3.640072093483397858e-02,3.870157727726753361e-03,1.974715496078312954e-02,8.073379844427108765e-02
-5.375431372038522171e-02,-9.725890717408730568e-02,-5.007356819984862262e-02,9.156045551626423168e-03,-5.781760704076652820e-04,1.326049428760271015e-02,5.335120856761932373e-02
-5.438197040117798142e-02,-2.531914496013098481e-01,-5.075329980921493289e-02,6.461024717789823346e-03,-7.586282021188783982e-04,-2.715562249318679774e-03,2.010195851325988770e-01
-4.363157757483226984e-02,-1.166497589299851645e-01,-5.197183974427350972e-02,1.566666845380164375e-02,4.359406763151722937e-03,1.775137304391112992e-03,7.479989528656005859e-02
-5.600322556173262939e-02,-1.288289543880939414e-01,-5.217415267269337464e-02,1.599462229981469044e-03,2.776446110525970009e-03,9.691659417063350906e-03,7.687450200319290161e-02
-4.798365027969764274e-02,-1.188202205208418738e-01,-6.001750521200796551e-02,1.272527661508325754e-02,-7.861033818321823191e-04,-2.721370017510677899e-05,6.926652044057846069e-02
-3.583874075580552321e-02,-1.470539696088009607e-01,-5.284093660945897442e-02,3.708572494196162722e-02,4.066584074449344950e-03,1.764604344494425520e-02,1.260032206773757935e-01
-4.962603793423093351e-02,-9.515902003331402903e-02,-5.581717015726837122e-02,3.265844826029166981e-02,5.841746299023032989e-04,6.761973722458292308e-04,7.093518227338790894e-02
-3.059915795673243816e-02,-1.461983240933295847e-01,-5.414403258972766420e-02,1.508190587732789398e-02,-1.064675661787327799e-03,5.117646249151659347e-05,1.090025678277015686e-01
-3.878307944564871046e-02,-1.364805653156187515e-01,-4.055941373817412154e-02,6.226912565793092658e-02,4.412370116543025758e-03,1.533941653439362639e-02,1.475501358509063721e-01
-3.305853318740355901e-02,-2.016590492876430829e-01,-4.502212882474941613e-02,1.031443059488399219e-02,-5.642383366444807388e-04,3.896031066372841137e-03,1.640665978193283081e-01
-3.775469040878365323e-02,-1.569491515239580526e-01,-4.617869997991747022e-02,2.002492966616499157e-02,8.581368126474191171e-03,1.221710332700017519e-02,1.230685785412788391e-01
-4.356664924938730143e-02,-2.158348980301861009e-01,-4.572512637496192744e-02,-1.248310744152575803e-03,2.943327427096833733e-04,7.658820712733053560e-04,1.712187677621841431e-01
-5.633260232483870700e-02,-2.180705404345002485e-01,-4.556882124417638985e-02,-5.497432568452389774e-04,1.302303113048886105e-04,-5.995049313190733455e-04,1.673856824636459351e-01
-2.827365673926797440e-02,-2.092351012529303500e-01,-4.938583360889557683e-02,3.481319910321299758e-03,3.583924005545206706e-04,-2.931658406693942484e-04,1.714913398027420044e-01
-3.927207798866778204e-02,-1.986049272112300201e-01,-4.280253723871191990e-02,3.757444199470204305e-02,-2.069233764714556618e-03,-7.338887139627356219e-03,1.710170805454254150e-01
-4.501941436396857121e-02,-2.135841989111384454e-01,-4.542355858835268184e-02,2.357081091214403672e-03,4.137186659186264329e-04,1.093620753572675190e-03,1.684247404336929321e-01
-2.804770794091096531e-02,-2.060410424601549773e-01,-4.652658609288128078e-02,1.310260794348456527e-03,-1.301209313828604599e-03,-1.995577225986201221e-03,1.695764064788818359e-01
-5.758498233443019865e-02,-1.176880955071655105e-01,-4.920269173570667592e-02,7.987101259809024694e-04,-2.079471717815772371e-03,1.229706846471738217e-02,6.822747737169265747e-02
-4.680210779321933995e-02,-1.783581679885525850e-01,-2.588089082611415293e-02,1.165692344123324745e-03,4.378522646748449210e-03,6.813661764685069976e-03,1.438675671815872192e-01
-4.535256550596417774e-02,-2.122076245125534277e-01,-3.856265640219712354e-02,5.394974957622564876e-03,5.085009175771862053e-03,1.229358844804081564e-02,1.721567064523696899e-01
-5.773460576425789442e-02,-1.418866353838436623e-01,-5.064666347298173166e-02,-2.280854347884505445e-02,-8.231962500277063485e-03,2.040989803003678826e-02,1.036433503031730652e-01
-3.066448849780692432e-02,-1.508454539577756826e-01,-3.363066937873541995e-02,4.621419145195630740e-02,1.554471084563220119e-04,2.500796511616986545e-02,1.495971530675888062e-01
-3.878759726684462283e-02,-2.391921228660065235e-01,-4.571433706210495385e-02,2.445292231611507008e-02,1.222035239187187639e-03,1.080354396342799242e-03,2.015530169010162354e-01
-2.620422753800502602e-02,-2.054652998343010628e-01,-5.017068680357335275e-02,8.842260994955728273e-03,-6.917560260398362710e-05,5.343826273281227380e-04,1.692574918270111084e-01
-3.489810093293420346e-02,-2.066314550963862517e-01,-4.564458093117074178e-02,1.450929359926937320e-03,-1.596939305549503144e-03,-3.799118960243893280e-03,1.667919903993606567e-01
-4.514468873552156258e-02,-1.944151948715545919e-01,-4.745291576239969722e-02,4.357164768550182699e-02,4.576518606177924602e-03,5.388818952819839775e-02,1.908207833766937256e-01
-4.443833534585193284e-02,-2.052158182052085944e-01,-3.996082338474859358e-02,6.002679652414097053e-03,2.018059169734742753e-03,7.325144745449299957e-03,1.639225929975509644e-01
-4.204641044184739829e-02,-1.688068342430217306e-01,-3.574567416506377326e-02,1.780335784178971661e-02,8.300281565159942782e-03,2.879798526904467706e-02,1.433601230382919312e-01
-4.549534356582000949e-02,-2.111784396015784493e-01,-3.568404314406851963e-02,-3.320759274381653633e-04,4.679011459368064268e-04,-6.283283059831928224e-04,1.708065867424011230e-01
-3.682665835354019535e-02,-2.259663753596280467e-01,-4.649254809316004378e-02,1.919051821708325778e-02,2.526845866702164684e-03,5.200365530999478958e-03,1.877343207597732544e-01
-5.598638882885090262e-02,-2.444125785718229693e-01,-4.979926428237242686e-02,-8.494569442212006371e-04,-1.689366228311417603e-03,-3.055770276821566291e-03,1.916957646608352661e-01
-4.331255140524346847e-02,-2.101017472349058779e-01,-3.761182820728096315e-02,-1.349934818752133157e-04,5.830582849310787449e-04,2.020828183379469879e-04,1.697149127721786499e-01
-3.150408594888809422e-02,-2.011891622253869638e-01,-3.848943502602499012e-02,2.423771483196271101e-03,3.504254638267897785e-03,1.248734416365341118e-03,1.664801836013793945e-01
-3.489723515267788290e-02,-1.891376628750474354e-01,-4.291607702118326734e-02,1.282331810809817993e-02,7.871739876824501020e-03,9.689049593308934893e-03,1.535526663064956665e-01
-4.525796250297030310e-02,-2.136723644329260874e-01,-4.419606235399655553e-02,-6.041561115345779132e-04,3.345686326394799051e-04,-9.357868094383774106e-04,1.689598709344863892e-01
-4.532970348898249929e-02,-2.117945098759536904e-01,-3.900138679062251090e-02,-2.940402177616024279e-05,8.115316784845788426e-04,1.825126464276799997e-03,1.697527468204498291e-01
-5.033976676330292194e-02,-2.139646365843184128e-01,-4.600716651978453697e-02,-1.763747401909679120e-03,5.422144963440726773e-04,8.834593538906425521e-04,1.658714711666107178e-01
-4.627228248439101133e-02,-2.295746698386469942e-01,-4.110588470520835924e-02,-3.186383898783940599e-03,6.648481530501317060e-04,-3.056680469237024050e-02,1.934121102094650269e-01
-4.525840036129791938e-02,-2.060841822697870862e-01,-4.025930263088745714e-02,5.143660553680306884e-03,-4.385431127978019206e-03,-6.201912727320839369e-03,1.641534864902496338e-01
-5.011721631980910197e-02,-2.114666437485266393e-01,-4.941539121253472194e-02,2.017616165747049837e-04,-1.827537900579127286e-03,4.673090729967156677e-04,1.617348641157150269e-01
-4.803885978105784660e-02,-2.143751177629830973e-01,-4.601910402812861567e-02,-4.605334288007996674e-04,-1.696729902762752476e-03,1.645507819163466705e-03,1.674072444438934326e-01
-4.410074539237242297e-02,-2.142523330082622968e-01,-4.497866616515997645e-02,-4.289754399762348122e-04,2.965848348245580255e-04,1.524902185478371882e-03,1.697372794151306152e-01
-3.376177355950524261e-02,-2.110993723582366977e-01,-4.140622887037728045e-02,-1.331934215367758679e-03,-3.477514711375251800e-03,-5.265852411137135768e-05,1.737613976001739502e-01
-4.236570122461646298e-02,-2.081174993201365675e-01,-3.700616289990298763e-02,3.735136327376039158e-04,-1.954558927554730409e-03,-1.073639000414935377e-03,1.685410141944885254e-01
-3.909981715544523506e-02,-2.141866475665722414e-01,-4.403375399378373078e-02,3.054834815941902563e-04,1.542202623704320725e-03,4.486045615116852014e-04,1.726959496736526489e-01
-3.992335693426734416e-02,-2.114572899388972860e-01,-4.378323199044404507e-02,-4.813101789503740346e-03,5.829313127882454655e-03,-5.802206881573261296e-03,1.704380363225936890e-01
-4.387511119840849239e-02,-2.236830926487849980e-01,-4.921989164386178506e-02,-2.608303386044752079e-02,4.966268219812624727e-04,-3.822443903183229963e-02,1.944825947284698486e-01
-4.701742150606332687e-02,-2.150396949267074920e-01,-5.115812858131534024e-02,1.942687268857626933e-03,-3.583425076493663725e-03,2.756108411453050185e-04,1.661414206027984619e-01
-3.874128640828815306e-02,-3.152635444377126506e-01,-5.685073738474376304e-02,-4.875108736046046554e-03,6.985086971453322892e-03,-2.401977156066496810e-02,2.715388834476470947e-01
-4.479338278157247999e-02,-2.667102397482418730e-01,-5.758895333715009779e-02,1.242003669762378401e-02,3.837847824673416060e-03,-4.144809167543229284e-02,2.285433411598205566e-01
-5.769783316300246268e-02,-1.093867622556931873e-01,-4.249070147171130768e-02,1.851282525882298529e-03,4.118402570953325049e-04,2.543280912637473079e-02,7.510203868150711060e-02
-4.736813188070453789e-02,-2.175846306759678384e-01,-4.602887395862022973e-02,-1.794786619407415804e-03,6.212475481661579020e-05,-4.676310450193466581e-05,1.709183901548385620e-01
-4.675893406958590848e-02,-1.881201374762904721e-01,-3.318207039112968521e-02,8.350282991797439852e-03,-7.355620067916882401e-03,-3.235779879631579814e-02,1.599973142147064209e-01
-2.979551835821731692e-02,-1.950132189638795199e-01,-4.499537842175752034e-02,9.986975896184855858e-03,-2.748241947177216225e-03,-1.423077267986536413e-03,1.591998487710952759e-01
-3.520544513397674824e-02,-7.875302533895540968e-02,-3.972969240731215324e-02,4.771451044440074701e-02,2.940135620158748544e-03,8.175891378605554261e-03,9.368208050727844238e-02
-3.706674758192553959e-02,-7.856443317918576641e-02,-4.247431568917089950e-02,4.915582327817984848e-02,-8.879987255917332675e-04,1.789131376107196136e-02,9.868356585502624512e-02
-3.816717301872239732e-02,-1.687745030607425978e-01,-4.838688452500995718e-02,9.212421368749144218e-03,-5.715942572795365724e-03,-4.588937897782723561e-03,1.274509578943252563e-01
-4.644565262828798807e-02,-2.221150183034436010e-01,-4.695932628144255244e-02,-7.821404263201545961e-04,-2.883423751191760287e-05,-9.315284352298130077e-05,1.754184067249298096e-01
-4.014392114562037595e-02,-9.952150475794341311e-02,-4.758044930899255759e-02,1.986036773830675284e-02,-2.567880237738339247e-03,-1.028007150664143974e-03,6.592185795307159424e-02
-4.314216595846565722e-02,-2.122513305602893585e-01,-4.064960320393334187e-02,-2.985063210049044386e-04,-7.568036712241336863e-04,1.632346981109428089e-04,1.703751832246780396e-01
-3.842283299153124998e-02,-2.126131374823669040e-01,-4.169617361232252906e-02,-1.753947861619258638e-04,-1.686877906797967211e-04,-3.670274761447104867e-04,1.725786030292510986e-01
-3.412591776449996894e-02,-2.105013067588884235e-01,-4.268420933449535576e-02,3.116799612313407618e-04,-1.972487772939941417e-03,-3.046367090155528137e-04,1.722912937402725220e-01
-3.797885689506139140e-02,-1.960350282980093395e-01,-3.365378756595233806e-02,2.393135388716683743e-04,6.302858473539418339e-03,1.614966063383463640e-03,1.606587618589401245e-01
-3.805720337114230911e-02,-2.082180303124043230e-01,-3.186568566908752620e-02,7.436857037109274263e-04,1.706184519159974471e-03,4.209066358836809139e-04,1.733710467815399170e-01
-4.272710860318091469e-02,-2.059958204408252336e-01,-2.820694727165271032e-02,9.448121221133707996e-04,1.606133976753972232e-03,6.044432759260459816e-04,1.710254549980163574e-01
-4.302549431609572345e-02,-2.033408391345211397e-01,-2.793582310027159510e-02,5.588776031627446265e-04,1.286661267878699182e-03,7.904950959883068210e-04,1.683911830186843872e-01
-3.821497534251877548e-02,-1.986167021567215862e-01,-3.478551438068544499e-02,1.584483775906205634e-03,5.399934177574769456e-03,2.679562576600536764e-03,1.625026613473892212e-01
-4.975820491710150617e-02,-1.773409025735694367e-01,-2.698707734743103354e-02,6.399472698661202042e-04,2.937343307596497130e-03,6.167751442332797956e-03,1.408627182245254517e-01
-4.371313868776001421e-02,-2.021861054344075148e-01,-2.735519377041753519e-02,1.157845872164800678e-03,3.813504177053473557e-03,2.045245644203016241e-03,1.674328297376632690e-01
-3.806981219884583711e-02,-1.881639569994646155e-01,-3.216833978089238266e-02,4.767324546457576973e-03,6.628755309230852794e-03,2.937043338897853649e-03,1.538659781217575073e-01
-4.578828912152857478e-02,-2.104684675342196609e-01,-4.775853284738663940e-02,2.185245661969298597e-04,-1.368574709268402154e-04,-2.480780672657531267e-04,1.637051254510879517e-01
-4.885794306406809201e-02,-2.101680191663062303e-01,-5.013440850782883984e-02,3.761645373915141130e-04,1.273325721650717980e-03,-1.989974406138033021e-04,1.606924682855606079e-01
-4.890223928094605821e-02,-2.099102400068520169e-01,-4.857385331499310815e-02,-2.914226897931668160e-04,1.208537321907761928e-03,-2.659920954176444316e-04,1.611874848604202271e-01
-5.222622587030768121e-02,-2.105457165584540269e-01,-4.812055581553471850e-02,-1.076988163925940390e-03,1.077324865367625378e-03,2.342654797590949670e-04,1.604339480400085449e-01
-4.915403566966008997e-02,-2.098913655786930899e-01,-4.996180917894403606e-02,-4.232029531377023545e-04,7.908952370186253305e-04,-2.267072324174210375e-06,1.603424996137619019e-01
-4.717123168531367483e-02,-2.994953315126337445e-01,-5.793840452301941835e-02,6.301988022829815850e-02,3.914257642374697685e-03,-7.748430126955340932e-03,2.705682218074798584e-01
-3.276653787859237776e-02,-1.506704493371187892e-01,-4.919458873397657139e-02,1.208789897159135915e-02,3.957123690309293992e-03,4.112953858672300719e-03,1.130060181021690369e-01
-4.803757237421765747e-02,-2.507081393983448536e-01,-4.865243785439647695e-02,5.587080110776508103e-03,1.849964382430750428e-03,5.134599173384306152e-03,2.028155028820037842e-01
-4.796200326170182993e-02,-2.106774303835697304e-01,-4.718694410125087030e-02,-5.495883082704004687e-04,1.649693075324832088e-05,-6.652155750533853690e-04,1.631111949682235718e-01
-5.025198892123784733e-02,-2.109687289642189489e-01,-4.833135408857828358e-02,7.673324440137968853e-04,-1.075863308389084271e-03,1.159696075821088981e-03,1.617142856121063232e-01
-3.836215021926242530e-02,-2.039239308747184953e-01,-4.338933612232827308e-02,-3.677076010660146419e-03,6.060562291357614491e-03,-3.342390466738301424e-03,1.636701971292495728e-01
-4.956768465628834386e-02,-2.130297257374315079e-01,-4.813534535454513930e-02,5.150821900242194898e-04,-1.231720635985766388e-03,1.337916239663972887e-03,1.642155349254608154e-01
-4.948379815287505534e-02,-2.467142342574702440e-01,-5.009989930893500587e-02,9.158426867099441621e-03,2.565206775208524539e-04,-5.765253520245968398e-03,1.978136748075485229e-01
-4.850944218236891842e-02,-2.134693054642979870e-01,-4.590003250388942357e-02,8.207159352337206615e-03,5.596365555615075713e-04,1.181308124187415180e-03,1.669017970561981201e-01
-4.842422513809915841e-02,-2.170562702398679544e-01,-4.616884608284430730e-02,1.928250387024370944e-03,-7.503153448793348224e-04,2.496565056716791488e-03,1.698638349771499634e-01
-3.661704541518723266e-02,-1.696156543283069973e-01,-4.301013048703154762e-02,-2.400080373646507406e-02,3.805283334320442006e-03,-3.134707173397442009e-02,1.469649672508239746e-01
-4.570768974446801081e-02,-2.150817098355009005e-01,-4.995634776686559697e-02,-5.934071753132200014e-04,7.183557588253130805e-04,-2.983769511495317286e-03,1.673777550458908081e-01
-4.643710257113591033e-02,-2.137639194164560608e-01,-5.180409268561781549e-02,1.585548093912981116e-03,-1.334706571969040446e-03,-1.437676491460501400e-04,1.647482216358184814e-01
-4.579523566727954076e-02,-2.138434058946380167e-01,-4.670864801356271190e-02,2.231306164270175762e-03,2.943862927312697900e-05,1.080261321794282522e-03,1.676483303308486938e-01
-3.931800775446483986e-02,-2.130749988188483934e-01,-4.420967505003701309e-02,6.171784446872646129e-03,-2.749911619877992968e-03,-9.658821851528581531e-04,1.717708259820938110e-01
-4.443345141610323401e-02,-2.143002100440435931e-01,-4.049552630953671961e-02,1.433627683943906536e-03,2.398732815973275267e-03,-6.686399268752221420e-04,1.719416081905364990e-01
-4.134127420617116078e-02,-1.220007830994497555e-01,-4.486401426332645853e-02,2.894573111196420065e-02,-1.535753963636330831e-03,-4.215843020219022658e-02,1.186880990862846375e-01
-5.182579580516617768e-02,-2.289410238412685761e-01,-5.519212811974022470e-02,-2.697379627034274512e-03,8.949205103448781232e-04,-5.544374343681211098e-02,2.000778913497924805e-01
-4.216868202582658987e-02,-1.244878111030240098e-01,-4.501449896571178833e-02,3.353455432030221645e-02,-1.064889221277974096e-03,-4.070897962502882661e-02,1.220616102218627930e-01
-6.009026001173167764e-02,-3.342122830079589657e-01,-6.090740561047139345e-02,3.971953359382149329e-03,-9.950710538875431888e-03,-4.773832190896422356e-02,2.865323424339294434e-01
-3.488599994974400653e-02,-1.977716351136633577e-01,-4.970280398393558952e-02,1.491455751225317927e-02,-4.091653417918495600e-03,-3.258356749173956391e-03,1.583894938230514526e-01
-4.545838273705175847e-02,-2.109180718770116147e-01,-4.629071866603595015e-02,-3.263677074445142526e-04,3.856467011927994216e-04,-2.048042011001194665e-04,1.650477945804595947e-01
-5.166108558790361016e-02,-2.941696653462536615e-01,-5.546633409421691807e-02,3.910062423914807683e-02,3.226941484656075895e-04,-1.314640290474876176e-02,2.510128617286682129e-01
-4.330310960559192318e-02,-2.139054381640967673e-01,-4.675535170739944513e-02,-2.033508947438640785e-04,3.885196486950528451e-04,-1.829226936225366966e-03,1.689340919256210327e-01
-4.047971483455393288e-02,-2.039886536136287787e-01,-4.332379514607766907e-02,9.188021860039648214e-03,4.542959567512424267e-03,6.680990877259805096e-03,1.634849011898040771e-01
-5.061333897037007673e-02,-2.252944461214789196e-01,-4.558851492235142105e-02,6.098006307732011314e-03,3.571156840665162943e-04,4.171186643525854471e-03,1.777093559503555298e-01
-4.461544748305722174e-02,-2.294205592003497884e-01,-4.453289601301192030e-02,-2.676227994238421573e-02,-6.225095238024730068e-04,1.664877038607671944e-02,1.927422136068344116e-01
-4.760199369544226150e-02,-2.255799821367520386e-01,-4.483975781177020059e-02,1.174450819258723334e-02,-1.608277051713134830e-03,-3.971155354772699583e-03,1.806772798299789429e-01
-4.564430256880930292e-02,-2.126965381536035926e-01,-4.562598836933937085e-02,-6.792555450965053962e-04,-2.048748170667209073e-03,-1.088772740314484849e-03,1.671138554811477661e-01
-4.562483266113750990e-02,-2.452516057698405638e-01,-5.197185611686640921e-02,5.007989770967419957e-02,-5.080838144112033786e-03,-1.180329506127258087e-02,2.159710228443145752e-01
-3.978060103069318287e-02,-2.256551326816414460e-01,-4.794858465895127098e-02,3.584379373897814136e-02,1.495671614113110474e-03,-1.959668518330855494e-02,1.952203214168548584e-01
-5.786522446123751329e-02,-2.818069081364148465e-01,-5.873010738329839664e-02,8.334990582904584777e-02,5.978757337188828416e-03,-1.863962159904145044e-02,2.682314515113830566e-01
-3.107981173151619370e-02,-2.092021213451022432e-01,-4.657532886483832513e-02,4.116743920941285870e-03,-1.282335921021154207e-03,-2.674168782609941467e-03,1.711280196905136108e-01
-3.891991511542044341e-02,-1.652636063723864068e-01,-5.578093115731805329e-02,3.651343645102635149e-02,3.066466888299614751e-03,1.361414572687452348e-02,1.367504149675369263e-01
-4.678141574299427008e-02,-2.079390556698522685e-01,-4.392175994597256883e-02,-1.189219607246202841e-02,7.792762574119469800e-04,-4.834023480590655605e-03,1.641249954700469971e-01
-3.423112653502270730e-02,-2.082956875682883680e-01,-4.746579496659270037e-02,2.131932526563881485e-03,6.095494320070136594e-05,-1.696073713805809147e-04,1.678799390792846680e-01
-5.382749765334895325e-02,-2.171495451127419540e-01,-4.622963193841856527e-02,2.928327417492271323e-03,1.881723852740189518e-03,-3.210468026009926810e-04,1.673600226640701294e-01
-3.988380198948295041e-02,-2.307215922546751452e-01,-5.202436769218555385e-02,2.417195814301523540e-02,5.319961589451177759e-03,5.190807974838308574e-03,1.901793032884597778e-01
-4.698907699530087412e-02,-3.178899354804035626e-01,-5.859776109573092140e-02,6.179631975883574657e-02,8.724241552268634887e-04,-5.512370358714271338e-04,2.860713005065917969e-01
-4.662683863477913582e-02,-2.144970324345726875e-01,-5.278630810098090126e-02,1.678025714698664055e-03,-1.271677506889572554e-03,6.239241834901496000e-04,1.649206429719924927e-01
-4.701669389221278111e-02,-2.171438797852806579e-01,-5.268353910663375189e-02,8.931066159227164314e-04,-2.570462750851287316e-03,6.444154163044442211e-04,1.674358099699020386e-01
-6.589878753626833563e-02,-3.694824863541152915e-01,-4.596722639337101624e-02,-4.929281738662241383e-03,8.553905261361313336e-03,2.381092908251340040e-02,3.171821236610412598e-01
-4.797005359649105655e-02,-2.231881595980793054e-01,-5.462266832250053245e-02,-9.542798651819842310e-05,-3.366248741109651582e-03,-2.466430161517487243e-03,1.721402257680892944e-01
-4.482651935048037606e-02,-2.229135992509019282e-01,-5.616840291700036375e-02,2.454055112742091938e-04,1.282827213556868968e-04,1.175542047505337244e-03,1.727083623409271240e-01
-4.708056612889471859e-02,-2.172461407385976595e-01,-5.187506490383870378e-02,-1.552957767736839155e-03,-2.139409956629580341e-04,-1.086080150827320370e-03,1.678522080183029175e-01
-3.796609811974130388e-02,-2.453966885143137322e-01,-3.623010884873169302e-02,-8.670966630604851760e-03,8.477769688953421673e-03,-8.488499974118712821e-03,2.098759114742279053e-01
-3.229438107516656442e-02,-2.136338732144010821e-01,-4.651398983426768829e-02,-1.678162843453863363e-03,1.456109984016149298e-03,-2.172460121728598203e-04,1.747071295976638794e-01
-3.859282375188016756e-02,-2.115599456909644793e-01,-4.343160647964329490e-02,-2.258240177451761518e-03,6.253515319470571814e-03,-3.849561858910377325e-03,1.711173951625823975e-01
-4.258261538669878832e-02,-2.330754589374436914e-01,-4.929578548568111507e-02,1.086903145674878238e-02,-5.317390302964229189e-03,-1.062024559538324309e-02,1.892917901277542114e-01
-3.273068620745589463e-02,-2.038897220069511573e-01,-5.324925182157409786e-02,-2.362871164991277306e-02,-4.340874655077993360e-03,-3.847606780237680397e-03,1.672733724117279053e-01
-3.555633198888932811e-02,-1.784688372537175105e-01,-4.537411613014427636e-02,-4.034990969236437871e-04,5.279974293861024702e-03,-4.582698142858561419e-03,1.387963145971298218e-01
-4.107826417410787023e-02,-1.140870476607662443e-01,-5.255585918087384706e-02,-3.563623221718509315e-02,3.740947310052816430e-03,-8.958688296318108313e-03,9.336291253566741943e-02
-3.958296298246842537e-02,-1.001466916783992078e-01,-3.987757027802553422e-02,4.930870948535521353e-02,2.050927392248749238e-03,1.771534996968326600e-02,1.090796738862991333e-01
-3.764532654029605768e-02,-2.013815256220876371e-01,-4.069327898898138923e-02,3.851868138137171105e-02,1.147147684985657008e-03,1.556676558938135425e-02,1.774873435497283936e-01
-3.585631666581409055e-02,-1.513986043849489538e-01,-5.128417512558969271e-02,1.472361154770366644e-02,-3.648977391354305596e-03,3.244176485647967516e-05,1.117844879627227783e-01
-2.640531248163844463e-02,-1.861543347755645894e-01,-5.048645156634450071e-02,4.196639283237736488e-03,-2.284657888236518025e-03,-6.100300291792602574e-04,1.494065672159194946e-01
-4.045274535857176779e-02,-9.263153200342759408e-02,-3.788127823874491706e-02,4.517405219059102833e-02,1.571074546680463480e-03,-1.720487065709450092e-02,9.940285235643386841e-02
-4.050224754696787888e-02,-1.510067465494450978e-02,-4.000448071417112006e-02,1.464643261301319839e-02,-2.998746189485143772e-03,5.155068327218194010e-03,3.719004243612289429e-02
-4.572779890786299317e-02,-1.193910836138486475e-01,-5.692685610881796643e-02,9.705278137325076132e-03,-8.739852000797851796e-04,2.209202833539303452e-04,7.079374790191650391e-02
-4.528157256865966707e-02,-2.196308132207447361e-01,-4.763835224033756421e-02,-1.017127959981871388e-02,-2.473700579003798149e-03,2.991706848739311697e-03,1.742064356803894043e-01
-4.873444634870770925e-02,-2.165472773195614709e-01,-4.715855980441491929e-02,-2.845305130428661157e-03,1.510774868536445990e-03,-1.139701495413104979e-03,1.687101572751998901e-01
-4.423004075217359249e-02,-2.125604774980733858e-01,-4.562849691704289057e-02,1.498406854682967498e-03,-4.088100522352315592e-05,-1.379356046777006732e-03,1.676727086305618286e-01
-4.939583622945618174e-02,-2.212583810842390641e-01,-4.773674356588311629e-02,-1.248672227484521301e-02,5.470961266432438058e-04,3.227977313852010716e-03,1.741394102573394775e-01
-5.808638251368700156e-02,-2.234863047751269316e-01,-4.453139570414954562e-02,2.019806727957513572e-03,-3.675447684757251966e-04,-9.106365392578944559e-04,1.726209670305252075e-01
-4.250388611892431945e-02,-2.120966517600827994e-01,-3.596167872697576817e-02,-1.103623100373360205e-03,-4.018299245505611850e-03,-2.523786261877062655e-03,1.731624156236648560e-01
-4.883832995199717530e-02,-2.474549248464592011e-01,-4.558676164311321888e-02,2.434405791040717033e-03,4.655156301279246914e-03,3.571408452115550276e-04,2.004697322845458984e-01
-2.895575670347695640e-02,-2.091229634065128185e-01,-4.702599485415222963e-02,-8.962749464050691860e-04,-1.115402841679819304e-03,-6.687855211747770559e-05,1.718640327453613281e-01
-2.604051698376680379e-02,-2.003455466491075865e-01,-4.721685438046430150e-02,-4.612265135885161571e-03,-2.511411555362312413e-03,-1.584540187052807980e-04,1.649919897317886353e-01
-3.099057492220916310e-02,-2.089452801533358550e-01,-4.555654184427444103e-02,-3.019641536437027928e-04,-1.365200948683798409e-03,-1.445557089339674802e-04,1.711545735597610474e-01
-3.029851151074530735e-02,-2.109948502514367163e-01,-4.963300748361004766e-02,-1.773264511242335448e-03,-8.222168392206324027e-04,-8.583289927056447907e-04,1.718865633010864258e-01
-2.885214387302499628e-02,-2.081430596729882398e-01,-4.738355021515953946e-02,-7.967787628966972518e-04,-1.061429517223581691e-03,-2.676850448454201658e-04,1.707970499992370605e-01
-2.737101289622494160e-02,-2.060849169677245740e-01,-4.834379105576838698e-02,1.146676467654492669e-04,-1.586992246321451911e-03,-5.481843049571031440e-04,1.692302823066711426e-01
-3.670122756379422951e-02,-2.132796335410095945e-01,-4.557489904304029560e-02,-2.470361541903100429e-03,-2.120125328674386800e-03,-7.413741210795757753e-04,1.724100261926651001e-01
-3.161886230502351791e-02,-2.119496818117461157e-01,-5.630933380941510052e-02,-8.037865530747130213e-03,-1.688749628725418105e-03,-2.753043185761830988e-03,1.700043678283691406e-01
-4.524892463510499230e-02,-2.116306724175706089e-01,-3.841129343104041777e-02,-2.175544262202541972e-03,-2.269551821600054343e-03,2.693133185001555857e-04,1.699916571378707886e-01
-4.229823575768433541e-02,-2.122006960046088075e-01,-4.196057828172617549e-02,-1.469923463295985059e-03,-2.038127934194727472e-03,4.186703340586387170e-04,1.701287776231765747e-01
-4.526721194480963495e-02,-2.130883120953167009e-01,-3.439114465359105477e-02,-1.134624902621216794e-03,-3.647341850151646254e-03,9.234051280207933310e-03,1.743760854005813599e-01
-4.797004475179436622e-02,-2.205879891467302789e-01,-4.867747677044269999e-02,-2.865864466289137812e-04,1.902085788875371901e-03,-2.315561181177316907e-03,1.723442077636718750e-01
-4.633814582899898477e-02,-2.105530232342761598e-01,-3.759493613432107750e-02,-2.488732070548843470e-04,-4.304457643507166747e-04,8.039952376047684911e-04,1.687643826007843018e-01
-4.448334280411900266e-02,-2.107082007202382978e-01,-3.358502184957921910e-02,-2.776401145356080860e-03,-2.571118177302916981e-03,2.925118222916407110e-03,1.721327304840087891e-01
-3.910641190289102648e-02,-2.113610927155138430e-01,-4.127645304424620160e-02,3.229939225927804273e-04,-1.373836975245602615e-03,-2.935595317167144264e-04,1.711981892585754395e-01
-4.376758859325351886e-02,-2.083515017874242869e-01,-4.733787736189977446e-02,-1.098708708499542859e-04,1.852458284851127410e-04,-2.124282044898763596e-04,1.628289669752120972e-01
-4.713012940588767741e-02,-2.289968922479472813e-01,-4.858302515152058965e-02,6.166598918375485600e-03,3.640491693918069204e-04,-3.288140110405763251e-03,1.815497428178787231e-01
-4.878138503470311887e-02,-2.165362352157162440e-01,-4.603992084451410255e-02,-2.730775266232359465e-03,1.528902049602603444e-03,-2.256745506076938707e-03,1.692742258310317993e-01
-2.723381529909978116e-02,-2.047087538700201881e-01,-4.530814653722109453e-02,2.332276890274652056e-03,-2.668282329204870514e-03,-7.709646441372512010e-04,1.692801117897033691e-01
-4.206807291879130495e-02,-2.210348950785068767e-01,-4.710860474152379213e-02,-1.858991113610557883e-02,-5.161042990898240430e-03,1.088263850987853179e-02,1.806222647428512573e-01
-2.937707087835193798e-02,-2.334753835935470256e-01,-3.776108854237594792e-02,-1.197248058097607343e-02,3.909748532317533151e-03,-1.014165991492285007e-02,2.019893229007720947e-01
-4.363002944515814718e-02,-1.059114720687039934e-01,-5.291080285766157354e-02,-1.321026665504314822e-02,-5.640667694951255647e-03,-2.406057613208794580e-03,6.343061476945877075e-02
-5.123797327874753810e-02,-2.154037712333338461e-01,-4.423004811751121701e-02,-2.266893009112131048e-03,-2.606429695473671442e-04,-6.345685652939966307e-05,1.678261458873748779e-01
-2.718375999708676216e-02,-2.067725994970982528e-01,-4.846256854729126540e-02,-4.024626777042707854e-03,-2.523746342921860501e-03,-7.992291292596886065e-04,1.701561659574508667e-01
-2.750192622796078512e-02,-2.077895388737716620e-01,-4.885832470832711383e-02,-3.708650709378251854e-03,-2.281038887258134140e-03,-1.198570971290296603e-03,1.707940399646759033e-01
-4.237389482500954208e-02,-1.653164336081875130e-01,-4.678051880739077240e-02,-7.930999608130316278e-03,-8.068078607931071164e-03,1.233569338584497143e-03,1.223971992731094360e-01
-3.511914993785712064e-02,-2.096065379578503085e-01,-4.650675642501674728e-02,-7.360487160960274165e-04,-1.694531893715410043e-03,1.752671576418344558e-04,1.691119819879531860e-01
-3.985045273970418828e-02,-2.123434184923714552e-01,-3.705072404725338192e-02,-2.690296131880662647e-03,-5.155907143146796004e-03,8.575762124974422532e-04,1.742075383663177490e-01
-4.741097627974468626e-02,-2.082232905176748805e-01,-3.072004022427819725e-02,-5.490119821212240472e-04,1.096653386025915394e-03,-8.004577419216632895e-04,1.697932034730911255e-01
-4.161118298313864344e-02,-1.936605937457846482e-01,-3.898739650651572575e-02,-1.810917566366367776e-02,1.064558105552661574e-02,-1.212013804548135384e-02,1.590262800455093384e-01
-4.592183504901004715e-02,-2.125810428614560710e-01,-3.271924823900224100e-02,-7.509869843314000626e-04,2.669582111028351648e-03,-1.595957776532812939e-03,1.737257838249206543e-01
-4.673568981879411277e-02,-2.148634532344241566e-01,-4.175690633155378778e-02,-1.523423666933465797e-03,-1.159306661644524464e-03,-2.628402411002989623e-03,1.707645356655120850e-01
-4.565366299417436546e-02,-2.148993237247234234e-01,-4.787330202044288302e-02,1.098497239512730757e-03,3.195154992461988856e-04,1.369171961856321127e-03,1.681752204895019531e-01
-4.436417421375100922e-02,-2.066864497914141507e-01,-3.990573136762783774e-02,-6.450254022985066858e-03,1.950289379487392264e-03,-4.694748387520975702e-03,1.652103364467620850e-01
-4.508765898973382535e-02,-2.149865532600895301e-01,-4.774899537151432866e-02,1.420695345199015670e-03,2.991555116588448548e-05,1.397700105951894811e-03,1.686193197965621948e-01
-6.416282578398442571e-02,-3.199485225866790516e-01,-4.461203010433358040e-02,-6.176623434605773427e-02,5.339217183317738645e-05,1.103546277312186102e-02,2.874368131160736084e-01
-4.374691965453415127e-02,-1.673315165300370555e-01,-4.848231556755480676e-02,-3.817390347528566708e-02,-1.371083200299703844e-03,-5.048246483621207648e-02,1.635028272867202759e-01
-4.162044624381522340e-02,-2.184755951757813008e-01,-4.832820833399977672e-02,2.402538284348185171e-02,6.235261611549859119e-03,-3.235080733328189045e-02,1.874151825904846191e-01
-5.873307267223532024e-02,-2.636011020034653152e-01,-5.416513735817823916e-02,-3.671079830236904235e-02,-1.963423447733287676e-03,-4.714868625978717309e-02,2.316273003816604614e-01
-4.034480015477195924e-02,-1.302826236868162291e-01,-3.103811612932008690e-02,2.107173763617364599e-03,2.884941210088787320e-03,-4.112700220470316692e-02,1.188487708568572998e-01
-4.950403911962757142e-02,-2.155787380997264968e-01,-5.151684784273245082e-02,2.070529272942281396e-03,-3.269550107313872606e-03,3.449842088528486464e-04,1.652146130800247192e-01
-4.629311036565307569e-02,-2.133363640780365778e-01,-4.499149443115980224e-02,1.633962825959802160e-03,-3.336579573753736469e-04,-1.388858159428920129e-03,1.677399724721908569e-01
-4.385267467298563371e-02,-9.920646824877826786e-02,-4.634144283535057002e-02,-1.332675217429529942e-02,-6.805094594309913161e-03,-6.296637530220736134e-02,1.244929805397987366e-01
-4.554738488768570598e-02,-2.119031750763878952e-01,-3.073045776372922144e-02,-3.199338821316941896e-04,1.253769701539223045e-03,-6.958468811591715479e-03,1.746681332588195801e-01
-4.499126917059050740e-02,-2.162001139935384453e-01,-4.315253716070052703e-02,3.567522650583365013e-04,1.232251911415017638e-03,-3.466621147561191156e-03,1.722545921802520752e-01
-5.116795555643699478e-02,-2.443504580292594763e-01,-5.277244658582622150e-02,1.123775910415624867e-03,-1.304863427520230228e-03,-1.030659121573129777e-03,1.924166828393936157e-01
-5.620957771445914131e-02,-2.196812243177522217e-01,-4.488823600761787658e-02,-2.029201502042823500e-04,-5.845443916540732062e-04,-2.230713224999478737e-03,1.694637089967727661e-01
-4.942347809913968937e-02,-3.580079182256248327e-01,-6.517476417793133248e-02,1.055541092912859295e-02,3.417557663602297999e-03,-9.927077503159796243e-03,3.021204769611358643e-01
-2.377395162541495743e-02,-2.002614142979952105e-01,-4.902267851638041074e-02,1.716558114993694010e-03,2.445739911757413001e-04,-1.539308790826912285e-04,1.653430610895156860e-01
-3.968899098011552384e-02,-2.354624012402987410e-01,-4.723724807704673262e-02,-1.216741283700287918e-02,3.200514893453295512e-03,-3.181728746012970569e-03,1.934210211038589478e-01
-5.351263870536329681e-02,-2.172722796792890820e-01,-4.676869722145692021e-02,2.134057558070170772e-03,-1.190952897226509564e-03,2.172947749988184997e-03,1.673295199871063232e-01
-4.582872430384887785e-02,-1.671697933594660235e-01,-3.827983270665163279e-02,1.325564270317288514e-03,7.477504772053748458e-03,5.278448470316186858e-03,1.263060867786407471e-01
-4.113045992510334925e-02,-1.752969359494102597e-01,-3.807101560082227359e-02,4.354366137196020309e-03,9.960112720953928633e-03,8.699900552994646596e-03,1.378478705883026123e-01
-4.252175429806522022e-02,-1.873021629359544749e-01,-3.639216945540383469e-02,4.116003085860390869e-03,8.114798241533268536e-03,8.564230493658313379e-04,1.487849354743957520e-01
-4.425257369030693999e-02,-1.921151538793706426e-01,-4.138981129266698644e-02,4.138979348961228932e-03,1.002925821294172251e-02,7.573980365527989075e-03,1.510631740093231201e-01
-3.801895484208368814e-02,-1.620682177218840669e-01,-3.466918640770880189e-02,1.445520252871708780e-02,1.049947216064220368e-02,1.616401173160583390e-02,1.325004845857620239e-01
-4.557929854059700192e-02,-1.198289167559710849e-01,-3.458929383860664952e-02,1.565807247043531081e-02,6.344410912592703643e-03,2.683786897058297594e-02,9.729791432619094849e-02
-3.502511225061859940e-02,-1.653415070135059173e-01,-4.817503788063952352e-02,1.253340200384423647e-02,6.551363909877636060e-03,7.730778549162650899e-03,1.273614764213562012e-01
-3.762082177540243544e-02,-2.051721806923994529e-01,-3.553644724175913927e-02,9.624275293780187521e-03,7.194255144147770203e-03,6.436977889385504456e-03,1.702483445405960083e-01
-4.730510374672954738e-02,-2.096783692532523946e-01,-4.758251194342293794e-02,2.353744881052007617e-04,-1.941287783937823276e-04,1.149218756957775521e-05,1.622356027364730835e-01
-4.888440333519381009e-02,-2.336237661749206995e-01,-5.425619929028759059e-02,-4.176138504571786508e-03,-2.976960704604338266e-03,-2.117209403666057716e-03,1.823662817478179932e-01
-4.586519659814258798e-02,-3.009382306965686649e-01,-4.548532739333201180e-02,4.245682631240357829e-02,9.362286657970071702e-03,1.913485638590672541e-02,2.681947350502014160e-01
-4.487608111741583916e-02,-2.154986805831601016e-01,-4.553495771711880968e-02,-1.128781341214562172e-03,1.005240052587754590e-03,2.947744324558048161e-04,1.703150123357772827e-01
-4.589091063080295158e-02,-2.126734485562671861e-01,-4.499475035764982644e-02,1.772273314542520926e-03,2.813150214412469164e-04,-9.409493675988592632e-05,1.672613769769668579e-01
-4.690991643029773783e-02,-2.377875913263552410e-01,-4.670955683913897982e-02,2.850795602117673494e-02,3.480522780342729886e-03,1.765826520165345720e-02,1.997059583663940430e-01
-4.916576082305033901e-02,-2.485569084745416768e-01,-4.895539355637214263e-02,1.679517180330052789e-02,4.215669425516648840e-03,4.241281229244809464e-02,2.146972417831420898e-01
-4.260140524238377469e-02,-2.126280082071392852e-01,-4.070500075839830062e-02,1.482559634731154619e-03,2.030622625038903169e-03,1.290916688706230525e-03,1.710527539253234863e-01
-5.056415649892419262e-02,-3.008918118233838146e-01,-4.316348520350885010e-02,-1.729215434396902222e-03,6.366369829203783956e-03,1.592041691518079199e-02,2.558558881282806396e-01
-5.106375022395591434e-02,-2.928937486985607741e-01,-5.144469942041920985e-02,-2.163021347756327942e-02,3.875659206861517114e-03,8.403968546474764253e-03,2.450516521930694580e-01
-4.237871333256799933e-02,-2.125711100037014911e-01,-4.200899307292155910e-02,2.130173845000574249e-03,2.457748334393734108e-03,2.418212693096459878e-03,1.705221086740493774e-01
-3.335419380938397377e-02,-1.956550301033458394e-01,-4.109526265094688713e-02,2.237859069460516881e-02,1.058444325954585943e-02,9.771985340101624340e-03,1.651365309953689575e-01
-4.479773909624067130e-02,-2.110378036829696491e-01,-4.407128952751191570e-02,2.809006820665431079e-04,-4.792613503871552484e-04,-2.585693012262147046e-04,1.666078567504882812e-01
-4.451213188042137114e-02,-2.128701672972944658e-01,-4.507221542601676234e-02,-7.382275035230338603e-04,8.768723355394773638e-05,-1.238055999979264816e-03,1.680973023176193237e-01
-4.263005885897974689e-02,-2.100367673740861085e-01,-4.056510925125871719e-02,1.380631421970368968e-04,1.676629334401343648e-03,1.509458247842641355e-03,1.684941649436950684e-01
-3.992727918292857114e-02,-2.103994992766994865e-01,-3.993088825440296863e-02,2.591808958451915623e-04,9.569362616405384728e-04,5.988923017297346166e-06,1.704790592193603516e-01
-4.395350768989762791e-02,-2.168066166924667026e-01,-4.635479679339039177e-02,-1.535595621591795239e-03,7.519888446770689959e-05,2.612346779125291176e-04,1.716863065958023071e-01
-4.733390716685884764e-02,-2.174098193398737167e-01,-4.446089098354717717e-02,-2.377541585580906190e-03,-9.543284264436654833e-04,-7.964037494044806350e-04,1.715933978557586670e-01
-5.592802012027400793e-02,-2.158733648361630952e-01,-4.417300945434879389e-02,-5.053592040433925719e-04,-3.625366314260986900e-04,4.523031857400874639e-04,1.661403775215148926e-01
-4.257813133572999759e-02,-2.099690808678395526e-01,-4.434027516403455521e-02,7.774583364059438687e-03,-4.650451344002268727e-04,3.475151248995686157e-04,1.670634895563125610e-01
-3.086483837169594346e-02,-2.065443928312805932e-01,-4.648344725793226301e-02,5.720377981046505765e-04,-2.514670025206557861e-04,-1.143651939338150968e-03,1.684294193983078003e-01
-4.153048157469817203e-02,-2.120155503722659096e-01,-4.438276333817096214e-02,-1.097587255859282240e-03,-4.172307025645979580e-04,4.248265618609928999e-05,1.690892279148101807e-01
-3.636879051044450417e-02,-2.101940233897687249e-01,-4.837722106124579119e-02,4.551786501617190975e-04,-6.963700491174954193e-04,-1.877510903580635214e-03,1.681805551052093506e-01
-3.811142651447090024e-02,-2.173832417074866297e-01,-4.189342308253293790e-02,3.816549778029959539e-02,2.937657871625118204e-03,1.295454751939533605e-02,1.907192915678024292e-01
-5.231371635015686500e-02,-2.120037734192008472e-01,-4.755401967326363527e-02,1.602379210658044415e-04,1.783764634659575727e-03,8.388990930133904391e-04,1.621585041284561157e-01
-4.906752564595685817e-02,-2.100871070209359148e-01,-4.921411600403012565e-02,4.038377112074616735e-04,1.718241850878034823e-03,-3.352448150781471787e-04,1.609764099121093750e-01
-4.902894347868338998e-02,-2.100616270825536591e-01,-4.915954611224880588e-02,4.331443643600091766e-04,1.100489794611463176e-04,-4.007532246443273134e-05,1.609693020582199097e-01
-4.833970699027566320e-02,-2.133276291494257126e-01,-4.624554384730229090e-02,-9.284851100398144440e-04,-1.357163664868337458e-04,1.710825117686458037e-03,1.660792976617813110e-01
-4.825101949122417161e-02,-2.160524466883543826e-01,-4.764262134203683247e-02,-1.804868409475798591e-03,1.833030165900291150e-03,1.406347803791662635e-03,1.681831330060958862e-01
-4.735307807956584680e-02,-2.110531811118349088e-01,-4.759726027684286348e-02,4.443901678291441019e-04,-2.178928074657442723e-04,-2.392520099478723792e-04,1.635809242725372314e-01
-3.955425473110260604e-02,-2.097115671830339645e-01,-4.601848693738865015e-02,8.053535049835038235e-05,-1.920098621425286737e-03,-1.995035685965444641e-03,1.670879423618316650e-01
-3.783474163669601348e-02,-2.104140988534634049e-01,-3.699537109795114631e-02,8.106110846256597488e-03,-5.942811708747327420e-03,-1.889070219374389126e-02,1.769261211156845093e-01
-5.158234677060731521e-02,-2.174228958873420658e-01,-4.683106777747583077e-02,-1.068614101928226992e-03,3.184078922164012594e-03,4.607640680441893780e-04,1.683689206838607788e-01
-4.311771701187950417e-02,-2.103849239709878471e-01,-4.372632683817542082e-02,4.358011832839881763e-04,8.970505164749865154e-06,1.113055950416665061e-05,1.669654399156570435e-01
-5.015862431397585808e-02,-2.577150205583331188e-01,-5.416986091355378841e-02,-3.452243745130805820e-03,-1.039179268805492506e-03,6.011664004219082445e-03,2.059383541345596313e-01
-4.541073858118860329e-02,-2.300417377844749534e-01,-5.013954245354333705e-02,-5.063640491403627319e-03,-2.528748472160616094e-03,3.798485827208041531e-03,1.826944798231124878e-01
-4.788935467522162370e-02,-2.406826031320256076e-01,-4.668476521272968416e-02,2.974181488272312213e-02,4.373568516101332231e-03,1.404756182842717242e-02,2.017573714256286621e-01
-4.405429926145705555e-02,-1.734724566875308627e-01,-4.011043311625968333e-02,3.825504330326396502e-02,5.925132293055606313e-03,3.900471900748912757e-02,1.622799783945083618e-01
-3.474097258050296011e-02,-1.511330775478095245e-01,-3.581350102620996234e-02,5.044208609220210415e-02,3.985939042734730660e-03,5.277188251227934307e-02,1.716360300779342651e-01
-3.970220142377382799e-02,-1.525186984042404548e-01,-4.086493500489186970e-02,4.702789051772975765e-02,3.462505288018361167e-03,4.624091100783071784e-02,1.602599024772644043e-01
-5.354644438411847174e-02,-2.574647408951564187e-01,-5.112141760986041450e-02,8.043175433942686969e-03,-2.710023627362380567e-03,-3.163666543099105926e-03,2.057406008243560791e-01
-2.778561155011138872e-02,-2.064848172179236108e-01,-5.376453865930989895e-02,9.474976511384257394e-03,2.256980278304086818e-03,-1.033813567812755761e-03,1.680884063243865967e-01
-4.194654133251717043e-02,-2.171968735978755949e-01,-4.004359305733778268e-02,1.035135207921493439e-02,8.462876268379593975e-03,1.075768333591832319e-02,1.786988824605941772e-01
-2.829911076640355405e-02,-2.090918295369930957e-01,-4.654652145028508048e-02,1.228313952017517051e-02,1.804569488982441135e-03,-6.186696427048086122e-04,1.737340539693832397e-01
-3.489438577908170191e-02,-1.699797828032110492e-01,-4.021369828701422400e-02,2.516638316547786455e-02,9.391592133301481654e-03,7.618523240550535529e-03,1.410551965236663818e-01
-4.496289575876162570e-02,-2.016606673790096727e-01,-2.582685285647166873e-02,8.165944644288339544e-04,1.206969592449650980e-03,8.955105417017825749e-04,1.671159267425537109e-01
-4.215786732306203710e-02,-2.037283638467973224e-01,-2.847693867116565802e-02,-1.919638201486737925e-04,1.996866366750070770e-03,1.121009191020045878e-04,1.688630729913711548e-01
-4.547458055195779947e-02,-2.032261030358139819e-01,-2.886061069908596455e-02,-9.973125624114163835e-05,9.106496385392286825e-04,8.034447879551462812e-04,1.666940301656723022e-01
-4.211085849010207799e-02,-1.934706118874992831e-01,-3.081770804632878030e-02,3.538236558234275804e-03,6.314863668450553143e-03,4.565601234719803350e-03,1.580074727535247803e-01
-4.565025878888395727e-02,-1.829530848123938902e-01,-2.945791927334649035e-02,1.387291295218030492e-03,6.021781217187165310e-03,5.753328642369742729e-03,1.468038558959960938e-01
-4.922285686290435447e-02,-2.058159260124941548e-01,-3.064956925513231956e-02,1.596746660856434045e-03,1.391595578520400884e-03,4.731484455293654551e-03,1.668994426727294922e-01
-4.252068697464385372e-02,-1.963586245292042176e-01,-3.162663607181196573e-02,3.952059226100871486e-03,6.524134146809830795e-03,6.334591726478305991e-03,1.604856401681900024e-01
-4.822750206762556335e-02,-1.926797898884833604e-01,-2.675479629217034777e-02,3.011023515744653840e-03,3.667289954416273669e-03,8.486510082838946700e-03,1.572034657001495361e-01
-3.140146957254297266e-02,-1.970309583396725461e-01,-5.014491706870982668e-02,8.422661606166354648e-03,-4.740607618162839473e-03,-2.782485678695745344e-03,1.580615341663360596e-01
-4.696086319154216260e-02,-1.665190917499514422e-01,-4.945248821558981267e-02,1.462676122445817151e-03,-7.095303743677138821e-03,-7.247685355309451370e-03,1.196558326482772827e-01
-2.924970857952699510e-02,-7.810500279170654037e-02,-3.285565998994846582e-02,3.467247454403588752e-02,-1.392535335670818481e-03,2.093045637286616856e-02,8.455935120582580566e-02
-4.356909224537455771e-02,-1.458337862597185730e-01,-5.439256575318544840e-02,3.356156521208617655e-02,7.627802834505236114e-03,2.193799358409956324e-02,1.202741414308547974e-01
-3.739131961054509984e-02,-6.348225639653273800e-02,-4.219258567754592681e-02,3.636581762150320474e-02,-2.764418784914970950e-03,9.971537239091117499e-03,6.976502388715744019e-02
-3.882436696882147348e-02,-8.078951572758746869e-02,-3.124551055793507726e-02,3.414414428500428533e-02,4.693328979291162134e-03,7.654129037611488544e-03,7.665421068668365479e-02
-4.665014259625466231e-02,-6.222412604794580471e-02,-4.591626579572785638e-02,2.667036213959116803e-02,1.177399210952623189e-03,1.914795824606752017e-02,5.909765884280204773e-02
-4.141838050883232814e-02,-2.120793051466017543e-01,-4.343228307302177127e-02,2.402546029548368234e-04,1.490829249774189768e-03,-6.390486001402731139e-04,1.696867048740386963e-01
-4.450424169896975007e-02,-2.110575531557588036e-01,-4.467646496682082385e-02,-6.068991339255479971e-04,2.338575297415641124e-04,-7.472544032175897815e-04,1.664761155843734741e-01
-4.001375634493590377e-02,-2.108814596043370182e-01,-4.290353080832644966e-02,1.250537147285565170e-03,1.035541617823142755e-03,8.101915476282173050e-05,1.694646924734115601e-01
-3.706468086438174936e-02,-1.472934850096103421e-01,-2.980199781330412218e-02,2.344213749329769614e-02,9.892944339787074215e-03,2.153566723403278413e-02,1.278172880411148071e-01
-3.855595855107858683e-02,-2.104924530977482500e-01,-3.874038542096377297e-02,3.123604108911645421e-04,-2.993657603419095247e-06,1.838253379962747768e-04,1.718454957008361816e-01
-4.415938282507253509e-02,-2.125045800524091311e-01,-4.494779607139311184e-02,-7.283759793652606201e-04,4.472339834812880045e-04,-9.480437974497672206e-04,1.679669320583343506e-01
-3.987594995126982761e-02,-2.103369971145199191e-01,-3.952046521518604721e-02,1.370258732844498476e-03,1.060292082413836177e-03,1.081730524563123772e-03,1.706757396459579468e-01
-3.050309640879454720e-02,-2.073818561019167561e-01,-4.518020036533073464e-02,-4.730230554666437436e-04,-1.463435920633607019e-03,1.016366900510803505e-04,1.700369715690612793e-01
-3.890880386862356766e-02,-2.292479412768429481e-01,-4.992578538196773552e-02,-1.040379846645762482e-02,2.697589274065948124e-04,-1.000642688837898552e-03,1.859605759382247925e-01
-2.777956956329574734e-02,-2.060619429967355254e-01,-4.653025382753389616e-02,4.274087560433766108e-04,-6.701279814232876525e-04,-8.996234132277710683e-05,1.696914732456207275e-01
-3.987681838011340740e-02,-1.679446470817640147e-01,-3.882984394694041774e-02,-8.287408106587269840e-03,-8.139662698454896983e-03,5.080455629256543787e-03,1.304560750722885132e-01
-3.580348446398359807e-02,-2.136774587099853351e-01,-4.660606955191828882e-02,-7.482934304495754245e-04,-1.061030550668170050e-03,-1.117527452752654481e-03,1.727517098188400269e-01
-4.837375863447995750e-02,-1.904740463774794446e-01,-2.545784313508125951e-02,-1.047843811551450732e-03,-2.543316034639029385e-03,7.785923354906035265e-03,1.554945409297943115e-01
-5.396376574041712726e-02,-1.547199816889834878e-01,-3.823032421924106583e-02,-8.073141268714134969e-04,-2.146572613036419174e-03,8.111608823319184716e-03,1.104435250163078308e-01
-4.214991286621920519e-02,-1.554494995017165204e-01,-3.942231575788811976e-02,-1.273415451324046155e-02,-2.718434278673530474e-03,3.979521263645631468e-02,1.356941163539886475e-01
-3.799368353692991751e-02,-2.078617966946764983e-01,-4.561548062673624615e-02,-3.261709378543390433e-03,-7.455255584680281662e-03,4.270067526741566817e-03,1.669488698244094849e-01
-2.581520099016672287e-02,-2.056354877732804454e-01,-4.890850572385725681e-02,1.571944184366014675e-03,-9.071931824038538886e-04,-1.797864390871928720e-03,1.695156991481781006e-01
-3.095931588688594083e-02,-2.075666163707514111e-01,-4.723913640351118381e-02,6.937367290401683442e-03,-2.996747320818426204e-03,-1.856756977484340636e-03,1.695927530527114868e-01
-2.371641449102761257e-02,-2.004613941257419873e-01,-4.894820866030781537e-02,1.352742381171712343e-03,1.674891844816833698e-04,2.546366479861972851e-04,1.655947118997573853e-01
-2.921684259582339044e-02,-1.949042216679307549e-01,-4.948620094042158191e-02,5.412309219193498985e-03,-3.847371807360785035e-03,-2.941200936247475532e-03,1.570446342229843140e-01
-2.813548947912328235e-02,-2.044451607494414125e-01,-4.712706826817532335e-02,3.101833732053070961e-03,-2.940976397900881608e-03,-9.464923121612268302e-04,1.677941679954528809e-01
-2.844073111759988504e-02,-1.994307433334637780e-01,-5.003195324995470677e-02,1.226224882911344880e-04,2.934515050149211560e-03,7.448420780619863539e-04,1.613673567771911621e-01
-3.791543811833129884e-02,-2.124522082095760267e-01,-4.617932645836473476e-02,-1.857104074341751985e-03,-3.060512271158722796e-04,-8.080025816458911124e-04,1.705919355154037476e-01
-5.899998044311636353e-02,-1.793263620180056139e-01,-3.093780612335197272e-02,-3.672850890126361147e-03,-5.440729776388803993e-03,1.943233882835411833e-02,1.410838961601257324e-01
-5.066889072235955527e-02,-2.149355671750632357e-01,-4.732776631920895122e-02,8.850370798335496867e-04,2.646643967712347494e-04,-2.088981288043702776e-03,1.660096049308776855e-01
-4.882076769554433843e-02,-2.123296782798708149e-01,-4.761112963361625872e-02,5.421787856532715442e-06,8.406284363314108377e-05,-2.123080510777617042e-04,1.641175448894500732e-01
-4.978252582399675386e-02,-2.207498673390439203e-01,-4.517974502425390476e-02,-8.549448698054832110e-03,1.482817101686074697e-03,8.189596020431530107e-03,1.745423376560211182e-01
-4.625897377235758945e-02,-2.214107300766779973e-01,-4.602384105104728729e-02,-2.055518726892722331e-02,-9.588554870821493908e-03,-2.454554910136508977e-03,1.796686351299285889e-01
-3.919004134579615051e-02,-2.524676078099063470e-01,-4.447602541283759980e-02,-2.129069231425669353e-02,-5.121353339130121918e-03,3.258207206238976361e-03,2.141454964876174927e-01
-4.670285611820824967e-02,-2.301922603088211727e-01,-5.194375186740721878e-02,-9.203931115398709950e-03,-2.506053647523030694e-03,1.181115035982056166e-02,1.828268766403198242e-01
-3.826880184168666293e-02,-2.097815583366559322e-01,-4.601000396440182993e-02,1.648135712136277039e-04,-2.057450739318642278e-04,-9.778137437499155073e-04,1.677853167057037354e-01
-4.883262353971943442e-02,-1.415554502784228397e-01,-5.046106410110708096e-02,5.979272666324380453e-02,-8.314617738737410495e-04,-2.568255205238375791e-02,1.454494595527648926e-01
-4.652929844045942259e-02,-2.106547270898611046e-01,-4.329120189193160634e-02,-2.550820469194637653e-04,1.058779867226274009e-03,-6.507664579894914883e-04,1.657827645540237427e-01
-2.777045169932257362e-02,-1.984113440506560244e-01,-5.106901153228551871e-02,1.848784060812275545e-02,-5.559316512822098065e-03,-4.116664089461895271e-03,1.638731509447097778e-01
-3.958380755836632403e-02,-1.035311381409111942e-01,-3.488128246573304891e-02,5.118317239728843032e-02,-3.297481129107419310e-03,1.113995065494174930e-02,1.125884354114532471e-01
-3.504392425050986692e-02,-1.885136346617012348e-01,-4.217207406636191980e-02,1.605748626658497213e-02,-6.783698044317575983e-03,-7.872196616223403609e-03,1.536466926336288452e-01
-4.657566069139067177e-02,-2.409953898841097342e-01,-4.975346489091996005e-02,-6.004799831244451644e-03,-2.308086312032287533e-04,2.185536683144901834e-03,1.931682229042053223e-01
-4.670219694411868044e-02,-2.192795462808135865e-01,-3.792701174772800110e-02,-4.821259718766567580e-03,-2.443663581705603390e-03,9.944001058380128044e-03,1.782095432281494141e-01
-4.762047604439301890e-02,-2.153828157191424175e-01,-3.719046872369256851e-02,1.215545725787766859e-03,-2.524196650458893814e-04,5.261317647771112521e-03,1.734658926725387573e-01
-4.251368111199826244e-02,-2.282468451083689009e-01,-4.251466634627477231e-02,-2.899650068250744610e-03,8.206867094721892724e-04,2.725626076184154561e-02,1.917096227407455444e-01
-4.596458292796377909e-02,-2.115027995596805432e-01,-4.389767202791187983e-02,-4.620769893112117404e-04,5.446884456681748768e-04,2.143020163866713801e-04,1.665862947702407837e-01
-5.071269554173919725e-02,-2.536317535980773252e-01,-5.671188111204611415e-02,-5.523373199633902983e-03,-2.233892675829241058e-04,5.987983486573426190e-03,2.004844844341278076e-01
-4.942897537600497021e-02,-2.035033653351692173e-01,-4.452234464611114217e-02,3.682868432437064188e-02,2.823171783998387665e-03,5.799564706747691034e-02,1.967293322086334229e-01
-4.589044182912257325e-02,-2.248835545236533284e-01,-4.184606192869029517e-02,-1.275945848320231453e-03,1.749172135269024941e-03,2.366529369288958642e-02,1.856690794229507446e-01
-4.580634376634321742e-02,-2.155073996335105657e-01,-3.983805148543988900e-02,2.505282383541423833e-04,1.931867573905772821e-03,4.575111307218274886e-03,1.729770898818969727e-01
-3.697287315386839357e-02,-1.535143829577804153e-01,-4.070082635751753192e-02,5.676919609480883186e-03,1.589545332547591394e-03,6.328023695408141469e-02,1.589930355548858643e-01
-4.712420802663460501e-02,-2.057487853610380224e-01,-3.222176983129165784e-02,-5.407459198150040306e-04,8.429415279066912806e-04,3.274926374748087215e-03,1.666820794343948364e-01
-4.598569337846805660e-02,-2.087574206825253409e-01,-2.708896561820699211e-02,2.122967569010579449e-03,2.670529014721495335e-03,1.438970678590355441e-02,1.748819053173065186e-01
-4.590465853899190068e-02,-2.131209285407621445e-01,-4.016244550499289273e-02,-1.141321690359446955e-03,2.707956999540924066e-03,3.486516646371877297e-03,1.703432351350784302e-01
-3.093687354766262027e-02,-2.045638268109471469e-01,-4.406405632376390186e-02,1.862439223418393616e-03,3.285832855261523310e-03,5.028755175641975127e-04,1.675797253847122192e-01
-2.855793715690524426e-02,-2.043386819127902265e-01,-4.082278535195320995e-02,-3.204003477268102724e-04,9.343176436497926908e-04,-1.856899768688583235e-04,1.699894219636917114e-01
-3.188706242455734141e-02,-2.051685644474253722e-01,-4.127938432424115706e-02,-2.195479481250909746e-04,2.241205142059961904e-03,-1.807751754469462402e-04,1.688268035650253296e-01
-3.041930827556296735e-02,-2.055029988621163428e-01,-4.306269368764203270e-02,5.481784952614803409e-04,1.453425764576224757e-03,6.259886544328048877e-04,1.691417098045349121e-01
-3.317797380134097918e-02,-2.076011449884253013e-01,-4.205140952224697276e-02,-1.183082435724028134e-04,7.060509555451986892e-04,4.276814730076067836e-04,1.701661944389343262e-01
-3.255575125466311781e-02,-1.896757720641034650e-01,-4.235550205319990602e-02,2.300250054589158405e-02,1.063232659328033902e-02,1.527083072185069119e-02,1.608386635780334473e-01
-3.455003043617185798e-02,-1.985099205319482696e-01,-3.585062486884826871e-02,2.571490089572822310e-03,5.341234046931585613e-03,1.693712961697246789e-03,1.636622250080108643e-01
-4.336089131138647079e-02,-1.549303574896379876e-01,-4.612650620045720407e-02,-5.104548383201169132e-02,2.094967319996285425e-04,4.360171935049922398e-02,1.602099239826202393e-01
-5.534607083903836378e-02,-1.549617409539005564e-01,-3.744456541732905930e-02,-4.926631641934768255e-03,-4.121344682633087085e-03,1.254232617706060697e-02,1.123508661985397339e-01
-5.201736781979280494e-02,-1.231089235909992169e-01,-4.685515023198391638e-02,-5.548818549536792266e-02,-2.319660376490748598e-03,1.417496203371106924e-03,1.212709099054336548e-01
-5.150051570547284352e-02,-1.822415019762865240e-01,-4.306432922545875425e-02,-1.679647266555611002e-02,-1.407487769055884965e-03,6.951671361001990346e-02,1.833503693342208862e-01
-5.693907013302999115e-02,-1.242577981959074596e-01,-5.835877633707099721e-02,-1.639548392308831648e-02,-8.513200184570725304e-03,5.401435185685072790e-03,7.449590414762496948e-02
-5.831430540227205972e-02,-1.360838751769737620e-01,-5.197305575996802318e-02,-2.144841850259830707e-02,-1.061903573964435334e-02,1.866673646405368064e-02,9.667062759399414062e-02
-4.173915321262536282e-02,-1.689785738446550334e-01,-3.863625765232647780e-02,-8.534393561037408732e-03,-8.486307855339362063e-03,6.233087768238844938e-03,1.309405267238616943e-01
-4.717896432465870649e-02,-6.212964990642699803e-02,-4.788297957466927657e-02,-5.192687301792276583e-03,-4.778461163280541338e-03,4.141543151742090034e-02,7.421994209289550781e-02
-4.827981678573867175e-02,-1.833164754055132684e-01,-3.146834287992165968e-02,-1.258723080784872501e-02,-7.196103142653006296e-03,2.369034533761934722e-02,1.519936025142669678e-01
-3.940806276212102666e-02,-1.702902977847452481e-01,-2.729491259133806635e-02,-6.615841342656402294e-03,-3.960624913580682721e-03,4.681446298243455845e-02,1.600482165813446045e-01
-4.391176007048239183e-02,-1.558990076686867510e-01,-3.776409896668374289e-02,-4.917982748593058284e-02,-2.541028821778109834e-03,4.626855281011754695e-02,1.642104536294937134e-01
-5.188965207489440457e-02,-1.987410462674738532e-01,-3.359144682051044828e-02,-3.260425076260921578e-03,-5.682282613594540933e-03,6.716622226413533972e-03,1.576431691646575928e-01
-3.865926180108438664e-02,-1.556884449573013862e-01,-5.116039141498677362e-02,-2.726346083148888794e-02,-3.268188662884132564e-03,1.134467891342806969e-02,1.226260513067245483e-01
-4.117043262192165293e-02,-1.943865543272662033e-01,-4.138333648675854293e-02,-2.556082037364502957e-02,-9.827962083626476386e-03,1.428485319948576658e-02,1.621869504451751709e-01
-3.098145198144301726e-02,-2.136606156652942623e-01,-4.869466710895281603e-02,-7.162494783268730410e-03,-2.729576268197021500e-03,1.103560113422427658e-03,1.750128865242004395e-01
-4.035535661751694231e-02,-1.872756350095129418e-01,-4.224014591598045792e-02,-1.067566739167779112e-03,-7.890134097042783567e-03,3.435618556422652403e-03,1.467576175928115845e-01
-4.235952222827475688e-02,-1.436807069743331888e-01,-3.978020958570599452e-02,-3.534852106658499526e-02,-3.093240098460344617e-03,7.345837635172362649e-03,1.203042641282081604e-01
-3.307567434041035204e-02,-1.959070868211083283e-01,-4.888617745283425214e-02,-6.621260338270847437e-03,-4.839910368510285874e-03,-6.126759488878023418e-04,1.561810374259948730e-01
-3.492559378609762233e-02,-1.579905518029904865e-01,-4.188768094039319045e-02,-3.599910334639801202e-02,6.472398299894578872e-04,1.270626705845433017e-02,1.367847770452499390e-01
-5.122862828863759127e-02,-1.483356798876286353e-01,-3.806933763117541919e-02,-3.383018554853564619e-02,-1.158640147074132230e-02,2.830331587692122564e-02,1.308442503213882446e-01
-4.296734055650321127e-02,-1.876235574201610135e-01,-3.026585682701427027e-02,-5.604291506772196216e-03,-7.024623617391165774e-03,5.625447367808024922e-03,1.525165438652038574e-01
-4.461306827128513203e-02,-2.205428792014602069e-01,-5.352926683256641061e-02,-1.207093395028094665e-03,6.742382116995361747e-05,4.676463156804465740e-03,1.718492507934570312e-01
-3.656146963519162768e-02,-2.118897666322913653e-01,-3.897679142389734452e-02,4.028816596506559918e-04,-2.259020112404953005e-03,-8.826789592921190693e-04,1.741852611303329468e-01
-4.029476393634771891e-02,-2.116719603546151907e-01,-3.898493370343571879e-02,-4.507519601235884300e-04,-8.809730476284978896e-04,-2.245753368485512669e-05,1.720443964004516602e-01
-4.449541742938257355e-02,-2.112785620806761910e-01,-3.655598385286094182e-02,-9.073112432495290813e-04,-7.031343167975188891e-04,-2.321985851953335721e-04,1.709032803773880005e-01
-3.946666309052235949e-02,-2.109642004261952364e-01,-4.212489434682416267e-02,7.097333391927948803e-04,-2.335320245996881389e-03,-3.214062506995558335e-04,1.702374070882797241e-01
-4.299698048444509230e-02,-2.108522271300501127e-01,-4.306989367648237504e-02,2.188655145589761292e-04,-3.478526714513710690e-04,-3.273732749930449211e-05,1.678203195333480835e-01
-3.485951052402926770e-02,-1.834490435185870405e-01,-5.351602145558125717e-02,3.190998245643201364e-02,-9.868321236022985221e-03,-1.953017577248794545e-02,1.553896069526672363e-01
-4.166912888426866496e-02,-2.134326016705737072e-01,-3.526479028933739851e-02,-7.455009207241365416e-04,-3.616834840883504515e-03,-1.987894727193915793e-03,1.752041727304458618e-01
-4.514610260218867438e-02,-2.128592838548551414e-01,-4.173967301559312199e-02,-1.049938927860710833e-03,-1.635441596615223978e-04,-1.356066058415952098e-04,1.694522351026535034e-01
-4.063975093587794685e-02,-2.100311344519057433e-01,-4.016729312406730479e-02,6.586324852728413660e-04,1.724677791762192465e-03,1.344768731110569313e-03,1.696742326021194458e-01
-4.765344802672141777e-02,-2.120319536061306964e-01,-4.467442401068336122e-02,7.111863206531823280e-03,-6.357146751402711687e-04,6.991455885881008026e-03,1.667886227369308472e-01
-4.013587768373989839e-02,-2.096446410638819202e-01,-4.783419656780336232e-02,-1.491950999963410733e-02,-6.537049436231964143e-05,-1.256665881393637021e-03,1.678096503019332886e-01
-3.501116731499448465e-02,-2.133294902019222117e-01,-4.923777324628356156e-02,1.597877934498799567e-04,-6.581443336685519280e-04,-1.277952140676939232e-03,1.716660410165786743e-01
-2.899501394723334735e-02,-1.968040694436911653e-01,-4.599458895597720309e-02,5.262569870299550236e-03,-3.351805995069497956e-03,-1.349600099710192205e-03,1.603696793317794800e-01
-5.544575550217652193e-02,-2.166114674302970222e-01,-4.700091920231727616e-02,-4.067399464591327837e-04,-3.204783212767745807e-03,1.425935206347287917e-03,1.656626909971237183e-01
-3.139904940043246329e-02,-1.989051775051907112e-01,-4.914366040225652543e-02,-4.323291297708650206e-04,-3.648361110601930531e-03,-7.556028202022822523e-04,1.595087647438049316e-01
-4.845254193431147716e-02,-2.168013350008577700e-01,-4.609062597758960267e-02,1.970709324103721901e-03,-3.064881931290219948e-04,2.104776563477908039e-03,1.696164608001708984e-01
-3.906791839206529005e-02,-1.914120455658848141e-01,-3.448554787639000752e-02,-4.034608632389970542e-03,5.540438244555548515e-03,-1.017442035416520063e-02,1.561387479305267334e-01
-2.960951645121494280e-02,-2.088394030028429271e-01,-4.780996622301068866e-02,-3.378584213159507854e-04,3.965917563306105113e-04,-4.513751882919902971e-04,1.708624213933944702e-01
-3.884917927044363728e-02,-2.197271923656886061e-01,-4.657445555466236536e-02,-1.122038381425661136e-03,1.326417281088545759e-03,-1.006748642488047157e-03,1.771758943796157837e-01
-4.997924629579838379e-02,-2.209034804714170852e-01,-4.520627761900219976e-02,9.373620456106151804e-04,-3.325028529564600559e-04,-1.020806786993029526e-03,1.733775734901428223e-01
-3.081104060564381075e-02,-2.122765872451287950e-01,-4.964058909994478741e-02,-2.125237038005386037e-03,4.088455694158320107e-05,-1.124798951423698059e-03,1.728720068931579590e-01
-3.414654476932259264e-02,-2.115082378702668464e-01,-4.286183358952223854e-02,-5.894255866492365860e-03,5.441684561625958864e-03,-1.479360493878700616e-03,1.737440526485443115e-01
-4.516863437956843835e-02,-2.071063971737682752e-01,-4.100655036343885118e-02,1.344705684279089413e-03,2.468842564635354703e-03,-1.836610734719474301e-03,1.641614735126495361e-01
-5.640146742018059545e-02,-1.863518713631590884e-01,-3.317512562320276692e-02,-2.894749933321976408e-03,-6.768699011230269735e-04,-1.447413619895296377e-02,1.452579051256179810e-01
-4.850901013282657437e-02,-2.080916513100250775e-01,-2.755093518931024665e-02,-1.164808672184458951e-03,-2.894906426454686276e-04,-3.862005308654167281e-03,1.711708903312683105e-01
-5.260396089151927329e-02,-2.451719536781294950e-01,-4.283661836753395458e-02,3.692489540320859423e-03,-3.120506432840544110e-04,1.224912195453890275e-02,1.988718956708908081e-01
-4.079618755731977131e-02,-8.693746822426280663e-02,-4.702843344785521268e-02,-1.966692653041202457e-02,6.167897284243726522e-04,-2.462109275278948073e-02,6.971652805805206299e-02
-4.893375814908132448e-02,-2.107686771825665883e-01,-2.906565720304403466e-02,-1.331886045409867714e-03,-7.117987685980496030e-04,-2.135207292152147170e-03,1.726880222558975220e-01
-4.443085185564055184e-02,-2.153181207050542945e-01,-4.767792445402353058e-02,-4.859290227397805063e-04,3.942886869507000085e-04,6.847723225929113096e-04,1.692947149276733398e-01
-4.451858799498387143e-02,-2.153262276468079217e-01,-4.868865947436216285e-02,-1.607605329966299958e-03,3.395343106869128341e-04,-2.949335871761839777e-03,1.688625365495681763e-01
-4.544409632528395582e-02,-2.160241367513401067e-01,-4.050121071211734702e-02,5.225754609851404175e-04,-2.251971993730848658e-03,-1.128588997965170732e-02,1.742506474256515503e-01
-4.287914906439688895e-02,-2.133201058455473365e-01,-3.393987626898983812e-02,4.974721016745902932e-04,7.825982682343974933e-04,7.713998056402910026e-04,1.750942915678024292e-01
-4.590486224199059190e-02,-2.117972225855025981e-01,-3.079284694993311700e-02,-6.262233910815040655e-04,1.899727096901978989e-03,-2.572911454018750972e-04,1.739764809608459473e-01
-5.235467581284394822e-02,-1.786470075260876700e-01,-3.144260992354310641e-02,-1.072714171747569294e-03,3.076039230442718323e-03,-8.206731870210245972e-03,1.387875676155090332e-01
-4.685583285310443435e-02,-2.080479647476682625e-01,-3.025225120367480702e-02,4.931696770198625967e-04,1.742300623906168711e-03,-6.659528764951311774e-05,1.701317131519317627e-01
-4.547155692170837954e-02,-2.084625350075558214e-01,-3.012494800867386580e-02,3.111286248594102334e-04,6.701171454611375145e-04,8.479971554761747601e-04,1.711920946836471558e-01
-4.183230419178018272e-02,-1.956639032979359816e-01,-3.693848812302020362e-02,-4.346212511744999146e-03,6.306378088037076397e-03,-1.076425065345149859e-03,1.569088548421859741e-01
-4.936974821043628447e-02,-2.383080192043688927e-01,-4.103901474204894873e-02,-4.405799976777281628e-03,2.864667001565595738e-03,-1.950984750333103340e-02,1.963818222284317017e-01
-4.777476350395980231e-02,-2.084855879494342257e-01,-2.979858780236582794e-02,-5.603477944177570890e-05,2.303775888938612538e-04,-6.438220390769721843e-04,1.704156398773193359e-01
-4.384508677776086799e-02,-2.149649897096518880e-01,-3.627424183130002061e-02,6.314146414814039753e-05,1.008570019914650957e-03,-1.030604675672857034e-04,1.750370115041732788e-01
-2.602056022914620015e-02,-2.007284615068373190e-01,-5.211477900094305810e-02,3.985669214075209660e-03,-9.912843373004727541e-04,-1.093534793129816336e-03,1.633985489606857300e-01
-3.095456987789992065e-02,-1.916812382142136229e-01,-4.383336344389440059e-02,5.349515435106092648e-02,6.787911944003857494e-03,1.417097124282463289e-02,1.823590695858001709e-01
-4.770252861323463767e-02,-2.462654853457424964e-01,-4.947618006034443239e-02,9.136720526477015714e-03,-1.103707037468063586e-03,-6.010556229881047589e-03,1.985967904329299927e-01
-5.729595729360281720e-02,-3.727114897454264497e-01,-6.665936396497522398e-02,1.463509952237678890e-03,1.267827340280744744e-02,-1.160314291920748822e-02,3.122720122337341309e-01
-3.552365320658486258e-02,-2.055103669784432430e-01,-4.719617121098287210e-02,2.481429532172672175e-02,5.001908764961827611e-03,3.000095966659167574e-03,1.702846586704254150e-01
-5.821882347429726406e-02,-2.209950856671492325e-01,-4.473797894810752074e-02,-2.455018208229386208e-03,-1.820825795632180456e-03,-9.949952537335405092e-04,1.700094193220138550e-01
-5.468973956104958289e-02,-2.744572895211410124e-01,-5.189132784431939316e-02,4.219801270072758015e-02,-3.428220273517621798e-03,1.081404674803728219e-02,2.337706387042999268e-01
-3.276090844114533385e-02,-2.802877057559085561e-01,-4.965618713968629472e-02,1.820050921701165400e-03,7.934088043891550715e-03,2.235649319911391791e-02,2.430455833673477173e-01
-5.776527440999681268e-02,-2.266168056749180981e-01,-4.507822821631883581e-02,-4.482162292463958905e-03,-5.787783462636107278e-04,-4.558528710436351408e-04,1.757154613733291626e-01
-3.903221188695474991e-02,-2.129871715560227863e-01,-3.658980078249064738e-02,5.387282721214094003e-08,-3.489164505108631573e-04,-2.633007831121286953e-04,1.751905679702758789e-01
-3.895344289996417048e-02,-2.123909081740529281e-01,-3.670770931621491345e-02,3.222198091967124573e-04,-1.910629797290206095e-08,-9.066778611309373294e-05,1.745721250772476196e-01
-4.018195415169766721e-02,-2.130715573383136774e-01,-3.987393137443737828e-02,-1.735935026434865419e-05,-7.912855838936109490e-04,-5.488987227888898583e-04,1.730518639087677002e-01
-4.193753948836463630e-02,-2.130190451160340337e-01,-3.839598069923735174e-02,-5.717310866482504424e-04,-3.826148702969581769e-04,-2.926794223962646746e-04,1.728843450546264648e-01
-3.713093526227017466e-02,-2.103768247278663128e-01,-3.911504170084277587e-02,6.442482618687151233e-04,-2.878146472577343407e-04,1.121181397284886532e-06,1.722667366266250610e-01
-3.404609404835087089e-02,-2.096063481118676797e-01,-4.148361421328620319e-02,4.445893095809208030e-04,-1.160354521879299050e-03,-7.697536175347569195e-04,1.719807982444763184e-01
-5.442281129889008084e-02,-2.151730860450392635e-01,-4.735799673262860304e-02,1.363788917789700468e-03,-2.557107387820490001e-03,9.472063433110652561e-04,1.644813716411590576e-01
-2.820039342027173823e-02,-1.818224944783627395e-01,-4.982970923730710433e-02,9.834839393390384238e-03,3.194931350422614350e-03,7.796492642864809265e-04,1.451463252305984497e-01
-5.579597839071356175e-02,-2.200717555574258910e-01,-4.470209859978715311e-02,1.631316932233631553e-06,-4.965343231276193609e-04,8.650666529433587246e-04,1.701030433177947998e-01
-5.581139842490674685e-02,-2.156815848235681399e-01,-4.618666224918031166e-02,1.428122614398787040e-03,-4.289403801576008703e-04,1.676670539650374414e-03,1.649391502141952515e-01
-5.120774289834743864e-02,-2.143645903059279156e-01,-4.617438239023336638e-02,-5.332535644495975478e-04,8.604171746538743018e-04,8.363123994014268333e-04,1.657464653253555298e-01
-4.440260708515082755e-02,-2.191444980173467838e-01,-4.435692929182943195e-02,1.537125433363760538e-03,2.270772300090371718e-03,4.242476950342119251e-04,1.748308092355728149e-01
-2.808022677295117508e-02,-2.080586891023900598e-01,-4.920323813990538919e-02,-4.184097514098808132e-03,1.963485371642085218e-03,-2.277433891478129746e-03,1.706352531909942627e-01
-2.686817546889365416e-02,-2.027518010685400440e-01,-4.891316767018305534e-02,-5.305020106710732833e-03,1.076104522213630881e-03,2.230407858861571278e-04,1.662279516458511353e-01
-5.418435666737056455e-02,-2.507127498280749545e-01,-4.607314285642342966e-02,-3.446090561231717093e-03,4.339848354392876473e-03,7.588769022734895547e-04,2.009406387805938721e-01
-3.258831421137031725e-02,-2.061826764123904088e-01,-4.700815101989090639e-02,-2.081268610051439753e-03,-2.686189497102080270e-04,-8.673274945092232686e-04,1.668987721204757690e-01
-3.808754414677080480e-02,-1.898102508828334312e-01,-5.565158155110029592e-02,-3.074320861764274701e-02,-2.108216194064775964e-03,6.796802894142732303e-03,1.537880748510360718e-01
-3.556161686435414804e-02,-1.999318423238753140e-01,-4.639569301192802975e-02,1.177378139546954132e-02,-3.921034811134017917e-03,-8.749016903625313549e-03,1.613870263099670410e-01
-2.684597666451431219e-02,-2.009859453685333142e-01,-4.870175172876486241e-02,3.102928762656243303e-03,-1.999284737100660934e-03,4.307545834333216094e-04,1.644319742918014526e-01
-3.413862176496536283e-02,-2.234543913408148508e-01,-4.837186691430223062e-02,2.293480542285867077e-02,-7.388828216316798737e-03,-1.056839056738334212e-02,1.882162094116210938e-01
-4.330507914095154537e-02,-2.131834161312455012e-01,-4.372015372917505832e-02,-9.492370527966106355e-04,-1.103113344953787073e-03,-4.718380929094590209e-04,1.696918755769729614e-01
-4.698736853043283812e-02,-2.145419149828729499e-01,-4.508938316542142333e-02,2.002887745127508810e-04,3.756126162047218457e-04,-2.744829294930842614e-03,1.685802191495895386e-01
-3.763317066484449941e-02,-2.013633426511006741e-01,-5.593103696196617680e-02,1.636514634628302017e-02,-7.059563989127480912e-03,-1.488188809676149749e-02,1.605112105607986450e-01
-4.638624375380494963e-02,-2.134901200139836530e-01,-4.533424412666124670e-02,-2.209231002091077613e-03,4.484737397455371491e-03,-4.855344672833392453e-03,1.680663824081420898e-01
-4.506749380097832547e-02,-2.118258835988121036e-01,-4.534212866563592376e-02,1.421179924626480261e-03,-2.528920275882987284e-04,1.714586790685255048e-03,1.666664630174636841e-01
-3.913561064189621796e-02,-2.138399911181744217e-01,-4.362088101200053275e-02,-1.678030211752228767e-04,1.892915326446556641e-03,1.207480251832869587e-03,1.725495606660842896e-01
-4.692346476693726176e-02,-2.122521553353912682e-01,-4.672630234910584573e-02,8.907914984675189326e-04,-2.739029486130211636e-04,1.951572256395404849e-03,1.654697656631469727e-01
-4.667704231246476432e-02,-2.010025202674143308e-01,-2.877785401111068730e-02,-1.079979028801828118e-03,-1.500850241576472122e-03,-5.698944139799307605e-03,1.643372327089309692e-01
-3.907448843895051233e-02,-2.154393210171082762e-01,-4.036560702853668470e-02,2.489311764109737525e-04,2.024830846564933638e-03,-5.481688208589607063e-05,1.757583767175674438e-01
-4.442543677944471581e-02,-2.140278691006852196e-01,-4.580910985433047505e-02,-2.118122676596924728e-02,1.893408636820037095e-03,-1.543092456441565175e-02,1.749378591775894165e-01
-3.767240948880375834e-02,-2.133264985480209652e-01,-4.463529489310173043e-02,-2.850721462935644317e-03,2.338317413822725566e-03,9.725901190990331093e-04,1.724047660827636719e-01
-4.841830849303706968e-02,-2.140323363042384575e-01,-4.553182540772606618e-02,1.377271478819070121e-03,-5.671938057848080884e-05,1.998351166237260709e-03,1.671288758516311646e-01
-4.812017651119079864e-02,-2.140303564967121486e-01,-4.627637938463885492e-02,1.645558273297528361e-03,-1.062720354648443062e-04,2.254844861537395016e-03,1.669098585844039917e-01
-4.197231550633176433e-02,-2.130276369568257222e-01,-3.592047942864521476e-02,-1.370423456507976231e-04,2.393121341037173118e-03,-9.649269882836515946e-04,1.742176115512847900e-01
-4.169006191079337870e-02,-2.149820802248827434e-01,-3.627770263873553863e-02,8.531124170032779912e-04,2.624505330644515740e-03,1.854618323484798995e-04,1.761257648468017578e-01
-4.386585513919748908e-02,-2.106284535760760690e-01,-3.365316317602751878e-02,-1.838611394856811234e-04,2.231436507469621716e-03,-5.444465567954956398e-04,1.721426397562026978e-01
-4.414957913325077282e-02,-2.101644472903939076e-01,-3.421006072713820428e-02,3.303113844127042128e-04,4.673728287255728142e-03,-2.686130437482683658e-04,1.713940352201461792e-01
-4.394161603885120976e-02,-2.129252552669126941e-01,-3.303904702735975529e-02,-1.858016109839434030e-04,1.828618183818549094e-03,-7.765836773454272120e-04,1.747244596481323242e-01
-4.371545545376808589e-02,-2.144433502271679837e-01,-4.281342349365512695e-02,1.111317536686531274e-03,6.321651355503941135e-04,1.251205836528954205e-03,1.712087392807006836e-01
-4.406438080820444803e-02,-2.143208893451840069e-01,-4.208251282966624096e-02,1.168297471809013732e-03,1.292507690096068862e-04,1.545509039473729872e-03,1.712890565395355225e-01
-4.486182870124583860e-02,-2.134814293610985958e-01,-3.758071181786221820e-02,3.069032287848633134e-04,1.338180873966113358e-04,-6.461315292088890428e-04,1.723801344633102417e-01
-2.633891627769271299e-02,-1.746748481871309155e-01,-5.182967631205047387e-02,7.352448574217786310e-03,-1.506294641640986256e-03,-8.347658562721619344e-05,1.379896253347396851e-01
-4.392134919000766080e-02,-2.139974595170670013e-01,-4.171314634016631828e-02,1.570110438425258116e-03,1.635768203338547398e-04,1.439058735194999501e-03,1.712308675050735474e-01
-4.355069837384425990e-02,-2.084724545447826927e-01,-3.488296151079905982e-02,-4.287217214931058912e-04,4.811883427631338632e-03,-9.471987461802364758e-05,1.696285754442214966e-01
-3.964089761863505423e-02,-2.348687762874868135e-01,-4.277128914556972694e-02,-8.005588578872634836e-03,7.121478644766355420e-03,-3.174636332282110285e-02,2.021892517805099487e-01
-5.374197925443842394e-02,-2.449019202299128062e-01,-6.061607504357017367e-02,-3.689811568756504179e-02,-1.023607639692204968e-03,-6.374288830789220928e-02,2.270514219999313354e-01
-4.330396960763513436e-02,-2.448950234107355739e-01,-3.955397942299951342e-02,2.885573467319410383e-03,3.462294897693025692e-03,1.154772237246733287e-02,2.046215385198593140e-01
-3.776145844232704774e-02,-2.298718828159624361e-01,-4.398852547119539574e-02,9.781762651810479992e-03,6.100830417823944508e-03,1.235659959086847504e-02,1.913260966539382935e-01
-4.770451799711315083e-02,-2.094631944965803794e-01,-3.347019085952289419e-02,-8.175519425405018302e-04,-3.455454001373249118e-04,3.700770221640647603e-05,1.693321615457534790e-01
-3.915685970107797564e-02,-1.787749756474309448e-01,-3.995438128978985592e-02,-7.020749473856208352e-03,6.765046098337129492e-03,-5.645206119759252697e-03,1.405819356441497803e-01
-4.281096109674223382e-02,-2.126402782036913852e-01,-3.569219879033981579e-02,1.959162175307455181e-05,3.287923105250284937e-03,1.169430081547734687e-04,1.735918223857879639e-01
-4.302331906841275200e-02,-2.092716479334121860e-01,-3.140737225280415545e-02,6.902081675677733397e-04,2.114669965186753015e-03,1.812554571926426215e-03,1.724217832088470459e-01
-4.496004813370071962e-02,-1.134443308604818762e-01,-3.092204254781089068e-02,1.668663851825719427e-02,4.665202053907394411e-03,2.927244706943606806e-02,9.653910249471664429e-02
-4.438386683076334105e-02,-1.929536264704242998e-01,-2.713869902765240344e-02,3.135203966903414574e-03,4.143618695178177998e-03,9.333267528369812438e-03,1.589805185794830322e-01
-4.218122621945724626e-02,-2.066869779738091384e-01,-3.819720150325094099e-02,-5.741386286702019129e-03,-6.423111621453574810e-03,8.013967639842389454e-03,1.677758693695068359e-01
-4.661435292823908061e-02,-2.638607115458008190e-01,-3.710238173403061779e-02,1.564642683132648482e-02,-3.365639446275661088e-03,-6.938615630876189370e-03,2.242002338171005249e-01
-2.892489022676032751e-02,-2.083518519449744089e-01,-4.651681949421373335e-02,2.747084381929676584e-03,1.558138333220815885e-03,1.848222663610892425e-03,1.714269965887069702e-01
-2.641957288955330135e-02,-1.736450117778297608e-01,-4.718977699646102059e-02,1.586909473226025963e-02,5.708348662259997083e-03,1.040003776157729862e-02,1.422200798988342285e-01
-3.555929502291539646e-02,-2.206953857881278624e-01,-4.560812044799707893e-02,1.999450563911090578e-02,5.909267859491031463e-03,6.364418791953361555e-03,1.842323690652847290e-01
-2.594548754835028503e-02,-1.967839045134436859e-01,-4.762766151727765296e-02,2.158184163269130477e-03,-1.864789847114245230e-03,-1.208377667933769554e-03,1.611847430467605591e-01
-2.815040799401651722e-02,-1.640486126029876424e-01,-5.202694483730613273e-02,1.735108763825481126e-02,-6.922900255415910054e-04,2.087995396874272637e-03,1.292723119258880615e-01
-3.620274495911391527e-02,-2.122586009422997300e-01,-4.625186317081746851e-02,3.392366222662722853e-04,-1.642164376765625419e-03,-5.732513827295594071e-04,1.712800711393356323e-01
-2.640220115643492765e-02,-1.917869744264612264e-01,-4.785315665384769213e-02,2.968231076395802179e-02,1.355754159970776022e-03,2.761921372436379560e-03,1.641222834587097168e-01
-3.599337362916255750e-02,-1.837192984370736026e-01,-4.693767571486912732e-02,3.042941924496049208e-02,4.818186326413691559e-03,9.344010291163560092e-03,1.530862301588058472e-01
-3.905893986065003126e-02,-1.852629776300713793e-01,-4.977202043667824927e-02,1.009773575409597494e-02,8.567803212737843538e-03,8.979632777593008625e-03,1.438475251197814941e-01
-4.021709959350402291e-02,-2.103958337801179468e-01,-4.548069117548436679e-02,-6.178883800668463419e-03,-3.185529987694862408e-03,-5.331088904151189351e-04,1.680434048175811768e-01
-3.658733695236869587e-02,-2.076292522209134961e-01,-4.645848809099876325e-02,-1.330114114561590372e-02,-8.380445580397520230e-03,4.535835019514723385e-03,1.687233597040176392e-01
-4.144995474849724748e-02,-1.723033995279920627e-01,-4.798467885330773286e-02,-3.653261232694238192e-02,-8.199394310780678792e-04,9.654796665568662895e-03,1.435123383998870850e-01
-4.973683944810845109e-02,-1.961306818525203333e-01,-2.557370789432029945e-02,-8.480931674904879092e-04,-9.521519935980519642e-04,4.063400569835472209e-03,1.600211262702941895e-01
-4.945714469172679539e-02,-1.948610600201819976e-01,-2.923473469972158456e-02,-1.946511096016973396e-03,-3.639829920873026512e-03,3.619413766077679735e-03,1.567867100238800049e-01
-4.992121694749883376e-02,-2.039902321303446175e-01,-2.649566537302772140e-02,-3.856973196496784749e-04,-1.584527488014833910e-03,4.480728733134846896e-03,1.672225445508956909e-01
-4.884132279753598815e-02,-1.982878284578886707e-01,-2.341653664957896175e-02,1.106784365304872269e-03,7.701287536609388020e-04,3.711796005354978459e-03,1.637898385524749756e-01
-3.680362688049831910e-02,-2.375933443175540782e-01,-4.642980758185983464e-02,-3.838729054926339618e-02,-3.464827373288926864e-03,1.311177809027535418e-02,2.084438949823379517e-01
-5.780290868852937941e-02,-2.514071797351027926e-01,-5.122608517220043900e-02,-2.575070133166752089e-04,2.218383518560266329e-03,5.165012966214717685e-03,1.972160339355468750e-01
-5.075409854945896887e-02,-2.181285880542790101e-01,-5.293208324386017294e-02,3.032851521392892873e-03,3.989416258235136369e-03,-9.759792988766587477e-04,1.665311455726623535e-01
-5.697786759072311774e-02,-2.215209859831995254e-01,-4.922871933383980714e-02,1.604383289354363628e-03,2.473518808067206535e-03,-1.933230474809810367e-03,1.686619222164154053e-01
-5.389976709857676601e-02,-2.216013510236877204e-01,-4.791815863284158011e-02,2.395757094329776724e-03,3.661451363415530770e-04,-1.064936334400301120e-03,1.708325147628784180e-01
-5.219509918322379205e-02,-2.409243167113010731e-01,-4.407068484940981912e-02,2.102982264624201660e-03,-1.695108902941009363e-03,-7.340929940882999494e-03,1.933949142694473267e-01
-4.440140884337390875e-02,-2.142672812730334608e-01,-4.140885794510518192e-02,9.892403089757917378e-04,1.675628011069311019e-03,-1.039083613536906066e-03,1.714243292808532715e-01
-4.566482822047270018e-02,-2.170622869334261074e-01,-4.878194267086886915e-02,1.765240792403463543e-03,-2.420215763691489200e-04,2.791861871196112295e-03,1.699571907520294189e-01
-4.718790170354388025e-02,-2.299052737876510766e-01,-4.396196830846930970e-02,-1.617479667048320191e-02,2.150511681958797942e-03,-1.095599702401693284e-02,1.874682009220123291e-01
-4.365168565428776543e-02,-2.054631926703789913e-01,-3.264930058332720514e-02,-2.042804253297936994e-04,2.837909139705298116e-03,-2.380299967871491069e-03,1.677069216966629028e-01
-4.407784041994239344e-02,-2.130461887874623428e-01,-4.466862665570976720e-02,-3.583468815181204466e-03,1.062685387105160922e-03,-3.467708240289522990e-03,1.689047515392303467e-01
-4.424807184562955936e-02,-2.143068116175084747e-01,-5.628101200590176351e-02,-1.411621721374895205e-03,-1.452009949006193273e-03,-3.908569870222706371e-04,1.644117385149002075e-01
-4.609387839396627412e-02,-2.320517598985562813e-01,-4.657079127828657461e-02,-8.630183965503806717e-03,-3.559883911188813435e-03,3.458162899331037026e-03,1.865186542272567749e-01
-4.299224564839709134e-02,-2.106902589698707029e-01,-4.289078746317841195e-02,-9.320967341308237619e-07,1.940434700296583305e-03,1.697550766124253374e-04,1.677826941013336182e-01
-4.586809362460891187e-02,-2.135819077335688876e-01,-4.887935840179510882e-02,3.208627728730541109e-03,-6.460115172901561773e-04,3.881223719243494675e-03,1.664610803127288818e-01
-4.042641324011994608e-02,-2.107177138847882436e-01,-4.329935084890430830e-02,-4.991506715611005287e-04,3.805151662898784582e-04,-6.018417221412844737e-04,1.688798815011978149e-01
-4.099822629247114325e-02,-2.319931975143185165e-01,-3.633480610811780365e-02,2.301639877871200501e-02,6.537889547042980212e-03,2.761933551385886698e-02,2.034637480974197388e-01
-4.453525179568463416e-02,-2.307190627268916328e-01,-3.567896056642731739e-02,4.711784832913096244e-03,8.293573633126858496e-03,2.417444810003667802e-02,1.960048675537109375e-01
-3.215195504371696350e-02,-1.765151310939304108e-01,-2.866267743044656480e-02,3.671978263967320966e-02,5.631828811978250443e-03,4.399586991174593564e-02,1.769285500049591064e-01
-3.917641048822403244e-02,-8.898483665887577110e-02,-4.869806637233792951e-02,5.228049620363331429e-02,8.263403639435320559e-04,-1.823076624301213020e-02,1.062834188342094421e-01
-4.223325792940495205e-02,-7.953067200862806718e-02,-5.006376180132832837e-02,3.437448742314214850e-02,-1.191126900411173173e-03,-1.314003365811254598e-02,7.230082899332046509e-02
-3.760270483874258995e-02,-1.705008770188068123e-01,-5.063220232696158396e-02,1.191912091576925736e-02,-5.371609593831626513e-03,-2.407844136446144010e-03,1.289583146572113037e-01
-4.816461339833468663e-02,-2.035984956718536187e-01,-2.824169021920344691e-02,6.589311110528900525e-05,-2.702507536337808627e-03,-2.298121350986620168e-03,1.664063632488250732e-01
-4.870066014966294154e-02,-1.922919819438967393e-01,-4.322572953114509064e-02,-2.744897105867350525e-03,7.760226171073279951e-03,-6.288244420386589380e-03,1.475008130073547363e-01
-2.910798568006676967e-02,-1.944642889978809019e-01,-5.145525512724612172e-02,8.988900532497245705e-04,-2.294408112788623444e-03,-5.963233396893058208e-04,1.554545909166336060e-01
-3.555478604511612406e-02,-1.573923288382312879e-01,-4.809286785003133446e-02,9.368004883153679616e-03,-5.346655581146106569e-03,-2.421415786790894267e-03,1.176461204886436462e-01
-4.148201359154820439e-02,-1.303117455765527566e-01,-4.357656803881984620e-02,4.548761321051141004e-02,-1.018192116133662811e-03,-1.988665849815476894e-02,1.229063346982002258e-01
-4.817842151332696332e-02,-1.087451846632661590e-01,-4.271664168639102005e-02,2.537287539490120508e-02,-1.316960294679869747e-03,-4.274089585819249026e-02,1.069853752851486206e-01
-4.131057629595907832e-02,-2.020964249379892941e-01,-3.901832807524837493e-02,-5.272905853951785626e-02,1.173231442206835659e-03,-8.469500847480306016e-03,1.865108311176300049e-01
-5.862443384227518373e-02,-3.528481924274293746e-01,-6.723808969710556860e-02,-3.197321519507222154e-02,-6.436666218504788657e-04,-4.051139834561892639e-02,3.034783303737640381e-01
-4.936273472478470287e-02,-1.901403390410953964e-01,-3.690465111885231353e-02,-2.225746423616613290e-02,2.913624644466557452e-03,-2.651450903586866081e-02,1.592107564210891724e-01
-4.061877602277261246e-02,-2.333511054241606264e-01,-5.004274358501269171e-02,-1.326740839110280949e-02,2.311271825925234613e-03,-4.777206559149050832e-03,1.898178607225418091e-01
-4.235161038446394466e-02,-2.113842662483206569e-01,-5.336123285869114746e-02,-1.905493078267635199e-02,-7.642555118985972212e-04,-3.750402043268473429e-02,1.792845278978347778e-01
-4.643385204406772632e-02,-2.259230153722989742e-01,-4.849791974740253614e-02,-2.533667456449389434e-03,-3.467898641501257571e-03,6.159856776161979318e-03,1.789394021034240723e-01
-5.091281184034048002e-02,-2.519902997354733776e-01,-4.819087864419345502e-02,-6.698048977842748462e-03,-4.649289139338826093e-03,-2.070026390418524057e-02,2.060869336128234863e-01
-5.380067976750317615e-02,-2.498376191405718427e-01,-4.799012364326911417e-02,-5.077859175939854891e-02,6.262773032014706115e-03,-1.793220356493361797e-02,2.200479060411453247e-01
-4.511083892440168053e-02,-1.297537857701641650e-01,-4.715363126494628854e-02,-4.842755068783510808e-02,2.983867825774351315e-04,-1.636282828046672216e-02,1.217984780669212341e-01
-3.769994093649935152e-02,-1.763249458756152299e-01,-6.199699707880573785e-02,2.746976579182101169e-02,-4.463471891576703196e-03,-1.756538889802221337e-02,1.403147131204605103e-01
-3.602051078054378797e-02,-1.667388261921102510e-01,-3.971387887450772425e-02,9.218652839959158574e-03,-7.556716621375328576e-03,-5.170936718870399081e-03,1.308610141277313232e-01
-3.667673468797297276e-02,-1.988708188021696133e-01,-3.986363897388461169e-02,2.842209940421105193e-03,-5.426073202965943539e-03,-1.756179180203013826e-03,1.610030829906463623e-01
-4.021350200604222047e-02,-2.127618845394198543e-01,-3.917721079898105196e-02,-1.504926732388937329e-04,-1.303283827432329166e-03,-3.366853396209763946e-04,1.730847507715225220e-01
-2.605558244752519126e-02,-1.765367345643806263e-01,-4.798115844626726911e-02,7.613590755847147833e-03,-1.916564447389481306e-03,-1.851750198160070048e-04,1.414600461721420288e-01
-2.780648947470437671e-02,-2.045784082641408097e-01,-4.696251785340710416e-02,4.239103461090406910e-05,-5.217984990548835394e-04,-9.299512012160342190e-04,1.680250912904739380e-01
-2.775112568583339157e-02,-2.022351638655741080e-01,-4.670728338294516391e-02,2.667995118087064695e-03,-2.944600752702366056e-03,-1.245330211945623600e-03,1.659773737192153931e-01
-3.099967170087110369e-02,-2.056881104120357184e-01,-4.263172518013361861e-02,7.198613437894637191e-04,-1.015968813881878898e-03,-1.164320674205161256e-03,1.691983640193939209e-01
-4.183092072190321142e-02,-2.319670840428662562e-01,-4.791766812512254087e-02,-1.953300856020935561e-02,5.572508030326548886e-03,-5.293532086273139772e-03,1.906655132770538330e-01
-4.580989522728223101e-02,-2.161482471813126471e-01,-4.425672624698426955e-02,1.664030501556389022e-03,2.164028738133762632e-04,-1.154814116999777155e-03,1.711565852165222168e-01
-3.769212660310680696e-02,-2.170078358913210548e-01,-4.381701738521000949e-02,-1.159497156266787662e-02,3.965199854494348523e-03,-6.661396573703489213e-03,1.779802441596984863e-01
-4.757307190858441059e-02,-2.165984740433861133e-01,-4.964715292337630592e-02,-2.194335225912668729e-03,1.761339064208101296e-03,-7.435080327914961188e-04,1.680735796689987183e-01
-4.731388248615117642e-02,-2.159280438736015939e-01,-4.612630678882163188e-02,1.009780121130370110e-03,3.892188168663974265e-05,1.249057447857104299e-03,1.692339628934860229e-01
-4.799503036173444204e-02,-2.133435405568569476e-01,-4.583040282112294667e-02,1.699572217270362397e-03,-2.892468907967720142e-04,2.383938532323622191e-03,1.665193736553192139e-01
-3.446481834877136718e-02,-2.071747114416135349e-01,-4.731085896376302502e-02,-6.935375789774251773e-03,4.381258387604515178e-03,-2.403437232849422057e-03,1.673149764537811279e-01
-3.193262447858898068e-02,-2.072903068525286385e-01,-4.885909956791556485e-02,-2.519648619961240097e-03,1.532239323891398854e-03,-1.264491498665585353e-03,1.676291227340698242e-01
-3.724008720929371241e-02,-1.688008453996746872e-01,-4.367324921175730346e-02,-1.621050988646295654e-02,7.904612387156343539e-03,-1.537773347560679633e-02,1.348646730184555054e-01
-4.138252703073556915e-02,-1.971512445154210424e-01,-3.806547494036791740e-02,2.444120436022021239e-02,3.054021679371138852e-03,3.100228046118288019e-02,1.717414110898971558e-01
-4.634295551606601449e-02,-2.128915056168929620e-01,-4.657866809973462002e-02,6.099771522002450739e-04,-6.084484189041606400e-04,2.678493858076512512e-04,1.664381623268127441e-01
-5.430853964396651495e-02,-2.259791178595358385e-01,-4.020212027381397935e-02,5.484334505382337105e-02,7.808796973734908470e-03,-6.911541732753726831e-03,2.035707533359527588e-01
-3.989492775151767812e-02,-1.914138248502301187e-01,-4.339605781054679118e-02,2.931691904992136249e-02,5.423716508890819542e-03,1.921228557822384636e-02,1.619066894054412842e-01
-3.867862826232570245e-02,-2.114426107149057765e-01,-3.770007084410324089e-02,-2.120561202356382492e-04,2.786027500944160233e-03,9.076407883448242390e-04,1.733300387859344482e-01
-4.511794940711173069e-02,-2.116943087168532411e-01,-4.620308582835037925e-02,1.504428207988426323e-03,-4.259623325420295697e-06,1.944140376575580198e-03,1.660910397768020630e-01
-4.195215469212077580e-02,-2.104115203293704384e-01,-4.138026232341124322e-02,6.427563659130751731e-05,-2.115166971348493748e-03,-1.473440389819298058e-03,1.688051372766494751e-01
-4.413307599978531781e-02,-2.129050447590409567e-01,-4.531513521628134644e-02,-1.237851696432730811e-03,1.337213726904365387e-04,-9.760853259699489668e-04,1.682063788175582886e-01
-4.498172407965875946e-02,-2.111857196793846536e-01,-3.904989650037977988e-02,-1.324121155139541556e-03,8.211730497580874274e-04,5.693109212643904238e-03,1.695563793182373047e-01
-4.968440425738135380e-02,-2.104839238835050086e-01,-4.745892404187783409e-02,1.932637745432969816e-04,-1.845620986572380287e-03,1.497027490406043415e-03,1.619763821363449097e-01
-4.678017409365823470e-02,-2.135787174148953138e-01,-4.540210635968116443e-02,4.052876975726924132e-03,-2.261956759419805346e-05,1.956113029453648876e-04,1.676392108201980591e-01
-4.796173897853002466e-02,-2.124545124757697412e-01,-4.863813697826081112e-02,-2.092734771177462449e-04,-1.521391751763628971e-03,-4.444963319167922360e-04,1.641789674758911133e-01
-4.240118602574770301e-02,-1.971934444038133116e-01,-3.303998249409272753e-02,-2.119749408698825416e-03,-3.458658114059256702e-03,8.324332639551131063e-03,1.604823023080825806e-01
-4.405709671429399593e-02,-2.110879663695213182e-01,-4.144995619104856893e-02,-5.061904120923569462e-06,-3.408904901667265410e-04,-5.572298748331522234e-04,1.683533787727355957e-01
-5.278052262642708714e-02,-2.411871231969197060e-01,-4.503407584770585670e-02,3.323336769045213881e-03,7.899867724513049143e-05,-7.562037118488930225e-03,1.929280757904052734e-01
-3.587260135203977629e-02,-2.216473708591362723e-01,-4.221672394253107169e-02,2.587931138206128051e-02,-1.458271840390097489e-03,-2.515268399148539065e-03,1.881714910268783569e-01
-5.029285701459267760e-02,-2.119101859635189600e-01,-5.227994689377511023e-02,-7.592552400315764503e-04,2.759640124975726218e-03,6.377198978539163482e-04,1.607132852077484131e-01
-4.798384696619850676e-02,-2.175001335457645291e-01,-4.558785449379892940e-02,8.862620933512848492e-03,-1.046493118609020294e-03,-1.972993013906780384e-03,1.714592427015304565e-01
-4.142521308191660090e-02,-1.298544496093818890e-01,-4.448280204948117794e-02,6.077491298823190641e-02,-4.085259746064828779e-03,-1.930416384116123013e-02,1.407390832901000977e-01
-3.948472392225400168e-02,-2.096721067615753831e-01,-4.329253838668338517e-02,4.372446213417226918e-04,-1.271125602072662678e-03,-1.959909740078998649e-03,1.683661043643951416e-01
-4.196973791149313099e-02,-2.135017807981564320e-01,-4.426272863256015128e-02,3.214185071436261899e-03,-1.146669448370603349e-03,-2.307867017423236369e-03,1.705464571714401245e-01
-4.381750657066864341e-02,-2.108030773570567784e-01,-4.163714257024739296e-02,-1.826447317297315027e-04,-2.281369522497087314e-04,-4.121565687381334680e-04,1.680886447429656982e-01
-4.137840755032870521e-02,-1.459801129051580826e-01,-4.187230070893691036e-02,5.158409276317694331e-02,-4.145874849445065416e-04,-4.566525495943429824e-02,1.585222929716110229e-01
-4.216502361380056185e-02,-2.072810714764648510e-01,-3.525374257264574790e-02,1.076862558240270894e-03,-3.782435289463869765e-03,-4.145172950613398681e-03,1.689680069684982300e-01
-4.436577889052743112e-02,-2.142684702567722588e-01,-4.602117773097864212e-02,5.314601958869705819e-04,-6.375568837722543321e-04,-9.849591531815287543e-04,1.690957844257354736e-01
-4.462491606189588483e-02,-2.148162796984836309e-01,-5.098554178777612439e-02,-2.043215776353340257e-03,8.434724366029608747e-04,1.462406847462257133e-03,1.671649217605590820e-01
-5.158690618558398056e-02,-2.157449326185376104e-01,-4.748391149295244640e-02,9.596773542721203547e-04,3.839191895490895131e-04,-1.792988144098508650e-03,1.662861406803131104e-01
-4.501050489775880459e-02,-2.090162134262463778e-01,-3.531268412904470938e-02,-2.571961316269522936e-03,-3.876297378071571782e-03,8.823059199861812280e-03,1.699437499046325684e-01
-4.639965462121486278e-02,-2.166336984256005127e-01,-4.195063230587182251e-02,-6.285116918900477724e-03,-5.756596350077813201e-03,3.426674571742624378e-03,1.732337921857833862e-01
-4.897407241987673798e-02,-1.629496675355829316e-01,-3.945019144859495536e-02,-1.615902358417641710e-02,-7.900350253236758380e-03,1.900504477276506593e-02,1.273608803749084473e-01
-3.250844803689208196e-02,-1.788355269584501750e-01,-3.798893726667136594e-02,-1.231730460129338255e-02,-7.100030736523851686e-03,6.370039886194917879e-03,1.461773514747619629e-01
-4.473631755116642267e-02,-2.137305703395500078e-01,-4.159446521038141775e-02,2.282617568687211006e-04,-5.020917209661594684e-04,-1.146010127495612849e-03,1.706010997295379639e-01
-4.150860808534994478e-02,-2.148799798815481665e-01,-4.433412958583237556e-02,3.962335918327401785e-02,2.964309860503391240e-03,1.176002967040405342e-02,1.863519251346588135e-01
-3.772848661768575529e-02,-2.204366727342806642e-01,-4.179401950151905021e-02,4.556825197268837141e-02,7.562806519023202063e-03,2.519861274225231387e-02,2.023904621601104736e-01
-4.161933459047844480e-02,-1.921627786735788657e-01,-3.642901777747111630e-02,3.685589367637439554e-03,4.107665395479777326e-03,2.114981363455842311e-02,1.578130275011062622e-01
-4.678315247770457874e-02,-2.187781201906083550e-01,-4.427957235953344090e-02,-1.628668867170428129e-03,-7.035583779239600456e-05,-1.139863718904190158e-03,1.732945740222930908e-01
-4.361897119134425238e-02,-2.305040169121434224e-01,-4.386354306512171841e-02,2.417207588642266217e-02,7.377425347567481695e-03,1.957791304743459679e-02,1.947983652353286743e-01
-4.206959926692829810e-02,-1.954627646478400427e-01,-3.220015752323391461e-02,1.248651182810847464e-02,6.905025851829787661e-03,2.205678390111648346e-02,1.649577468633651733e-01
-4.032984119313952343e-02,-2.313337425267831815e-01,-4.431539981215963653e-02,1.196547612960787051e-02,5.513901379485854938e-03,1.384168153461667189e-02,1.919182687997817993e-01
-4.538981110459665985e-02,-2.034771083754150500e-01,-3.827100764417346035e-02,5.250956560738684331e-02,1.740003491908081491e-03,2.211557249777542852e-02,1.895146518945693970e-01
-5.117891205530833432e-02,-3.079603578611650461e-01,-5.039217512811389188e-02,1.855080493792012758e-02,8.756215720962658849e-03,3.311439146733327621e-02,2.658786475658416748e-01
-4.560338434252569212e-02,-2.104986313742364668e-01,-4.532805265507179604e-02,-1.156726410185969267e-04,-2.658667362494322111e-06,2.869963312605401857e-04,1.650339514017105103e-01
-4.675220872427870988e-02,-2.144202579756965821e-01,-4.472689858856181144e-02,-2.708242900323284703e-03,2.201358438231139358e-03,-2.961160212980338668e-03,1.688760071992874146e-01
-4.764682244783776527e-02,-2.115141855073065513e-01,-5.296012191908350958e-02,6.839283785364447992e-04,1.514743115999503007e-03,1.757445696970307372e-04,1.613023430109024048e-01
-4.831920785152284126e-02,-2.186667417054098672e-01,-5.179717337327593291e-02,-2.764229607841679325e-03,1.747694855169623423e-03,1.277424381753762160e-03,1.687450706958770752e-01
-4.632321512840383709e-02,-2.193912521009114824e-01,-5.498576603687355818e-02,-1.358550932416748014e-03,4.610397889051703587e-04,1.692128193296293459e-03,1.689471453428268433e-01
-6.077462285216835014e-02,-3.039428584922525545e-01,-5.044456576607460330e-02,-3.050417964370388466e-02,-8.961234738951632736e-03,-4.263351300642524017e-02,2.650183439254760742e-01
-4.492502192742164197e-02,-2.147261941980778688e-01,-4.945304237972737021e-02,-4.196621054313486639e-04,2.233374939343384916e-04,-5.197164623441944331e-04,1.675874888896942139e-01
-5.310808836598362309e-02,-9.388559393348355764e-02,-5.612033809033534215e-02,7.609312688985249082e-03,-5.185182075199707558e-03,-1.210710542225292181e-02,4.736196622252464294e-02
-3.569041613762145848e-02,-2.135720314888608917e-01,-4.424681967667443150e-02,-4.443391676872484805e-03,3.868210183819336886e-03,-4.964197993375098162e-04,1.740629523992538452e-01
-4.896284610292318817e-02,-2.098251251353057123e-01,-3.353188379412647135e-02,-1.267477526622347219e-03,-7.354035686512882001e-04,-3.314193771885808309e-04,1.691266298294067383e-01
-2.801955646200562228e-02,-1.587293590022996193e-01,-5.530006014575987450e-02,-2.233399579920152672e-02,-3.210630542304919195e-03,1.225759618920681509e-03,1.256793737411499023e-01
-4.590409061753919495e-02,-1.810773852375355264e-01,-3.714450458558016949e-02,-3.590229475878644987e-03,4.953253353283405477e-03,-9.707257283530278200e-04,1.401702910661697388e-01
-4.732765890974124923e-02,-2.362839437421898059e-01,-4.863765657932642150e-02,-2.208581242539611918e-03,-9.683698825878622350e-04,-7.648808100065193974e-03,1.888163685798645020e-01
-4.579436933886774086e-02,-1.847281208495267224e-01,-3.222377310754544893e-02,-3.321354384154879668e-03,5.470296258417457931e-03,-5.271030287564103939e-03,1.468958109617233276e-01
-3.583763718212816529e-02,-2.018460689229769900e-01,-4.742726645945478936e-02,-9.258713543726697359e-03,6.599951049794771773e-04,-4.230709224029799084e-03,1.614971160888671875e-01
-4.233728915926267961e-02,-1.949872786326452001e-01,-4.061769947885474075e-02,-5.952367526196055553e-03,6.029126118464164796e-03,-4.645647925981563273e-03,1.544265598058700562e-01
-4.431207831675088027e-02,-2.224418469174783697e-01,-3.639032893841684380e-02,-1.454927519290912527e-03,4.356142565132001439e-03,-1.350730528642667475e-03,1.824083924293518066e-01
-4.767322386800775663e-02,-2.101376028084653014e-01,-3.843060658942551444e-02,-3.406556325436303052e-04,3.176867689963945671e-03,-3.622809771460128170e-02,1.787449270486831665e-01
-4.611531170146460773e-02,-2.086495360769329843e-01,-3.135971718186064683e-02,-9.478212749467271195e-05,3.065773461907432811e-03,-1.409535677473109250e-03,1.704921573400497437e-01
-4.403355163499408920e-02,-2.093694219298690706e-01,-3.147578078154977810e-02,-2.321238518022475654e-04,2.888197731320316704e-03,-1.901880725316692014e-03,1.720637530088424683e-01
-4.881518284635549820e-02,-2.465254584810241678e-01,-4.728279630591322724e-02,2.557454351811151196e-03,1.937791674541852619e-03,-7.956667990039106853e-03,1.990363895893096924e-01
-6.005045249394339035e-02,-3.278827350011054298e-01,-4.370188503771559041e-02,-2.139700577117304922e-02,-3.379195967453140804e-03,-2.165720137608827950e-02,2.814159393310546875e-01
-4.648459620474504339e-02,-2.445690696055057844e-01,-6.067801216962383920e-02,1.875918553841075288e-03,-6.967582729947498655e-04,1.896649790550384435e-02,1.942128092050552368e-01
-4.429155672842301217e-02,-2.093573433513725435e-01,-3.272318602652811437e-02,-3.303331372659099388e-04,-1.092858517168360591e-03,-3.313883678408157557e-04,1.711558401584625244e-01
-4.402518413165089350e-02,-2.167330460067332376e-01,-5.766692028735899422e-02,-2.079191476321468903e-04,1.088024334663786202e-03,-5.229529555681284528e-04,1.663206815719604492e-01
-4.081373589939493035e-02,-2.112687869827207798e-01,-3.882623638426296181e-02,-7.583689599938009656e-04,-6.255846263596310380e-04,3.283938481974739659e-04,1.714668422937393188e-01
-4.738297708480114501e-02,-2.145682775825134558e-01,-4.817800119408247039e-02,-1.342994128663690511e-03,3.304789197134268253e-04,-2.558520450116864679e-03,1.668652594089508057e-01
-3.398844915566351377e-02,-2.004312435790800706e-01,-4.367133580420563127e-02,-9.658084874947198833e-03,2.311087142302626143e-03,-4.939016313500009005e-03,1.629550755023956299e-01
-5.045622248293006595e-02,-2.389241529869285674e-01,-5.492465010937411934e-02,1.253794533208035366e-03,-3.803420161820446864e-03,3.510208091581812784e-03,1.865021437406539917e-01
-4.896540334998057686e-02,-2.489545810416838312e-01,-4.537241641058985253e-02,-9.425793818842528524e-03,2.655654213074365791e-03,-1.232759453785345870e-02,2.036436647176742554e-01
-4.577032247567577872e-02,-2.289315790242856530e-01,-4.536956665205204436e-02,-3.584118085773907447e-02,1.119324467642178120e-03,-1.657292778117715887e-02,1.957118362188339233e-01
-3.829299888191444595e-02,-1.896928193418262465e-01,-4.426419642138841593e-02,-2.517864771378500871e-02,1.332339286011099229e-03,-3.557409036556682946e-02,1.666051894426345825e-01
-5.238701984199843620e-02,-2.885570135352183430e-01,-5.990415059347656279e-02,-1.021935035985635856e-02,1.367522592295055588e-03,-3.506402725364331230e-02,2.409664392471313477e-01
-4.684300531745816398e-02,-2.156528260367141514e-01,-4.792717970259686988e-02,-4.284887898863450062e-02,-3.851874131713926039e-04,-2.038833767823605009e-02,1.872711628675460815e-01
-5.210291567407467073e-02,-2.712892073566250395e-01,-4.183273436867071537e-02,3.438090970802079593e-02,7.798847285340183150e-03,3.321081592111669190e-03,2.327249199151992798e-01
-5.294188715003020351e-02,-2.923717877186110536e-01,-4.839342523525667905e-02,-2.193030712040257291e-02,2.121240056893848071e-03,-9.494944947637938559e-03,2.452818304300308228e-01
-4.747201086329219666e-02,-2.728931351863763677e-01,-5.140824491786560868e-02,9.476780493303373163e-04,3.732662648941717076e-03,5.077092261218878189e-03,2.237513959407806396e-01
-4.813386129780141548e-02,-2.163325627455007782e-01,-4.960579944658325552e-02,-8.901392752266413383e-03,-1.311636488315987828e-03,-4.502275955453471576e-03,1.683718115091323853e-01
-5.382608324936014044e-02,-3.287645132879739585e-01,-6.190970020512441552e-02,-5.688178994386623721e-02,-3.109858171917669837e-03,-8.395567567805394329e-03,2.887578010559082031e-01
-3.129451384554160498e-02,-2.115706012396242897e-01,-4.502377216785387326e-02,-9.431272368305463694e-04,8.003475974792743615e-04,-2.063381375689504553e-04,1.738321632146835327e-01
-5.128428882602709127e-02,-2.415539873769687040e-01,-4.688480293383325004e-02,2.590457621667065918e-03,2.235919046405446600e-03,-3.424604128566932637e-03,1.926896870136260986e-01
-5.319352894717049862e-02,-2.200103385470853767e-01,-4.380380592402582235e-02,-3.676638992188586367e-03,2.962322126230674656e-03,-4.183313358251337585e-03,1.720516085624694824e-01
-5.372940331614894233e-02,-2.267038352555978964e-01,-4.963122583120981035e-02,1.035850993055042329e-03,2.360780796721236984e-03,-2.464344131522696636e-03,1.751684546470642090e-01
-5.290131351764475187e-02,-2.204122442819976269e-01,-4.734441163855919454e-02,9.936935650631899524e-04,2.743946081040383751e-03,1.967179123598813799e-03,1.704663932323455811e-01
-4.623523614564676448e-02,-2.122050097538697166e-01,-4.402946996513386335e-02,1.656798098875858494e-02,-3.797687765446440718e-03,-3.998901401656086707e-02,1.832513213157653809e-01
-4.792568665584902299e-02,-2.120163433488501115e-01,-6.481188719751927729e-02,1.188468539705773638e-02,-1.271286476351718864e-03,-6.807561269287906724e-02,1.969047337770462036e-01
-4.775002087983370308e-02,-1.114656821501143619e-01,-4.479952489818895406e-02,3.232697812905590412e-02,-1.168259725422580563e-03,-4.689062636630192404e-02,1.182868182659149170e-01
-5.323834057760917088e-02,-1.929234320764940669e-01,-4.359825386117171381e-02,1.130390532585816982e-02,-1.122999005809192929e-02,-2.880697739347190534e-02,1.555719524621963501e-01
-4.575082136188322879e-02,-1.501299187000390001e-01,-5.774015746699723284e-02,-9.941816971654918872e-03,-4.121338199708669305e-03,-5.884779730701658607e-02,1.432618945837020874e-01
-4.766650569866537346e-02,-2.212380908287177039e-01,-4.202657189819598849e-02,-5.060322727402809771e-03,-1.955198255873811727e-03,1.189296317116693598e-02,1.779057383537292480e-01
-3.941473817336904606e-02,-2.158022513927219665e-01,-4.042164029913566936e-02,-5.840140847592804142e-05,6.597286208491272589e-04,1.392534947206877996e-04,1.758901327848434448e-01
-3.899407738727066891e-02,-2.156432875438125674e-01,-4.102477064933228446e-02,-1.170812406324464124e-05,5.544713181679558059e-04,3.400003376080100405e-04,1.756462752819061279e-01
-3.699457956262687530e-02,-2.141922888492473476e-01,-4.155907010749351760e-02,-1.721454188315769637e-04,1.632286154123103756e-03,4.951922753879929931e-04,1.749853193759918213e-01
-4.699019532971935448e-02,-2.121823069927272765e-01,-4.750638769320739141e-02,5.122616810032763063e-04,-4.099081034436119725e-04,8.148106534420181731e-04,1.649445742368698120e-01
-3.814123633185764056e-02,-2.066940596215974257e-01,-4.024534922846154800e-02,-2.160091229978483140e-03,4.634430898327029230e-03,-5.366563712254615506e-04,1.677471995353698730e-01
-4.524967710320882547e-02,-2.141266360155256454e-01,-4.360000614870634950e-02,1.049833969611933728e-03,-4.656470940422601673e-04,4.018001825343117846e-04,1.697208881378173828e-01
-3.919749662362564946e-02,-2.147690686892346490e-01,-4.200108991861465496e-02,2.699164385179246995e-04,2.090694590364152242e-03,2.889917821844428109e-04,1.742256879806518555e-01
-4.098283742974438704e-02,-2.147446205694548693e-01,-3.813849787106117495e-02,6.202784682878688090e-04,7.640689176088883046e-04,2.684965113806373383e-04,1.752101778984069824e-01
-4.610382359610323139e-02,-2.038937365775952970e-01,-3.705341623482317354e-02,2.285021627450341177e-03,-7.660542885856070142e-03,-4.222386294726647449e-03,1.632569432258605957e-01
-4.052467880490656649e-02,-2.157229749787382689e-01,-4.383372225600821320e-02,2.372751529326699860e-02,-3.786439978819293364e-03,-3.951683942289481444e-02,1.911606490612030029e-01
-4.818607504928715951e-02,-2.128788829502617497e-01,-4.866664312054680419e-02,-7.624143143581693736e-04,2.201123366668219367e-03,1.639022481132578184e-03,1.645270287990570068e-01
-4.861699684565436858e-02,-2.095859750217629325e-01,-4.885317173242006289e-02,-9.423418924376187548e-05,3.646124073328671413e-05,-1.590596176220450018e-04,1.608513444662094116e-01
-4.624025841248283891e-02,-2.123018345165026965e-01,-4.631167954099422307e-02,-6.084202193715382203e-04,2.028705204375680284e-04,-1.274892517497949458e-05,1.660295873880386353e-01
-5.018190410582359234e-02,-2.137973696986960048e-01,-4.719807114405142473e-02,1.540309803030496605e-03,2.308025812677823481e-03,9.824547318651793634e-04,1.652062982320785522e-01
-3.541155640898673018e-02,-2.087753592073475772e-01,-5.636574610366738153e-02,2.339602161915394982e-02,-5.616433790142838847e-03,-1.953696663908414607e-02,1.724622398614883423e-01
-6.709144706723982332e-02,-3.486800876142007732e-01,-6.463090954360964369e-02,-1.947468137243713385e-02,-3.830987368237481414e-03,-9.925282117204755131e-03,2.854267358779907227e-01
-4.937511808568928462e-02,-2.319144049023411647e-01,-4.241810834541932806e-02,-6.337366600369033660e-03,-2.085962292397357427e-03,2.452930805745471080e-02,1.912524998188018799e-01
-5.559921569508972927e-02,-3.458691934833794113e-01,-4.776749774882137201e-02,1.410794195655911201e-02,-2.798461142408166123e-05,-1.987752527268455208e-02,2.972772419452667236e-01
-4.616886429408739029e-02,-2.109410677139740842e-01,-3.508602470443431681e-02,-4.838832288401234477e-04,9.783064500870977676e-04,7.197657797931695210e-04,1.705988794565200806e-01
-4.367221484146252553e-02,-2.217488109543458985e-01,-4.327549552583753734e-02,5.218896766678473090e-03,-7.335612606855281340e-03,-1.664473427988281962e-02,1.812632381916046143e-01
-3.732716386460572383e-02,-2.073620543717749065e-01,-4.468955436586281166e-02,1.978912314400390823e-02,-5.252700986878717539e-03,-1.489647887967524703e-02,1.721555143594741821e-01
-3.170834829225760432e-02,-2.133190408920643544e-01,-4.604213732873479320e-02,-1.081699272898697332e-03,8.701180909428397588e-04,6.726097021173862685e-04,1.749053150415420532e-01
-4.385566528241961748e-02,-2.427202038693734854e-01,-4.750280196328975080e-02,9.278550273175877744e-03,-3.623573907495403201e-03,-7.236948621372920123e-03,1.982168108224868774e-01
-4.179990026725134006e-02,-2.181851586733538073e-01,-4.533966008912660578e-02,3.797862245513370857e-03,-2.870213791753251868e-03,-1.001528459140461989e-03,1.748454272747039795e-01
-5.212388336385199994e-02,-2.119616470741143288e-01,-4.667416799586421305e-02,1.515117556536910146e-05,1.044719075942558391e-03,3.464508146683749606e-04,1.626423001289367676e-01
-5.539684810142684462e-02,-2.225081930521574103e-01,-4.422563432719574250e-02,5.528443074725231717e-04,3.335075928836556667e-04,-4.239524609545686868e-04,1.729729026556015015e-01
-4.974117368746523715e-02,-2.151930551313502860e-01,-4.589778700234606323e-02,3.668849525341784899e-03,-5.399418492630248673e-04,-2.822097462438839365e-03,1.676011383533477783e-01
-4.733685010511646390e-02,-2.162174097331915901e-01,-4.637197344468933780e-02,-1.244555036741380283e-04,-1.045690757546813580e-04,-1.339442971217286431e-03,1.693811863660812378e-01
-4.123186476420861307e-02,-2.135242668902079810e-01,-4.510384910706947276e-02,2.840795130751836567e-03,-1.269780605237428618e-03,-2.060332047493317227e-03,1.705119758844375610e-01
-4.972181299571065000e-02,-2.153644305200296538e-01,-4.764724663141713806e-02,-1.975557712510904625e-03,8.377444473684822869e-04,2.689883464818290746e-03,1.667960882186889648e-01
-5.545851154920923565e-02,-2.141406220258600113e-01,-4.710330122817222437e-02,-5.439615647569063118e-04,1.700524919937375541e-03,3.506223010037445853e-04,1.630508452653884888e-01
-3.373761716829980217e-02,-2.010695975236208577e-01,-4.437181814543007113e-02,-4.078670175344689566e-04,-5.355228353590388811e-03,7.896964413214613591e-04,1.625485867261886597e-01
-4.189352474741653981e-02,-1.684565203727786953e-01,-3.708978117857487933e-02,-6.650439794259161222e-03,-8.047264320672842600e-03,8.157601952494864667e-03,1.310566365718841553e-01
-3.429707713895820825e-02,-2.007086894265493471e-01,-4.439513347951720701e-02,-4.636974261915316128e-03,-6.220983648287945270e-03,1.107542534964453367e-03,1.621685773134231567e-01
-3.834947162771538964e-02,-2.091410262320098912e-01,-3.820555737644439759e-02,-9.324642007773476914e-04,-1.776189755883879643e-03,1.086916535796517667e-03,1.709092557430267334e-01
-3.377257130955605563e-02,-2.036583327773779650e-01,-4.160982346479198679e-02,-3.341733971935276996e-03,-3.532132369436282674e-03,3.793280736610414702e-04,1.663205325603485107e-01
-5.657291165981731540e-02,-1.107949002100820091e-01,-3.680937142047928379e-02,1.677873826566811388e-03,2.048285599751913880e-03,2.182587634005258084e-02,7.650084048509597778e-02
-3.348915040747395960e-02,-8.297614541185599490e-02,-4.160749558681627047e-02,1.526320630415833185e-02,1.304358788696596784e-03,3.971032545568818628e-02,8.687835186719894409e-02
-4.385144206167820857e-02,-2.152996359015381389e-01,-4.370498067468017028e-02,1.812820780984933334e-03,2.346507397342780053e-03,-5.354971202396985615e-06,1.715983450412750244e-01
-3.610324716648628807e-02,-2.089918078172990357e-01,-4.601607960095163707e-02,-9.594497323482764455e-04,1.710923915308468169e-03,2.748860949916704104e-04,1.681864261627197266e-01
-2.980941815878988821e-02,-2.056159359070400261e-01,-4.588395522844333774e-02,6.330253204962551367e-04,-1.486503765851331050e-03,-6.747508216830955903e-04,1.683731377124786377e-01
-3.108435118221861138e-02,-1.933195306906594357e-01,-5.076919002562438332e-02,2.151407267483161634e-02,-2.025277178111831514e-03,-3.690450114318251113e-03,1.579743772745132446e-01
-4.511561764711104205e-02,-2.083600567787353142e-01,-4.465483028219311562e-02,-8.336249675123686559e-03,7.687700313071453746e-03,-3.227935698805614855e-03,1.647459268569946289e-01
-4.433807692354843621e-02,-2.165541936647044641e-01,-4.015411539987401301e-02,1.725680919819996481e-03,-1.559750160870895319e-03,-9.528108331525952934e-03,1.751714199781417847e-01
-3.669780565901961666e-02,-2.047246696287238765e-01,-4.325786228924244359e-02,4.317237918064881740e-04,-3.835852382458690424e-03,-1.404048543958527390e-04,1.649804711341857910e-01
-3.189537709087547634e-02,-1.998447693332229824e-01,-4.490620040243793742e-02,2.494903779506568806e-04,-5.069392136117359393e-03,-5.841777940123956151e-04,1.620784550905227661e-01
-4.058429824274210201e-02,-2.117293157517598501e-01,-3.868312683227222160e-02,-5.507867619428691991e-04,-8.970384409527312102e-04,2.986917165737695227e-04,1.721139103174209595e-01
-3.714270696843145758e-02,-2.114964350886722189e-01,-3.792552109968878871e-02,-4.101550965119228761e-05,-1.115256735336194512e-03,-1.709084103808122834e-04,1.739746332168579102e-01
-4.286559446586481192e-02,-1.993125409732467990e-01,-3.499237241925133579e-02,3.750846132717866599e-03,-2.706489069044479192e-03,-6.864188969645884653e-03,1.611673384904861450e-01
-5.079299340817043651e-02,-2.534245701471449230e-01,-5.064595274169567118e-02,2.495746715572276508e-02,-2.306128478553851665e-03,-2.104750042493085116e-02,2.104826420545578003e-01
-4.059170849490147115e-02,-3.807962359623431881e-02,-3.795128516908188171e-02,-1.878532532751775452e-02,-3.024779347742858823e-03,-1.333303656022868412e-02,4.032458737492561340e-02
-5.401870401880259909e-02,-1.463141716463677855e-01,-3.781971410366688491e-02,6.876786166823802351e-05,2.279670360908298173e-03,-2.009167565907986341e-02,1.072501018643379211e-01
-5.141822414961835785e-02,-1.086851958904576365e-01,-5.805130742486366152e-02,-1.015137438711721622e-02,-1.637255749346311785e-03,-3.939122729021846125e-03,5.750991404056549072e-02
-5.060251998330445034e-02,-1.312980702282391388e-01,-5.683916751217379243e-02,-5.767081221995805276e-04,6.603531732619300019e-04,-1.249594249162491125e-03,7.780995219945907593e-02
-4.551474276009486591e-02,-7.805268125656156242e-02,-5.172975130565286156e-02,-7.960845024849505513e-03,-1.302080378408746776e-03,-3.685042315100831196e-03,3.363138809800148010e-02
-4.956223777241015871e-02,-2.025243818060620260e-01,-2.428345072954962713e-02,-6.069844056359654377e-04,-5.772315215424603994e-05,1.322839451451355381e-03,1.670613586902618408e-01
-4.986182984869681756e-02,-2.007850414397203964e-01,-2.405405134014435009e-02,-1.469676284610058558e-04,7.605968343656397236e-05,9.637439294444860886e-04,1.653533130884170532e-01
-5.002638598255665370e-02,-1.970523829748868638e-01,-2.440257186860027294e-02,-6.791236236809827364e-04,1.165780148919557047e-04,5.350405912288719312e-04,1.613780409097671509e-01
-3.525532541938481562e-02,-2.114921660991781471e-01,-4.462323856388324822e-02,1.828159589053163063e-04,2.854245556594573862e-03,5.727951313107941273e-04,1.718188971281051636e-01
-4.959480094612897516e-02,-1.998553738978785244e-01,-3.555087982901423277e-02,-1.118373072382864222e-02,-7.423654299759412621e-03,1.432426440606667135e-02,1.613748222589492798e-01
-4.119812033771216159e-02,-2.050252726832317851e-01,-3.598376411010500292e-02,-6.247676368440539980e-03,-3.976897495476455074e-03,4.470005507644502808e-03,1.671683788299560547e-01
-4.626233214594898530e-02,-2.110718363906974593e-01,-3.584004286278839185e-02,-2.551314324376232202e-04,-6.108217048597797811e-05,6.891733061392635263e-04,1.702648550271987915e-01
-4.441395003595761254e-02,-2.189167274137592267e-01,-4.350604096405597671e-02,1.771812122963722317e-03,-2.467602446663109440e-03,-2.083209069235572065e-03,1.750747859477996826e-01
-4.598135067338830761e-02,-2.140508392277503391e-01,-4.338346198202072679e-02,-2.072259611445351722e-03,-3.477798734642041688e-04,6.889528578903432367e-04,1.694266796112060547e-01
-4.635501904757308861e-02,-2.077676623024468650e-01,-3.549475015755294838e-02,1.371456601267742690e-03,-4.011763933601412979e-03,-8.077872034188759293e-03,1.678530722856521606e-01
-4.742203948463535185e-02,-2.126187365737799984e-01,-3.262382905093960672e-02,-2.388032988550483444e-04,1.248707822117276541e-03,-1.265766143300308452e-03,1.730988323688507080e-01
-3.947846567003435864e-02,-2.098515913917892717e-01,-3.867378313834287512e-02,1.895160991043710755e-03,-3.663706714666755543e-03,-4.347589587833994491e-04,1.709279268980026245e-01
-4.188738314269033203e-02,-2.119580197210417793e-01,-3.924736879193448102e-02,-7.501867679992707495e-04,-2.907444875803603165e-04,3.188151557646008325e-04,1.714124530553817749e-01
-4.240997516805919409e-02,-2.138995641609341414e-01,-4.062198240426541374e-02,-1.134792957729432571e-03,-1.560893845397223409e-03,4.944733726764182023e-04,1.724250614643096924e-01
-4.112100351901856049e-02,-2.140551769135262128e-01,-3.694720281612019069e-02,4.034993756721865898e-04,-3.970029598657236550e-03,-9.477260583920773867e-04,1.752024739980697632e-01
-3.860419756585595219e-02,-2.119330486170627748e-01,-3.714684484676115950e-02,-3.935148202187534585e-04,-1.496225621485729694e-04,2.009653108949165795e-05,1.740636378526687622e-01
-3.779272243456763269e-02,-2.120427158715078864e-01,-3.817668475834150310e-02,8.002494015262861461e-06,-7.917892215492852021e-04,-8.739579752111588645e-04,1.740703135728836060e-01
-4.145711114446780365e-02,-2.096239023668107493e-01,-3.710130130828211137e-02,-1.079542952740519465e-03,-1.443732450380846204e-03,2.960654318925993534e-04,1.704158335924148560e-01
-4.154836299909008684e-02,-1.968960343127388879e-01,-3.546025400833766050e-02,-4.778675672091711084e-04,-6.276923842755265104e-03,2.128608274316988111e-03,1.588968634605407715e-01
-4.329869670576060731e-02,-2.098899780838335283e-01,-3.170185064366727590e-02,-1.059934649108868008e-03,-1.201059468382067921e-03,-5.269634073030878257e-04,1.727067083120346069e-01
-4.469158960258313301e-02,-2.038948298582465013e-01,-2.907154498393660358e-02,-3.594330801202647377e-04,-1.830662269217649086e-03,2.639053877395803943e-04,1.675919741392135620e-01
-4.295208571063596770e-02,-2.065024683629218538e-01,-2.923900779067187261e-02,-7.570903001943830000e-05,-7.377890846916357369e-04,-8.038153464507436776e-04,1.708307415246963501e-01
-4.749732856879938098e-02,-2.059054618329288766e-01,-2.774982839691268743e-02,-8.988705177774543396e-04,-8.440984709007778386e-04,7.187706399950352437e-04,1.691667139530181885e-01
-3.843166286818072014e-02,-2.031498814986921753e-01,-3.610380359431634295e-02,-1.209773740528613398e-03,-5.196364155375382890e-03,2.788918866996386615e-03,1.662217825651168823e-01
-4.750148236464453444e-02,-2.027175397701659887e-01,-2.725176142637436572e-02,1.178771652875461112e-04,-7.047214761328279928e-04,4.600809303762702467e-05,1.662729531526565552e-01
-4.903423633301320916e-02,-2.026296471711074298e-01,-2.530367286093399004e-02,-9.713983724552510473e-04,-8.462221762956977566e-04,1.139813298411610464e-03,1.667587310075759888e-01
-3.608834584430386377e-02,-2.115527197539747717e-01,-3.743568539125897987e-02,4.531016967139153717e-04,-1.443850284391008784e-03,-1.148643214445253845e-03,1.748255640268325806e-01
-3.674948116870897785e-02,-1.158632024377393155e-01,-4.211411371493709727e-02,6.871265352938002273e-03,3.864342777943274680e-03,-3.488213583813641605e-02,9.848896414041519165e-02
-4.665774917029114760e-02,-1.774342297462838114e-01,-2.827798262887464692e-02,4.857614561527502997e-03,-4.483793406647885310e-03,-1.043676713887219457e-02,1.424844712018966675e-01
-3.260193230931519859e-02,-1.666448622117923384e-01,-4.872860359785538553e-02,1.117174109675407589e-02,-7.061628997823457890e-03,-1.016305253803590110e-02,1.299992203712463379e-01
-4.695042753519377415e-02,-2.046212179771456086e-01,-3.037611038344910364e-02,5.572630300092351217e-04,-3.222307052551315939e-03,-1.136451741772802164e-03,1.666854172945022583e-01
-4.143097671598479359e-02,-1.477232412616621415e-01,-3.768626697140924769e-02,1.770873664840903056e-02,-9.294528859424246864e-03,-1.907547775362031586e-02,1.183287203311920166e-01
-3.919139547758480890e-02,-1.799758790309697321e-01,-4.649572035348173427e-02,6.333676248791333778e-03,-9.499020499807869083e-03,-4.541638003364985993e-03,1.389179974794387817e-01
-3.306056150445348119e-02,-1.424052672953157739e-01,-5.380020958095291933e-02,2.415220462111819164e-02,-2.503862871103420661e-03,-7.885288993054635764e-03,1.098815500736236572e-01
-4.409242114750206581e-02,-7.060699628618491430e-02,-3.919543678201556358e-02,2.560777055909992106e-02,-4.967075705721294386e-03,-6.695880470985228657e-03,5.506939440965652466e-02
-3.036813702265182824e-02,-2.108444491385894626e-01,-4.582002068275207313e-02,7.162785176151293494e-04,1.440330915501756952e-03,1.032512089094927369e-03,1.732995212078094482e-01
-5.994787776391070216e-02,-2.199187599449345387e-01,-4.448935995195570092e-02,-5.478003203322070330e-02,-3.969608786391805311e-05,-3.366517135523910270e-02,2.017551809549331665e-01
-4.987615292659422495e-02,-2.121732881358781297e-01,-4.701565891213331516e-02,-9.709418486396235396e-04,-1.797998762101524553e-03,5.410156555779362803e-04,1.637870520353317261e-01
-5.529625097571502779e-02,-1.616220481424791022e-01,-5.349490583965682555e-02,-2.805287176740780403e-02,4.505613187146732465e-03,-1.010752072134403490e-02,1.192821338772773743e-01
-4.477697285155160523e-02,-1.714553655481855787e-01,-5.332719214415260894e-02,-1.703365086209537166e-02,1.917199958576744096e-03,-1.579647039471691883e-02,1.291024386882781982e-01
-4.289640241803961695e-02,-1.973346748759313707e-01,-4.957122126521650712e-02,-2.011835286670862061e-02,9.734845047334213589e-03,-1.200771552827171323e-02,1.574674099683761597e-01
-4.200122623826748475e-02,-1.941297894167869353e-01,-4.290657178204133892e-02,-6.894395944920286325e-03,6.688176488393145040e-03,-4.338457859546926247e-03,1.527725458145141602e-01
-4.424523418238748840e-02,-1.603854926223473865e-01,-3.498637277183619387e-02,-1.368279083761732816e-02,6.503060856650030169e-03,-2.201655602753432861e-02,1.295852065086364746e-01
-3.646119232021424045e-02,-2.115911914515012371e-01,-3.932649524641188693e-02,-9.426778166724258121e-04,-6.026004163771987894e-04,-1.152793055131932676e-04,1.737259924411773682e-01
-2.948190814220665729e-02,-1.971568729552443666e-01,-4.289799096549920532e-02,6.075422001451897223e-03,-2.944752857454441351e-03,-1.152094819040669696e-03,1.618211120367050171e-01
-4.091889900776813499e-02,-2.113287722589568818e-01,-3.901436694106456132e-02,-7.622065720364040037e-04,-1.095454666453396422e-03,1.849510494706861586e-04,1.713859587907791138e-01
-3.967904147395429071e-02,-2.109890455599588710e-01,-3.861285393331612831e-02,1.429556791221060254e-03,-1.638740315283534598e-03,-1.861607347727620501e-03,1.719170957803726196e-01
-4.238411294753273439e-02,-2.115682469539384436e-01,-3.853699633030632093e-02,-3.778329632382018037e-04,-4.580662567317344246e-04,4.969655960761334762e-04,1.711453795433044434e-01
-4.292589785026249688e-02,-2.111048618614111694e-01,-3.687274165986752228e-02,-1.480198028779557899e-04,-9.291721532633178630e-04,1.576551038043622218e-04,1.712937504053115845e-01
-4.055332786999091277e-02,-2.112891110465252020e-01,-4.176322607527366976e-02,-6.829426757393561483e-04,-8.901175337292685204e-04,2.628791944954369424e-04,1.701457649469375610e-01
-3.210858945496192218e-02,-2.113731626318516299e-01,-4.503325745522233914e-02,5.148047381079427776e-03,-3.655670423964240637e-03,-2.220160120925107269e-03,1.735519617795944214e-01
-3.724419939168018695e-02,-2.027247101468201140e-01,-4.059807286614673660e-02,2.603054881237197409e-03,-5.577030089782551367e-03,-7.402124236226024579e-04,1.641807854175567627e-01
-4.127729404894697057e-02,-1.944591542198935707e-01,-3.738405017652886297e-02,-3.677694100689095965e-03,7.651070588241445404e-03,1.872932591400533800e-04,1.558605581521987915e-01
-3.366055240803575432e-02,-1.094639314104079442e-01,-3.384249351453821192e-02,2.959455108100529641e-02,-2.245565091733920954e-03,4.832350036114003294e-02,1.240182071924209595e-01
-4.069073122983738605e-02,-8.261941961189878114e-02,-3.450932472415783880e-02,2.248043396195133214e-02,4.108548342979177238e-03,4.338615054388725994e-02,9.627682715654373169e-02
-3.526881072118226434e-02,-2.133077183650513575e-01,-4.423659163908000291e-02,4.000881902142168771e-05,2.323848520902573565e-03,-2.285248928497263319e-04,1.737757772207260132e-01
-4.567069692688410093e-02,-2.153796709996269598e-01,-4.806886714466834798e-02,-5.866304873475463103e-04,-1.509928777489167239e-03,-1.532926437012650453e-03,1.685669571161270142e-01
-2.887095905200879817e-02,-6.134150094003296139e-02,-4.254670066361847941e-02,2.484452984258824632e-02,1.568256740643862290e-03,1.863883844759457037e-02,6.081654876470565796e-02
-4.608402346697185181e-02,-1.496575972406755106e-01,-3.705131517377201894e-02,9.423215572286423522e-03,5.411871933982394418e-03,1.133793310255052679e-02,1.117341816425323486e-01
-4.620630225608188257e-02,-1.102593001483361534e-01,-4.657797157364432228e-02,2.114269862338141390e-02,6.077222926320625419e-03,1.877139294396132363e-02,8.116681873798370361e-02
-4.172430273818680813e-02,-1.726504185140150249e-01,-3.818492861542151229e-02,2.060040767710405452e-02,8.337876406313192434e-03,3.270778076710526006e-02,1.493608355522155762e-01
-4.275739989926115314e-02,-2.110726923430585322e-01,-3.690982338549496367e-02,-8.099265341168025278e-04,3.534173664528537061e-03,-7.359209507413538506e-04,1.714337617158889771e-01
-4.899331104759176853e-02,-1.758521638916073493e-01,-3.626977566192349928e-02,-8.734038726758049098e-03,4.875241921844186699e-03,-3.415481762209309174e-04,1.347948610782623291e-01
-4.572596785207248826e-02,-2.134870684725993228e-01,-4.779249541069389984e-02,4.807544501444847959e-04,5.353649674825765076e-05,-1.859861758941099398e-03,1.667706668376922607e-01
-4.173150620693100166e-02,-2.075393141679660047e-01,-3.726525522271197099e-02,2.641552029314402604e-03,4.018521901923187770e-03,9.692274849320945025e-04,1.683000624179840088e-01
-4.890976379662009821e-02,-1.764242485869931820e-01,-4.041606976462307904e-02,1.077717115125025353e-03,4.660698053805659158e-03,-7.873809151048145188e-03,1.329277902841567993e-01
-4.408644544738478388e-02,-2.067977711899922078e-01,-4.392716031822329475e-02,-3.831906835111616085e-03,7.236074553611154640e-03,-7.788222896134436649e-03,1.639634668827056885e-01
-4.509503147013176061e-02,-2.112336997865260080e-01,-3.435877104816444094e-02,-5.677020792170298612e-04,-1.259381566685327091e-03,1.424497205662764371e-04,1.717754900455474854e-01
-5.409232853747356073e-02,-1.992845138794574478e-01,-4.121794133447491404e-02,6.602601290488234638e-03,-2.411445168500758393e-03,-2.980125809307262660e-02,1.610228419303894043e-01
-4.570343215711469148e-02,-2.157924669655173766e-01,-5.064769116172987418e-02,1.042518443873128231e-03,7.161894330813615680e-04,-2.219026259008933036e-03,1.677299439907073975e-01
-4.003823648815520164e-02,-2.042112139172650442e-01,-3.522010898049957039e-02,1.116080033006559055e-03,-3.197823435015642677e-03,-3.487312240234521736e-03,1.668469011783599854e-01
-4.073957946390992235e-02,-2.114814907898494856e-01,-4.201311748366996085e-02,1.690098947153898835e-03,-2.625929518974154820e-03,-4.684252014251586859e-04,1.701966226100921631e-01
-4.637386575063406208e-02,-2.141714638858627784e-01,-4.455642938717581381e-02,-1.205166327171865691e-03,2.840813860812221609e-04,-2.232408010882493355e-05,1.687272936105728149e-01
-4.118457023864333794e-02,-2.065430396352298525e-01,-3.628128138006253556e-02,1.047223566966617656e-03,-4.664457507773091260e-03,-5.442410265744901084e-04,1.680705696344375610e-01
-4.499385445254824867e-02,-2.084491472076823726e-01,-2.995097518444729545e-02,-6.914298405701995148e-04,-1.751371736970791949e-03,7.462238191098164472e-05,1.715033948421478271e-01
-4.196925420864903306e-02,-2.094878817310118768e-01,-3.345858507408958071e-02,-7.903335763209148705e-04,-2.413301698275826558e-03,1.078884133329703160e-04,1.719883680343627930e-01
-4.361291875924805383e-02,-2.093353521030785203e-01,-3.366239363039728177e-02,-4.620934317681451718e-04,-1.173823174426665223e-03,-9.266918901404141724e-04,1.709365844726562500e-01
-3.213184718254236821e-02,-1.938925876357754374e-01,-4.818198062767470313e-02,7.052054248756100228e-03,-3.965231090330759850e-03,-5.761702212481678576e-03,1.553184390068054199e-01
-4.314937737518385191e-02,-1.981969985500651177e-01,-3.705690148536266992e-02,6.446662709343622608e-03,-3.643131748224572985e-03,-3.202984312845407432e-03,1.587979197502136230e-01
-4.648399336251407554e-02,-2.114319917795457471e-01,-3.232684534070034976e-02,-5.351297161216781980e-04,-1.727468281290920477e-03,-1.623375390178312437e-03,1.725142896175384521e-01
-4.510958010917489464e-02,-2.237635687244776683e-01,-4.758784115847925628e-02,-2.678822226400677693e-03,-1.734101724255254122e-03,1.180160319400839000e-02,1.786869317293167114e-01
-4.930352422317960115e-02,-3.016954412850758049e-01,-5.499471455250423690e-02,-3.542917085045713121e-02,2.019056995358421529e-03,1.914537349938714300e-02,2.591817975044250488e-01
-5.516985734811147984e-02,-2.197015150742842593e-01,-4.563327468847144797e-02,-1.035289400720747818e-03,-3.167589107664229371e-04,-2.238354081240582962e-03,1.695559769868850708e-01
-4.616123969474978522e-02,-2.123300482768719077e-01,-4.671434281397053578e-02,-1.260247619102297136e-03,8.903755612399243255e-05,-7.671637410166230221e-04,1.659127026796340942e-01
-4.415074567514054582e-02,-2.208398868262478609e-01,-4.577221234020584228e-02,1.337909839814692067e-02,6.409331172446293130e-05,-4.780623571177815452e-03,1.775971949100494385e-01
-3.604682489310541416e-02,-2.131410091770866155e-01,-4.571940474002155613e-02,3.546840157436182035e-03,1.601057497356517863e-03,1.203194340239460616e-03,1.726056933403015137e-01
-3.827609696043915433e-02,-2.116622213597587621e-01,-4.472994863430196366e-02,2.110385632671545574e-03,9.417578947894151859e-04,5.969651972204043696e-04,1.703011542558670044e-01
-4.627715623142845958e-02,-2.152162213889252107e-01,-4.599592892589172977e-02,2.457972815411380452e-03,-8.301510284891545043e-04,-8.914849635377525196e-04,1.691465973854064941e-01
-5.220680690512587846e-02,-2.192384729696126855e-01,-4.635501802469556287e-02,-1.856809836273548304e-03,-1.769021849779474505e-04,-1.167408626266661130e-03,1.700758039951324463e-01
-5.127368547640701046e-02,-2.191956285471037269e-01,-4.671916817969361257e-02,-1.832986168982553852e-03,-1.045081477014330818e-03,-8.962053354102549789e-04,1.702912002801895142e-01
-4.223753593901669046e-02,-1.985780440072683062e-01,-3.294172696638782150e-02,5.996176229601463473e-03,8.738873191871991686e-03,1.273657482299452200e-02,1.637244820594787598e-01
-4.940412322931964084e-02,-1.806112822071401225e-01,-2.994530493055470866e-02,-3.069944322776962074e-03,-4.947809065177716584e-03,1.152497220406275419e-02,1.436916589736938477e-01
-4.858640881517709009e-02,-2.061549206202401563e-01,-2.687636536141108090e-02,7.770618319972695878e-04,3.050771695288339788e-03,8.580425172204466863e-03,1.702074706554412842e-01
-5.374133730026728339e-02,-1.959981494499509758e-01,-2.955139545740398388e-02,-6.444102859383330287e-03,-4.530818675477290246e-03,1.698589565773386476e-02,1.591070890426635742e-01
-4.817917924369840427e-02,-1.596450601747508302e-01,-3.659034511064660627e-02,-2.246451092570730598e-03,-7.595918461296642492e-03,8.258035217655293470e-03,1.193462312221527100e-01
-4.644374949099498717e-02,-1.954845714727497241e-01,-2.931087425938971175e-02,3.496147687597501302e-03,4.526886572305956896e-03,6.217912151883366045e-03,1.589790433645248413e-01
-5.573061651504162411e-02,-1.481201943742102567e-01,-3.394880641032889390e-02,3.243672244289192352e-04,-7.579980121741183375e-04,1.522259637454806587e-02,1.082585602998733521e-01
-5.905671387100089320e-02,-2.858128924870086407e-01,-6.028265671812033100e-02,5.556335393168709141e-02,-1.393239417106029512e-03,2.596163673776396424e-02,2.498631179332733154e-01
-5.420241191497884164e-02,-2.314616267944087091e-01,-4.728430471038069793e-02,-1.204284111137722416e-03,-1.110074213718682465e-03,3.190124787037182299e-03,1.809242069721221924e-01
-4.816969122065704878e-02,-2.499928711836157946e-01,-4.842131133098234730e-02,7.490295931556145703e-03,1.847515167651053941e-03,3.754360199399025058e-03,2.022441923618316650e-01
-4.488223718389665329e-02,-2.255823356917587286e-01,-4.661103091805399862e-02,1.110691488853034550e-02,6.906170502273586542e-04,7.328769518137025207e-03,1.813167780637741089e-01
-4.109357578794168436e-02,-2.189756018045316832e-01,-4.701092537384589376e-02,1.381116379181484416e-02,1.319539968940126482e-03,-6.026032411609249899e-03,1.769487112760543823e-01
-5.393208383638738168e-02,-2.182119693808410865e-01,-4.578313358563137342e-02,-6.998156723396718997e-04,-4.605627851629292202e-05,-8.885242973143492665e-04,1.685136109590530396e-01
-5.268395720385704584e-02,-2.665290598722618309e-01,-5.155887065856058771e-02,9.245216975656146696e-03,4.499046252906404404e-04,1.055867735646359631e-03,2.150161862373352051e-01
-4.413125147125677994e-02,-2.271944267363744663e-01,-4.553638802618830556e-02,1.625811756811813141e-02,-3.035150044094839239e-03,-1.072630705090696704e-02,1.855334192514419556e-01
-4.828460970114781259e-02,-2.442646939831172870e-01,-4.909067811502575152e-02,1.133722632396743507e-02,1.050325939335043299e-03,-4.870401021128982141e-03,1.967509537935256958e-01
-4.476633622196245915e-02,-2.170612389312743806e-01,-4.543115643356418487e-02,-7.064457072936451915e-04,-1.096883997869844800e-03,9.065323347433131007e-03,1.726935952901840210e-01
-4.680257560782843246e-02,-2.134176746683083548e-01,-5.032550524848669604e-02,-8.398853379971012948e-04,8.129228074920700564e-04,8.071187879306493352e-04,1.649002134799957275e-01
-4.621617847998089890e-02,-2.040830951978533370e-01,-3.809986099824659578e-02,9.402226779247964839e-04,-4.135208455582143651e-03,-5.027661939444797237e-03,1.624774485826492310e-01
