sxx,syy,szz,sxy,sxz,syz,smises
-2.311580418894119970e-01,-5.563340720991138966e-01,-4.901796832900819911e-01,-3.629486852802497887e-02,6.829620870149136214e-02,-9.973173174260382273e-03,3.268753588199615479e-01
-2.080573391094555358e-01,-4.939889372406750523e-01,-5.246404432714669719e-01,-2.865297486263369570e-03,2.655765894818820291e-02,3.367195177223064693e-03,3.059986829757690430e-01
-2.956680283823530653e-01,-5.178121781616028541e-01,-5.204263739200336580e-01,2.143622273897899562e-03,3.137532135286637269e-02,2.835813404505538402e-03,2.300581037998199463e-01
-2.827365735760518084e-01,-7.246716931135124273e-01,-6.414523020282731913e-01,-3.785234733227735987e-02,6.559265278026350787e-02,4.049331022533352725e-02,4.331042170524597168e-01
-2.195429711733565548e-01,-4.711547577776589724e-01,-4.209015608962490829e-01,-9.484013923681963720e-03,1.086691302045101060e-01,-2.518065520134574187e-02,3.013114035129547119e-01
-3.117137550895385800e-01,-7.411381390510088929e-01,-5.740760105256137447e-01,-2.472395717155625745e-03,1.244401974007220135e-01,-6.059627418560219886e-02,4.450445473194122314e-01
-3.198280832953688257e-01,-4.380127437837658122e-01,-4.635667648682759712e-01,2.529339597523479199e-02,1.832091798972165786e-02,2.623618300186815119e-02,1.504392325878143311e-01
-3.080307929545932355e-01,-4.123724077727327075e-01,-4.402408404013101184e-01,1.871195409799417467e-02,1.150336801254255546e-02,3.387093874366644414e-02,1.395018845796585083e-01
-3.275363615924396510e-01,-4.186552126171689814e-01,-4.541460362390337124e-01,5.478294116367192663e-03,6.361833071329734551e-03,1.533958215097780409e-02,1.171046048402786255e-01
-3.116104468559713903e-01,-4.031296166432734585e-01,-4.088466813204361117e-01,6.728806631565550228e-03,6.416377174029687380e-03,2.553090589106239358e-02,1.055769175291061401e-01
-3.022422302452623111e-01,-4.014375124009650908e-01,-4.117404444041797840e-01,5.258738837634795507e-03,5.014009812116299383e-03,2.421744240427960854e-02,1.135151684284210205e-01
-3.018736488821875397e-01,-4.272106640509974462e-01,-4.227604483602876995e-01,1.207891651812415500e-02,7.040268304782390865e-03,1.243863586034135889e-02,1.273654252290725708e-01
-2.914736584939507935e-01,-3.907549293504724019e-01,-4.113207897820383985e-01,3.530932941356094718e-03,7.595313998967864397e-03,1.211023549028145824e-02,1.138945668935775757e-01
-2.666412228724135969e-01,-4.125658467674949703e-01,-4.397743935946090144e-01,-1.746665716051285649e-02,-1.288000789934231130e-02,9.771759820010798500e-03,1.664454787969589233e-01
-2.872828553761134218e-01,-4.809454181659402194e-01,-4.600354693197240552e-01,-2.609700049180953968e-03,9.895506956891071682e-03,7.255291318294566786e-04,1.849559843540191650e-01
-2.589123260389417647e-01,-4.095592824597189541e-01,-4.120510150230191626e-01,-2.695643988404341357e-02,-2.551484565028013310e-02,2.418756345044986364e-02,1.701886355876922607e-01
-2.668508770680543263e-01,-3.913452368663251635e-01,-4.226944617939305537e-01,-2.030659828916113116e-02,-2.137204231020708653e-02,1.930352494080174106e-02,1.552728712558746338e-01
-2.786655463210003236e-01,-4.395547129844605827e-01,-4.401496541163887333e-01,-3.192248772295928905e-02,-3.092514350643629784e-02,1.602256987275424774e-02,1.807700097560882568e-01
-2.662975540382471196e-01,-4.119143721869013564e-01,-4.378153346719487193e-01,-1.770228699707931258e-02,-1.310837485591224288e-02,9.614429981568353364e-03,1.654679626226425171e-01
-2.913606408710995854e-01,-4.171873063891625155e-01,-4.602008269469558543e-01,-3.084116648912457043e-02,-1.980105241592011386e-02,3.240070879601846671e-02,1.739941239356994629e-01
-2.722487882450428387e-01,-4.532692480881831965e-01,-4.538306959827742570e-01,-1.134523713047154219e-03,-1.594327478305221368e-03,-5.506978440410673472e-04,1.813360154628753662e-01
-2.794368954877847200e-01,-4.404934702622219644e-01,-4.495885105377647184e-01,-2.520149597922345663e-02,-2.147851238260650372e-02,1.407203741156655419e-02,1.771162003278732300e-01
-2.510909090574345859e-01,-4.342450683245338006e-01,-4.398001458311904810e-01,-3.559658365813676839e-02,-3.835403314763455307e-02,3.404577040520111869e-02,2.151407152414321899e-01
-2.872222323798931942e-01,-4.366659313519862251e-01,-4.563256431907323218e-01,-1.241931823456883695e-02,-1.203130306692477489e-02,6.710704291590630609e-03,1.633708029985427856e-01
-2.891803144761875277e-01,-4.272647416684505761e-01,-4.243646881286438077e-01,-2.280780421239322897e-02,-2.017635634783039589e-02,3.200352321921565851e-02,1.566198766231536865e-01
-2.844201691968971102e-01,-4.202490181281354209e-01,-4.443285068406870320e-01,-1.942777194044827474e-02,-1.524750695350303095e-02,1.406908754473364803e-02,1.572373360395431519e-01
-2.740260520671469191e-01,-4.215885231976742031e-01,-4.275106727029770459e-01,-1.195808804250191905e-02,-1.113790460484567930e-02,9.729535759571993070e-03,1.541712731122970581e-01
-2.747548898046802135e-01,-3.990571229765292327e-01,-4.056054091390458582e-01,-1.948504904440679850e-02,-1.987586572165148113e-02,2.248344747499072399e-02,1.419456154108047485e-01
-2.936302857894688145e-01,-4.179508824268279854e-01,-4.476126866535805604e-01,-2.153552802140209360e-02,-2.323617515388460772e-02,1.856533419298680987e-02,1.551390290260314941e-01
-2.729395703566748210e-01,-4.612794583625622891e-01,-4.335063439323322831e-01,2.930618284753460246e-03,-2.638425248160000680e-02,1.038097707922531121e-03,1.820160895586013794e-01
-2.562839350069126554e-01,-4.527454139346256956e-01,-3.902506059954229944e-01,8.202977191911228413e-03,-5.033959230316054079e-02,-1.026263193681939412e-02,1.958186626434326172e-01
-2.761923602657949672e-01,-4.780530222077714053e-01,-4.644003741973563026e-01,1.109626471586141506e-03,-3.183168475119682594e-02,-3.445963408643607905e-03,2.031188756227493286e-01
-2.773520872827927031e-01,-4.614905120075362688e-01,-4.622401815562608429e-01,-3.093133646458502695e-03,1.082543896848219217e-03,1.148151422659193267e-03,1.846123933792114258e-01
-2.832582267855276448e-01,-4.734601031713943087e-01,-4.731956375081569632e-01,8.900868442869356136e-04,2.686507239103727248e-04,1.254159260743204721e-03,1.900890171527862549e-01
-2.800494459596236108e-01,-4.825895782997238759e-01,-4.741440892725378164e-01,1.508989038799484319e-03,-3.184424786252119943e-02,-4.359553600130438786e-03,2.061293274164199829e-01
-2.616770656141504947e-01,-4.618845360742887540e-01,-3.843924548513291684e-01,-9.870756910529932329e-03,-5.778299237543574329e-02,8.645834879955429514e-03,2.027479410171508789e-01
-2.793673470292661332e-01,-4.999439220867265554e-01,-4.705594814709871399e-01,9.262235425233450404e-04,-1.945052239301102437e-02,5.018723446563360183e-03,2.103545963764190674e-01
-2.808951615649759592e-01,-4.901006679444071534e-01,-4.362075298817338354e-01,-1.067068457627148338e-02,-6.390193559171755688e-02,1.110246842252501573e-02,2.199054956436157227e-01
-2.992919744348611077e-01,-4.037714379342182691e-01,-3.999295929257494775e-01,-2.152473963858741318e-03,1.436651962109237275e-03,-1.367083078863548171e-02,1.054044142365455627e-01
-3.050478990540367308e-01,-4.211068416607146592e-01,-4.141064238864463065e-01,-2.322378005283832775e-03,8.415485831530924521e-04,-3.663549025601701634e-03,1.129813790321350098e-01
-2.943749572346918697e-01,-4.157684574466377070e-01,-3.937160580736773774e-01,-4.910414244937166134e-03,2.738819408829842351e-03,-9.877899526953060061e-03,1.137243658304214478e-01
-2.836112725312712191e-01,-4.851228746424687266e-01,-5.115980258822060422e-01,2.300416537168500225e-02,9.268702786771977620e-03,-9.005418014466111745e-03,2.207521349191665649e-01
-2.898856687501475404e-01,-4.474802627465777061e-01,-2.795950260875532112e-01,4.795592440000145257e-03,-2.472395615225116139e-02,-1.639525255406459534e-02,1.710933446884155273e-01
-3.231698731785853651e-01,-5.351381728673717530e-01,-5.929105696668275360e-01,5.395433395764433898e-02,5.411775975532514757e-03,6.916439564695488207e-03,2.635881602764129639e-01
-2.705436281195470194e-01,-4.539506177033598711e-01,-4.522197892129461438e-01,-1.340518521248846131e-03,-1.180353309408441447e-03,-5.917313485399893673e-04,1.825768202543258667e-01
-2.717941565124299963e-01,-5.079243150809029661e-01,-6.397509992110241850e-01,8.691590732667753283e-02,4.545713626528924411e-02,2.736138016469053490e-03,3.648953437805175781e-01
-2.406732657692363109e-01,-4.197762147431008950e-01,-4.889173313469045157e-01,8.170823806004813561e-02,3.664256514495219108e-02,3.140966851943154808e-02,2.761488258838653564e-01
-3.365609670392541997e-01,-3.640966230805847137e-01,-4.551964234748970828e-01,1.103839672640148303e-02,-7.148146348651698845e-03,6.071618476715211210e-02,1.521317511796951294e-01
-3.039558468732744267e-01,-3.778775866717595799e-01,-4.093746068190312615e-01,-1.993688463580225393e-03,-9.916621819215448112e-04,3.766308712849925078e-02,1.142593547701835632e-01
-3.230792148770232353e-01,-4.112732185323072498e-01,-4.344201594329480387e-01,-1.731751349664665401e-02,-1.196675563800770128e-02,5.471886775069801506e-02,1.437607258558273315e-01
-3.130605158945265476e-01,-3.773778905025985675e-01,-4.457087911594274088e-01,-2.871708298396927206e-02,-1.335600914463724864e-02,3.539760170981194609e-02,1.413111239671707153e-01
-3.339927356847134932e-01,-4.119065151738265373e-01,-4.734715490634505142e-01,-2.199471564051577732e-02,-9.675402362740632284e-03,2.713770447002201644e-02,1.363784521818161011e-01
-3.168718001511018900e-01,-3.918152592383801203e-01,-4.388685087220464132e-01,-2.134261323711926506e-02,-8.393123049448940332e-03,3.194942108264886560e-02,1.264793127775192261e-01
-3.205743272032398616e-01,-3.901897243751719091e-01,-4.198633046980624894e-01,2.217163567674830613e-03,-2.467958700335334127e-03,3.902769237559280263e-02,1.113331243395805359e-01
-2.690525302921624728e-01,-4.207893785457916258e-01,-3.809958841155688392e-01,-1.428834809393108793e-02,-2.270031411800509102e-02,2.154483486432729258e-02,1.487292051315307617e-01
-3.101880950480880861e-01,-4.309718688372284334e-01,-4.029168514932039424e-01,-9.307492097535985040e-03,-2.105562922568635434e-02,2.697575034885182910e-02,1.255396157503128052e-01
-3.308974626992771673e-01,-4.659283017661897675e-01,-4.357835261844837382e-01,-1.353883875043225896e-02,-2.081630611806394374e-02,4.155429731570776247e-02,1.486663967370986938e-01
-2.605751419552151948e-01,-3.736459656583552280e-01,-2.885721590534362502e-01,-1.818268957065782843e-02,-2.477252865131511841e-02,7.551993993989861154e-02,1.742005944252014160e-01
-3.013933006700599826e-01,-3.498932740706702238e-01,-4.547938964895399394e-01,-2.115046224093890953e-02,6.460004032610690283e-03,-1.636406522409815725e-02,1.439258009195327759e-01
-2.887979019922936041e-01,-4.559967004862418016e-01,-4.112570597224207147e-01,-1.702234746941579460e-02,-2.288544191824544091e-02,3.348932381337654807e-02,1.681718677282333374e-01
-2.649819325011260052e-01,-4.361711293429555991e-01,-3.431916927545088924e-01,-1.800805901142528767e-02,-4.028380529822684492e-02,3.613921179998870470e-02,1.783064603805541992e-01
-2.799058525110237339e-01,-4.673051558540644024e-01,-4.629249504872617327e-01,1.496601165646897075e-02,-2.477390404272496530e-02,-3.604489335087651854e-03,1.920130103826522827e-01
-2.971651755019550922e-01,-3.795910063123363876e-01,-4.403929541713786922e-01,-1.305459712102809665e-02,1.109807338208540842e-02,-2.708628754515902265e-02,1.363243013620376587e-01
-2.838671388488380742e-01,-4.605839094335562600e-01,-4.430247299649949788e-01,1.189781833431050040e-02,-1.800655098216454031e-02,-4.791508329871663717e-03,1.729173213243484497e-01
-2.599650318230009582e-01,-4.458502296301553036e-01,-3.887108288688845281e-01,3.050549701274969661e-02,-4.204308225618264699e-02,-2.635842147882326916e-02,1.933281272649765015e-01
-2.901420278503684669e-01,-4.331713037997675930e-01,-4.408165668034784157e-01,-1.642614118452594488e-02,1.841829167158465230e-02,-8.308469687823737820e-03,1.537646502256393433e-01
-2.833826904937193358e-01,-4.631147683747880994e-01,-4.576134303604038056e-01,2.856465457336003141e-02,-2.253731794214779149e-02,-2.155792443901065683e-02,1.916010379791259766e-01
-2.806004311886282077e-01,-4.507042368607390159e-01,-4.419178894926853451e-01,1.158537875919273853e-02,-1.780679100748253779e-02,-8.962602295733394439e-03,1.706247478723526001e-01
-2.673386881417012528e-01,-4.423971616536542806e-01,-4.127410770602636392e-01,3.015839764220716937e-02,-3.563928536972987837e-02,-3.965016849128375626e-02,1.938785016536712646e-01
-2.782325105044327063e-01,-4.634269879212968291e-01,-5.333113903845305703e-01,-4.134805419627651107e-02,3.681947335791511434e-03,-1.129280762862093328e-02,2.401567548513412476e-01
-2.731517706153053782e-01,-4.493699711243914208e-01,-4.905008287097294417e-01,-4.760557800604046236e-02,2.797510643608891456e-02,-4.940563594329064508e-03,2.218389660120010376e-01
-2.863305555903742361e-01,-4.344366779929620392e-01,-4.313938399056592710e-01,1.040269636509280745e-03,-6.982675022867981200e-04,8.078839909491394942e-04,1.466311216354370117e-01
-2.852966057567698499e-01,-4.554563840967358890e-01,-4.924455124855585120e-01,-3.104168628377024231e-02,2.466520061692296928e-03,-2.183703342496156382e-03,1.988464891910552979e-01
-2.777843881873632292e-01,-4.504386141288050927e-01,-4.725604491264879803e-01,-2.739000231503375266e-02,5.448663695153925166e-03,2.245836539285536552e-03,1.909793615341186523e-01
-2.595322822948358810e-01,-4.329763596173310525e-01,-4.556836146425123912e-01,-2.024744507849841890e-02,2.064708903881290730e-03,-1.521516395170376774e-03,1.891732513904571533e-01
-2.551986012231250434e-01,-4.276018851197032622e-01,-4.470275778550294454e-01,-1.969320738376834426e-02,2.896343445797235506e-03,-1.178153075757815278e-05,1.861127018928527832e-01
-2.796826877352224239e-01,-4.801255185389886604e-01,-4.766625466106677589e-01,-1.613444656576842537e-02,3.345918134212453893e-03,-2.239756898509240833e-03,2.008103281259536743e-01
-2.740209871425511312e-01,-4.532495065618016294e-01,-4.790518150620829418e-01,-1.669889651267495931e-02,7.254653109787864360e-03,-8.932934837873727010e-03,1.965883374214172363e-01
-3.054284183578685474e-01,-4.456810429946290175e-01,-3.960618388288938418e-01,1.104821176027042176e-02,-1.940684447382581834e-02,-2.901023392685500926e-02,1.385441720485687256e-01
-2.823277911875066160e-01,-4.052348794788402375e-01,-3.898483629061950118e-01,1.097344205151684453e-02,-1.375961381360515934e-02,-1.983765019982562314e-02,1.247461959719657898e-01
-2.815080799512051923e-01,-4.062551525860684798e-01,-3.926017181197781203e-01,1.004363205465396217e-02,-1.075451847857561427e-02,-2.376339019549956327e-02,1.280184388160705566e-01
-3.013655357800290591e-01,-3.864172801312563132e-01,-3.890054557929160661e-01,2.186795155938361240e-02,-2.593682346684201417e-02,-5.570414703403093332e-02,1.422049999237060547e-01
-3.032502460882487982e-01,-4.288001852575588635e-01,-4.146896382473621578e-01,1.590197037517598194e-02,-1.758032532255430699e-02,-1.876315411754128984e-02,1.301241964101791382e-01
-3.217915009966260675e-01,-4.403555802269651931e-01,-4.507354639931221429e-01,1.009226136759069740e-02,-9.663940400956434057e-03,-2.376928130528946706e-02,1.329531371593475342e-01
-2.725259557868826010e-01,-4.580365478269711743e-01,-4.549344200679456551e-01,-1.507112024581710921e-03,-1.075676407968865957e-03,-1.863552453598860549e-04,1.840073764324188232e-01
-3.114296254943154096e-01,-4.154263990518156091e-01,-4.265053645656075587e-01,1.538526425932663054e-02,-1.097234675036140410e-02,-3.371073688050292561e-02,1.287275701761245728e-01
-3.052692223536729310e-01,-5.149327767735105699e-01,-3.810442626634676366e-01,-2.922016903256233200e-03,4.165265298796951010e-02,3.033695217492867347e-04,1.975958496332168579e-01
-2.999445739279369416e-01,-4.823733941464572461e-01,-3.328319274977199482e-01,-3.358942250675947625e-03,4.516188725223945627e-02,-3.343833958033013559e-02,1.946002393960952759e-01
-3.002285018043724940e-01,-4.677973212697171257e-01,-3.884854892770377432e-01,-1.939143160677123459e-02,4.519704368063852395e-02,-2.806772051096215539e-02,1.752121001482009888e-01
-2.801052499408037688e-01,-4.478190470768329545e-01,-4.491361375112704613e-01,1.370242088956234987e-03,-2.722670260940960631e-03,1.053050236042386194e-03,1.684688180685043335e-01
-2.612586266952485747e-01,-4.417432850577810433e-01,-3.648124545990956147e-01,-1.161359534624461023e-02,3.692713886180129523e-02,-2.902142748629905553e-02,1.778494566679000854e-01
-2.638826433110210701e-01,-4.307940724167527713e-01,-3.721424460844989235e-01,-1.058781099085644335e-02,3.066939643277868943e-02,-2.072554015425041862e-02,1.611105054616928101e-01
-2.785320729480360580e-01,-4.405350233655465075e-01,-3.085784015620954834e-01,-6.624286878612236848e-03,4.196016357939339608e-02,-2.639188767402225744e-02,1.725785285234451294e-01
-2.446519582663089776e-01,-4.303983744935863109e-01,-3.294791600864874215e-01,-1.566473723295643342e-02,-6.022335074195843407e-02,2.009737185929884318e-02,1.968996077775955200e-01
-2.400392970843543694e-01,-4.431697628403734601e-01,-3.781517544008075049e-01,-5.522049263129193142e-03,-4.833852155289426744e-02,6.782288680082505967e-03,1.988001614809036255e-01
-2.816355397478778055e-01,-4.919512404218890911e-01,-4.688378578951865050e-01,-2.040729105754195485e-02,-2.721842771630126820e-02,1.116983050693476712e-02,2.091698199510574341e-01
-2.986012617791403145e-01,-4.921305978865955222e-01,-4.352889579696813671e-01,-1.375663137236772006e-02,-3.841582224626845232e-02,1.172500726960268996e-02,1.873273551464080811e-01
-2.782303668618232306e-01,-4.843165529590738316e-01,-4.615615616318033965e-01,-9.297235194713334913e-03,-2.785076441171386794e-02,1.902930370956024521e-03,2.022300511598587036e-01
-2.818284322853052415e-01,-4.491684440246444532e-01,-4.399157146325348156e-01,1.455710964278511023e-02,-7.598382262169867292e-03,-7.899820855149057575e-03,1.659400463104248047e-01
-2.702767085848525319e-01,-4.439628517227702797e-01,-4.388820886600754423e-01,9.554905325295119656e-03,-8.004634045802525022e-03,-1.032920157176094554e-02,1.734831929206848145e-01
-2.706154100463420420e-01,-4.439629937619923306e-01,-4.399547169452266981e-01,9.067249910988948655e-03,-7.572817563278830613e-03,-4.605502232365210440e-03,1.727800518274307251e-01
-2.715542554717191304e-01,-4.566115687901006748e-01,-4.416819070772389777e-01,9.324561672253135411e-03,-1.090120966367770158e-02,-1.714555242365579197e-03,1.798122078180313110e-01
-2.822116929656407480e-01,-3.462804950678451954e-01,-4.146766676163152754e-01,-3.371706819824035750e-02,2.089875194810870973e-02,-5.853666110733333344e-02,1.678252816200256348e-01
-2.731659327674668125e-01,-4.539809068937535885e-01,-4.304268541688041627e-01,1.196690478639987967e-02,-3.031750852044629713e-02,-1.208338017659408951e-02,1.805962920188903809e-01
-2.983878858580786275e-01,-4.420528454315083011e-01,-3.872734675412246586e-01,-2.322233004557352001e-02,-2.773144343496434724e-02,2.293198111314674603e-02,1.458529382944107056e-01
-2.793971214965358385e-01,-4.245054045945729770e-01,-3.992728063806254002e-01,-1.782438466709097835e-02,-1.871862294011179817e-02,1.856293488029119379e-02,1.451539695262908936e-01
-3.112281690701105274e-01,-4.289028206568183954e-01,-4.102185426032613491e-01,-1.092661248789410407e-02,-2.104383697883059623e-02,2.736734458292253841e-02,1.262195557355880737e-01
-3.146397941196415471e-01,-4.612576497886372584e-01,-4.132915681079309400e-01,-1.059596710919208547e-02,-1.362795922384826657e-02,1.930592690922069282e-02,1.370292007923126221e-01
-2.989362103044500563e-01,-4.627015603196477089e-01,-4.168104948585263370e-01,2.237015923359213926e-02,5.321095232429174510e-02,2.305776240675048300e-02,1.816595196723937988e-01
-2.971540099919913747e-01,-4.556954310650089823e-01,-4.333674720802374036e-01,-8.775854367250627078e-03,-1.470044766896746145e-02,1.076962540949358629e-02,1.527132093906402588e-01
-3.022575747858457507e-01,-4.630676629103953057e-01,-4.183078806730333166e-01,-4.864975419224732735e-03,-1.321027935607792768e-02,1.224480303501973046e-02,1.473426073789596558e-01
-2.933348725188859030e-01,-4.577487239899254434e-01,-4.170570666994682929e-01,-1.775336903287801082e-02,-2.171338998959743138e-02,2.650040899893104512e-02,1.626783013343811035e-01
-2.724555452221997243e-01,-4.548208124989918111e-01,-4.591445175790887512e-01,1.067457631996157185e-03,-1.336245666062111943e-03,6.878087890677995835e-05,1.845889091491699219e-01
-2.628790949101929009e-01,-4.186311659198941326e-01,-4.729824879619024536e-01,-3.907306205646105673e-02,9.383399372161227783e-03,-1.943061591399006423e-03,2.013297975063323975e-01
-2.589075552905539812e-01,-4.117959012968079868e-01,-4.460726380988830897e-01,-2.311659151587716274e-02,-1.147406369098955513e-03,-3.442105436009437855e-04,1.771939396858215332e-01
-2.707078939772156190e-01,-4.430118169496165548e-01,-4.622225464486975355e-01,-8.126452345020192258e-03,-2.691021162279621202e-03,-1.120147486321180640e-04,1.832693666219711304e-01
-2.632961952394902716e-01,-4.122130264318523141e-01,-4.515199828906549251e-01,-2.358626278642973403e-02,7.370406479492335947e-03,-1.547042834723212201e-03,1.772394180297851562e-01
-2.637017672868231521e-01,-4.175665725840291276e-01,-4.554075957427321519e-01,-2.358603037105096167e-02,4.272468777480136447e-04,1.060585407137040834e-03,1.805589795112609863e-01
-2.696007421633845880e-01,-4.439193292435866245e-01,-4.619769110975065485e-01,-9.973912280122090163e-03,3.338416265801507515e-04,5.787545220050654840e-04,1.848258525133132935e-01
-3.153741860385833595e-01,-4.751484952246419202e-01,-3.862168384884549499e-01,7.806462949756069920e-03,1.506914254199661317e-02,2.481861311250745453e-02,1.481203138828277588e-01
-3.071736533942069913e-01,-4.000849143383217177e-01,-4.638159806051970757e-01,2.913792887154094662e-03,-5.552052237361352824e-03,-1.668986908165316510e-03,1.369006484746932983e-01
-2.880728690157500216e-01,-4.123063595496945788e-01,-3.351609225277251691e-01,-1.298796645615802985e-02,2.082047478034116175e-02,-6.359155381391658202e-02,1.604354232549667358e-01
-2.747149686851447781e-01,-3.964202249661785138e-01,-3.768274401813629382e-01,-1.052288342610633795e-02,1.148764411932554595e-02,-2.654417052709034247e-02,1.251134425401687622e-01
-3.236162928517120063e-01,-4.598120460827802014e-01,-4.562354931253563839e-01,-1.832438579639893497e-02,1.616546666713916669e-02,-2.290658791711276329e-02,1.464254558086395264e-01
-2.945880209251129922e-01,-4.007293154260746504e-01,-3.743664200637403239e-01,-3.521022546813486805e-03,3.957283474464316601e-03,-2.821661127451944792e-02,1.078679263591766357e-01
-2.963326561955052507e-01,-4.296340630931105298e-01,-3.967641252564273469e-01,-1.802487988470312386e-02,1.394058944013149698e-02,-2.331377729428689427e-02,1.328773647546768188e-01
-2.995577916744556202e-01,-4.170266823872543216e-01,-4.003659873102687894e-01,-3.202192075741843585e-02,2.528204048383698305e-02,-4.124767186715375816e-02,1.490545868873596191e-01
-2.566437096460083556e-01,-4.345370029749153207e-01,-2.692524982561949609e-01,3.722530450667985852e-02,9.132086566264160932e-02,5.952396532490016046e-02,2.633760869503021240e-01
-2.984288311833737661e-01,-3.978387929655786692e-01,-3.893047971363801096e-01,-1.546265788748397117e-02,8.521761879633894463e-03,-4.690235987645239440e-02,1.290017068386077881e-01
-2.788597172854421213e-01,-4.723958644961195885e-01,-4.640220451277511371e-01,5.435619189186565760e-03,9.314925297422478948e-03,-1.258705308629643487e-05,1.904065757989883423e-01
-2.750019810989919877e-01,-4.647147165874001007e-01,-4.573852891353158423e-01,7.547097937525656941e-03,1.109434754521512224e-02,4.480744008156739219e-03,1.877618581056594849e-01
-3.611626306425448907e-01,-3.568340256810828004e-01,-6.345834068348820134e-01,1.138997786061636125e-01,-6.311817025981739104e-02,-7.227810537983390959e-02,3.774980008602142334e-01
-2.779179228890108488e-01,-4.489966550596776740e-01,-4.516307607723116235e-01,-4.715154658271049695e-03,-4.453926676219469721e-03,1.736693430804202081e-03,1.728026866912841797e-01
-2.754154861115030162e-01,-4.516640591117949688e-01,-4.537472120685378529e-01,-4.164481997974611195e-03,-4.602404226029283875e-03,7.786268242929552177e-05,1.776250153779983521e-01
-2.686108122191076530e-01,-4.405923222956429353e-01,-4.393110757267947308e-01,-4.349863598902760538e-03,-4.336524989160750292e-03,2.916974314189223379e-03,1.717487573623657227e-01
-2.383651479832012421e-01,-2.068453984231005405e-01,-2.442110647459412864e-01,-1.561265690124760555e-03,-2.261995188252399758e-02,1.498274429340884506e-01,2.647621929645538330e-01
-2.733264214062630648e-01,-4.371223101623978313e-01,-4.274960373284901194e-01,-1.048511833417507637e-02,-9.966617264200904741e-03,5.826996730344900961e-03,1.614765971899032593e-01
-2.695279523756572981e-01,-4.292018874444242238e-01,-4.227979758282980338e-01,-7.515713684934545967e-03,-9.525984625473687961e-03,4.551027366974036252e-03,1.581709980964660645e-01
-2.707305979343661018e-01,-4.558770454609160083e-01,-4.499964119203301860e-01,-7.337077941631738086e-04,-1.072280350261606800e-04,4.675438478856189261e-04,1.822836101055145264e-01
-2.884630724638945765e-01,-4.573894849845731581e-01,-4.584536760670328004e-01,-9.684086438452799844e-03,-9.343773390899640444e-03,4.223948575863293621e-03,1.712128072977066040e-01
-2.821563491411978597e-01,-4.368363791891537451e-01,-4.418747580136607733e-01,-6.937684157755961457e-03,-9.379233883224633028e-03,3.670908124446858704e-03,1.586800664663314819e-01
-2.903596896499382463e-01,-4.573887587389682263e-01,-4.522120078386434039e-01,-9.310801085217985940e-03,-1.007521387652975629e-02,4.779285870256677789e-03,1.664150506258010864e-01
-2.775622717712146748e-01,-4.497614832713338062e-01,-4.439698871052058515e-01,-5.330366608930286847e-03,-4.194086341081310412e-03,1.491333701184473616e-03,1.698042601346969604e-01
-2.784583015149909579e-01,-4.528597937964335962e-01,-4.474978195481144061e-01,-5.224539685273563855e-03,-3.946402311438765298e-03,3.112636858378513998e-04,1.721580475568771362e-01
-2.785971366450564202e-01,-4.422121026260448229e-01,-4.446842866099651181e-01,-1.612686928620500485e-03,-3.866539991876786868e-03,1.523220694848515140e-03,1.650456488132476807e-01
-2.736848811782921498e-01,-4.442780843692109016e-01,-4.429495386968499981e-01,-3.096508822550411450e-03,-3.100579892709536510e-03,9.734582110223245766e-04,1.701105982065200806e-01
-2.763740679648046261e-01,-4.503214225998641851e-01,-4.490255808622853340e-01,-3.991107065011822129e-03,-4.828602154825603274e-03,1.691878695702379778e-04,1.736426502466201782e-01
-3.494816076094763302e-01,-4.547428244102740824e-01,-4.491116238047354048e-01,4.656755009240173999e-03,3.574189120517915277e-03,3.988388435121612008e-02,1.240743324160575867e-01
-2.839991176086250624e-01,-4.009443299897367252e-01,-4.658929999462759208e-01,-4.065972805656401651e-02,3.466751253316472520e-02,-2.773965348578878720e-02,1.906923204660415649e-01
-2.774189593514358454e-01,-4.265315223748405438e-01,-4.564302234557080507e-01,-2.056426044433380326e-02,1.951665713076324374e-02,-8.398445135736117700e-03,1.738094538450241089e-01
-2.730384324803676321e-01,-4.546611417415640233e-01,-4.524051632032785042e-01,-2.112910533093451462e-02,1.709909549579233246e-02,-9.649881289048293023e-03,1.872911602258682251e-01
-2.864020875604217919e-01,-4.783234583219679315e-01,-4.996501434919047302e-01,-2.668664705023677391e-02,1.270633908766677540e-02,-2.776888635747327538e-03,2.098230272531509399e-01
-2.625398687660117081e-01,-3.880218386714999745e-01,-4.502312154496492802e-01,-4.238578901601154636e-02,2.622782852736941020e-02,-2.429870700469295361e-02,1.914328336715698242e-01
-2.880665745092212404e-01,-4.700421731053222585e-01,-4.708469830433570369e-01,1.731456748227782477e-02,-1.684014947312866689e-02,-1.149807783909279936e-02,1.881727725267410278e-01
-2.694390499588114052e-01,-4.243243048609615653e-01,-4.518768383726812776e-01,1.972892828471561541e-02,-1.450441426769315256e-02,-7.933282303848113171e-03,1.760786771774291992e-01
-2.868314893004676458e-01,-4.480324800171182620e-01,-4.675112316824009961e-01,2.843882298153964719e-02,-1.266389221805421655e-02,-1.414116061698537756e-02,1.816934645175933838e-01
-2.615263034777312035e-01,-4.513117680255240849e-01,-4.754185392971650437e-01,3.900334501352795830e-02,-1.480207846633845893e-02,-9.451854927114951635e-03,2.160182297229766846e-01
-2.941166535363517465e-01,-4.500003523816094586e-01,-4.886759809174568980e-01,2.863603641439860931e-02,-1.507248344627407956e-02,-9.192587073733951564e-03,1.876687258481979370e-01
-2.744964346246548947e-01,-4.764938704914230549e-01,-4.864335711711934573e-01,4.796796020407807087e-02,-1.571493586722779237e-02,-1.547881435434044287e-02,2.264331877231597900e-01
-2.696071521752831934e-01,-4.687872761487420492e-01,-4.684502476913651181e-01,2.552402480752722150e-02,-1.364214331872024358e-02,-4.583002258322927368e-03,2.053812742233276367e-01
-2.798852855701516873e-01,-3.117269188416219583e-01,-4.036665804032383842e-01,-6.987605365880987518e-02,-4.560290745185026362e-02,9.588409863589777982e-02,2.467031478881835938e-01
-2.466620468738293104e-01,-3.948398310341022510e-01,-4.516876598641133000e-01,4.526404769462968880e-02,-9.774189695190881391e-03,-9.932197325783558364e-03,2.008506059646606445e-01
-3.403214134208662478e-01,-4.579545770224222045e-01,-3.984086380902726043e-01,4.088842270274451775e-03,8.040236834569999130e-03,5.290363182508436846e-02,1.379100382328033447e-01
-3.518977443511438485e-01,-4.774935789143009979e-01,-3.947966719588159035e-01,1.182645996510745499e-02,8.408156684395234892e-03,5.669656139242523069e-02,1.500063091516494751e-01
-3.290502172108314971e-01,-4.549493776725958560e-01,-3.996847206905836947e-01,2.169060633649164225e-04,-9.773467048404384325e-04,2.785649690592226571e-02,1.194904446601867676e-01
-2.993271008121395349e-01,-4.078662593105006340e-01,-3.486557254577272724e-01,-5.674755198615889003e-04,-1.689713331546185493e-03,4.216637909629061126e-02,1.191785112023353577e-01
-3.147729167111188442e-01,-4.352267940119196599e-01,-3.636735332602974990e-01,8.972553176144848139e-03,-1.166600834891348389e-03,4.070701477192340684e-02,1.273849457502365112e-01
-3.166799692634967855e-01,-4.354829122848754563e-01,-3.704702873702471200e-01,-2.336029429376826512e-03,1.700789748230777110e-03,5.932248514461078981e-02,1.456008553504943848e-01
-3.214618959759151795e-01,-4.308505125628560584e-01,-3.651609428857093276e-01,-7.841628103922193560e-03,-4.544768301540684161e-03,4.001846550587911250e-02,1.189376711845397949e-01
-3.447636753660563436e-01,-4.797679312793041717e-01,-3.874353490597795546e-01,-1.045735809449491703e-02,-9.761053271019665481e-03,6.864439280602310789e-02,1.704001873731613159e-01
-3.143680030651833102e-01,-4.533594207423382039e-01,-4.575311565266473313e-01,1.251341280678448624e-02,-1.910956119356387387e-02,-1.972584635154901386e-02,1.504940688610076904e-01
-2.844121121820885612e-01,-4.159104089424894291e-01,-4.408130008432632474e-01,2.582412711589987878e-02,-2.173053810079571962e-02,-2.451066642623973488e-02,1.624998897314071655e-01
-2.911155132055164296e-01,-4.489240047762940722e-01,-4.428981260138118436e-01,1.339493278038245659e-02,-1.057525114256513236e-02,-6.540491720526069204e-03,1.580854505300521851e-01
-2.826539469687413542e-01,-4.520097413476100723e-01,-4.571134934711932885e-01,-1.000030065485771683e-02,8.606069330301531831e-03,-1.618739381902809839e-03,1.734988689422607422e-01
-2.908776373879563559e-01,-4.431357488110842513e-01,-4.484027920217846797e-01,1.153925413889247617e-02,-1.277435348677542770e-02,-5.073881131421245118e-03,1.580457985401153564e-01
-2.765437196949296905e-01,-4.511561453071711303e-01,-4.422504368448294532e-01,2.335480410870367091e-02,-1.838612967921584782e-02,-2.332354654574836719e-02,1.824725121259689331e-01
-2.691731320238738845e-01,-4.548189924551812591e-01,-4.496529785844848304e-01,-1.388858459250919821e-03,-2.306157864315813016e-03,-3.835123846950293279e-04,1.831780821084976196e-01
-2.724257498928309706e-01,-4.566499064155877807e-01,-4.529821519766216720e-01,-1.187838408832759835e-03,6.113143411677136093e-04,-1.416614622993453551e-04,1.824327707290649414e-01
-3.077057729166388089e-01,-4.566080886920207416e-01,-4.592945131045644835e-01,2.868540522855027308e-02,-2.722383138319122223e-02,-1.988133302470252231e-02,1.686917394399642944e-01
-3.093183486364814994e-01,-4.968461887882181793e-01,-4.864575965614327258e-01,-2.597218834528767367e-02,2.927143908919493595e-02,-1.686863005534846097e-02,1.969117373228073120e-01
-2.662195315133680795e-01,-4.473368450072927605e-01,-4.189217047705115493e-01,-1.653592869551627487e-02,2.522176712669287058e-02,-1.563532803151390996e-02,1.786800026893615723e-01
-2.841962708609487853e-01,-4.568810893626740199e-01,-4.316019068985688101e-01,-1.954341125007560270e-02,3.307996031163124712e-02,-1.636437367520918867e-02,1.769910007715225220e-01
-2.880955010104865877e-01,-4.639467017631265788e-01,-4.349215694036663304e-01,-9.479902598190228374e-03,1.867294648901104276e-02,-8.518824125792457541e-03,1.679147183895111084e-01
-2.855467017493011905e-01,-4.564045091372492813e-01,-4.420971008101088895e-01,-1.304797181766872809e-02,1.605600950539915611e-02,-3.548137298929005500e-03,1.681501269340515137e-01
-2.863734784363202168e-01,-4.930208782211353835e-01,-4.812277712279921515e-01,5.350539557608299454e-03,1.766649254385431814e-02,3.061781859462971243e-03,2.036063224077224731e-01
-2.829549652083764855e-01,-4.893748928289265443e-01,-4.787222149809188809e-01,3.845267045637689677e-03,1.493933920783495177e-02,4.216908538978617928e-03,2.032018601894378662e-01
-2.931903346580115866e-01,-5.125908680361054293e-01,-4.172086156190111250e-01,1.590892178779826360e-02,5.216407052795362514e-02,4.051825147244122322e-02,2.239535450935363770e-01
-2.709478887619284904e-01,-5.132341825033877036e-01,-4.523577094335459736e-01,3.393790841082424542e-02,5.052141447487406428e-02,6.537077449580758551e-03,2.426929026842117310e-01
-2.968571419552114010e-01,-4.959677472900740347e-01,-4.774566588268868705e-01,2.019600895609778481e-03,2.033592575819247183e-02,2.464453772754200602e-03,1.938376724720001221e-01
-3.079395437049714523e-01,-5.144280666949104797e-01,-4.792520977475535071e-01,1.081075697253357920e-02,3.047302229832169265e-02,-1.357885936422347298e-03,1.993825137615203857e-01
-2.887270664618404314e-01,-4.896935935053651212e-01,-4.227186755979847610e-01,1.664436115010203485e-02,6.509687387417555093e-02,-2.306666150126699451e-03,2.120691984891891479e-01
-2.830635004021253009e-01,-4.823642187945991200e-01,-4.505245832961768393e-01,2.675048430473304321e-03,2.314633451260242336e-02,5.540149422178156438e-03,1.900254786014556885e-01
-2.988757631507462098e-01,-4.465033071279053134e-01,-2.990199034973312631e-01,-7.601607537910039236e-03,-1.901559261103220877e-02,3.614725258912950684e-02,1.641664952039718628e-01
-2.904387919156601328e-01,-4.237752824665620421e-01,-4.422069103440041116e-01,1.813807627854893689e-02,1.315369265286000372e-02,1.666597344014806442e-02,1.513778269290924072e-01
-2.902610674320992290e-01,-4.331562636454858173e-01,-4.223296686692822877e-01,1.145114180639772612e-02,1.831282168861134152e-02,1.824207898131155817e-02,1.462428420782089233e-01
-2.790131144553369968e-01,-4.354256192312009888e-01,-4.126119201175108553e-01,1.676797077263387017e-02,1.604814102055574995e-02,1.604132017177137964e-02,1.542889624834060669e-01
-2.944125492771045849e-01,-4.609684191924090513e-01,-4.336634991997519450e-01,1.690104955578355592e-02,2.132260818763816179e-02,2.362942260645119544e-02,1.668369472026824951e-01
-2.757366015447256791e-01,-4.312345841251629119e-01,-4.075283884201462148e-01,1.379988470749955731e-02,1.697737452512961334e-02,1.294098693430757903e-02,1.516369134187698364e-01
-2.991570492172970219e-01,-3.355647752499051895e-01,-4.360636395490583017e-01,-4.647235585598342295e-02,-2.896058465395780213e-02,8.530603146440551843e-02,2.142685800790786743e-01
-3.254975186913315333e-01,-4.058812650797217203e-01,-4.201023225238028624e-01,-4.306447997989086042e-03,-9.259060441905204867e-04,5.101166128018246038e-02,1.251866817474365234e-01
-2.836913129901932340e-01,-3.919763529900104349e-01,-4.624259673475414334e-01,2.302840578395846244e-02,-3.207978997363456798e-03,-5.748857727100399433e-03,1.613641232252120972e-01
-3.221435857371902634e-01,-4.249122845554626493e-01,-4.365756456963849619e-01,-2.445216590157743477e-03,-3.835147597270773760e-03,1.970562022565700011e-02,1.145559474825859070e-01
-2.936075800837964489e-01,-3.597078260150784468e-01,-4.129476584577891352e-01,1.310575039858976470e-02,9.790618671924012154e-03,2.609289922305239873e-02,1.164828613400459290e-01
-2.799418026036746832e-01,-3.537255801660892374e-01,-4.069301598801950415e-01,1.020842988915755985e-02,1.132175249066813202e-02,2.649547852936797593e-02,1.224892735481262207e-01
-2.848471635083428821e-01,-3.894043653362065927e-01,-3.981558134781916225e-01,1.705421165589846369e-02,1.757978827749698617e-02,2.915439497283974293e-02,1.275674104690551758e-01
-2.871078977783656505e-01,-3.603123583057420976e-01,-3.549462376935880181e-01,1.259265457247266476e-02,9.986642372639594964e-03,7.196696694435940345e-02,1.459709554910659790e-01
-3.220246031197950831e-01,-4.069440120606827027e-01,-4.236555893910023407e-01,1.078471751834280713e-02,8.154262339919900182e-03,4.522306811647867214e-02,1.248739510774612427e-01
-2.783024469368071685e-01,-3.888611522978773216e-01,-4.026948362440236906e-01,2.105225908589318518e-02,1.403434147297311953e-02,2.248786686967187490e-02,1.318393945693969727e-01
-2.994106830965702626e-01,-4.255230479265489363e-01,-4.769594135071867358e-01,1.761721387152654153e-02,1.323408345787789933e-04,3.989193863439432185e-03,1.612937748432159424e-01
-3.068847516767496120e-01,-3.620409998138472418e-01,-4.265912076558136534e-01,7.948467099061060429e-03,1.590693230380020237e-02,2.995281362836125366e-02,1.200392767786979675e-01
-3.247268195550457870e-01,-4.135339717802035686e-01,-4.232764202742179127e-01,-3.202117503487144322e-03,2.322723485050493756e-03,4.768225038355933948e-02,1.253577321767807007e-01
-3.339984380818328824e-01,-4.370381704020830926e-01,-4.314495894493297623e-01,1.949708713031805639e-05,9.456997730181649492e-03,3.174297314669647513e-02,1.156015917658805847e-01
-3.441454241643902567e-01,-4.174261003127971992e-01,-4.646617948223518146e-01,-6.280557373199668197e-03,-7.980648435268484359e-03,8.982638263886248697e-02,1.886225789785385132e-01
-2.885851915206766316e-01,-3.520817258933700011e-01,-3.435980239922858948e-01,-9.803719942107706753e-03,-3.387746726424034280e-03,7.218746708797467437e-02,1.397174149751663208e-01
-3.677566744765824458e-01,-4.294276076599070069e-01,-4.881303560558920562e-01,1.815616362514795371e-02,1.373439091122655512e-02,9.217643534912205172e-02,1.947149038314819336e-01
-3.342632522473391044e-01,-4.055489788159494235e-01,-4.343088832175465153e-01,1.302415471547747373e-02,2.507503514925571095e-02,7.630518937565161641e-02,1.667979657649993896e-01
-2.814394840776258122e-01,-4.377336848989686890e-01,-4.312073811002425927e-01,2.075332531152195362e-02,-2.586505950744948448e-02,-1.562279021232785420e-02,1.657762527465820312e-01
-2.851580202973362232e-01,-4.761362270480740677e-01,-4.495355827825033290e-01,1.405256463654181061e-02,-2.990581129209533492e-02,-1.857479926908899709e-02,1.908158659934997559e-01
-2.659124912283593600e-01,-4.374987951719000456e-01,-4.551558950730561492e-01,9.104288049493714993e-03,3.591309214161299800e-03,2.525797953062175385e-03,1.819061487913131714e-01
-2.879844356889545987e-01,-4.345090694234753914e-01,-4.470446717489031663e-01,2.091598658146920711e-02,-1.165252656848712355e-02,-1.287001815747180165e-02,1.602500379085540771e-01
-2.801409713859954187e-01,-4.561415808830236451e-01,-4.534597498805600924e-01,6.457470350115829434e-03,-7.041381654969874546e-03,8.892391065896637463e-04,1.754640042781829834e-01
-2.763130380150711218e-01,-4.501179893772945806e-01,-4.480887556475365296e-01,8.022179980878736683e-03,-4.632631156011856981e-03,-1.242002875127137069e-03,1.735559403896331787e-01
-2.851488634315380022e-01,-3.487340935468198899e-01,-4.577251462849913910e-01,5.598826250448120379e-02,6.517339712952521270e-03,1.027664803011042564e-02,1.808332502841949463e-01
-2.794528377390966822e-01,-4.457253340554719889e-01,-4.375391523054921739e-01,9.338671522214486709e-03,-7.808520491161248175e-03,-4.884426147638101269e-03,1.639162749052047729e-01
-2.725628387678233899e-01,-4.592068634391245907e-01,-4.529517646597297498e-01,-1.099257143105161370e-03,-6.421030086185848919e-04,-5.757253923126813859e-04,1.836123615503311157e-01
-2.977645227700170816e-01,-4.389709786142240167e-01,-4.016257601326305715e-01,3.902322083599646385e-02,-6.260981779688611082e-02,-4.750895401952003744e-02,1.978894770145416260e-01
-2.801549983855752823e-01,-4.048885859470126025e-01,-3.880874987013384625e-01,1.539457101826815187e-02,-1.445242622310549500e-02,-2.383553834714522215e-02,1.295649558305740356e-01
-2.783977234703134962e-01,-4.358961232294945587e-01,-3.866149373509808473e-01,2.026591652191914519e-02,-2.922731674287668349e-02,-2.450619075326661636e-02,1.583324521780014038e-01
-3.106122318071911637e-01,-4.171243894927604279e-01,-3.889416381431317071e-01,1.063445308425383859e-02,-7.662967959695403571e-03,-2.553187205018293132e-02,1.077421382069587708e-01
-2.845187605981090995e-01,-4.348147148879377699e-01,-3.674054015421802100e-01,1.077079265617382833e-02,-1.660956736476606674e-02,-2.553505549659794774e-02,1.418919414281845093e-01
-3.068746263964340915e-01,-4.347214588788708145e-01,-3.683336254636173646e-01,1.026835942989633155e-02,-2.165710901204346769e-02,-2.931799565354840931e-02,1.287117898464202881e-01
-2.920710101735914943e-01,-4.863052351973007337e-01,-5.107637136130690481e-01,3.470837284695375835e-03,1.267468929976641075e-02,-1.131204245086104947e-02,2.097088396549224854e-01
-2.915249531651463721e-01,-4.727587009314105915e-01,-4.681423381223051017e-01,-5.758245108680222317e-03,8.150292702795347913e-03,3.703608430197393819e-04,1.798040717840194702e-01
-2.965908317615299494e-01,-4.797618984017502086e-01,-4.867435365172273487e-01,-2.616033376266932789e-03,4.852843059113955831e-03,-1.076593052795301914e-04,1.870038360357284546e-01
-2.882543295190850285e-01,-5.029110236457901006e-01,-4.930997520547074076e-01,9.981889866166880274e-03,2.042894925329281214e-02,-5.947727266764082921e-03,2.138335108757019043e-01
-1.611319369839369353e-01,-4.122016556775723317e-01,-3.568813195960610085e-01,2.434541226719113063e-02,7.146359936400328849e-02,2.582579356323546488e-02,2.670341432094573975e-01
-3.000589182112911590e-01,-4.855577431711818326e-01,-4.910344027379812681e-01,-4.568809505817996927e-04,4.660701310137903806e-03,7.045533606268530695e-03,1.888661831617355347e-01
-2.692206246833287464e-01,-4.331789176924243923e-01,-4.393146232040583410e-01,1.024124700128445017e-02,-1.108335930343861721e-02,-4.889692354532356768e-03,1.693542599678039551e-01
-3.039318161716428879e-01,-4.918931372203749208e-01,-4.930200760500829671e-01,2.685629925534668491e-02,-2.265729467088216376e-02,-1.022111218825635243e-02,1.988964676856994629e-01
-2.824405580142616001e-01,-4.681745733875839477e-01,-4.653631297869978423e-01,2.052526956337030750e-02,-2.091905235236305588e-02,-5.640703204842992778e-03,1.914549022912979126e-01
-3.466746917394312733e-01,-4.507158584703275239e-01,-4.058803305725077193e-01,-3.179599138447896517e-02,-4.262252284010566855e-02,8.188509447517042239e-02,1.917512714862823486e-01
-3.471105082320039004e-01,-4.800448441050518267e-01,-4.391438047046395399e-01,-4.212326653482517669e-02,-3.093666974382792284e-02,6.994326453147341194e-02,1.917753964662551880e-01
-3.404918651767572246e-01,-4.947582920147028940e-01,-3.927151422189245622e-01,-6.646612280465675517e-03,-3.333050394828025037e-02,4.407063690163015579e-02,1.666165292263031006e-01
-2.728519023993813408e-01,-4.592915537938285220e-01,-4.535993365952382117e-01,1.196244304519043181e-03,-3.300304731402928780e-04,2.545051647862115081e-04,1.836728155612945557e-01
-2.734642407596720171e-01,-3.646253665905457853e-01,-1.934702297029936013e-01,-3.387168375340646187e-02,-5.720320370403051552e-02,1.341349785450874632e-01,2.987253069877624512e-01
-3.161412312313214290e-01,-3.412526807321121236e-01,-4.769612386020792294e-01,1.651448342513393147e-02,5.199757112350555238e-03,1.174097815654910268e-02,1.541690081357955933e-01
-2.646731671838618571e-01,-4.574970884671417659e-01,-4.367426574743592527e-01,-1.373411090683868303e-02,-2.748550740287152017e-02,5.717889304100867189e-03,1.911548525094985962e-01
-2.691706557675270783e-01,-4.534186318677954075e-01,-4.411366250724078064e-01,-5.020590811250266738e-03,-6.728182194093408099e-03,1.479671474485256535e-03,1.790341436862945557e-01
-2.660402823281451390e-01,-4.635068306509854130e-01,-4.485090572960012123e-01,-8.469756971229652417e-03,-1.337090878951580943e-02,5.800250339438855346e-03,1.926366984844207764e-01
-2.697395835774831774e-01,-4.666385472835251069e-01,-4.581016357857197741e-01,-8.554381169375775348e-03,-1.210662956642720098e-02,1.226271787127330244e-03,1.944863200187683105e-01
-2.786283855127319464e-01,-4.575121690572925282e-01,-4.354227220455147984e-01,-1.325710975263584557e-02,-2.491195904661146557e-02,1.299363918099056582e-02,1.772892624139785767e-01
-2.842939111547667652e-01,-4.474271910111127237e-01,-4.493827091871140933e-01,4.130210240301429407e-03,5.475146125223008357e-03,3.709179959873492704e-03,1.646744757890701294e-01
-2.704018836561112860e-01,-4.606982949826524676e-01,-4.507986063050894998e-01,-9.870076130821367824e-03,-1.049478307102015041e-02,5.148871672583514233e-03,1.874274909496307373e-01
-2.827272267257073812e-01,-4.616138862993634517e-01,-4.482664566732667000e-01,-1.424342661328799851e-02,-1.540507303714719334e-02,1.747462656229993062e-03,1.764104515314102173e-01
-2.806118104954581360e-01,-4.465978381150191301e-01,-4.572714030669869922e-01,9.316182730562868122e-03,-8.474801449776313972e-03,-1.721511417998677559e-03,1.729788482189178467e-01
-2.707766317220811625e-01,-4.535465924608073629e-01,-4.593011479938444719e-01,-6.565074449408143031e-04,-2.502148507925708483e-04,-2.548369952945289405e-05,1.857181042432785034e-01
-2.731065640187898547e-01,-4.339625423599685616e-01,-4.184546084381637332e-01,1.019682320999025157e-02,-1.041429903048428536e-02,-1.037538602894504808e-02,1.567827910184860229e-01
-2.876040371353784653e-01,-4.492492302129830750e-01,-4.447545152082674202e-01,1.001714740473737437e-02,-1.502887190316916192e-02,-1.125154795771186010e-02,1.636497676372528076e-01
-2.661100829082629349e-01,-4.295692957554109181e-01,-4.379045159500998263e-01,1.829492649222308129e-02,-1.273334620779498737e-02,-1.253475029177134221e-02,1.735302507877349854e-01
-2.686046905756359626e-01,-4.449917139335982652e-01,-4.584170303417209880e-01,-5.106537776478897207e-03,-1.771007130280821294e-03,2.021487465014619130e-04,1.837074756622314453e-01
-2.826794419943916004e-01,-4.542451245811542360e-01,-4.686157206555208177e-01,-1.079904224092334206e-02,-2.255952869724401743e-03,2.133195789443513221e-03,1.802375614643096924e-01
-2.641794264496719613e-01,-4.156404996185075751e-01,-4.461460168294489881e-01,-8.083791759380849762e-03,-1.868207775050601590e-03,1.450942126507312425e-03,1.694233417510986328e-01
-2.660507057782433571e-01,-4.167985054722333493e-01,-4.464765076939759547e-01,-9.704317601157969389e-03,-3.821537869473203789e-03,1.023788434626648558e-03,1.685498654842376709e-01
-2.878792493004959097e-01,-4.551264994228789162e-01,-4.570462238893094886e-01,-2.625207398460871477e-02,1.792139922635462013e-02,-1.066838702665029795e-02,1.779575347900390625e-01
-2.753445324115375570e-01,-4.657050430847164968e-01,-4.703571754668310900e-01,-5.448139913729248274e-02,2.554157252969654207e-02,-3.275287379585471031e-02,2.263280451297760010e-01
-2.648357616956209526e-01,-4.191036645329241361e-01,-4.477146814374098338e-01,-2.025876957162193320e-02,1.334040173518807361e-02,-8.582076563048282591e-03,1.761165708303451538e-01
-2.840248318440610209e-01,-4.454962540229152612e-01,-4.422000851350297301e-01,-1.240550885980118423e-02,2.067017079121606302e-02,-1.362134677825053812e-02,1.668883711099624634e-01
-2.657596242928129127e-01,-4.138511723308865298e-01,-4.002370524621897685e-01,-2.202084388589495983e-02,2.329181481146271049e-02,-3.268242243382923906e-02,1.624408066272735596e-01
-2.761069295839842508e-01,-4.360475599456635210e-01,-4.375672197915382311e-01,-9.617474861119756219e-03,1.091804151630251796e-02,-7.757272958560355175e-03,1.632237583398818970e-01
-2.792903078725721966e-01,-4.286801535607295266e-01,-4.315158399310243253e-01,-2.439439188228453848e-02,1.777221137056079689e-02,-1.213409517126245139e-02,1.610078066587448120e-01
-2.782018417205496252e-01,-4.336450859292656501e-01,-4.421698929916595411e-01,7.518718557199067024e-03,6.947810344536018215e-03,4.885423369763945874e-03,1.610789000988006592e-01
-2.768488202724253555e-01,-4.570171622171577130e-01,-4.545061578653077361e-01,5.716585486410228657e-03,5.159188334120451240e-03,5.981459883929074635e-04,1.794254630804061890e-01
-2.827393127817099394e-01,-4.491586946853324269e-01,-4.368459430484709638e-01,1.113450433177995587e-02,8.199388899132827382e-03,5.043108729682640838e-03,1.626279652118682861e-01
-2.651459214876420445e-01,-4.389982371227901803e-01,-4.526156706684013598e-01,8.873723786508179792e-03,2.047077251354913457e-03,3.687775970753626046e-04,1.817324757575988770e-01
-2.705271715941333643e-01,-4.436824356001919378e-01,-4.477888922242682090e-01,4.886234667443130862e-03,5.630268199359637210e-03,2.968470538131767408e-03,1.757948398590087891e-01
-2.814068000731437813e-01,-4.470088663610501389e-01,-4.544466901808122961e-01,6.866755120107026315e-03,6.662836684545222696e-03,1.998126158983884026e-03,1.702871024608612061e-01
-2.756895296581166610e-01,-4.556015715110549591e-01,-4.513894662742837793e-01,5.540606617927382876e-03,4.956740376933214086e-03,9.246477917853511636e-05,1.783090084791183472e-01
-3.222124804473802118e-01,-4.029886659417025729e-01,-4.982106880895073586e-01,4.377764032203024930e-02,-9.495721326016798997e-03,-8.804265397123407430e-03,1.718609780073165894e-01
-3.256572000195671057e-01,-3.961347734408000032e-01,-5.164536338304706042e-01,4.709072775829852009e-02,-7.634225642320180243e-03,-4.565823378125269047e-03,1.865837424993515015e-01
-3.096115092479566622e-01,-3.065269422937055843e-01,-4.685146546412289892e-01,4.498825505029072774e-02,-5.735242255823272059e-03,-1.844573271566321213e-02,1.814968734979629517e-01
-3.143694619841086446e-01,-3.666740907774053149e-01,-4.891515710118874427e-01,3.269404390233787011e-02,-1.424018156550385314e-02,-2.160996543642285106e-02,1.713437139987945557e-01
-3.048939280336342428e-01,-4.728022088663147438e-01,-3.352858704196678419e-01,1.096428611704405691e-02,-5.138700558850773509e-02,-2.006630922578215778e-02,1.830417811870574951e-01
-2.877791184789568746e-01,-4.699003780263623087e-01,-4.034608110148420468e-01,1.302229914739075171e-02,-4.417800758407269129e-02,-1.142630590018886040e-02,1.795489490032196045e-01
-3.069064439630714292e-01,-5.302729065897072713e-01,-3.951982586820579346e-01,2.108150224804455214e-02,-5.689120042040726744e-02,1.348347715191983327e-02,2.226097881793975830e-01
-3.176299223032942320e-01,-5.040709113049695045e-01,-4.038364665338185500e-01,-5.243491650663751474e-03,-2.996314639942901717e-02,-5.791303676166242821e-04,1.699889302253723145e-01
-2.915158929736662574e-01,-4.810896957752419101e-01,-4.020107136202199505e-01,1.269136001190822663e-02,-4.604201029829605579e-02,2.710635867524927196e-03,1.845677793025970459e-01
-2.338991681599333627e-01,-4.080515967671948796e-01,-2.751646832787246755e-01,1.854942789343406659e-02,-4.653471693898904998e-02,-3.477803877624972839e-02,1.897436231374740601e-01
-2.913793050655230088e-01,-4.671418948428560092e-01,-4.543604083894459689e-01,-2.170409340002444135e-02,5.905019687391121347e-02,-4.427204304437080962e-02,2.157854735851287842e-01
-2.736624239290043059e-01,-4.597244545426728557e-01,-4.330989182452144592e-01,-7.965604310697628476e-03,1.653001141980449049e-02,-3.788711714835008189e-03,1.772769987583160400e-01
-2.654481791359949994e-01,-4.494578953173836711e-01,-4.127021103565011728e-01,-1.306300672840298403e-02,1.919289617010727991e-02,-1.175001755679007560e-02,1.745805293321609497e-01
-2.630183836559699673e-01,-4.394951206950190037e-01,-4.069623027735934095e-01,-1.064421729842954072e-02,1.884973437298376187e-02,-9.123830845291480349e-03,1.676803678274154663e-01
-2.536068750157360885e-01,-4.096225648097848171e-01,-3.550386108848267441e-01,-2.423968984839169546e-02,4.358117567923858182e-02,-3.115350622487044960e-02,1.708116382360458374e-01
-2.738722795174645674e-01,-4.599460409398681282e-01,-4.526351946745801880e-01,-1.970245362830414394e-03,-5.403613479674407218e-04,-2.331047653100158093e-04,1.825629174709320068e-01
-2.724370619551316763e-01,-4.461880415984585957e-01,-3.575976680707074196e-01,-1.938038510869639908e-02,4.259216061733173131e-02,-2.267493566858373374e-02,1.753753870725631714e-01
-2.709075201860052240e-01,-4.630292618748774736e-01,-4.436718305589921196e-01,4.076230686727208541e-04,7.920120518661631984e-03,-5.531932992505191136e-04,1.837283074855804443e-01
-2.814064315539064332e-01,-4.765122650173348462e-01,-4.671243480970055928e-01,4.116999566270129018e-06,9.265881050763837695e-03,1.530433454685655326e-03,1.912782788276672363e-01
-2.750890429233829315e-01,-4.595095556867954678e-01,-4.181203884311159302e-01,4.747323688029611924e-03,1.849917828570172770e-02,8.264020793246445703e-04,1.708429008722305298e-01
-4.339413680253165206e-01,-3.696734546946528477e-01,-5.643621664050788578e-01,3.817810640053682925e-02,-1.462885706736935347e-02,-1.737190102264431213e-01,3.536543846130371094e-01
-2.568946181731081024e-01,-4.357411909544934847e-01,-3.870913950816496363e-01,1.041243070466871951e-02,2.433061345609817058e-02,6.900185205946356842e-03,1.670212000608444214e-01
-2.733632486500016667e-01,-4.631119213305379123e-01,-4.470829450806784178e-01,6.575128776374810323e-03,9.292685357065899598e-03,3.084448044449952884e-03,1.834047734737396240e-01
-2.717552968315513073e-01,-4.582242724150326074e-01,-4.538686219765797336e-01,2.911425344639975016e-03,8.139167726281997320e-03,-4.559436416600820509e-04,1.849384903907775879e-01
-3.005138009397645416e-01,-4.419348818374362886e-01,-3.757874730797311491e-01,-1.878531398145577569e-02,-1.794499125623542912e-02,2.245825696331987462e-02,1.362300068140029907e-01
-3.041096927368890923e-01,-4.476056450667772468e-01,-3.616177302459721021e-01,-1.267772579203531660e-02,-1.962838690110068132e-02,2.108676358912340773e-02,1.364479511976242065e-01
-3.109460570625816045e-01,-4.595295645458329359e-01,-4.670368179425985478e-01,-2.425853885527632509e-02,-2.200872775690225491e-02,2.247668659808952155e-02,1.672813743352890015e-01
-2.996348827011726113e-01,-4.639604630016891940e-01,-4.389148743687265597e-01,-1.029224073405573918e-02,-1.352012109902450514e-02,8.200322207934544055e-03,1.567879319190979004e-01
-3.011400042526281018e-01,-4.605275550864917911e-01,-4.380262306889472490e-01,-1.139938011156629676e-02,-1.321062012165981348e-02,8.654423420682467658e-03,1.531742960214614868e-01
-2.852498025910501500e-01,-3.968582263585753722e-01,-4.594053493329651183e-01,1.681627288188989114e-02,-6.689628558802468254e-03,-1.592151120134535289e-02,1.584060192108154297e-01
-3.080379951979649311e-01,-4.824199842313685593e-01,-4.420653723663218737e-01,-2.062142616253847052e-02,-2.788357183621592225e-02,2.643862032588094671e-02,1.752303242683410645e-01
-2.938579670286582957e-01,-3.696733522080114520e-01,-4.550601964083256235e-01,-3.648336346304765360e-02,1.012390146359491705e-02,-2.391225345047937392e-02,1.597764045000076294e-01
-2.757185235303999948e-01,-3.797102716169314940e-01,-4.683815501422223804e-01,-4.497883109559455694e-02,-4.583836267296882531e-03,9.756255195133319144e-04,1.844807267189025879e-01
-2.754028676512454976e-01,-4.289260470773076928e-01,-4.645869209162013513e-01,-1.733482772085290918e-02,1.172781362740285549e-02,-1.359537768552464276e-02,1.794002503156661987e-01
-2.861879871309654932e-01,-4.222256379653875347e-01,-4.860849886726453795e-01,-7.544776154434966464e-02,5.620755238808010541e-03,-9.812720975180494118e-03,2.207538783550262451e-01
-2.922629254294101808e-01,-4.337276360044818313e-01,-4.899661701592515906e-01,-2.221606592347471001e-02,6.237058529922847108e-03,-1.387167336933827107e-03,1.809252351522445679e-01
-2.948602973748103429e-01,-4.742628906636226493e-01,-5.074945215593728021e-01,-2.561975621600074901e-02,5.178523714678940140e-03,3.755989058012782020e-03,2.033306658267974854e-01
-2.765461392321988954e-01,-4.302867439099070102e-01,-4.860209208642052858e-01,-2.486397446994837238e-02,3.983915687687013436e-03,-3.215862338395632149e-03,1.929880082607269287e-01
-3.106129663477031344e-01,-4.433875993052078246e-01,-4.482317720280437068e-01,-9.223922331686952927e-03,1.676201101504786600e-02,-2.583480819876721873e-02,1.462744027376174927e-01
-3.002981688794185144e-01,-4.126673267143243784e-01,-3.946957637588693335e-01,-3.017574987404249634e-02,3.075620875742951163e-02,-5.678728132878848450e-02,1.617847383022308350e-01
-2.920120501260419221e-01,-3.988711060400230712e-01,-4.409631015017984601e-01,-6.687995367618848608e-02,5.154328377614263851e-02,-4.191157717532644628e-02,2.105876505374908447e-01
-3.115595744073852424e-01,-4.237063510879909289e-01,-4.267016386513001747e-01,-3.207077447190200686e-02,2.337111913253780981e-02,-4.119779487853079264e-02,1.507905423641204834e-01
-2.974786581310226996e-01,-4.311137700323336430e-01,-4.529969811905811827e-01,-1.026845216799228411e-02,1.273004538223244421e-02,-9.086973643697498007e-03,1.493713110685348511e-01
-2.959040139183873319e-01,-4.230155000444789648e-01,-4.574914802409321690e-01,-1.250003802662144614e-02,1.102639472273124650e-02,-7.755433022411307997e-03,1.508050113916397095e-01
-3.056720894670944544e-01,-3.902610915676305581e-01,-4.430816875705459457e-01,-2.237623181673128667e-02,1.874326694380521602e-02,-4.257655777836797523e-02,1.496918946504592896e-01
-3.099179353865040842e-01,-4.199811796847640055e-01,-4.396935793619457522e-01,-2.259923946714379253e-02,1.245237134471066653e-02,-2.336835142216891342e-02,1.353059858083724976e-01
-3.250540528649339400e-01,-4.344736359614817522e-01,-4.658485722792928274e-01,-2.249148992408993297e-02,1.737926905356238991e-02,-2.494738700422637068e-02,1.438085436820983887e-01
-2.812791492272058158e-01,-4.513914539737460263e-01,-4.693123283785779476e-01,-1.229067890871472259e-02,-1.441397601254815978e-03,4.374998125309586877e-04,1.810190677642822266e-01
-2.845138762558716561e-01,-4.044603375739587725e-01,-4.726617209007326625e-01,-3.962008882200541288e-02,-4.675391209526913276e-03,-1.496392267248436783e-02,1.807365119457244873e-01
-2.791971973400847462e-01,-4.642820833638809930e-01,-4.734113476353066230e-01,-8.351469859145145905e-03,-3.111581627720236883e-03,5.574072872525935357e-05,1.904409229755401611e-01
-2.882781591623550521e-01,-4.625048457425463555e-01,-4.953966961074588449e-01,-2.611813745630692588e-02,-7.659615644772449668e-03,-6.318888595248697002e-05,1.984689980745315552e-01
-2.814190946949310934e-01,-4.892531268810532130e-01,-5.177323781040753525e-01,-4.541737588679426590e-02,-2.982738083666245169e-02,1.033532466903450478e-02,2.431104630231857300e-01
-2.828308125447954180e-01,-4.887420881195684297e-01,-4.934964701369171092e-01,-9.882803994711350515e-03,-8.223693227725936000e-03,1.977551353813119996e-03,2.095439583063125610e-01
-2.887901219846722434e-01,-4.757061121597282449e-01,-4.924734064786505661e-01,-3.782558026985712724e-02,-9.555670697791843887e-03,-6.042816046420190941e-04,2.071717977523803711e-01
-2.802015834066670097e-01,-4.685359300011637806e-01,-4.375953902260384942e-01,2.003782962678390088e-03,-9.577608982836181839e-03,-2.686677241494546745e-03,1.758091896772384644e-01
-2.851059125618410350e-01,-4.808650932062847327e-01,-5.310328121501850518e-01,-5.128149982388068018e-02,-2.361246968944388791e-02,1.205053648218341010e-02,2.462862581014633179e-01
-2.750317060738262653e-01,-4.535262016255292572e-01,-4.787632376629694098e-01,-1.364605581540883489e-02,-3.481111507638909482e-03,-1.109844032692631772e-04,1.938991993665695190e-01
-3.110698110330888388e-01,-4.266553883912048151e-01,-4.184687671056284142e-01,-1.034755802340646749e-02,1.022969401636281313e-02,-3.708916758490880122e-02,1.313117146492004395e-01
-2.724861857374382690e-01,-3.733892810275744045e-01,-3.468544080629103465e-01,-2.029382512385152076e-02,1.787654601416742081e-02,-5.513594244210278522e-02,1.397219747304916382e-01
-3.319782186795260381e-01,-4.456271329745568055e-01,-3.515747635079301547e-01,-4.552902328115904403e-03,4.776108835257723839e-02,-7.787441058901808932e-02,1.901888400316238403e-01
-2.965577742217991863e-01,-5.405644533055889989e-01,-3.968154756280330431e-01,6.256857014953386836e-03,-4.411185975386183733e-02,-1.165377931004199508e-02,2.269135564565658569e-01
-3.364117237227346457e-01,-4.548175605511917130e-01,-3.987062299659797637e-01,-7.754047405976125136e-03,7.836337841884191344e-03,-9.427895241954756256e-02,1.937902867794036865e-01
-3.394937089524393548e-01,-4.391300821653348341e-01,-4.280401042615713525e-01,-9.380192658574424899e-03,1.413476625177898481e-02,-3.916272752672456114e-02,1.200413480401039124e-01
-2.790756025732741841e-01,-4.666368698302302276e-01,-4.768830872232482920e-01,-9.866671046135366829e-03,-5.412892739286946425e-04,1.031676139795456278e-03,1.936546713113784790e-01
-2.681470195493304565e-01,-4.457153564315311511e-01,-4.559162677928371710e-01,4.500373175348611719e-03,-2.314696357592133623e-03,1.929560275722644455e-04,1.830925345420837402e-01
-2.560001290660505191e-01,-3.961679897642130244e-01,-4.428723139441725354e-01,-2.593204798435221059e-02,-6.564669927539581139e-03,4.007199233622417769e-03,1.748417615890502930e-01
-2.825782774443997281e-01,-4.509093999277784537e-01,-4.729628012160455586e-01,-1.153560555691662132e-02,4.206052897562510481e-03,-2.752939147757199091e-03,1.816838234663009644e-01
-2.813669555061215632e-01,-4.723205064061151148e-01,-4.530220463878074644e-01,-3.841155200007265267e-03,-1.927692836769240650e-03,2.049593977687152752e-03,1.822596937417984009e-01
-2.541821499093091519e-01,-3.971392936052670630e-01,-4.419885920907835608e-01,-2.652303093923510241e-02,6.167067260924703753e-03,-4.548954044885214487e-03,1.764832139015197754e-01
-2.674288250226528607e-01,-4.382531341420483617e-01,-4.759206544700739783e-01,-2.407215110784868134e-02,-1.790912143828990357e-03,-5.353939442372378579e-03,1.971505433320999146e-01
-2.929378581550953209e-01,-4.373834314779826427e-01,-3.995573809412786837e-01,1.916130317463798569e-02,2.994735632735080061e-02,2.150435382120198871e-02,1.483605057001113892e-01
-2.745358385922643807e-01,-4.612998661857378169e-01,-4.247195157610836325e-01,1.606355831322966695e-03,-9.638574376607931052e-03,-5.508833533343364570e-04,1.722625494003295898e-01
-2.767563249656253554e-01,-4.399001519016572659e-01,-3.773380325910359878e-01,2.093177825893764721e-02,4.419874139333476032e-02,2.282301802675777008e-02,1.704728007316589355e-01
-3.111336255803681672e-01,-4.468333367587580818e-01,-3.926051542512911108e-01,1.328698191552494905e-02,7.849003401715664435e-03,3.098121270592373369e-02,1.326285004615783691e-01
-2.988619893148147799e-01,-4.539595730428947484e-01,-3.511628214520033375e-01,6.236934714791642943e-03,2.318749975910558772e-02,2.065105642885049428e-02,1.472683995962142944e-01
-2.750395460552150784e-01,-4.594323830126805785e-01,-4.276624476769466110e-01,2.567791232263656048e-03,-1.080090981527418587e-02,-3.699349761537821407e-04,1.718198657035827637e-01
-3.091738362681215602e-01,-3.951804546752536451e-01,-4.389859753062805292e-01,8.260083088082234961e-04,-3.575029690050491107e-03,-6.042291873968491309e-03,1.150371432304382324e-01
-3.138720906186787118e-01,-4.469706187953513266e-01,-3.293204024983996669e-01,1.178375520756923950e-02,3.502332010571673759e-02,3.691829478936291958e-02,1.551872193813323975e-01
-3.130806582278720662e-01,-4.492956439187293372e-01,-3.902970210056003197e-01,1.125539664920253979e-02,1.712649758782276276e-03,2.695877663570794489e-02,1.287169009447097778e-01
-2.801721117313068499e-01,-4.735742031946905128e-01,-4.523110403550024694e-01,2.200835833947642223e-03,2.759105156325418820e-02,2.443272864283166975e-03,1.898957341909408569e-01
-2.753691239188169604e-01,-4.507396368605506298e-01,-4.501071852529601180e-01,-2.547153079424852463e-03,-2.464951443534248773e-03,-4.334354583660361259e-04,1.751643717288970947e-01
-2.765388485983357181e-01,-4.644491137102650935e-01,-4.646014365613383990e-01,-1.565767911994375770e-04,3.475663564023286772e-03,-3.291871421573059372e-04,1.880839020013809204e-01
-2.796729844935562648e-01,-4.865883350548705355e-01,-4.575574788914578694e-01,1.796973315685730698e-03,2.941917408844847009e-02,4.368241588550672745e-03,2.007815241813659668e-01
-2.390713369103986130e-01,-4.485276731042370235e-01,-3.882693012989342773e-01,6.361237209673529028e-03,5.139927761289408981e-02,4.790361256749894707e-03,2.073582112789154053e-01
-2.914105260873728342e-01,-4.906031456082254882e-01,-5.002065070781098743e-01,1.239370083901355363e-02,8.866621026129291316e-03,4.963635131515336044e-03,2.060422748327255249e-01
-2.734252765049759448e-01,-4.601410350198077426e-01,-4.585654253474473752e-01,9.270057203599704754e-03,1.072876460621156533e-02,8.096525889545021226e-03,1.880713850259780884e-01
-3.957942751827354666e-01,-5.879092872465921937e-01,-3.383917931877845064e-01,1.596176816490876491e-02,-2.496199970139266477e-02,-1.432128310370277824e-01,3.396976292133331299e-01
-2.928706332366218246e-01,-4.825676694388765231e-01,-4.711712200345305468e-01,1.520592847024050155e-02,1.962624765053750178e-02,1.034064806261824135e-02,1.900604814291000366e-01
-2.727779534484928714e-01,-4.712162675500937703e-01,-4.586014304291589627e-01,1.549111953670755278e-02,1.464771379558612099e-02,1.035627537516920979e-02,1.967713832855224609e-01
-2.901152900138805335e-01,-5.175454437151882914e-01,-5.042086287834490754e-01,6.475681051770626473e-03,5.775222290496627442e-02,1.674140806635635026e-02,2.446257025003433228e-01
-2.467620351834640957e-01,-4.314417184328928623e-01,-3.837937786726373646e-01,2.056015203964014007e-02,4.107825164383498845e-02,2.262410586158172116e-02,1.882638633251190186e-01
-2.832287969014225526e-01,-4.745217693492164712e-01,-4.831875944182624227e-01,1.115362539698934799e-02,-1.410972793701621058e-03,-1.295842284158432852e-03,1.967486441135406494e-01
-2.728982757527025349e-01,-4.479837051473298248e-01,-4.691327610542360138e-01,1.001200521058347344e-02,-2.395829300966565833e-03,9.965548867559969465e-04,1.874193251132965088e-01
-2.797491931703754431e-01,-4.538358087168630206e-01,-4.660630239628795746e-01,2.252950123486081521e-02,7.661147858875136905e-03,4.710497082914343048e-03,1.853365302085876465e-01
-2.615847526758142694e-01,-4.640579973860896601e-01,-4.263101551310716220e-01,-9.229793113152563733e-03,3.450919170623349685e-02,-5.729787074719607312e-03,1.967335641384124756e-01
-2.960064137283809904e-01,-4.566302321709911349e-01,-4.234293411979933031e-01,-1.913290455107290178e-02,3.048679615460420447e-02,-1.843522583803124462e-02,1.627131402492523193e-01
-2.785764892937266923e-01,-4.557815757064734852e-01,-4.202036655218476802e-01,-1.556402792985958281e-02,1.596707545080681967e-02,-1.210252135041426855e-02,1.682076603174209595e-01
-2.879378391574807794e-01,-4.657257158115293283e-01,-4.243253923141920847e-01,-7.291607583990917553e-03,2.815350826445365065e-02,-1.493632708670305023e-02,1.707884222269058228e-01
-2.710830354132305331e-01,-4.638554854990867282e-01,-4.489713353180658229e-01,-3.542911829921049569e-03,1.258369454574041237e-02,-1.755656769396414605e-03,1.871775984764099121e-01
-2.780295839152696069e-01,-4.651130884522272080e-01,-4.487737482088787755e-01,-1.874479975425611452e-03,1.109113503712408529e-02,-2.003761683445992408e-04,1.805272549390792847e-01
-2.703910309903922449e-01,-4.598369597468711101e-01,-4.421463997543177982e-01,-1.219550743279695405e-03,8.106842895505167804e-03,-5.397250550549391370e-04,1.818070709705352783e-01
-2.790875906148932994e-01,-4.711960455150173699e-01,-4.632086869523857620e-01,-1.636522739387809289e-03,9.191656072299674365e-03,3.403856410665663827e-04,1.889361292123794556e-01
-3.382512571929165990e-01,-4.565572624988818440e-01,-4.193400584105578255e-01,-9.003747568693893505e-03,1.138735998177598657e-02,-3.479766684984608033e-02,1.234636157751083374e-01
-3.085305857157216725e-01,-4.260086765234291084e-01,-3.982265196048042633e-01,-1.371917767324068275e-03,3.126897679905897651e-03,-1.112236653996309492e-02,1.082370355725288391e-01
-2.976844233757824920e-01,-4.272033657707596799e-01,-3.630978698391618131e-01,-6.492484138386830396e-03,9.636039330255939672e-03,-2.560027957622317690e-02,1.222821921110153198e-01
-2.736183882306079118e-01,-4.635608597754640736e-01,-4.578443334251686703e-01,1.459568738984284202e-03,-9.911747901681314948e-04,6.052121891178308165e-04,1.871775835752487183e-01
-3.016234556218861385e-01,-4.279735983068059246e-01,-4.323584996317421658e-01,-5.373783680476458850e-04,-5.675745247112467260e-04,2.524460570093849370e-03,1.286801099777221680e-01
-3.098583754321380113e-01,-4.417946922686880051e-01,-3.823992022576149785e-01,-2.123057674837469135e-03,6.267413973138504131e-03,-1.617428255196528761e-02,1.183840334415435791e-01
-2.918156838358095251e-01,-4.287764761179269080e-01,-3.720857131093919801e-01,-1.022430105287149178e-02,6.417681864312173648e-03,-1.635476008506768844e-02,1.242871358990669250e-01
-3.014337401446196552e-01,-4.367444042531745674e-01,-3.784386199896234149e-01,9.057790754325747290e-03,1.472488099653281729e-02,2.353888123162251045e-02,1.279764771461486816e-01
-3.088388033958924805e-01,-4.408942035633777179e-01,-3.819061337078877849e-01,3.883730835341627202e-03,6.254268642775093895e-03,1.605014616748402442e-02,1.185915172100067139e-01
-2.620119743816411995e-01,-2.550851271070404547e-01,-4.350622147971061060e-01,9.046720180067892303e-02,3.594306688743245659e-02,6.458707705554823930e-02,2.685818076133728027e-01
-3.167053222175008620e-01,-4.258459077342021115e-01,-4.042581330021114971e-01,3.987993152009794949e-03,1.866517368146730985e-02,3.272788644373285372e-02,1.196988672018051147e-01
-3.001173271057858138e-01,-4.187844692617100906e-01,-3.967766713474705220e-01,8.084615960204984825e-03,2.045892674176501193e-03,9.451408074850587218e-03,1.114955544471740723e-01
-3.141113098380750035e-01,-4.356850122213533627e-01,-4.157691811607666099e-01,3.562357613011241965e-03,6.037750133544385334e-03,2.151605483513885017e-02,1.195484027266502380e-01
-3.032002762526279094e-01,-4.297199511375490721e-01,-4.220345070183547653e-01,6.746568176094517102e-03,-2.188692049651557933e-03,-4.368734637063625796e-03,1.237017065286636353e-01
-3.112496693653875046e-01,-4.019462778100924560e-01,-4.246884742301398896e-01,-8.913219958395052558e-03,-1.539619129234902177e-02,4.089276840800288443e-02,1.295061558485031128e-01
-3.171325312718610845e-01,-4.318956526511387728e-01,-4.254438162898332987e-01,-6.287406443000168391e-03,-7.139434694133788700e-03,2.816367406865451575e-02,1.229750141501426697e-01
-2.954007671939414825e-01,-3.895634155281084698e-01,-3.990443743690172407e-01,-9.339447225819643220e-03,-2.858042362930936914e-03,1.544973003987814945e-02,1.041705757379531860e-01
-3.000520588398392086e-01,-4.337942607063911549e-01,-4.410129251796056638e-01,-9.938520709012533746e-03,-1.360024737442245071e-02,1.094140549993325752e-02,1.418269723653793335e-01
-2.982766404088811885e-01,-4.357044416466924752e-01,-4.234805133545996303e-01,-7.817643147688933120e-03,-9.902773904055051438e-03,1.049812748408260159e-02,1.347742229700088501e-01
-3.030970284947963611e-01,-4.520668155671315747e-01,-4.131299510600773273e-01,-9.030266179521758904e-03,-1.035268968268257886e-02,1.353020736670501600e-02,1.379240006208419800e-01
-2.829821588090501439e-01,-4.486470554094485474e-01,-4.696000350111693145e-01,1.910144022342735726e-02,-7.584237445657683249e-03,-1.650003035644564270e-03,1.806388199329376221e-01
-2.680253563435675002e-01,-4.600907011548807102e-01,-4.806037294139650085e-01,3.561332933784723542e-02,5.473894866538727907e-03,1.152697010874528761e-03,2.124818265438079834e-01
-2.915372751091554471e-01,-5.089043312439045508e-01,-5.606034711789908975e-01,4.858796211235297952e-02,4.870477435140672419e-03,-3.210020646237162802e-03,2.614256739616394043e-01
-2.698874243973616305e-01,-4.602466259823678185e-01,-4.521261992480440361e-01,9.947600313580146243e-04,-8.669476330566358319e-04,8.096731934812734406e-04,1.864509582519531250e-01
-2.617885813257865291e-01,-4.347034411508488017e-01,-4.503625663643735511e-01,1.817407282713586619e-02,-3.035465468504902620e-03,-3.438654340814519916e-04,1.840416789054870605e-01
-2.793337337446755164e-01,-4.722813650501992422e-01,-4.701112221612582243e-01,1.429129244305971796e-02,-3.786307687873790954e-03,1.146392062773607260e-03,1.935831755399703979e-01
-2.928263319723459768e-01,-4.982797264843747964e-01,-5.132152451974955065e-01,1.496738928976135141e-02,-8.220630893266970413e-03,-7.169058506927498096e-03,2.157121002674102783e-01
-3.005426384317131938e-01,-4.217019616440838004e-01,-4.380412945901717148e-01,1.225182493508958533e-02,8.377030294714522471e-03,1.187348593465106968e-02,1.342013478279113770e-01
-4.602631836441643531e-01,-4.914575726527248833e-01,-7.601175839822533753e-01,1.596099812560561604e-01,-5.426911078791452764e-02,-1.178373784627062548e-01,4.565636515617370605e-01
-2.980529596792853009e-01,-4.205584680894136618e-01,-4.332020462441755204e-01,8.127461735284958674e-03,9.638495583577473200e-03,6.882144105379504363e-03,1.316636949777603149e-01
-3.044883824614128542e-01,-4.389407893092809321e-01,-4.663852872640851799e-01,2.470440266113612532e-02,1.723263485558964095e-02,4.346631576669846529e-03,1.590569764375686646e-01
-2.954656657883661386e-01,-4.358056234728083234e-01,-4.346150347577737438e-01,6.012285652593618059e-03,8.117916359067106971e-03,5.238306516658901291e-03,1.411314904689788818e-01
-2.724276990590091541e-01,-4.648577310727789458e-01,-4.601059776791226463e-01,-7.780173321998113756e-04,-1.770470563734934284e-03,-2.451242181825678173e-04,1.901286840438842773e-01
-2.916122859130793055e-01,-3.755568173304513757e-01,-3.974134069050068718e-01,8.128280194620970261e-03,1.271219611810429917e-02,3.152899324655387275e-02,1.141243800520896912e-01
-2.781630603715328220e-01,-3.819871736154633046e-01,-4.046389006989830062e-01,1.544929247707159566e-02,1.180739227476550017e-02,2.285801535560534614e-02,1.278518438339233398e-01
-2.872322188905942486e-01,-3.642816611621232936e-01,-4.215861577208167010e-01,3.336435822687258690e-02,-1.736419110998511928e-02,-4.365867621033255735e-02,1.536165028810501099e-01
-2.813262323579584501e-01,-4.405738221602704119e-01,-4.269861338032570064e-01,2.164006713370665233e-02,-1.890416064920552239e-02,-2.325711214780440406e-02,1.657717525959014893e-01
-2.921808150496119083e-01,-3.827943027742387039e-01,-4.066030225489131733e-01,1.730463395129659340e-02,-1.823453322338325008e-02,-2.951434470079577696e-02,1.242746412754058838e-01
-2.823328282840886772e-01,-3.931043833335551296e-01,-4.086116518806882647e-01,1.370092865132714090e-02,-1.414579491441579281e-02,-2.174595378148985042e-02,1.296560615301132202e-01
-2.760691635922021270e-01,-4.390011179128572305e-01,-4.579210667362298981e-01,-2.230621065073172451e-03,-4.159789164305250611e-04,-4.195820613724756732e-04,1.732149720191955566e-01
-3.414442013189719627e-01,-4.204885747710692678e-01,-4.477851364601064810e-01,3.062257572447846243e-02,-3.538289348761475273e-02,-7.624932270825003633e-02,1.821035593748092651e-01
-3.132960269592197089e-01,-3.801860238793801083e-01,-4.034639591119722479e-01,3.185846921757191225e-02,-3.594616651846054001e-02,-4.767585459925716834e-02,1.425251662731170654e-01
-2.850428812193866457e-01,-4.142614297835933712e-01,-4.247811459302860415e-01,3.530595908663851368e-02,-2.835121102494844725e-02,-4.461836777095892076e-02,1.740423589944839478e-01
-3.019172685471506190e-01,-4.544295921483725298e-01,-3.595777024175786929e-01,-1.640912688953961515e-02,-3.674556600831618836e-02,3.769359134504127185e-02,1.640479117631912231e-01
-3.092553880768575958e-01,-4.639424683047831954e-01,-3.361497354186538944e-01,-3.538222067309961666e-02,-4.269130532278678225e-02,5.625262661841089196e-02,1.980091184377670288e-01
-2.804026429775690610e-01,-4.592167979240404097e-01,-3.403292592163467689e-01,-2.052676121954567778e-03,-4.000812987660259251e-02,1.472219757842996302e-02,1.741114407777786255e-01
-2.881920821828716228e-01,-4.664948099522577274e-01,-4.445400792697185577e-01,9.110108381318430398e-03,-1.030631702726030573e-02,-3.561272759172588384e-03,1.701909899711608887e-01
-2.712149760850158242e-01,-4.424263327272228152e-01,-3.663939946579206630e-01,-1.155353249296449045e-02,-1.647045023005666228e-02,9.035613573496614412e-03,1.534139811992645264e-01
-2.596175810427494013e-01,-4.359375838518331769e-01,-3.347079467885705761e-01,-1.206680961497523172e-02,-4.310603523247127228e-02,1.480443081976478940e-02,1.736551225185394287e-01
-2.767659881946146205e-01,-4.373736043685947927e-01,-3.906064016887591528e-01,-1.144618113052028527e-02,-1.749364520998629435e-02,2.088869784636456645e-02,1.519570648670196533e-01
-3.133829056295697191e-01,-4.939856154122101994e-01,-3.952424190014912075e-01,-4.579465228185275807e-03,-2.745964781575899877e-02,1.340256691820678088e-02,1.655239164829254150e-01
-3.078939052041430591e-01,-4.672460548860431495e-01,-3.586726679166853393e-01,-1.168296399381260273e-02,-2.574408047332174890e-02,2.916260533311251790e-02,1.575722247362136841e-01
-2.885101215486394199e-01,-4.366806288153629589e-01,-3.878351792139463350e-01,-9.920651144533850982e-03,-1.628242818536006914e-02,1.702128665518004916e-02,1.380677521228790283e-01
-2.878822073763775968e-01,-4.623053773462883487e-01,-4.144727166955725073e-01,-2.363967317677898375e-02,5.637384365213025245e-02,-3.075917228487528784e-02,1.960030496120452881e-01
-3.004270083087535737e-01,-3.945782152315201463e-01,-4.546801366288107382e-01,3.273818438528532018e-03,-8.126119985579721358e-03,-2.421999785898265069e-03,1.355847120285034180e-01
-3.039503484338905159e-01,-3.945363102027674707e-01,-4.543813181031849946e-01,-3.733374494558425270e-03,5.607695786773296900e-03,-4.515158194070814993e-03,1.319305598735809326e-01
-2.850737488954432908e-01,-4.702303471990701977e-01,-4.357189587680928566e-01,-2.314537772696019860e-02,2.171754476260165378e-02,-1.986716226385450840e-02,1.824559718370437622e-01
-2.807034239652633767e-01,-4.812357665858723044e-01,-4.697825573623522488e-01,-2.155545681054473264e-02,2.471905965741296243e-02,-1.735004355533060344e-02,2.053721994161605835e-01
-2.964832501509253593e-01,-4.380329904812392816e-01,-4.203391317952326345e-01,-4.403939113110317410e-02,6.481179616097071383e-02,-5.167067849325130552e-02,2.104151397943496704e-01
-2.940980024413810678e-01,-4.566696836390124470e-01,-4.635376602314755790e-01,-1.204550953783045143e-02,1.043942165568854073e-02,-7.516279432182206531e-03,1.688933670520782471e-01
-2.644480533217448137e-01,-4.212624141168501701e-01,-4.126209339307336799e-01,-2.156431039473818631e-02,2.236241401569086934e-02,-1.850804173611509881e-02,1.650249809026718140e-01
-3.248120885948953540e-01,-4.368383330638508921e-01,-4.570029153079648299e-01,-4.003243625358453295e-02,4.118604882863464295e-02,-9.387568000923968148e-02,2.270463407039642334e-01
-3.052961672374725488e-01,-4.626214705255242698e-01,-4.533707112692900720e-01,-6.048340258849565360e-02,3.699139246387927321e-02,-6.287146220685672915e-02,2.243205904960632324e-01
-2.680997199290454658e-01,-4.421221007853478047e-01,-4.595946552764763604e-01,9.542726198781915914e-03,-1.416495511651528908e-03,-7.480498383521895153e-04,1.841482669115066528e-01
-2.601545157645794859e-01,-4.031453432166142159e-01,-4.467652683611517683e-01,2.551001001091830409e-02,-1.229081037884773367e-03,-2.083016592617784307e-03,1.748031824827194214e-01
-2.939444251154335608e-01,-4.578992754171671842e-01,-5.046428249507495245e-01,2.520891235380526632e-02,3.727249830373374848e-03,8.976369090195205139e-03,1.972811520099639893e-01
-2.778010111618663958e-01,-4.646702700742084691e-01,-4.736040173849237478e-01,1.062940366786972041e-02,-1.500089688888256358e-03,-7.104903932295324957e-05,1.923930644989013672e-01
-3.087337891831689607e-01,-4.244524401889791521e-01,-4.305700147860380689e-01,7.399007996346946767e-03,1.904646853177331808e-03,1.088108858390404721e-02,1.211051642894744873e-01
-2.906754755703864213e-01,-4.359435371340706911e-01,-4.207231200104017410e-01,9.071183921489483701e-03,8.213601889004178494e-03,2.720497968903557318e-03,1.399817168712615967e-01
-3.039945445523342116e-01,-4.379257160988007658e-01,-3.934504411397853896e-01,1.012254376717411537e-02,9.776417283274834932e-03,6.009342711931338517e-03,1.210844814777374268e-01
-3.059751122248488553e-01,-4.610761288239184075e-01,-4.309151908553335852e-01,1.938045876523412231e-02,2.725672113205823005e-02,3.098117423452236008e-02,1.628591716289520264e-01
-2.989391110481899316e-01,-4.310173587870920753e-01,-3.760937873471666415e-01,1.184647104919334115e-02,7.056249460385639015e-03,1.186596172011796999e-02,1.191631034016609192e-01
-2.770766701926425934e-01,-4.300935732674443512e-01,-3.914393611427289810e-01,1.068491123058282720e-02,1.107470950104988937e-02,9.555014953057685417e-03,1.413432657718658447e-01
-3.011192392197099554e-01,-4.258019855225327888e-01,-4.395266339642150411e-01,-2.162345916876281908e-03,7.674582020489751494e-03,-2.290889312839891091e-03,1.328602582216262817e-01
-2.845654610567046050e-01,-4.706080850322191811e-01,-4.516379183518750007e-01,5.536262452028330693e-04,1.001432738110516300e-02,-6.131277746240904438e-04,1.781723201274871826e-01
-2.992412819026458726e-01,-4.565514522807303521e-01,-3.958976443467170925e-01,1.193016705500905481e-02,3.535552940314705406e-02,2.152583635941381426e-02,1.563682407140731812e-01
-2.868483962154143585e-01,-4.499644001582503994e-01,-4.119367193075109124e-01,1.414671883963799538e-02,1.510245702947240164e-02,1.668870789960986631e-02,1.548230946063995361e-01
-2.738389682184625418e-01,-4.597149322931847193e-01,-4.325954659713152628e-01,-1.980735077522857886e-03,-1.114311697295678610e-02,-2.225106875851185981e-03,1.750531643629074097e-01
-2.690042066750273908e-01,-4.438674962396096380e-01,-4.177566408466796832e-01,1.301006825737718690e-02,2.235775116865121315e-02,7.117639916793753151e-03,1.698602139949798584e-01
-2.858544571445386651e-01,-4.698559730738958717e-01,-4.538653350151491961e-01,9.508589175190840584e-03,1.095889836730928359e-02,2.958821153055026919e-03,1.784033477306365967e-01
-2.810356104614559758e-01,-4.426905400475719676e-01,-4.105093130266917467e-01,1.810950566773215573e-02,1.650545362599819404e-02,1.594553017575498638e-02,1.566193699836730957e-01
-2.807644197148947418e-01,-4.577460894325107721e-01,-4.431952272485331079e-01,1.362270406503003108e-02,2.116638805747194513e-02,9.466373793069632683e-03,1.764330565929412842e-01
-2.939528395965491092e-01,-5.106836426585072974e-01,-4.947942714333609660e-01,-7.363926491163446525e-03,-4.281187441788657927e-02,2.493841744365650828e-02,2.265127450227737427e-01
-2.660643610961306305e-01,-4.518495861100486621e-01,-4.425250183328183207e-01,-6.640087510418796884e-03,-1.303029794275964437e-02,3.246020608114880135e-03,1.831501573324203491e-01
-2.740075726951207158e-01,-4.667439490972697391e-01,-4.626000981468005868e-01,-6.893052659942487150e-03,-1.443155153412169558e-02,-1.095766810808547010e-03,1.927090138196945190e-01
-2.797002029462647421e-01,-4.772492311492805839e-01,-4.714793140290427509e-01,-1.252852839848520722e-02,-1.044845584194816802e-02,6.763838768480091510e-03,1.971160024404525757e-01
-2.778243903862999131e-01,-4.768429423831894720e-01,-4.723713468259780890e-01,-8.159982453484090209e-03,-1.015830401988920481e-02,3.711242770106927893e-03,1.982147842645645142e-01
-2.942019846090417889e-01,-5.318119093765819594e-01,-5.011720931588040662e-01,-2.722318991687885936e-02,-3.911419017211326815e-02,1.255783634200956060e-02,2.395894676446914673e-01
-2.588810665320189774e-01,-4.600124649076620109e-01,-4.288330758248973806e-01,-6.263167687595989734e-03,-2.443778717756144372e-02,2.395716733288779082e-03,1.925652027130126953e-01
-2.826207042096505195e-01,-4.785505300264673578e-01,-4.834292426782516028e-01,1.301888229783847682e-02,1.394183596136202609e-02,5.778813356494072809e-03,2.013950496912002563e-01
-2.920291156206388239e-01,-4.685361937740969429e-01,-4.956690173240968500e-01,2.391367329832914598e-02,7.830193579088576619e-03,8.391478820834670158e-03,1.969539374113082886e-01
-2.733978973723847350e-01,-4.523501244593736148e-01,-5.148141982364231595e-01,3.927534316454447949e-02,1.104380377474954884e-02,-3.430395643897619397e-03,2.283256500959396362e-01
-2.622300543443006338e-01,-4.680583828038660243e-01,-4.729233705336096105e-01,3.674590447869754972e-02,1.635026458601944108e-02,1.186225517417165316e-02,2.206019908189773560e-01
-2.457925874656802512e-01,-4.428050970917213336e-01,-1.941439420150530282e-01,-2.377450378938151393e-02,1.207837756985244843e-01,-6.367957281612031395e-02,3.305813670158386230e-01
-2.555110406102616416e-01,-3.904904578658161540e-01,-1.048029306047385811e-01,3.226640401034465422e-03,3.947827630483900091e-02,-6.343668692904626261e-03,2.571039199829101562e-01
-3.080103208174424512e-01,-4.938728661225125771e-01,-3.269556807900190765e-01,-3.470939416133010571e-03,2.667459758953946714e-02,-4.588332952923535198e-04,1.831773817539215088e-01
-3.214407839083963658e-01,-5.024701938890979713e-01,-3.906556846699171803e-01,-5.770039109836136958e-03,2.396716633936105817e-02,-9.592332688895010770e-03,1.647167652845382690e-01
-3.173315811378897289e-01,-5.060257545861424067e-01,-3.757525922921951533e-01,-6.327291087149024620e-03,4.826482116973217218e-02,-2.613181882261644134e-02,1.927485466003417969e-01
-3.282145868679999245e-01,-5.338230798920873266e-01,-3.784447389719198251e-01,-2.925845606472688570e-02,7.018924262806182368e-02,-4.710228105341472682e-02,2.418135851621627808e-01
-3.304979858606350573e-01,-3.857459615158645438e-01,-4.606334111038383750e-01,-4.032754741614542719e-03,-4.700434924928091444e-03,3.355674093951784703e-02,1.276365369558334351e-01
-2.832695654387170081e-01,-3.667529945773250755e-01,-4.203805653748955429e-01,-4.070268442524252461e-02,-3.267714058379862785e-02,7.926781264198141941e-02,2.033373564481735229e-01
-3.172598732567317170e-01,-3.762711323178411504e-01,-4.433022774799316168e-01,-3.303686232817843686e-03,6.462335441582675631e-04,3.513986052118731052e-02,1.251779496669769287e-01
-2.703917138050724311e-01,-4.457172874525552886e-01,-4.552154467531369098e-01,5.317178421580949499e-03,4.600341797664825663e-03,1.486194852200704462e-03,1.806916594505310059e-01
-2.882064891162393616e-01,-3.393218010760237768e-01,-4.128768407846131749e-01,-1.440994093389643717e-02,-1.064786420165069782e-02,4.676711617704885915e-02,1.389513164758682251e-01
-3.150272159154438589e-01,-4.264694863822041659e-01,-4.352305635290198427e-01,-2.398712289987911181e-02,-1.346043857724786054e-02,3.220358635393575503e-02,1.373076885938644409e-01
-3.148131827953343231e-01,-3.714136085394829645e-01,-3.600963209736118276e-01,-1.962551182666048832e-02,-4.404277056699524434e-02,6.685584675291637857e-02,1.519046276807785034e-01
-3.189838957724058788e-01,-5.587263528749263353e-01,-5.530456165300757787e-01,5.975934780418268658e-03,-3.598038705509864956e-03,5.828745522774243576e-04,2.372631281614303589e-01
-3.033723675097265149e-01,-4.793814190384342866e-01,-4.834976081962275019e-01,1.347096321156398234e-03,1.871007732198239808e-03,-1.902185794280821050e-03,1.781780421733856201e-01
-2.869031814288355298e-01,-4.705021615711387772e-01,-4.684595576331016531e-01,1.601535757734049619e-03,2.445688990476704784e-04,6.922403612722357593e-04,1.826117485761642456e-01
-2.955117778323970712e-01,-4.900837821484507750e-01,-5.148872072748345019e-01,8.198025136130259252e-03,-5.077756812161437171e-03,9.299651463031292919e-03,2.093751430511474609e-01
-2.488297973509292493e-01,-3.968331465133728142e-01,-3.511434892089830284e-01,-3.112605498952689467e-02,-4.910010178916632273e-02,4.720286813224689598e-02,1.845361739397048950e-01
-2.938565166625266567e-01,-4.762658928527570001e-01,-4.533129468207178214e-01,-2.024788078689065268e-02,-2.905891456512491033e-02,5.641070088785481336e-03,1.829531192779541016e-01
-2.832814592587029612e-01,-4.361388719447455431e-01,-4.024471691845891153e-01,-1.007778333237945370e-02,-1.203444839466700014e-02,2.512807830808552051e-02,1.482697576284408569e-01
-3.094104449889791275e-01,-4.964862205096697290e-01,-3.390136229319658523e-01,-2.338619472084209686e-02,-5.177087101977922989e-02,4.264542484375118819e-02,2.132439166307449341e-01
-2.776887148510818193e-01,-4.852839810626050632e-01,-3.837282812070291760e-01,-1.876364729064313938e-02,-6.844518476764099857e-02,6.786403118857265489e-04,2.178042829036712646e-01
-2.712384935332338154e-01,-4.735385705777569454e-01,-4.572358167923828987e-01,-1.257172406586093590e-02,-2.892108301364788511e-02,4.324649013799135300e-03,2.023180425167083740e-01
-2.707375576503556203e-01,-4.598016445691309184e-01,-4.182041988911086028e-01,-6.494185508239572364e-03,-2.238252630804744153e-02,2.207465694729879128e-03,1.767910271883010864e-01
-3.519833147710159094e-01,-3.117923262490009950e-01,-4.701579787694402102e-01,4.803500844032982525e-02,-4.456834591021863884e-02,-1.759344018131991927e-01,3.550633192062377930e-01
-2.475553749784530355e-01,-2.303776347541387770e-01,-2.647055347239964940e-01,8.379159644334454454e-03,-9.830502250043919241e-03,-1.443902222040748251e-01,2.528437376022338867e-01
-3.351126195558175036e-01,-3.214135368307434737e-01,-4.474047912368541713e-01,-1.780532940557509256e-02,1.070409324716859942e-02,-9.668135446329427507e-02,2.089788764715194702e-01
-2.755655405458984353e-01,-2.091140370423478223e-01,-3.332743853126534095e-01,-3.423505649377812238e-02,1.215599383785506346e-02,-1.494826654479284034e-01,2.873596549034118652e-01
-3.129856062299422037e-01,-3.343128582592337361e-01,-4.241510905136539611e-01,6.779990075528117242e-03,5.315154735143674987e-03,-8.168369945927746179e-02,1.751602143049240112e-01
-3.831670802797481623e-01,-4.426160480890010684e-01,-4.899389456694179246e-01,-1.827461412319420289e-02,1.012343905558575272e-02,-7.887624530126598199e-02,1.689989864826202393e-01
-3.658672203561224023e-01,-4.235360726062545322e-01,-4.554135573745606846e-01,6.333922410071351518e-03,-8.055767464063676511e-03,-9.209400294677760890e-02,1.787153184413909912e-01
-2.735303123177673656e-01,-4.305210608395572125e-01,-4.442095131308458344e-01,1.481541921628300520e-02,1.452628872018918958e-02,8.885681989530328645e-03,1.688514798879623413e-01
-2.812369852830806094e-01,-4.453435592003848753e-01,-4.422604143914550257e-01,1.781765109811696626e-02,1.325446283609259084e-02,1.500882189629074333e-02,1.690850406885147095e-01
-2.825134455237769959e-01,-4.535711344512693977e-01,-4.603337612056030981e-01,1.041244799380868294e-02,6.919918797343052423e-03,7.220583461620103290e-04,1.758799105882644653e-01
-2.868473641882035574e-01,-4.561751448088005034e-01,-4.577068063590423175e-01,1.910786460734324038e-02,1.653522549432849195e-02,4.627633999277218184e-03,1.758221089839935303e-01
-2.724850306229044117e-01,-4.442307517200386746e-01,-4.538648329893053002e-01,5.542852596273573074e-03,6.299639349322881492e-03,2.402016561556608379e-04,1.773567646741867065e-01
-2.821120308121702336e-01,-4.669826012038625906e-01,-4.596017904429475776e-01,-1.257000353911035158e-02,2.157611264621206101e-02,-6.406886609869165243e-03,1.867106109857559204e-01
-2.963886289711484268e-01,-4.641881757497877681e-01,-4.538145644976356863e-01,-1.951973005317315935e-02,2.003686627636799486e-02,-1.778193331238163075e-02,1.726837903261184692e-01
-2.868758856347912167e-01,-4.771814980868270273e-01,-4.670929371014249099e-01,-1.351785065156372798e-02,2.172438470422573958e-02,-9.280280927238553426e-03,1.913648545742034912e-01
-3.024183424611655568e-01,-4.597199576532446930e-01,-4.479277502682100232e-01,-1.226570758611071274e-02,1.633207958080860889e-02,-2.184961960166138459e-02,1.603486537933349609e-01
-2.704434713096271481e-01,-3.930252339632857583e-01,-4.078523710442197303e-01,-2.787584142548603025e-02,3.013312654359324994e-02,-3.989125934778545851e-02,1.639902740716934204e-01
-3.013510496576206621e-01,-4.862038391051710651e-01,-4.094454403265419540e-01,-3.743343417908890497e-02,3.772106807634317827e-02,-5.262449014745833320e-02,2.065280526876449585e-01
-2.978002679668179664e-01,-4.315377063557120918e-01,-4.199672486988470510e-01,-5.081075292256575365e-02,2.846617239242909755e-02,-2.814095617896317236e-02,1.703645586967468262e-01
-2.614116521723880426e-01,-4.488123996940233673e-01,-4.595546162050604955e-01,3.344077113293519171e-02,-2.206735799640370879e-02,-9.367141233593365840e-03,2.057341188192367554e-01
-2.990060015120910575e-01,-4.936204778543765714e-01,-5.110544694110482622e-01,9.462359480887942362e-03,1.125622187160716563e-03,-2.014943010705158924e-03,2.045879662036895752e-01
-2.827621773729884769e-01,-4.823626387717013797e-01,-4.959881924374549000e-01,1.012368426636949328e-02,-2.625664784526049803e-03,-1.092867606652597051e-03,2.075509577989578247e-01
-2.899439865579149789e-01,-4.927446829458461131e-01,-5.318221785740882002e-01,3.871766056610478901e-02,-1.847847804935045385e-02,-2.176070967711031881e-02,2.398379445075988770e-01
-2.598832170969729294e-01,-4.597660362146627766e-01,-4.811809301080309798e-01,4.104273919511779167e-02,-8.744802334250675185e-03,2.488431439298429272e-04,2.235516160726547241e-01
-2.784272987739813687e-01,-4.458617778681521204e-01,-4.619207453672594665e-01,1.195306468426806171e-02,4.529589346065976754e-03,2.614319077149249919e-04,1.774018108844757080e-01
-2.902955794393460298e-01,-4.756988125783019883e-01,-4.931569214431023029e-01,9.735246648620637586e-03,1.589821544011209287e-03,-2.467463055501712202e-03,1.955149769783020020e-01
-2.735297689256449560e-01,-4.517687232277297626e-01,-4.614697677784931340e-01,-1.194125122265133135e-02,1.180216348251668813e-03,-2.727506124616425887e-03,1.845172494649887085e-01
-3.806774312583032227e-01,-7.902356968427246553e-01,-6.655772313092376269e-01,3.366157558578124209e-02,1.562742028867284416e-01,4.292321902540756351e-02,4.630488157272338867e-01
-2.726535432231859124e-01,-4.580082884564503076e-01,-4.577753168955593921e-01,-2.696899753082670874e-03,2.342456298250596234e-03,6.713920139850835297e-04,1.853453218936920166e-01
-2.764341731552573123e-01,-4.624295751303356683e-01,-4.677871086945200041e-01,-9.434525809666511817e-03,-5.383237650444292312e-04,-6.193433360088149110e-04,1.894426643848419189e-01
-2.821105876420917369e-01,-4.620249600818385205e-01,-4.725374370929426582e-01,-2.764950052643545472e-02,-8.169360422164985772e-03,3.144493662910319894e-03,1.920791566371917725e-01
-2.750447038996691740e-01,-4.576152002664998220e-01,-4.672576816415511258e-01,-4.783516442956104765e-03,-8.363788592053603230e-04,-8.979855179069842416e-04,1.877726316452026367e-01
-2.696584976792196775e-01,-4.435144220777973989e-01,-4.594158410412262361e-01,-7.417782363841985555e-03,-1.839650994747123831e-03,5.731925923772581777e-04,1.828100234270095825e-01
-2.741397356323860279e-01,-4.465923167812007044e-01,-4.625204818890581437e-01,-6.327389886585022731e-04,-8.655254045412879107e-05,-1.024042048062864200e-03,1.809553056955337524e-01
-2.706558600487186106e-01,-4.454851048964147409e-01,-4.612170557062100773e-01,-7.642514300795479228e-03,-2.057065409768622961e-03,2.172600396622897945e-03,1.837532073259353638e-01
-2.776950841841918649e-01,-4.622106793949999903e-01,-4.698985919010592038e-01,-8.330422622796417390e-03,-2.629251623817270827e-03,6.907162672282075172e-04,1.890873014926910400e-01
-2.689753612129696658e-01,-4.536858968846469442e-01,-4.495189366915243734e-01,-1.591759310139086170e-03,-2.098978386586906626e-03,2.723498956500243042e-05,1.827196925878524780e-01
-3.187217724531191121e-01,-5.570543832438140663e-01,-3.915307986842677668e-01,1.249942783811653366e-03,5.830671953307513256e-02,6.534853374551776936e-03,2.346969246864318848e-01
-3.036126042828073968e-01,-4.133511262325708646e-01,-3.273277970197500109e-01,4.196732015390171018e-04,-1.030164170000203447e-03,-4.813405818105200018e-02,1.302185058593750000e-01
-3.159911344122299237e-01,-4.420460570452010574e-01,-3.800768877037057347e-01,-1.781744036212976057e-02,1.691158901879661822e-02,-4.115112679130088214e-02,1.371464133262634277e-01
-3.247315621375079786e-01,-4.572350544740630407e-01,-4.009739730306645655e-01,-2.834178614288547244e-03,-1.203234146500638301e-03,-3.505916348688773582e-02,1.303210258483886719e-01
-3.056230172772987363e-01,-4.555267641773579346e-01,-3.582253288606689345e-01,-7.005901294562734589e-03,1.347903665280684136e-02,-2.831989056893491341e-02,1.430076956748962402e-01
-3.225525024092614768e-01,-4.534522654618466375e-01,-3.358507167257791526e-01,-1.250256594106510723e-04,2.512687893474500542e-02,-4.179695449403667690e-02,1.506849080324172974e-01
-3.030643911278551039e-01,-5.673313028187690898e-01,-5.432448988821549918e-01,7.219108271280957889e-03,-2.899810922785336920e-02,1.800551518575708998e-02,2.601990103721618652e-01
-2.908989794615514102e-01,-4.772202305201085903e-01,-4.750693462193079641e-01,4.080211966485328546e-04,-4.122498177195812324e-03,2.545905998995854572e-03,1.854465156793594360e-01
-2.886705849607746344e-01,-5.011383828124480466e-01,-5.057661827087746031e-01,4.170927975223329663e-03,-1.600349778263503511e-02,-9.880937325699468490e-03,2.173951864242553711e-01
-2.838305848615753080e-01,-4.803602012071380156e-01,-4.626255844819957552e-01,5.702779354188307207e-04,5.350734657608443396e-04,1.501407964902224702e-03,1.883125752210617065e-01
-2.967571315945073396e-01,-4.764240054512469125e-01,-4.754607786571906081e-01,-2.235456773060755416e-03,-6.371804525613895299e-03,1.413383607413532602e-04,1.795686632394790649e-01
-2.710776787084883677e-01,-4.537848156915159081e-01,-4.492393188570090179e-01,-1.528521342982939926e-03,-5.757501103294135553e-04,-3.494107500454770926e-04,1.805005073547363281e-01
-2.903531906881019475e-01,-5.173227387616154971e-01,-5.201302798894422708e-01,-2.797841445604958444e-03,-2.017994295761558338e-02,9.766736980436405494e-03,2.317145317792892456e-01
-2.725158308136152452e-01,-4.497765646599874434e-01,-4.499704760185793684e-01,8.975727824340658798e-05,6.984334608913249278e-04,1.556857432571104511e-04,1.773621737957000732e-01
-3.233510575999681280e-01,-3.727223199250581653e-01,-5.364102467429359145e-01,-5.982511979805643643e-02,-1.066850865421936981e-02,2.641449728985244619e-02,2.246875613927841187e-01
-3.042443118867889651e-01,-4.484126305674020485e-01,-4.965650769506077533e-01,-4.171279711429003861e-02,-3.967525039908400761e-03,3.698701497932510747e-03,1.880248785018920898e-01
-2.882933080843241291e-01,-3.297913043244560249e-01,-4.647355891655996496e-01,-4.215483001553159415e-02,-4.409761383254317060e-03,1.364537963476279746e-03,1.758606731891632080e-01
-2.966857665689844881e-01,-4.090919762683436489e-01,-4.779916093858031512e-01,-2.186996506965245904e-02,-7.556965037588685326e-03,2.308754173852792593e-02,1.683222353458404541e-01
-2.748655334175810760e-01,-4.582883953772467489e-01,-4.644988888347912903e-01,6.801758281682884245e-03,-6.711284757362033851e-03,-1.329779172334492714e-03,1.873522996902465820e-01
-2.805100651187344418e-01,-4.572108212672034711e-01,-4.580962640945787090e-01,1.239311372627593423e-02,-1.130093151575591905e-02,-2.991896569473641819e-03,1.795860677957534790e-01
-2.759649723971122626e-01,-4.518871610870739963e-01,-4.488885172996099904e-01,1.245063225272690331e-02,-1.443140137943065872e-02,-6.859187578077011269e-04,1.775425076484680176e-01
-2.726579828911783743e-01,-4.514771472628059668e-01,-4.530286605324801430e-01,5.622432547234552068e-03,-8.062600381648075618e-03,-3.304154623807509239e-03,1.804958283901214600e-01
-2.735302653576986431e-01,-4.571511339864398060e-01,-4.649842723492850771e-01,7.752789664297398721e-03,-8.406350391436631306e-03,-3.947050084503729225e-03,1.888262778520584106e-01
-2.711847091263813736e-01,-4.512758062094927580e-01,-4.546860649229111373e-01,7.260398186143081356e-03,-8.189748526081862268e-03,-1.972110862957020087e-03,1.828376650810241699e-01
-2.827323079705789111e-01,-4.614183028326404035e-01,-4.467868211414828816e-01,6.496334785107793323e-03,-8.357162896861881213e-03,-1.279860512011043007e-03,1.728275716304779053e-01
-2.730357991737990542e-01,-4.532206734975158802e-01,-4.480450082786814892e-01,6.383265488746069603e-03,-7.513781293158545808e-03,-4.322864248219985411e-03,1.786294281482696533e-01
-2.826917865755707582e-01,-4.539657557116793529e-01,-4.353870831495428861e-01,2.683789372209299112e-02,-2.136907705717980971e-02,-1.992663967456668669e-02,1.766913682222366333e-01
-2.517805475273607874e-01,-4.243464995953390440e-01,-1.871587116088991865e-01,-1.664640139170256048e-03,1.006806365780628237e-01,-3.771788637458397576e-03,2.748950421810150146e-01
-2.723074688282697831e-01,-4.473395307452018854e-01,-4.196534547860805153e-01,1.181875844161899176e-02,-1.470303017311653040e-02,-6.103294335974064969e-03,1.665416657924652100e-01
-2.812698743011430302e-01,-4.764202687514601520e-01,-4.384381076958028811e-01,7.257472711844701295e-03,-2.697765234291368830e-02,-8.301858591140737556e-03,1.861779838800430298e-01
-2.826723166689086852e-01,-4.750770880828126264e-01,-4.629217374074470204e-01,1.323361622040877122e-02,-2.542910073110905486e-02,-2.992080533897728805e-03,1.931858211755752563e-01
-3.080525404540447321e-01,-4.270489109282147311e-01,-4.961165227990411153e-01,-2.514341231504801238e-02,1.054472779549791997e-03,-8.526685954653601823e-04,1.704445928335189819e-01
-3.211478962932208803e-01,-4.718129191173399684e-01,-3.497913701880341897e-01,-2.096119179037388125e-04,8.262599968085255001e-03,3.327858894903043974e-03,1.394381374120712280e-01
-2.474372930398331949e-01,-3.765316680938356475e-01,-4.730608746255191566e-01,-6.466570039717831064e-02,1.785442688931196398e-02,-3.124843953549453004e-02,2.342548072338104248e-01
-2.789287924503672245e-01,-4.739867088776359982e-01,-4.247333252104205648e-01,-6.988308705037754240e-03,-2.567325097946704382e-02,1.276791259280154502e-02,1.829730570316314697e-01
-3.006973016943966792e-01,-4.700617418564242977e-01,-3.841317013141547498e-01,-3.184928458133337321e-03,-2.793219749862480700e-02,6.023655655682713141e-03,1.549022197723388672e-01
-2.751851744919014964e-01,-4.628752227185090051e-01,-4.323114401538032392e-01,-1.803577486075177072e-03,-2.746607488002009850e-02,8.575754401107830646e-03,1.814351826906204224e-01
-2.970355468588674608e-01,-5.085610873535159060e-01,-4.637626899846001294e-01,-2.463913935695396032e-03,-2.927464581915738273e-02,-1.104306580188144050e-03,1.996667981147766113e-01
-2.676674955395336730e-01,-4.452746609647337261e-01,-3.578906803829801642e-01,1.223565314551268782e-02,-4.342799137021322031e-02,-1.201814490019949971e-02,1.737833619117736816e-01
-3.000206251162049198e-01,-4.717497522329969217e-01,-3.201627951342353451e-01,8.736270498972345186e-03,-4.371507208648215542e-02,-1.298399082435955539e-02,1.813983023166656494e-01
-2.913268750899389858e-01,-5.297189977718039788e-01,-4.187488612418574507e-01,-6.215907769824449529e-03,-5.554682292024319679e-02,-2.966332127714507716e-03,2.282310873270034790e-01
-2.846904270474384102e-01,-4.810301336413191353e-01,-4.910108971333688177e-01,1.294927729460693643e-02,4.097686334524733992e-03,-2.247866468082750351e-03,2.029214054346084595e-01
-2.893243041861220388e-01,-4.573339085314191421e-01,-4.852152169916669200e-01,2.541230386780703870e-02,1.223153723254253276e-02,8.136310791835427852e-03,1.904565840959548950e-01
-2.719396421357006544e-01,-4.209857300267134117e-01,-4.631162884422792558e-01,6.278393202092298619e-02,4.595389247408676082e-03,1.764934930673319954e-02,2.075871676206588745e-01
-2.771346015094076076e-01,-4.630725504972427187e-01,-4.802224843391116882e-01,2.514253517867108545e-02,6.553690419558651746e-03,1.231153075393900346e-03,2.002141475677490234e-01
-2.659760422793200352e-01,-4.304909510043097298e-01,-4.435977392143516940e-01,2.303936918519177215e-02,1.649493836858578755e-02,9.121412075405904360e-03,1.790293008089065552e-01
-2.700402909833120035e-01,-4.369931159759497530e-01,-4.507887207659602713e-01,2.336129593960244860e-02,1.635211460485942736e-02,1.110427287395898514e-02,1.821431368589401245e-01
-2.761585535507088407e-01,-4.120247491147981944e-01,-4.743385477961382657e-01,-2.482866615968025784e-02,-1.437540989190197373e-03,1.415223901299319587e-04,1.807335615158081055e-01
-2.781396165596021208e-01,-4.667102974918543867e-01,-4.753372921466370027e-01,-1.050569997840500487e-02,1.422284488975343944e-03,-1.070183412115383861e-03,1.939090937376022339e-01
-2.708894689366939112e-01,-4.455980896714197281e-01,-4.669342703970508213e-01,-1.030884319318521071e-02,2.119751193356138406e-03,-2.482649206750400187e-03,1.872344464063644409e-01
-2.733984170668988800e-01,-4.516436785843588320e-01,-4.508498043105042541e-01,4.953374108847964467e-04,-5.420977338931190839e-04,3.265421055698522089e-04,1.778551042079925537e-01
-2.673281348589872652e-01,-4.428791658224572880e-01,-4.576462835588477884e-01,-1.037058798184308829e-02,2.536234879987029917e-03,-2.025853385789358994e-03,1.843444406986236572e-01
-3.042822697496873063e-01,-4.471422185616027445e-01,-4.143768790620633302e-01,7.130906690925339735e-03,2.123921807019653763e-03,4.325679039419363416e-03,1.304756551980972290e-01
-2.870117193902954056e-01,-4.304185464411094952e-01,-4.851259959733209559e-01,4.502140964463238748e-02,3.937448070780464465e-02,4.760019611919046739e-02,2.212080806493759155e-01
-2.680192391871271118e-01,-4.821748098663408699e-01,-4.712010785091141907e-01,3.226696442151205657e-02,1.681951391423117462e-02,5.273700148506966362e-03,2.183770537376403809e-01
-2.656436122300006031e-01,-4.323429538847287090e-01,-4.582867520052528176e-01,2.855501020399347015e-02,1.882775331257932269e-02,1.499864918694463443e-02,1.922786086797714233e-01
-2.654479941124249787e-01,-3.986923736072326974e-01,-4.733065653552844809e-01,6.330322887470991866e-02,3.347493678838069087e-02,1.718026133821467030e-02,2.225586622953414917e-01
-2.824253035164283610e-01,-4.771153252875022233e-01,-4.453914346417188197e-01,-9.292237515994186247e-04,1.149710622344894337e-02,-1.630436328000571663e-03,1.820477992296218872e-01
-2.797453615514280956e-01,-4.640354767082452980e-01,-4.628307263351788547e-01,2.499957274506528146e-02,1.801207231932605568e-02,1.577428212888788012e-02,1.932278424501419067e-01
-2.722352081474679331e-01,-4.477784488254593076e-01,-4.622866598186845533e-01,1.369234649380630942e-02,1.207038043787352251e-02,5.479397203504965050e-03,1.861782222986221313e-01
-2.927982289394454041e-01,-4.741638780369860084e-01,-4.761299701511017002e-01,2.160820585573838826e-02,2.250671666304224217e-02,1.918756357105892360e-02,1.930772811174392700e-01
-2.703850731693063780e-01,-4.543935557637483469e-01,-4.512291317368390953e-01,-1.704521419338586282e-03,-7.254341675735116604e-04,-5.134568629552340975e-04,1.824772357940673828e-01
-2.903539896492889905e-01,-4.585654467913308774e-01,-4.531249685102591851e-01,1.119255584554128789e-02,8.386963755416292771e-03,7.374402652698143316e-03,1.678080260753631592e-01
-2.918230791003317837e-01,-4.340761251010734623e-01,-4.428329889990973989e-01,1.025800631074584232e-02,1.545953190308313116e-02,1.116173544716214487e-02,1.515411734580993652e-01
-2.715094237231391872e-01,-4.487895790933678630e-01,-4.470737095265764349e-01,8.320583069520409714e-03,9.729338614853784775e-03,3.857809003318419562e-03,1.779419332742691040e-01
-2.796722242843849848e-01,-4.156279737117232198e-01,-4.236757108800577321e-01,1.156770352222400919e-02,1.266605018577624843e-02,9.700404159541979598e-03,1.442493796348571777e-01
-2.908884802046241003e-01,-4.457531483508589409e-01,-4.319842024352356646e-01,9.795425755055545830e-03,1.410638419379155878e-02,4.535384980174110223e-03,1.516141742467880249e-01
-3.401202580402418740e-01,-7.103639667505042832e-01,-6.539855212456198164e-01,-1.258695614089723191e-01,-1.570512214031329901e-01,1.017947507099177112e-01,5.215327143669128418e-01
-2.775681364504719584e-01,-4.501134886949936242e-01,-4.460646693258872864e-01,1.734898061299752076e-02,2.482533379834198084e-02,1.162289368089503006e-02,1.795739829540252686e-01
-2.740591576958408826e-01,-4.742509586543424138e-01,-4.047922081680656592e-01,9.156524494149874752e-03,2.421186477336134332e-02,4.354684671702018818e-03,1.818330585956573486e-01
-2.946409457870086124e-01,-4.699189729021382433e-01,-4.075698300743314517e-01,7.767819485487425894e-03,1.650957747209735524e-02,1.175283155493296594e-02,1.584123373031616211e-01
-3.107275363690781278e-01,-4.817662169067331579e-01,-4.118261520500305917e-01,1.697005758996630517e-02,3.231693840699476072e-02,2.682975837524705781e-02,1.683448702096939087e-01
-3.250565588643291592e-01,-4.304588485251424346e-01,-4.373760584080395031e-01,1.101697836137302544e-02,-1.825691059414651096e-02,-3.980995184302230788e-02,1.341832429170608521e-01
-3.020178722345830957e-01,-3.782014247875065127e-01,-4.085335697901427698e-01,1.407513519559544036e-03,-3.883599027923882908e-05,-2.890558946250324640e-02,1.074585020542144775e-01
-2.851731666977194157e-01,-3.804346325477666046e-01,-3.526714832834988433e-01,-1.173391371937930109e-04,-8.399466964857058579e-04,-3.713293848154466253e-02,1.064871102571487427e-01
-3.247472247773894871e-01,-4.780171694313162800e-01,-3.755260750437874884e-01,2.300602152457943087e-03,1.199472309801905001e-02,1.512443002497751389e-03,1.369001716375350952e-01
-2.811248407668764937e-01,-4.426943266117910891e-01,-4.434621826067489669e-01,4.562422620579554763e-03,3.887028343800616285e-03,1.736180429309116396e-03,1.623150259256362915e-01
-2.986850669320585405e-01,-4.152508423425840811e-01,-4.365080900896601834e-01,1.866673526376072187e-02,2.467500067421296572e-02,1.969181239205592543e-02,1.433615237474441528e-01
-2.614883400766757626e-01,-3.380681418742678690e-01,-3.729873352956656896e-01,3.011634003215451355e-02,2.459743864243658582e-02,5.954258493409080033e-02,1.578922569751739502e-01
-3.070917173338563733e-01,-4.785067776484240865e-01,-3.929136293177733497e-01,1.531204614528417505e-03,6.062822905882303028e-03,1.587471668908241318e-03,1.488698124885559082e-01
-3.105882098009441483e-01,-4.141902374901018646e-01,-4.081549531657506780e-01,5.778179405743604988e-03,1.296727598685720045e-02,1.414662465554221947e-02,1.065341755747795105e-01
-3.241168778903384950e-01,-3.652546721925163387e-01,-4.907245207028524403e-01,1.999378889726928857e-02,-1.304728208126706632e-02,-1.549767497409623891e-02,1.581993550062179565e-01
-3.031541226650233400e-01,-3.588599641973575505e-01,-4.587337417074593970e-01,2.924823237261279033e-02,-1.113259448971638810e-02,-2.091049220365807232e-02,1.512990146875381470e-01
-2.866307143582286221e-01,-3.099917338931643118e-01,-4.640736274838681008e-01,4.443834674779167937e-02,-1.451160235028257743e-02,-3.138808469405015428e-02,1.933860778808593750e-01
-3.244074299188816624e-01,-3.709474675953789435e-01,-5.211961693804878504e-01,4.372843436223500940e-02,-1.781501593978042364e-02,-5.477190110901457298e-02,2.177653908729553223e-01
-2.893416063750565148e-01,-3.777371963349463457e-01,-4.504091440669198976e-01,3.613449425259575298e-02,-1.504971504864153348e-02,-1.238076484019377983e-02,1.567651331424713135e-01
-2.751583122916613777e-01,-4.674291395508070601e-01,-4.612451315278555120e-01,-1.245040851632061576e-04,-9.348413382049093612e-03,1.128224629581465349e-04,1.899462342262268066e-01
-2.837868837434501801e-01,-4.639664109807425940e-01,-4.468880536459483577e-01,-4.517494877065701686e-03,-1.475745093102658403e-02,2.506517636111992714e-03,1.743920296430587769e-01
-2.937268984689964113e-01,-4.903884413466133574e-01,-4.650149007776597232e-01,-6.749649257493109226e-03,-3.292791703202769399e-02,5.267195717397743331e-03,1.944279521703720093e-01
-2.964708925509674797e-01,-4.596925687225080215e-01,-3.553591213322432329e-01,-7.306769789357953418e-03,1.696907936273930537e-02,-6.946577472251906638e-03,1.471940428018569946e-01
-3.089118589978240847e-01,-4.558911287597642303e-01,-3.474213679431363277e-01,-1.149623661595267771e-02,-2.323619431463064613e-02,2.712821105130495958e-02,1.471389085054397583e-01
-3.163505841463056800e-01,-4.873071341699478087e-01,-3.097795405086888887e-01,-1.604929759924218768e-02,-3.350652964850005244e-02,1.906205085334298707e-02,1.887420713901519775e-01
-3.305008274287806191e-01,-5.050149762058903091e-01,-3.626589261831887900e-01,-8.896206291321630266e-03,-2.880855404714558268e-02,4.127097125194394839e-02,1.836147904396057129e-01
-2.763150148490978175e-01,-4.104717305638250768e-01,-4.379610187607501648e-01,-1.072693288926667918e-02,-1.279612771135755014e-02,1.400801916989226001e-02,1.544883698225021362e-01
-2.782802827710908478e-01,-4.592975717119523460e-01,-4.587964349410500464e-01,-6.191864605284561236e-03,-8.541422865829151334e-03,2.152700116323788288e-03,1.817266792058944702e-01
-2.758566625711432740e-01,-4.374054639050040660e-01,-4.527454819490188687e-01,-1.040558612739183632e-02,-7.604103242572989550e-03,4.592425763771827707e-03,1.713857054710388184e-01
-2.874891470204234412e-01,-4.355665167595119680e-01,-4.417812135437852450e-01,-8.813571569015214366e-03,-1.153443069837333836e-02,5.152466781207161103e-03,1.536150872707366943e-01
-2.820594250030834527e-01,-4.314921734134005149e-01,-4.364752272943632772e-01,-9.423247784146795286e-03,-4.450271055671990023e-03,4.135860781580777412e-03,1.532211899757385254e-01
-2.791170877636247050e-01,-4.084549506165213728e-01,-4.250447760036022982e-01,5.950712677950760129e-03,8.445831270099329185e-03,5.846787555243451902e-03,1.398998945951461792e-01
-2.718509466913421879e-01,-4.502787077427632401e-01,-4.516844025322331313e-01,-1.182963940554620716e-03,8.420340248742904212e-04,2.235575143107150229e-05,1.791523993015289307e-01
-2.915951111274324159e-01,-4.460254579001761699e-01,-4.442882879965258658e-01,-1.988627278105954341e-02,-2.583051259499513294e-02,1.609918518832439277e-02,1.659791171550750732e-01
-2.891674374761137312e-01,-4.535875598143943588e-01,-4.596804947313666290e-01,-1.174528085173732680e-02,-9.239206954335972902e-03,9.425556510023948287e-03,1.703213751316070557e-01
-3.038478901537060017e-01,-3.371088842548557452e-01,-4.461858358279863213e-01,-3.372189272632600959e-02,-2.481633009167373560e-02,6.654601266209858590e-02,1.875533163547515869e-01
-2.966352286343809652e-01,-3.963032811760214824e-01,-4.470006422020192938e-01,-7.519653587542964208e-03,-1.956406790896320427e-02,2.068869287514526339e-02,1.419817209243774414e-01
-2.660120048884226929e-01,-4.388206123925847968e-01,-4.181031946716762260e-01,1.447386693372990259e-02,1.679355449887770177e-02,1.064991132559091162e-02,1.688984632492065430e-01
-2.803095182791644491e-01,-4.417468771409016060e-01,-4.118571197106529747e-01,3.165641304454754057e-02,-3.752126863060727818e-02,-3.546247336965956121e-02,1.820241212844848633e-01
-2.850833815882186095e-01,-4.505830738079097952e-01,-4.138947018655069754e-01,1.340336175360459098e-02,-2.109718394763922256e-02,-8.937365422961210393e-03,1.574106812477111816e-01
-2.768419992327206258e-01,-4.413398839608243529e-01,-3.664497824528133996e-01,7.210583741278556343e-03,-2.039371019480498357e-02,-1.154524318917553652e-02,1.488367617130279541e-01
-2.748742104898898586e-01,-4.663117866428746483e-01,-4.475252699521505839e-01,9.560805235540087779e-03,-1.192980877391408047e-02,-1.861409891444073140e-03,1.847063004970550537e-01
-2.883904442155811321e-01,-4.889640025053894612e-01,-4.406995519307179143e-01,5.155067245041913999e-03,-1.286300278015595731e-02,7.014490981444916617e-03,1.833094060420989990e-01
-2.800419321156473740e-01,-4.527852170481661553e-01,-3.954526719649569810e-01,1.368039600501116601e-02,-2.518062551484134826e-02,-2.168933920014218253e-02,1.646158695220947266e-01
-3.008063546203010308e-01,-4.766462064313644054e-01,-4.349326014714796074e-01,1.552146444188680884e-02,-3.154547422247184346e-02,-1.829070182423456550e-02,1.733104437589645386e-01
-2.657571097455236897e-01,-4.378435626556977378e-01,-3.992438980650343527e-01,1.050907790454069617e-02,-2.186351991503538220e-02,-1.491887893598579755e-02,1.639947742223739624e-01
-2.954898665475156339e-01,-4.656854838626102167e-01,-3.822203949144684088e-01,1.396281234343646482e-02,-1.674595180739571823e-02,-1.555044001523572458e-02,1.545289158821105957e-01
-3.173659162998490046e-01,-3.830820192913368949e-01,-4.086326445551315412e-01,6.087510159285592932e-04,8.338355136169840146e-05,-2.961262492204707122e-02,9.634512662887573242e-02
-2.830168163967359263e-01,-3.795351429074986793e-01,-3.505917506345535006e-01,1.237343271131375938e-03,-2.697116320150131068e-03,-3.713536960840933820e-02,1.073473915457725525e-01
-3.075913738269315800e-01,-4.294232149121905429e-01,-4.236174270104083872e-01,-4.794464439126841677e-03,3.990854935143963410e-03,-4.342613406558029805e-03,1.197609752416610718e-01
-3.039523000857417001e-01,-4.184705954471400480e-01,-3.896594753358150753e-01,-1.914261366630907492e-03,3.150973205488502354e-04,-9.461063491921765933e-03,1.045224666595458984e-01
-2.734332048122240511e-01,-4.497575260098883865e-01,-4.497130444499152779e-01,-7.008422479440663431e-04,-2.155766627915445591e-04,-1.575073357124794440e-04,1.763068735599517822e-01
-3.061078832626199508e-01,-4.241077613055681539e-01,-4.012110522047651062e-01,-1.515133423478946112e-02,8.378901480346095595e-03,-2.664723668943975304e-02,1.215563789010047913e-01
-2.945335286048679779e-01,-3.757052452062511483e-01,-3.972728121347043895e-01,-2.460361775727133455e-03,3.346768439381395382e-03,-3.054667949545661690e-02,1.079617813229560852e-01
-3.158758049943320989e-01,-4.202194911137390188e-01,-4.330541100739342397e-01,-9.349555602050884902e-04,-1.400860576795893682e-03,-1.659801610462867047e-02,1.150066778063774109e-01
-3.196030177327467414e-01,-4.376379189120114810e-01,-4.210065872114931440e-01,-1.981911966537404195e-03,2.291347675196213612e-03,-1.780783235448529789e-02,1.149984896183013916e-01
-3.099909335864273197e-01,-4.344395026484925704e-01,-4.263196374634557473e-01,-4.817659560383828928e-03,5.806825522910129961e-03,-1.415735724364796701e-02,1.237535923719406128e-01
-3.260761572837567734e-01,-4.508271526930045514e-01,-2.986946098415116380e-01,-1.041427836331198196e-02,1.428606713138225702e-02,-2.167535692096771160e-02,1.485784202814102173e-01
-2.966359442864551221e-01,-4.486116540026737765e-01,-3.032319753624100334e-01,9.157764039644897703e-04,1.612719334509191485e-02,-1.924936966016836323e-03,1.514317691326141357e-01
-2.848390814294053386e-01,-4.488654144676814672e-01,-2.825726729512250679e-01,6.095143022296018245e-05,-2.569395572727653509e-02,-1.974687895281451722e-02,1.744473874568939209e-01
-3.322930168901658265e-01,-4.895183840780585327e-01,-3.690821708839883697e-01,-1.361263136523965887e-03,-1.270798069292759964e-03,-1.673180064855537413e-02,1.453937143087387085e-01
-2.809821988450101893e-01,-4.492863630570860800e-01,-4.408708144559462250e-01,-1.013595287592585631e-02,1.141372501577712396e-02,-8.122457596260703599e-03,1.669661551713943481e-01
-2.719713821666793763e-01,-4.519403305995376985e-01,-4.572502408388380291e-01,3.009219049723357311e-04,-6.571793573603246317e-04,-3.107416698817529990e-04,1.826868802309036255e-01
-2.760275781943664630e-01,-4.396939351297966536e-01,-4.511092695281574416e-01,-1.266734200791764381e-02,1.195544837547039656e-02,-5.911854744905205468e-03,1.726277023553848267e-01
-2.827559258125613706e-01,-4.145029591690702064e-01,-4.265935347580930292e-01,-1.160702000460970759e-02,1.140424231177240670e-02,-8.168814671529637389e-03,1.417423337697982788e-01
-2.804061251642633312e-01,-4.137806797095159306e-01,-4.206962864261519774e-01,-1.183574527709867728e-02,1.475299178012761704e-02,-1.671564959592652944e-02,1.437720805406570435e-01
-2.869219517682237708e-01,-4.336553014978403731e-01,-4.223278440626105357e-01,-2.377712544706739664e-02,3.122055522952274509e-02,-3.000506179553511649e-02,1.652815937995910645e-01
-2.890399483296986483e-01,-4.371703322341552456e-01,-4.251302365558742302e-01,-1.301613800044791082e-02,1.278258656143113972e-02,-1.229857263104002819e-02,1.475000977516174316e-01
-2.805224115060812595e-01,-4.416295947851110459e-01,-4.425926779208945727e-01,-5.844751386551209037e-03,5.004555631218977202e-03,-6.632884446865939133e-04,1.621436178684234619e-01
-2.814522862688668692e-01,-4.459629565794200334e-01,-4.450935109368251985e-01,-7.183538595649014216e-03,5.780813830412294581e-03,-3.715065011026745957e-03,1.649786382913589478e-01
-2.840270701245145024e-01,-4.298075820940518987e-01,-4.018090104315700795e-01,2.028459684123308168e-02,-2.251834178560527255e-02,-1.607441917703263112e-02,1.465776711702346802e-01
-2.726185942166927667e-01,-4.630507668317016545e-01,-4.550242081479648482e-01,-2.824433394852472658e-03,3.976774199428043284e-03,-5.841226683876763305e-04,1.867423951625823975e-01
-3.388479070129412074e-01,-4.013008140422550940e-01,-4.587581618962872643e-01,5.306029337791615509e-05,3.487779391222478338e-03,-3.198124724776556238e-02,1.178770288825035095e-01
-3.040064232387898469e-01,-4.407813670741057011e-01,-4.292772470425108566e-01,1.290170878350048803e-02,-1.207330849759183367e-02,-1.148814434927999603e-02,1.363775730133056641e-01
-2.905728805304885753e-01,-4.112868097501294340e-01,-4.154117959820707306e-01,1.159722187148654916e-02,-1.193877898048573312e-02,-1.025595362839122442e-02,1.274105757474899292e-01
-2.985916248484126734e-01,-4.219884289727494076e-01,-4.320351629732755994e-01,1.193325287692432665e-02,-1.270419150608862423e-02,-1.401750568109341732e-02,1.344184130430221558e-01
-3.138916454396332711e-01,-4.284229226235924393e-01,-4.361578299845326745e-01,4.473595323332154802e-03,-4.116910778660779618e-03,-1.714923436849395688e-02,1.227041408419609070e-01
-2.730022850473710072e-01,-4.530744333428743387e-01,-4.545302696933169462e-01,-9.712072570405727730e-05,-1.342299588826135343e-03,1.468262237133646396e-04,1.808196604251861572e-01
-3.086727708718871588e-01,-4.108959675837299264e-01,-4.108781081655150658e-01,3.940394938101740227e-03,-4.811478314691679942e-03,-1.435079399566429985e-02,1.057431995868682861e-01
-2.979028518854173191e-01,-4.094583051230216153e-01,-4.038255960717400672e-01,2.209443614907020265e-02,-2.167061978794345561e-02,-3.989009929165909102e-02,1.396244466304779053e-01
-2.897530533046789869e-01,-3.922460525169254586e-01,-3.694243509792379809e-01,4.056545607324745992e-03,-2.819580186688745976e-03,-3.080894966664409623e-02,1.077375113964080811e-01
-2.838769915893355478e-01,-4.282342629838185033e-01,-5.053867418786287535e-01,-4.256661864224577790e-02,2.113352398856027659e-02,-3.937948028829902150e-03,2.115447968244552612e-01
-2.772035397374978949e-01,-4.539620591415709505e-01,-4.760189893297347430e-01,-1.498552333752303095e-02,1.177660900264079291e-03,3.647882915248025232e-03,1.906478703022003174e-01
-2.907763653499523260e-01,-4.875669224578573768e-01,-5.417869163351431983e-01,-3.132199879772107343e-02,1.152686134807835196e-02,3.093907724148549192e-03,2.360229641199111938e-01
-2.730075031426962284e-01,-4.649203990527367436e-01,-4.653583364373525821e-01,-1.100997055103743009e-02,-2.276307417679124777e-03,-2.384955660261416739e-04,1.931169927120208740e-01
-2.899804394786722472e-01,-4.856827095811740991e-01,-4.986765646397951501e-01,-9.481069234272864951e-03,2.010862080583990848e-03,-5.026977018282233547e-03,2.033931165933609009e-01
-2.576320908685403310e-01,-4.471891778524835770e-01,-4.664149183792034026e-01,-2.929033856804907909e-02,9.600325109283587219e-03,-3.595183549213970802e-03,2.069660425186157227e-01
-2.842365984486307506e-01,-4.762907825381701432e-01,-4.878861836626315895e-01,-1.204561917855975772e-02,5.035321026752178318e-03,1.995417018823304224e-03,1.994229406118392944e-01
-2.786158681647939450e-01,-4.631290914781235890e-01,-4.726418255092229570e-01,-8.298870965076055387e-03,7.787694712663303324e-04,-1.003497348688477727e-03,1.900060623884201050e-01
-2.792670601700756317e-01,-4.517396821689704800e-01,-4.716784826990625956e-01,-2.502281825007342600e-02,8.658376732395365455e-03,-4.309052362152958511e-03,1.890563070774078369e-01
-2.660953845088194214e-01,-4.402130397010188823e-01,-4.635139397770978165e-01,-1.656806521792465042e-02,6.399753621148414166e-03,-3.734059242930950605e-03,1.894866526126861572e-01
-2.652575578546008672e-01,-4.747532316770875505e-01,-4.407344695656713052e-01,3.163360314491638764e-02,-3.455829735008263126e-02,-2.349767242571984549e-02,2.148493230342864990e-01
-3.144964185171424953e-01,-3.883077504111016598e-01,-4.613974492896578683e-01,4.090580892675486392e-03,-2.084887746340166863e-03,-4.143762064050473745e-03,1.276707351207733154e-01
-2.748550488225442456e-01,-4.781867548730615036e-01,-4.752208591431763551e-01,2.908518973683255071e-02,-4.168861763691694700e-02,-7.581416556422406958e-03,2.206209897994995117e-01
-2.515333343288984613e-01,-4.247895943299072052e-01,-4.140385354611124114e-01,3.840561623707478695e-02,-3.215752102212953573e-02,-3.310820580937740704e-02,1.977027654647827148e-01
-2.868677085613230981e-01,-4.839113609824851059e-01,-5.277121478197447368e-01,-8.336316476962046806e-02,7.121844571814310576e-02,-8.158727268573894020e-02,3.246679604053497314e-01
-2.764096011412078280e-01,-4.412473374062174103e-01,-4.350078302541273700e-01,5.791566157283520137e-03,1.086755444629130185e-03,1.725389487706766815e-03,1.621573418378829956e-01
-2.423748441844395252e-01,-4.875735023355938225e-01,-4.648039981422130706e-01,-6.568547910566126247e-02,9.847469158109918574e-02,-4.495444952552045403e-02,3.211791217327117920e-01
-1.614367277797122691e-01,-4.643795538151619384e-01,-4.446450628421966256e-01,-5.533608295073463856e-02,7.473137397756621225e-02,-1.792446154010259723e-02,3.362883031368255615e-01
-2.903864371476100326e-01,-4.429914575843282298e-01,-4.440041170433514095e-01,1.740109615167623322e-03,8.348138317242418923e-04,2.038905128945385330e-03,1.531910598278045654e-01
-3.274357283850641287e-01,-7.074173454539214312e-01,-5.682896188279006333e-01,-7.874115284876614940e-02,1.323507990373505860e-01,2.168552912550417849e-02,4.282967150211334229e-01
-3.329828277965146688e-01,-5.840650569567732431e-01,-5.642273836450732993e-01,-2.095635314902940041e-02,1.614149954885203408e-01,-5.539734240790478853e-02,3.835928142070770264e-01
-2.631404463147667405e-01,-4.588748094776176623e-01,-4.839525613379560554e-01,-7.639608769688224776e-02,6.649249814938869296e-02,-3.972907810629140030e-02,2.817045450210571289e-01
-3.011699708684818511e-01,-4.515786905535135731e-01,-4.386405505303279106e-01,2.161526234576140529e-02,-2.381584528167073403e-02,-2.396428088835152875e-02,1.602194458246231079e-01
-2.850235676748030800e-01,-4.434922256414473574e-01,-4.037965935682741869e-01,2.361823549363650104e-02,-3.150246753408129929e-02,-3.904190199487676816e-02,1.721076220273971558e-01
-3.052758953025851429e-01,-4.803163006744712860e-01,-4.297044333618124101e-01,8.304115271637458121e-03,-2.181843395560523549e-02,-9.049618958718679690e-03,1.619329452514648438e-01
-2.893629224386702337e-01,-4.415779419085557045e-01,-4.082416940812351180e-01,1.958651982881737599e-02,-2.264734161616023533e-02,-1.724701656932785265e-02,1.509583443403244019e-01
-2.681844240763978648e-01,-4.608400351983322762e-01,-4.110216115305139195e-01,7.102552836100464728e-03,-2.368306633769087094e-02,-8.979702483179051453e-03,1.790982037782669067e-01
-2.941046496287016421e-01,-4.947811104998037224e-01,-4.740979963866274738e-01,4.334072780452916281e-03,-2.460956187139762275e-02,-3.116433381403184259e-03,1.960882395505905151e-01
-2.983613979182305198e-01,-4.653904040195677716e-01,-4.319080027411378309e-01,3.940053211642464970e-02,-3.835933109175845152e-02,-3.896585065879552834e-02,1.924935281276702881e-01
-2.833875722163859967e-01,-3.371164418238187799e-01,-4.217798086498210086e-01,-3.235961481639388487e-02,1.773802332033754675e-02,-5.751625531617926557e-02,1.691545099020004272e-01
-3.148719000229618370e-01,-3.560273599332325900e-01,-4.469417980522897293e-01,-3.526946661298813873e-02,9.311150403103691728e-03,-5.971902405642896122e-02,1.684987097978591919e-01
-2.830574230700967364e-01,-3.667896094072402025e-01,-4.096492606674106973e-01,-1.296023341393391128e-02,9.201426770066103294e-03,-2.721239446077404478e-02,1.241620182991027832e-01
-3.476884689016692676e-01,-3.518024704704289518e-01,-4.556738923839795952e-01,-2.816164011256306124e-03,4.986632661091749442e-03,-8.364570768069452822e-02,1.797824501991271973e-01
-3.003852813271603028e-01,-3.655491757108299544e-01,-3.664803000575927450e-01,1.423718544769103558e-03,3.728847771404332316e-03,-6.564137845917496217e-02,1.314611732959747314e-01
-3.032459551729418390e-01,-3.876781452470415279e-01,-4.238613904395484022e-01,-7.389523394133819603e-03,3.393867619612116020e-03,-4.449704419416329604e-02,1.327832192182540894e-01
-2.930702906533878549e-01,-4.634913540222115880e-01,-4.131350086816382161e-01,-3.942579626780119001e-02,-4.402195459097073271e-02,3.300666081857609596e-02,1.916836351156234741e-01
-3.127846564004907459e-01,-4.424544939921118414e-01,-3.896743296904470744e-01,-1.505747085329804322e-02,-2.051924042937557438e-02,3.893209213232182858e-02,1.387315392494201660e-01
-2.819714095475949200e-01,-5.125976349352734385e-01,-4.340365177849508926e-01,-1.344288289445511042e-02,-6.024412287714448616e-02,3.175283213873704435e-02,2.360020577907562256e-01
-2.546087675854377674e-01,-4.505409739676025649e-01,-3.775774601420189280e-01,-7.483947038786313045e-03,-5.664544231446418110e-02,9.706334815797197646e-03,1.987309455871582031e-01
-2.998514219905076272e-01,-4.618163597532198295e-01,-4.278717574577537430e-01,-1.465274589905057184e-02,-2.600025367575948057e-02,1.347810807377268841e-02,1.584429442882537842e-01
-2.743614664640974254e-01,-4.303603516192670009e-01,-3.818866362933513448e-01,-1.132517601260896525e-02,-2.138066645149044875e-02,1.618271338206385759e-02,1.471914649009704590e-01
-2.845639733589365727e-01,-4.431065596955268693e-01,-4.422391891368525063e-01,8.030415433742901137e-04,2.805485019477070054e-03,2.516468396689155703e-04,1.581920534372329712e-01
-3.146083654189666956e-01,-3.463057548549401399e-01,-4.598051152775891048e-01,3.673504980259660190e-04,3.779857908864472579e-03,1.018461095534269577e-02,1.335623711347579956e-01
-3.134813296945829220e-01,-3.684296683368740721e-01,-4.371297715258931071e-01,6.318114848417254528e-03,5.682998765415336016e-03,2.418750790569361084e-02,1.161280870437622070e-01
-3.069413502919399739e-01,-3.697503913479464055e-01,-4.394028152178425239e-01,8.564948063923295005e-04,5.061129536670968231e-03,1.155871657017247360e-02,1.168379038572311401e-01
-2.901117022722476957e-01,-4.292013295536792894e-01,-4.299190698206886707e-01,-3.210900712495903787e-04,3.139315161725884148e-03,7.788917157519299273e-04,1.395634859800338745e-01
-2.839177778774653049e-01,-4.508937743969572143e-01,-4.511583168233060381e-01,9.088645664890666193e-03,1.141467493572501969e-02,9.431188297499108888e-06,1.690086424350738525e-01
-2.749181312077578765e-01,-4.294650458425157691e-01,-4.325023262039729977e-01,6.667562773930802399e-03,8.009335636749751255e-03,6.615112670624266437e-03,1.575451493263244629e-01
-2.851288124331464169e-01,-4.414374091451605531e-01,-4.404765454068115260e-01,3.702158606968864157e-03,3.568162563613998511e-03,1.099428440884389927e-03,1.560962796211242676e-01
-2.804296663761615127e-01,-4.410047753285389338e-01,-4.333911293219974703e-01,8.156945620361512675e-03,7.147442559331170300e-03,6.749138370235111678e-03,1.584591120481491089e-01
-2.951772568050811119e-01,-3.933276819500195476e-01,-3.193076318970423100e-01,-6.571795367928878404e-03,4.183394397778056155e-03,9.655685633425323267e-02,1.897343397140502930e-01
-2.961946974425871404e-01,-4.336542960356475351e-01,-3.935273124672671319e-01,1.070037686598161904e-02,6.935948008252685801e-03,7.043150557431444511e-03,1.250044405460357666e-01
-3.078113824922395492e-01,-3.977924183932129432e-01,-4.169670694840562075e-01,-7.694844049664542607e-03,-9.593821808761778674e-03,2.518558727370691711e-02,1.120103001594543457e-01
-2.763591898573048433e-01,-4.302986596356550009e-01,-4.397784806586667039e-01,3.031282086458325468e-03,5.494336155060581400e-03,2.579533635459557977e-03,1.593255698680877686e-01
-2.791041590743180145e-01,-3.367629827617337757e-01,-3.606600204210388960e-01,-1.885994144193492428e-02,-1.567659252037138795e-02,7.780345028578904143e-02,1.588646322488784790e-01
-3.550239951310206199e-01,-4.772257026533333057e-01,-4.299601314638983873e-01,-1.280901743907251512e-02,-1.052990144121590879e-02,6.296277942472643108e-02,1.552711874246597290e-01
-3.427075625757959876e-01,-4.485032876713604955e-01,-4.047019612212177098e-01,3.032684555812573818e-03,1.738837025886346256e-03,7.155141417540612780e-02,1.545081734657287598e-01
-3.094173490711484842e-01,-3.865895160496828908e-01,-3.816747839308512469e-01,-1.822223213623691551e-02,-8.364531994228964484e-03,5.309078620394839382e-02,1.235409155488014221e-01
-2.825237501526843276e-01,-4.552213573858691631e-01,-4.123053440249795365e-01,-4.339001417188050914e-03,-3.070270290610007790e-03,3.188734214141381203e-03,1.561090052127838135e-01
-2.733540641135339122e-01,-4.540150321753789187e-01,-4.545060935705090843e-01,-4.224597631338063500e-03,-6.841147109055148272e-03,3.047407944919720401e-03,1.815190017223358154e-01
-2.835010972606737956e-01,-4.664278771370068966e-01,-4.440031556003755653e-01,-9.075442143418058216e-03,-3.309949817858437449e-02,2.107874702756224253e-02,1.863592118024826050e-01
-2.830366695004409294e-01,-4.576996714448972603e-01,-4.345268825761067766e-01,-1.193921548336927124e-02,-1.240215796991797799e-02,6.296078661055467401e-03,1.673460751771926880e-01
-2.707088717892073837e-01,-4.585386298801845673e-01,-4.480615578092483342e-01,-8.553578573399554449e-03,-1.213674241228771856e-02,4.954327279814415251e-03,1.848158836364746094e-01
-2.773149353035441189e-01,-4.641378760430587835e-01,-4.581458403344066399e-01,-3.897766448957104557e-03,-8.672445631987118000e-03,1.680472087314076671e-03,1.846590042114257812e-01
-2.709925123681164449e-01,-4.563100723646018597e-01,-4.442898685729138597e-01,-3.812771558278988532e-03,-7.986773319161564327e-03,2.476601894765172261e-03,1.803133636713027954e-01
-2.919583906472249524e-01,-5.318170098300023518e-01,-4.732104526654186682e-01,-1.688104848115623211e-02,-5.821545612913309881e-02,1.909125793090028778e-02,2.429507225751876831e-01
-2.843693453096871604e-01,-4.793184118485538936e-01,-5.046567482862114318e-01,-1.152829393719092231e-02,6.314458814300484904e-03,-4.789083634278493845e-03,2.101760804653167725e-01
-2.424475075683013015e-01,-4.215854356967995709e-01,-4.548566850685564211e-01,-3.881482075783421887e-02,9.602001970531938435e-03,-9.507158167833706930e-03,2.102975100278854370e-01
-2.702557432204283350e-01,-4.917435644695404839e-01,-4.934298749865345668e-01,-4.271624046335192187e-02,-1.245113197847996268e-02,-3.927612089810799019e-03,2.354115545749664307e-01
-2.786161281376084986e-01,-4.564910154067582382e-01,-4.456340902581562569e-01,-6.238748362770077556e-03,9.103695885063085511e-03,-2.712491877855004434e-03,1.738207191228866577e-01
-2.827655266157831360e-01,-4.503232941933090761e-01,-4.436562420639079685e-01,-7.848658732355587309e-03,7.062393356110517953e-03,-2.945651493810221531e-03,1.654188781976699829e-01
-2.822695519643011464e-01,-4.622715480098645302e-01,-3.835487575578498398e-01,-1.929888891051017089e-03,-1.238969813644894696e-02,5.735667803874308981e-03,1.581079363822937012e-01
-3.037860728598598126e-01,-4.733453148050300041e-01,-4.134795951317156160e-01,-2.429022793289477809e-03,-1.623459437728268576e-02,1.414869710007644063e-03,1.516504138708114624e-01
-3.234974032295504509e-01,-4.730669013609135609e-01,-3.622958940221933100e-01,-4.112047804747418628e-03,-1.817222511314208616e-02,5.565876110222803957e-04,1.382592916488647461e-01
-3.276042639394715072e-01,-4.865923084727444836e-01,-3.706281100690712038e-01,2.098507980674465243e-04,-2.118852134047074023e-02,3.709129105470228716e-03,1.472285240888595581e-01
-2.910136523691256305e-01,-4.484316086153994352e-01,-3.473287172073150075e-01,-9.024479869477223040e-03,-1.870425740790873648e-02,4.758235044941520539e-03,1.429985761642456055e-01
-2.862704160204598836e-01,-4.485345681752591629e-01,-3.591680541911297930e-01,-5.118407254152458792e-03,-1.849448180885649579e-02,6.994135887034532047e-03,1.451431512832641602e-01
-2.982648939432879787e-01,-4.631809955552323999e-01,-3.805257172485128625e-01,-6.704318048181672103e-03,-3.912156474809994240e-03,5.226974347857496830e-03,1.437384784221649170e-01
-2.849221170763875932e-01,-4.530197303817115606e-01,-3.544714731434095989e-01,-5.034560063294528029e-03,-2.142135544697030061e-02,3.698529788705539560e-03,1.513160318136215210e-01
-2.734930857318680908e-01,-3.561020697055853890e-01,-4.509456542965711301e-01,4.517884709695952489e-02,-8.731229734676731634e-04,1.050358865451288953e-02,1.735255867242813110e-01
-2.579396108138245491e-01,-3.908765942872314270e-01,-4.507310065214134576e-01,5.076826057422571120e-02,1.062890531214911484e-02,1.628378446293814175e-02,1.951366513967514038e-01
-2.829276441713076684e-01,-4.413302981828352012e-01,-5.403433101587030718e-01,4.768300283785218557e-02,6.065591156896345260e-03,-1.189847434210051548e-03,2.398218661546707153e-01
-3.022669805765507700e-01,-4.138697093499889568e-01,-4.874879500888026906e-01,5.440324004884219966e-02,-2.745998933801552938e-03,1.802968119327695920e-02,1.896517276763916016e-01
-3.390308615483615950e-01,-4.981414864648357477e-01,-5.918707633341602214e-01,6.926001126893992221e-02,-4.212085488469400306e-03,7.547013572333506962e-03,2.522491514682769775e-01
-2.739187483537556256e-01,-4.622388061010491156e-01,-4.585937158039468109e-01,-2.496113591828387403e-03,-2.431772730560895213e-03,-5.767231394175204029e-04,1.866245418787002563e-01
-2.842923744589797574e-01,-5.297500194236095528e-01,-4.405584716158675307e-01,-2.765414535528731149e-02,-5.581073879120581477e-02,1.273286749284228796e-02,2.417374402284622192e-01
-2.814377192694932361e-01,-4.787745407645455642e-01,-4.542391199900362997e-01,-6.837070538166168526e-03,-3.443769801186597618e-02,8.508556234619301870e-03,1.965129822492599487e-01
-2.736107286190927468e-01,-4.646340866308970585e-01,-4.692615016971642405e-01,-8.422845759697129842e-03,-1.262040084265753266e-02,2.815163418208617018e-04,1.951567977666854858e-01
-2.638084696609628299e-01,-4.819429486032335008e-01,-4.710281690426543211e-01,-7.336623002940736646e-03,-5.055468800120933859e-02,7.532768701190988535e-03,2.309110909700393677e-01
-2.708605738428178089e-01,-5.087299531433499000e-01,-4.658104030777001636e-01,-2.654255972466326371e-02,-2.752561604797319414e-02,7.774231579462410717e-03,2.297444194555282593e-01
-2.983086134345778184e-01,-5.484659027886934490e-01,-5.442151475012738659e-01,-2.650863406752899248e-02,-4.208470763298940293e-03,-2.010575560290813260e-02,2.547692358493804932e-01
-2.485383743022767933e-01,-4.341919171271347855e-01,-4.544363510092483405e-01,-3.224112852679784230e-02,4.662031225726392079e-03,4.944879236481313379e-04,2.044992297887802124e-01
-2.808691270967617615e-01,-4.257870104716631743e-01,-4.096739367688027045e-01,1.230404873720290608e-02,1.315960532540207117e-02,1.408986899964930102e-02,1.431608200073242188e-01
-2.702674509304655581e-01,-4.361283408172103027e-01,-4.348301230480885460e-01,1.651920926639164483e-02,1.952882284601452703e-02,1.318654940950019991e-02,1.725706458091735840e-01
-2.898435989012200231e-01,-4.792495070269321977e-01,-4.579184624157890404e-01,1.621017680230000396e-02,1.999958989422773864e-02,1.406331315165812272e-02,1.867377161979675293e-01
-2.805917178779183119e-01,-3.856578886847252807e-01,-3.381104915884586837e-01,2.378260426934441715e-02,3.107703919079287530e-02,6.019145620998430507e-02,1.541663110256195068e-01
-2.847442716419706921e-01,-4.209658791515197285e-01,-3.767370688715279137e-01,1.806713575993521698e-02,2.843373333556884625e-02,2.995588848051270250e-02,1.434724926948547363e-01
-2.878028654060549862e-01,-4.343724689351198820e-01,-3.876158850763846142e-01,1.994943979024664527e-02,3.146582996973116414e-02,2.539007843804334807e-02,1.513735055923461914e-01
-2.852625622210742118e-01,-4.532859163000118041e-01,-3.995764484033675901e-01,-8.513812558267355030e-03,-1.177425871022569348e-02,2.761707722744273247e-03,1.508255451917648315e-01
-2.699122086946090793e-01,-4.497947044069035005e-01,-4.439264491763341702e-01,5.526818857700049187e-03,-8.596798980029228890e-03,-2.698561867396340446e-03,1.779655963182449341e-01
-2.711399119781974787e-01,-4.533321332231208256e-01,-4.531244215225679328e-01,1.659470550109608386e-03,-1.268072957393267825e-03,-2.939101831569078632e-04,1.821250915527343750e-01
-2.755304513261789268e-01,-4.599068403597565968e-01,-4.604590263856551680e-01,2.232234921064374118e-03,-1.611871913642406052e-03,-2.000641870329289740e-05,1.847146749496459961e-01
-2.760617016221255104e-01,-4.614949135905749289e-01,-4.580872784283303023e-01,5.484566844522969532e-03,-8.890471836588299120e-03,-1.362899858084926563e-03,1.846567988395690918e-01
-2.725577133117393913e-01,-4.548912249527436447e-01,-4.575249630444484517e-01,2.003228087143020791e-03,-1.336334400083393501e-03,-9.575266978474772535e-05,1.837119758129119873e-01
-2.777838285294546017e-01,-4.635606090359257747e-01,-4.205342291591641635e-01,-2.115243810906822230e-02,5.871480641316541293e-02,-2.851938014117126260e-02,2.061446309089660645e-01
-2.833475010943645733e-01,-4.525627039651276551e-01,-3.883799519062341443e-01,-6.586278197046479925e-03,-1.515644201262719183e-02,1.004927161631692656e-02,1.517061889171600342e-01
-2.714971560722465593e-01,-4.743536015016265317e-01,-4.636297747179438655e-01,-8.542638787456976329e-03,2.981928021091233977e-02,-9.563284759923512159e-04,2.048891931772232056e-01
-2.901575732438936850e-01,-5.020900631484657151e-01,-4.852553845528992382e-01,-1.528301265717189883e-02,2.277837595825677602e-02,-9.068453981477946416e-03,2.100832164287567139e-01
-2.510399213061481616e-01,-4.665528163644787618e-01,-4.274780930674791923e-01,-9.827440741209723593e-03,3.873379879948420784e-02,9.251408037315264783e-05,2.105759233236312866e-01
-2.805335680108320129e-01,-4.510330704724340167e-01,-4.507340149096089599e-01,4.714229522163116467e-04,7.184036543334124851e-04,4.678865927154721881e-05,1.703566908836364746e-01
-2.751306478374632158e-01,-4.878125081026801757e-01,-4.606174688817763485e-01,-1.064866823463127103e-02,2.974011712316614389e-02,-7.291075461472333380e-04,2.078086882829666138e-01
-2.807284996785646136e-01,-4.382785929130665892e-01,-3.990429279901399617e-01,-9.210783633563196862e-03,-1.103389954669677271e-02,7.427318792027347814e-03,1.447934359312057495e-01
-2.709854439354204003e-01,-4.284435943038952255e-01,-4.245416078708161289e-01,-9.029513667665108392e-03,9.538264480380944516e-03,-4.617741964976111030e-03,1.574020236730575562e-01
-2.715439868688592773e-01,-4.483732521565270690e-01,-4.429545520424835736e-01,-4.395180114980370110e-03,5.223979178516685064e-03,-1.006345937489936228e-03,1.745927482843399048e-01
-2.726353392285931765e-01,-4.471212380970326916e-01,-4.477285463366036944e-01,-1.964216123582451529e-03,2.220672256962416113e-03,-1.279569158086250403e-03,1.748798042535781860e-01
-2.677041373582887962e-01,-4.367269336507667576e-01,-4.367840239947677894e-01,-4.196616194964030398e-03,4.690043782432265322e-03,-2.363123043521448124e-03,1.694518625736236572e-01
-2.776563648887788727e-01,-4.408125744261080503e-01,-4.329601786548493147e-01,-1.098404272964086624e-02,8.842126643997409718e-03,-6.811734695157075845e-03,1.616667509078979492e-01
-2.745318403460676460e-01,-4.452343924400785635e-01,-4.465261546224139066e-01,-2.234596882026101180e-03,2.496133581850041444e-03,-2.087182120529181559e-04,1.714506894350051880e-01
-2.487972296395166150e-01,-3.488376980205451505e-01,-3.875737592816982935e-01,-4.768436759582675433e-02,3.597761767727488541e-02,-5.265767789523749520e-02,1.854907274246215820e-01
-2.985716790322062164e-01,-4.512550762798746562e-01,-4.370102900169530180e-01,-1.656775635769591054e-02,2.901487697505063940e-02,-2.342351678339549964e-02,1.622813493013381958e-01
-2.776517542721094745e-01,-4.399376408389529258e-01,-4.738373160981900201e-01,-4.494414592922067048e-02,1.544212886052562413e-02,-2.301060248917173590e-02,2.033497095108032227e-01
-2.755708463986266676e-01,-4.261513826450237241e-01,-4.370137119980924689e-01,-1.389576441983869301e-02,1.407222345242118908e-02,-9.550872995905856228e-03,1.608575731515884399e-01
-2.761739293524278493e-01,-4.190231149922600817e-01,-4.410629027724675688e-01,-1.843100761339559399e-02,1.192298028959373410e-02,-2.399551094181936670e-02,1.649634540081024170e-01
-2.876092304213099804e-01,-4.485105227693172991e-01,-4.645375169940583193e-01,-1.794899721716234145e-02,1.589166162561669524e-02,-3.769528818613560907e-03,1.746184825897216797e-01
-2.787146500425491391e-01,-4.680127830448893578e-01,-4.690299245177172449e-01,-3.798965216822426400e-03,-7.498484950023331843e-04,-2.354716094385589809e-04,1.899276375770568848e-01
-2.697153861377530326e-01,-4.533691846924559066e-01,-4.514297974002170477e-01,-1.486829175557496333e-03,-1.551207289899908743e-03,-3.352624770113440695e-04,1.827306449413299561e-01
-2.623946412688383800e-01,-4.050112941808996503e-01,-4.467035166577994487e-01,-2.015034995980035520e-02,8.471276143179174919e-03,-7.027250845744121947e-03,1.720619052648544312e-01
-2.514117906891284449e-01,-4.129801929385881754e-01,-4.222200663954662203e-01,-6.217102243824469687e-02,-4.743012914279044062e-02,2.580348493830195850e-02,2.191451936960220337e-01
-2.939809875060651057e-01,-4.128195123071498052e-01,-4.373668291415286347e-01,-1.029952625852943726e-02,-2.293770719904406064e-02,2.287246158436009869e-02,1.452874243259429932e-01
-2.847396779744260087e-01,-4.053032024104163411e-01,-3.455610281661439243e-01,-1.148210767919165612e-02,-1.213530203216426316e-02,3.866014307079713996e-02,1.273699253797531128e-01
-3.190207860527410899e-01,-4.825830781247997248e-01,-4.598660791651201785e-01,-1.890613006843026161e-02,-3.122062223999702221e-02,2.474760803869255690e-02,1.714260131120681763e-01
-3.156707507898953713e-01,-4.816090161620915078e-01,-4.563180256539679513e-01,-1.939474184338702001e-02,-2.958362784798634557e-02,2.398264304968827573e-02,1.716331541538238525e-01
-3.039277018432697819e-01,-4.433249615828406265e-01,-4.441766058641521964e-01,-8.234020579948845772e-03,-7.239498456311323389e-03,9.750153727924849856e-03,1.421156674623489380e-01
-3.002803428562791366e-01,-4.367028056445553252e-01,-4.206002975243937070e-01,-4.758662416501371201e-02,-3.570099959629625952e-02,5.471378538724541024e-02,1.904509812593460083e-01
-3.137715040673354494e-01,-4.457757540990419654e-01,-4.131795594778223113e-01,-3.085633040091686694e-02,-2.561922807459028964e-02,7.221839189477045895e-02,1.861629933118820190e-01
-2.686932906013172473e-01,-3.512709942027596455e-01,-3.609148356069851182e-01,-2.975749254588097928e-02,-2.476401950891907525e-02,6.234674816371753997e-02,1.544865518808364868e-01
-2.709288536055269314e-01,-4.308933329462662498e-01,-3.763257586259639020e-01,-1.506926314426662930e-02,-2.730483034265280412e-02,1.988729580432065797e-02,1.547313928604125977e-01
-2.858093105676005607e-01,-4.726117015539151867e-01,-4.636386874419751725e-01,6.022610641157261687e-04,-2.661382177808353441e-03,2.150078964749467525e-03,1.825805902481079102e-01
-2.839520277025942563e-01,-4.909341766898733805e-01,-4.746742946483960002e-01,-6.941006504342280177e-03,-1.217709446574465927e-02,5.679469608556375138e-04,2.008253782987594604e-01
-2.876172935630078031e-01,-4.738602090864605931e-01,-4.726135970360060279e-01,-7.561537431646229079e-04,-1.516650038327752893e-03,-4.124015120277100643e-04,1.856473237276077271e-01
-2.983273202917162137e-01,-4.777753014932544784e-01,-4.799679294357255821e-01,-1.430029491122035814e-03,-7.037924454163404023e-03,1.096866470485487752e-03,1.809922307729721069e-01
-3.001634086139564617e-01,-4.732982816609682120e-01,-4.765215347276049451e-01,2.629962216638994515e-03,-6.865653544105947137e-04,-3.864364621585313075e-03,1.749602705240249634e-01
-2.918273428723305307e-01,-4.774682422462613318e-01,-4.796738936256904617e-01,9.540333481529527206e-04,-3.103071219450577282e-03,2.064382758472137983e-03,1.868723332881927490e-01
-2.904708713432133105e-01,-4.817716138244393376e-01,-3.794602608041849900e-01,1.645230583094684645e-02,-8.424393455421841370e-02,-8.579907742935525064e-03,2.231935262680053711e-01
-2.413299015215612520e-01,-4.569244282342127539e-01,-2.311117356136294654e-01,-7.636104396867195686e-03,-9.802023895235285889e-02,1.812937848018352990e-02,2.806657254695892334e-01
-2.494663260296069718e-01,-4.423174894246372224e-01,-3.689359815176868063e-01,-3.678918060737156395e-03,-5.114774624200404268e-02,9.727240080384912113e-03,1.913045793771743774e-01
-3.069078929796439925e-01,-8.389727846242657217e-01,-7.406616116143647233e-01,-4.040818977805313295e-02,1.538210060471669749e-01,-1.894165160127615766e-02,5.633895397186279297e-01
-3.158422224824454227e-01,-4.545136351486729898e-01,-4.629116769596471892e-01,2.335779485427333380e-02,-1.899170632269590528e-02,-3.512583687579126646e-02,1.639668941497802734e-01
-3.044481847374816974e-01,-4.329431130991681087e-01,-4.561678793786957953e-01,3.195709019869118900e-02,-2.553004093847905526e-02,-3.805687904230926899e-02,1.714604794979095459e-01
-2.781475765720296534e-01,-4.007656577667706443e-01,-4.062532136406247218e-01,2.908804675163690831e-02,-3.470778471935436621e-02,-4.669484545427766281e-02,1.686168462038040161e-01
-2.579926779800350012e-01,-3.893029447428551504e-01,-3.843895495782338467e-01,3.324120272235222412e-02,-4.683707451562878210e-02,-5.134985568499735031e-02,1.855473965406417847e-01
-2.952793325637596000e-01,-4.395392971649070835e-01,-4.869916737167835352e-01,7.221611571348204861e-02,-3.871234162964352216e-02,-5.119485028144803856e-02,2.406497895717620850e-01
-2.737509482179940612e-01,-4.315905561918323419e-01,-4.561384855208074907e-01,2.635821548135116807e-02,-2.384341784739982956e-02,-2.287904036764444940e-02,1.864154487848281860e-01
-2.497983796796693357e-01,-3.332704254718049652e-01,-3.869348164142435431e-01,4.733172490210855315e-02,-3.054181958933633451e-02,-5.871059689332676357e-02,1.848973035812377930e-01
-3.054057923709142530e-01,-4.838495574885867123e-01,-4.868775711815173102e-01,-1.489053037942148394e-04,1.151119353632759071e-03,-3.865773945914739522e-04,1.799893528223037720e-01
-2.957991318263076819e-01,-4.243583217954200459e-01,-4.519388150068981980e-01,2.468774201290802051e-02,-2.750195421287444930e-02,-2.736512298313300770e-02,1.648573726415634155e-01
-2.809595891680978230e-01,-4.386415595135410572e-01,-4.292365990764400729e-01,2.063007885415336223e-02,-2.528986743451442157e-02,-1.481452571582738201e-02,1.652967184782028198e-01
-2.680021891234701803e-01,-4.549344543660153173e-01,-4.608736160891010458e-01,1.793427524815417035e-02,-3.905737173526275651e-03,1.901715029443374391e-03,1.926413625478744507e-01
-2.915406918709515516e-01,-4.061046013685391531e-01,-4.316866765130537020e-01,1.705636092606436366e-02,-1.849073791024759966e-02,-1.660064150263773630e-02,1.394106894731521606e-01
-2.761055393143931891e-01,-4.226416854772505061e-01,-4.277768971326206815e-01,8.661730209004538800e-03,-8.291314749703257089e-03,-6.166028318313651092e-03,1.509870290756225586e-01
-3.025858549660179753e-01,-4.951076393643019657e-01,-5.319941172332702806e-01,1.760159277381406762e-02,9.584758809564806331e-03,1.690068110743309093e-02,2.181482315063476562e-01
-2.975272194516853097e-01,-4.290357257177694894e-01,-4.269409478271365410e-01,9.374119261970686665e-03,-4.198200478848029826e-03,-7.680886149429070296e-03,1.323513537645339966e-01
-2.932631291409000251e-01,-4.978308442535296363e-01,-5.021961209268144266e-01,-1.482872443722576053e-02,6.653726559921043990e-03,-6.887710591324289026e-03,2.090330421924591064e-01
-2.801759875182389670e-01,-4.730732285812755400e-01,-4.902059012969797180e-01,-2.538091226102107481e-02,-4.138535527702174970e-03,3.798997827865293383e-03,2.069661170244216919e-01
-2.741698796113111181e-01,-4.474552641472708259e-01,-4.474103723724615067e-01,-4.205375927161608359e-04,5.196322148229645535e-04,7.110775574153855867e-05,1.732668578624725342e-01
-2.698407609849135524e-01,-4.448237010056911855e-01,-4.653600709989396123e-01,-1.147659256728965176e-02,-1.185275775415535774e-03,2.047801581210324361e-03,1.872063577175140381e-01
-2.633186954117605061e-01,-4.366034065574985745e-01,-4.513472249107147727e-01,-1.155914570286911691e-02,-1.433509048702403025e-04,-9.457204377182617204e-05,1.822108179330825806e-01
-2.744766074084852292e-01,-4.629254425571270315e-01,-4.689855080766068274e-01,-9.451293291622531179e-03,-2.695728455490859106e-03,-6.681388117154743282e-04,1.923091858625411987e-01
-2.654208059209078874e-01,-3.983277534630120242e-01,-4.496192831903931264e-01,-2.582937586637974389e-02,1.599355240596542693e-03,-2.551624795798669316e-03,1.707066297531127930e-01
-2.739436671325758965e-01,-4.598748677607708557e-01,-4.643022217158270237e-01,-1.000664043719331521e-02,-1.916484505498993829e-04,4.360246541314309588e-04,1.889822036027908325e-01
-2.525546578816714183e-01,-4.134050235965603948e-01,-4.469594110633142714e-01,-2.529875069136162599e-02,-3.089896772883902673e-03,2.601946399797740866e-03,1.853780001401901245e-01
-2.846874945871393781e-01,-4.344851896149204418e-01,-3.948165344802113674e-01,-1.351427007661959619e-02,1.633083273096998245e-02,-1.464639534786488055e-02,1.416411846876144409e-01
-2.840063477664261926e-01,-4.101874729062336966e-01,-4.083244907271451618e-01,-5.858771519342105376e-03,5.062096370840442859e-03,-1.008048093528420182e-02,1.271800845861434937e-01
-2.989579028378666070e-01,-4.777640301053477367e-01,-4.779301945189314837e-01,-3.062138049390367503e-03,1.101667706520515454e-03,-6.280336466014000904e-04,1.789813488721847534e-01
-2.760979427665476438e-01,-4.711867931142043053e-01,-4.715510163315828063e-01,-8.837558864696056643e-03,-1.239200629575757870e-02,1.771876043038884876e-04,1.970429718494415283e-01
-2.758303340272550419e-01,-4.654266632586238073e-01,-4.619886795554247194e-01,-2.587035813640029599e-03,-1.105502098557128825e-02,3.475027125257303335e-04,1.889281272888183594e-01
-2.987253653418738275e-01,-4.773948471524865900e-01,-4.782219980751462041e-01,-2.082442131753022875e-03,1.950133227779065519e-03,-6.993109119186061368e-04,1.791567504405975342e-01
-2.952879885578817420e-01,-4.112349713648885685e-01,-4.290924417010481551e-01,-1.550568337703280529e-02,1.662725293965042553e-02,-1.584766880635918307e-02,1.346745491027832031e-01
-2.901472828173962126e-01,-4.173553425891933788e-01,-4.128576129491282609e-01,-9.984793272161146538e-03,7.928028627722334340e-03,-1.165177026553593925e-02,1.285492628812789917e-01
-2.804687349003822661e-01,-4.344805704063999796e-01,-4.436273720056807535e-01,-8.741957308226541365e-03,1.162604694459936500e-02,-5.393180734586485413e-03,1.610404998064041138e-01
-2.748926374884638202e-01,-4.217443648648901977e-01,-4.420201579238020040e-01,-1.582711512176898649e-02,1.438873119863918679e-02,-8.929343771169452257e-03,1.629904061555862427e-01
-2.955187684192578379e-01,-4.354285538120064025e-01,-4.492163138132733158e-01,-6.512628462094533985e-03,8.731241277201078760e-03,-6.271353720768712420e-03,1.488886475563049316e-01
-2.653524959421749152e-01,-4.604713358540219459e-01,-4.619933961488115748e-01,-2.512697709241379015e-02,-3.664941242408051303e-02,4.747710377395292572e-03,2.106226831674575806e-01
-2.793602881036497121e-01,-4.564702363704551402e-01,-4.510276862727716773e-01,-2.887287495318282063e-02,-2.595686724067492249e-02,1.502503149738899056e-02,1.887672841548919678e-01
-2.831936738550775434e-01,-4.758791890891446164e-01,-4.841305491969655206e-01,-1.045561204102919174e-02,-1.233782438736130520e-02,7.771291663175537538e-03,1.993778198957443237e-01
-2.933294609275388654e-01,-4.919207377712707663e-01,-5.008608888942379656e-01,-7.867343728532790251e-03,8.783602154443042286e-04,-3.422868868755370511e-03,2.037572264671325684e-01
-2.933849968352927329e-01,-4.811650213052098279e-01,-4.957360415476753102e-01,1.493315541569230527e-02,-3.090091398192404502e-03,2.276939437417875751e-03,1.972891092300415039e-01
-2.803696075824542167e-01,-4.556234998918395340e-01,-4.628189043622746857e-01,-1.970065168613948162e-02,-1.573649745401523720e-02,2.578589829714857638e-03,1.842659264802932739e-01
-2.863314556415252898e-01,-3.943735526412177617e-01,-4.470285781658862034e-01,-1.960636137037587157e-02,-9.698565137519368426e-03,2.204454757847171265e-02,1.517494916915893555e-01
-2.733747284722465309e-01,-4.519285976495984736e-01,-4.708529767373016428e-01,-1.234209140906025390e-02,-5.152606500048250750e-03,3.074193686700017400e-03,1.902199238538742065e-01
-2.742232518181967893e-01,-4.525914827382047090e-01,-4.524179056213097905e-01,1.132129854084481689e-03,-4.948888183100532594e-04,1.942705250665160857e-04,1.782946735620498657e-01
-2.690451192849301343e-01,-4.456098593567744404e-01,-4.542353468124880056e-01,-8.542360688989475426e-03,-8.248495565718771960e-03,3.557180562348132534e-03,1.823004484176635742e-01
-2.948365227838382618e-01,-4.143443906275370847e-01,-4.259507040059278271e-01,-1.485485230163484209e-02,-1.708939441448913826e-02,2.434844287977782837e-02,1.382771283388137817e-01
-2.923571531099116161e-01,-4.273080410569797816e-01,-4.103367374718253080e-01,-8.657319465093916630e-03,-5.711191443805109860e-03,7.022812559562792607e-03,1.291515976190567017e-01
-2.043403215288192853e-01,-4.323016379850251334e-01,-4.846831299348430822e-01,5.890817948431732037e-02,-5.381316395919440165e-02,-3.225097336498002065e-02,2.981100380420684814e-01
-2.892964250907302248e-01,-4.714913881181832522e-01,-4.616605906693884709e-01,-1.393642177054546689e-02,-1.689268846365231391e-02,4.919559817895291856e-03,1.816917508840560913e-01
-2.777572485901299015e-01,-4.633059004855231144e-01,-4.372064907230872044e-01,-1.452957167077967987e-02,-3.161939989585403621e-02,2.335523503454407443e-02,1.885095685720443726e-01
-3.268975505003358095e-01,-5.025853419610718520e-01,-4.285103214998713939e-01,-3.138630832500239470e-02,-7.590075162732966285e-02,5.694889481543806420e-02,2.308827340602874756e-01
-2.874394348901443963e-01,-4.290246182507720940e-01,-4.412706835140715600e-01,-1.292870198827299200e-02,-1.770561149215836919e-02,1.173876019304776960e-02,1.542255133390426636e-01
-2.853869491255105473e-01,-4.565539310391771854e-01,-4.560202267378196672e-01,-1.310004367506665060e-02,-1.530316225086696992e-02,4.201040171787764205e-03,1.745778024196624756e-01
-2.743498902374472692e-01,-4.738552936700689555e-01,-3.777678362678227320e-01,-3.974668096033080050e-02,8.205421482950842060e-02,-2.907361368252115233e-02,2.394559234380722046e-01
-2.722660372656631189e-01,-4.775893950268449983e-01,-4.557764744028345305e-01,-1.786127416767914478e-02,4.344016097542961752e-02,-3.957043198299644432e-02,2.224195599555969238e-01
-2.637641753933431810e-01,-4.529057128390719389e-01,-4.468303070418202516e-01,-2.581345268735371623e-02,2.834395515552993669e-02,-2.463199759690853571e-02,2.022168785333633423e-01
-2.909193073279536801e-01,-6.478840116153510298e-01,-5.962026397089588148e-01,1.908370333975805549e-02,-1.412831569233686246e-01,2.421459293202025617e-02,4.175891876220703125e-01
-2.965041448466502749e-01,-5.343802585282032558e-01,-5.436007626774227441e-01,-3.490124776167702336e-02,-4.750184828070701248e-02,2.436402408989743820e-02,2.665854096412658691e-01
-3.598133844086966460e-01,-7.033281465832286194e-01,-8.056532984306608025e-01,-1.847446943415064768e-01,-7.087646247505938191e-02,6.718657349128377698e-02,5.427958965301513672e-01
-2.737285031017034354e-01,-5.756221771710234858e-01,-5.287694736567182252e-01,-1.448425354334764714e-01,-8.914865025840214285e-02,5.565701265533151004e-02,4.186455011367797852e-01
-2.317737070355042339e-01,-5.384024080465459328e-01,-3.517063786773504397e-01,-2.100833286073653869e-02,-1.077603882365209126e-01,3.551449048627133148e-02,3.340284526348114014e-01
-2.487216676121870584e-01,-4.718248741131694790e-01,-4.445493368389590305e-01,-3.808127839221440297e-02,-5.712389478261137299e-02,3.838285717957022614e-02,2.509849369525909424e-01
-2.334525837564462025e-01,-4.824268820539383551e-01,-4.266850093513653297e-01,-5.471136577726568723e-02,-8.285168631546371842e-02,2.339972337155142579e-02,2.871113121509552002e-01
-2.569105557572878284e-01,-4.975400431378441124e-01,-5.114408275916474400e-01,-1.085683015067077511e-01,-1.315387174824536598e-01,1.408012099015588658e-01,4.562720656394958496e-01
-2.614905139943854429e-01,-4.134939786226061176e-01,-4.253747773372489882e-01,2.341438120588778052e-02,-1.951569671039739620e-02,-2.093984368410379063e-02,1.707479059696197510e-01
-2.875719082600208254e-01,-4.240527058560653040e-01,-4.237104912392735678e-01,7.357503463663297473e-03,-5.863927659110645951e-03,-7.766805387103687536e-03,1.379381865262985229e-01
-2.810904413645860522e-01,-3.918129931363983909e-01,-3.849280736391622604e-01,2.329817547492799706e-02,-2.867600928566435212e-02,-5.153352576964726622e-02,1.536458134651184082e-01
-3.039866802885302088e-01,-4.437262305441225241e-01,-4.126890473359586253e-01,1.629128062745927030e-02,-1.372437079365575359e-02,-1.788284749818888977e-02,1.359191238880157471e-01
-2.967077793506583960e-01,-4.012807583176123960e-01,-3.992661033636420442e-01,3.209960641369921999e-03,-4.404577928513428269e-03,-1.541042262477154701e-02,1.073799058794975281e-01
-3.114444261393328750e-01,-4.315328589480084132e-01,-4.160602130402276666e-01,4.516200113806097087e-03,-4.149716635682049008e-03,-1.806009316574328644e-02,1.178723797202110291e-01
-2.734604965825029321e-01,-4.465510687981984472e-01,-4.492727645555424365e-01,-1.498757626323192179e-03,-1.858736451055283991e-03,-1.962700439513175368e-04,1.745166778564453125e-01
-2.890296087554778959e-01,-3.995801774549926910e-01,-4.172029990634350538e-01,1.755595945309518582e-02,-1.227231890994293952e-02,-1.623587135815739158e-02,1.290251165628433228e-01
-2.910899210507386092e-01,-4.104448181707616716e-01,-4.275365726753830864e-01,3.387203832701498555e-03,-9.177609662890797576e-03,-7.820897123955807689e-03,1.305691748857498169e-01
-3.126688182251331494e-01,-4.148127328602636554e-01,-4.279914737912613454e-01,1.168236869028076164e-02,-9.982946269443839990e-03,-1.961808798335925447e-02,1.175423562526702881e-01
-2.930575854114434442e-01,-4.249801404617212786e-01,-4.253462192760544269e-01,7.072992556388286306e-03,-5.469394296673576149e-03,-5.022804645662196088e-03,1.332947760820388794e-01
-2.931775960673350112e-01,-5.379147729854696358e-01,-5.102054302260952134e-01,1.276997042103680466e-02,5.577550171713004795e-02,-2.524020022098378332e-03,2.524354159832000732e-01
-2.626129126533159885e-01,-4.320066584915333574e-01,-4.572525771338873946e-01,-1.599556376483872444e-02,4.351081866520198176e-03,3.237459186230974909e-03,1.856445819139480591e-01
-2.815318422928060338e-01,-4.744437714796168604e-01,-4.790630636227592443e-01,-1.320827147411207832e-02,4.420650970927587388e-03,-4.863537336283345162e-03,1.969274729490280151e-01
-2.615145012913067113e-01,-4.191237003740946876e-01,-4.538150599523937956e-01,-3.703260398181869306e-02,-1.048397500402434637e-02,5.726231850621278305e-03,1.898793876171112061e-01
-2.752474191093362554e-01,-4.594491769707272355e-01,-4.562951033082439656e-01,-3.310126517804305116e-03,-2.574216261779390530e-03,-1.326000625861733671e-03,1.828039288520812988e-01
-2.752005121419283107e-01,-4.615013025475755981e-01,-4.697060554065032867e-01,-2.101021671596395995e-02,1.955320993218575415e-02,-1.211683976414859240e-02,1.980292350053787231e-01
-2.720584553219970170e-01,-4.502624874782117925e-01,-4.593411350172350027e-01,-1.149015478831694193e-02,1.728547301602934017e-03,-1.739124911308142759e-03,1.840409189462661743e-01
-2.904830529280271190e-01,-4.623690116685413298e-01,-4.845540260554709322e-01,-2.214821853282422995e-02,1.334365638789702761e-02,-1.002977935714692743e-02,1.901521235704421997e-01
-2.819463932218413404e-01,-4.437963594823407520e-01,-4.366547744604621362e-01,-1.215595460909403049e-02,1.252132912294569127e-02,-7.278344854018633549e-03,1.617501974105834961e-01
-2.607578742964156149e-01,-4.604160872981421515e-01,-5.093457826405310973e-01,-3.554409101503722829e-02,1.898361039087866770e-02,-1.196874815607169374e-03,2.385420501232147217e-01
-2.735693249760728918e-01,-4.529998777222415951e-01,-4.511438621063677545e-01,-9.896821585865067487e-04,3.364437632744342885e-05,-2.000361098267338419e-04,1.785183548927307129e-01
-2.782756858580318626e-01,-4.665008676039336111e-01,-4.523371723857615989e-01,-1.841819606598095807e-02,-2.033884952925815379e-02,4.580266238875001748e-03,1.878430098295211792e-01
-2.874732454078186006e-01,-4.843207966182551116e-01,-5.082976940161694213e-01,-2.955431133178205647e-02,-5.053159691489916838e-02,3.809863677277957467e-02,2.422371953725814819e-01
-2.791175202922452359e-01,-4.802407677480926562e-01,-4.595629967611249977e-01,-5.842481443042936602e-03,-1.216175516496793667e-02,4.532342875628707531e-03,1.932022422552108765e-01
-2.355481376203228394e-01,-4.247272739285454235e-01,-3.836271036361783016e-01,-2.463321649689034776e-02,-4.851431327793304105e-02,3.104576748117794313e-02,2.036553323268890381e-01
-2.547513679717178237e-01,-4.725203965529760630e-01,-4.025065007050177002e-01,-2.155042658695587379e-02,-5.120563655505621509e-02,2.259829902291843676e-02,2.187916785478591919e-01
-2.700437360020762623e-01,-4.519357536533074593e-01,-4.084233412198860491e-01,-4.774830861123062486e-03,-2.408387490401140557e-02,4.847701667634512178e-03,1.701248735189437866e-01
-3.327664494317554844e-01,-5.400476878970645878e-01,-4.587104383271118913e-01,-2.157363968887271791e-02,-6.029832520449263100e-02,3.414706498076946345e-02,2.202806621789932251e-01
-2.538124389660757485e-01,-4.666320527302141308e-01,-3.973055205762325848e-01,-6.425076318776493101e-03,-4.175566037127841773e-02,8.384028280583261453e-03,2.022613137960433960e-01
-2.698235235339109805e-01,-2.416973485147304590e-01,-3.980993963821381487e-01,-5.963096259044558395e-02,2.739899669806501736e-02,-9.522056090322889021e-02,2.469296008348464966e-01
-3.433613155157616004e-01,-3.440414138370606056e-01,-5.296637832884911745e-01,-4.885317817230145666e-03,2.749851649925484295e-03,-3.133338452326910051e-02,1.939639002084732056e-01
-3.451159955141266389e-01,-3.596286498319173908e-01,-5.381624633482003928e-01,-2.586840457760577680e-02,1.439273873650830093e-02,-2.814885440577178516e-02,1.992033869028091431e-01
-3.146776154314445129e-01,-3.990909671021670158e-01,-4.765160972346339507e-01,-2.600084603978962058e-02,8.143536492928744527e-03,-2.525831403901546840e-02,1.542627960443496704e-01
-3.407054933624065196e-01,-3.781848549106849866e-01,-5.304129304537651413e-01,-3.351393353305655992e-02,-2.547937498613552583e-04,-2.456304180875249280e-02,1.883169561624526978e-01
-2.984485983949631827e-01,-3.061976893366941121e-01,-4.589418915309618763e-01,-3.325328873322324491e-02,2.282809280643951447e-03,-1.063969941749894760e-02,1.680686026811599731e-01
-3.338404286045258407e-01,-3.538973985045700266e-01,-4.777425599815888768e-01,-3.111902941949009488e-02,1.682632925038217778e-02,-3.531877266282374556e-02,1.603766530752182007e-01
-2.951658477928849611e-01,-3.395833532797895016e-01,-4.468779543836047252e-01,-1.127827556181488708e-02,5.863041884843424485e-03,-1.917512717860201180e-02,1.408495157957077026e-01
-2.732627575581891288e-01,-3.076808303915734011e-01,-4.063352113563832857e-01,-3.548857997605574244e-02,1.365943998715934450e-02,-3.754812625332934473e-02,1.512627750635147095e-01
-3.223598258035882402e-01,-4.316896002430762325e-01,-4.298459304242344126e-01,1.560177114698126609e-02,1.027919720554297880e-02,4.203728821751388095e-02,1.345491111278533936e-01
-2.740714498550433365e-01,-4.562051241249558964e-01,-4.618098073831578554e-01,-1.289939070394550795e-03,4.677046440592790466e-04,1.172039011298159610e-03,1.850261092185974121e-01
-2.696446967625647506e-01,-4.581918099081928597e-01,-4.612563615922650184e-01,-1.098074543606052285e-02,2.052828682276464523e-03,1.156336469814417183e-03,1.910905539989471436e-01
-2.773594564330598700e-01,-4.629615636639866083e-01,-4.686338845974987732e-01,-1.216029616590032225e-02,7.839989758126575739e-03,-4.201165641024143249e-03,1.902999579906463623e-01
-2.802153830866244699e-01,-4.663642376933894163e-01,-4.678207080119337058e-01,-1.629730855241935238e-03,8.750090238695704343e-04,1.598042513299530306e-03,1.869293004274368286e-01
-2.765192812389069554e-01,-4.632705181785091719e-01,-4.632703443200598681e-01,-1.870869514318303489e-03,2.046077876873093546e-03,4.083642951840401160e-04,1.868142187595367432e-01
-2.883729249466019939e-01,-4.201539245895679620e-01,-4.633116049592029828e-01,-2.704545870920269449e-02,-1.632847274916570529e-02,3.025046608297011705e-02,1.750876307487487793e-01
-3.203001191659595182e-01,-4.580096332698563866e-01,-4.821210568926782014e-01,3.285704438990637299e-02,-2.219621741469601089e-02,-2.402031918266258476e-02,1.712113916873931885e-01
-2.692374206303373985e-01,-4.174458048442238889e-01,-4.524591836459263550e-01,1.915998041412513703e-02,-7.252562170201306765e-03,-3.116642132154705779e-03,1.722474694252014160e-01
-2.998666203873925906e-01,-4.688874651597497167e-01,-4.929952066148599599e-01,3.424853336689571981e-02,-4.031208550979993067e-03,-2.273305385762077434e-03,1.918517202138900757e-01
-2.993468857644677739e-01,-4.768164555030529606e-01,-4.832108535097264235e-01,1.342432727207740900e-02,-1.328874050647751472e-02,-1.375584672898274609e-02,1.852274984121322632e-01
-2.735147047358740813e-01,-4.202160181527576088e-01,-4.510069930349162592e-01,1.461882801014199526e-02,-1.286173996647150750e-02,-8.585269067286479747e-03,1.683596223592758179e-01
-2.621260566375739343e-01,-3.590659223827845636e-01,-4.603090572135061787e-01,5.344285192779363314e-02,-2.109157354589716662e-02,-1.639156250479577304e-02,2.004271298646926880e-01
-2.589390372946039909e-01,-4.356880898020294435e-01,-3.392349370871127756e-01,2.263251003025769717e-02,-4.082851893609704130e-02,-3.063191425743536089e-02,1.812400966882705688e-01
-2.870347863014554024e-01,-4.397262335543244416e-01,-3.229049209846194257e-01,1.801594460892777527e-02,-3.508169594205928776e-02,-2.725404997778605592e-02,1.613026112318038940e-01
-3.231449097004353566e-01,-4.750798584604831176e-01,-3.743279603130127420e-01,1.580717644313746340e-02,-4.899197989454021074e-02,-3.329883208526780020e-02,1.708921194076538086e-01
-3.078187067572997759e-01,-4.884921030433529432e-01,-4.335697366047236434e-01,1.821152443012807182e-02,-2.726671201617774515e-02,-1.730791348494063395e-02,1.728016883134841919e-01
-3.212378181390916909e-01,-4.888065334340943036e-01,-3.972850637267140717e-01,1.023915509321906246e-02,-2.213368874705313669e-02,-8.269078212795800964e-03,1.520153731107711792e-01
-2.791411061510767344e-01,-4.436606691739813924e-01,-4.468273356983871736e-01,-1.456682468161224313e-02,-1.125257290397412360e-02,1.332407969630074532e-02,1.707241237163543701e-01
-2.799133298051104113e-01,-5.004348795020530094e-01,-4.628614061095714938e-01,3.564189529659728128e-02,-3.351736910694134292e-02,-2.775169935664309126e-02,2.263791263103485107e-01
-2.591784041383478066e-01,-4.611785126083163822e-01,-3.555317301349180670e-01,9.605500611234258843e-03,-4.269892885769711877e-02,-6.192721610878151872e-03,1.910132616758346558e-01
-2.738309628906100968e-01,-4.816696587964186538e-01,-3.854856091867731593e-01,8.457966279589831243e-03,-4.247737921554775586e-02,2.399422312031265856e-03,1.951983422040939331e-01
-2.740969769951071000e-01,-4.069609761079002741e-01,-2.720865713069740011e-01,1.538069515233572541e-02,3.245022985934768733e-02,5.140408405418089854e-02,1.723945587873458862e-01
-3.306399384533410535e-01,-4.745923508984726258e-01,-3.823894291763107467e-01,1.295217609474744701e-02,2.262398880806756538e-02,3.423076222257624701e-02,1.466454565525054932e-01
-2.519482011650545639e-01,-4.288045009088600201e-01,-3.740594987649727421e-01,2.266366062963173431e-02,4.727055986871631088e-02,2.515049327999736850e-02,1.863739490509033203e-01
-2.660631052571623134e-01,-4.693123955210833920e-01,-4.334677464915980827e-01,-8.642152132540504780e-03,3.750194319799664971e-02,-7.417236465531275649e-03,1.997949182987213135e-01
-2.748847989632116073e-01,-4.560714506884504527e-01,-4.567302677963629431e-01,-5.502038726421946795e-03,6.670518386572392433e-03,-1.841536746165632653e-04,1.821340471506118774e-01
-2.694558228513998510e-01,-4.476835762335377722e-01,-4.425527988677021574e-01,-5.140474366496597738e-03,6.239312062962167928e-03,-2.222043596805506858e-03,1.763175576925277710e-01
-2.777163267751459053e-01,-4.649992200541501197e-01,-4.585149317003046621e-01,-1.131134099434909224e-02,9.959416334173406410e-03,-2.819908845640365768e-04,1.859682202339172363e-01
-2.844543340648627017e-01,-4.699255278777771938e-01,-4.735248171040739584e-01,-6.128017319401775354e-03,3.858486858780197509e-03,2.189724026811326694e-03,1.877546012401580811e-01
-2.943777601431122326e-01,-5.348440554619962040e-01,-5.540964692476448850e-01,-3.109664861365825372e-02,2.149110605115025704e-02,-9.699340781256388447e-03,2.596018016338348389e-01
-3.242966694938498318e-01,-5.881554977757624814e-01,-5.737307778568903061e-01,9.421090511292537842e-03,2.666735432179726667e-02,-7.783822615201880027e-03,2.619254589080810547e-01
-3.084557782482537647e-01,-5.457567212603574580e-01,-5.536129487996894749e-01,-4.154119644800427849e-03,2.373371287735540416e-02,-1.037227833405419703e-03,2.449134737253189087e-01
-2.975378532309116975e-01,-5.034193662237222977e-01,-4.649031618854032044e-01,9.123260112059817378e-03,2.632097120706362176e-02,8.139716397746165830e-03,1.961320191621780396e-01
-3.003390648757479631e-01,-5.204003874135236796e-01,-4.785435337055531924e-01,1.532497905481881167e-03,2.842264245958875390e-02,-1.560386126982202292e-03,2.083405852317810059e-01
-2.810370495362888299e-01,-4.892076554501966767e-01,-4.721160850552154065e-01,9.572124098999008966e-05,1.772389091251132254e-02,-7.071792160166864719e-04,2.025168985128402710e-01
-2.839433822741107560e-01,-5.157535451188917097e-01,-4.531509848872806723e-01,-2.476269519357421692e-02,4.346342375182889878e-02,1.112735528254288949e-03,2.250635921955108643e-01
-2.633740987322750748e-01,-4.672077693806876986e-01,-4.930365900467282847e-01,2.412596817933799001e-02,3.233125210920999304e-02,1.438949043968532245e-02,2.301811575889587402e-01
-2.602199207821782601e-01,-4.568235743611659405e-01,-4.253109458694274148e-01,2.266422374581902877e-02,-3.698638722724136019e-02,-2.019426406105198982e-02,2.007957845926284790e-01
-2.915573075207348319e-01,-5.334694806160775737e-01,-4.528918027281462200e-01,2.332090526543646042e-02,-3.716918062526735483e-02,-3.706601855575418492e-02,2.354133576154708862e-01
-3.056591370154796428e-01,-4.941192633677601864e-01,-4.275670602460250880e-01,1.753487912107255103e-02,-3.865610548142878189e-02,-2.487849604272310278e-02,1.861883401870727539e-01
-3.046686281070520308e-01,-4.352562799004064953e-01,-4.475982875326062205e-01,2.305892646666829818e-02,-2.119626026973159272e-02,-2.332823736675330648e-02,1.529469788074493408e-01
-2.453658238801440516e-01,-4.408400660607325605e-01,-3.831536974423275232e-01,1.207055589704870632e-02,-4.915045885197165398e-02,-9.467782105268413018e-03,1.954866051673889160e-01
-3.026304420168638432e-01,-5.200744032860851185e-01,-4.148080557518525335e-01,-7.377824887150400725e-03,-5.643549500878859010e-02,-7.544764436886539777e-03,2.129842936992645264e-01
-2.741833659099245923e-01,-4.576631879860781349e-01,-4.574824180978872001e-01,-6.485629047306196854e-03,6.720200127951068102e-03,-1.256999959657807177e-03,1.841144263744354248e-01
-2.679007214137543169e-01,-4.418588235496900829e-01,-4.544546420651475738e-01,-7.667167823931812440e-03,5.000791379247832014e-03,-2.380244439493818618e-03,1.813273280858993530e-01
-2.733822886254656526e-01,-4.299262168547161589e-01,-4.319556387772625072e-01,-2.212627633220577358e-02,1.335354384920676638e-02,-1.789125820615650869e-02,1.667086482048034668e-01
-2.816871085105728811e-01,-4.491628503336403955e-01,-4.565958255088822249e-01,-1.044950549916880481e-02,9.166590244880267607e-03,-2.368691120170971724e-03,1.730453819036483765e-01
-2.691185044985691666e-01,-4.488140080419567024e-01,-4.542419342050052489e-01,-9.638442110605629359e-03,7.822288452612978504e-03,-1.519298016103890012e-03,1.837511807680130005e-01
-3.244900103846959372e-01,-4.602865536467106167e-01,-4.207460045326936737e-01,-1.183604924820903272e-02,8.665150800815398305e-03,-2.776407543523030236e-02,1.326376646757125854e-01
-3.117100993077180360e-01,-4.729281262859545976e-01,-4.058592958939272188e-01,-3.873079754072093067e-02,4.081951164607298260e-02,-4.793801944243200608e-02,1.899206638336181641e-01
-2.794951312573665803e-01,-4.452228431475881432e-01,-3.772559188600270175e-01,-1.532352211489881183e-02,3.596494687645871574e-02,-2.493537714253676527e-02,1.651404201984405518e-01
-2.925699735344866603e-01,-4.376312650346386723e-01,-3.579401497739595484e-01,-1.244762327893812227e-02,2.325849956558184023e-02,-3.187131449672578332e-02,1.448047012090682983e-01
-3.082135385492453250e-01,-4.780228399663051242e-01,-3.582759796608185332e-01,4.996510041598795603e-03,6.341471877613644170e-02,-1.005346280032226071e-02,1.878370791673660278e-01
-2.972067897333411368e-01,-4.878440489691828752e-01,-4.389589918269488633e-01,-1.404383222419841072e-02,3.848913149682971213e-02,-2.623002853184354909e-03,1.856598109006881714e-01
-2.602647764027473665e-01,-4.354907689580268526e-01,-4.102948026063096276e-01,-1.188536898665434535e-02,2.356529379057711523e-02,-1.839349285547041760e-02,1.732879579067230225e-01
-2.886181269724305554e-01,-4.899514507760771576e-01,-4.235190928611110017e-01,-1.359584741229559121e-02,4.538147978711330743e-02,-1.250362234769055413e-02,1.969144940376281738e-01
-2.824694456343326276e-01,-4.301767404205294465e-01,-3.746314788778917215e-01,-4.907398954584940576e-02,5.501645848105409659e-02,-5.462200939661041726e-02,2.048271745443344116e-01
-3.003802897280414275e-01,-4.538047301354163343e-01,-4.051624978007040689e-01,-1.837126612556720662e-02,4.468018370386183519e-02,-2.940932866827422262e-02,1.674467474222183228e-01
-2.948140279258529284e-01,-4.850879908025854670e-01,-4.505823972470475169e-01,-1.828696876541715394e-02,5.460616659797487560e-02,-2.212993741753948793e-02,2.055413424968719482e-01
-2.761687704448247405e-01,-4.424324276358564401e-01,-4.450689255561459667e-01,-9.509488119902163470e-04,5.119880611523429381e-03,-8.279577466598839197e-04,1.678461134433746338e-01
-3.104638969538639492e-01,-5.191846407876925529e-01,-4.645556211808938296e-01,-4.518039395045698320e-02,6.457809896128641203e-02,-4.047172369720953428e-02,2.422708123922348022e-01
-2.706920175713740107e-01,-4.141146670270575703e-01,-3.763657556748170596e-01,-3.896956071301319047e-02,5.284294014146879298e-02,-6.504276379982514011e-02,2.054402083158493042e-01
-2.759294170492612719e-01,-3.720798662182047689e-01,-4.601395507289679498e-01,-3.630712981001066320e-02,-9.942963839811145080e-03,1.186754720848130079e-02,1.736091077327728271e-01
-2.895204177215014996e-01,-4.045859356300962051e-01,-4.794228422688574520e-01,-1.775229268416759348e-02,-2.678590822053582982e-03,6.748426629348668743e-03,1.689833253622055054e-01
-3.351077768014419367e-01,-3.957048992123409215e-01,-5.515501756993298477e-01,-6.079164324102304812e-02,-1.438640719751387541e-02,2.116947698495693156e-02,2.246235907077789307e-01
-3.130562480429236460e-01,-4.037792792497241767e-01,-4.855590532109907986e-01,-4.465792755288320280e-03,-4.238272315603305168e-03,1.246032140351247333e-02,1.513849645853042603e-01
-3.216325616398323373e-01,-3.748833959522957504e-01,-4.771579943142957303e-01,-1.732941713836749428e-02,-3.195777685357873224e-03,1.068085678144116424e-02,1.414770632982254028e-01
-2.787355777099924103e-01,-3.008139530618002544e-01,-4.286730664722248063e-01,-2.918137745344263553e-02,-6.888183581534920892e-03,2.065251166079072609e-02,1.537364870309829712e-01
-3.423482181306565231e-01,-3.638452132280763918e-01,-5.383310996873942322e-01,-2.751172407131893816e-02,-8.860218084206764391e-03,-3.401372418578043916e-03,1.928711235523223877e-01
-3.032324614862078604e-01,-4.183312687785633033e-01,-3.888577234689085116e-01,-8.478422620891906680e-03,-1.171322642960118988e-02,2.276601983201041041e-02,1.136053726077079773e-01
-3.054151774551142617e-01,-4.191775107551421464e-01,-3.840600833731919184e-01,1.784335473663434604e-03,9.818462140409078484e-03,2.357680330843221414e-02,1.102107837796211243e-01
-2.920774208890543622e-01,-4.436552137303684251e-01,-4.244361045046791681e-01,-9.344952761896202498e-03,-1.178614511482869824e-02,9.512281701315931579e-03,1.462264955043792725e-01
-2.733815582669770761e-01,-4.518877415922274987e-01,-4.652117271284382793e-01,-1.079510982045711956e-02,-5.551751495043443473e-03,3.392745961355228459e-03,1.868073940277099609e-01
-2.734809976428410061e-01,-3.981826622247546799e-01,-3.953232794056082411e-01,2.624075704090429034e-02,2.528336702615744530e-02,2.503350778848812894e-02,1.451399922370910645e-01
-3.090759545767114425e-01,-4.097156213669553293e-01,-4.254446880553188204e-01,6.395823122984830786e-03,4.158094097036777251e-03,8.799012074789277355e-03,1.112005859613418579e-01
-2.768218832177340438e-01,-4.520509187523801264e-01,-4.548499897066974329e-01,-4.360202300492394510e-03,-4.064778594233041907e-03,1.854822515522713334e-04,1.769469827413558960e-01
-2.896915853982072742e-01,-3.676369432834155071e-01,-3.951491656714423151e-01,4.078885352551856608e-03,8.284432721708133787e-03,3.331091413860830242e-02,1.120781376957893372e-01
-2.925313611384738888e-01,-3.532894875089616638e-01,-3.485174287119747194e-01,4.856377243459537515e-03,8.999682811162593860e-03,6.393214899094924741e-02,1.264914125204086304e-01
-3.020875733857147916e-01,-4.149580063141024011e-01,-4.137049148312130775e-01,-6.258619667995399434e-03,-4.939744380248713845e-03,1.260150246571155319e-02,1.151823550462722778e-01
-2.685330861734194219e-01,-4.431065380516312491e-01,-4.514755259482168270e-01,5.225085265584054721e-03,4.939350676013543225e-03,8.750353647961950148e-04,1.793441623449325562e-01
-2.697283912705699116e-01,-4.555828971911439207e-01,-4.532559921633936284e-01,-2.033812984190192311e-03,-3.054294125312132565e-03,2.479924101498545024e-04,1.848118603229522705e-01
-2.722094091174477870e-01,-4.442831119890776059e-01,-4.514759519994289150e-01,1.056256008688959483e-02,1.104158536330155510e-02,4.409042679727285044e-03,1.779257357120513916e-01
-2.603858444071610601e-01,-4.023979017148821558e-01,-4.467501987754711190e-01,2.355327071385638488e-02,6.254743026273119205e-03,6.141799763239299756e-03,1.741491109132766724e-01
-2.814610893776583467e-01,-4.539840994034785582e-01,-4.606961596406172199e-01,1.066103080879063705e-02,6.224397016794802964e-03,1.185158883007399362e-03,1.772812455892562866e-01
-2.649198654130698882e-01,-3.880558326569639727e-01,-4.781376826333129104e-01,6.519119700330175404e-02,1.443006196546597886e-04,-1.085775127310885553e-02,2.178828418254852295e-01
-2.793538711650246364e-01,-3.721275594493126393e-01,-5.400573846178174930e-01,7.982589850326590741e-02,-5.550554674899173084e-03,-7.762512507294036697e-03,2.679114937782287598e-01
-2.784589366246926767e-01,-4.685240840402397078e-01,-4.859754892693043393e-01,1.814782257249364719e-02,-8.428241688309507859e-04,2.058113338012130741e-03,2.018640190362930298e-01
-2.694323413090007890e-01,-4.459398240358566912e-01,-4.588196874468530861e-01,9.885543996438298300e-03,3.715228043360323685e-03,5.030237614954601033e-03,1.844035387039184570e-01
-2.678206993373342670e-01,-4.191176950358009856e-01,-4.324896593290915026e-01,-1.419181377479498442e-02,-1.119235186142262216e-02,1.072461911154158273e-02,1.625355631113052368e-01
-2.656819260160420137e-01,-4.392861654022783835e-01,-4.598287313329775805e-01,1.744542927172604979e-02,-3.916142986219085624e-03,-1.783056928212698421e-03,1.873373389244079590e-01
-3.004626794557230252e-01,-5.081064514067086257e-01,-5.108020340731288522e-01,2.574023042865465280e-02,1.482818413480460487e-03,-2.586475973797480125e-03,2.137691974639892578e-01
-2.725408854389914648e-01,-4.583639732476431083e-01,-4.546561520727591676e-01,-1.432080684963917688e-03,-1.147460694403525886e-03,-1.935055852637995396e-04,1.840249598026275635e-01
-3.122963615682312066e-01,-4.803192005844149071e-01,-4.037910568295177138e-01,2.279102262313409031e-04,1.892163011024246624e-02,-3.249096592657340233e-03,1.494512110948562622e-01
-2.728101724368805492e-01,-4.565500870368677244e-01,-4.515120814622209378e-01,-6.598758967878514022e-03,-8.319347377676531916e-03,1.058270163611647711e-03,1.822132766246795654e-01
-3.135623695129478028e-01,-4.870369967383952337e-01,-4.472415001241614174e-01,-1.465458888566205375e-02,1.342182470811540372e-02,-1.952981777319932194e-02,1.646285802125930786e-01
-2.798909034865617595e-01,-4.734466403188567485e-01,-4.164609606697309285e-01,-9.908205939221098255e-03,6.892795522793200569e-02,-8.675688998676350794e-03,2.108430564403533936e-01
-2.786906442260921324e-01,-4.571558078858920515e-01,-3.327083720137703482e-01,-8.784686803126431562e-03,3.411701208312085953e-02,-1.651479818516103995e-02,1.722471714019775391e-01
-2.816680536133012724e-01,-5.156857332769838598e-01,-4.496859557930849016e-01,-1.476726802468843712e-02,3.818718055999666822e-02,-1.878965956659315109e-02,2.230768501758575439e-01
-2.860461194530572460e-01,-4.743653472553150396e-01,-4.593950808956134835e-01,-9.587972012398223234e-03,1.996919533467094235e-02,-7.785782420946841826e-04,1.853185445070266724e-01
-2.756263242286820514e-01,-4.640636432577417425e-01,-4.254547003752789935e-01,-4.201945778862792302e-03,2.803465768477729839e-02,-1.185339720619144749e-02,1.804334074258804321e-01
-4.448472509591879787e-01,-5.052959365100245792e-01,-4.465212998994818050e-01,6.233254266047990634e-03,1.288518541706739490e-02,2.152464363900997713e-01,3.783693611621856689e-01
-3.509416907169942146e-01,-5.200552173834466219e-01,-4.133914118745927180e-01,-4.148824707304104784e-03,-4.826333543425136846e-02,5.367042195934976917e-02,1.939574480056762695e-01
-3.398694265737574050e-01,-4.565714025303359014e-01,-4.033112869702545900e-01,-8.182520948540111458e-03,-2.263021969647840276e-02,5.516549795385473215e-02,1.452837437391281128e-01
-2.975147842879117821e-01,-4.031264178370052020e-01,-3.802496392522166091e-01,-2.338455391970132094e-02,-2.969201482681765175e-02,4.736767746060192852e-02,1.423992961645126343e-01
-3.370459839559410420e-01,-4.581105884756181412e-01,-4.419928880574370278e-01,-2.125147504875932875e-02,-3.934383110532042871e-02,7.513274879611805956e-02,1.894692927598953247e-01
-3.000229298728834260e-01,-4.122054247456826137e-01,-3.273185377698548670e-01,-9.815167471200248600e-03,-1.556220262194625732e-02,4.228702470613811271e-02,1.290271580219268799e-01
-1.940836010980168114e-01,-2.292795513219186843e-01,-4.075528127245710008e-01,-1.053181306448878612e-01,1.817241726294908802e-03,6.211533976159385080e-03,2.696219384670257568e-01
-3.207046075435477928e-01,-4.755634475497271807e-01,-7.137042137135698461e-01,-1.398233219660455218e-01,-3.356823998086372329e-02,4.308568261002568983e-02,4.303159117698669434e-01
-3.284854073029987442e-01,-4.455455788997976230e-01,-5.396289881459341853e-01,-6.829580385072922533e-02,3.455778842167743503e-02,-5.147407795594342861e-02,2.430897057056427002e-01
-3.255355210403166888e-01,-4.844742206571244214e-01,-5.547505252996332015e-01,-7.399693910006333031e-02,4.045688638207579316e-04,1.174929731718507737e-02,2.412699013948440552e-01
-2.732748364095549110e-01,-4.593596655805984863e-01,-4.712761406720891721e-01,-1.370918204123746861e-02,-7.519227478035010737e-03,2.306094231294029788e-03,1.942586898803710938e-01
-2.744536211273079229e-01,-4.673489810095396435e-01,-4.712533980590055682e-01,-1.063828221794878813e-02,-8.758642506852307164e-03,1.591047935326042042e-03,1.963523924350738525e-01
-2.722161795159750985e-01,-4.422095905789465431e-01,-5.155631860378109277e-01,-3.878300790229367856e-02,-4.809152213570870756e-03,5.465238269938252173e-03,2.267586737871170044e-01
-2.916332970592047102e-01,-4.623406428101388133e-01,-4.181091453599706242e-01,1.247409546840021893e-02,1.483650852589324387e-02,1.837401619343724535e-02,1.602709293365478516e-01
-3.037467792712931214e-01,-4.648786468547105866e-01,-3.434808833869564260e-01,6.247880653781653741e-03,2.658701757998021761e-02,3.207378729541027901e-02,1.626768261194229126e-01
-2.862110260396367734e-01,-4.405052763478798927e-01,-3.007037187357544106e-01,4.159627935870014240e-03,1.799113560630329761e-02,1.687944913289086968e-02,1.538125872611999512e-01
-3.100774721935217748e-01,-4.413489902108937435e-01,-4.255262991195761235e-01,1.257160383370702419e-02,1.038230472939171561e-02,1.437882035044545787e-02,1.297045201063156128e-01
-2.869853214348396797e-01,-4.708856926231548834e-01,-4.596919322886968140e-01,2.001716107829087932e-02,2.367273283630450323e-02,1.554356193867899305e-02,1.883989721536636353e-01
-2.708897120621007182e-01,-4.040827028560826095e-01,-3.681706348068891077e-01,2.240984376912782614e-02,3.614660444093133890e-02,4.538549789642621485e-02,1.607876867055892944e-01
-2.995676573366124473e-01,-4.909405483385630431e-01,-3.643817092245377198e-01,-1.953135561481499690e-03,4.951973560327114360e-02,1.891868185815753778e-02,1.919963508844375610e-01
-2.971282718849789228e-01,-6.836839613156219242e-01,-6.501365523451784201e-01,1.260382080055123533e-01,-4.306504867041240775e-02,-5.622188084095685462e-02,4.475334286689758301e-01
-3.248421303275659811e-01,-3.745381016896835447e-01,-4.960671733712695430e-01,-3.570948620477586849e-02,3.178413318862979842e-02,-4.993850474454646082e-02,1.939491331577301025e-01
-2.734570886856740879e-01,-4.447320280050344188e-01,-5.567360273767643086e-01,1.782392396622233810e-01,-5.286768881004410116e-04,-1.669038809494174935e-02,3.964942693710327148e-01
-2.753889966892617558e-01,-5.128972313965256546e-01,-5.333058781755631861e-01,4.970821372954493944e-02,-7.473074422477233442e-03,-1.085344965668994660e-02,2.638324201107025146e-01
-2.164126876682014033e-01,-4.308163605210522107e-01,-5.025489547833101867e-01,8.610278317634945111e-02,3.874090054600267535e-02,2.226577749005473686e-02,3.077745437622070312e-01
-2.937965558667515742e-01,-5.240293343107678137e-01,-5.551155365862313618e-01,4.914132076019791379e-02,5.953942887589549864e-03,2.451631972748920599e-03,2.617241442203521729e-01
-2.876502922795479700e-01,-5.150789088984151221e-01,-5.105466318968439055e-01,3.997267239585584886e-02,6.101086584726409141e-03,6.456476180215037393e-03,2.361010760068893433e-01
-2.963883686441775578e-01,-3.053331867091868546e-01,-4.536539751138758958e-01,-4.212549355466940065e-02,2.390551613098622092e-03,-1.891721121950104903e-02,1.726851612329483032e-01
-2.979290145257531552e-01,-3.568339043933491661e-01,-3.886468684064779966e-01,2.017293906613322821e-02,1.679436970612559199e-02,6.126182472664789408e-02,1.402918994426727295e-01
-3.200105238062306845e-01,-4.338831143786789912e-01,-3.373740360944521011e-01,1.736914413035020891e-03,2.462723745400758127e-02,8.989073573844499898e-02,1.932894587516784668e-01
-2.970859052772552023e-01,-4.401261356179890227e-01,-4.000778594483975215e-01,2.100359147413543431e-02,2.512413682594866887e-02,3.636897496415141678e-02,1.533658504486083984e-01
-2.762966147800476335e-01,-4.756729885514633938e-01,-4.763758679208313085e-01,1.067976504914664978e-03,-1.140686309801689467e-02,-1.960618314741556999e-04,2.007123678922653198e-01
-3.096377718931392908e-01,-4.857291812053982083e-01,-4.874416050611746765e-01,2.687525868182916253e-03,-6.682595599157957131e-03,-2.300894626111235283e-03,1.774378269910812378e-01
-3.116897719399151501e-01,-4.905659754347932444e-01,-4.900823536163799177e-01,3.174418673531550442e-03,-6.675457236479782896e-03,-2.552762382939572933e-03,1.791476756334304810e-01
-3.185982145098109619e-01,-6.081715095355240130e-01,-5.940203513587594131e-01,-3.393014686732625379e-03,3.031946103275604855e-03,-1.584936408731140930e-02,2.842021584510803223e-01
-2.828891151729427400e-01,-4.954661804131230696e-01,-4.768392430587691799e-01,-2.262664027802117547e-03,-1.103699114728747162e-02,-3.054036463916038387e-03,2.049026489257812500e-01
-2.866199450409376848e-01,-4.955984687142095946e-01,-4.875070452754563521e-01,-2.729955270995735022e-03,-9.010110662364866074e-03,-2.609779888601837083e-03,2.057496011257171631e-01
-3.116198829027343464e-01,-5.776065796188805113e-01,-5.832712244555195991e-01,-5.323949650682038327e-03,-3.881980115776916419e-03,-6.243853330547199584e-03,2.693231105804443359e-01
-3.365545478061034990e-01,-6.007178193631628194e-01,-5.726022005040886098e-01,-3.216795207507033155e-02,-5.568738242807581840e-02,1.790604339000159695e-02,2.766135931015014648e-01
-3.035534341903121658e-01,-5.395311736442087724e-01,-5.659192208828749404e-01,-1.191132175142396157e-03,-6.420378841340734083e-03,-5.437487312578015083e-03,2.506500184535980225e-01
-4.230045528864632143e-01,-3.755159918765248461e-01,-6.854573439674921387e-01,5.616906730336822251e-02,-7.238025612081538593e-03,1.407270056167092033e-02,3.062945008277893066e-01
-3.237607778633838085e-01,-2.729697834170514148e-01,-5.200820304730234822e-01,4.245327866791885618e-02,6.308865265222580315e-03,2.022864402271035839e-02,2.405139356851577759e-01
-3.178430326763985736e-01,-3.073163950970460578e-01,-4.828267203065370605e-01,2.997322858074158436e-02,-7.092604725116108400e-03,1.195189275292961144e-02,1.798382401466369629e-01
-2.710561780776241103e-01,-1.932901459630549934e-01,-4.252812808247296572e-01,3.736547490026175672e-02,7.887358381112532721e-03,2.936068115438896647e-02,2.208794504404067993e-01
-3.205156207683438341e-01,-2.405023587313501188e-01,-5.224878161840620372e-01,4.426041448771946690e-02,2.204516631072398272e-02,7.207201513745685462e-02,2.937233150005340576e-01
-3.527644674744038755e-01,-3.085302907248970161e-01,-4.960461345378756604e-01,1.238665656316980182e-02,1.027398878103980267e-03,3.652985035320048535e-02,1.824581921100616455e-01
-3.894023755236290518e-01,-1.461579766163744742e-01,-6.507119107276737591e-01,3.981012556882387171e-02,-2.817683686377308802e-03,4.276909917865930749e-02,4.486407637596130371e-01
-3.577995891237987225e-01,-1.807409322026002074e-01,-5.309865604627905800e-01,4.691255878612552582e-02,9.675815513337879953e-03,3.865894157677001158e-03,3.145406246185302734e-01
-3.003951082356398627e-01,-4.034430338406488348e-01,-3.271123130139936275e-01,-1.591943836009710855e-03,9.508583557853916846e-03,5.120109176810048318e-02,1.293175518512725830e-01
-3.248487061591737168e-01,-4.497367046559744841e-01,-3.668227867918135710e-01,7.909458433592444354e-03,1.679060008582400690e-02,5.230711955468294455e-02,1.461448967456817627e-01
-3.012736909074267833e-01,-4.202453464458074661e-01,-3.336665615007524122e-01,-4.893599516288543597e-04,8.652447213614031588e-03,5.267848201452378365e-02,1.410677134990692139e-01
-3.235273055324526803e-01,-4.647283101072063882e-01,-3.650639792914299186e-01,-2.821638924158600351e-03,-1.176086630750671803e-02,2.895878844821394779e-02,1.369403898715972900e-01
-3.152842738503170428e-01,-4.521715781288254687e-01,-3.330313266393952754e-01,-5.131560538282006062e-03,-1.057638372042609375e-02,3.690192586711021211e-02,1.453395336866378784e-01
-2.900011286908208419e-01,-3.918884164157601657e-01,-3.039355734904074513e-01,-1.124148947151239024e-02,-2.564441875631839549e-02,7.750941770624245053e-02,1.718446910381317139e-01
-2.729094671360496327e-01,-4.517030063125647144e-01,-4.523396138031327007e-01,5.161824830791783428e-04,1.138640645553353837e-03,-2.498229750152175651e-04,1.791263073682785034e-01
-2.906142672185527132e-01,-4.202003472326305000e-01,-4.750097545412367284e-01,2.224725418560637505e-02,6.810180517183115657e-03,6.184222134608520147e-03,1.692272126674652100e-01
-2.738384720232803771e-01,-4.598197030071090041e-01,-4.620370533335415031e-01,6.725714758320982872e-04,-1.004177929011882943e-04,3.527173750129734245e-04,1.871044635772705078e-01
-2.717206838340116004e-01,-4.440143823224147468e-01,-4.646988478806559630e-01,9.197879124562432368e-03,-3.838235634863039914e-04,4.287418834088084604e-04,1.842052191495895386e-01
-2.858646546220671714e-01,-4.323124279343818488e-01,-4.473775283178050843e-01,-3.196805083249839360e-03,-9.126608423043160861e-03,2.773514739267544243e-03,1.555113494396209717e-01
-2.614726904046535960e-01,-4.180176064484437681e-01,-4.491829248230279070e-01,2.317622218118139260e-02,-6.023281829479865991e-03,-2.860081373251245878e-03,1.791679412126541138e-01
-2.993041035813037709e-01,-4.887945777579341677e-01,-5.207516419895756865e-01,2.326857109256053394e-02,6.221734473315350487e-04,-3.721634339613684103e-03,2.113065123558044434e-01
-2.638810329053554171e-01,-4.097287973741613465e-01,-4.529298940217079128e-01,2.356494009884684340e-02,-2.480885709650685386e-03,-3.665085443905117309e-03,1.765314936637878418e-01
-2.567362098880823229e-01,-4.046486919096298207e-01,-4.426797929023856826e-01,2.360470452886524045e-02,-5.402583128470199621e-03,-3.675357401137007048e-03,1.753550022840499878e-01
-3.040187326316901584e-01,-5.217244494049475545e-01,-4.913799209124233291e-01,3.924288471470026296e-02,5.137945408435348749e-02,5.364204188794687717e-02,2.507635354995727539e-01
-2.714045486021708919e-01,-4.532273957616708704e-01,-4.546914748400237016e-01,1.404342420968164584e-02,1.101232744832435217e-02,5.649606712914802438e-03,1.854160577058792114e-01
-2.468197553445318215e-01,-3.828809146218967174e-01,-3.984550757823810407e-01,4.262507675597165813e-02,3.503063139243775548e-02,4.097398816700630053e-02,1.871976554393768311e-01
-2.651901781894567822e-01,-4.582413298548009273e-01,-4.341385592535454974e-01,1.290920425088617389e-03,1.954454157822481733e-02,1.669298878560575034e-03,1.853535771369934082e-01
-2.959760916902346439e-01,-4.639484785081301466e-01,-4.777499879974145269e-01,2.328769062817837368e-02,1.847857302837407553e-02,1.783250845937125670e-02,1.852803081274032593e-01
-2.703084891671398426e-01,-4.092859164197736321e-01,-4.587224908638448673e-01,2.514630119239309389e-02,-5.162294348979077838e-03,-3.544583946248682296e-03,1.750540435314178467e-01
-2.940145617676028778e-01,-3.578508738101807141e-01,-4.719988770202229733e-01,5.421603254282607309e-02,2.196702946131251499e-03,-1.792030622155580321e-03,1.823015958070755005e-01
-2.740813953470719322e-01,-4.121078260746592337e-01,-4.817323691731257851e-01,2.279998651074877439e-02,4.774760396840504323e-03,-2.354624305179490226e-03,1.874925196170806885e-01
-2.901310989763355996e-01,-4.130767915266121415e-01,-4.819410966831580989e-01,2.502447390180454617e-02,-1.772045571054808345e-03,3.426691135310367450e-03,1.739190220832824707e-01
-2.639185653548061228e-01,-4.060937877956775077e-01,-4.549167037128712954e-01,2.379505269072074852e-02,6.133437727409639731e-03,5.539565332555362355e-03,1.773200780153274536e-01
-2.879497242776841714e-01,-3.654683999046225429e-01,-4.662304751737781916e-01,4.423124465378094200e-02,6.156606206768050829e-03,3.831190510512945662e-03,1.732051968574523926e-01
-2.705242622557471610e-01,-3.419471731232365252e-01,-4.318896825925042648e-01,4.281029261190056473e-02,-2.110956590851511064e-02,-4.587290031752018493e-02,1.810050159692764282e-01
-3.130224730038030367e-01,-2.963220773756295445e-01,-4.733202439205901335e-01,5.442495155186791861e-02,-7.778274943495699922e-03,5.200138299303501887e-04,1.942159980535507202e-01
-3.257414202287592930e-01,-4.012055125618034790e-01,-4.918768526695222465e-01,1.507409504979629472e-02,-7.076886593143420778e-03,-1.808588480205280263e-02,1.502390801906585693e-01
-3.297148194160262058e-01,-2.714162153008710110e-01,-4.908212701615173867e-01,9.848622819544754561e-03,-3.720885117269513709e-03,-6.023548547973708867e-02,2.235257476568222046e-01
-3.177850980814423965e-01,-3.070063699485003905e-01,-4.830814852992197928e-01,5.085695932654635265e-02,-2.355051814712410749e-03,-2.938913649091438526e-02,1.989669650793075562e-01
-3.511801005758555250e-01,-3.915440449204949380e-01,-4.721253856867618226e-01,3.531203536669684506e-02,-2.296669757589263686e-02,-7.027116344422768002e-02,1.775176525115966797e-01
-3.184355065209960034e-01,-3.657661513896618422e-01,-4.205983705068976897e-01,3.035235039284910410e-02,-8.618961381900948002e-03,-6.973937192780177430e-02,1.594346314668655396e-01
-2.711426980478925941e-01,-4.486310246688031134e-01,-4.434115663073013303e-01,-3.839282691713751233e-03,-2.490545065142914759e-03,6.532151072513604209e-04,1.751201450824737549e-01
-3.267523880187623297e-01,-2.800928577953515908e-01,-4.757904984908478685e-01,1.493419703508733383e-02,-7.538131286778425658e-03,-8.225575540175018852e-02,2.290875464677810669e-01
-2.816350493889721029e-01,-4.469467714440111816e-01,-4.594643967334497980e-01,7.578900945438845661e-03,8.203809928770905077e-03,3.312562122774948426e-03,1.730927824974060059e-01
-2.616424075444960806e-01,-4.640813185380763817e-01,-4.694200726464181073e-01,3.770169291936260880e-02,1.973085193789323594e-02,1.103026309312207798e-02,2.188331782817840576e-01
-2.752090102627236523e-01,-3.919671055431300788e-01,-4.124663846913306786e-01,2.744582732322677424e-02,2.562454319251892057e-02,6.307060587419933972e-02,1.805810183286666870e-01
-2.669229231718414086e-01,-4.414062047971027969e-01,-4.391264819529922536e-01,9.417407700041706062e-03,8.757122478513765934e-03,6.052296111645316667e-03,1.750938445329666138e-01
-2.717684940953106754e-01,-4.528754434427351705e-01,-4.564697714383032512e-01,-2.843477500162995292e-03,-3.817813206228634192e-03,5.526558793220340098e-04,1.831188201904296875e-01
-2.811218787074475367e-01,-4.694399519688057243e-01,-4.695378128571682241e-01,-2.575281976015524922e-03,-1.959981237804378149e-03,4.653587586349225403e-04,1.884521245956420898e-01
-2.779185556769612764e-01,-4.655804136374611657e-01,-4.622947451721016732e-01,-2.598310937302102629e-03,-2.242234801026496069e-03,-2.813928655428597126e-06,1.861357241868972778e-01
-2.770021686687232920e-01,-4.664378925944917542e-01,-4.654700536401747413e-01,-9.124140451409570515e-03,-6.463574987781650454e-03,-3.045993993153233901e-04,1.899443268775939941e-01
-2.768080720767194247e-01,-4.687204666527697849e-01,-4.680814031477983361e-01,-6.511183104456329251e-03,-1.319418790353203523e-02,-1.538479380321038700e-03,1.932994574308395386e-01
-2.970732860722136714e-01,-4.519161846537992355e-01,-3.036288775114373562e-01,-8.433915518064129301e-04,1.703539029542904676e-02,-5.592726837419174056e-03,1.548250466585159302e-01
-3.388442307154358457e-01,-4.953213693058264866e-01,-3.024432283125461085e-01,2.761662545420875796e-03,6.732774553629824674e-03,-3.613663312312784259e-02,1.886332184076309204e-01
-3.319321717421038764e-01,-4.799064612615683290e-01,-3.591253968897323845e-01,-6.488702977659734257e-03,-2.687943919347152589e-03,-1.118057286722457661e-02,1.383291929960250854e-01
-3.183731668034254780e-01,-4.678250971029345173e-01,-3.361042598991706987e-01,-4.243038488473593797e-04,4.871706599542219643e-03,-9.567458660713672181e-03,1.426417678594589233e-01
-3.282706338666476764e-01,-4.722302485556967300e-01,-2.726118266464075957e-01,-6.233918809932241685e-03,1.606101740024106286e-02,8.742106964919698860e-05,1.809015572071075439e-01
-3.708218016811318796e-01,-5.515115311023420785e-01,-3.166407925347264896e-01,2.031495437161649244e-03,3.136285764870160638e-03,2.620080881023105837e-02,2.178890705108642578e-01
-3.459136776674631153e-01,-4.982035029472713372e-01,-2.965558021802814359e-01,-1.139905630494411756e-03,1.954394277788175024e-02,-1.017785959883735387e-02,1.860259473323822021e-01
-3.167086664253156991e-01,-4.846491750148350097e-01,-3.271567314320631970e-01,-5.620914036264676450e-03,1.967296635465276555e-02,4.882094200794200728e-03,1.669906824827194214e-01
-3.268654791704883045e-01,-4.956489396956539895e-01,-3.357301085565760901e-01,-1.420201153188184310e-04,1.009385101654990645e-02,7.853878274512393620e-03,1.660150736570358276e-01
-3.218612480790795649e-01,-4.758434112586164000e-01,-3.405412790175526561e-01,8.745513622889866754e-04,6.630413381199477298e-03,-2.975942095745080784e-03,1.460952013731002808e-01
-3.360253027412253846e-01,-5.308726169575618270e-01,-1.793950057551224331e-01,3.561858921509765408e-02,-9.244439158129913459e-02,-6.209855293591469948e-03,3.501102030277252197e-01
-2.940332098065219224e-01,-4.830361781453281211e-01,-3.578724157536449235e-01,-5.045799533380292308e-03,-4.207448564968651467e-02,7.647160799904769227e-03,1.824674457311630249e-01
-2.948170718226649223e-01,-4.683481397846820382e-01,-3.642394366153631768e-01,-8.133853241474550341e-03,-2.048893253996940389e-02,5.924568486398812568e-03,1.563608944416046143e-01
-3.251631181671642556e-01,-5.184053274969391278e-01,-3.504119957603323288e-01,1.547822000343542599e-03,-4.841670084076864222e-02,-2.224229517456357413e-02,2.040215283632278442e-01
-2.998156907062295984e-01,-4.671361736610187831e-01,-3.533364192184689223e-01,2.472387270776101888e-04,-1.897252933674098418e-02,8.347329042318608861e-05,1.516099423170089722e-01
-2.953092679015810740e-01,-4.570096443697716504e-01,-3.482354758785002335e-01,-5.267755632257996009e-04,-1.880276641930612655e-02,3.725667601118072200e-04,1.464646309614181519e-01
-2.981808243777872569e-01,-4.530010605017025793e-01,-4.438114591686984078e-01,9.693322093008931162e-03,-9.655993788704866909e-03,-5.618401361535074745e-03,1.526018083095550537e-01
-2.733751654393970498e-01,-4.230365497089045301e-01,-4.244020534055304994e-01,6.914995401203129048e-03,-7.119107275345510667e-03,-5.898664703669009857e-03,1.516727954149246216e-01
-3.016582483822501937e-01,-4.411768034162146246e-01,-4.441922688225354299e-01,6.738403630774631760e-03,-7.626971478881564362e-03,-8.445121598030066318e-03,1.428983062505722046e-01
-3.231272644333949007e-01,-2.594146550937736495e-01,-5.134562057603284657e-01,-9.818260607784952410e-02,-1.356549158175279247e-02,5.632180245805275265e-02,3.023222386837005615e-01
-3.646241746689888874e-01,-3.644164547713374391e-01,-5.662264488519168637e-01,-5.087422537171395337e-02,-1.447803288468690452e-03,-1.431953229140235477e-02,2.215206325054168701e-01
-3.052750545245984659e-01,-4.497500967384021053e-01,-4.214403397766013915e-01,-8.177937255428138416e-03,-8.176061109805492916e-03,4.794548809408763143e-03,1.343672871589660645e-01
-2.976679171844334171e-01,-3.411546791075334983e-01,-4.780483900975340816e-01,-3.491291206505733880e-02,6.450934890192139802e-03,-4.167718843046394790e-03,1.744068115949630737e-01
-2.599976499504060845e-01,-3.330099365107115905e-01,-4.436031170914417343e-01,-4.219535815594861045e-02,-1.290723875615470626e-02,2.194054242535083479e-02,1.814431101083755493e-01
-2.904806636654211904e-01,-3.532754044918789971e-01,-4.635664410589858120e-01,-4.751521170962038493e-02,-1.064199657456404123e-02,1.937585714792304167e-02,1.768392026424407959e-01
-2.761098381231171794e-01,-3.502630450875704460e-01,-4.717110564897544212e-01,-5.431938207701889065e-02,1.277886429419003260e-02,-1.139516290942590472e-02,1.974469870328903198e-01
-2.795503113463666534e-01,-2.414912319489742609e-01,-4.733299084764423514e-01,-8.118339123608933616e-02,-2.516962913194754556e-02,4.228527171432985149e-02,2.709446251392364502e-01
-3.087000114632495462e-01,-4.007482230902725262e-01,-5.375784661845425250e-01,-8.548668831530545353e-02,-1.207122624472589017e-03,8.874494426051725282e-03,2.489074766635894775e-01
-2.776785613742988601e-01,-4.548279156893458852e-01,-4.441795810613102247e-01,-5.219830081447382648e-03,-1.459103907302196487e-03,1.019675905552402565e-04,1.723284423351287842e-01
-2.803852074507273695e-01,-4.739915554304385825e-01,-4.713917724817232591e-01,-1.021175060075005074e-02,-2.616548694586190871e-03,1.926805451716850632e-04,1.931847035884857178e-01
-2.702645180694973615e-01,-4.834155847184808952e-01,-5.007919414097913302e-01,-4.537020788940088201e-02,-1.651480507016438171e-02,2.481655999737580193e-02,2.414130717515945435e-01
-2.762777020521238747e-01,-4.460576806239526793e-01,-4.331999693217502001e-01,-7.878480667154583519e-03,-4.018561929614372814e-03,1.870376468949437208e-03,1.644771546125411987e-01
-2.683599598738382608e-01,-4.595978643121634288e-01,-4.612174970198754664e-01,2.675122477190357284e-02,-1.482460609041395642e-02,-7.575735156226939479e-03,1.996563524007797241e-01
-2.843202566156048938e-01,-4.466888593256720386e-01,-4.396324538542208393e-01,1.065010770798206774e-02,-1.188875251026852431e-02,-5.089016372558599448e-03,1.615846902132034302e-01
-2.842852568873326935e-01,-4.590646442942656891e-01,-4.471359575281549370e-01,6.800450512291932384e-03,-7.279649174185119469e-03,-1.183540374323245430e-03,1.700210571289062500e-01
-2.700982965069657071e-01,-4.442729366131615842e-01,-4.456107754595704518e-01,5.069082941036693810e-03,-5.534739082477850396e-03,-2.062921659044456707e-03,1.753663718700408936e-01
-2.739244476130131556e-01,-4.498997538269447483e-01,-4.439554444217325146e-01,1.246231059785560778e-02,-1.307857108100684770e-02,-5.697183850393553080e-03,1.761619746685028076e-01
-2.765991064657559173e-01,-4.561544554685989517e-01,-4.552742704284363229e-01,4.895833682278191885e-03,-4.933430181709504148e-03,3.565826337177133783e-04,1.795220375061035156e-01
-2.752124322024982472e-01,-4.555366615780355732e-01,-4.500270098592063506e-01,5.515804094149526736e-03,-4.777315970049070444e-03,5.697675824013084898e-04,1.780852973461151123e-01
-2.579664456450905807e-01,-4.464509732385996688e-01,-3.520258453567338686e-01,-3.466510702973110616e-03,4.807180455038804340e-02,-4.120802284855538261e-04,1.833414882421493530e-01
-2.735112291932457196e-01,-4.606178374660144237e-01,-4.594088825441763335e-01,2.171630234177835458e-03,2.146822876038659636e-03,-1.175050438092017924e-03,1.865911483764648438e-01
-2.941502428811113012e-01,-4.875481979848094172e-01,-4.213295813500794740e-01,7.959119072387318972e-03,3.293228108041121316e-02,7.033838642257083176e-03,1.804804801940917969e-01
-2.834515173887647288e-01,-4.549915027495186060e-01,-3.491347086384661291e-01,1.255340839157533840e-02,4.240191145438863135e-02,1.814916981141724561e-02,1.712532043457031250e-01
-2.741458778181466438e-01,-4.435993716044025481e-01,-4.351902730964170019e-01,-5.473560397544948060e-03,-3.926296381671073345e-03,1.698713178899573456e-03,1.658464074134826660e-01
-2.923167253107311070e-01,-5.261626940535387709e-01,-3.857814391349131400e-01,5.528924728890554849e-03,5.327912515143086447e-02,6.247970931843304168e-03,2.242499887943267822e-01
-3.079703621610453412e-01,-4.885389668440575095e-01,-3.910023692310450882e-01,-4.703028707592674280e-03,2.483385345025083957e-02,-9.622191512121902601e-03,1.634033024311065674e-01
-2.894503691874117934e-01,-4.920458339219795363e-01,-4.508268433223110438e-01,-3.610666413762341018e-03,2.538903664007482325e-02,3.761798276421531723e-03,1.908101737499237061e-01
-2.831610114513654075e-01,-4.416096570732092053e-01,-4.416334883429455238e-01,-3.583516165645640999e-03,-4.525173347517444031e-03,1.487392190038268900e-03,1.587965488433837891e-01
-2.962505688597983911e-01,-4.410439281657885791e-01,-4.761638971410759313e-01,-2.552056596097464561e-02,1.357583479514304706e-02,-1.287003524361539884e-02,1.740327179431915283e-01
-2.770520488089176503e-01,-4.707263482163738799e-01,-4.675162235227094953e-01,-1.207861911052958079e-02,1.187411281115915811e-02,-9.547982256887592792e-03,1.950191706418991089e-01
-2.724273163043592350e-01,-4.626241578313324831e-01,-4.675555187576038718e-01,-1.231604906937523725e-02,3.477387603459495234e-03,1.678021340599617547e-03,1.940022259950637817e-01
-3.099689049525931051e-01,-5.086095366676829377e-01,-5.773488434226325960e-01,-8.152105534141158849e-02,2.003661747504283108e-02,3.917797431248746555e-04,2.810329496860504150e-01
-2.921741562093505551e-01,-3.901789964082251760e-01,-4.188708839957369090e-01,7.816561887019778457e-03,-8.513415421403245503e-03,-7.927734034362815194e-03,1.175984442234039307e-01
-2.732159040590729226e-01,-4.585453837397911458e-01,-4.623791141912810820e-01,-1.482197657844940182e-02,6.382900572328543444e-03,8.888221776294257578e-04,1.893565058708190918e-01
-2.642980040655725782e-01,-4.643589538095281855e-01,-4.704914481644447699e-01,-3.837514793223381626e-02,2.585683210885068514e-02,-5.332548658813504074e-03,2.186271995306015015e-01
-2.581559645918142243e-01,-4.385782479335219031e-01,-4.556312375647947333e-01,-3.269424194613708423e-02,2.560378734551460242e-02,-1.034571953959191083e-02,2.035049051046371460e-01
-2.714133029363816063e-01,-4.483710487188594107e-01,-4.579135503975064192e-01,-2.895008718686688416e-03,1.339310678422790191e-03,-3.185312934544773963e-04,1.820015162229537964e-01
-3.066608695248542737e-01,-4.543351020511472438e-01,-3.218561021178742987e-01,4.557938233705844592e-04,-2.758973829973351832e-03,2.152295260881431291e-03,1.408260911703109741e-01
-3.053982555497968265e-01,-5.267106816710468431e-01,-5.359929986155097525e-01,2.213290897946587014e-03,-3.129500676820307168e-03,1.649592094599034841e-03,2.262120395898818970e-01
-2.732341256784099892e-01,-6.990483280824020262e-01,-6.918789969783973870e-01,5.510970899211670854e-03,5.622640077570936062e-02,-5.708752685719425263e-02,4.445993900299072266e-01
-2.775852254943234065e-01,-5.957436460503741094e-01,-7.189056287352864061e-01,-7.076790331512211596e-02,4.029918002508745684e-02,-2.718738523202555296e-02,4.215358793735504150e-01
-1.584194602078312641e-01,-4.533672437838608404e-01,-4.662924340563923686e-01,-2.107834933046076869e-03,1.154856418422471696e-03,7.134236247438969451e-04,3.016494214534759521e-01
-1.463537273537749428e-01,-4.354064856984902199e-01,-4.522648484061789764e-01,-7.323809282717262670e-02,-6.062100338190612621e-03,4.153451830871013328e-03,3.239785730838775635e-01
-2.881165081385286264e-01,-4.122500826480254288e-01,-4.284088232103492322e-01,3.796721451781273713e-03,-7.998331419398868949e-03,-7.221064801121958830e-03,1.344161033630371094e-01
-3.047904190661997470e-01,-5.372169144955735165e-01,-5.297575787241968204e-01,2.798654714988797580e-03,-6.088095987429665776e-03,-4.672008918656218000e-03,2.292250990867614746e-01
-1.796964689761618439e-01,-4.742818772602015454e-01,-4.366380783419030465e-01,4.541142640535429653e-02,-6.646994434860384326e-02,-1.018785207658074593e-02,3.112250566482543945e-01
-2.009040479951486324e-01,-5.018588238076248098e-01,-4.424995811273688684e-01,9.405327841843652299e-04,-8.829334219109943871e-02,-2.426468377510103240e-03,3.156585395336151123e-01
-2.981096127042387467e-01,-5.364107584068972256e-01,-5.162570097332495056e-01,-2.436278968325600747e-03,-4.801359060743949636e-02,-1.159025972527372335e-02,2.443924546241760254e-01
-1.716568878536519349e-01,-4.968415444962601679e-01,-4.938641131690881259e-01,-2.046887008426597279e-02,-6.168833937275785412e-02,-1.107034817213749765e-02,3.432588577270507812e-01
-2.540132903740231485e-01,-6.326378936360144145e-01,-6.457066950241412417e-01,5.705606237169122408e-02,-6.753727101523611387e-02,3.854721623819355736e-02,4.199800491333007812e-01
-2.647306079954008795e-01,-4.502774905584973064e-01,-4.354723357277001106e-01,-3.673129194886307416e-03,9.619800207396906472e-03,-9.427008313938565207e-04,1.795008331537246704e-01
-2.742791501883189986e-01,-4.747410753896421642e-01,-4.489031664108930619e-01,1.794026258284401893e-03,1.995290597893485673e-02,-3.312756383384385037e-03,1.921197474002838135e-01
-2.679110636712420668e-01,-4.576476393023872213e-01,-4.391996853190487382e-01,-2.354182775905514554e-03,9.373765533811499392e-03,-1.081278449618087089e-03,1.819994002580642700e-01
-2.589201397342386635e-01,-4.134327529967466996e-01,-3.869739052972414051e-01,2.808771889026481436e-02,4.666592370173588272e-02,3.827848684452126587e-02,1.837977319955825806e-01
-2.768230348199621771e-01,-4.293863115689381393e-01,-4.378038106470244495e-01,8.254454413988180153e-03,7.974967264750653165e-03,6.434754024320269751e-03,1.585876345634460449e-01
-2.682277740921593656e-01,-4.448755647388929479e-01,-4.404432024023622883e-01,8.531908744087646906e-03,8.959671467130413125e-03,2.131027194123903332e-03,1.758236438035964966e-01
-2.695548020845062176e-01,-4.210222664700096207e-01,-4.503480928857055976e-01,2.400546838965401941e-02,1.074545768764154606e-02,1.145012894802519172e-02,1.752506941556930542e-01
-2.652236721642319828e-01,-3.976032197711481531e-01,-4.216462689872422787e-01,2.327795628097744859e-02,1.748498242891155172e-02,1.870119732730271545e-02,1.577250361442565918e-01
-2.875026775223202269e-01,-4.440631699602258786e-01,-4.496780146115149646e-01,2.614397528964679598e-02,1.796438695338132413e-02,2.692206991563657337e-02,1.749709993600845337e-01
-2.686162930822263428e-01,-4.045680384146933539e-01,-4.273812799207860058e-01,2.289972760455444289e-02,1.757428944913510746e-02,2.077777736628651228e-02,1.609339267015457153e-01
-2.729113271841739352e-01,-4.568284662855674472e-01,-4.491572819382639858e-01,9.499294055717272950e-03,9.419279996034077285e-03,6.673880663083197815e-03,1.820549368858337402e-01
-2.714126151474597903e-01,-4.606285417386421499e-01,-4.550419649641247455e-01,-1.447974420940458798e-03,-2.594567219866108273e-03,-1.176645862806616986e-03,1.865675449371337891e-01
-2.707600518103424614e-01,-4.607361556294051197e-01,-4.553162831958985635e-01,-8.320034146093068710e-05,-1.115913595726820149e-03,4.012540819958544192e-04,1.873362958431243896e-01
-2.746421726781256289e-01,-4.666952012822405127e-01,-4.554849907528105146e-01,2.106338376940538378e-03,-6.455540341347355826e-03,4.780197611798397994e-04,1.870724409818649292e-01
-2.816410640196080895e-01,-4.715962620811488537e-01,-4.472091148034111896e-01,-1.551162149225998122e-03,-1.171987806390176017e-02,2.237855644484211624e-03,1.802208423614501953e-01
-2.761337782029360532e-01,-4.664230386063379363e-01,-4.610271849562254110e-01,-4.042873358825016896e-04,3.052667465174745739e-04,-7.950395103589758808e-04,1.876566261053085327e-01
-2.594228959208285112e-01,-4.463571020244586629e-01,-4.249353364195444516e-01,2.356264313559339792e-03,-1.403870004843296021e-02,1.017423771253886595e-04,1.789043694734573364e-01
-3.174402712299823626e-01,-5.110942420759454485e-01,-3.610428100670369789e-01,-1.227274247418825778e-02,-5.326087824398947207e-02,-3.723776232655172727e-03,1.999071240425109863e-01
-2.723875280920968200e-01,-4.408161705811773912e-01,-2.818898484855533182e-01,-9.503682465598824528e-03,-4.243728469301234763e-02,2.187233898460343162e-02,1.843012869358062744e-01
-2.743728665234090314e-01,-4.459819948671235879e-01,-4.330323219986347283e-01,-6.741639405129794954e-03,4.606122335653378176e-03,-1.363552855589273555e-03,1.661345213651657104e-01
-2.938762574412989159e-01,-4.102338331171639929e-01,-4.512771607469454604e-01,-9.090246898801180794e-03,7.786752156415922832e-03,-5.405717027218819200e-03,1.432368904352188110e-01
-3.422627117174056877e-01,-5.372625607316490193e-01,-3.599405621636089792e-01,-1.062349628078989791e-02,-5.955466701296052712e-02,4.685097550533015576e-02,2.290287315845489502e-01
-3.811768481598713509e-01,-6.571951597183400828e-01,-2.303666973868293277e-01,-8.157827415537863974e-03,-3.141216614221896408e-02,2.562294932948880333e-02,3.816878199577331543e-01
-2.816408186045666895e-01,-4.645227589620087860e-01,-2.938439520961936280e-01,-6.264459035117526942e-03,-4.358565960313325049e-02,1.752227986302629451e-02,1.951946169137954712e-01
-3.118467995444201279e-01,-4.724282338772340384e-01,-3.472464964090937189e-01,-3.266858856486571424e-03,-3.933015636330908227e-02,2.142373476338439720e-02,1.655431389808654785e-01
-3.693656626526076181e-01,-5.649571192707960599e-01,-3.513793553856854879e-01,2.043451091388044216e-03,-3.525824525635257167e-02,1.996919499575859624e-02,2.168772816658020020e-01
-3.134199584190340282e-01,-4.966221109267496270e-01,-2.778099414138546219e-01,1.207685501948772919e-03,-1.385101476680330838e-02,-5.005497102411069453e-03,2.049634754657745361e-01
-3.322509013532027322e-01,-5.292227887945423204e-01,-2.995426909457102327e-01,4.103918019917296781e-03,-1.702565705028050158e-02,2.203800896118553523e-02,2.206524759531021118e-01
-2.629059747533542546e-01,-4.638720298677204701e-01,-4.418199159681732158e-01,1.723624627346529228e-02,-2.620380761341228187e-02,-5.080387193652573588e-03,1.986719369888305664e-01
-2.931599305738087913e-01,-4.903863722483736143e-01,-4.630765127673477366e-01,1.196657707086737354e-02,-3.002477137182346309e-02,1.183409496314020331e-04,1.933700293302536011e-01
-2.854825945199072068e-01,-4.848546687163258762e-01,-4.109899211319041901e-01,2.213246893153959782e-02,-6.248607189629964281e-02,-3.440429815051017186e-03,2.090388238430023193e-01
-2.780094933439887228e-01,-4.608982704984392886e-01,-4.604284999409092860e-01,8.075586411204396103e-03,-1.068800000080474648e-02,-1.140103922376044633e-03,1.841327100992202759e-01
-3.072190426927375317e-01,-4.459326348925344852e-01,-4.457828139396849410e-01,1.902523639503060984e-02,-1.829932921782434843e-02,-2.390283855040025926e-02,1.517406105995178223e-01
-2.722586924164495104e-01,-4.646922158051270957e-01,-4.620606987381349340e-01,8.200610667421680960e-03,-1.122136772420764816e-02,-2.325501482356279702e-03,1.926834881305694580e-01
-3.257168243230845750e-01,-4.535880878556811102e-01,-4.530006765012790648e-01,-1.895035759353526361e-02,1.570468051187746267e-02,-3.106676451678047277e-02,1.448757499456405640e-01
-2.729603501293199064e-01,-4.339671465500745118e-01,-4.090837646887846568e-01,-2.675342541108193667e-02,2.742333116370846910e-02,-3.010104488536506986e-02,1.722136735916137695e-01
-2.888046215962322139e-01,-4.504094686994217223e-01,-4.037330223018988917e-01,-1.091429682427281188e-02,1.894571495858401317e-02,-1.806755617507441875e-02,1.522011011838912964e-01
-3.344139737786057109e-01,-4.904755042232077367e-01,-3.784128226321544219e-01,-2.283444678500768515e-02,5.424923466638296304e-02,-6.467829490372171974e-02,2.058338969945907593e-01
-3.181419249614244049e-01,-4.843961870966767003e-01,-3.759358350804210547e-01,-6.224418275402909470e-03,1.493505403986133788e-02,-1.594270687802833847e-02,1.513936519622802734e-01
-3.051291111705911607e-01,-4.581353324193533916e-01,-3.605190547357523534e-01,-5.488842260457542539e-03,1.403975034736033856e-02,-2.059671555962426168e-02,1.412740051746368408e-01
-2.981867564194629061e-01,-4.962583695708179254e-01,-4.029564022130666667e-01,-2.211944092473526469e-02,4.811717513354492326e-02,-4.294885596071586209e-02,2.083376049995422363e-01
-2.967429784274354665e-01,-4.137545871708704914e-01,-4.398229754272481307e-01,2.046803713845527298e-02,-1.833642290637840441e-02,-2.870956941303932225e-02,1.488616615533828735e-01
-2.806644528848994957e-01,-4.864981477061128268e-01,-4.719869601414085625e-01,9.093310964775573732e-04,-1.342174510415153343e-02,9.636801146889167457e-04,2.003419250249862671e-01
-2.806611563141924170e-01,-4.842400112681515267e-01,-4.669871798816209174e-01,2.754980260104514505e-03,-1.217962331411766644e-02,-7.507462028844443230e-04,1.967210918664932251e-01
-2.723380164637244638e-01,-4.630157214580988834e-01,-4.576607853570968665e-01,2.020200550862487343e-03,-1.289497712965637435e-02,-5.589029349697877992e-04,1.894138753414154053e-01
-3.059159466234564473e-01,-4.827154029091513809e-01,-4.266309788587963614e-01,-1.525237636117553024e-02,-2.817916027839867388e-02,-4.468767993890220675e-04,1.660376936197280884e-01
-2.799408361427141445e-01,-4.531624244541401225e-01,-4.286036562348423118e-01,-1.217662620305005883e-02,-1.263799668139569191e-02,7.918366605647866527e-03,1.657311469316482544e-01
-2.734786970041140908e-01,-4.540152756084746000e-01,-4.493119391489061032e-01,-1.804625224086612439e-02,-2.152477175334035001e-02,4.195479407332628786e-03,1.848951280117034912e-01
-2.735095186447693005e-01,-4.499750395141967063e-01,-4.430366517561065143e-01,-5.507732580943784824e-03,-6.408643727874179657e-03,4.795904136018662618e-03,1.739168018102645874e-01
-2.959359919522455140e-01,-4.457991755838867087e-01,-4.309053229400036655e-01,-9.512873311529064513e-03,-1.363985904696871261e-02,9.477740654366819534e-03,1.467919051647186279e-01
-3.568528406496016547e-01,-7.864602540733733882e-01,-9.102282595391339992e-01,-1.532975772840734496e-01,5.571334889464316792e-02,-3.527347709040456331e-02,5.801704525947570801e-01
-3.114646771026116090e-01,-4.222816875464959208e-01,-4.665334629226526864e-01,1.009996523057700435e-02,-1.309042467006137252e-02,-2.094632065476443802e-02,1.458726525306701660e-01
-2.669690140084706176e-01,-4.149376459205253442e-01,-4.426790184588775823e-01,-1.871494177844261475e-02,-1.320008745773918260e-02,7.814661222758447628e-03,1.688959300518035889e-01
-2.743825948804954895e-01,-4.533967755906697095e-01,-4.544393344105097099e-01,-8.043300934513454223e-03,-7.877105289676462202e-03,4.027991185468011905e-04,1.805948913097381592e-01
-2.624840460064242764e-01,-4.184651724046769550e-01,-4.429263001447921178e-01,-1.577302823440829629e-02,-1.226024362412605519e-02,9.864949639671235712e-03,1.738769412040710449e-01
-2.646695614551453080e-01,-4.314763127179637170e-01,-4.411032954516377891e-01,-1.856194634641534710e-02,-9.838905272280493511e-03,7.376998211912092103e-03,1.760974973440170288e-01
-2.975665465007517607e-01,-5.016874834139001260e-01,-4.690716854320730045e-01,-7.791448861273829463e-03,-2.997497125035640878e-02,1.095343580340085374e-02,1.982652992010116577e-01
-2.680810690103572203e-01,-4.492803362839642434e-01,-4.468109949889095267e-01,-4.147632598234539218e-03,-4.034089248797761290e-03,2.732920164462247000e-03,1.803182363510131836e-01
-2.888302256772850574e-01,-4.707981153218799841e-01,-4.812724927486794479e-01,-1.668957772779218821e-02,-1.294825025451357310e-02,-1.150882536892439568e-03,1.909727603197097778e-01
-2.660923906475147760e-01,-4.422999057856391580e-01,-4.469485838802527145e-01,-4.032682906452545075e-03,-4.205763218096698203e-03,2.592913832055979313e-03,1.789185702800750732e-01
-2.944698957839987363e-01,-4.830783285165404228e-01,-4.929895149876243887e-01,-1.963553172795154747e-02,-9.928778869728507178e-03,2.628804485567261522e-03,1.975192129611968994e-01
-3.071848808503814254e-01,-3.663938463879727880e-01,-4.302985915749717449e-01,-2.449721971458592579e-03,7.225377401863869930e-04,2.947268949986448644e-02,1.183162704110145569e-01
-2.518237851072247513e-01,-3.444783748601650264e-01,-4.039008794128786661e-01,-3.891477561108316885e-02,-2.677631721084795455e-02,3.808457198727802084e-02,1.693132370710372925e-01
-2.630625664388093754e-01,-3.275096074019172576e-01,-3.170277800062014095e-01,2.390383257074903470e-02,2.663463923625521146e-02,7.589658940308378898e-02,1.571974456310272217e-01
-2.678073630430923835e-01,-3.519710221653775117e-01,-3.268722298325379971e-01,3.604345181511235674e-02,3.375718761102319831e-02,7.418539209694162417e-02,1.715445071458816528e-01
-2.876012826367356778e-01,-4.096075074170206221e-01,-4.442092401379247324e-01,8.901429184730004496e-03,-1.258643931474929742e-02,-7.070588063560693214e-03,1.454900950193405151e-01
-3.055980588025429823e-01,-3.817403755802964427e-01,-4.071491838648562123e-01,-1.517112562849245224e-03,3.880805456479465097e-03,3.152049063666392120e-02,1.068206727504730225e-01
-2.911857417295442563e-01,-4.006889074431396747e-01,-3.692676517592242136e-01,8.572519560831404553e-03,6.289137589035196686e-03,3.194781210818996992e-02,1.137480735778808594e-01
-3.218628033439662750e-01,-5.258829648389877764e-01,-4.080187876482611053e-01,-3.216598039512558876e-02,-6.438884805001773848e-02,3.922228231931430831e-02,2.272144556045532227e-01
-2.805519725308052159e-01,-4.649080951177996246e-01,-4.457339983265089511e-01,9.693800207567378896e-03,2.543706737282363378e-02,5.342151508506411302e-03,1.820126920938491821e-01
-3.172739274847722335e-01,-4.948763878357602120e-01,-4.399270158513620688e-01,3.101917742624420160e-02,5.239548061314123345e-02,3.438089082883414443e-02,1.986743211746215820e-01
-3.098829995295176998e-01,-4.983971244821392421e-01,-4.395215870276654724e-01,5.152441498530480578e-03,2.248977464371151522e-02,8.838863114904772084e-03,1.724425256252288818e-01
-2.717925449082989608e-01,-4.535978141272913877e-01,-4.556719811659010189e-01,1.180127058326494675e-03,1.359397845481310216e-03,-4.733802449399660125e-04,1.828795969486236572e-01
-2.920866061851281059e-01,-4.905520212335094943e-01,-3.774022144949688573e-01,2.199797219927289438e-02,4.648788484671249194e-02,2.210714004148141287e-02,1.978291124105453491e-01
-2.783197133866196493e-01,-4.503315820191551855e-01,-3.679540569750660572e-01,1.764467591018323983e-02,4.134202196552524966e-02,1.944838223974061295e-02,1.714655607938766479e-01
-2.490749581987302397e-01,-4.262141347022323501e-01,-4.499804061485271900e-01,4.000237343348582442e-02,-1.791509914017186400e-02,-1.256415206333465207e-02,2.058884650468826294e-01
-2.939066477352334505e-01,-4.764712109655461214e-01,-5.283361365872960569e-01,3.317743037413688201e-02,-4.261899804273934500e-02,-2.263052044754474898e-02,2.361700087785720825e-01
-3.152063013445148831e-01,-5.163306738254218597e-01,-5.063746537037779882e-01,4.926560662373917487e-02,-5.768182676349192101e-02,-3.525063518274778457e-02,2.440049946308135986e-01
-2.871647241663316530e-01,-4.869014777618204115e-01,-4.766592258649242630e-01,1.467739261980762454e-02,-8.774507318252579638e-03,-1.636352899494870070e-03,1.970766484737396240e-01
-2.851198201226586848e-01,-4.382189070515680185e-01,-4.815162345731690552e-01,4.150676909359048150e-02,-5.208113012594253743e-02,-4.008443682467534297e-02,2.237606346607208252e-01
-2.743403012187263790e-01,-4.625916196536262182e-01,-4.622092692887248000e-01,1.157228373063010074e-02,-1.008146227927411535e-02,-5.683004470326339687e-03,1.901848465204238892e-01
-2.829110827572015596e-01,-4.778152882210749963e-01,-4.711317487868694753e-01,1.288876670836283829e-02,-8.592325792983872626e-03,-8.569103197933426383e-03,1.940871030092239380e-01
-2.757204167736135858e-01,-4.533639284618522503e-01,-4.519809511594777840e-01,3.125177978835720627e-03,-2.654541197196958260e-03,9.971445038315103048e-04,1.771069616079330444e-01
-2.698484160666886345e-01,-4.549674490783142122e-01,-4.521479417027706171e-01,1.850364849670878319e-03,-1.130721644467384953e-03,2.928493901282588278e-04,1.837645918130874634e-01
-3.018793799866333893e-01,-4.157807334518144882e-01,-4.107879230729455933e-01,2.307114032757867899e-03,1.608379808024912230e-03,4.748844737549453264e-03,1.118979081511497498e-01
-2.715640831366444297e-01,-4.532044089781338547e-01,-4.522917599243137521e-01,4.649542467685638045e-03,-3.084711192501507319e-03,2.585635176472707623e-04,1.814438402652740479e-01
-2.685696731016213867e-01,-4.499499011895236600e-01,-4.496599323950760674e-01,2.099163850255287862e-03,-1.118855889204463947e-03,9.045900422401571838e-05,1.812823116779327393e-01
-2.936499752791277840e-01,-3.708604340746347594e-01,-4.747272414028033682e-01,4.419882609261345519e-02,4.285611831964045333e-03,-7.119547451752805678e-03,1.756050735712051392e-01
-3.210834898611226174e-01,-4.075615086749412863e-01,-5.547791022835165675e-01,8.347257459084903020e-02,-1.381735984633405620e-02,-2.416406437894711920e-02,2.551666796207427979e-01
-3.264156930773656762e-01,-4.271249948142721298e-01,-4.524399569203647609e-01,1.513031550208948639e-02,-1.749036414587135449e-02,-3.071937189598376167e-02,1.332974880933761597e-01
-2.823897336678046210e-01,-3.505340702376120166e-01,-4.603355691005084904e-01,4.732737095100570529e-02,-2.197418233830056647e-02,-2.228526109563568058e-02,1.839578896760940552e-01
-3.047377086818817693e-01,-3.557941151292787207e-01,-4.652870206160533706e-01,2.802882110961172138e-02,2.957690361557253661e-04,5.381858714537570820e-04,1.501457393169403076e-01
-2.686573327078598528e-01,-4.422568685068533623e-01,-4.487540034449106763e-01,-5.244011366488294384e-03,5.733166018704121195e-03,-2.064530128366125639e-03,1.774846613407135010e-01
-3.229258316223913017e-01,-5.115173472713432368e-01,-3.487374691407253424e-01,-2.375722036157220697e-04,-6.154532413857845274e-02,3.352385153731887030e-02,2.147098928689956665e-01
-2.684500333750698964e-01,-4.407571059122800117e-01,-4.491769271638332839e-01,-1.059999423604298698e-02,1.177872231671220696e-02,-5.655346802494146119e-03,1.790549010038375854e-01
-2.624152337515902045e-01,-4.459552631091557306e-01,-4.304137563568748992e-01,-2.946327542495410026e-02,3.166371371678502328e-02,-2.207566383129742557e-02,1.953203082084655762e-01
-2.827325332799098812e-01,-4.353303843480721413e-01,-4.531818901301302716e-01,-2.911918179538181689e-02,2.743480033094321952e-02,-2.518790955793434941e-02,1.817524731159210205e-01
-2.739918286686492399e-01,-4.535755896616879834e-01,-4.537593139881253013e-01,-5.124557924597500196e-03,5.677755384226893832e-03,5.061526683680327957e-05,1.801634132862091064e-01
-3.056010543631770826e-01,-3.956365516863281084e-01,-4.360000607612819490e-01,1.698946602300840589e-02,-2.086124534563213798e-02,-2.854507260535816063e-02,1.341108381748199463e-01
-3.288961569337912616e-01,-4.340506119916853756e-01,-3.517262112367344207e-01,9.219353364293034550e-03,9.747977374617996030e-03,-7.369951310829953028e-02,1.612851619720458984e-01
-3.641522228420517315e-01,-5.028699652685914012e-01,-3.842088375822940716e-01,-2.736258693654446909e-03,5.829279576486423413e-03,-7.938526788376754073e-02,1.894548386335372925e-01
-2.938953791316613051e-01,-3.950558547135124554e-01,-3.673663724321363788e-01,1.362712628846447218e-03,-6.641411021481859970e-04,-3.088609245663759273e-02,1.052036806941032410e-01
-3.429757188347600794e-01,-4.412091645567107201e-01,-4.397530093158608655e-01,3.079704437137789023e-03,9.168704660239634192e-04,-4.294984355345692756e-02,1.227759346365928650e-01
-3.057242125374056152e-01,-3.549222340671330800e-01,-3.652984296542265419e-01,-9.863728572006310799e-03,-6.541889550529393941e-04,-8.645976754129175434e-02,1.604918539524078369e-01
-2.942508816892637213e-01,-3.872911312263334627e-01,-3.547627893372155561e-01,7.220881179902532282e-03,-1.138324590569065459e-02,-6.349280420139460923e-02,1.390226632356643677e-01
-3.344161220648708133e-01,-4.635450657745919800e-01,-3.902591919648587537e-01,-1.130661873597548113e-02,-1.734222603850094427e-02,-6.627309100235383166e-02,1.644503623247146606e-01
-2.756466208034250576e-01,-4.378841111648560935e-01,-4.551487541204499165e-01,2.632937518120275627e-02,-2.537246080731880848e-02,-1.613682493825787170e-02,1.849654763936996460e-01
-3.078049984351198809e-01,-4.605973816981082103e-01,-4.779225912444198254e-01,4.651823139626809489e-02,-3.497888824630724508e-02,-2.796960925754608460e-02,1.969825774431228638e-01
-2.982574929891495530e-01,-4.700105522742987207e-01,-4.676089791337593726e-01,3.096718386184930949e-02,-4.826083800960091763e-02,-4.381896418165115437e-02,2.114637941122055054e-01
-2.716370612368271820e-01,-4.636913815335939049e-01,-4.488316174368355838e-01,6.572778416761027205e-03,-8.642766433384851954e-03,-5.283960945131863270e-03,1.862505078315734863e-01
-3.005262250432548243e-01,-4.429306794580330497e-01,-4.630946151385121334e-01,3.527691683753295809e-02,-3.832300890455349329e-02,-5.761257940461832205e-02,2.040931582450866699e-01
-2.734390959819549827e-01,-4.524741870893328466e-01,-4.504461298780598200e-01,5.816157988044777689e-03,-5.924799873147311088e-03,-9.514980541813361243e-04,1.786171644926071167e-01
-3.258867919218866316e-01,-4.712683706306565745e-01,-4.378426429328129421e-01,-2.281321688124840832e-02,-3.709338875280823039e-02,3.009170992275797540e-02,1.606213450431823730e-01
-2.840283109239639669e-01,-4.423455002425218385e-01,-3.999680479008156930e-01,-2.052810721397885230e-02,2.308153956083126151e-02,-1.808805992922042985e-02,1.549035757780075073e-01
-2.784045475778150758e-01,-4.619921537471105566e-01,-4.696430895378588821e-01,8.590575534319267251e-03,-8.133256339416488137e-03,-3.316361797441923567e-03,1.887336820363998413e-01
-2.832207770439700290e-01,-4.452544171317341926e-01,-4.604412197509634153e-01,-1.075895457568089124e-02,-7.440348891929042183e-03,2.946034425411651805e-03,1.717139780521392822e-01
-2.728745805170836869e-01,-4.552311689479969781e-01,-4.579772689226345173e-01,9.061724595663565515e-03,-4.904553696499785662e-03,-2.393271182733715946e-03,1.846562474966049194e-01
-2.817788205754673259e-01,-4.639098558544305639e-01,-4.917084520707372119e-01,2.803197677889677011e-02,-8.708377667867504140e-03,-1.443409035801099596e-03,2.039573341608047485e-01
-2.683165762147708411e-01,-4.534441270439866778e-01,-4.615971028734070503e-01,1.166121761009213109e-02,-2.370962873862121883e-03,-2.367925499215893504e-04,1.904547363519668579e-01
-2.819594677632223378e-01,-4.500208963263583883e-01,-4.704444492106329423e-01,1.089876831038237397e-02,7.911245569994777198e-04,2.214196046513504346e-04,1.801459193229675293e-01
-2.829476523744014482e-01,-4.652918505352532375e-01,-4.757633958111512906e-01,2.281368679313756573e-02,-6.051417880029432046e-03,9.822399898493934089e-04,1.922046542167663574e-01
-2.784639475332154612e-01,-4.730035165923424101e-01,-4.681032572390980140e-01,5.051729723748241488e-03,-3.521145601503888195e-03,1.652489138512197630e-03,1.924533993005752563e-01
-2.769563866937068686e-01,-4.626936847728035374e-01,-4.714674128431066702e-01,4.906212647826728099e-03,-1.916741616250129936e-03,4.310317420138857006e-03,1.906407624483108521e-01
-2.540320415700074719e-01,-4.472416227866398142e-01,-4.368486728099773009e-01,-2.267974959548596167e-02,3.248822718278461530e-02,-1.950573302019659172e-02,2.031770795583724976e-01
-2.788980285792144187e-01,-4.764381698346497052e-01,-4.641090928474300159e-01,-3.294848428417776476e-03,1.528371923831955970e-02,-2.657860841250322612e-03,1.936315149068832397e-01
-2.746503991179782278e-01,-4.288684769704891875e-01,-1.431378022129956573e-01,-3.738083712068531860e-03,-5.217869454517992667e-02,6.939948818737802505e-02,2.898603677749633789e-01
-2.726175883207885287e-01,-4.649248706194452074e-01,-4.533739277422557112e-01,-1.685604500958748928e-03,1.360902974443956373e-02,-5.847956768731489563e-03,1.885760426521301270e-01
-2.841283040172011831e-01,-4.708188247671106774e-01,-4.929879259950644688e-01,1.433259883939495133e-02,-8.256877971529962251e-05,-1.154837292996182792e-03,2.002595067024230957e-01
-2.755460086210752557e-01,-4.659929043557015649e-01,-4.753810416960533858e-01,8.518264235130350304e-03,-4.472864316790784583e-03,-9.571475894961025289e-04,1.960269063711166382e-01
-2.808707804326685542e-01,-4.638820077786562912e-01,-4.747324054169901331e-01,1.025622731998484041e-02,-3.778640275030602669e-03,4.435311290870612368e-04,1.896195709705352783e-01
-2.484709222548882046e-01,-3.961359165108413460e-01,-4.276906417524593551e-01,3.767625660218098388e-02,-2.408478132608213654e-02,-1.863029685211615993e-02,1.857422292232513428e-01
-2.953084295966910133e-01,-4.742425398819344884e-01,-4.949936535716040198e-01,2.279879582664380913e-02,-7.260937103767547366e-04,1.280888380341938058e-03,1.942343115806579590e-01
-2.856161980576731318e-01,-4.760128535080651591e-01,-4.915944383601074108e-01,1.118736449308754821e-02,2.679579174136346043e-03,-1.448842935745540397e-03,1.996588706970214844e-01
-2.759606026889122599e-01,-4.660007053298513280e-01,-4.635251115913713305e-01,-2.102492033821318218e-03,1.325656716285129226e-03,-1.459727852372911475e-03,1.888804733753204346e-01
-2.705392343862411675e-01,-4.596328976613017203e-01,-4.496359158437862047e-01,-6.933553498160356134e-03,1.273143041642500403e-02,-3.760252905078571503e-03,1.861152797937393188e-01
-2.736618903518485135e-01,-4.638755115366883230e-01,-4.612403983753501913e-01,-6.468640949905426997e-04,1.381496325522499347e-02,-3.428124365876121342e-03,1.905151009559631348e-01
-2.715113142845182459e-01,-4.615449291611498639e-01,-4.548818601422059960e-01,-4.121371729810440138e-04,4.251700670569512862e-03,1.045604478384430268e-03,1.869464814662933350e-01
-2.750703676925722041e-01,-4.675156562109705205e-01,-4.569234820871119762e-01,-6.408060236490703034e-03,1.179615235643437406e-02,-1.354456383536695543e-04,1.888111829757690430e-01
-2.728286721612660504e-01,-4.611431273091999294e-01,-4.564578137659792145e-01,1.325243360540638289e-04,1.382516818109545253e-04,-6.715886336970286160e-05,1.860163956880569458e-01
-2.763461051405437519e-01,-4.610503862486347026e-01,-4.585874708504488195e-01,-4.935982363546985267e-03,-6.842762690067232152e-03,3.677086259579256673e-05,1.840662658214569092e-01
-2.968620663473043875e-01,-4.785309022263855017e-01,-4.037707339349904112e-01,-7.996755804859600331e-03,-2.120452459481945995e-02,1.375828648272417985e-02,1.646804958581924438e-01
-2.739455692822255206e-01,-4.611238974175263516e-01,-4.282798533506544381e-01,-3.728299254168868700e-03,-8.444472355146474471e-03,4.197510737671601537e-03,1.739978492259979248e-01
-2.736756730479022459e-01,-4.666765791658938900e-01,-4.466984304084300472e-01,-1.509250745084008338e-03,-6.831257201484860347e-03,-8.911806130918073726e-05,1.842268407344818115e-01
-2.701172211593658168e-01,-4.563451216373120012e-01,-4.405208725052558449e-01,-4.628612741788855865e-03,-7.756596810665406481e-03,8.033159414526831483e-04,1.795300096273422241e-01
-2.817390888573072516e-01,-4.749641949756121528e-01,-4.648570387886979960e-01,-2.314352339415482688e-03,-8.899100594772488271e-03,-1.737654645461919308e-03,1.890710145235061646e-01
-2.349931109537527485e-01,-4.383245498682420971e-01,-3.308418257542374286e-01,-1.150634886147364720e-02,6.956110690468624014e-02,-1.848217868983529494e-02,2.167482376098632812e-01
-2.608747173218651794e-01,-4.518737366070012529e-01,-4.022564105066704920e-01,1.740673743390699349e-03,2.729185849571122077e-02,1.758232980082778804e-03,1.780970096588134766e-01
-2.954211635900117483e-01,-4.726268818000965433e-01,-3.615843519015047858e-01,-2.410304172573481379e-03,4.694094409510337490e-02,-1.074941886819185712e-02,1.761515587568283081e-01
-2.929804399071093135e-01,-4.881833543583481982e-01,-3.641479678692483568e-01,-6.844630844388525232e-03,5.109319521164079614e-02,5.495790600768187331e-03,1.932345479726791382e-01
-2.720593592095092439e-01,-4.683889610466063780e-01,-4.182264711131359336e-01,-1.760684820905336970e-03,2.516046379716369366e-02,-5.100429414164321835e-03,1.822078377008438110e-01
-2.636255658884898434e-01,-3.533586953841870715e-01,-4.064233717272044411e-01,3.103682771472372065e-02,-2.281250296201041416e-02,-4.104951615441020107e-02,1.585428267717361450e-01
-2.945965647156519318e-01,-3.727951806833412762e-01,-4.305407911980352331e-01,2.775353252814615271e-02,-2.246852613961123138e-02,-4.612207241421553694e-02,1.554741859436035156e-01
-3.351161582708792608e-01,-3.630210888847039685e-01,-5.092602649537103510e-01,8.921191168117879183e-03,-7.467934879537540746e-03,-3.949774793146505758e-02,1.770075261592864990e-01
-3.057031522789230293e-01,-3.471709447559966355e-01,-4.530954661109536374e-01,1.933042496976818819e-02,-3.069530533706987460e-03,-2.069987577402125287e-02,1.405942887067794800e-01
-3.388911058352528372e-01,-3.595593169221485419e-01,-5.135404333516616626e-01,2.995417042060338417e-02,-1.617241266640823821e-02,-4.228732704009043747e-02,1.901602596044540405e-01
-3.155502460405964493e-01,-3.299754559441991364e-01,-4.554168500091083649e-01,2.437327490545840650e-02,-1.486845110531980797e-02,-2.870415171399640433e-02,1.505666524171829224e-01
-3.235739000616015826e-01,-4.153933750108061429e-01,-4.382313760007660042e-01,-2.813028671043621247e-03,8.991347150598804489e-04,1.778420520732543197e-02,1.096556559205055237e-01
-3.048256023835489992e-01,-4.389285168397873416e-01,-3.937524658275462497e-01,-1.558902822478524033e-02,-9.890996916161732405e-03,3.000386938446543070e-02,1.330017745494842529e-01
-3.235528199941652971e-01,-3.738892933233564086e-01,-4.318436974135499984e-01,-1.995350812519653023e-03,3.045644372636816064e-03,6.606606996286901179e-02,1.481338739395141602e-01
-3.013069058463261340e-01,-4.306064900344959145e-01,-4.466624113007234831e-01,-1.483348883543632833e-02,-1.262644780738934012e-02,2.372947822576895044e-02,1.479183584451675415e-01
-3.310216163232670983e-01,-4.493038048911662807e-01,-4.462582841360993036e-01,-2.081674010785573847e-02,-2.555647701458543808e-02,3.378157519325436509e-02,1.425577551126480103e-01
-3.222069622067054162e-01,-4.284290951133470360e-01,-3.867569404061491634e-01,-3.930630776465350584e-02,-4.455469551890395286e-02,1.029736532976335273e-01,2.258190512657165527e-01
-3.140604730695142344e-01,-4.422475685797100931e-01,-4.251550632392552265e-01,-5.117287492662000482e-03,-3.676213070532849750e-03,1.392345933707042800e-02,1.234250292181968689e-01
-2.746094399707756373e-01,-4.633586973059476977e-01,-4.551016217177869527e-01,-1.219430101845335197e-03,-3.380523961137421032e-04,-6.185331377614885454e-05,1.847721785306930542e-01
-3.059325457276079741e-01,-4.048431083349048887e-01,-4.082911411294938286e-01,6.643545900085456304e-04,-4.576431676716371036e-03,1.615708976079979764e-02,1.048024073243141174e-01
-3.326327455861004534e-01,-4.242721482058797733e-01,-5.380816640229547643e-01,-6.288047232064090941e-02,-2.975450527885896770e-02,4.913094165328674851e-02,2.313854396343231201e-01
-3.300567660678974669e-01,-4.174282399526319520e-01,-5.260788511856300254e-01,-5.060973887342699873e-02,-1.664732632718516486e-02,4.193247733254660409e-02,2.066933214664459229e-01
-2.875896998461529019e-01,-4.637049905458419108e-01,-4.629047828041326640e-01,-1.765238087568819433e-02,-1.430520751746710076e-02,7.922184418221485738e-03,1.805915981531143188e-01
-2.992925145774066320e-01,-4.292966084271556682e-01,-4.749025211013441772e-01,-2.975094274989963095e-02,-1.583733074513667127e-02,1.340448764184764760e-02,1.698728352785110474e-01
-3.017313112874286940e-01,-4.171336406255181650e-01,-4.885325564568124834e-01,-2.749053766861771914e-02,-1.161664348592176405e-02,5.464021585915804918e-03,1.715129762887954712e-01
-2.941008640534057972e-01,-4.160996341689993105e-01,-4.642551372081858418e-01,-2.081454440823148067e-02,-5.879793550921401726e-03,9.340294707614150288e-03,1.572982519865036011e-01
-2.762918688523771649e-01,-3.631538962787880243e-01,-4.617646031092609293e-01,-3.754781151053448313e-02,-1.195710228454462988e-02,1.818303397137596700e-02,1.774398684501647949e-01
-2.936495053107299191e-01,-3.408246989805606697e-01,-4.533056213671770029e-01,-3.442250382617859789e-02,-1.116355161366021538e-02,3.099690996287019287e-02,1.643009185791015625e-01
-3.202727017567751910e-01,-4.005404052425947103e-01,-4.746256206136655331e-01,-1.962564536109014796e-02,-1.313770043480930357e-02,1.966726622909818409e-02,1.439162045717239380e-01
-2.782111728968869047e-01,-4.526179526719213975e-01,-4.469530471941023375e-01,-5.277605007340530410e-03,-2.276578237237549072e-03,9.675511662968346808e-04,1.719410717487335205e-01
-2.780215688496080473e-01,-4.522308273199697748e-01,-4.512741872732253801e-01,-4.404463368175168259e-03,-3.918655379511598418e-03,7.608430557550404294e-04,1.740377247333526611e-01
-2.844067482772357214e-01,-4.502767825881528463e-01,-4.402634854007523302e-01,-9.772924923334109365e-03,-7.590880094518498433e-03,3.582606559481200850e-03,1.626349538564682007e-01
-2.789232302936839325e-01,-4.406579743368014279e-01,-4.430826929173312112e-01,-4.383072074665299994e-03,-6.856272505706462010e-03,2.111411397149314407e-03,1.636099070310592651e-01
-2.869408270512452952e-01,-4.481506131819534278e-01,-4.319184542086301204e-01,-9.515491427070955910e-03,-4.358971869039613388e-03,3.846258481699561717e-03,1.549461632966995239e-01
-3.243644178870943584e-01,-4.505869085753740899e-01,-4.563019657022159281e-01,-2.515925368877680937e-02,-2.371373758967353085e-02,5.053265969612954350e-02,1.671310365200042725e-01
-2.753385561495952372e-01,-4.571675416499154099e-01,-4.558095226996927152e-01,-5.782179696595633744e-03,6.292701778245180476e-03,4.543863531763443265e-04,1.817592084407806396e-01
-2.716516602349644538e-01,-4.585969287553108842e-01,-4.521809903348299464e-01,-1.360612030099010716e-03,1.619591623535113385e-03,-2.934499698994558225e-04,1.838584989309310913e-01
-2.695478882290296974e-01,-4.558770841160906251e-01,-4.522997831801377489e-01,-2.140969978815808299e-03,2.413013655749762527e-03,1.109994323752484306e-05,1.846511065959930420e-01
-2.701076062807654665e-01,-4.517503866281888936e-01,-4.487035108731544653e-01,-1.113837689691403064e-03,1.092194741604509030e-03,-6.653894664199791996e-04,1.801626235246658325e-01
-2.691597612283790353e-01,-4.522310061043245399e-01,-4.504372490576514232e-01,-2.059692817365339160e-03,1.859254612210342605e-03,-2.913903299936424244e-04,1.822450757026672363e-01
-3.043586495622131460e-01,-4.763722882751433296e-01,-4.410873066748066673e-01,1.340498762777614893e-02,-3.466868573332440584e-02,-1.810384699895184121e-02,1.728939116001129150e-01
-2.935663663945738966e-01,-4.583703592032729590e-01,-3.676145389007995368e-01,7.498791116838619819e-03,-2.512890107276609386e-02,-9.304775773793816721e-03,1.508736908435821533e-01
-3.123562591427389012e-01,-4.531050854219219604e-01,-3.299733228791589257e-01,2.400306743703507079e-02,-2.750915136823517751e-02,-4.439879583881461977e-02,1.659923940896987915e-01
-3.453647690121298686e-01,-5.173583783173647532e-01,-3.593687271038523701e-01,1.407187142758609469e-02,-3.407643460833823662e-02,-5.164656510719054655e-02,1.986179351806640625e-01
-2.928548510044715059e-01,-4.274284270638922800e-01,-3.256560541064895120e-01,1.464366192922525976e-02,-2.477494572374581289e-02,-4.541171062430916783e-02,1.531116068363189697e-01
-2.787203174701395336e-01,-4.666379361918455704e-01,-4.707696325798202963e-01,-8.986355867781136569e-03,-7.286875892071535514e-03,-1.625802248502197962e-03,1.910916268825531006e-01
-2.766068195137630914e-01,-4.614010083248820671e-01,-4.739493674180376148e-01,2.384993951324430872e-02,6.964257277230830913e-03,6.796137340094267256e-04,1.961595416069030762e-01
-2.293014052979189255e-01,-1.661534149202337218e-01,-4.319635028923137776e-01,1.073960927477510818e-01,9.989666704534487518e-03,5.433361301894081181e-03,3.047080636024475098e-01
-1.288700770024151232e-01,-1.979618026637379180e-01,-3.935480982649576243e-01,1.492809228755917761e-01,5.815436404819555698e-03,-1.103895137337665465e-03,3.514264523983001709e-01
-2.903624235421583544e-01,-5.458055622679933716e-01,-5.957981304534980538e-01,1.366197679070781379e-01,-5.961986465100029692e-02,2.782294363536751483e-02,3.866542875766754150e-01
-2.933070405987082685e-01,-2.454339111644162630e-01,-4.931648160795081837e-01,1.423609060829015560e-01,1.950254462866927302e-02,5.325221647040738471e-04,3.372603952884674072e-01
-2.948719643206052510e-01,-4.382953675865753351e-01,-5.003329026477830732e-01,6.699322275716210195e-02,-8.220676459001279371e-03,-1.129318318263095554e-02,2.176377326250076294e-01
-3.224378204554088079e-01,-4.273266313452951382e-01,-5.414548317049391324e-01,6.177148016180703666e-02,7.155076561012786371e-03,2.150498950366543094e-02,2.213273793458938599e-01
-2.899520468956162111e-01,-4.799410166095614549e-01,-4.832771984989364666e-01,-1.040648920431998074e-02,-7.301002461083460487e-03,2.153895398641796945e-03,1.929753720760345459e-01
-2.767348448718314757e-01,-4.648688238227121627e-01,-4.593646194332051680e-01,-6.715927739042858603e-04,-8.607597389342139943e-03,1.399616819717569224e-04,1.860452741384506226e-01
-2.805744062493880087e-01,-4.694885843445407714e-01,-4.696213559027103135e-01,-2.810456989228222145e-03,-1.383764841646203253e-03,-1.264743808113762353e-03,1.890711635351181030e-01
-2.770703929476384664e-01,-4.662777159704540875e-01,-4.628393778416897142e-01,-1.431621734874699396e-03,-1.129613996741383845e-02,8.382272488521988127e-04,1.885516941547393799e-01
-2.739931208958356068e-01,-4.627729126309371166e-01,-4.566748679750735063e-01,-1.387371222269750872e-03,-1.883471342026453227e-03,-2.219915811619934710e-04,1.858504116535186768e-01
-2.699647687962906661e-01,-4.477044369692143588e-01,-4.482531792363823597e-01,-1.562968737159965314e-03,-6.317317448235604260e-04,3.622418050414068723e-04,1.780397295951843262e-01
-2.715134194793727973e-01,-4.608152176805874189e-01,-4.548843668990487088e-01,-2.341359757748509660e-03,-2.358996952302516714e-03,-2.309018171227356759e-04,1.864964514970779419e-01
-2.754415333120072695e-01,-4.655065783778526978e-01,-4.628374889734597764e-01,-2.974792419391647687e-03,-3.577701263538851303e-03,-1.350242345671973663e-03,1.889311075210571289e-01
-3.038188339137192218e-01,-4.147551099183011125e-01,-4.336997193747856860e-01,-4.731531377362903704e-03,-6.423592448918950294e-03,1.759988645617946781e-02,1.260460913181304932e-01
-2.897336158895049141e-01,-3.723427990448204272e-01,-4.187844570794979071e-01,-1.427924661991442426e-02,-1.148208860334585212e-02,3.525645523452483610e-02,1.324910223484039307e-01
-2.914356983406246604e-01,-4.395774814188598278e-01,-4.268394882572647542e-01,-1.215713472942876565e-02,-1.479794334369528494e-02,9.941224353114503157e-03,1.470306962728500366e-01
-3.024347168635632688e-01,-4.281986227561278002e-01,-4.375655428995107177e-01,-9.390792275645399104e-03,-1.628080453759812168e-02,1.476946906947399982e-02,1.371002793312072754e-01
-2.817020042824866510e-01,-3.664197554109340227e-01,-4.009248727146790259e-01,-1.428306029436432825e-02,-1.363395443515894381e-02,2.902864744211845413e-02,1.224277541041374207e-01
-3.008245644317111278e-01,-3.857467514466885738e-01,-4.011746671738199987e-01,-2.461029203626766918e-03,-5.801346019643106346e-03,3.273300703968046871e-02,1.099702566862106323e-01
-2.757636608215245366e-01,-4.530621965894094938e-01,-4.456211800781544885e-01,-4.896278088501035061e-03,-1.298036111586212300e-03,-4.079028854364546508e-04,1.739204823970794678e-01
-3.113473009807965486e-01,-4.451790652503280210e-01,-4.306485919015514696e-01,2.486069536963846430e-02,2.256118654232465437e-02,2.121588568331369065e-02,1.445993185043334961e-01
-3.069595204595495508e-01,-4.163177493605333956e-01,-4.200610156569344888e-01,2.336302929552979465e-03,7.392253247639850137e-03,1.345926761050241817e-02,1.144830062985420227e-01
-2.975977863794060374e-01,-4.360778785304473826e-01,-4.259048961015153845e-01,7.792391429792537572e-03,6.990776079619671728e-03,1.074182085318593945e-02,1.361851990222930908e-01
-2.652938141260913207e-01,-3.807357359100573269e-01,-3.393410132048842454e-01,3.186268683519821732e-02,3.920342218582598126e-02,5.790971535782965529e-02,1.672683358192443848e-01
-3.272928369140594151e-01,-4.637255363008077058e-01,-4.678958097893479717e-01,2.738788654359531130e-02,2.220476108658525627e-02,2.778874145957001968e-02,1.588909029960632324e-01
-3.014906366469138899e-01,-4.731022557945403495e-01,-4.031451252054766288e-01,1.983415122129017841e-02,3.886548984934673490e-02,3.442646237505469359e-02,1.777818799018859863e-01
-2.957469128636567302e-01,-4.868410511051982636e-01,-4.709831826206909433e-01,1.340418991894972399e-02,2.070734366432185752e-02,1.184957121278172425e-02,1.896964162588119507e-01
-2.639548581965431850e-01,-4.753160088804319061e-01,-4.812546189128590335e-01,1.571469091156435516e-02,1.215232289215105455e-02,2.212077647559481958e-03,2.171694338321685791e-01
-2.756614358733121550e-01,-4.713877035379945291e-01,-4.659922700151060693e-01,1.182476923442064669e-02,1.482079409175928245e-02,2.835288817547080859e-03,1.959194093942642212e-01
-2.422118726859932292e-01,-4.104284200624108148e-01,-4.079218639719060513e-01,3.392112407644016364e-02,3.373094400861804260e-02,2.129886662664622066e-02,1.900200694799423218e-01
-2.678365501496134948e-01,-4.620371043007396872e-01,-4.471375639297102134e-01,1.024866519510956274e-02,1.458022251606620225e-02,-7.074036329736129803e-04,1.897279769182205200e-01
-2.754991436069070820e-01,-4.771337636658802284e-01,-4.529577092197482058e-01,3.331298444906193035e-02,3.574489063757355783e-02,3.440487460504595280e-02,2.169786095619201660e-01
-2.130471522271997209e-01,-3.912060219248778004e-01,-2.869470188298084978e-01,-5.356483737480218638e-02,8.384343249788307750e-02,-7.312334475540928358e-02,2.641470432281494141e-01
-3.000541870516725274e-01,-5.368694291769892102e-01,-4.586323164072298453e-01,-1.370619896377490814e-02,7.349211344164315041e-02,-4.474281139825747600e-02,2.577738761901855469e-01
-2.849356392032741936e-01,-4.854365549041670391e-01,-4.408845546186294651e-01,-1.945544123681711526e-04,2.926967973391434927e-02,-1.315066419564553737e-02,1.906353980302810669e-01
-2.840865200270727420e-01,-4.848116168188778552e-01,-4.733304801841476950e-01,-1.367417744178590737e-02,2.343636123524562437e-02,-5.144561387336943521e-03,2.010123580694198608e-01
-2.551732980402799944e-01,-6.361517790298170105e-01,-3.727159363225645006e-01,-1.096611382642903171e-01,-1.730084729318056569e-01,1.158500536500839395e-01,5.294486284255981445e-01
-3.015765920173275050e-01,-5.409246406490016978e-01,-4.219679398986648233e-01,-3.981815756622680141e-02,9.770406015845836678e-02,-5.429382204654874255e-02,2.918977439403533936e-01
-2.835023309703793570e-01,-4.503682962053414118e-01,-4.530162083917774751e-01,-5.667394531026390472e-03,7.451862259651301397e-03,-2.481244458058640134e-03,1.690400093793869019e-01
-2.731293403791590357e-01,-4.506300464674463102e-01,-4.544781747980609077e-01,-1.348346692509444326e-02,1.674874277353395960e-02,-5.238481851209536577e-03,1.835038214921951294e-01
-2.754690367812996366e-01,-4.590538089019888801e-01,-4.611579176352015308e-01,-7.621459897563934334e-03,6.181521845783924385e-03,6.191492768743457609e-04,1.854295581579208374e-01
-2.746830344949803271e-01,-4.573261032024489303e-01,-4.591807079592687968e-01,-7.439697448062315005e-03,6.163304383562916329e-03,-2.799067017883210184e-05,1.843384653329849243e-01
-2.728920371209226925e-01,-4.534560228029309026e-01,-4.523641264448344801e-01,-6.590158537800760996e-03,8.385164870574366575e-03,-4.415299737806960625e-03,1.811272948980331421e-01
-2.769067165105921213e-01,-4.392818942753604072e-01,-4.411537948243382523e-01,-6.685675808749080807e-04,-5.849251562866072734e-04,-1.070138331910210462e-03,1.633369326591491699e-01
-2.845534476987620076e-01,-4.725917444521946509e-01,-4.759174371444142571e-01,-1.070949010352212002e-02,2.997821848567480511e-03,2.011667668403483138e-03,1.907301694154739380e-01
-2.826875221279845363e-01,-4.854605057143516200e-01,-4.764854611326555522e-01,-2.237269000476495642e-02,1.763617761253624336e-02,-8.049579998549648632e-03,2.049552202224731445e-01
-2.752878800627112099e-01,-4.995317614715027998e-01,-4.834137195780591201e-01,-7.709650559699819661e-03,2.821576973796248444e-02,-1.964563803387904539e-02,2.250673174858093262e-01
-2.699748843648444030e-01,-4.521233768417372012e-01,-4.572578643906046181e-01,-1.166530805880372154e-02,1.423241401842656462e-02,-9.768661289854053617e-03,1.882601380348205566e-01
-2.788607581604900520e-01,-4.305654429109537218e-01,-3.998795441915972693e-01,-1.243212168617548359e-02,1.512575980039494901e-02,-1.921489606383853729e-02,1.468278467655181885e-01
-2.899130810162886540e-01,-4.545196828046290660e-01,-4.615550784027920850e-01,-2.403671155265016054e-02,2.815390914017745425e-02,-8.702626764612968191e-03,1.806691139936447144e-01
-2.625015115946733868e-01,-4.388255701474110260e-01,-3.095475521721452461e-01,-5.024074502016109139e-02,6.367565482495682327e-02,-7.108543588692291249e-02,2.447523921728134155e-01
-3.079185013111004343e-01,-4.680099391854127822e-01,-4.467127856636327610e-01,-1.980912040304253635e-02,2.968810571778364785e-02,-2.285236588809779271e-02,1.675153523683547974e-01
-2.848940233025251123e-01,-4.745864439706584115e-01,-4.744175520368810184e-01,-3.040278906857310157e-03,1.128803832413352928e-02,2.941776334763991814e-03,1.907541751861572266e-01
-2.857566973807921795e-01,-4.492839272559562835e-01,-4.480741238306870100e-01,-7.073972945651549674e-03,-4.654530559784639254e-03,2.349667294649074832e-03,1.636351495981216431e-01
-2.734970088476020300e-01,-4.540915601737068874e-01,-4.546156800449900337e-01,-5.597678140459041995e-03,-6.820302733140951902e-03,-2.415543619621569416e-04,1.815021932125091553e-01
-2.962814636204437191e-01,-4.433576124132350693e-01,-4.500551442085361509e-01,-6.884514858394438427e-03,-8.560960377250258213e-03,7.965646807478637612e-03,1.523604691028594971e-01
-2.824901563298453100e-01,-4.440463408951421109e-01,-4.512450502984628464e-01,-9.357534509721120164e-03,-9.203819089781318033e-03,3.750901743960404627e-03,1.669558286666870117e-01
-2.750857204849451176e-01,-4.576801763553167701e-01,-4.622217223696653554e-01,-9.192822130219586649e-03,7.604158742129417566e-03,-1.088914396930584175e-03,1.860676556825637817e-01
-2.823082325526148351e-01,-4.650407494726999102e-01,-4.626245551001759715e-01,7.995378598362858427e-04,-2.535095422332231917e-03,-6.364163432371149455e-04,1.815982013940811157e-01
-2.864037716820205803e-01,-4.739385951937542529e-01,-4.767603503008802646e-01,-3.671962714410365036e-03,3.650814843655513561e-03,2.795938866514666426e-03,1.892361938953399658e-01
-3.019500676574973785e-01,-4.766152498300041951e-01,-4.873192087254366034e-01,-2.515085219231973958e-03,-3.681954287417962129e-03,4.808441968522396610e-04,1.804229766130447388e-01
-2.777567099523524652e-01,-4.613603001682454186e-01,-4.645732122069697323e-01,-2.686252387908524396e-03,3.529902239249396896e-03,-2.544507271197817889e-04,1.853907406330108643e-01
-2.773623459269661251e-01,-4.593443719504266554e-01,-4.631801613789069960e-01,-3.797933762751259587e-03,4.891592338084407854e-03,-9.346313093027550697e-04,1.842495352029800415e-01
-2.948677306977031676e-01,-4.785258313365444716e-01,-4.803871967471663451e-01,2.662378559968008995e-04,-3.994435334416153796e-03,-6.594508550546390822e-04,1.847295314073562622e-01
-2.888493555867553964e-01,-4.780759569544372756e-01,-4.754978892146634051e-01,1.934482978306061767e-03,-3.129555447508325112e-03,-1.990631397181316566e-03,1.880904287099838257e-01
-2.784011194025555747e-01,-4.647635552017944094e-01,-4.641452357897330461e-01,1.185257257156390256e-03,-8.017179152127107064e-03,6.544795198469002470e-04,1.865862607955932617e-01
-2.841414708413559920e-01,-4.682906961774358501e-01,-4.682960365190062535e-01,6.834108205622644759e-04,-1.376436372619643453e-03,1.229187855675270514e-03,1.841834336519241333e-01
-2.878441506891523116e-01,-4.727424775055091843e-01,-4.747394462051579556e-01,1.090940999045106720e-03,-4.298351964401157625e-03,1.251496012705870155e-03,1.860760897397994995e-01
-2.904471384221689600e-01,-4.714591438400733137e-01,-4.684393517427331011e-01,-2.439759641828631424e-04,-2.365625188178691919e-03,-2.920986781512695360e-04,1.795691251754760742e-01
-2.968215330618849679e-01,-4.707776083296505987e-01,-4.719321522400319324e-01,5.030502021132245974e-04,1.724986450577953388e-03,7.690752503308323756e-04,1.745690405368804932e-01
-2.752493474979981758e-01,-4.539679702205441370e-01,-4.429257776071480746e-01,-5.571404454064552737e-03,-1.645312090468474195e-03,1.262733652718591674e-03,1.737666726112365723e-01
-2.743520461542233724e-01,-4.568975765206308992e-01,-4.548494671125810629e-01,-3.532142324057487709e-03,-4.138031181359857168e-03,1.539189104607079127e-03,1.817941069602966309e-01
-2.658512161603675539e-01,-4.553234612318989849e-01,-4.358086544825460207e-01,-3.678040259477579656e-03,-1.028037210640800336e-02,2.129143154679054295e-03,1.815331578254699707e-01
-2.761306662174078941e-01,-4.652301057515212945e-01,-4.543855650104436927e-01,-3.585353861862605046e-03,-5.776986428039483645e-03,1.036200538976552062e-04,1.842938512563705444e-01
-2.869727969241541166e-01,-4.676566427455959296e-01,-4.560619568395778423e-01,-8.887627924160207069e-03,-1.036212695603432911e-02,-6.320390459077969165e-04,1.767665296792984009e-01
-2.756073767582052914e-01,-4.536400866952873812e-01,-4.279137816426261676e-01,-9.809107416152275036e-03,-9.987397744274397610e-03,-3.285547362992165613e-03,1.685160249471664429e-01
-2.689556113377292168e-01,-4.504141436439447754e-01,-4.557487811601567129e-01,-1.714524929400531618e-03,1.392493454215489512e-03,-3.919112720506048040e-04,1.842247843742370605e-01
-2.903091631303167386e-01,-4.237640555306702583e-01,-4.423184752306125733e-01,1.257408745286616933e-02,-1.250924155901708169e-02,-1.020573107935993269e-02,1.479421854019165039e-01
-2.726040316127574248e-01,-4.457122208291017795e-01,-4.302953202352887141e-01,1.065714260570104627e-02,1.096746581356146562e-02,4.805645575800487901e-03,1.682444512844085693e-01
-2.830766196948354407e-01,-4.118167133423520365e-01,-3.653304543007966365e-01,1.724391943825483858e-02,-2.503458554620094020e-02,-4.787413677922596617e-02,1.496609002351760864e-01
-2.789112292396109805e-01,-4.379832553301770681e-01,-3.941523690109169920e-01,1.532190152629504983e-02,-2.153794780755677665e-02,-2.201946370857427171e-02,1.542831510305404663e-01
-2.873982718188938246e-01,-4.594424726212348875e-01,-4.645886113702273335e-01,1.608519574903527483e-02,-1.021764510716276393e-02,-7.383886776994851367e-03,1.782246381044387817e-01
-3.125511174191902830e-01,-3.742794242722951026e-01,-4.741053067800781728e-01,3.055360587416445020e-02,-9.218584346722309003e-03,-2.672698525038411446e-02,1.585439443588256836e-01
-2.650838526632620096e-01,-4.150128382228829849e-01,-4.419261600684430968e-01,2.045206989277366383e-02,-9.345735024344535916e-03,-4.823262617701976410e-03,1.697786748409271240e-01
-2.963048666966313083e-01,-4.375860556803655155e-01,-4.474269249402900162e-01,1.011440245209691870e-02,-1.028095199487988332e-02,-7.247895558052767050e-03,1.490944027900695801e-01
-2.873451856675430793e-01,-3.717914218153441919e-01,-3.608969188785871030e-01,1.113579756167236597e-02,-1.397030204073376573e-02,-6.050444242547724921e-02,1.351656168699264526e-01
-3.081701964471039723e-01,-4.204625926210379117e-01,-3.718762640705325362e-01,1.898740343709591147e-02,-1.973471804681347502e-02,-5.249875395518326104e-02,1.415366977453231812e-01
-3.013400934258746999e-01,-4.371365195117498659e-01,-4.267886459403961164e-01,8.985045595570912563e-03,-9.665280614140351473e-03,-1.424658491301353594e-02,1.351809352636337280e-01
-3.030527317693886280e-01,-4.863752723285537649e-01,-4.576316508279595907e-01,1.759711877878806022e-02,-2.813334726583554060e-02,-2.006479046931131452e-02,1.835080832242965698e-01
-2.933372697247192407e-01,-4.005026493135394050e-01,-4.639219764328356144e-01,5.494552549789175067e-02,-4.272641406698479000e-02,-3.211026921111170135e-02,1.998240798711776733e-01
-2.771039902989857473e-01,-3.367716436425245985e-01,-3.750723245222397084e-01,2.993916191323226991e-02,-2.307928916264702715e-02,-6.885675157572851424e-02,1.606961786746978760e-01
-3.125791063357950539e-01,-4.521634679832765014e-01,-4.552432391518724253e-01,5.181037493306318853e-02,-3.483835642759587625e-02,-7.412505756163018100e-02,2.193189859390258789e-01
-2.744530121004459255e-01,-4.610481201640234672e-01,-4.641954820205846932e-01,8.449902465161859139e-03,-3.570830296325096069e-03,1.638278572543443818e-03,1.888794004917144775e-01
-2.715645493288885159e-01,-4.581430424076985974e-01,-4.573420800404534026e-01,-1.595529075630924311e-03,-2.473005866923397560e-03,-6.119019321031035586e-04,1.862520873546600342e-01
-3.029013217085347320e-01,-3.923652630180213818e-01,-4.771893119370760328e-01,3.912729431439321282e-02,-1.900680175855450071e-02,-8.439300224649899651e-03,1.693454682826995850e-01
-3.001044238931219188e-01,-4.339014046181938200e-01,-4.285268613715729757e-01,8.085092937981132322e-04,-9.168481469145177160e-04,-2.073759744251351626e-03,1.312585473060607910e-01
-2.779976485902755368e-01,-4.452991026394964580e-01,-4.600150461119156819e-01,8.821485334376115775e-03,-4.208660209136202632e-03,-8.733281857950348859e-04,1.759466230869293213e-01
-2.809659909875674710e-01,-4.459009323778831413e-01,-4.621689312371574099e-01,-9.116969660977348316e-03,-6.544827702870796744e-03,1.844208521918785926e-03,1.747552901506423950e-01
-2.703220596361876060e-01,-4.599121955487402436e-01,-4.594233797222438964e-01,-8.296359763642433688e-03,-2.219074781074097027e-03,1.191082763538786225e-03,1.899407804012298584e-01
-3.159597223644216579e-01,-5.225605557363571796e-01,-4.648589785276584507e-01,-3.333211048276669280e-02,-4.867448134075925276e-02,6.526491006806778294e-02,2.393980175256729126e-01
-2.661798674544291754e-01,-4.014363129156194310e-01,-4.515396626241847122e-01,-2.412603951240226835e-02,-3.229808448213930192e-03,2.934461603102021636e-03,1.714198887348175049e-01
-2.720114883555063701e-01,-4.532327297378185849e-01,-4.612135328748501739e-01,-1.246809586846788463e-02,-2.619296796303096937e-03,1.172143082614043484e-03,1.866606175899505615e-01
-2.725065010906031482e-01,-4.611146289202132098e-01,-4.636955444746059807e-01,-9.102080749434041107e-03,-3.262184784871808175e-03,-4.425844777368538640e-04,1.906502693891525269e-01
-2.968767326418835228e-01,-4.388049375587240730e-01,-4.313558864519936309e-01,-5.468150251278986081e-03,5.058470370655520840e-03,-3.778989057344056546e-03,1.391085237264633179e-01
-2.954028461221471225e-01,-4.434160044875395945e-01,-4.424237880519886756e-01,-5.930970051680532068e-03,6.129483490467508428e-03,-1.964683057327100153e-03,1.482964605093002319e-01
-2.869239646574821001e-01,-4.239668256458219986e-01,-4.342731838024158075e-01,-2.715227776622661324e-03,7.043968141551085367e-03,-2.617811421034899489e-03,1.431464552879333496e-01
-3.004247378439564575e-01,-4.440027489453906573e-01,-4.300135939975263666e-01,-9.226447161902410349e-03,3.825362736661614207e-03,-1.116663254322401841e-03,1.382202208042144775e-01
-3.132614309428322641e-01,-4.327882625645483317e-01,-4.202942385893982391e-01,-7.148943578534352854e-03,5.484693877186411735e-03,-1.700313855300093768e-02,1.185760572552680969e-01
-3.108558062650741971e-01,-3.757408378331564824e-01,-3.577287465130775668e-01,-2.669439299732418586e-02,1.389402867272305879e-02,-6.282775777792658223e-02,1.338830590248107910e-01
-3.171746039536780803e-01,-4.482956557145237886e-01,-4.320796205700917492e-01,-9.243988886257381576e-03,8.494003096774270858e-03,-1.299464935191783736e-02,1.277059465646743774e-01
-2.931190850676003712e-01,-4.248481825415738045e-01,-4.243317080789227869e-01,-6.600006411753702590e-03,6.012331646866752970e-03,-5.570612168320571850e-03,1.327290683984756470e-01
-3.050698190497814211e-01,-4.190427372941949447e-01,-4.245571673594316087e-01,-3.417089198695080245e-03,6.361603816690587949e-03,-4.255119188549894363e-03,1.177263259887695312e-01
-2.690486929190720189e-01,-4.024464802457111134e-01,-3.916501931888407562e-01,-3.493125066507567905e-02,-4.035899676946785170e-02,4.551709685441956282e-02,1.767310649156570435e-01
-2.711038352633808879e-01,-4.570735874985077385e-01,-4.560525393959577456e-01,-1.596895747193467774e-03,-2.446992172245802521e-03,-2.166367908624458214e-04,1.855307519435882568e-01
-2.760080803380586811e-01,-4.457203806651148792e-01,-4.463244742810064114e-01,-1.770166300406718482e-03,1.609057643670289270e-03,-5.179787083943378657e-04,1.700679957866668701e-01
-3.298981178631765765e-01,-4.381257325181230344e-01,-4.144745034468291789e-01,-3.967227219802781264e-03,9.383256939673260619e-03,-4.877069083223237178e-02,1.309960931539535522e-01
-3.308816683146784676e-01,-4.064566173021358364e-01,-4.055263283202425462e-01,5.356776592953373627e-03,1.109481579408163991e-02,-9.731383883289045078e-02,1.857618093490600586e-01
-3.203177993476510887e-01,-4.348666746986767917e-01,-4.139671063608438284e-01,2.823034507712421891e-03,-1.400175778904158000e-03,-1.704121772626598572e-02,1.098417714238166809e-01
-3.070928709832843051e-01,-4.368711854053063948e-01,-4.210739811138469735e-01,-1.141630298026725249e-02,7.610479721723895780e-03,-1.564021097565882618e-02,1.278297007083892822e-01
-3.175415284733700272e-01,-4.446020424991384279e-01,-4.001106203320035082e-01,-9.026156569693062279e-03,3.242535571113923463e-03,-3.555078888764552636e-02,1.286012828350067139e-01
-3.079811561797640151e-01,-4.134203902565756761e-01,-4.170024106518109841e-01,-3.505497724640171432e-03,7.897862246294861527e-03,-1.606268041043267328e-02,1.118301004171371460e-01
-3.122271445402415857e-01,-4.332507275689216897e-01,-4.123782147486608762e-01,9.887419601795172878e-04,-9.756295601787974385e-04,-1.566442432272814600e-02,1.153178811073303223e-01
-2.977403747234581011e-01,-3.978816283095501505e-01,-3.988622959801069179e-01,-7.676050759368882679e-04,1.128834859622320592e-03,-1.710988411017137431e-02,1.049346104264259338e-01
-2.877527201091498177e-01,-4.499641609538621578e-01,-4.619094117865770177e-01,-9.103656436979586097e-03,-8.581514987079461726e-03,3.758705725116504373e-03,1.700142323970794678e-01
-2.690574671540827412e-01,-4.329463619190294654e-01,-4.489212135548186211e-01,-4.612270204669870373e-03,-4.476839256389712231e-03,2.430257863684635432e-03,1.728425025939941406e-01
-2.725095473263191015e-01,-4.558998305734148215e-01,-4.613393852565632058e-01,-6.302037214055373170e-03,-4.607316907850619522e-03,-1.420142468858414655e-03,1.866762638092041016e-01
-2.670366845419975821e-01,-4.025491671068969213e-01,-4.477430352549544579e-01,-2.153359068121649816e-02,-1.117661907193849384e-02,8.973647353266889226e-03,1.689315438270568848e-01
-2.748925949949910796e-01,-4.574337185106663872e-01,-4.615468104375103353e-01,-6.076592043755636718e-03,-6.749909933218611012e-03,1.603457349344285677e-03,1.853217780590057373e-01
-2.849790680198881487e-01,-4.466706299088242793e-01,-4.559860350458147527e-01,-9.102687163009794830e-03,-8.201840109317546507e-03,3.475090685518657154e-03,1.679993271827697754e-01
-2.866249258103347186e-01,-4.511432351712716948e-01,-4.491392882122612340e-01,-7.114974875545266100e-03,-4.619668513788363802e-03,2.823173235565579198e-03,1.642571389675140381e-01
-2.829112451400800921e-01,-4.439340592166281518e-01,-4.442823032255201476e-01,-5.098755193913109482e-03,-4.956404663913152944e-03,8.958340312663381263e-04,1.616744846105575562e-01
-2.843179359192614664e-01,-4.084278671053143683e-01,-4.597043271776346529e-01,-3.779325681139870247e-02,-1.956814244311209927e-02,2.609925941958732287e-02,1.785320937633514404e-01
-2.770498323590447343e-01,-4.610529664856496956e-01,-4.581595992550289154e-01,-6.035992741727868802e-03,-6.755424335214601193e-03,-2.747804076454738766e-04,1.832472980022430420e-01
-2.758072127535749485e-01,-4.417772383558930538e-01,-4.295917573044741866e-01,-9.306739793513858425e-03,-9.215114258298627223e-03,5.166975927819799155e-03,1.620703637599945068e-01
-2.652302350322610636e-01,-4.447617022936537490e-01,-4.448168254455360793e-01,-9.184147610769750891e-03,-9.133806775737078262e-03,4.703964525105360818e-03,1.811385005712509155e-01
-2.737313685058516133e-01,-4.428345997266355250e-01,-4.209961497028651412e-01,-1.456459316766173240e-02,-1.290944898600731444e-02,1.037728364024793383e-02,1.638269722461700439e-01
-2.829710357331835513e-01,-4.572795077265749408e-01,-4.433181596517574707e-01,-9.852400457575004669e-03,-8.838443530752375724e-03,4.455533349751619396e-03,1.694989651441574097e-01
-2.792056754183503409e-01,-4.548281025556985546e-01,-4.174204262458543480e-01,-1.882998373587702404e-02,5.059027030598935853e-02,-3.439220007936802381e-02,1.948415935039520264e-01
-2.937524824073770024e-01,-4.588079876918395583e-01,-4.085659496528640244e-01,-1.646459207001093814e-02,4.335089940372859052e-02,-3.327247698479538635e-02,1.767687201499938965e-01
-2.920261497656778671e-01,-4.458930533794189244e-01,-4.265006830722699593e-01,-1.139930516263160110e-02,9.497638484481561727e-03,-9.781266443957100515e-03,1.483735591173171997e-01
-2.709416539001978097e-01,-4.482298712851102707e-01,-4.452675847314175872e-01,-1.742980046108457901e-02,1.876718523044799969e-02,-7.095616506495293525e-03,1.817519366741180420e-01
-2.968230298889521501e-01,-4.580883484150264362e-01,-3.730994483977939091e-01,-2.945593853686390498e-02,4.579317216672851298e-02,-6.004098333386766184e-02,1.980722397565841675e-01
-2.475116629249990985e-01,-4.625230577634411033e-01,-3.486404604561777476e-01,-1.190541777369391596e-02,6.997592407900797562e-02,-2.456750813943938891e-02,2.272419035434722900e-01
-2.818842545247484122e-01,-4.409999201792757506e-01,-3.974285600514443351e-01,-1.956737300276582131e-02,2.209429324852546159e-02,-1.868352976098522356e-02,1.547375619411468506e-01
-2.653083537102338130e-01,-4.483915373157816298e-01,-3.737636052411704712e-01,-1.201938967059319567e-02,3.522015601320190037e-02,-2.017050180320408351e-02,1.755020916461944580e-01
-2.795725751370185530e-01,-4.620468300669319239e-01,-4.026583953656299175e-01,-1.190503781640122813e-02,2.929644783358298712e-02,-1.522562774744925553e-02,1.722860187292098999e-01
-2.748413958000751611e-01,-4.597310006061684495e-01,-4.641797439719064222e-01,1.765360697535765582e-03,1.280767710162273752e-03,-4.977402121171366689e-04,1.871937364339828491e-01
-2.755535783176819020e-01,-4.616851998016844316e-01,-4.711202502806566272e-01,8.730436408971737824e-03,-2.273695819855658246e-03,-1.602621397095473890e-04,1.916622221469879150e-01
-2.674426249930892396e-01,-4.419327137009208539e-01,-4.561229653220527647e-01,8.899785278652719289e-03,4.643231131566507089e-03,1.387760837580431479e-03,1.828449815511703491e-01
-2.870156934140886129e-01,-4.359274774174877187e-01,-4.732035474820570076e-01,2.689690936022504086e-02,2.060411433317970234e-02,1.026642563095856754e-02,1.813151687383651733e-01
-2.583843399771224014e-01,-4.058683290548843470e-01,-4.756853391156659061e-01,5.143093631877454497e-02,2.101262903238933308e-03,2.179904689318561128e-02,2.151675969362258911e-01
-2.631504723123577749e-01,-4.056952272795509296e-01,-4.454081232280433511e-01,2.211965046659739378e-02,1.113605086446729439e-02,8.291868413418265749e-03,1.720555871725082397e-01
-3.282045717814043861e-01,-3.397924588296144521e-01,-5.048333138869114389e-01,1.788297783441067032e-02,1.106536447602606520e-02,1.330290668742085784e-02,1.764734238386154175e-01
-3.818577462419029955e-01,-3.304853184316907666e-01,-5.589076100889991405e-01,1.011048540979821338e-02,-8.875685678472876750e-04,2.235676593179410088e-02,2.118720561265945435e-01
-2.320447226683798880e-01,-1.929836489757941198e-02,-3.747070316740358509e-01,3.087051227434505982e-02,9.293565371828462277e-03,1.430435503850643886e-02,3.157472908496856689e-01
-2.763058430440082924e-01,-1.921499053281957581e-01,-4.151646806505641663e-01,4.163539909704066372e-02,-1.421313283381371931e-02,7.224007141077830318e-02,2.439513057470321655e-01
-3.190628048871952949e-01,-4.103564989021173948e-01,-4.830430558349019798e-01,-4.518277733431871890e-02,1.444183286522797427e-02,-1.532679343809733447e-02,1.664589494466781616e-01
-2.993346669456481424e-01,-3.182470869863426866e-01,-4.413661808739437475e-01,-3.207379836343688534e-02,1.368541298224127366e-02,-2.595372054980717505e-02,1.533405184745788574e-01
-2.856274871543947880e-01,-2.929591068863574010e-01,-4.224273044443817571e-01,-1.880365294354511760e-02,9.232074691368257618e-03,-3.141423323696660580e-02,1.484653651714324951e-01
-3.545159930492883249e-01,-3.727433580812011815e-01,-5.334007686070264542e-01,-4.387734683047193190e-02,1.141471022879773055e-02,-4.746167594271449158e-02,2.049287259578704834e-01
-3.188507109769987413e-01,-3.711054422228196592e-01,-4.522207657088511135e-01,-3.536723568269497381e-02,1.481601491785385083e-02,-4.041816527249674634e-02,1.511980891227722168e-01
-2.973751409135181878e-01,-3.617742349291093173e-01,-4.443002320541820094e-01,-3.078903526257607826e-02,1.394581630677612163e-02,-3.828647176639423527e-02,1.552330404520034790e-01
-3.162107398650850221e-01,-4.448324372041829178e-01,-3.945043111931031410e-01,-1.075981207158730260e-02,1.939379090853712156e-02,-2.311838139838922473e-02,1.252287030220031738e-01
-3.402321737838565618e-01,-4.605146310458615999e-01,-4.050208046801406225e-01,7.744422884419526105e-05,-1.611159626238528077e-03,-3.739998565051132207e-02,1.227867379784584045e-01
-3.298030497790265803e-01,-3.746207687912493922e-01,-4.036466801927958703e-01,-6.322619274501469107e-03,4.921563626029600014e-03,-1.145848769250397692e-01,2.091259956359863281e-01
-3.053839964620309599e-01,-3.931256840312419842e-01,-3.643440383686580852e-01,-2.850332686441978819e-02,3.287271894374985126e-02,-7.266842069942622273e-02,1.659002751111984253e-01
-2.760793149072148234e-01,-4.736414533720768594e-01,-4.562117213544732430e-01,2.472786961501890948e-03,-1.198103069272966718e-02,-1.227035262009837455e-03,1.906426846981048584e-01
-2.677602043171513069e-01,-4.483116532870375925e-01,-4.524116647635407773e-01,-1.542563772320520088e-03,1.468221023939927320e-03,-8.251562887497305727e-04,1.826788038015365601e-01
-2.695297340310852663e-01,-4.560931954426534762e-01,-4.439167080455294068e-01,-1.393285430145247946e-03,-1.174136353963140672e-02,1.213520502002023984e-03,1.819514334201812744e-01
-2.724789736224518810e-01,-4.653359578603930014e-01,-4.448155238183407190e-01,1.902902757059668363e-03,-7.986747653167100905e-03,5.544891617116842145e-04,1.840123534202575684e-01
-2.692850631224841251e-01,-4.675425939527355079e-01,-4.507538920414238537e-01,1.341617936275949809e-03,-3.115210181196694308e-02,-3.544298255575216135e-04,1.979306936264038086e-01
-2.901979781633319266e-01,-5.090039957183271069e-01,-4.729816580387404268e-01,-5.357969391125120759e-03,-3.159756139188284879e-02,-1.295785285918667033e-03,2.106612324714660645e-01
-2.705693027466899436e-01,-4.595425589518564724e-01,-4.434357880705804833e-01,-6.892446782986975809e-04,-7.203453809081682147e-03,-5.820539586612568424e-04,1.818919479846954346e-01
-3.094537327583616326e-01,-3.887575028305798042e-01,-4.752598764406773535e-01,-3.299187095932620134e-02,7.652876185914531462e-03,-1.317302888001806345e-02,1.568228006362915039e-01
-2.793597354151378109e-01,-3.899351867762207990e-01,-4.382364978517915843e-01,-1.647874584459994157e-02,9.674215925323845222e-03,-1.307661520990821905e-02,1.466604918241500854e-01
-2.799215027369408304e-01,-3.910538361256209461e-01,-4.460902115853546679e-01,-1.867436278509125233e-02,8.683383713033985402e-03,-9.594556459611356530e-03,1.518034338951110840e-01
-3.084095989295408957e-01,-4.283533422181928230e-01,-4.265539912544419332e-01,3.490921002416309468e-03,-2.565359299185851569e-03,-5.923389378483578070e-03,1.197308674454689026e-01
-3.422623375693377712e-01,-5.035523492470529439e-01,-3.002992514631380727e-01,-3.624817206306633465e-03,-8.166373135628504296e-03,2.774143309421904860e-02,1.925924271345138550e-01
-3.581383507819198009e-01,-5.335830258095968226e-01,-3.263095223953559332e-01,-5.941582656251283290e-03,-2.090969148575956907e-02,9.025040108682748363e-03,1.975854635238647461e-01
-2.822261264219930177e-01,-4.355770353155798968e-01,-1.521814408795852946e-01,-7.713922389320894760e-03,1.055521545908042098e-03,5.897849858771597037e-02,2.664354443550109863e-01
-3.772578916037630514e-01,-6.036767383422437794e-01,-2.238049638890828863e-01,1.509343827134279961e-02,3.924267793809917831e-02,3.053936889098896393e-02,3.430149853229522705e-01
-3.029596705066560647e-01,-4.597004773551258694e-01,-1.850042420516294639e-01,-1.668781475574452906e-03,3.228326408346838400e-02,5.358021238241799516e-02,2.621394395828247070e-01
-2.737953707762555422e-01,-4.494836368325705322e-01,-1.296577535865389152e-01,-9.769673259289035974e-03,-4.228119365604261944e-03,-2.387620964307974811e-02,2.810969650745391846e-01
-2.769793770447837034e-01,-4.506009308899418531e-01,-4.496972100031499942e-01,-3.348742638121569512e-03,4.531515388983614265e-04,-5.642298560630617686e-04,1.732731014490127563e-01
-4.631610023951536759e-01,-7.266201089040258410e-01,-2.854478648471556745e-01,9.133911799773734852e-03,-9.485626863529937267e-03,6.757293290024199428e-02,4.025311470031738281e-01
-3.039501594486730407e-01,-4.547246802341895489e-01,-4.892480807219169447e-01,-3.062692728153414146e-02,1.978936280585899890e-02,-2.952300965301355232e-02,1.890338063240051270e-01
-3.035402418396768165e-01,-4.501057184554651536e-01,-4.854547068692779410e-01,-3.086477334161971328e-02,1.971430877740914037e-02,-1.135244678444341862e-02,1.797844022512435913e-01
-2.639161980554084463e-01,-4.311216513775405490e-01,-4.482955869225554446e-01,-9.311150189115319567e-03,4.777090438031731008e-03,-5.731726478631022324e-03,1.776268482208251953e-01
-2.818584143312740098e-01,-4.661156338049143866e-01,-4.878675182401327470e-01,-2.322033731588143621e-02,-9.516281558270298178e-04,-1.166988549407652065e-03,2.001403570175170898e-01
-2.903486904045173844e-01,-4.630403342464222138e-01,-4.826428255523212973e-01,-5.414903844312547038e-02,1.598923161596590981e-02,-3.106971021278750328e-02,2.145953178405761719e-01
-2.705846257539188948e-01,-4.500594414474584637e-01,-4.548417456227109024e-01,-1.190134253861024546e-02,6.597157535105850450e-03,-5.678610015949398654e-03,1.836970746517181396e-01
-2.689888023394995109e-01,-4.536852814860767857e-01,-4.589360902889902394e-01,-1.586129287899107343e-02,5.964581480514949928e-03,-1.058966363449866067e-03,1.896707713603973389e-01
-2.748555701163083453e-01,-4.247911750517649465e-01,-4.859671307455266098e-01,2.584032156293961796e-02,4.706775374592793589e-04,-1.050526891570686830e-03,1.933979839086532593e-01
-2.705452786568498524e-01,-4.153481823264945638e-01,-4.636745839056645169e-01,2.227756456788314993e-02,1.226758595643213413e-02,7.638318604565069725e-03,1.800458431243896484e-01
-2.781309452140589000e-01,-4.661106544388325945e-01,-4.709464971111312348e-01,1.479960797941277592e-02,-6.440630301719255622e-03,-1.019988442346719988e-02,1.932936608791351318e-01
-2.571669640599544837e-01,-4.427858363197887392e-01,-4.635790830604125667e-01,3.138849117828032553e-02,1.436047325594028319e-02,7.706710602916120971e-03,2.061526328325271606e-01
-2.789630741162082428e-01,-4.688006352592819503e-01,-4.771137146064379220e-01,8.427482712041554219e-03,5.434151132828659442e-04,-1.443596927444738528e-03,1.946939826011657715e-01
-3.221576845120898702e-01,-5.860832392629508059e-01,-5.931426911442041483e-01,-2.306757519292360753e-02,-8.471635147791240980e-03,-5.844512817189805032e-03,2.710790038108825684e-01
-2.735642093164827315e-01,-4.550017611443533672e-01,-4.564632786063016479e-01,1.306503210620438499e-03,8.863684139239100214e-04,1.696110590094391125e-04,1.821934729814529419e-01
-2.710461087639699507e-01,-4.476654896595547717e-01,-4.460504124370848755e-01,-2.074348078275776216e-03,2.811921328197023156e-03,-1.205364648920184949e-03,1.759339272975921631e-01
-1.531440166386005830e-01,-4.500149618788262806e-01,-4.348507424739873617e-01,-6.145202503770984953e-02,7.210009135619688259e-02,-4.335065755189493331e-03,3.329282104969024658e-01
-2.716202380758760415e-01,-4.566004134643909529e-01,-4.549002421633380755e-01,-1.861514471172018162e-03,1.620491733469754930e-03,3.804637984823803056e-04,1.841867715120315552e-01
-2.841623138394080983e-01,-4.669969680452256688e-01,-4.660530825151033008e-01,-3.933914408709290531e-03,-2.591540398035833710e-03,-7.558406131133149197e-04,1.825516819953918457e-01
-2.691442311559575917e-01,-4.456009128096938832e-01,-4.369235697466609669e-01,-6.059241642927079563e-03,-6.164565144245063265e-03,2.746823728981816985e-03,1.729967147111892700e-01
-1.059228028986611281e-01,-5.052297461430558245e-01,-5.000056596215254334e-01,-6.292436133119730379e-02,-1.005207619162229232e-03,-1.202649032317812221e-02,4.119498431682586670e-01
-3.661063562772216562e-01,-2.888378239331292896e-01,-5.236817114664327200e-01,7.594273405647937458e-02,-2.956868082650166221e-02,7.055903347312453278e-02,2.789920866489410400e-01
-2.724684650444978429e-01,-4.546019639785106592e-01,-4.503290150367121880e-01,-1.598536892705467718e-03,-3.884480549166149889e-04,-4.628248291407042006e-04,1.800593882799148560e-01
-2.711336689265042565e-01,-4.552006458013517776e-01,-4.546133610592118512e-01,1.596876910461053666e-03,-1.942220077877771216e-03,3.934488804658900474e-04,1.838268935680389404e-01
-1.173218023742175764e-01,-3.924589030501638431e-01,-4.441220179775641208e-01,-1.176967855138239261e-01,-3.102976998154877847e-02,1.685746535116070324e-02,3.713254630565643311e-01
-3.099254427770956055e-01,-4.615656651272750377e-01,-3.311891468758642043e-01,-1.679765310234260754e-03,-8.885833266164868674e-04,1.608457523245608936e-03,1.422711014747619629e-01
-2.737187879775366262e-01,-4.535096502781901795e-01,-4.499946865288353415e-01,-4.417475862896591554e-03,-3.625772155314397390e-03,3.352635016641866781e-04,1.783352643251419067e-01
-3.336091032472533469e-01,-8.338776783369743484e-01,-7.531168261969569677e-01,2.567377525040325306e-02,-1.398357856911375263e-01,3.381909454833183053e-04,5.263352394104003906e-01
-3.224354477176817890e-01,-4.256412595817697375e-01,-4.456023086314865322e-01,-3.223494448580561510e-03,3.229632712300851190e-03,-1.768620255895285778e-02,1.187890917062759399e-01
-3.017768629059977559e-01,-4.046133872535341292e-01,-4.248009182833507591e-01,-1.709198477033075508e-02,1.539881442493080954e-02,-2.333400474250995130e-02,1.275935322046279907e-01
-3.265227024247296383e-01,-4.362624826798062183e-01,-3.934940220557816559e-01,-5.524815549181472628e-03,1.137066277684866886e-02,-4.138278759978343546e-02,1.216372102499008179e-01
-3.036090664592694388e-01,-4.121399868307168424e-01,-3.941462573430294936e-01,-4.853986318582798401e-03,5.276968115619674361e-03,-2.553431909328446672e-02,1.107252761721611023e-01
-2.941061062625534572e-01,-4.027275101764488663e-01,-3.893924586080694250e-01,-1.050076841008638212e-02,8.929345858057810559e-03,-2.588004039052505673e-02,1.144870668649673462e-01
-2.732452466537190761e-01,-4.273529634607265981e-01,-4.223659253461607421e-01,-1.030781806397071225e-02,1.096664550500966138e-02,-6.947355166463783406e-03,1.543692648410797119e-01
-2.916851263950942519e-01,-4.371459903925579149e-01,-4.359316396520211967e-01,-5.881065265365439249e-03,5.997450640910962846e-03,-3.891335726497010226e-03,1.457422226667404175e-01
-3.682595655418382519e-01,-4.749153074148215192e-01,-4.206229278973041552e-01,-1.419966121784145725e-02,2.431590024950156317e-02,-8.564350546634524886e-02,1.814266443252563477e-01
-2.700009791962528771e-01,-4.472637225168974440e-01,-4.462476284377306368e-01,-7.335207205906147223e-04,1.490265149775421832e-03,1.819344298263272507e-04,1.767805814743041992e-01
-2.821334731505231730e-01,-3.905930578404072095e-01,-2.808426020831814029e-01,-1.103099295411478879e-02,8.806659025290640777e-03,-7.353121055631406389e-02,1.694797724485397339e-01
-2.756988946491882864e-01,-4.639979034842349748e-01,-4.668526140675701153e-01,1.096096796856965705e-02,-1.408928951104507915e-03,1.394275364799024914e-03,1.907207965850830078e-01
-3.039597542874236114e-01,-4.433081093361798675e-01,-3.519721192052712166e-01,4.505454805172429480e-03,3.509662784239688579e-04,-7.879745444992338615e-03,1.236132904887199402e-01
-3.359569362011137206e-01,-8.651520602499190860e-01,-8.257209660696209763e-01,2.242259896806861330e-02,-1.095995991039356715e-01,-1.170516297934414210e-02,5.465264320373535156e-01
-2.744842149606266379e-01,-4.267646691516095436e-01,-4.541336804620461076e-01,2.459917444994805594e-02,-2.228211327020749102e-02,-1.968898254387054653e-02,1.804825961589813232e-01
-2.777945241698034362e-01,-4.655886601961513049e-01,-4.664926753001565340e-01,9.856884748818040345e-03,-1.119925435143895656e-02,1.729105406422977182e-04,1.900133043527603149e-01
-2.818153186495616636e-01,-4.508807014673527069e-01,-4.619121774470625330e-01,8.931689321580251611e-03,-6.908525988832728802e-03,-2.705225713610879493e-03,1.759951710700988770e-01
-3.051340780850750334e-01,-4.645503207187517414e-01,-3.811398665094427596e-01,1.912640107630564790e-03,-5.248011616819819522e-03,-7.638792117910866986e-04,1.384529173374176025e-01
-2.711265897609765885e-01,-4.558021293550532649e-01,-4.540023657223787867e-01,-1.860469961312642782e-03,1.619423571847596012e-03,6.246910538671057896e-04,1.838351041078567505e-01
-2.735762277691949351e-01,-4.583770031974158110e-01,-4.496467040493977718e-01,-4.416493297023120143e-03,2.838621499050121913e-03,1.485209689241242946e-05,1.808227598667144775e-01
-2.939575917791080739e-01,-3.783874576016457159e-01,-4.511017820097180664e-01,3.776758258790468940e-03,-8.542886804462645339e-03,-4.125261402266892398e-03,1.373602002859115601e-01
-2.866991827760473344e-01,-4.779971206553270680e-01,-4.818095683304610688e-01,1.908899304196101307e-02,-1.999480818760781750e-02,-1.053483983061424475e-02,1.999105960130691528e-01
-2.872034819482525148e-01,-4.266427012969761234e-01,-4.615229288794654994e-01,-2.258394368275975193e-03,-4.958869901332456018e-03,2.250083630620947767e-04,1.600400656461715698e-01
-2.806431064030493472e-01,-4.682892220058999522e-01,-4.712675652877387211e-01,8.247818526551833895e-03,-9.519124695053353749e-03,1.218319281202930341e-03,1.904184371232986450e-01
-2.942943802845695012e-01,-5.368312913823434229e-01,-5.553501519061229130e-01,6.751784286467085727e-02,-1.213080354951751177e-01,-5.098700180550509720e-02,3.595560193061828613e-01
-2.855476538973185652e-01,-4.680902852691873894e-01,-4.668341223557677111e-01,3.585093699710906537e-03,-5.227815784993881986e-04,1.819959762636672680e-03,1.820532977581024170e-01
-2.109877051889728627e-01,-4.302244077240485742e-01,-3.833912834017906279e-01,5.602757346845267661e-02,-9.270170791275847422e-02,-6.338948004899253030e-02,2.953697741031646729e-01
-3.102734287509256728e-01,-4.226917318115900324e-01,-4.256304031856811831e-01,-7.658166193997545780e-04,2.098410599424871490e-03,-1.434430860432828279e-03,1.140088289976119995e-01
-2.715705739831505983e-01,-4.969040765457460873e-01,-4.852241098183180390e-01,4.885993513528352761e-02,-5.610054350133784895e-02,-3.435135272451103616e-02,2.615787982940673828e-01
-2.765691834664314452e-01,-4.572908150453232068e-01,-4.464456908688655967e-01,-5.296481606361048630e-03,1.396581186034253144e-03,1.165183017866902376e-03,1.758182495832443237e-01
-2.701667466571598397e-01,-4.518116192736281178e-01,-4.485657540061470661e-01,-1.244337929819865724e-03,1.261550464737738264e-03,-6.554281712432539521e-04,1.800736188888549805e-01
-2.792790209195985529e-01,-4.714877186842351686e-01,-4.631278111825685162e-01,5.570693783903484485e-03,8.694513700495043115e-03,2.159253219744016686e-03,1.890531480312347412e-01
-2.824565577423017171e-01,-4.654307350821108025e-01,-4.460847914341573017e-01,6.339654772994208695e-03,1.041854340239366586e-02,3.049104266504873689e-03,1.754654049873352051e-01
-2.521158047513814005e-01,-4.398414493311028628e-01,-3.399263791256070255e-01,9.195136091919344987e-03,5.317690713004687153e-02,1.166514173018107399e-02,1.887128651142120361e-01
-2.541164244067690703e-01,-4.589236320019169368e-01,-3.886450646758766725e-01,1.309279596548357412e-02,4.579299059665097038e-02,1.173268031694234097e-02,1.992730200290679932e-01
-2.686385315108861249e-01,-4.428668070686389568e-01,-4.358300527081397924e-01,-5.643894496800541671e-03,5.215432806449424481e-03,-3.131572748625213905e-03,1.714222580194473267e-01
-3.154454659085925705e-01,-5.487604876058093106e-01,-5.040182037452000108e-01,2.215660296506751989e-02,4.917548718046976103e-02,2.340353695007237750e-02,2.374222576618194580e-01
-2.810331221747243147e-01,-5.061956345241932498e-01,-4.234222006735659516e-01,2.014255502820153435e-02,4.295316690393621850e-02,2.189082319134131455e-02,2.170295864343643188e-01
-2.597124354320672901e-01,-4.511623924483522119e-01,-4.291862771487898187e-01,8.460093887578970517e-03,1.636982368585834444e-02,5.800922924852581694e-03,1.845217943191528320e-01
-2.632859818820862952e-01,-4.442335688684005968e-01,-4.087750674779734306e-01,9.524920027150092158e-03,2.266120449153346053e-02,5.380478739085147420e-03,1.717056035995483398e-01
-2.728613066157933309e-01,-4.706577363799321345e-01,-4.695936595121935064e-01,6.344293918909497086e-03,1.591693176063053647e-02,-1.749271526235228729e-03,1.995095610618591309e-01
-2.804127606517603510e-01,-4.536001272356656178e-01,-4.451962568590625002e-01,-5.459556276074018638e-03,-1.088915755148487990e-03,4.206096073235010167e-04,1.694182753562927246e-01
-2.734876086460168998e-01,-4.546612937109364427e-01,-4.516676077301161052e-01,-4.034350981433626991e-03,3.301940779087105329e-03,-1.594991479966992450e-04,1.799224913120269775e-01
-2.966485641903453541e-01,-4.255881921851231708e-01,-4.804189652440183922e-01,1.850674581714027364e-02,1.029178259354187989e-02,1.155027658043781755e-02,1.686629503965377808e-01
-2.726231258480095176e-01,-4.546587444934625521e-01,-4.487545197972339084e-01,3.814239231961233292e-03,1.667281599712241514e-03,-1.430222251595959380e-04,1.793016791343688965e-01
-2.910102301052647222e-01,-4.648041888312712255e-01,-4.650655642517002031e-01,1.897624759398339189e-02,1.578207402036997664e-02,8.389941187632626168e-03,1.796900779008865356e-01
-2.666446860802528240e-01,-4.515700958267253595e-01,-4.416633065254685353e-01,-5.080078672418044880e-03,6.102353210357893028e-03,-1.754826198119732988e-03,1.807260662317276001e-01
-2.763197430606029181e-01,-4.609264402212314149e-01,-4.633390046980449539e-01,5.973993588555014111e-03,5.294034479004161402e-03,-7.575180527890622046e-05,1.863383799791336060e-01
-2.738314469100569526e-01,-4.374419818073773114e-01,-4.428960522603683780e-01,-1.428582763289130975e-03,-6.073982543288150050e-03,7.021389490092592436e-04,1.667596399784088135e-01
-2.791408904665868551e-01,-4.578540553132681712e-01,-4.695441706749091115e-01,-1.047809294307945442e-02,1.168202833424386751e-02,-4.319749916225710108e-04,1.868249773979187012e-01
-2.893195947417264713e-01,-4.214567741456555772e-01,-4.879201613402762150e-01,7.284227759726123741e-02,-2.696770280532570507e-02,-2.271412635386469911e-02,2.242932468652725220e-01
-2.610346538726876497e-01,-4.248316259017255736e-01,-4.564959621945320345e-01,2.389678525728359051e-02,9.797001202791408292e-04,-4.429259443530279513e-04,1.863739192485809326e-01
-2.866891945977699807e-01,-4.257382514671962936e-01,-4.563765559781404191e-01,-3.565119801123390556e-03,-6.928052359645501396e-03,1.296963094584098085e-03,1.572283208370208740e-01
-2.827682509019879831e-01,-4.539969486730043857e-01,-4.667320208048699737e-01,1.200766060278191279e-02,6.377668419312789751e-03,4.519332369381778673e-03,1.796605288982391357e-01
-2.753071673500062655e-01,-4.613783222588247468e-01,-4.672889779767466778e-01,9.980150150172928045e-03,4.281634797121638102e-03,3.165748801134398750e-03,1.901080906391143799e-01
-2.813707504292374262e-01,-4.480383362532633917e-01,-4.680188570520319447e-01,8.360625998024668118e-03,-2.957764313897118681e-03,-8.797085543141413416e-04,1.781731694936752319e-01
-2.940251298948908243e-01,-4.928149508153578662e-01,-4.656744524044107436e-01,-3.633026724595356076e-03,2.712970394006621044e-02,-3.366938158967870860e-03,1.927184760570526123e-01
-2.980774946546597137e-01,-3.753639644643512741e-01,-4.554843424325626389e-01,4.368882026347256121e-03,3.157914333735652775e-03,1.013898226582362521e-03,1.366563439369201660e-01
-2.891623930947223586e-01,-4.953877593224459419e-01,-4.849074881059065034e-01,2.908174818247799727e-03,1.519111494025455165e-02,2.063879259391243257e-04,2.029661238193511963e-01
-2.459947687344425371e-01,-4.373405731683704945e-01,-4.142307065454998161e-01,-2.226855114183148507e-02,3.663976389425181029e-02,-1.804068175509067340e-02,1.980322897434234619e-01
-2.531451780354073700e-01,-4.367957162168452645e-01,-3.932647052006136845e-01,1.868909573945748415e-02,-3.852562042325279740e-02,-1.827404550960724100e-02,1.847439110279083252e-01
-2.917855185026435594e-01,-4.124655670633706195e-01,-3.877855144318599345e-01,-1.223210291048881619e-02,1.234580917774791460e-02,-2.422336711404014103e-02,1.219050213694572449e-01
-2.713728607614334098e-01,-4.565304053005824203e-01,-4.462465069558357311e-01,-3.640855631445586490e-03,-4.011888427849384306e-03,4.914232241639627293e-04,1.804818809032440186e-01
-2.707126560089241907e-01,-4.685454830834170359e-01,-4.620123231481668702e-01,-9.866602623615831208e-03,1.495896448241123070e-02,-1.008309796024942605e-02,1.978797763586044312e-01
-2.725507184563917829e-01,-4.606308616314790938e-01,-4.534610616896747048e-01,2.322789342496277816e-05,-1.316439618492867447e-05,5.536996710292975020e-04,1.846022009849548340e-01
-2.740299614818683116e-01,-4.728229283403435068e-01,-4.670830903395193912e-01,-4.193741254731687094e-03,1.396858229227651745e-02,5.221436390857105451e-04,1.976094543933868408e-01
-2.696137314518998740e-01,-4.465356280519491294e-01,-4.517544419284471036e-01,-3.553769219898755913e-03,-4.814773773236841366e-03,9.136220928108730295e-04,1.798940151929855347e-01
-3.065922290168692221e-01,-4.404057515442493242e-01,-4.247557996660118462e-01,-8.586549098922927753e-03,-2.680933892727883731e-03,1.511744018845757181e-03,1.276965588331222534e-01
-2.902483922043144204e-01,-4.811703217034420388e-01,-4.869781688921972496e-01,-2.518897571401064028e-03,-5.917200068685265872e-03,3.470864961940206355e-04,1.942117214202880859e-01
-2.707321384301758505e-01,-4.616632511662395744e-01,-4.507419380526098696e-01,-4.326384551013958378e-03,1.273772764692207050e-02,-6.952263537271814037e-04,1.871713101863861084e-01
-2.710622908414009324e-01,-4.470224291812686102e-01,-4.575139751476161587e-01,4.050791564286375206e-03,-3.676448755496792425e-03,-1.237836622150393674e-03,1.816934496164321899e-01
-2.864571812559168484e-01,-4.751125889377435518e-01,-4.907946359108871226e-01,-1.574713234292621569e-02,-1.116840097936690895e-02,8.275701047265925439e-04,1.997885406017303467e-01
-2.768289439177606948e-01,-4.613772072734096952e-01,-4.627850831812098109e-01,-2.388627947179343576e-03,1.466802073498352276e-03,5.647074234198058490e-04,1.853224039077758789e-01
-2.878545814439796846e-01,-4.711868816856985553e-01,-4.947458819012872100e-01,-2.596816695459645136e-02,-1.141596427339028157e-02,8.014923300255112626e-03,2.027106583118438721e-01
-2.909110815995703536e-01,-4.415254702071396142e-01,-4.856509057267360263e-01,-5.228362216709665777e-02,-2.503732449400650553e-02,8.385724706875190976e-03,2.038871496915817261e-01
-2.796435961681569271e-01,-4.648876476638877375e-01,-4.629621946076517003e-01,-3.940872055905329433e-05,-2.272246125241617759e-03,-2.833083555790745045e-04,1.843315511941909790e-01
-3.072572731959011816e-01,-4.111618682303010419e-01,-4.054672646579658979e-01,-2.659321748095261166e-03,-4.635152122939525010e-04,1.944046503555344613e-02,1.067359074950218201e-01
-3.126103690443643446e-01,-4.353221255910810772e-01,-4.335002319452286312e-01,-4.201924120507562373e-03,6.419076647749755865e-03,-5.528491912056833664e-03,1.229072883725166321e-01
-2.727277112994855868e-01,-4.594882583017458888e-01,-4.550770871487744840e-01,2.425404728939829432e-04,-4.666454920694725322e-04,5.689139732561948940e-05,1.845967620611190796e-01
-3.026353935779818038e-01,-4.201687775494307719e-01,-3.887887795985217609e-01,-3.396737888369526746e-03,5.236939398915074935e-04,-9.163591348326567687e-03,1.067612022161483765e-01
-4.213401251852553209e-01,-6.770549711710106555e-01,-2.355264415013526569e-01,-9.256218678942320852e-03,-3.097804545193812500e-02,2.846219373635468924e-02,3.911500573158264160e-01
-2.730108130647919129e-01,-4.530897521957294449e-01,-4.545441658606389490e-01,-9.641337696935914348e-05,-1.341811075467593591e-03,1.426092048404257388e-04,1.808257102966308594e-01
-2.755873740421022067e-01,-4.758037301973725430e-01,-4.743236265195397428e-01,-4.274860169082241035e-02,-2.554444800205843760e-02,9.289760358540330443e-03,2.179248183965682983e-01
-2.342358516844885996e-01,-4.086988612953146305e-01,-4.525675035584651451e-01,-4.950504664202266120e-02,-1.335952791276008578e-02,5.029532388965245182e-03,2.190406918525695801e-01
-2.868522155450750066e-01,-4.729106844400621790e-01,-4.830841251897207700e-01,-1.500611026768419558e-02,-1.004793121299790010e-02,-1.471358869604555549e-03,1.939047127962112427e-01
-3.071841171543037152e-01,-4.362729055945345769e-01,-3.804387757024497718e-01,6.398356145368724879e-03,6.242467685651355812e-03,2.751985773623739917e-02,1.228232681751251221e-01
-2.878463707072768107e-01,-4.355099810743591204e-01,-4.376286365432638936e-01,-1.228694095447535736e-03,4.282208553441142762e-03,-1.761353951630240111e-03,1.489655226469039917e-01
-2.909415963480133649e-01,-4.499498359139763037e-01,-2.894970683691172608e-01,9.715956497347955773e-03,3.032700089007949601e-02,5.577762264275635401e-02,1.946566402912139893e-01
-3.178133885626810984e-01,-4.716365536389736102e-01,-3.346872757509965490e-01,4.638440965631375826e-03,1.073034235275667492e-02,3.202697480960554205e-02,1.576002687215805054e-01
-3.653433993904355859e-01,-4.457329370377660638e-01,-5.022718512154970005e-01,2.842425662648765880e-02,-2.585484307501970114e-02,-7.779319843738820295e-02,1.918041855096817017e-01
-2.916700124694398544e-01,-3.277748519931268922e-01,-4.449217399384872151e-01,2.307332100655103482e-02,-1.169278300520440808e-02,-2.918435425145482487e-02,1.543340533971786499e-01
-3.415069952828070354e-01,-3.922183261712165470e-01,-5.055316025975006289e-01,4.459419682538240393e-02,-2.489626855927807789e-02,-6.472664043892975561e-02,2.038426250219345093e-01
-2.712837474775411373e-01,-4.541597739775936615e-01,-4.589035139286983811e-01,3.733809082095372318e-04,-3.877272979368551285e-04,3.864921365475068615e-04,1.852969974279403687e-01
-2.892353295049346351e-01,-3.673178685279616662e-01,-4.260617571244230128e-01,3.390714173694663741e-02,-2.529995957859569253e-02,-4.609263061778061388e-02,1.608649641275405884e-01
-2.715301222275249282e-01,-4.482740761588212552e-01,-4.467191573528590531e-01,1.341418827898284687e-03,-1.187715141457652661e-03,-1.588533670687090925e-04,1.759992241859436035e-01
-3.081746839729315735e-01,-2.297372401189232693e-01,-3.995474902014019003e-01,4.238658851589483662e-02,-3.990139240245071939e-02,-9.004967532240155947e-02,2.369842529296875000e-01
-2.341617612808500615e-01,-1.479805832788639031e-01,-3.118358814960380254e-01,1.914993805519886287e-03,7.505764684273636723e-03,-1.075016747728475136e-01,2.345300614833831787e-01
-2.803238574161029395e-01,-2.024868434402422035e-01,-4.547759555377361984e-01,5.464381253108385739e-02,-1.384958141437888680e-02,-4.887197581284425524e-02,2.583982348442077637e-01
-3.058527101185098962e-01,-3.250602441906369489e-01,-4.459842349745739010e-01,5.662372975904924298e-03,-5.796507983410238880e-03,-2.353337485456762426e-02,1.384653002023696899e-01
-3.262526802436782614e-01,-3.209004669406846366e-01,-4.652701167550981620e-01,5.317198730643813223e-03,-7.943370660730020988e-03,-2.783266372854177953e-02,1.506539881229400635e-01
-3.156414218915022940e-01,-2.934735548559789242e-01,-4.748111626689304199e-01,-7.206370637017380822e-03,-8.126979438430407751e-03,-3.073639268540035580e-02,1.803967654705047607e-01
-2.771755890950911572e-01,-4.508477799638692662e-01,-4.474028831173902931e-01,-3.954767537073417515e-03,-1.327213320479282265e-03,8.956761002016296351e-04,1.721343249082565308e-01
-2.729584514768617076e-01,-4.523077405504799531e-01,-4.527066717907547999e-01,3.557501426680535869e-04,-9.146398934909094830e-04,1.437284085600446046e-04,1.795573085546493530e-01
-3.043717288510000563e-01,-4.261545127359159246e-01,-3.814868627374199961e-01,-1.885340918809827113e-02,-2.479611823668316159e-02,5.630558723168243435e-02,1.542995423078536987e-01
-3.143737824766880129e-01,-4.626184599306558676e-01,-4.728600059336692807e-01,-2.431803063100667836e-02,-2.356579594371814926e-02,2.209718784235211245e-02,1.688331365585327148e-01
-2.820818088379632993e-01,-4.574211424206742760e-01,-4.474988356097559516e-01,-6.599045322275171391e-03,-4.867173847431762596e-03,9.843678969327172151e-04,1.711934059858322144e-01
-2.725641494072076898e-01,-4.518045315152440233e-01,-4.518612049298595945e-01,3.555811021775434405e-04,-9.142051730962178803e-04,3.383484196841841408e-04,1.792777329683303833e-01
-2.851198598148405039e-01,-4.645619702237129833e-01,-4.508205874617184916e-01,-6.632317331643856027e-03,-8.471818463411861719e-03,1.986724644704791331e-03,1.740161925554275513e-01
-2.708722976893315204e-01,-4.584299099411602851e-01,-4.567920239771431357e-01,2.192407452273663782e-03,-3.016036795137395313e-03,8.613067725438184642e-04,1.868616491556167603e-01
-2.682669011012970284e-01,-4.543658889714035087e-01,-4.193958533424592683e-01,-1.472585036185948331e-03,-1.003935246375916093e-02,-3.019427933527694082e-05,1.722112745046615601e-01
-3.007265153727805562e-01,-4.202702030249322873e-01,-4.358447095230755797e-01,9.868516642491391606e-04,-5.170120682394118046e-03,-3.072322154728700065e-03,1.284777075052261353e-01
-2.973327525349755418e-01,-4.384216320004833967e-01,-4.175992012653009788e-01,-1.154193630470520815e-02,-7.565430874658773085e-03,1.390954245598811576e-02,1.362116485834121704e-01
-2.870731215322889218e-01,-3.860842211048283179e-01,-4.060360629857603931e-01,-1.129812090247670105e-02,-1.117316911276468490e-02,2.592659575126176133e-02,1.222732812166213989e-01
-2.830981687731635721e-01,-4.448074314568567500e-01,-4.025827740290723877e-01,-1.062913087136586367e-02,-6.419468961877039179e-03,1.250118311973689653e-02,1.484455913305282593e-01
-2.804346436571634738e-01,-4.087968019218687354e-01,-4.013461801166961496e-01,-1.023261743963912833e-02,-1.301492933153610906e-02,1.116926217978317024e-02,1.295087635517120361e-01
-2.722605038906894537e-01,-4.523412577636775067e-01,-4.532665241133913003e-01,9.630516500122813378e-04,-1.860152561912108106e-03,8.645719686830218031e-05,1.805816739797592163e-01
-2.705865371546408160e-01,-4.546177735993143232e-01,-4.517084019295120045e-01,1.224554068603676002e-03,-4.622205782296617458e-04,3.853369658481432835e-04,1.826092302799224854e-01
-3.247583830449076725e-01,-4.496515650877828674e-01,-3.687926558749495265e-01,3.606266652949873756e-03,1.638732773207925500e-02,4.295969037780460187e-02,1.357166022062301636e-01
-2.742774545905413697e-01,-4.523765793060744445e-01,-4.508852152668917368e-01,9.778756762161024390e-04,-2.086778707402018056e-04,1.392472478082481819e-04,1.773667633533477783e-01
-2.883099921914991648e-01,-3.962992254367738165e-01,-3.024612904420103110e-01,4.481982851384375133e-03,1.919903118490791025e-02,6.415401599034957492e-02,1.544248461723327637e-01
-3.189433458345823924e-01,-4.540575646629946283e-01,-3.827202210487815615e-01,4.442129559902614766e-02,3.538394772383109121e-02,8.412159850883707546e-02,2.112139612436294556e-01
-3.168876617490965497e-01,-4.222314686331455347e-01,-3.739049095677006163e-01,2.659551142577905314e-02,4.351396541255080075e-02,5.495207001617604531e-02,1.587558537721633911e-01
-3.278294656174502997e-01,-4.540781186302486061e-01,-4.599982418786666694e-01,1.932634924110192970e-02,1.007563766843025746e-02,4.030884977927561008e-02,1.517256349325180054e-01
-3.160197073836555348e-01,-3.565875197898628057e-01,-3.371853896234290326e-01,7.811579451323834127e-03,-6.797253275277173080e-03,7.500527286596136989e-02,1.357723474502563477e-01
-3.011862881919083468e-01,-4.419830252886219890e-01,-4.528533332138175993e-01,2.507899244891946544e-02,2.014886817740983022e-02,3.996100712555634982e-02,1.713704615831375122e-01
-3.071079526681079752e-01,-4.558938481187360114e-01,-4.533693761530546706e-01,1.354778518019902726e-02,1.137470302053363025e-02,1.628087923085484029e-02,1.533035933971405029e-01
-2.729393273219972160e-01,-4.556750151166063523e-01,-4.519953487851531282e-01,1.409788565111254593e-03,-7.512288370027426663e-04,3.281077209128212008e-04,1.809459626674652100e-01
-1.771276442096858528e-01,-4.582775257690324677e-01,-4.764511811589409174e-01,5.218043981961960343e-02,-9.952700693807253057e-03,7.374652048639263610e-04,3.048807084560394287e-01
-3.288710411918638887e-01,-4.755195288020316324e-01,-3.692690942373931806e-01,-5.955760000172471459e-03,-1.186328157397098168e-02,-8.884387560661314784e-03,1.340853869915008545e-01
-2.792692767694460176e-01,-4.632278877372720260e-01,-4.633341467342741438e-01,3.446418487699159732e-04,-2.536657091576077772e-03,-9.855754025609350893e-05,1.840652525424957275e-01
-2.922362044717992102e-01,-4.199712046677240851e-01,-4.345469072740739125e-01,1.136613674145038784e-02,1.139577535504321393e-02,1.299577316090437182e-02,1.402652412652969360e-01
-2.929434219613845647e-01,-4.261146378802125323e-01,-4.468971142068091096e-01,-2.433136435664864233e-02,-1.481784010081653100e-02,1.720358699111445427e-02,1.557457894086837769e-01
-2.566861789229638591e-01,-3.860011210143502458e-01,-3.763096006434830665e-01,-3.266288678166943960e-02,-3.927921372395216243e-02,4.496679335548064982e-02,1.716339737176895142e-01
-3.001795684138868214e-01,-3.965205357201583847e-01,-4.369155318194193338e-01,-1.176296185383960899e-02,-1.294463214988841870e-02,2.174966365665363319e-02,1.309273391962051392e-01
-3.470531664913060754e-01,-4.046421305467423069e-01,-5.295109917702427449e-01,-4.433146100030711800e-02,-1.490781350011375489e-02,3.438050792136983225e-02,1.902850866317749023e-01
-2.716471050208185134e-01,-4.612377530237036782e-01,-4.562427226597228769e-01,2.572112704718634672e-04,-7.167588079612172017e-04,-1.283979647312736921e-04,1.871479153633117676e-01
-2.963035851334268611e-01,-4.578038806276171213e-01,-3.536738745713446375e-01,7.764051897046857047e-03,-1.112810258811715650e-02,-6.650229438248528302e-03,1.441991627216339111e-01
-2.921731620116834183e-01,-3.271135778614988610e-01,-4.419408388310099300e-01,-2.669142836422066026e-02,-8.914719606332098881e-03,2.316296496571733018e-02,1.496780812740325928e-01
-3.129352343928602509e-01,-3.848205603090971705e-01,-4.614341950030436124e-01,-3.876742173518458318e-02,-1.536392381380258763e-02,2.556409292813244596e-02,1.540194898843765259e-01
-2.849212691302358547e-01,-4.665844674300794748e-01,-3.886730721221343665e-01,-3.808112989140748691e-03,-1.622450403781097381e-02,1.173974784266124853e-03,1.604849249124526978e-01
-3.029208625331945015e-01,-4.405021760084268934e-01,-4.738269841185248077e-01,-4.309696466565339501e-02,-2.697162006976269386e-02,6.045019827519225453e-02,2.081854045391082764e-01
-3.244355405834598027e-01,-4.163067204955706035e-01,-4.599436787620945211e-01,-3.258728800387087482e-02,-1.836143988936744104e-02,4.975917728545207336e-02,1.611788570880889893e-01
-2.718416314346138174e-01,-4.573791633737814277e-01,-4.564082935080486236e-01,-1.380031616562909331e-03,-1.394106027430234507e-03,-1.324626477776742837e-03,1.850994080305099487e-01
-2.953982065110083433e-01,-4.266225965703944745e-01,-4.091772183754933678e-01,-4.162071282183326879e-03,-1.717946692640495232e-03,3.527070966785444007e-03,1.238267570734024048e-01
-2.563455760863883048e-01,-4.419401545911292306e-01,-3.952442319286924577e-01,2.067253873222727432e-03,2.715002461062461861e-02,-4.798629635902238420e-04,1.737360954284667969e-01
-2.891286690717829178e-01,-4.620987254613476702e-01,-3.872809639052938180e-01,9.641092359424383029e-03,-1.793683721022919925e-02,-1.872621522490190964e-03,1.543686091899871826e-01
-2.684250477812055724e-01,-4.558043401207010348e-01,-4.182314408487575186e-01,-5.696924447315955022e-03,1.541653358390133836e-02,-5.489448858051013992e-03,1.743075251579284668e-01
-2.696633237802174010e-01,-4.587773789690911541e-01,-4.533569904618081070e-01,8.394117043865433189e-04,1.902867109190186821e-04,3.735328045005551910e-04,1.864700466394424438e-01
-3.177472441614845877e-01,-5.763867637083097684e-01,-5.038663517270440817e-01,-1.684982994190737174e-02,7.474494713526180778e-02,-3.045781374026136634e-02,2.716471552848815918e-01
-2.860773878867961528e-01,-4.606468297079598928e-01,-4.220745155950959560e-01,5.522060245846714156e-03,-4.844983386428420268e-03,9.035835424833249833e-04,1.593521833419799805e-01
-3.037622296912833586e-01,-5.043651920486267315e-01,-4.236528165766661469e-01,-2.581632428036990771e-03,2.272158775475240783e-02,5.653912412560117666e-03,1.795260459184646606e-01
-2.687268818125667647e-01,-4.652083632951269365e-01,-4.412415167817463901e-01,4.302209928237323358e-03,1.703449256280533189e-02,2.267243454415844312e-03,1.881802678108215332e-01
-2.750505415618778038e-01,-4.591284217635178133e-01,-4.629444207194775007e-01,-1.630012550564886127e-03,5.775696516323141879e-04,6.728150210145905684e-04,1.860429942607879639e-01
-2.700885566355410994e-01,-4.435978318067215764e-01,-4.579480436580678493e-01,-9.817262533651128706e-03,4.827807286302475583e-03,-2.624702784031456102e-03,1.821565777063369751e-01
-2.683067318197976947e-01,-4.437827443052871357e-01,-4.455797745742064997e-01,-5.750488982009210708e-03,6.552603309626819569e-03,-2.661189431038147018e-03,1.770865768194198608e-01
-2.830310312578440679e-01,-4.496957388518051379e-01,-4.646989376481239220e-01,-8.237491617183881690e-03,7.591922211760536270e-03,-2.422873937543986757e-03,1.757749021053314209e-01
-2.712014154150311773e-01,-4.194294778203766505e-01,-4.420158126118639563e-01,-1.417910730914144664e-02,1.307306729821850269e-02,-1.048248404519311339e-02,1.651518493890762329e-01
-2.862274431323851842e-01,-3.880310827882520464e-01,-3.827873898314227419e-01,-2.721660051707220501e-02,1.740887232858137276e-02,-5.129658670863729980e-02,1.445098817348480225e-01
-2.523282140438162235e-01,-5.970310967074965447e-01,-5.935463202953896733e-01,1.687733479409453743e-02,1.268289257780995556e-02,3.424338746910139675e-02,3.499799072742462158e-01
-2.730846089157680789e-01,-4.500978736407866276e-01,-4.501095276384567967e-01,-5.749690467265406498e-04,-1.817491765343705204e-04,-3.551572679013694520e-05,1.770221889019012451e-01
-1.877304178368284227e-01,-5.474440086778022962e-01,-5.925055826877757559e-01,5.371307670104009946e-02,6.551604990579797116e-02,1.169167945635795833e-02,4.117961823940277100e-01
-2.702728367743191806e-01,-4.596608981708966701e-01,-4.572910714344684546e-01,-1.169435676592131849e-03,-1.812310244378349941e-03,-1.416890353883542663e-04,1.882515698671340942e-01
-2.721861278251933580e-01,-4.579773479268687275e-01,-4.575964278612412173e-01,-1.844549896065258900e-03,-2.369646911645377670e-03,-7.909212407613446568e-04,1.856789737939834595e-01
-3.965902377568339965e-01,-7.293172096207424238e-01,-9.088361574859203929e-01,9.097807976834132448e-02,1.118071323378248827e-01,7.211709842741614515e-03,5.149316787719726562e-01
-2.794283239920967721e-01,-7.548896384443581908e-01,-7.534881009326283019e-01,6.359505741275200963e-02,6.672951318650525987e-02,-3.255684595438716050e-02,5.040539503097534180e-01
-3.148430937755292147e-01,-5.137953542715875122e-01,-3.532206678778991860e-01,1.637237112248070628e-02,-4.315620952542113808e-02,-3.667197165931223440e-02,2.093933522701263428e-01
-2.270045792045932154e-01,-2.648233145888891915e-01,-3.057055194261615871e-01,5.558347156734432665e-02,6.188154907596902371e-02,1.267921316543548504e-01,2.713540196418762207e-01
-3.424121191626480210e-01,-3.870319170304542533e-01,-5.352897793290053441e-01,6.283124196281340834e-02,4.582244029130826818e-02,1.583427109044597270e-01,3.520599007606506348e-01
-2.756209634977991874e-01,-3.144230132542844558e-01,-3.819096871902484258e-01,2.550192677088200174e-02,1.824531866249024317e-02,5.421933406047087928e-02,1.429951041936874390e-01
-2.785141975063496478e-01,-4.364934753393401867e-01,-4.391095217930867101e-01,-2.639567935189698032e-03,-1.546558974928901892e-03,7.864875756539307667e-04,1.593973338603973389e-01
-3.342089564115591216e-01,-4.017844589653254972e-01,-4.705578047836398436e-01,3.476324849615954754e-02,2.829655678891606838e-02,6.679936490086203771e-02,1.826406717300415039e-01
-2.926447325697530966e-01,-5.146629009838431523e-01,-4.980159057930644839e-01,1.559249642145227842e-02,-2.664974221148938907e-02,1.264614103428486451e-02,2.218401134014129639e-01
-3.311792608342888355e-01,-2.286879654225049130e-01,-4.077132984974267127e-01,1.475343706455721493e-02,-2.562089248460728066e-02,1.703192839864784702e-01,3.374229669570922852e-01
-2.745092600401551897e-01,-4.623332798813993838e-01,-4.654442227188747561e-01,-1.023449250674426068e-02,-1.307869021063010192e-03,3.045948726231198587e-04,1.902406215667724609e-01
-3.017661312225513592e-01,-4.632376365047303213e-01,-3.844973230833123035e-01,-6.703675443643315746e-03,-4.326893267181041239e-03,8.068644549375654160e-03,1.412269771099090576e-01
-2.849295872580884792e-01,-4.801685043043135148e-01,-5.186972183530035307e-01,2.272590784632761568e-02,-6.763909525090419303e-03,4.361908094248976089e-03,2.210627347230911255e-01
-2.788986473420140277e-01,-4.478527793303209159e-01,-4.452651381418950560e-01,-2.508496425403366429e-03,-6.072521585460612277e-04,-1.006250046422794411e-03,1.677439212799072266e-01
-2.641968710547557553e-01,-4.235170587109234330e-01,-4.851594487220437513e-01,3.844759094483437417e-02,-8.722657549324667331e-03,-1.534193935095263042e-02,2.106480896472930908e-01
-2.703091837204566472e-01,-4.514198723867825502e-01,-4.457109896174744068e-01,-3.437603361129866041e-03,-2.312770169964385031e-03,2.518895444997241583e-04,1.784696727991104126e-01
-2.833305890290455653e-01,-4.516471486566624449e-01,-4.189899433663752393e-01,-4.716587702250351136e-03,-3.439145523602242082e-03,2.955846531251603293e-03,1.550117433071136475e-01
-2.830162806187058733e-01,-5.253446304938719225e-01,-5.135220055224481994e-01,3.579007609194412298e-02,5.823719988078063584e-03,5.591434623671609309e-03,2.450228035449981689e-01
-2.702971708454310340e-01,-4.610439812329476528e-01,-4.627466036550194617e-01,1.792206382306888238e-02,-4.033308015477564748e-03,9.253305691482305306e-04,1.942343562841415405e-01
-2.871315124692206955e-01,-4.379368570448246012e-01,-4.380808778073476129e-01,-9.553410961266235474e-04,-5.500622328480298667e-03,-2.890065120070553690e-04,1.511878073215484619e-01
-2.913527360397074606e-01,-4.652004163220533894e-01,-5.427135171548030934e-01,3.582807518708770039e-02,-7.361372841244907643e-03,1.334243017492460753e-03,2.317879050970077515e-01
-2.800500615050115494e-01,-4.907716954417150057e-01,-5.040480129774138618e-01,4.699530263677263731e-02,-1.265089462053467506e-02,-2.299786637429503122e-02,2.367910295724868774e-01
-2.866366077944317858e-01,-4.639857494679924810e-01,-4.171146740565267463e-01,-4.760714404462977091e-03,-3.083591315194972229e-03,-1.581386513285621797e-04,1.594793498516082764e-01
-3.449865971482111160e-01,-4.110539093063890204e-01,-4.736202500018473760e-01,-1.368528886485101924e-02,-8.877805960015108105e-03,3.237671522464132673e-02,1.278909295797348022e-01
-2.690992689803954341e-01,-3.419842461634270414e-01,-2.197999034520370931e-01,1.975320605046354538e-02,1.461901786606559402e-02,1.288104287098849332e-01,2.508464157581329346e-01
-2.742808948580040540e-01,-2.278374619979602334e-01,-3.747128304239639718e-01,2.141946923924550189e-02,1.350115047953422999e-02,1.284709486749120722e-01,2.614298164844512939e-01
-3.469413609354681238e-01,-4.210420434329126271e-01,-3.231589690458553932e-01,-2.565241611080263870e-03,4.397564369713706511e-02,1.875848700444114059e-01,3.452598452568054199e-01
-2.849036330639785897e-01,-4.365364686040347775e-01,-4.302507434410641207e-01,-5.501564576544644945e-03,-1.319783677170147584e-03,1.941507607959818641e-03,1.489504575729370117e-01
-3.434675451806394886e-01,-3.314630755400809758e-01,-4.331966222317750193e-01,3.885534039307483867e-02,2.993137732034935588e-03,1.864215147643131232e-01,3.436387479305267334e-01
-3.371565485100047610e-01,-4.716477458091207775e-01,-3.712779914565871864e-01,-4.753236760041459332e-04,7.258417820811612770e-03,5.725679327815386827e-02,1.570250689983367920e-01
-2.743459531419973896e-01,-4.538512868431813230e-01,-4.522174046799578573e-01,-1.242733831448203461e-03,-1.536133300922041210e-04,-5.767954769549029368e-04,1.787099540233612061e-01
-2.877167443206320452e-01,-4.350187263429263762e-01,-4.222924223777495545e-01,1.177689064143847691e-02,1.192815269703102754e-02,1.211984498212547411e-02,1.458383500576019287e-01
-3.202829076160254029e-01,-4.417175956374120305e-01,-4.195046738334246572e-01,2.380709868462202276e-03,2.197755651893705271e-03,1.956926566859710018e-02,1.171441003680229187e-01
-3.107039450515120538e-01,-3.902207015698841430e-01,-4.020596789577801644e-01,3.640010800942754254e-02,4.923256244663644365e-02,7.619372650846382988e-02,1.899140924215316772e-01
-3.028971068012875634e-01,-4.707390024976165210e-01,-4.131774140633728276e-01,2.703972485419213825e-02,2.972797034689413087e-02,5.200215911534397661e-02,1.864949464797973633e-01
-3.587747966018137724e-01,-4.370825192529394498e-01,-3.930438224142775439e-01,-1.450382710708008997e-03,6.973510100026547413e-03,1.014153700571238104e-01,1.887600868940353394e-01
-2.599116695076618688e-01,-4.233910469371481300e-01,-4.115064569125023164e-01,1.453729327823276643e-02,1.733732414980563782e-02,1.061511352281914455e-02,1.636998951435089111e-01
-2.655066174613631702e-01,-4.373941475745347640e-01,-4.569796594032287662e-01,-1.155116182461184138e-02,-1.026588242426367328e-03,-2.478581297760635909e-04,1.835730224847793579e-01
-2.449914284946458354e-01,-4.083406061453964120e-01,-4.322017676120564755e-01,-3.808043348235174569e-02,-2.435651416392450863e-02,1.925380131954145327e-02,1.959393173456192017e-01
-2.494821771117551323e-01,-3.353283603604653718e-01,-4.081350967993008227e-01,-4.295897102526208960e-02,-2.744736078989673186e-02,3.231430361242790261e-02,1.727706640958786011e-01
-2.844677650637569277e-01,-4.313169000091436889e-01,-4.975025772838574945e-01,-4.438783420573529787e-02,-2.478814479709017318e-02,1.265021804471597872e-02,2.095204144716262817e-01
-2.713159548827627221e-01,-3.970734868774511428e-01,-5.341473731842377726e-01,-6.867854576309341541e-02,7.581011247282493440e-03,-1.013529627258137839e-04,2.572254836559295654e-01
-2.775286013578224242e-01,-4.229406416035062510e-01,-4.578249450254647801e-01,-1.676001460258728232e-02,-8.691504632943209199e-03,6.163786911863909125e-03,1.691669970750808716e-01
-2.734760673185057112e-01,-4.448987580172689138e-01,-4.623781175121595144e-01,-4.966391625916204144e-02,-1.644678781271748103e-02,4.038212404170564429e-02,2.139877974987030029e-01
-2.584842665323804911e-01,-3.939512698240144051e-01,-4.388809576048739447e-01,-4.094540438212310174e-02,-2.658642439455649945e-02,2.855244877921133545e-02,1.898744255304336548e-01
-2.748505846711477574e-01,-4.550369898578424666e-01,-4.668450852702974996e-01,-1.123685005819074698e-02,-7.523394861576813454e-03,3.189251037467410402e-03,1.879184693098068237e-01
-2.693322562239081619e-01,-4.115299153707659974e-01,-4.639426054800050991e-01,-2.377061005598246624e-02,-1.053163971303946837e-02,9.445702408519130247e-03,1.808749884366989136e-01
-3.123170935222412403e-01,-5.163580752901143489e-01,-5.076050867803644229e-01,5.046393852910360323e-04,5.153710673786253936e-03,5.627210166529268351e-03,2.002468705177307129e-01
-3.104666719243482920e-01,-5.411999942091337834e-01,-5.429562156741586376e-01,1.825002164303435271e-03,2.087842484760039918e-02,5.253226669011904632e-03,2.346202880144119263e-01
-3.033742571791754883e-01,-5.154257569200044742e-01,-5.237966957909844234e-01,7.354952566426939745e-03,2.683504474047971114e-02,2.702619769117691698e-03,2.217104882001876831e-01
-3.003935954403021968e-01,-6.684038312348881128e-01,-4.566494794279880032e-01,2.626734813226016055e-02,1.104822992799026765e-01,1.824780584468147643e-02,3.768707513809204102e-01
-2.722263155868641649e-01,-4.470052505019403988e-01,-4.482089507278410601e-01,-1.537359609523840292e-05,-2.097793520370858143e-04,-3.780749884118174528e-04,1.753854900598526001e-01
-3.232921350378064052e-01,-5.956463048407552030e-01,-5.698510397719958043e-01,3.784932222512526340e-02,1.475813161642773874e-01,4.009244003500324338e-02,3.771967589855194092e-01
-2.216765591419133097e-01,-4.612508092709087237e-01,-3.479518843697621544e-01,3.253653397907554923e-02,9.448810967559855001e-02,4.154325183050341930e-02,2.796897888183593750e-01
-2.691818928062561511e-01,-5.256606104304571980e-01,-5.368862254083605068e-01,4.280979457055775900e-02,-9.351040911150665033e-03,-6.515114706286566360e-03,2.732657790184020996e-01
-2.800822701901691247e-01,-5.381034098165072832e-01,-4.732307685574538847e-01,2.900890118300701592e-02,6.079822657659353369e-02,1.487356561706797663e-02,2.613854408264160156e-01
-2.834931141304763424e-01,-4.696957200229272544e-01,-4.701201132714870612e-01,1.048127232543487157e-02,8.566996677737717626e-04,-2.976106950916651041e-03,1.873738467693328857e-01
-2.834633373012643287e-01,-5.257894887584372290e-01,-5.150839692804662917e-01,3.695826983303798774e-02,3.012312515154993812e-03,5.426116155560220880e-03,2.458772808313369751e-01
-2.970170244732802667e-01,-5.004531978182213958e-01,-5.054395594482619103e-01,1.304887952859101752e-02,2.782572016587467594e-03,9.390596092787244220e-03,2.079041749238967896e-01
-2.774180015593816773e-01,-4.533461841982798779e-01,-4.461456098457360908e-01,5.543414770344539874e-03,-2.212267239891527182e-03,-4.797674748026647170e-04,1.727522760629653931e-01
-2.955820724070697403e-01,-4.943318523017047883e-01,-5.021184041070301252e-01,1.597518854796270774e-02,-2.811339220008426780e-03,1.277717693931725278e-03,2.047044485807418823e-01
-2.913413685395367381e-01,-4.977376881574686052e-01,-4.868987369288859668e-01,5.777249041909882608e-03,9.440172368853097518e-03,-2.119128752280815837e-03,2.021404355764389038e-01
-2.732528339791707728e-01,-4.702877100779663810e-01,-4.620727451049943535e-01,1.035624503549582680e-02,1.545297645130644729e-02,8.009989572713581765e-03,1.962198019027709961e-01
-2.737200548366394148e-01,-4.637565170131014436e-01,-4.636348398936010473e-01,1.028392987802371691e-02,1.244322252048292617e-02,4.384210071956775971e-03,1.921723037958145142e-01
-3.136449672183754811e-01,-4.748733489497274363e-01,-3.869311663396644008e-01,1.156011777862109985e-02,-2.585583841585941539e-02,-1.717465544475804337e-02,1.511324942111968994e-01
-2.742306105183420772e-01,-4.699151015166208589e-01,-4.731177016931681356e-01,2.957504884689608760e-02,4.711699569733445586e-02,3.060709485884728978e-02,2.258845716714859009e-01
-2.695297945080023516e-01,-4.856331185722172483e-01,-4.675854543798875773e-01,2.532266276445525877e-02,1.694549611344104215e-02,1.740947688397731161e-02,2.163807600736618042e-01
-2.736247505223595167e-01,-4.593123488851504344e-01,-4.598376100359743979e-01,2.341245200319007520e-03,-2.090310884140444622e-03,1.503348474772773450e-03,1.860484480857849121e-01
-2.793613432780807093e-01,-4.794180593376766164e-01,-4.848831868049712224e-01,2.782232961032246946e-02,2.438663913107362233e-02,9.974382376449167364e-03,2.134261727333068848e-01
-2.719749532205082421e-01,-4.440734561024325400e-01,-4.560724724399585206e-01,6.347702024607743132e-03,-6.566524928453516992e-03,-2.714027870599503879e-03,1.791625469923019409e-01
-2.711289963544974424e-01,-4.566129054566338552e-01,-4.561230589471583774e-01,1.591665511819607883e-03,-1.382685725502640637e-03,5.593078531653859851e-04,1.852779984474182129e-01
-2.906198294636309631e-01,-5.377018761503475908e-01,-4.942625110000694599e-01,3.450173882625048871e-02,5.660339524270405903e-02,8.780854572814182635e-03,2.561594843864440918e-01
-2.878709164611168991e-01,-5.184563666541240901e-01,-4.903700212518798396e-01,1.712387756054237209e-02,-3.964489408222135469e-02,-9.643443996439156687e-03,2.309892028570175171e-01
-2.936289974436254169e-01,-4.359039727259627073e-01,-3.753751567980707637e-01,1.977507621259873283e-02,-2.744015212675859211e-02,-4.469843642950271922e-02,1.572261601686477661e-01
-1.839755609097546152e-01,-3.920090799924278446e-01,-3.636054756697349455e-01,4.178160927765901117e-02,-8.011250653892393325e-02,-5.957264186098474440e-02,2.707649469375610352e-01
-2.783060152762434347e-01,-6.322287926984772044e-01,-5.671220829909728867e-01,3.418325099595678328e-03,-6.065879800023106505e-02,5.806287263096276789e-03,3.429754078388214111e-01
-2.878310622169572008e-01,-5.022162725471139844e-01,-5.224191486477087754e-01,1.133648864788878823e-02,-3.730966607785818345e-02,-8.368919591513531570e-03,2.355251014232635498e-01
-2.872109463338152202e-01,-5.216375111999160818e-01,-5.014888298380126841e-01,1.527238715598182826e-02,-3.977920017718155482e-02,-1.007339738732347841e-02,2.374651730060577393e-01
-2.825719223205403474e-01,-4.394673178204648312e-01,-4.436015802839251010e-01,3.923434527808656973e-03,-8.511274157473922020e-03,-1.064747201840295348e-03,1.598399579524993896e-01
-3.096367776795732052e-01,-3.862754145776342574e-01,-5.122184216242031685e-01,4.540304465736418743e-02,-2.482059220527574675e-02,-3.747861414560863663e-02,2.088867127895355225e-01
-2.689499441166068872e-01,-5.080953620947024074e-01,-4.666297752143143129e-01,1.047876199790609072e-02,-3.709853902500551831e-02,-1.172168303181290311e-03,2.312056720256805420e-01
-2.695786687182979424e-01,-4.587671326962807772e-01,-4.537382392646455154e-01,5.663899617518480161e-04,-1.220066712917559307e-03,-4.281038009340665947e-06,1.867393553256988525e-01
-2.898629937385417410e-01,-4.777812600563304812e-01,-4.786795241093220743e-01,2.150088342627950403e-03,-3.772108751056790690e-03,-8.571738430636711753e-05,1.885191202163696289e-01
-2.870138401170888587e-01,-2.880231131233009223e-01,-3.921131700312169288e-01,-4.911328365508534077e-02,1.785055892368143243e-02,-1.090234124025735024e-01,2.340756207704544067e-01
-3.591170669966145534e-01,-2.801327210248497623e-01,-4.822658785535101078e-01,-5.997761726502784385e-02,3.876499182115581560e-02,-1.205179646502405749e-01,3.000080585479736328e-01
-4.334641489138839066e-01,-4.691537082600458763e-01,-5.270663479119024331e-01,-7.445207732256756139e-02,1.233647304761943155e-02,-1.875480676561971094e-01,3.595875799655914307e-01
-3.958941906000283395e-01,-3.755262759302848141e-01,-4.480811175707197780e-01,-8.443863829522040704e-03,3.242839703914439375e-02,-1.493629978257512703e-01,2.729429900646209717e-01
-3.141628816161289306e-01,-3.230375009848251433e-01,-4.273042770234026788e-01,-3.414430544683717123e-02,2.045142233430181575e-02,-1.390535287838948197e-01,2.731951475143432617e-01
-2.737176662215885514e-01,-4.512295818329100650e-01,-4.256367967940919983e-01,-3.684945904259572837e-03,-1.211892151104058783e-02,4.848967030615823279e-03,1.678520888090133667e-01
-2.746082491387534796e-01,-4.622749979566938006e-01,-4.350591837503463011e-01,1.310876383125969200e-03,-3.065231580301820778e-03,6.030807663518131201e-07,1.757422834634780884e-01
-2.671631307225391105e-01,-2.850082060426092356e-01,-3.254367408568176745e-01,-3.724926363602490409e-02,2.943212717979318618e-02,-1.244474429218427464e-01,2.364257425069808960e-01
-2.867814549219580567e-01,-4.602951522807215423e-01,-3.909766694750939631e-01,-2.185584834428027073e-03,-1.288689275651194212e-02,1.559358495953039542e-03,1.529842764139175415e-01
-3.147173925370285730e-01,-4.845999518515396454e-01,-4.513522600461460366e-01,4.592419619511126788e-02,3.805900020768129138e-02,5.750664495491002171e-02,2.119219005107879639e-01
-3.026554647719045255e-01,-4.076706259047712111e-01,-3.945503361617109794e-01,1.233344932724315252e-02,1.327693930991696858e-02,3.172106778023350837e-02,1.175854951143264771e-01
-2.649319052271449371e-01,-4.293054028167546665e-01,-4.218396798951682958e-01,1.452982813734877282e-02,1.853009922016854785e-02,1.138907419121584080e-02,1.670323014259338379e-01
-2.885899592930912250e-01,-4.502883563703108383e-01,-4.520696702148488955e-01,3.779627173940246568e-03,5.301603231930628567e-03,8.833402806755851324e-04,1.629941612482070923e-01
-2.715200084583505036e-01,-4.543015926941786353e-01,-4.558725203314842878e-01,-1.294358374911058155e-03,-1.591402154545790886e-03,-2.629874903862610661e-04,1.836070418357849121e-01
-2.915059065830870599e-01,-4.333473615960275471e-01,-4.322265579304815919e-01,7.215793155191804580e-03,7.506799409206357798e-03,4.702612820729440250e-03,1.426635235548019409e-01
-3.416401516129172755e-01,-4.310042851671615494e-01,-4.389085935583119102e-01,-1.943850571044373685e-03,1.100305213342994519e-03,-4.422913188752327501e-02,1.209892705082893372e-01
-3.333204065295891083e-01,-3.974503892978554775e-01,-3.911260988512185732e-01,1.199511002327810147e-02,-3.372376085552859348e-03,-6.177926359636889270e-02,1.251513957977294922e-01
-3.126677235870367610e-01,-4.167726455161472887e-01,-4.171218487587018409e-01,2.064461234307013449e-02,-1.389640256891550713e-02,-3.670050426824732898e-02,1.295107007026672363e-01
-3.247559567933608893e-01,-3.918996337774169336e-01,-4.477538703152187938e-01,-5.146828387132767677e-03,4.414449766163347152e-03,-3.309930961408182049e-02,1.216669753193855286e-01
-2.613023247033191554e-01,-4.917158209357207488e-01,-4.308858619266238144e-01,-3.267261547832873286e-02,-6.666786337475981428e-02,3.651781571492817430e-02,2.516179382801055908e-01
-2.729483858880560332e-01,-4.511549867431117189e-01,-4.589179237511470388e-01,-5.869215700605570412e-04,-1.932671213812328257e-03,-9.361697002583369812e-05,1.822457909584045410e-01
-3.122154586290470379e-01,-3.790288312074647781e-01,-4.429056715174194414e-01,9.440948577558526400e-03,-1.162974604665297992e-02,-2.619008415549369667e-02,1.246716231107711792e-01
-3.075039184633621137e-01,-4.087234716450938166e-01,-4.212791656935613305e-01,1.592396156255894077e-02,-1.097662642258116251e-02,-2.687952563336686723e-02,1.223259121179580688e-01
-2.693804258233687410e-01,-4.480722381412481914e-01,-4.496665881225329064e-01,-1.523860307351353714e-03,-1.114108762432331184e-03,2.936528453025591097e-04,1.795247942209243774e-01
-4.052320885964837416e-01,-7.643013468006343292e-01,-7.509057717841871593e-01,-1.208923591359223060e-01,-1.221725431443521637e-01,7.477990594114805600e-02,4.792698919773101807e-01
-3.344059903146333057e-01,-4.413835502588771553e-01,-4.614335064157712996e-01,1.983277807964230199e-02,-1.732159464050194581e-02,-4.242965531700284426e-02,1.465334445238113403e-01
-2.865354484988080208e-01,-3.112156377773239724e-01,-4.051260068216244736e-01,1.466800294907952794e-02,-8.880213463765659204e-03,-6.718437472408947397e-02,1.617690920829772949e-01
-3.439982124719971890e-01,-3.221212106416991849e-01,-4.887868052955163800e-01,4.734747127768471064e-02,-1.771795227208891946e-02,-9.318937496222948202e-02,2.415156066417694092e-01
-2.733154497167278874e-01,-4.241326362415256401e-01,-4.749454427242438825e-01,-2.461144745916891627e-02,-6.850604618265804593e-03,3.742695369976170995e-04,1.869481056928634644e-01
-2.975477682357254849e-01,-3.254972876998999953e-01,-5.191024246290004696e-01,-5.717489564070998842e-02,-1.062628141350421482e-02,-4.104604144860508549e-03,2.321023494005203247e-01
-3.078630219389756340e-01,-4.312869342080112300e-01,-4.419737943430209759e-01,-1.646413865335016749e-03,-8.075020453001071144e-03,7.029273650002615696e-04,1.298919469118118286e-01
-2.703894400393569430e-01,-4.474460638045759664e-01,-4.589342104002408496e-01,-9.002411962263498144e-03,-6.848149132118709626e-03,1.552943612899936737e-03,1.841361820697784424e-01
-2.973624563509695840e-01,-4.976192546120374316e-01,-5.469776496692733136e-01,-4.470231710387060492e-02,-5.718170055704734946e-03,1.198358077647535382e-03,2.419104874134063721e-01
-2.314679260607274691e-01,-2.463223174914183078e-01,-4.501537090561313903e-01,-9.375736035531173629e-02,-1.805112453321428348e-02,2.532162762960031913e-02,2.721545398235321045e-01
-2.581147671406048283e-01,-4.041215619845056062e-01,-4.416700688706525213e-01,-2.433258145566273567e-02,-6.685659041896401325e-03,4.931519353915420935e-03,1.737627387046813965e-01
-3.789213228288946800e-01,-4.622018626373964323e-01,-4.896255947064455105e-01,-4.147207583636092210e-02,3.124568759892629166e-02,-9.759293672134290720e-02,2.159476727247238159e-01
-2.730201991259060823e-01,-4.583562878410983865e-01,-4.606797854109022095e-01,8.016528460380917178e-04,-8.256888510538221592e-07,7.588361718111735071e-04,1.865184903144836426e-01
-3.064961189305717704e-01,-4.380514971128993684e-01,-3.456190076212154461e-01,-2.312459004759191347e-02,2.026542349666535930e-02,-7.407781891797497742e-02,1.816300153732299805e-01
-3.023959445036902283e-01,-4.307852087180215617e-01,-3.806370282426571050e-01,5.205687930489965969e-03,-1.855219779406801109e-04,5.227546379288371993e-03,1.127986609935760498e-01
-2.755379918446544396e-01,-4.539404912253983682e-01,-4.369599990114940713e-01,-1.124332392666905003e-02,1.289866530708165364e-02,-5.743078069286262910e-03,1.733889877796173096e-01
-2.973019479011328459e-01,-4.786395160848092023e-01,-4.197086188609169821e-01,-7.152455235859414735e-03,1.833707261568523483e-02,-4.018397821002340706e-03,1.639525443315505981e-01
-2.768139049135097673e-01,-4.740802533325779722e-01,-4.626580412295189237e-01,-4.288521330559466951e-03,-1.076053247120307109e-02,1.890040202532626253e-03,1.928847283124923706e-01
-2.787938571018100942e-01,-4.123406561271901749e-01,-4.422318845820824018e-01,-2.919539181142782186e-02,1.718177015575489755e-02,-2.455838572315343499e-02,1.672489345073699951e-01
-3.005968680116351543e-01,-3.510640414722633329e-01,-4.267061416161447296e-01,-2.036460994742745126e-02,1.179954914893811130e-02,-5.142947614845933685e-02,1.472512036561965942e-01
-2.839818508166276900e-01,-4.813028616220376699e-01,-4.807115478819725674e-01,8.533224299161715209e-03,3.223364097810628784e-03,-6.678926235224470938e-03,1.979967057704925537e-01
-2.773465774241987702e-01,-4.628208588489505781e-01,-4.625934648550762418e-01,1.901115156965342947e-03,-3.568214480739993061e-03,1.054680051793472403e-03,1.855019181966781616e-01
-2.734791775093423638e-01,-4.562534848009197619e-01,-4.559892287245062015e-01,3.790026306345029797e-04,-1.520476887526195321e-03,7.535588860260273789e-04,1.826671510934829712e-01
-3.144464578296578550e-01,-4.031531675815219207e-01,-4.612594756824194286e-01,-1.852202470100910991e-02,1.496156760097054964e-02,-2.186127309749910305e-02,1.397645473480224609e-01
-3.133077087557930573e-01,-4.498993447533881085e-01,-4.077472282150702565e-01,-9.149911842409243212e-03,1.387897999479209901e-02,-2.052010598906484767e-02,1.294940710067749023e-01
-2.887420495222476902e-01,-4.662567006990740448e-01,-4.669428005443660989e-01,6.276896852640775383e-04,-2.159975766679575904e-03,5.407706896149497679e-04,1.779038310050964355e-01
-3.151812439134253907e-01,-4.069012861486997479e-01,-4.637815252836593460e-01,-2.458956095574801881e-02,1.860415971357385484e-02,-3.492478781312093050e-02,1.528937220573425293e-01
-3.029311192630381733e-01,-4.451997624830020261e-01,-4.378936643138536811e-01,-6.993890934481183409e-03,4.540428367484240085e-03,-9.944871950921415488e-03,1.405688822269439697e-01
-2.819853318709422685e-01,-4.217918295380723714e-01,-4.476205944460618369e-01,-3.302782476889654789e-02,1.827158006729653200e-02,-3.112576786861616027e-02,1.760809868574142456e-01
-2.890285558592317616e-01,-4.310232927397306124e-01,-4.500721340790852509e-01,1.912820504945274367e-03,-7.402325455049584349e-03,-1.867960817148312013e-03,1.530229598283767700e-01
-2.731190506310370303e-01,-4.590798920384189241e-01,-4.583274892833733571e-01,2.346332189290375493e-03,-2.104025481431333420e-03,1.753762153217286370e-03,1.856908947229385376e-01
-2.936780073346759723e-01,-4.377903810703682730e-01,-4.102066954418484013e-01,2.132777635852348835e-02,1.887459930527526225e-02,1.914868683992568613e-02,1.452152729034423828e-01
-2.928278279880846546e-01,-4.761650388311806648e-01,-4.255350381437106866e-01,-3.690511961278363385e-03,-4.155706494354682520e-03,2.720083305521680747e-03,1.643424183130264282e-01
-3.056838134803778750e-01,-4.153721647859495159e-01,-4.103625141249281350e-01,-4.888646273641603915e-04,-1.889443185894383636e-03,6.473553611440787704e-03,1.079086586833000183e-01
-3.021500526020743926e-01,-4.263588525178272359e-01,-3.447942583909122671e-01,3.730023588439233383e-03,4.562557828044887936e-03,3.543068016735338721e-02,1.257766187191009521e-01
-2.760074524475235602e-01,-4.628339449627577595e-01,-4.621021031389322964e-01,3.166313203141770359e-03,-1.920744036368165477e-03,8.917718613820790246e-04,1.865783333778381348e-01
-2.767218741818158745e-01,-4.615579642471205890e-01,-4.617053075705734866e-01,1.704280003336465727e-03,-3.613713513056816384e-03,1.365429171248060255e-03,1.850543767213821411e-01
-3.088725823729193687e-01,-4.265429204901400317e-01,-4.096020589263308920e-01,-4.897005909131220674e-04,-2.462828597843281630e-03,3.887034917370001726e-03,1.104722023010253906e-01
-2.985071701054165527e-01,-4.095938148454100203e-01,-4.147899511617904600e-01,4.769639726230015357e-03,7.244568024543256157e-03,1.337794079657905234e-02,1.170772016048431396e-01
-3.149109435618276942e-01,-4.385676547782271228e-01,-4.505658809700646694e-01,1.436718734010527555e-02,1.416057106152429634e-02,1.408681803267842168e-02,1.368748694658279419e-01
-2.800762862117920360e-01,-4.650028268564473377e-01,-4.643352160685312868e-01,9.075142441482295997e-05,-2.529818689585040196e-03,4.788610975422751687e-04,1.846475750207901001e-01
-3.417967133778615496e-01,-4.299782253452004710e-01,-4.588526742967517502e-01,1.852928574956280716e-02,1.470766893527314552e-02,3.461763964993339049e-02,1.281795501708984375e-01
-3.082553638981305189e-01,-4.169411766891575888e-01,-4.124958816636230541e-01,2.090605963326532210e-05,-2.220969841498491703e-03,9.312735465485468683e-03,1.078156158328056335e-01
-3.022700341779087085e-01,-4.259159832483307984e-01,-3.921840571608234960e-01,-2.169906273760451466e-03,4.340210543856414492e-03,1.001275592392197530e-02,1.123688146471977234e-01
-2.770793392296216906e-01,-4.473437985716267051e-01,-4.503621579532302577e-01,-1.728913184122402111e-03,-3.765988822415851627e-03,5.886654208756392876e-04,1.719464212656021118e-01
-2.753904420000573561e-01,-4.607693194004588433e-01,-4.608485685288524203e-01,-2.296065133258773285e-03,-3.791294312156225522e-03,-1.886568929181938294e-04,1.855776607990264893e-01
-3.138887705324672206e-01,-4.242369192848259862e-01,-4.265373952367005894e-01,-2.472958799523219150e-04,-3.715312601850066006e-03,8.660080208488104073e-03,1.127051189541816711e-01
-2.940624368539198619e-01,-4.739563552584902251e-01,-4.914579989460533538e-01,-2.338260172944192292e-02,-1.267272079533198099e-02,9.369801696157736143e-03,1.954532712697982788e-01
-2.653356764709597915e-01,-4.347006805444959543e-01,-4.411754492906708736e-01,-7.935395499067699962e-03,-6.083521876865920740e-03,3.844190424694877723e-03,1.736873537302017212e-01
-3.007842016355736225e-01,-5.043218348119899996e-01,-4.864647385087327303e-01,1.997395828314510631e-03,6.662445468285710035e-04,-2.353137963111397917e-04,1.952570527791976929e-01
-3.114702164360494407e-01,-4.814375744959016878e-01,-4.794621792150035589e-01,2.876496695467949810e-03,-1.291961286589937870e-03,1.349241112846381483e-03,1.690927147865295410e-01
-2.940562934648793814e-01,-5.049745522932083119e-01,-5.072199602668154839e-01,-5.395972976017108028e-03,-5.290375047524889345e-03,1.412177208140266878e-02,2.138568162918090820e-01
-3.084159550831281904e-01,-4.811200414898761379e-01,-4.786781939740243352e-01,2.252047102105253149e-03,-2.077906659155268586e-03,4.210043799356328643e-04,1.715798527002334595e-01
-3.023213836170413060e-01,-4.837549249403455542e-01,-4.823915827782702670e-01,-3.702090894180072654e-04,-6.622232746064646075e-04,-5.937384210139114637e-04,1.807634234428405762e-01
-2.717188552978889726e-01,-4.242298910974993120e-01,-4.608724723157671677e-01,-7.752885541508567312e-03,1.618726112684281413e-03,-2.462716759572745840e-04,1.742958873510360718e-01
-2.727856464255073998e-01,-4.585135798086994452e-01,-4.591232941515361876e-01,-1.897303121221356227e-03,-2.165371429062900796e-03,-1.089594327865677685e-03,1.861099302768707275e-01
-2.861902752184201093e-01,-4.780026900442694293e-01,-4.770271440743349967e-01,-3.126097960001041325e-03,-7.829472473712262640e-03,-3.688812409112586011e-04,1.918839812278747559e-01
-2.964480829184386046e-01,-4.789509838445023537e-01,-4.773813220978065930e-01,-3.106972477926931049e-03,4.198416450918741319e-04,-4.507541453900307856e-04,1.818059533834457397e-01
-3.008498832048999150e-01,-4.809069794955599386e-01,-4.805582945467735678e-01,-1.029195831597158649e-03,-1.511636839888806302e-03,2.641711521909417631e-04,1.799114793539047241e-01
-2.730133128547715393e-01,-4.590127257469731603e-01,-4.586897259588811337e-01,-2.595479442165526344e-03,2.730739241799897635e-03,1.832139268705197405e-03,1.859797239303588867e-01
-2.996376416137077614e-01,-4.770966242153353298e-01,-4.722737012147135149e-01,-6.909577265312392145e-04,2.361932710852188545e-04,6.934610247693128284e-04,1.751060336828231812e-01
-3.102460955998476155e-01,-5.210513458206382786e-01,-5.414982825404017763e-01,9.233725980695070210e-03,4.007915336213840538e-03,-1.406441713466731252e-03,2.224346250295639038e-01
-2.662590425153125162e-01,-4.556020243101157607e-01,-4.383494876191352252e-01,1.886743602833092876e-03,9.334250787297587032e-03,1.585139274154408542e-03,1.821026355028152466e-01
-2.756970117258185082e-01,-4.614755507516765110e-01,-4.582292740987533031e-01,-2.159860421679029793e-03,9.449256798694329051e-03,1.178932888728939556e-03,1.849517375230789185e-01
-2.782364909037003953e-01,-4.703715860142906879e-01,-4.715192959340994139e-01,-2.831152751041312015e-03,1.027362635841278134e-02,4.780512384811277243e-03,1.937704235315322876e-01
-2.659921199588169971e-01,-4.360956301043379946e-01,-4.510413745988968159e-01,1.112755719897601421e-02,5.937260403564382193e-03,1.392621087987209669e-03,1.793988347053527832e-01
-2.790358094114215870e-01,-4.487992353518508448e-01,-4.515895727910094748e-01,1.149941777508915351e-03,-5.137741260160664201e-03,1.081899059225068741e-03,1.714286208152770996e-01
-2.761005379881172339e-01,-4.658534889774048615e-01,-4.675031913115713089e-01,1.185732481948820584e-03,1.527926583350148158e-02,-3.049322852524115248e-03,1.924952417612075806e-01
-2.779308919939399436e-01,-4.687834337247192562e-01,-4.620428154743634885e-01,-6.020730285194971117e-03,8.017293392514423730e-03,-3.532207062069869525e-03,1.884745955467224121e-01
-2.828588336991658680e-01,-5.207673162222151708e-01,-4.294375450775594349e-01,1.400016695185332932e-03,3.781304958179237952e-02,-1.193072936778325453e-02,2.189425379037857056e-01
-2.715675226733087477e-01,-4.579613000585612825e-01,-4.719001180233691750e-01,-2.478686523181233489e-02,-4.858907712284070250e-03,9.165943392723311517e-03,1.992512941360473633e-01
-2.738437133567970250e-01,-4.360253312286866967e-01,-4.250247326943185078e-01,-1.231733929275430177e-02,-1.553203457015765038e-02,1.080458595326788500e-02,1.617680341005325317e-01
-2.897982420015896010e-01,-4.544639060771856753e-01,-4.584691761237752461e-01,-1.077202166540835310e-02,-1.555490768875622022e-02,1.210970278510067541e-02,1.711848825216293335e-01
-2.954342850366031281e-01,-4.804589582999536646e-01,-4.200556466572142877e-01,-1.401314766293911170e-02,-1.090429037027055605e-02,1.445154446890730207e-02,1.681634485721588135e-01
-2.717758145590862262e-01,-4.531843572988922264e-01,-4.574510979241720454e-01,6.521378367864595757e-04,9.623170378229643470e-04,-1.155639902927296291e-05,1.835901439189910889e-01
-2.916212525816543888e-01,-4.404688976561496605e-01,-4.355267494614512569e-01,-2.206498737588324238e-02,-2.818845882808843420e-02,1.892433423141982526e-02,1.623673886060714722e-01
-4.181665594105710149e-01,-4.926106517974266907e-01,-4.184551491868911954e-01,4.992509510791445781e-02,2.685310090143580228e-02,2.264143961358724422e-01,4.110374450683593750e-01
-3.015010202323106236e-01,-4.451659848713575562e-01,-4.693183394972084699e-01,-3.514884468865966255e-02,-4.803757910269945697e-02,2.716922201655146141e-02,1.937432736158370972e-01
-2.694951522067458582e-01,-4.554692380777436989e-01,-4.570551891484889162e-01,2.460757632286253785e-03,-8.434210835863761163e-04,7.833126239475518126e-04,1.868313699960708618e-01
-3.174592418772052560e-01,-4.840421271076781329e-01,-3.645877073646468514e-01,1.650739659189366096e-03,3.180561413625943978e-03,-5.981741653661917617e-03,1.492180377244949341e-01
-2.768586534192279403e-01,-4.669597679670428603e-01,-4.641626468553629037e-01,9.893097600992503161e-04,3.716686831759125412e-03,-2.990086644932229523e-05,1.888356506824493408e-01
-2.896804045764758140e-01,-4.691542558675262931e-01,-4.672603190203304391e-01,2.369903979561057512e-04,-1.978935679468674710e-03,7.626027924832599241e-05,1.785678416490554810e-01
-3.118841795550575946e-01,-4.613267334941632547e-01,-3.183618697191022417e-01,-1.395834198170462122e-03,7.302143963732358328e-03,1.432796396638816305e-02,1.489586383104324341e-01
-3.119266580923685250e-01,-4.663824393819908098e-01,-3.623986583480461321e-01,2.297815071087322154e-03,1.202302719316140911e-02,1.386319569527509361e-03,1.380709409713745117e-01
-2.839197164640291371e-01,-4.141243922555781776e-01,-4.578234046882437291e-01,4.334948173999471008e-03,6.365002804255827330e-04,9.792079206778943334e-04,1.568857729434967041e-01
-3.244329867320689953e-01,-4.828631808027190608e-01,-3.694551819880148580e-01,1.559359269130200509e-03,1.168910934551627492e-03,1.321535196931040296e-02,1.432814747095108032e-01
-3.226452033819184329e-01,-4.810951389868163841e-01,-3.539253497089306921e-01,-6.551073126435801204e-04,2.689351851106032421e-03,7.378142153279029954e-03,1.459958553314208984e-01
-2.697769057436172346e-01,-4.408034558121933233e-01,-4.178556440231932512e-01,1.066926388486097790e-02,-1.522416692763267805e-02,-6.327376252299427017e-03,1.643439382314682007e-01
-2.820887024615163496e-01,-4.658714811801137334e-01,-4.644441029329482440e-01,2.032580087534846969e-03,-2.613350707080843056e-03,1.152878812076839994e-03,1.831739395856857300e-01
-4.501205298018768897e-01,-3.217554154161714752e-01,-6.457790281764552720e-01,4.067524934408549286e-02,-2.430865387520174305e-03,-1.419319619051355730e-01,3.811702728271484375e-01
-2.841146499102379930e-01,-4.788665677542631727e-01,-4.423702917643146382e-01,3.160832447922905242e-02,-4.962702263089591864e-02,-1.651530092829217589e-02,2.082225084304809570e-01
-2.782488900674037202e-01,-4.678672235280981750e-01,-4.657958057376203054e-01,6.694243123543298750e-03,-9.499426258030532755e-03,-3.349557635111531802e-04,1.896631717681884766e-01
-3.168317343088205007e-01,-4.264939157850184959e-01,-4.260839500038356986e-01,7.234423524431877290e-04,1.282857459162013193e-04,8.758089517497444354e-03,1.105112507939338684e-01
-2.771284365445857434e-01,-4.631188672724816935e-01,-4.651135349594218704e-01,-4.244658183782221324e-03,-1.593816388187545762e-03,-1.343029395665060752e-03,1.871750354766845703e-01
-2.793834056159657520e-01,-4.772090532650130612e-01,-4.709441670973371075e-01,3.956022540213257818e-03,-1.238533230196921936e-02,2.417206006433609319e-04,1.960668116807937622e-01
-2.926239107157523334e-01,-4.954205932077489494e-01,-5.115525175674316971e-01,1.527665023964571225e-02,-1.051929990883454340e-02,-3.165804252444964599e-03,2.138232886791229248e-01
-2.875812002048513949e-01,-4.656890948670051045e-01,-4.651921898775963626e-01,-1.564170680172826192e-03,-2.642512559621251322e-03,4.636913521054450503e-06,1.779394745826721191e-01
-2.908937521647741997e-01,-4.867587016363650876e-01,-4.690005177586649143e-01,5.127550440624959079e-03,-2.388832534704607782e-02,-6.685677337416221812e-03,1.926788836717605591e-01
-2.974831478168649679e-01,-4.686918160553447121e-01,-4.675706540275065826e-01,-2.170511586189896504e-03,-1.893572396783901575e-03,5.676664473768562867e-05,1.707237958908081055e-01
-2.759619597511064892e-01,-3.602010482747676767e-01,-4.192970558141311255e-01,-4.903426573280042500e-02,-2.640135088611718014e-02,4.512139347352334823e-02,1.760078072547912598e-01
-2.674512575198007003e-01,-4.557937656812389715e-01,-4.462300716547600299e-01,4.417804164904053955e-03,-1.189909485987301375e-02,-1.351812317074123663e-03,1.850727200508117676e-01
-2.902983149993557666e-01,-5.077844928945399738e-01,-4.841772628151964630e-01,8.141726868477193110e-03,-1.479979497242437693e-02,-1.470314213024848798e-02,2.103040814399719238e-01
-2.652881168452188021e-01,-4.184503168781703586e-01,-3.967713278900671936e-01,2.947878935157923277e-02,4.394478785945968996e-02,3.935041565795065893e-02,1.834503561258316040e-01
-2.735944410395169668e-01,-5.143776317587027691e-01,-5.028910565832039881e-01,2.631468236094737859e-02,9.221664543213058812e-03,-5.120384627207444578e-04,2.401582896709442139e-01
-2.886627997251546285e-01,-4.381791191563760846e-01,-4.429541540519069676e-01,-1.873693700273881910e-03,-3.308908903428623739e-03,-2.074126950830673422e-05,1.521027833223342896e-01
-2.740365611325593087e-01,-4.403635472253552008e-01,-4.505840750174893716e-01,-1.268282086831989486e-04,-4.621045476790027438e-03,3.885497926124825609e-04,1.718535423278808594e-01
-2.717286504160924543e-01,-4.569343787958358716e-01,-4.606547878292651665e-01,-1.574633617680513053e-03,-6.315182719296401218e-04,-5.726824132173101174e-04,1.871193796396255493e-01
-2.738725103457338994e-01,-4.498704719599065927e-01,-4.290830825791405179e-01,2.156301621463926552e-02,5.304507338549296902e-02,2.807548287087406613e-02,1.998744308948516846e-01
-2.406290278896368873e-01,-4.317688687669574699e-01,-4.022934730679593174e-01,2.808231160296220663e-02,3.797153123155103810e-02,2.728361643082391139e-02,2.017271965742111206e-01
-2.704929952273384397e-01,-4.553919256306330765e-01,-4.592679442845441495e-01,-2.206260456323929850e-03,-1.432017957300544663e-03,-5.472298050163715852e-04,1.869250237941741943e-01
-2.670397363924005285e-01,-4.487007567098126315e-01,-4.391164690267830295e-01,5.540410249187813566e-03,9.423469508479711751e-03,2.277891186090117044e-03,1.781166791915893555e-01
-2.730695295222368979e-01,-4.570642480657929885e-01,-4.567152830363461757e-01,6.463053874662098679e-03,1.008392045542946813e-02,2.150360782239464207e-03,1.850249022245407104e-01
-2.883378510091421099e-01,-4.385393973778067833e-01,-4.415147270389485623e-01,-1.971444106893405733e-03,-3.522601033962481903e-03,-5.736974437147796197e-04,1.518753767013549805e-01
-2.778616629624309775e-01,-4.405723538298728092e-01,-4.589671323104311251e-01,2.322871802539392544e-02,1.074982308675133391e-02,1.374216628686153463e-02,1.798279732465744019e-01
-2.737558075824096937e-01,-4.471869769758002877e-01,-4.516215707928573631e-01,-4.549616863078306990e-03,-4.154755336171342926e-03,2.262742303390838372e-03,1.760578751564025879e-01
-2.720926851230128785e-01,-4.502605973371437975e-01,-4.490480076166052381e-01,3.939919308217383967e-03,3.084193091184598765e-03,-1.069434325489430432e-04,1.777761876583099365e-01
-2.842840728583831966e-01,-4.713343108971432827e-01,-4.479341202041358105e-01,1.618224939848161154e-02,2.521179264419136021e-02,2.744014055154406998e-03,1.840473711490631104e-01
-2.708896029325315036e-01,-4.556588249848839145e-01,-4.485641592439930658e-01,8.453724724033811339e-03,1.005829813440847417e-02,1.659873864683282518e-03,1.827711462974548340e-01
-2.978524370474402438e-01,-4.953441531951348620e-01,-4.703036942015390576e-01,1.698659177520991242e-02,2.566582399788173638e-02,1.260316225118579721e-02,1.949437707662582397e-01
-2.684751146302543634e-01,-4.405635881383207497e-01,-4.418719544664509447e-01,5.250664904414145510e-03,4.843621713607794595e-03,2.403120173595876732e-03,1.732389181852340698e-01
-2.694746583246613314e-01,-4.514705133654347557e-01,-4.525452013992079525e-01,1.750865762436410334e-03,2.592022827159767579e-03,4.079476186746231175e-04,1.826173216104507446e-01
-2.730062750172992381e-01,-4.571004438891155264e-01,-4.443529785855353520e-01,8.621467634418653742e-03,9.851679593392011214e-03,2.171511101794677823e-03,1.795403212308883667e-01
-3.271805492866058374e-01,-5.355137237120209948e-01,-3.656858789080231764e-01,3.335365138348889841e-02,6.172363296673449851e-02,3.862931302071744705e-02,2.368690073490142822e-01
-3.102191295610653432e-01,-4.806923492052526670e-01,-3.397783854934965375e-01,1.182499826616698578e-02,4.577618342109852217e-02,5.459471832094876971e-03,1.780199259519577026e-01
-2.423458372272824235e-01,-4.393142695306327394e-01,-2.296613459814518532e-01,1.371208122307052656e-02,8.505867243707922187e-02,2.661386993517467908e-02,2.566121518611907959e-01
-2.689915141029763368e-01,-4.377064823081415756e-01,-7.939825734507768851e-02,-7.171753661687537557e-03,2.360195799770938713e-02,-2.314684420657953361e-03,3.134311735630035400e-01
-2.955254538650317064e-01,-4.891989219330775684e-01,-3.302948821908024413e-01,4.737048394968242787e-03,4.221821188952110809e-02,-1.790188799732028713e-02,1.958578377962112427e-01
-3.498306027767508763e-01,-5.514926568016284003e-01,-3.597310824026143106e-01,1.182087968199560307e-03,2.189716565823972977e-02,-6.434723609228815665e-03,2.008380442857742310e-01
-2.797656531164641747e-01,-4.208884505641626861e-01,-4.692112411949097561e-01,2.578663179951788328e-02,-1.547644200009501078e-02,-3.862471134450175952e-03,1.784050166606903076e-01
-2.793037601923127333e-01,-4.045737797818058645e-01,-4.669807137535184061e-01,6.417426775596234145e-02,-1.582682626085943345e-02,-3.099489993982837074e-02,2.083109468221664429e-01
-2.403383288412553331e-01,-3.202345929565204585e-01,-4.191686906764681142e-01,5.215706697085548821e-02,-1.435566880733811675e-02,-1.925244595611096121e-02,1.843017637729644775e-01
-3.029798554127164922e-01,-4.848359323901620943e-01,-4.889340067952055446e-01,1.772542958601436291e-03,-5.573361366031212051e-03,-2.742020136249078820e-03,1.842792928218841553e-01
-2.321697682570271204e-01,-6.212400070525074813e-01,-6.616979253216910273e-01,1.581298880810154406e-02,-8.409990371485522032e-02,3.395108677163902189e-02,4.406586289405822754e-01
-2.739997012735172488e-01,-4.619412271901384703e-01,-4.628137465614992063e-01,3.888750929665584812e-03,4.218928782647631535e-04,-1.288060070517837389e-03,1.885142922401428223e-01
-2.357214898312892104e-01,-7.398587676510620659e-01,-5.948888022097926775e-01,-1.772927755715466777e-02,-1.091682425079056606e-01,-2.962511764294495364e-02,4.913399517536163330e-01
-1.432274797967806046e-01,-4.626276682474862456e-01,-4.228674326078793455e-01,6.418909501190567246e-02,-7.217016191625720556e-02,-1.930980634489331410e-02,3.464142680168151855e-01
-2.076460213752164274e-01,-4.903396840209326424e-01,-4.287178721451700425e-01,1.385008870097776193e-02,-1.173200806555267928e-01,-2.275559868368701166e-02,3.312307298183441162e-01
-2.779808507200525747e-01,-4.633413900864901680e-01,-4.642717769010283879e-01,3.543444771072086583e-03,-1.147407134870262555e-03,5.830244123653684349e-04,1.859421730041503906e-01
-2.712052565743962029e-01,-4.580321844028769629e-01,-4.612926418445569832e-01,2.325252849600062920e-03,8.924984698066765589e-04,-7.805371076909509761e-04,1.885325163602828979e-01
-2.918763057482974821e-01,-5.257062474115143935e-01,-4.892423519631442508e-01,1.444917836141784012e-02,-4.558968956503545167e-02,1.163451044814890105e-03,2.331209182739257812e-01
-2.748126797154261114e-01,-4.548913397602661890e-01,-4.740302001413106980e-01,2.448959153454627682e-02,1.162399545372062772e-03,7.486239965053442108e-03,1.954802423715591431e-01
-3.098150788071394324e-01,-5.909482417273116406e-01,-5.641391396339087150e-01,4.325319692025762081e-02,-1.314678230125308489e-01,-3.511877806671991759e-02,3.652143478393554688e-01
-2.490587972214226842e-01,-5.093288202047563384e-01,-4.578557097046793145e-01,5.172160786959831280e-02,-9.356681993046141177e-02,-1.526130779548853789e-02,3.032843768596649170e-01
-2.711620555886841144e-01,-4.569642577654457472e-01,-4.587398470371054082e-01,1.021965075025942603e-03,1.297274814340963322e-03,-6.053293699894159944e-04,1.867211908102035522e-01
-2.874597214644874499e-01,-4.677921445257489652e-01,-4.667460349696101463e-01,3.422421747068607207e-03,-7.828666900160904983e-04,2.571280170957955589e-04,1.799149960279464722e-01
-3.689057634634764771e-01,-3.765003529591703368e-01,-4.424926735767939490e-01,7.121219209034085340e-02,-3.360789961460688979e-02,-1.613305221178407134e-01,3.187451362609863281e-01
-2.850874312299060964e-01,-2.523580182203358224e-01,-3.492743358226773620e-01,3.557949490313639523e-02,-3.779986688529097388e-02,-1.241319735887138759e-01,2.481983155012130737e-01
-2.843556375653316093e-01,-4.278126431059322554e-01,-4.455867354479947640e-01,2.020684584787365255e-03,-8.923925488165129066e-03,-1.940594760705230707e-03,1.539743691682815552e-01
-4.279650039205951662e-01,-3.091977948560024059e-01,-7.150752072836259465e-01,1.125659594072331016e-01,-1.403075732058079936e-02,2.939992775427836477e-02,4.145288169384002686e-01
-3.087995189468165091e-01,-3.880299928234196005e-01,-4.705043143203803124e-01,4.330361104684132129e-02,-6.901707223799986336e-03,-6.163025452919901163e-03,1.596759855747222900e-01
-2.717294241416704503e-01,-4.607764732812784647e-01,-4.574737856509850098e-01,1.182801607540044479e-02,1.186752798722853081e-02,4.540190163428239195e-03,1.898140907287597656e-01
-2.814717542845963649e-01,-3.561368546498324683e-01,-4.763567984007576195e-01,8.149910799178915199e-02,-1.648625093128053970e-02,-3.850320229491022844e-02,2.327941954135894775e-01
-3.131487887815475601e-01,-3.619290776113881503e-01,-4.211364901698767538e-01,3.331135821843513034e-02,-3.799388533186828787e-02,-6.471152428594320605e-02,1.702805906534194946e-01
-3.258607469252942090e-01,-3.548947672777031936e-01,-4.487876509572601424e-01,1.075138006326206187e-02,-9.366666042577419943e-03,-4.015000316178665707e-02,1.335327029228210449e-01
-3.598608276952183216e-01,-2.438148283420182583e-01,-4.750758953769648185e-01,3.796380244258324571e-02,-1.070196406175241179e-02,-1.348256706504355473e-01,3.151391148567199707e-01
-2.527563935855443589e-01,-4.595782365634459299e-01,-4.286629539123362753e-01,-1.739971521422747089e-03,-2.542439724527324404e-02,1.978149240055980095e-03,1.982349455356597900e-01
-2.703368678516656631e-01,-4.588855515155996767e-01,-4.124689010075612838e-01,-6.824515430352996910e-03,-2.935561089378612223e-02,-1.139627899421303322e-03,1.779949069023132324e-01
-3.011462529904666563e-01,-4.712575648063970224e-01,-4.707364749278876714e-01,-3.084117247270619713e-04,-1.173977504998922764e-03,-9.267212062124100284e-04,1.698719561100006104e-01
-2.729878792104359908e-01,-4.742517323088050740e-01,-4.581993978364101161e-01,1.678104083840801142e-04,-1.422782716007457704e-02,4.586326581654779841e-03,1.954598277807235718e-01
-2.724400684387932037e-01,-4.605002443242925403e-01,-4.420063588822967793e-01,8.741054043990613073e-03,-1.060427650004398120e-02,-3.779050812596525168e-03,1.812183856964111328e-01
-2.204085735546964797e-01,-4.630266291259422240e-01,-6.448172204904984994e-01,-1.627183991895639892e-01,1.314848982930382805e-02,5.184940901726620144e-02,4.733208119869232178e-01
-2.845906907594786817e-01,-4.579156337650209796e-01,-3.920998629471154628e-01,-6.157104636796134102e-03,1.704646228892733872e-02,-7.139631358157924775e-03,1.552550643682479858e-01
-2.872758477795864240e-01,-4.706014278403547468e-01,-4.670293058299495037e-01,1.221264790761588011e-02,-1.090100086406145703e-02,-1.564494329590684213e-03,1.837864369153976440e-01
-2.974825964649810972e-01,-4.679234169558942336e-01,-4.685932822022351174e-01,-1.100189510059182939e-03,5.016567750480401336e-04,-4.711742405063229857e-05,1.707895994186401367e-01
-2.813853317357550843e-01,-5.093663760377353800e-01,-4.542295145156873271e-01,-6.784488367851015250e-03,-5.233654996549862159e-02,-1.285960724670335252e-02,2.264879941940307617e-01
-2.629206877570035017e-01,-4.512992711028750992e-01,-4.380820101159622615e-01,-1.295335473210236510e-03,-1.163255990959694529e-02,3.947887840812290094e-04,1.832560747861862183e-01
-2.818360524424076141e-01,-4.659081718901976754e-01,-4.653018961720615243e-01,-1.562463034570398457e-03,1.993320475587112041e-03,1.664235928740772242e-03,1.838446855545043945e-01
-2.630388088379183587e-01,-4.541184892844740695e-01,-4.325667669276814786e-01,1.927539976451944073e-03,-1.569652499297563564e-02,-2.859626561106057979e-03,1.833920627832412720e-01
-2.758746551976861694e-01,-4.668134698946668770e-01,-4.555258062739395708e-01,2.123679528922805745e-02,-2.609554770192678078e-02,-1.085568313730295512e-02,1.953951418399810791e-01
-2.941153476192903682e-01,-4.899186219740257475e-01,-4.233284840216875455e-01,4.255299951023429859e-03,-2.593887525866634888e-02,-4.068645710583924241e-03,1.784854680299758911e-01
-2.782924253900500577e-01,-4.637940045246067289e-01,-4.643109649193180033e-01,-3.438932243960912249e-03,-1.597735137997627352e-04,4.498719384823768970e-04,1.858579069375991821e-01
-2.713712375379627728e-01,-4.538118738240870531e-01,-4.608121915593698659e-01,-5.054228080313076521e-03,-2.093945340860313767e-03,-1.376874227726006988e-04,1.862809211015701294e-01
-4.330292158659720392e-01,-5.867633521982923428e-01,-6.074350275615219008e-01,-1.241698777954892141e-01,-1.125053794605550272e-01,1.558483053126969997e-01,4.293394684791564941e-01
-2.711569508203429679e-01,-4.545533836352909640e-01,-4.580021170825666066e-01,-1.051032176064546761e-03,1.075582269528596114e-03,1.019730620891176549e-04,1.851633042097091675e-01
-2.643700819051247319e-01,-4.158827408316957408e-01,-4.151135585259335681e-01,-1.837774598486123512e-02,-1.659839046114246208e-02,1.858117704157463690e-02,1.603610366582870483e-01
-3.250572030552978942e-01,-4.501579213338294250e-01,-4.131079942934870464e-01,-3.926894062427353435e-03,-5.964585554361089047e-04,4.781845002630691517e-03,1.118205785751342773e-01
-2.867456880704810640e-01,-4.861303024219427171e-01,-4.507018649029752022e-01,-2.570318248953746328e-03,-2.880082874412735056e-02,-3.639581571795173949e-03,1.910328119993209839e-01
-2.718598456739239611e-01,-4.525234652326534102e-01,-4.588259872626879177e-01,-5.052547101730098201e-04,1.032191730014689768e-03,1.074186567345679257e-04,1.839067637920379639e-01
-2.723518650943719255e-01,-4.553385372777315476e-01,-4.594436747664387699e-01,-9.111074445809675022e-04,5.216298439813864219e-04,9.645950291293356655e-05,1.850824058055877686e-01
-3.120336122526327083e-01,-4.372381569396211476e-01,-4.170448573765048184e-01,-6.420289342172686917e-03,-1.209698821292442845e-03,1.358041032718409515e-02,1.193188503384590149e-01
-3.022399348865008606e-01,-4.159112340046297596e-01,-4.098808361449344240e-01,-2.041088643702722565e-03,1.412106568970169639e-04,5.141109227576671527e-03,1.111930683255195618e-01
-2.697526259489637646e-01,-4.578626236748638556e-01,-4.426230086499001182e-01,-1.070750036025257083e-02,-3.315459763047167580e-02,6.075369820153489996e-03,1.910582631826400757e-01
-2.765631981738397305e-01,-4.589874059719266652e-01,-4.422951333246470940e-01,-5.696888811886152704e-03,-1.583717160317850902e-03,1.260304545813494622e-04,1.749773770570755005e-01
-2.829937314154955530e-01,-4.654960172174610888e-01,-4.704301903440625265e-01,2.051697545207657562e-03,1.287189667459211163e-03,-3.703899935888766413e-04,1.850673854351043701e-01
-2.771363810578569842e-01,-4.122062289930744639e-01,-3.831841425091866427e-01,-1.166780454309942691e-02,-1.539543814495817828e-02,2.546218230423915804e-02,1.350206583738327026e-01
-2.774701766732040609e-01,-4.723051516308667819e-01,-4.540181466766197715e-01,-1.167072757796591698e-02,-1.240145642097462836e-02,7.007054175589898064e-03,1.890752166509628296e-01
-2.712320244777994827e-01,-4.566196384659572671e-01,-4.590249830343774429e-01,-2.567582579448391723e-03,1.763991940868103606e-03,9.087202120432192871e-05,1.866799741983413696e-01
-2.790620903537385789e-01,-4.683373850704139474e-01,-4.678362293584372722e-01,-6.833480357944179788e-03,1.125402165043486342e-02,-5.270666105140642960e-03,1.906145811080932617e-01
-2.777672705449528157e-01,-4.384184653219903027e-01,-4.397808716356009784e-01,-5.050190833728467749e-03,-7.004620867254127484e-03,3.361522728039944771e-03,1.621330976486206055e-01
-3.300285176482239402e-01,-4.124485529830690944e-01,-4.358757863867440685e-01,-2.128546225073374432e-02,-2.020303433777193708e-02,5.651729807302310199e-02,1.464209258556365967e-01
-2.764727255999203659e-01,-4.501998918326455823e-01,-4.457794077049036519e-01,-4.351327122866322471e-03,7.527648905568907686e-04,-5.355457564893427490e-04,1.717325598001480103e-01
-3.037426975619411107e-01,-4.959352308330031156e-01,-5.331554099827083837e-01,-5.404442491085993672e-02,-2.763030280240902359e-02,2.315103462566131531e-02,2.411169111728668213e-01
-2.784951625570355471e-01,-4.653584839979290066e-01,-4.616754855565637916e-01,-4.818652517100910360e-03,-6.894530187425863300e-03,1.061002510224527901e-03,1.856310516595840454e-01
-2.716173002950097448e-01,-4.557249494762165565e-01,-4.604586157953596826e-01,1.184015359174527210e-03,4.350994488522894185e-04,-4.290575855088050094e-04,1.865338087081909180e-01
-2.833643780039434290e-01,-4.470293359286340862e-01,-4.692755770241432423e-01,-1.080399435621386822e-02,-5.064368500710948046e-03,3.218269708997292030e-03,1.771446764469146729e-01
-2.897328953527660844e-01,-4.732170708456021613e-01,-4.814698146641119836e-01,-1.955030663413667713e-02,-1.688338311755228568e-02,1.197929503295825683e-02,1.941162049770355225e-01
-2.633997912614423065e-01,-4.399418107897593022e-01,-4.380593096533725306e-01,-1.198441385611693014e-02,-1.254950159441105620e-02,8.003207676513447721e-03,1.787002831697463989e-01
-3.611292733536334287e-01,-4.404990520914289776e-01,-5.137637326879073152e-01,3.260894017186177773e-02,3.285206122891226599e-02,8.012298153294236669e-02,2.077718824148178101e-01
-3.356931736384237697e-01,-4.456153163676780382e-01,-4.120235957519703951e-01,3.861490112898718907e-02,4.807515191947470817e-02,9.371500752895448039e-02,2.174242585897445679e-01
-2.829575040947765463e-01,-4.200133309312671925e-01,-3.861544427023549941e-01,2.285391055952838701e-02,2.808796515047278300e-02,4.555887155643004865e-02,1.595327705144882202e-01
-2.944784832590018331e-01,-4.264841954137879032e-01,-4.072972271580392878e-01,7.470263671891984314e-03,2.026490529067458395e-03,3.114777486248066982e-03,1.243772432208061218e-01
-2.948103184516588371e-01,-4.402528730450944727e-01,-4.269018941887673946e-01,1.348084246781147168e-02,1.056797088178967718e-02,1.296605436455855118e-02,1.441339105367660522e-01
-2.656613354955250639e-01,-4.408804574843609991e-01,-4.484041412561959872e-01,9.647215056158855995e-03,9.570715746916607161e-03,4.408045129607520221e-03,1.808008104562759399e-01
-2.968061273731221750e-01,-4.469023496596128409e-01,-3.935285116318250620e-01,2.277292256734140749e-02,2.440944558804284195e-02,3.826804376183209205e-02,1.584393978118896484e-01
-3.054996348476171630e-01,-4.481492003091881449e-01,-3.578215810302144972e-01,-4.611523722778904729e-04,-5.284951250161213331e-03,4.670197289979350491e-03,1.255891919136047363e-01
-2.715582681479054017e-01,-4.573303613923043187e-01,-4.574456969610950496e-01,2.704171520580692708e-03,2.960142574260098483e-03,-1.039748308493129107e-03,1.859682202339172363e-01
-2.725165149064868730e-01,-4.506743551681070548e-01,-4.521484094239960339e-01,2.692089892460322598e-04,9.057227142966293044e-04,-3.435927549880822920e-05,1.789069175720214844e-01
-3.086975648316899745e-01,-4.148706768992789229e-01,-4.210855387523739779e-01,-3.077233689764123821e-03,1.485752445647041745e-03,7.999809474096914591e-03,1.104455813765525818e-01
-2.725565597029166454e-01,-4.547224323127828649e-01,-4.530935440328471842e-01,1.002735714415754461e-03,4.419292442277384866e-04,-1.482344523463429364e-04,1.813670247793197632e-01
-2.874294685411591388e-01,-4.690844090497597874e-01,-4.770498893958398656e-01,2.631031715631423299e-03,-6.728632033682345774e-04,8.168692341888388010e-04,1.858307421207427979e-01
-3.366714407117479269e-01,-4.100435927438980666e-01,-4.727473997770950120e-01,2.577268979081775990e-02,1.896171880076618840e-02,8.827611167458380981e-02,2.009111791849136353e-01
-2.873010692585961090e-01,-3.954393335180265701e-01,-4.491177814747645547e-01,2.503895957104192507e-02,1.906717303778964270e-02,3.585640100688721604e-02,1.649500429630279541e-01
-2.700208003224994768e-01,-4.280358902511942620e-01,-4.383257697926628560e-01,3.225875568871882509e-02,-2.665820993640618738e-02,-2.681602406300447050e-02,1.846937090158462524e-01
-2.960854617457641114e-01,-2.790207441813072342e-01,-4.468846444599760548e-01,-3.671927147135138451e-03,2.534351782054798750e-03,-8.343770958143936073e-03,1.608524769544601440e-01
-2.798549557768406082e-01,-4.968142685343955867e-01,-3.790989747214904004e-01,2.532825361757197122e-02,-6.980689974412530863e-02,-3.203342929136279715e-02,2.345438003540039062e-01
-3.203662421533173266e-01,-4.774383922648651191e-01,-3.899867545779740485e-01,9.603046518752982041e-03,-3.779251486515706332e-02,-5.953925526065113188e-02,1.837919503450393677e-01
-3.180018909254008763e-01,-4.686514848117849796e-01,-4.135026701091925605e-01,1.254008718445498091e-02,-2.089797145476633006e-02,-2.294805663259427350e-02,1.441884934902191162e-01
-2.469894915783858447e-01,-4.216498198000026010e-01,-4.280071888320514106e-01,3.163871554685360882e-02,-3.055983352540828091e-02,-2.480380917517056513e-02,1.982610672712326050e-01
-3.164729937846704755e-01,-4.196143578977813426e-01,-4.686292779255258889e-01,-1.775357271417404847e-02,1.470649547043700704e-02,-2.199384563672965656e-02,1.454017460346221924e-01
-2.877815437574298141e-01,-3.681440810072665326e-01,-4.343525684077692017e-01,-1.305493757430885478e-02,1.528802467326394188e-02,-1.224642925610427806e-02,1.335094571113586426e-01
-3.169166242502029496e-01,-3.917315754721036325e-01,-4.763668157527296554e-01,-1.198218103919844978e-02,4.453048739482740048e-03,-1.170124504142885762e-02,1.413978338241577148e-01
-2.898503008511743584e-01,-3.289249813230846753e-01,-4.453468094090815010e-01,-1.786569536355707769e-02,5.373375510524916292e-03,-7.527776142382364491e-03,1.443751752376556396e-01
-2.882667457814601653e-01,-3.990035148645765806e-01,-4.644470740539701770e-01,-1.466461665543621062e-02,6.487546547278038277e-03,-7.568416317096691472e-03,1.572760641574859619e-01
-2.929371677873457425e-01,-4.007398947857773730e-01,-4.729075202464303462e-01,-2.244051031180482533e-02,3.407557273378674159e-03,-1.306880063510865164e-02,1.633015722036361694e-01
-3.094846909683245384e-01,-4.387073657518387182e-01,-3.916374390564819064e-01,-2.590479441812807825e-03,9.266535194698520550e-04,-6.981511683088607520e-03,1.140197739005088806e-01
-3.035655313721324355e-01,-3.958449779426271298e-01,-4.759069853251015614e-01,3.963580175498582214e-03,3.721098192435794236e-03,2.151832273985369772e-03,1.497199386358261108e-01
-2.972745888686368909e-01,-4.718953992915381201e-01,-4.694234690157096934e-01,-5.950337024571807683e-04,1.725878105840782182e-04,-9.216165378438612383e-04,1.734087318181991577e-01
-2.796454411441039456e-01,-4.651024781192594770e-01,-4.647560578365944051e-01,3.379179017667047463e-03,-2.391570000631237231e-03,1.813476533245079016e-03,1.854493618011474609e-01
-3.166650444662150177e-01,-4.451743701912347917e-01,-4.033360811979174732e-01,-3.364323465193942621e-03,3.480215240838491556e-03,-8.038043626010129075e-03,1.146847903728485107e-01
-2.946093133294109823e-01,-4.683431742604228232e-01,-4.702355756613860183e-01,-9.371881528615916702e-05,1.012920929105264566e-03,7.920667056200380012e-04,1.747020184993743896e-01
-3.029187733503087010e-01,-4.047981526843275613e-01,-3.932826501725230073e-01,1.053740235018520502e-02,-1.760348858403255196e-02,-3.042059792616510355e-02,1.156625226140022278e-01
-2.949797041250207807e-01,-4.045682858181439134e-01,-4.115958996208907150e-01,6.511219953267638819e-03,-7.474763297028594149e-03,-1.362614020015691374e-02,1.169658526778221130e-01
-2.758968540752333443e-01,-4.619474868750132468e-01,-4.610688164238861964e-01,2.044891316069889949e-03,-2.165651338290982240e-03,9.929578105583140857e-04,1.856925040483474731e-01
-4.665740151481980180e-01,-7.573421433971578853e-01,-4.647348196887380878e-01,-7.608292203117328345e-02,-1.629508911220727552e-01,1.463248747722579457e-01,4.963285028934478760e-01
-3.214848209608686114e-01,-4.234735675703390489e-01,-4.383012871832292490e-01,2.460133014274575427e-04,5.347582766642624413e-04,-1.742513963130978838e-02,1.142180934548377991e-01
-3.131276168956008688e-01,-4.063316402488728052e-01,-3.737781099608724622e-01,-8.626398313994143585e-03,1.292215042784196008e-02,-2.985513008814484268e-02,1.005523651838302612e-01
-2.907249117626258261e-01,-4.707813852362247031e-01,-4.710180080353497667e-01,2.412367949922211534e-03,-1.067216736204016974e-03,-1.394213877391941485e-03,1.802490055561065674e-01
-3.265193452114285577e-01,-4.266236185693944583e-01,-4.373526485226391647e-01,-3.309996509380540148e-06,2.570592301041357440e-04,-4.204039688675673125e-02,1.285005211830139160e-01
-2.952719165952907843e-01,-3.556177563763376903e-01,-3.637444012848255470e-01,-1.847657013126931995e-03,1.084313053437588933e-03,-6.589017041994080226e-02,1.312874108552932739e-01
-3.040399182218455065e-01,-3.430656574190266150e-01,-4.404114465628383157e-01,-9.754320890564682897e-04,5.723428661065344848e-03,-7.136801252141008502e-03,1.226871311664581299e-01
-3.274856184311627505e-01,-4.614856260605283422e-01,-4.206243504162985314e-01,-5.290765116377819065e-03,5.330839310856719249e-03,-2.872392755345095500e-02,1.295942068099975586e-01
-2.746662414770816296e-01,-4.436224771973176217e-01,-4.563390691905282459e-01,-1.468696463208182552e-03,-3.257277860985654562e-03,6.387002093993350777e-04,1.757725626230239868e-01
-2.687875070265967059e-01,-4.666943982719795603e-01,-4.631300307422151485e-01,7.585982672533266719e-03,1.213154556692670923e-02,-2.273855321866562456e-03,1.977475732564926147e-01
-2.699667698385405656e-01,-3.142768770969375791e-01,-4.375210719144480009e-01,-4.312746737512245659e-02,7.328905684278054500e-03,-2.924460763008441752e-02,1.758416742086410522e-01
-2.776225908796178810e-01,-4.437805633922544124e-01,-4.569947366170303282e-01,-1.435234225624829442e-03,4.505913388946138597e-03,-1.822503228910959797e-04,1.733375787734985352e-01
-2.804147845268132322e-01,-3.632184996252352249e-01,-4.262576534355523861e-01,-2.801685270675060083e-02,2.120920178924366045e-02,-3.458283240517797535e-02,1.527825444936752319e-01
-2.671530569853285964e-01,-4.286909401076099968e-01,-4.163053663135460880e-01,-1.368416231880905526e-02,1.440089358050213215e-02,-1.096958465349319629e-02,1.605990976095199585e-01
-2.842357495509354459e-01,-3.759736460431141736e-01,-3.988051006535366372e-01,-2.569725694899861398e-02,2.080814695888894353e-02,-5.024359643206506576e-02,1.479353457689285278e-01
-2.940824938641292130e-01,-6.743165786442494314e-01,-4.425369738229355532e-01,-1.641531346977490730e-02,1.076100309660288495e-01,-8.033287429962479576e-02,4.062972962856292725e-01
-3.204266945160652580e-01,-4.293411125560388508e-01,-5.146091093552931373e-01,-5.556458104626904593e-02,2.261495991560163316e-02,-4.299061784740552256e-02,2.115680873394012451e-01
-2.689191018804201194e-01,-4.125028828608901521e-01,-4.394846082192347403e-01,-1.799355680283190595e-02,1.505272812589314967e-02,-1.283975277778300582e-02,1.654209494590759277e-01
-3.085777110784055366e-01,-4.004404185037919728e-01,-4.526613488984902456e-01,-1.139727079409153833e-02,1.226367970120911984e-02,-2.786438450082056456e-02,1.383224427700042725e-01
-2.943577807978308702e-01,-4.259527724652755198e-01,-4.406931091523138000e-01,-8.595341243128424777e-03,9.501826315523931310e-03,-1.303143909667922769e-02,1.430951505899429321e-01
-3.015476418853974550e-01,-4.099051987419067844e-01,-4.055149396678841001e-01,-6.436158135866076185e-03,5.353583967137768608e-03,-1.165258823208364762e-02,1.090986728668212891e-01
-2.911053924399202852e-01,-4.843367220513802862e-01,-4.702405408013228261e-01,-7.590756640724337888e-03,2.276108263024470210e-02,4.775892581806020359e-03,1.913340389728546143e-01
-3.394726008027775244e-01,-7.812298367349423955e-01,-8.291194785559921065e-01,-1.310519792042497411e-01,-5.233643772546386908e-02,3.735692592730986694e-02,5.315319895744323730e-01
-2.737140936076211117e-01,-4.391017092311251813e-01,-4.484411720857642281e-01,-1.493857672750556996e-03,5.983884951405850014e-03,-2.646418426980602341e-04,1.705850064754486084e-01
-2.800112327777770638e-01,-4.657703190711159347e-01,-4.520289155402313908e-01,-5.169091453829304655e-03,1.023775345327065413e-02,-1.808211784156009546e-03,1.804080754518508911e-01
-2.676344608675301773e-01,-4.538427119301246537e-01,-4.427059188996318451e-01,-6.795334841124446232e-03,1.175370856401838568e-02,-1.268545493631303847e-03,1.824324131011962891e-01
-2.609212660509331871e-01,-4.368973811934762086e-01,-4.064531284565486846e-01,-6.226755196208418053e-03,1.711847998713069557e-02,-1.043192692294589961e-02,1.669098734855651855e-01
-2.743096516714430000e-01,-4.584709710214134870e-01,-4.634575448634530859e-01,4.324751334583365296e-03,7.816896678075319462e-04,-4.784757041690265982e-04,1.868615001440048218e-01
-2.764817901551083756e-01,-4.735026026252875386e-01,-4.713243432690747969e-01,-2.061204183862179115e-02,1.762419783311837060e-02,-5.277758860282357953e-03,2.016996592283248901e-01
-2.734020873251206130e-01,-4.564297200790620179e-01,-4.278474400215310780e-01,-8.602842345714283023e-03,1.834477016703186039e-02,-8.663622224547862238e-03,1.747612804174423218e-01
-2.809690411863400294e-01,-4.600282453298032426e-01,-4.499380310615669343e-01,-6.531892224188504646e-03,9.472827844735239727e-03,-1.642089441226481572e-03,1.753925681114196777e-01
-4.355807657609890304e-01,-3.026095707540267243e-01,-7.449113502682076504e-01,1.273468571391334347e-01,-1.867068007348245129e-02,-1.571803480079831186e-02,4.527001380920410156e-01
-2.721202510097703309e-01,-4.575050270034380917e-01,-4.516076905836942657e-01,-8.263608969967799200e-03,8.419976523034947841e-03,-1.760278005930581433e-03,1.836732476949691772e-01
-2.707746709452071854e-01,-4.544390863090960186e-01,-4.503060569974326466e-01,-1.477521260932054045e-03,1.347771291970269354e-03,-1.316583809909177344e-04,1.816663444042205811e-01
-2.719116473747723028e-01,-4.541564085950369756e-01,-4.570043760872065652e-01,-8.472148616010892128e-03,7.434401564595132135e-03,-1.619572085772409470e-03,1.847411841154098511e-01
-2.714286430840741060e-01,-4.582199123032770771e-01,-4.612643180720083502e-01,-1.599161763013825285e-03,7.142778979713938900e-04,4.490559849326587229e-04,1.883579641580581665e-01
-2.743199792790004254e-01,-4.385914316195206331e-01,-4.223850472474946494e-01,-1.234077711663101283e-02,1.221446879521670068e-02,-1.039123020973241676e-02,1.606670767068862915e-01
-2.808250394524256510e-01,-4.485726527353323112e-01,-4.708915605093301759e-01,2.099594242204973291e-03,2.867604550236981572e-03,2.117566173595760576e-03,1.800907701253890991e-01
-2.735226108327255545e-01,-4.479891458304354757e-01,-4.587168429288009941e-01,-5.666859434640190811e-03,4.372389035587585793e-03,2.209638770798227642e-03,1.805370301008224487e-01
-2.721007359867812503e-01,-4.457383807030906864e-01,-4.450695608733298836e-01,-5.261283823384980268e-03,4.649888169869200762e-03,-3.643879410153875748e-03,1.738450080156326294e-01
-2.790075993689344891e-01,-4.633678398129442155e-01,-4.641453578810490477e-01,3.793329579101252427e-03,3.638142868058291506e-03,-1.173329259623172218e-03,1.849855482578277588e-01
-2.753746583050248331e-01,-4.420860116885893532e-01,-4.590857848827409882e-01,2.096365664881849004e-03,-1.029930636520467085e-04,7.886283067858575538e-04,1.758715510368347168e-01
-2.766603139220923935e-01,-4.546496403324013502e-01,-4.581074505755560189e-01,-5.756179972991347371e-03,4.593573437786029751e-03,-5.688606872546919831e-04,1.801979094743728638e-01
-3.207360101029587129e-01,-3.985945175322623824e-01,-4.406700359160097835e-01,1.529656521155696187e-03,-2.133351121508365780e-03,8.013860006886934853e-03,1.064028814435005188e-01
-2.906968741941090006e-01,-4.319850050187578061e-01,-2.820268547507394086e-01,2.068336291019426485e-03,1.133065535353069454e-02,2.794694139493932375e-02,1.549308151006698608e-01
-2.712989695705717574e-01,-4.214915014174622776e-01,-4.420366630989870371e-01,1.272348605698931517e-02,1.562190050737923865e-02,1.138798498304803390e-02,1.663504838943481445e-01
-2.801646447307596377e-01,-4.657373153539466348e-01,-4.657619752894890386e-01,3.432348790255818679e-03,3.566410969787705762e-03,-1.751766417191020315e-03,1.858076900243759155e-01
-2.832309639788805344e-01,-4.473431497348465125e-01,-4.563595875477686747e-01,-6.686619856154945099e-03,7.405617074779520005e-03,-1.451250696456220235e-03,1.697020679712295532e-01
-2.715176395832712974e-01,-4.529560265309162115e-01,-4.560980198645407380e-01,1.521695016386153711e-03,-1.821380643681278682e-03,3.884574643893680900e-04,1.830770075321197510e-01
-2.713896049454385118e-01,-4.519760903272560526e-01,-4.523105276553130438e-01,3.988593471775837710e-04,1.197329137440630506e-03,-1.454499591956990201e-04,1.807673275470733643e-01
-2.913363909285632269e-01,-4.135404835155316872e-01,-4.641588308827124809e-01,4.376211803596763428e-02,-3.105292610006520418e-02,-2.264638384304315868e-02,1.840071380138397217e-01
-2.705707457642675395e-01,-4.311304796292575459e-01,-4.550208689908794568e-01,1.751862693466699553e-02,-1.365049367369623040e-02,-7.269997881549566249e-03,1.783936321735382080e-01
-3.019967694512367129e-01,-4.226904931632390894e-01,-4.585984980500100172e-01,2.462432545471010883e-02,-1.959600700641351070e-02,-2.538884886915608596e-02,1.584143191576004028e-01
-2.823087435891825092e-01,-4.358387239193545204e-01,-4.411271752667641488e-01,1.813400944884476299e-02,-1.111994440116401833e-02,-1.277269936579369242e-02,1.620440334081649780e-01
-3.289292226532309904e-01,-4.498473187294576570e-01,-4.118607349732370526e-01,8.803578635645091521e-03,-8.875304146804919442e-03,-3.827617014661855582e-02,1.278081387281417847e-01
-2.737597032969671940e-01,-4.552873422309552387e-01,-4.526305488468961302e-01,-1.922019156514589338e-03,-4.080733408798211888e-07,-9.216947014134929087e-05,1.802447438240051270e-01
-2.688835616668323603e-01,-4.382386791415575078e-01,-4.469476929107647489e-01,-4.129351944674739330e-03,4.415483321684288143e-03,-2.137829087106762720e-03,1.742276549339294434e-01
-2.700661666362256796e-01,-4.477464908485991879e-01,-4.496640267354090059e-01,-7.859017187464642160e-03,6.775541523799711446e-03,-2.646951777113801512e-03,1.796071231365203857e-01
-2.714843810514551703e-01,-4.573731460176667651e-01,-4.539269793133897668e-01,1.279135861396903931e-03,5.696331055282852739e-04,2.428862317311175764e-04,1.842063069343566895e-01
-3.080420661417363482e-01,-4.398610016020536029e-01,-3.953456221967965867e-01,-8.831830548310326762e-04,-4.625594910824673729e-03,4.026061370175892593e-03,1.166406273841857910e-01
-2.866899226693191971e-01,-4.092543703911171726e-01,-4.417589240221250768e-01,-7.276599665198819553e-03,1.284317110348457899e-02,-6.537355947498283727e-03,1.443758755922317505e-01
-3.028409502165897438e-01,-4.230797439799730553e-01,-4.251883030519475470e-01,6.892119606758390212e-04,-1.640397410728896676e-03,1.200657159079102044e-03,1.213637813925743103e-01
-2.820815739409474054e-01,-4.107829371944705099e-01,-4.237772544626125515e-01,-8.425647270516443965e-03,1.193444714244194446e-02,-6.143231643022361785e-03,1.384151875972747803e-01
-2.709722705818585209e-01,-4.538387795109373180e-01,-4.525197610368516532e-01,-1.714329052440749165e-02,2.438586667886117471e-02,-1.127684229608069168e-02,1.903887689113616943e-01
-2.788928127880531127e-01,-4.664801839402619721e-01,-4.704580822930777284e-01,3.662438082265699526e-03,7.145044578148131067e-04,-1.886049405480546377e-03,1.897458583116531372e-01
-2.679467388644747317e-01,-4.579565175001063526e-01,-4.514099123805210834e-01,-4.787766185182795470e-04,3.006599710215144064e-03,6.807281878312888444e-04,1.869006454944610596e-01
-2.855312127686411849e-01,-4.257190290912774566e-01,-4.258414661176840310e-01,-6.901310597740346713e-03,6.863417587168847527e-03,-8.553455097175892072e-03,1.420334130525588989e-01
-2.640846482849498189e-01,-4.382254455905694734e-01,-4.409546539423760958e-01,-2.044444024019165251e-02,1.950415113437477255e-02,-1.200242742146823138e-02,1.833986639976501465e-01
-2.873562946363597548e-01,-4.541042352664524939e-01,-4.503559848003392263e-01,-1.248155693267909497e-02,1.353778765245969989e-02,-1.113096870115858582e-02,1.690644621849060059e-01
-2.725811041646503674e-01,-4.508366083367585930e-01,-4.522070960286695418e-01,2.753959185480873658e-04,9.043278679901037460e-04,-6.625212710848896517e-05,1.789522171020507812e-01
-2.756147575528944960e-01,-4.640932140432834085e-01,-4.625929748752143911e-01,8.312492053622479822e-04,4.140306961965230410e-03,-1.368566809655880631e-03,1.878902167081832886e-01
-2.695519899607345948e-01,-4.384804305280815551e-01,-4.574991871836224799e-01,8.472175974433896611e-03,-3.471707580182446448e-03,-2.242266568561419437e-03,1.799386441707611084e-01
-2.677107373053693173e-01,-4.339377819890519183e-01,-4.692526839730466470e-01,2.487003241467861808e-02,-8.705168121512124255e-03,-1.064019298527171288e-02,1.927988678216934204e-01
-2.761363790265736196e-01,-4.481771120915638562e-01,-4.431605150289656958e-01,-5.439938579542887703e-03,1.041293187584542076e-03,-2.741349026411691540e-04,1.698598712682723999e-01
-2.930473187547266711e-01,-4.323067047761563475e-01,-3.879201948600145000e-01,-7.798012085548706139e-03,-3.086131985656691886e-03,4.361518263235954727e-03,1.242987066507339478e-01
-2.873913391443870258e-01,-4.558279202757761217e-01,-4.799626427932189854e-01,1.051685792595927725e-02,2.600911910496638826e-04,-2.786407918746216226e-04,1.826219707727432251e-01
-2.798101995499563399e-01,-4.355299994101194949e-01,-4.601524625130771762e-01,2.366289208714931688e-02,-1.031359597844330213e-02,-1.532302929792744156e-02,1.771790683269500732e-01
-2.817798140493473769e-01,-4.679085928090219171e-01,-4.708285332345214513e-01,9.431854777716686122e-03,-6.108685889445798246e-03,-2.275271008348354277e-03,1.886539012193679810e-01
-2.719831182437705275e-01,-4.582669535837736174e-01,-4.534355427088246349e-01,-1.148314237508104869e-03,5.947681684838386105e-04,2.174993910238482960e-04,1.839297562837600708e-01
-2.713488773365952955e-01,-4.586823399041897176e-01,-4.574971351555872645e-01,-1.580992736321466287e-03,-2.971183887769000744e-03,-1.135223159824030864e-04,1.868347525596618652e-01
-2.737467621136169815e-01,-4.136722118022433947e-01,-4.845359271809758228e-01,4.039821190036757548e-02,-2.206617774237321777e-02,-1.288587420459437992e-02,2.033995240926742554e-01
-2.692487469404530875e-01,-4.077133054967488901e-01,-4.512094410562891844e-01,2.281962000020042874e-02,-1.177100792983499893e-02,-7.564124253748518920e-03,1.709869652986526489e-01
-2.915944180820025378e-01,-2.673866037499859072e-01,-4.548926402968509475e-01,-1.973744007759982086e-02,4.921692613795716591e-03,-9.097128519986098782e-03,1.808177679777145386e-01
-2.722993811204181824e-01,-4.589769117339245752e-01,-4.591341769934483841e-01,-3.038720019800129814e-03,2.907683469121291175e-03,1.335516806347724619e-03,1.869125515222549438e-01
-3.297104514989415702e-01,-3.433197959645218900e-01,-4.932219734672097511e-01,-3.780052138639602727e-03,-1.457156549734179435e-03,2.827923872463684071e-04,1.573067754507064819e-01
-2.968572288271742465e-01,-4.208891634693131545e-01,-4.145522613146273572e-01,-3.679907433431153004e-03,-1.920200120887556204e-03,2.635593364733213560e-03,1.212873607873916626e-01
-3.296805670039019698e-01,-3.464870353420609894e-01,-4.945777081305258172e-01,1.921601673936656259e-03,-1.155162261408813375e-03,-5.896445215099964908e-04,1.572205722332000732e-01
-3.187340007750259496e-01,-3.379982829357001117e-01,-4.686425756774790785e-01,-8.565466586176550753e-03,-3.793778354334842104e-03,1.191221390449443383e-02,1.436829715967178345e-01
-3.216332343442407371e-01,-3.636442174107628045e-01,-4.798166936288592588e-01,-1.555639950428807337e-02,-2.675517744713301962e-03,3.545352199602253197e-05,1.445301771163940430e-01
-2.721626259833818673e-01,-4.552024502729461464e-01,-4.548053978234664618e-01,-1.002224306350826778e-03,-1.202152510760709937e-03,-2.445953579184864191e-04,1.828622072935104370e-01
-3.191942326749732106e-01,-3.346648642062626799e-01,-4.669358546843482283e-01,-1.952186482622225673e-03,-3.067773565250684568e-03,4.772490401651715251e-03,1.410293132066726685e-01
-3.196113013893860932e-01,-4.891117609792952070e-01,-3.721943409413134285e-01,1.065533724352079421e-03,1.327509556125210967e-02,-3.291409655921074748e-03,1.521417796611785889e-01
-3.081873442127051055e-01,-4.774572921794230651e-01,-3.981245865210057966e-01,-3.433360002240523623e-03,3.366434882165076845e-03,-9.765377068103544070e-03,1.478945612907409668e-01
-2.833617557495735628e-01,-4.748739688040431450e-01,-4.621613998887943997e-01,-1.785455007577639933e-02,-2.190468831922022866e-02,7.325641445604141183e-03,1.922517120838165283e-01
-2.641191051407562052e-01,-4.505638339467444298e-01,-4.163325376472664097e-01,2.236982037541247661e-03,-2.348370537483623552e-02,-4.053653886378445412e-03,1.768330782651901245e-01
-3.157685878058991147e-01,-5.628165974142970152e-01,-4.788267889124613874e-01,-3.500561112106968797e-03,-6.347566395931281136e-02,1.769901748103971289e-03,2.438670396804809570e-01
-2.713336737819654898e-01,-4.568100829053193257e-01,-4.571933119172741922e-01,2.743839819408062757e-03,2.955592054177861791e-03,-9.281900223396172050e-04,1.858066320419311523e-01
-2.744770293565905184e-01,-4.716496509149630256e-01,-4.220904759334486167e-01,-3.293065010630265299e-03,-2.506030876987535086e-02,-2.459807831409269608e-03,1.830196231603622437e-01
-2.716655199253515396e-01,-4.516525562602592414e-01,-4.548632997591559590e-01,5.773351228394808842e-04,1.162095164069958282e-03,-2.392650159962601573e-05,1.816276013851165771e-01
-2.722859439743212651e-01,-4.663515797246792216e-01,-3.331689476507939118e-01,-2.092128212958945313e-02,-4.522604976855459924e-02,2.667828702098241217e-02,1.978317201137542725e-01
-2.710487296925520040e-01,-4.527418601159715061e-01,-4.534458718761101292e-01,-8.992812861633974874e-04,-1.206801049084962191e-03,-2.787922859789796837e-04,1.820654571056365967e-01
-2.751310705312358662e-01,-4.662728764655688640e-01,-4.497804945172771407e-01,-4.234123862471413959e-03,-1.185946040066927082e-02,6.163858095450474271e-04,1.847475767135620117e-01
-2.862395470372198769e-01,-4.887938166525159223e-01,-4.820697890814946152e-01,-1.476116539014192541e-02,-1.382876516499430969e-02,8.047414514129778377e-04,2.023382931947708130e-01
-2.945684082748522559e-01,-4.263469167620425049e-01,-4.358340786211354345e-01,1.193408662157167087e-02,1.190051466239535477e-02,1.189992931343730742e-02,1.413603425025939941e-01
-2.731450830463183488e-01,-4.497616633504481487e-01,-4.490037656846809222e-01,5.827975454544531350e-03,6.354191767939246401e-03,3.897788300634931567e-03,1.769992560148239136e-01
-3.172374491613740299e-01,-4.736698180269545699e-01,-3.377820107291866769e-01,-1.514161760713729401e-03,2.408683141446094425e-03,-2.611292274747081723e-03,1.473908722400665283e-01
-2.725853676252797397e-01,-4.540942308918320958e-01,-4.556832026176054762e-01,7.055054590550478150e-03,5.462877018569921306e-03,1.542995518772017011e-03,1.829819530248641968e-01
-2.899172520438009215e-01,-4.855309193124588973e-01,-4.969788137120967342e-01,1.368272031669480297e-02,-1.999871172502000385e-03,-2.615664364534981892e-05,2.029994428157806396e-01
-2.894982472869969126e-01,-4.211672835071357257e-01,-3.539399143828622640e-01,1.131511343767403407e-02,1.285157570214437613e-02,2.168506125533607720e-02,1.236721500754356384e-01
-2.719997253163503603e-01,-4.497109553565034612e-01,-4.522599938486534521e-01,2.453345267750288959e-03,3.697167329196812506e-03,6.501938051157999570e-04,1.791678071022033691e-01
-2.893804382068470016e-01,-4.521109118330658427e-01,-4.297587844304772697e-01,1.036279493396544821e-02,1.701297539397890468e-02,1.135450858635080919e-02,1.578629612922668457e-01
-2.892642222824611808e-01,-4.641762065843866303e-01,-4.342602628016795641e-01,-7.075410885078435748e-03,-2.207605370914589478e-03,1.805757867088805552e-03,1.625764369964599609e-01
-2.932612009103434114e-01,-4.313323382085348934e-01,-4.291062116645811830e-01,6.490531487277510780e-03,3.956998136000005294e-03,3.381668176396387948e-03,1.377276033163070679e-01
-2.748484983586199082e-01,-4.623169134642824973e-01,-4.248025569684078517e-01,1.377390634544718023e-02,1.599093582908035077e-02,1.151484992487955203e-02,1.767853051424026489e-01
-2.806565977442783688e-01,-4.616359250266121594e-01,-4.615999189229189059e-01,5.439775055196911270e-03,5.510956175008714999e-03,-6.475388757648560534e-04,1.814611405134201050e-01
-2.774222499591560975e-01,-4.425544017893237592e-01,-4.419133847102839630e-01,2.481088226010310076e-03,1.254736175615068280e-03,1.630249582102918883e-03,1.649070978164672852e-01
-2.867019963845317543e-01,-3.720066335655270451e-01,-5.064553073175072084e-01,5.127213963379601003e-02,-5.174286792747406077e-03,-7.972471363553322934e-03,2.120846956968307495e-01
-2.725882699336488746e-01,-4.602074993013919313e-01,-4.605331170054557388e-01,-2.325081209916675731e-03,3.582754764778542204e-03,2.146062091639450164e-03,1.879646629095077515e-01
-2.661756574929820540e-01,-4.383302121420529218e-01,-4.524787855222842659e-01,8.356347006342993919e-03,-1.015273670373688982e-03,-1.313651624826450890e-05,1.802378743886947632e-01
-3.008896101222580666e-01,-4.449944907608548439e-01,-5.132763973816600878e-01,6.318677293933309957e-02,-1.010727926896038027e-02,-1.888222928783083246e-02,2.205043882131576538e-01
-2.797855365571407793e-01,-3.951630951218854659e-01,-4.334922188621715411e-01,1.535604964946496974e-02,-1.353836020379506344e-02,-1.390899955720784585e-02,1.450554728507995605e-01
-2.709179165657140675e-01,-4.666108672715150729e-01,-4.664461862980021634e-01,1.327533359472700750e-02,1.030964255650354197e-02,-1.548377588367474836e-03,1.977834552526473999e-01
-3.002140882271834288e-01,-4.335535906268559447e-01,-4.590440043831439110e-01,1.986941089688985460e-02,-1.246809068558054831e-02,-2.164870108474866925e-02,1.577491760253906250e-01
-2.555854224800711005e-01,-3.951078774993994069e-01,-4.368623437598685433e-01,4.227004312487701171e-02,-1.906896546386308011e-02,-2.018163007020510810e-02,1.863026469945907593e-01
-3.106104872948859952e-01,-4.775798194550213149e-01,-4.813397568871977117e-01,5.576212384326303256e-02,-3.949101195582728485e-02,-4.400890633796284562e-02,2.198588252067565918e-01
-2.673035409790133210e-01,-4.400700294927766265e-01,-4.438859009701263125e-01,-7.087198538287808706e-03,-7.101633439913233002e-03,3.616529768748538189e-03,1.756795346736907959e-01
-2.834587957095924260e-01,-4.661001221611781320e-01,-4.658692064445510983e-01,1.490292132306636399e-03,4.665120261873589684e-03,-7.036458125325364011e-04,1.827270388603210449e-01
-3.096937878259455323e-01,-4.290348735643407796e-01,-4.139798585525806818e-01,-6.489851868529731248e-03,3.411057557990477499e-03,-1.620321832348611824e-02,1.167097240686416626e-01
-2.686314338210241126e-01,-4.483644647277067463e-01,-4.423656643346770556e-01,-4.993550655829589666e-03,-6.117810881971643723e-03,1.722314896618711748e-03,1.773633360862731934e-01
-2.716575014684181055e-01,-4.558060391558950153e-01,-4.566367411701115486e-01,-1.077593283641073907e-03,-1.509820697252816724e-03,-1.387890268796741072e-04,1.845934092998504639e-01
-2.742067500759125531e-01,-4.605019999178998624e-01,-4.665106985596575440e-01,-1.472393085913365623e-02,-1.403285777280826457e-02,-1.739863155666670439e-03,1.926438212394714355e-01
-2.725210587911466864e-01,-4.576631020921110848e-01,-4.589722894523360908e-01,-7.782026418653638930e-04,-1.540037374077784117e-03,-4.120251758933027981e-04,1.858254969120025635e-01
-2.534285570056772352e-01,-4.533324505785155112e-01,-4.102996266808183745e-01,-9.696157948420264586e-03,-4.571654490505637491e-02,1.111032694764372240e-02,2.003330588340759277e-01
-3.170885305543204025e-01,-4.603963067929908171e-01,-3.443439167260422540e-01,5.346498176176222791e-03,6.495863405020075795e-03,1.064064127705298228e-02,1.338883042335510254e-01
-2.720905142731201432e-01,-4.540771242295873478e-01,-4.556790193007509426e-01,-1.354497009446242912e-03,-1.529492490421919789e-03,-2.802303517632416551e-04,1.828277111053466797e-01
-3.938782783670523591e-01,-7.441579885337460398e-01,-5.330663525993958318e-01,4.776564081736316136e-02,-1.926161843975676968e-01,-8.287837418449496563e-02,4.817349612712860107e-01
-2.959043413420454627e-01,-5.237128470891905252e-01,-4.989171282084307046e-01,1.032827594551308931e-02,2.124435055163032167e-03,3.728093546299141806e-03,2.173433303833007812e-01
-3.150269380932820273e-01,-4.663183959927183486e-01,-3.678435494018939544e-01,1.396801067182426863e-04,1.151238157644350873e-03,8.556896729175905020e-03,1.338345706462860107e-01
-3.153428076297480898e-01,-4.678311304423834471e-01,-3.675812491806248472e-01,6.040324196448842780e-04,5.735575003708347566e-03,3.893411548384942758e-03,1.347629427909851074e-01
-3.125355495695314456e-01,-4.711535256778741076e-01,-3.542824441160583593e-01,-1.328921410008812327e-03,4.547850429405632996e-04,1.685824667794592674e-03,1.424608826637268066e-01
-3.314818002936094077e-01,-4.914247546150859458e-01,-3.578809398895863580e-01,3.300050263339245928e-03,6.371984275856485032e-03,5.670290348098721428e-03,1.493560820817947388e-01
-3.122964236001543603e-01,-4.595893069459671687e-01,-3.301049582066805099e-01,-3.611182555491116103e-04,5.255706492655401463e-03,2.346867658586574475e-03,1.396031826734542847e-01
-2.829099336519109165e-01,-4.435134858313562467e-01,-4.456328697343801548e-01,-5.782304101394343705e-03,6.235263285713020520e-03,-1.117314459730602222e-03,1.623547375202178955e-01
-2.908509503872685475e-01,-4.633019308723885787e-01,-4.286231504869872366e-01,-7.335086522362174559e-03,3.300448525877046867e-03,-1.333441082285342048e-03,1.586221754550933838e-01
-2.764210017676563269e-01,-4.467149867083712866e-01,-4.565591583131656250e-01,1.713179543489377421e-03,5.115879873256059737e-03,2.736495142504610030e-04,1.756727099418640137e-01
-2.231119766377311908e-01,-7.048860236392675560e-01,-6.467557513858163132e-01,6.440985421946858469e-02,-3.423401591651173328e-03,-7.489679087698742320e-03,4.691791236400604248e-01
-3.166183834595516222e-01,-4.623675109025116026e-01,-3.534693842846653444e-01,3.566182461719922051e-03,-7.286738373536854295e-03,-2.817565455750777742e-02,1.407439112663269043e-01
-3.506458393598463896e-01,-3.389358621514738656e-01,-5.574567088695171480e-01,4.275340940022501202e-02,9.645855729460656863e-03,6.366328564948063248e-03,2.263048589229583740e-01
-3.076859326530780314e-01,-4.079554939164233840e-01,-4.674533996513000611e-01,-2.131904440616701115e-03,-8.607607265174385680e-03,4.495892424538796943e-03,1.409126073122024536e-01
-2.948888702096488235e-01,-4.553473249639967135e-01,-4.320671685007009266e-01,1.054987424387125033e-02,-1.155609654541706922e-02,-1.128062969720364760e-02,1.538495123386383057e-01
-3.014780341347143011e-01,-4.532471245391800352e-01,-4.060432437301504938e-01,8.635306071792909002e-03,-1.425863981952225391e-02,-1.787065484772026522e-02,1.410308033227920532e-01
-2.896691044102395196e-01,-3.890056754643941295e-01,-3.244710916913177146e-01,-4.762797551192857887e-03,8.790159357998752684e-03,-7.184691913772431326e-02,1.529954820871353149e-01
-2.950791224062764284e-01,-3.646812148698063694e-01,-4.360481293918614942e-01,2.215142858843581822e-02,-1.153887018428136069e-02,-3.295923584081083407e-02,1.415464729070663452e-01
-2.792531652855375079e-01,-3.166774402221328444e-01,-3.514889377533303438e-01,-5.832857922302621748e-03,8.123700168277287262e-03,-8.105102060059371505e-02,1.546708345413208008e-01
-2.712336111639870317e-01,-4.485721249357240703e-01,-4.485737120280693935e-01,2.141482393883792877e-03,6.908412974229325093e-04,-5.105013156627428083e-05,1.773821562528610229e-01
-3.142017713384316902e-01,-4.305776880703779397e-01,-4.163204593442176860e-01,2.523764452027317008e-03,4.129293013627837708e-04,5.523653302844076969e-03,1.104471683502197266e-01
-2.943111907806335581e-01,-4.374151004983460878e-01,-4.374144929074806343e-01,5.113020429193993951e-03,5.404284697135380323e-03,3.323784974777766084e-03,1.437978893518447876e-01
-2.567494542445917238e-01,-3.887549683142003665e-01,-3.753138040195078684e-01,3.061593807702854553e-02,-3.967669761119230892e-02,-3.909889520149365666e-02,1.671906411647796631e-01
-2.817171732010147478e-01,-4.488231174526221556e-01,-3.876086688969987426e-01,-4.786968679526652781e-03,-2.183143644151162854e-02,8.662370130425750894e-03,1.522037982940673828e-01
-3.319299141812383502e-01,-4.900575041680352850e-01,-3.924635978605516828e-01,9.960395942937492336e-03,-2.193997579380319030e-02,-2.432913127043819651e-02,1.503796875476837158e-01
-3.068512214321323373e-01,-4.244834699978101145e-01,-4.258673665281607068e-01,2.687125317653188969e-04,2.123869164455342157e-03,1.187955589576687255e-03,1.184062287211418152e-01
-2.502686404150242239e-01,-4.383921888549419665e-01,-3.481449151163469313e-01,1.385371484698067965e-02,5.394408314989446174e-02,1.300779118007058983e-02,1.907109767198562622e-01
-2.823920279468792871e-01,-4.559529200758206113e-01,-4.403679387556098668e-01,7.997322672896276310e-03,3.495115372315600686e-03,-2.301131127142304973e-04,1.670030206441879272e-01
-2.957990567797201820e-01,-4.878258650027377241e-01,-4.667234039418862168e-01,1.437217353789057434e-02,3.120852955239277610e-02,9.849104759959131233e-03,1.926135569810867310e-01
-2.861887693456403037e-01,-5.028901681716667627e-01,-5.083861785880154915e-01,3.449859467125789697e-02,5.016483887564018168e-02,1.928598602458635181e-02,2.457977533340454102e-01
-2.900590382959754576e-01,-4.453161492143337674e-01,-3.843687147524490477e-01,1.431512736247999781e-02,4.130608969952966752e-02,2.789269958427869137e-02,1.625552028417587280e-01
-3.088088954839196543e-01,-4.312795836439989317e-01,-4.195144930331348165e-01,-3.215776614901182540e-03,-1.924832018958264014e-03,2.467051065544394184e-03,1.172902658581733704e-01
-2.705747176025586342e-01,-4.523954282959161688e-01,-4.450087597561408481e-01,4.590720420613716990e-03,8.243291836774174070e-03,3.669872622961342363e-04,1.789909750223159790e-01
-2.725050745593816659e-01,-4.514750715744460519e-01,-4.506324808335962495e-01,5.331529832801630824e-04,2.205429025031162705e-04,1.013880241205690529e-04,1.785530745983123779e-01
-2.748064916474439734e-01,-4.604928182057629327e-01,-4.485423039155608249e-01,8.495859166692319372e-03,9.389051391912183950e-03,9.896729375018062554e-04,1.813480556011199951e-01
-2.692203764698239965e-01,-4.412433473249550153e-01,-4.575863391791860080e-01,8.488652545558441481e-03,9.972366904992991277e-05,-3.277580350427765571e-04,1.813474297523498535e-01
-2.699031764729253879e-01,-4.606411405827482985e-01,-4.574034774250649860e-01,7.567003792997763906e-04,2.636492162362738534e-03,-6.720966232075105103e-04,1.892031580209732056e-01
-2.998466505557881856e-01,-5.026945649079725964e-01,-5.315606508710353229e-01,5.210358917838147502e-02,3.706450340097003533e-03,6.796809532289766961e-03,2.369812428951263428e-01
-2.701329789155746397e-01,-4.588627347125379674e-01,-4.553772002223569482e-01,-7.554374488317416002e-04,2.669372913280408915e-03,1.003434375525795019e-03,1.870811432600021362e-01
-2.803558399888090857e-01,-4.437278123569857735e-01,-4.640889222215508481e-01,1.118754595331860474e-02,9.840239620187971048e-03,4.754506396581289866e-03,1.765366792678833008e-01
-2.799593813973340062e-01,-3.625446235349225610e-01,-4.667550012907484280e-01,4.365401399825938333e-02,7.357306124952869321e-03,1.300293267021795929e-02,1.807567477226257324e-01
-2.707354808578086303e-01,-4.600084122115254970e-01,-4.542874105153797970e-01,-6.096997740929311444e-04,2.035526748475118865e-03,5.664793894982194256e-04,1.865171492099761963e-01
-2.712383080368087063e-01,-4.479408251250497908e-01,-4.550022242162685693e-01,2.827091352555180254e-03,3.336187073279378232e-03,3.328901801103557401e-04,1.804968416690826416e-01
-2.991129785695859633e-01,-4.212689292686422338e-01,-4.714621100396209630e-01,1.604924880344615543e-02,1.083730518189655531e-02,1.422459464498340362e-02,1.590752005577087402e-01
-3.021622171543867363e-01,-3.781364447541072371e-01,-5.183175718724732928e-01,4.485994733218001684e-02,8.874804175257716352e-03,3.327551668111708438e-02,2.137014120817184448e-01
-2.854067276192264191e-01,-4.315720346346326730e-01,-4.385158035256613296e-01,-1.595267211831679407e-03,7.514250433709754838e-03,-1.525786439631665820e-03,1.503710746765136719e-01
-2.724753969580752111e-01,-3.499503729077967362e-01,-4.531617906168229903e-01,4.473429910927596148e-02,5.650226185227527490e-04,2.478655311610619867e-03,1.751403212547302246e-01
-3.173453673410517317e-01,-4.008531451022954717e-01,-4.952019462406476169e-01,3.366204818958187100e-02,2.926089084874494706e-02,6.407697256460583024e-02,2.050358057022094727e-01
-3.346522397467106558e-01,-3.860568806100710959e-01,-4.496575174359250804e-01,2.582936787503090428e-02,5.854702964814070473e-03,7.839944294669436153e-02,1.746441125869750977e-01
-2.877545331357845293e-01,-3.079035285795730936e-01,-3.914765977466182489e-01,1.779061324144960710e-02,8.935101301658695400e-03,5.846282607043491730e-02,1.432378590106964111e-01
-2.779185431063363465e-01,-4.384337369091156900e-01,-4.377287420385347350e-01,2.022923824188641029e-02,2.182508002951658033e-02,1.386031568478248745e-02,1.699572205543518066e-01
-3.063777537677177532e-01,-4.061382352402836959e-01,-4.514682288058002868e-01,2.537226392455368962e-02,1.739948728324233751e-02,1.681754728501018079e-02,1.421867609024047852e-01
-2.729143276491622361e-01,-3.700521723311874234e-01,-3.761467549058026827e-01,3.860690734879176217e-02,3.275070261589363430e-02,5.517247852697015204e-02,1.639702171087265015e-01
-3.100450162270226295e-01,-4.096978582880515529e-01,-4.331434517940453977e-01,4.688865178282883989e-02,4.515298347292638625e-02,4.213388730241180574e-02,1.756547987461090088e-01
-2.732663204789937961e-01,-4.510794907798406084e-01,-4.526824580572682555e-01,-6.165575084040697106e-04,7.825449800222349485e-04,-1.563970283662884716e-04,1.786285936832427979e-01
-2.771227349102663995e-01,-4.681460141271673314e-01,-4.645076666535724041e-01,2.058171472278857647e-03,2.507298206068349702e-03,-1.262601510487211661e-03,1.893263608217239380e-01
-2.874894536823198177e-01,-4.336319669539914212e-01,-4.410990009943233092e-01,1.101652814326380993e-02,1.130270221560548093e-02,7.177988255233283890e-03,1.529920101165771484e-01
-3.052247376445047511e-01,-5.096986183397624881e-01,-4.761238264157493516e-01,4.937120896020785743e-02,3.175046563864718230e-02,6.746027686360490938e-02,2.450737804174423218e-01
-2.725640873905604278e-01,-4.574573512528838926e-01,-4.521223813364443345e-01,-1.098565849447047122e-03,4.604091549884224894e-04,1.109675981164254434e-04,1.822961121797561646e-01
-2.733292798922712930e-01,-4.239939560907825533e-01,-4.411314214770770681e-01,3.879920169154103815e-02,5.265431313438696803e-02,4.896478480294447905e-02,2.135456949472427368e-01
-2.710107915828796066e-01,-4.528793390126053531e-01,-4.527586721546507653e-01,-1.474678570529238102e-03,1.013348859361163029e-03,1.918376167054302802e-04,1.818349659442901611e-01
-3.191548963273196371e-01,-4.754054562046705623e-01,-3.944135926797126546e-01,8.301925980123463222e-03,1.532121159882431430e-02,3.117029156384643063e-02,1.488107591867446899e-01
-2.900410447061629315e-01,-5.477354302592725155e-01,-5.267255440732111493e-01,3.287398861125023775e-02,3.389739314883836573e-03,7.479511713493058357e-03,2.547117471694946289e-01
-3.959841835845435698e-01,-3.923439303253070110e-01,-5.369150679089612632e-01,-5.818780239465774773e-02,5.311308063887228148e-02,-2.132481699441444722e-01,4.188467562198638916e-01
-3.211537314661180864e-01,-4.492918912407295462e-01,-3.928571763257092120e-01,1.051990136845482211e-02,9.827786825295614648e-03,2.459727416628454399e-02,1.216949597001075745e-01
-2.642953338356937021e-01,-4.456224138802317158e-01,-3.988501683653935537e-01,2.280302221214593542e-02,5.100466464980623477e-02,3.167418264740989864e-02,1.973833888769149780e-01
-3.035830934780647805e-01,-4.133429830952598527e-01,-4.306987085588471764e-01,-2.681371614343008424e-03,5.108468452735043588e-03,-2.959221933457172830e-03,1.199147477746009827e-01
-3.173822704437834763e-01,-3.384614562441249919e-01,-4.624110819609558720e-01,-8.016958173761757830e-03,3.267310117999376595e-03,-9.243247134732740164e-03,1.374836415052413940e-01
-2.803913702541148689e-01,-4.958832247686032479e-01,-4.712864264323132768e-01,1.898810905255804773e-02,2.572227524667576593e-02,8.361188528206253343e-03,2.121735364198684692e-01
-2.916459337528668483e-01,-5.051700523004999388e-01,-5.185768702743031033e-01,-6.370055519610309976e-03,9.286196417972935810e-03,-3.388511362870486564e-03,2.214720100164413452e-01
-3.029402350324904014e-01,-3.947421316301645278e-01,-4.810791131637495166e-01,-3.445532069047003293e-02,-3.707899297029951160e-03,-2.727287905635014578e-03,1.656279861927032471e-01
-2.664723674672212494e-01,-4.719692716963997392e-01,-4.831397911145062785e-01,-3.215551612945170140e-02,-8.744614873444148118e-03,1.062953878438053189e-02,2.198171168565750122e-01
-3.000929040322427577e-01,-5.471644030365522271e-01,-5.259742404172866870e-01,-2.460882178658308286e-02,-8.203942764719409850e-03,4.371978766993569673e-03,2.415241301059722900e-01
-2.689481928657889709e-01,-4.584154890270179528e-01,-4.550019988233789947e-01,1.112147082124832070e-02,1.394690354513313142e-02,-5.702451702361273182e-04,1.903111934661865234e-01
-2.878985677061207671e-01,-4.863418700694661645e-01,-4.791527369190033414e-01,-6.070599609651323655e-03,-5.120310120548273065e-03,6.044984601970841004e-03,1.957131177186965942e-01
-2.896974702238034327e-01,-4.761777025087248760e-01,-4.762928791344072654e-01,-7.436824360654401174e-03,1.878333536805010424e-03,-1.776482761055948802e-04,1.870106011629104614e-01
-3.222441711701341527e-01,-3.106530621119489854e-01,-4.619411797289693644e-01,-4.398855910895037302e-02,2.762327276897877642e-03,-2.227596252142316144e-02,1.690721064805984497e-01
-2.789264476275339910e-01,-4.657481632125505810e-01,-4.627359546624020825e-01,7.475019219036873122e-03,9.715350328714393580e-03,1.759524519105880238e-04,1.865464150905609131e-01
-2.876797452032867075e-01,-4.249151506067559425e-01,-4.417575671876609600e-01,-2.189655996013130726e-02,1.831820865426201164e-02,-2.101736537119738499e-02,1.587414145469665527e-01
-2.769574353112345122e-01,-3.943053538672341984e-01,-4.533226497938266375e-01,-3.476234060146413812e-02,1.985290396418203443e-02,-1.566831562206369433e-02,1.724044531583786011e-01
-2.421578931341542007e-01,-2.766287442624892345e-01,-4.019827437625858590e-01,-5.574347142482825174e-02,1.209310542532181232e-02,-2.459920037017866018e-02,1.811049878597259521e-01
-2.544030138913739303e-01,-3.912328190443238318e-01,-4.444410520879002457e-01,-3.945963922345641778e-02,1.783507816905699830e-02,-1.447606451377366280e-02,1.873182058334350586e-01
-2.828284200930686332e-01,-4.794725842545922712e-01,-4.637346687643650878e-01,-1.989102675931113395e-02,1.998246818603362923e-02,-1.320680660725106863e-02,1.967992782592773438e-01
-3.033750952938225609e-01,-4.251242571231328427e-01,-4.416827512285021462e-01,-1.912370413836054009e-03,4.929614868023720307e-03,-3.256168817556691873e-03,1.312581747770309448e-01
-2.704063753342017540e-01,-4.544470622955444905e-01,-4.570499023637255576e-01,-1.775801448404312841e-03,-1.688665797151591916e-03,2.102130743184361722e-04,1.854047626256942749e-01
-3.149605157397532551e-01,-4.560902663612294572e-01,-3.917618406670515530e-01,3.604735362114655940e-03,-3.192799723529554917e-03,-6.496855564337740765e-03,1.231799051165580750e-01
-2.715503014813771543e-01,-4.206949888558443318e-01,-3.855076272523864644e-01,-1.785141141853970048e-02,2.225018926896124571e-02,-1.607750648164290447e-02,1.464615017175674438e-01
-2.907584365080082556e-01,-4.858324086545814380e-01,-4.825673978488937976e-01,-5.350389045321414690e-03,3.206675192346532775e-03,4.303562234287993012e-03,1.939069032669067383e-01
-2.736190724757134873e-01,-4.592767930308867541e-01,-4.533670850606627001e-01,-3.686874338287974597e-03,2.829024507822201252e-03,-1.519159728508447484e-04,1.829518824815750122e-01
-2.753704092793082814e-01,-4.410262940876230608e-01,-4.580440421130895223e-01,-1.529083092586548112e-03,2.801381111360635046e-03,1.853458042557438578e-03,1.749040633440017700e-01
-2.720981825607472482e-01,-4.511680287345562479e-01,-4.607015722014464187e-01,-6.665620956387671020e-03,2.103172142634459740e-03,1.495366157110132339e-03,1.844379007816314697e-01
-2.891910759365722283e-01,-4.510523600016782542e-01,-4.313439541550699863e-01,6.356369725792789319e-03,2.027102389241412783e-03,2.614306776728098775e-03,1.534650176763534546e-01
-2.748516994508768407e-01,-4.652707593849351730e-01,-4.680249491401926032e-01,-2.565370372620371514e-02,3.221134218857230058e-02,-2.575241297532360890e-02,2.094470411539077759e-01
-2.377037046039607859e-01,-4.187674465857224582e-01,-4.319868082805413678e-01,-3.800856402741570328e-02,2.396749343031113685e-02,-1.769685280550550854e-02,2.057891786098480225e-01
-2.807498851305600396e-01,-4.791519697681903556e-01,-4.739942809463290052e-01,-1.394640655242976660e-02,6.421486646267536569e-03,-3.911303606146199728e-03,1.977872550487518311e-01
-2.721583635703495041e-01,-4.600522887487350499e-01,-4.552412513024983176e-01,1.278097637911789267e-04,1.313244310156541216e-04,2.651992838745127973e-04,1.855360418558120728e-01
-3.260746478967971318e-01,-4.669552799964057366e-01,-5.183396669504348742e-01,-5.913608593916490352e-02,4.515351920328507934e-02,-4.897504545306492763e-02,2.313659191131591797e-01
-2.856226127480013810e-01,-4.710367757930163934e-01,-4.561985656622961627e-01,-7.329339527856431995e-03,9.454924172432181348e-03,-2.778316728245813338e-03,1.797216534614562988e-01
-2.758239312672549071e-01,-4.573973809083659581e-01,-4.596686766621983500e-01,5.756814001588240678e-03,-6.186482649318706534e-03,1.920329033720225530e-04,1.833053082227706909e-01
-2.715553695123137379e-01,-4.639763338409797488e-01,-4.277173870515785792e-01,-7.143884680022857987e-03,1.648067596786088537e-02,-2.469581897099061910e-03,1.798604875802993774e-01
-2.850126607542263768e-01,-4.690123293006602800e-01,-4.682996132100445408e-01,1.269136049602941898e-03,4.556252594146722491e-03,-1.479502293328238812e-03,1.838448345661163330e-01
-2.698604168018985394e-01,-4.568687557282844480e-01,-4.470580634855378932e-01,-7.018573869413354850e-03,8.978416382183360828e-03,-4.704875107129132678e-03,1.835475713014602661e-01
-2.864426138267290867e-01,-4.417250773124130614e-01,-4.736249791701847012e-01,-2.359917053429532938e-02,1.432037506781538502e-02,-9.069979039221876330e-03,1.806004345417022705e-01
-2.982610431352212821e-01,-4.482861633350222474e-01,-4.802482262215301834e-01,-2.164145451002064471e-02,1.954662883423722783e-02,-1.220193966941844448e-02,1.769806593656539917e-01
-2.820748789043743820e-01,-4.741933040235004615e-01,-4.739457026439107823e-01,-7.833822655171733540e-03,1.288519165143418334e-02,-3.374739390004355497e-03,1.938513368368148804e-01
-2.981333640817745434e-01,-3.668065773827009490e-01,-5.305161642751670126e-01,-7.856427910163853168e-02,1.235613213350315702e-03,-3.153982761544931769e-03,2.476101070642471313e-01
-2.723407911237463175e-01,-4.554949496409554932e-01,-4.516919092124397350e-01,-1.279324207806336895e-03,6.216982208689420149e-04,2.226279852886499930e-04,1.812997162342071533e-01
-2.859160956186744817e-01,-3.749525598111457247e-01,-4.482606997608757915e-01,-4.352081279230331223e-02,-2.902189946734015993e-02,2.467630243305210178e-02,1.728132814168930054e-01
-2.960464527884230090e-01,-3.908324752349550679e-01,-5.266433868283975084e-01,-5.306328867921069475e-02,-6.053102652676899380e-04,5.586202528606898886e-03,2.210063934326171875e-01
-2.684167655824038490e-01,-4.576973689993710792e-01,-4.605988053992745579e-01,-4.427971267801487920e-02,-3.437839014634132273e-02,3.988786762253091617e-02,2.249123752117156982e-01
-3.087111799242274190e-01,-4.122845140480505544e-01,-3.774780553694662144e-01,2.354425443221906059e-04,-5.523156540224557131e-04,2.476671156017544451e-02,1.008719727396965027e-01
-2.905808897766700150e-01,-4.532417904951815402e-01,-4.356959207209132878e-01,-3.276453939040368385e-02,-5.079716058130266665e-02,6.384228760089090404e-02,2.170288264751434326e-01
-2.863543791967454455e-01,-4.131803921905161658e-01,-4.548812157195864514e-01,-2.461226567774867438e-02,-1.214996546277902559e-02,2.005491363979295533e-02,1.630315929651260376e-01
-2.699898249244537252e-01,-4.509656182817309844e-01,-4.547454933792590137e-01,-7.559925787454970479e-03,-5.114156248572167100e-03,6.555598375719279411e-04,1.835805028676986694e-01
-3.335394557711358066e-01,-2.656299725818694335e-01,-5.143707305083482506e-01,-1.010273283813427070e-01,-6.520340714746057642e-02,8.069715104984095944e-02,3.354130387306213379e-01
-2.400828357672487590e-01,-2.919700005561915446e-01,-3.400215800727184323e-01,-7.223627595510993815e-02,-7.458197042640828112e-02,1.325972352069627880e-01,3.042732775211334229e-01
-2.777410828195968628e-01,-2.627184493424501444e-01,-3.974871990816676859e-01,-8.208696661005562834e-02,-3.651300631631192867e-02,1.048046136858301891e-01,2.711644172668457031e-01
-3.523080579656241440e-01,-3.578222818588114307e-01,-5.253749640282935340e-01,-1.106822700559931955e-01,1.920663617987100700e-03,8.942876842532429538e-02,2.996389567852020264e-01
-3.103814824702004205e-01,-3.631875246508842192e-01,-4.679647843507321880e-01,-8.133461029846376922e-02,-1.032156312904982942e-01,1.206058249886424460e-01,3.387377560138702393e-01
-2.705717771094962032e-01,-4.261065345135370830e-01,-2.962467278666788273e-01,-1.573211249408104292e-02,-5.201127479627986466e-02,2.057385084935751257e-02,1.760249435901641846e-01
-2.706963068168816156e-01,-4.533377625270830213e-01,-4.528518667336685621e-01,-1.724309614393636485e-03,1.135835236400004793e-03,-2.501682855277034782e-05,1.824340522289276123e-01
-2.736348329702526505e-01,-4.496105015087455414e-01,-4.499749161303928102e-01,-2.667001249764745677e-04,5.561079251340675725e-04,-7.354818320399942363e-05,1.761614382266998291e-01
-3.207877969826775089e-01,-4.828880630908095606e-01,-3.850971320137253073e-01,-9.531034080432597075e-03,-1.791233407988426785e-02,3.857677423448545306e-02,1.602722853422164917e-01
-2.884402910803633424e-01,-4.896898193431016844e-01,-4.815528473298487655e-01,9.143828102434308977e-03,-8.900895639000247495e-03,-1.812297109529088042e-04,1.985412389039993286e-01
-3.216425552579734726e-01,-4.943659250848025932e-01,-3.860062321449708733e-01,-7.537571112865283814e-03,-2.927511017910092508e-02,1.509596028820602356e-02,1.621238440275192261e-01
-2.737713037399683302e-01,-4.493210305292561491e-01,-4.480538198033641728e-01,-6.851157472265192961e-04,3.488891918545767809e-04,3.197928011137543308e-04,1.749255061149597168e-01
-2.705675515184415292e-01,-4.494291104800751113e-01,-4.525507526619615972e-01,-9.555152046543834892e-04,1.532542022769169381e-03,-4.495752681820027190e-04,1.804714202880859375e-01
-3.132948142248372370e-01,-4.771593074514564048e-01,-3.600651160153937047e-01,-5.718883677425384143e-03,-1.973465231288136501e-02,2.172293053818282263e-02,1.551037877798080444e-01
-2.957315259890818115e-01,-4.812380055938282331e-01,-4.029692823764162157e-01,-1.468294806493586737e-03,-2.073510091216443016e-02,7.841429708750177058e-03,1.658314168453216553e-01
-2.932604512560831322e-01,-4.713927591912470128e-01,-4.338377048080536702e-01,1.643457052238736418e-03,-2.068988840261004949e-02,-2.561140258608679554e-03,1.666245162487030029e-01
-3.555746713545182569e-01,-5.661124424376278164e-01,-4.039104336049016974e-01,-2.408831061499075096e-03,-7.040256530669487811e-02,1.340054014607520994e-02,2.278413623571395874e-01
-2.708019695981175312e-01,-4.534735222601832261e-01,-4.582643227461206115e-01,1.531814042892180958e-03,1.360827442173417456e-03,1.362620723656049575e-05,1.851474791765213013e-01
-2.712988055191576375e-01,-4.525051542031780505e-01,-4.573658640332178282e-01,1.670095387359747663e-02,-9.000112345046107354e-03,-8.783908548478601072e-03,1.872202008962631226e-01
-2.898916889780543404e-01,-4.627134347016801375e-01,-4.676914088726037422e-01,1.540957574749951021e-02,-1.122199900330251958e-02,-9.198610163338795040e-03,1.791548132896423340e-01
-3.097882372612362767e-01,-4.835709821129399177e-01,-5.212147005052483184e-01,5.991974834909402636e-02,-5.185140844367112228e-02,-6.469063652598318337e-02,2.637248337268829346e-01
-2.702422811034899119e-01,-4.521760693228231154e-01,-4.576482116930440935e-01,-8.607763657504406219e-04,-9.603342193671682812e-04,4.835754964797675531e-05,1.847441792488098145e-01
-3.090524809247693905e-01,-4.383185882623345520e-01,-4.227258352918650819e-01,1.657489430501032576e-02,-1.675864303405262545e-02,-2.913839161244788714e-02,1.383875757455825806e-01
-2.707631956034225462e-01,-4.531828736906691746e-01,-4.584329221157876777e-01,-8.844882545830379250e-04,-9.700635623768471974e-04,-2.095571433339269481e-04,1.851148754358291626e-01
-4.200460595609049608e-01,-4.601708561596014047e-01,-6.189673916404906384e-01,-1.274701635290541313e-01,8.131537191997556535e-02,-1.797472291246917653e-01,4.457664191722869873e-01
-2.739589665872274038e-01,-4.546893044463048983e-01,-4.640893872284803101e-01,-5.784808393407825638e-04,-1.055290881263265231e-03,-1.435722060649529297e-04,1.856208592653274536e-01
-2.776286825479244991e-01,-4.500397799095382512e-01,-4.467796211379723714e-01,-4.924260645464984161e-03,-5.373440660773899083e-04,-1.069097060745866318e-04,1.710198074579238892e-01
-2.679597774706402591e-01,-4.567346527452016414e-01,-4.568598934348068186e-01,7.032591608252131317e-03,-1.190059089529014839e-02,-2.372275878515777564e-04,1.903497427701950073e-01
-2.737485663823471249e-01,-4.554792456923219546e-01,-4.609440187815138090e-01,8.397756762027862035e-07,4.246416040646163229e-04,-1.140456359853252860e-03,1.845358014106750488e-01
-2.681977771435520852e-01,-4.609289419167471591e-01,-4.544146351155969876e-01,1.758200993655681735e-02,-1.635954126096109129e-02,-6.146532938611038409e-03,1.943601071834564209e-01
-2.729657146705000703e-01,-4.485610130378827054e-01,-4.496993951551542246e-01,-3.860863059923064743e-04,-1.133306588120092280e-03,-3.567544398061378856e-04,1.761805415153503418e-01
-2.547822871263392130e-01,-4.590120396564391081e-01,-4.210876729907356841e-01,2.001245164126794207e-02,-3.933612032944405756e-02,-8.672040590797030005e-03,2.036464214324951172e-01
-2.814686434798537862e-01,-4.445025909887837523e-01,-4.415034296333506525e-01,-3.402257784132310409e-03,-1.132846136501850258e-03,-2.100174960456523403e-04,1.616750061511993408e-01
-2.715303019121527717e-01,-4.533554048609794163e-01,-4.384549314291361077e-01,-3.882001991026963993e-03,-1.404847856389954911e-03,3.079565134870498270e-04,1.749986559152603149e-01
-2.710436608460376484e-01,-4.446332168954112984e-01,-4.521844809124925813e-01,5.355069713900184256e-03,-5.669395823361784818e-03,-3.254184985132318412e-03,1.780881881713867188e-01
-2.747711885121497111e-01,-4.436598556425169759e-01,-4.483962997174266163e-01,5.390116338429072444e-03,-6.721625257219157601e-03,-9.626910473024110140e-04,1.719628721475601196e-01
-2.714832020989330630e-01,-4.517364611812976771e-01,-4.587679493787635288e-01,-5.640870244055798876e-04,2.938787546331146443e-04,5.058685308781616643e-04,1.838752478361129761e-01
-2.725032864174534719e-01,-4.489656264096885674e-01,-4.569223104135344826e-01,1.472542367047699821e-03,1.612792899800476361e-03,-2.554066010984507593e-04,1.806123554706573486e-01
-2.764016221583671107e-01,-4.559291097957090533e-01,-4.558413286250941887e-01,6.163191752102053535e-03,-5.689651886610648177e-03,8.846250468049790495e-04,1.800771653652191162e-01
-2.715402074606138028e-01,-4.471725067658642860e-01,-4.554121303687607702e-01,1.256747564098891845e-03,1.922041732580257291e-03,-8.222444191940258152e-04,1.799432933330535889e-01
-2.764450538106763555e-01,-4.374870883892612583e-01,-4.403006522091281738e-01,-1.941245752119824617e-03,-2.921358409597364040e-03,2.051894497419671278e-03,1.626194715499877930e-01
-2.768226029522756204e-01,-4.555498670100772141e-01,-4.566194805759036246e-01,6.341904969507518308e-03,-6.072320206517788956e-03,1.261743004921195245e-03,1.799216568470001221e-01
-2.541852691382656682e-01,-4.290396988862069105e-01,-4.014300855878159546e-01,1.979379946224374062e-02,-3.553952466652995218e-02,-3.144727029024434184e-02,1.855802983045578003e-01
-2.829041879550578953e-01,-3.799824292854129260e-01,-4.301099042551217999e-01,2.846753822208258206e-02,-1.981710774845469106e-02,-2.038608661668934660e-02,1.471712291240692139e-01
-3.004964572572758064e-01,-4.224931352693558906e-01,-4.382193766589330686e-01,-4.929250922333926720e-03,-6.887829731646880060e-03,4.105223644582474928e-03,1.315858364105224609e-01
-2.819238973151489414e-01,-4.526363541779857558e-01,-4.353654338494014064e-01,8.569106766168739509e-03,-9.937169337741217842e-03,-6.154997525441995194e-03,1.646901667118072510e-01
-3.026188647092482586e-01,-4.256158010277042436e-01,-4.409594573263785344e-01,2.577631605853231665e-03,3.837468197884298920e-03,3.476678379283795316e-03,1.317242234945297241e-01
-2.711035472434757954e-01,-4.251131060935575134e-01,-4.406911516515827354e-01,1.386166498439628768e-02,-1.028341777425057814e-02,-1.644706126848116332e-02,1.675290614366531372e-01
-2.795924497723292212e-01,-4.495091283888343892e-01,-4.576202173987984345e-01,1.117110336611976812e-02,-1.214603244172117458e-02,2.180335982197210007e-06,1.764444261789321899e-01
-3.130266881301780879e-01,-4.102873632545594451e-01,-4.339823471159041102e-01,3.589411470894671597e-03,-7.721463849088204719e-03,-9.914917424232980864e-03,1.133053973317146301e-01
-3.024746860951650906e-01,-4.311593477923421069e-01,-4.359651988008368395e-01,-1.352752603631795407e-03,-4.139412870196025780e-03,8.009151151530161626e-04,1.313776820898056030e-01
-3.021771105629373344e-01,-3.730400030005108780e-01,-4.333702641445598136e-01,7.370441903153498314e-03,-7.778543705439885936e-03,-2.893995780045597460e-02,1.256722658872604370e-01
-3.283440036222455283e-01,-4.043884176124776242e-01,-4.384426517646186627e-01,1.655133317622971625e-02,-3.343098682939318889e-02,-9.224483393946783516e-02,1.980760991573333740e-01
-2.710637852028466299e-01,-4.509632195350454231e-01,-4.541081308721970355e-01,-5.382190983751106205e-04,-1.372718863881509932e-03,1.173974001924508477e-04,1.815104037523269653e-01
-2.714086727868655347e-01,-4.542274769271472112e-01,-4.555646834036350956e-01,-1.280697729566714462e-03,-1.628714490648552459e-03,-2.078244669031206933e-04,1.835265010595321655e-01
-3.273636536484846871e-01,-4.370839302195747567e-01,-3.862251383577813835e-01,2.483633424316101027e-02,-2.373377778023076298e-02,-5.089093520416586997e-02,1.426708996295928955e-01
-3.392331011121681450e-01,-4.775633000035456321e-01,-4.027583974735352568e-01,2.309226037532999438e-03,-8.481555583638007711e-03,-2.186460165288981253e-02,1.266855597496032715e-01
-2.953041845364214879e-01,-4.571034074632978617e-01,-3.758162299116546423e-01,-6.410104570031251387e-04,-4.248709838762638157e-03,2.363120948139668578e-03,1.403799504041671753e-01
-3.195071230803509521e-01,-4.369281568736680388e-01,-3.813732669709997136e-01,-3.039184792093059442e-03,-9.867433223952788712e-03,-1.856468022992611988e-02,1.081872582435607910e-01
-2.773477323902860947e-01,-4.768943489655625423e-01,-4.596259673215988828e-01,-7.659810889198403680e-03,-1.288258309206860401e-02,3.307476165801054475e-03,1.933337002992630005e-01
-2.790495208393040105e-01,-4.472036066455604142e-01,-4.675899927332910488e-01,-1.735321953585907892e-03,-3.916690676537376049e-03,8.072633006809049375e-05,1.793726086616516113e-01
-2.886523822854313859e-01,-4.060449670319709603e-01,-4.451796297385670620e-01,-1.012134846545554787e-02,-9.899961821517505589e-03,5.177099878865991378e-03,1.434866487979888916e-01
-3.639133969662411983e-01,-4.582913927881436811e-01,-4.732255831077561425e-01,2.981921331039963374e-02,-3.861449698942254899e-02,-8.737114941631544951e-02,2.014488577842712402e-01
-3.093831140033526661e-01,-3.954571200461707292e-01,-5.246267003628817260e-01,6.811471668802378254e-02,-2.571727725388051403e-02,-5.680108481461443315e-02,2.465638369321823120e-01
-3.103244470428564439e-01,-4.205127273386595754e-01,-4.259678860612046702e-01,-9.208721134030223125e-04,-2.157677480531493275e-03,1.028739628167550397e-03,1.131017059087753296e-01
-2.988112164976090002e-01,-3.848841687686092028e-01,-4.696048370404734551e-01,-5.398900770152706245e-03,3.301543169344993531e-04,-4.615172425576478965e-04,1.482117176055908203e-01
-2.985080438703739958e-01,-4.252121548860006151e-01,-4.240314447913857698e-01,-1.065059082498698772e-03,-1.422417031279781538e-03,-6.989387570776541166e-04,1.261612623929977417e-01
-1.906141361440990556e-01,-4.546262766206638495e-01,-4.835861000555135569e-01,-7.313634365457878650e-02,5.017286266990692023e-02,-2.267956401005039382e-02,3.214477300643920898e-01
-3.181263381093996645e-01,-4.557320893486589974e-01,-3.841873408952912738e-01,6.037834305474046835e-03,-5.204471055256290439e-03,-3.442077606956605446e-02,1.339926123619079590e-01
-3.077918468745738934e-01,-4.501540032687379456e-01,-4.113582983413582306e-01,8.974039144271674096e-03,-2.045786313122989475e-02,-2.809840198188477342e-02,1.418265998363494873e-01
-2.962293685865537429e-01,-4.389650378787307572e-01,-4.095173403696423242e-01,1.394903715745370552e-02,-1.053719899001980854e-02,-1.812472464681845821e-02,1.376217454671859741e-01
-3.188735626343841556e-01,-4.727939800291978134e-01,-4.059730232660824778e-01,9.834513173656312876e-03,-1.944635912507032896e-02,-1.959984859603702140e-02,1.429983377456665039e-01
-2.904070578226056742e-01,-4.429938415997572432e-01,-4.480782565117303884e-01,-1.231804733643471249e-03,-7.813171360927744988e-03,1.164563868052098704e-03,1.558080613613128662e-01
-3.531054593731788316e-01,-5.182057741287386943e-01,-4.208854717944096602e-01,2.009863834500626514e-02,-4.536269360530410105e-02,-5.348945686464579019e-02,1.913904249668121338e-01
-2.309410472299141259e-01,-1.989106353776923519e-01,-2.442311325724002835e-01,-2.561592163322911134e-02,-2.055071276274939018e-02,1.486968063156111353e-01,2.668257951736450195e-01
-2.745653490587908752e-01,-3.826133498091978113e-01,-2.809730459333729669e-01,1.196844516765922968e-02,-1.401230919026518092e-02,-6.227535873546456019e-02,1.538717597723007202e-01
-3.624875440060728038e-01,-5.568517695329677775e-01,-2.741895035863124441e-01,8.001047722081090297e-04,2.634080056074672785e-02,-1.344235017653288428e-02,2.556589543819427490e-01
-2.454606174105475325e-01,-4.097479028679220647e-01,-9.856313558841550693e-02,-2.477190365399482906e-04,-3.305660507540791881e-02,-2.077102220592830228e-02,2.779843211174011230e-01
-2.759236371264148224e-01,-4.490159422705337633e-01,-4.578154703286466121e-01,-3.020276190981207101e-03,-4.638948148980302430e-03,4.250429761837687891e-04,1.779156476259231567e-01
-2.762334793950690925e-01,-4.432727857230304713e-01,-4.551200239587016028e-01,-1.028061025652293910e-03,-5.583092681960346269e-03,-6.376213148146630530e-04,1.735492497682571411e-01
-2.914913584211010766e-01,-4.352177351965870189e-01,-4.539216390157985725e-01,2.163254120699311094e-03,6.856581213702305465e-03,1.214256757038157351e-03,1.544501632452011108e-01
-2.676701609990704833e-01,-4.473180213035171104e-01,-4.392308295711036537e-01,-5.773055005139292664e-03,-6.547053168717101648e-03,1.521649979337448512e-03,1.764126718044281006e-01
-3.059635537277790585e-01,-3.993026094556934025e-01,-4.280159790203247883e-01,-2.465210938901106832e-03,-4.439214345177947343e-03,6.010039487648337515e-03,1.113661974668502808e-01
-2.704372339819798854e-01,-4.557415962636312545e-01,-4.587297953971658515e-01,-2.088498488563600864e-03,-1.564578223991421827e-03,-5.198835683632553953e-04,1.868732273578643799e-01
-3.376011915911766303e-01,-4.898735869861922110e-01,-1.826625791155241374e-01,1.400179588921858682e-02,6.868114023952982643e-03,-3.602768277693652044e-02,2.746076881885528564e-01
-2.791326249661975623e-01,-3.409103894082569086e-01,-4.026132568478973939e-01,-1.886172508227015529e-02,-1.884519706260547392e-02,4.486300110108876887e-02,1.400227993726730347e-01
-2.720863923158954867e-01,-4.548956766283480668e-01,-4.591106011153583966e-01,2.523265103728592786e-03,2.022604305750945290e-03,-2.579424053376656585e-04,1.850381046533584595e-01
-3.082619448010563978e-01,-4.164644145070790504e-01,-4.218539184979593348e-01,1.938975326869720779e-05,2.708776629102081605e-04,2.513560127671055772e-03,1.110817417502403259e-01
-3.024896653408805092e-01,-4.361497280764625728e-01,-4.151092379986927594e-01,-6.943606188153729313e-03,-2.162230144183002571e-03,2.662413170159237154e-03,1.252013295888900757e-01
-3.061485939162690295e-01,-4.174896993411366108e-01,-4.215806551802396829e-01,-8.132270902152472988e-04,-7.288626474317058375e-04,1.126874380656207875e-03,1.134744733572006226e-01
-2.834765149537381568e-01,-4.220519052468008625e-01,-4.461133703411463980e-01,-2.559652507170581074e-03,-7.371643188445554939e-03,2.339552858414601939e-03,1.526941955089569092e-01
-3.171839615827107828e-01,-4.489340321997798977e-01,-3.903580533055817647e-01,-2.020925123866986785e-03,-4.886131108724564229e-03,2.943573651888324247e-02,1.255193203687667847e-01
-2.760616595604756252e-01,-4.390806281732103633e-01,-4.375586272071660399e-01,-1.165581321828832589e-02,-1.256676595366212380e-02,9.955985070359553782e-03,1.658556461334228516e-01
-3.473665342347231899e-01,-4.644550505687289332e-01,-3.779741461755247167e-01,-4.159179132033964665e-02,-4.633323695757776001e-02,9.860082197487872457e-02,2.277258187532424927e-01
-2.966707098905537188e-01,-4.236861446997928771e-01,-4.235401970806798588e-01,1.154933639735842774e-03,2.784983326881137165e-03,1.941348457019501095e-03,1.270943731069564819e-01
-2.577576491493609456e-01,-3.944127173217329418e-01,-2.733218796487693059e-01,-1.997028549013179013e-02,-4.441414179650252786e-02,6.676002131670830120e-02,1.930671036243438721e-01
-3.245448641306195037e-01,-4.504165748556379079e-01,-3.948241183150872358e-01,-4.166574390409595423e-03,-7.500811117208038004e-03,2.752162275532941960e-02,1.201244294643402100e-01
-2.889168907367687944e-01,-4.166985183380045865e-01,-3.526446053224219224e-01,-1.351904942130207482e-02,-1.777143327472347281e-02,3.298737682371632313e-02,1.304085999727249146e-01
-2.853477949407384195e-01,-4.363024760062657603e-01,-4.312563172264531342e-01,1.753854904635412156e-03,3.874913707297136019e-03,1.759344513929966001e-03,1.487097740173339844e-01
-2.869586717081243910e-01,-4.656844123883985831e-01,-4.959256155931521803e-01,-3.069368842847038786e-02,3.674345714853596845e-02,-1.458431560326546236e-02,2.139555066823959351e-01
-2.728694330961102255e-01,-4.570903226083962712e-01,-4.589510232701823345e-01,-7.645571291964453793e-03,5.984081021068065297e-03,2.432820709162946120e-04,1.859208047389984131e-01
-3.130933858439745587e-01,-3.903208440672397139e-01,-4.372478395778034987e-01,-2.252451254755336388e-04,5.380433120924938903e-03,8.405707993690699278e-03,1.099510937929153442e-01
-2.815356028513175679e-01,-4.192405422352816213e-01,-4.518393555630220160e-01,-1.947302811536340229e-03,-5.680829679671863149e-03,2.100393312850773811e-03,1.569578796625137329e-01
-2.723721773541685209e-01,-4.609851374743123009e-01,-4.631767073888666819e-01,-1.002424743532997695e-02,2.774109458501938102e-03,5.785734910228121234e-04,1.905742883682250977e-01
-2.694927215556821021e-01,-4.117511718502877005e-01,-4.513373196412028276e-01,-2.121292643214887919e-02,1.036172606720418658e-02,-7.481496447768346512e-03,1.711022257804870605e-01
-2.824235631213405373e-01,-4.521871343668007470e-01,-4.672738069892136137e-01,-1.181675489748692381e-02,6.308751967839973558e-03,-1.790652675671438069e-03,1.793219745159149170e-01
-2.592281584106003178e-01,-4.583094400930179391e-01,-4.758961163793241633e-01,-4.766821703597547144e-02,9.971006938323869265e-03,-1.667085516631205619e-02,2.266993969678878784e-01
-2.851401586186352866e-01,-4.809342805857920178e-01,-4.979986058895801704e-01,-2.328953845245961343e-02,-3.151294789228507431e-03,-1.481092027383312457e-03,2.088808417320251465e-01
-2.720476096590580539e-01,-4.556227780701102570e-01,-4.600728240504072253e-01,-3.121116191325264393e-03,-2.864954440131807587e-03,-3.364303148200666928e-04,1.859858930110931396e-01
-2.866477574925435090e-01,-4.518489089294293048e-01,-4.523454195080507945e-01,-9.631203461777163022e-03,-1.052922988890026695e-02,6.978939247408097457e-03,1.677220314741134644e-01
-3.089401046873717083e-01,-4.210913664033049675e-01,-4.194926338797047016e-01,1.018288939694158429e-03,2.769302178750498089e-04,3.785729507447031274e-03,1.115683540701866150e-01
-2.614539888798102507e-01,-4.360231531446829845e-01,-4.377762856982283513e-01,-1.349979595798861572e-02,-1.243312947477644495e-02,6.200132788449791259e-03,1.786317825317382812e-01
-2.774421007331622224e-01,-4.589677370074468632e-01,-4.614442586505100863e-01,-3.829747799231521775e-03,-1.736116812195571003e-03,1.913960618305462526e-03,1.829515695571899414e-01
-2.711597378913482848e-01,-4.540017989847064395e-01,-4.480393632587977848e-01,-1.314328572466831341e-03,-2.142739395960061455e-03,1.556274787969191917e-03,1.800078004598617554e-01
-2.743062194897752937e-01,-4.468115103637797514e-01,-4.468606476010044126e-01,-3.287084240943286169e-03,-3.066394111047646837e-03,1.996331615343233026e-03,1.727400720119476318e-01
-2.707547689895674625e-01,-4.492820706788949181e-01,-4.532992681232322907e-01,-1.545353853387654774e-04,-1.366230197168975119e-03,5.523419347654839466e-05,1.805851459503173828e-01
-2.964803807074912756e-01,-4.228235259275953117e-01,-4.209267160801181129e-01,2.896321252073116165e-03,1.242756959983292320e-03,1.388082219075393794e-03,1.255472749471664429e-01
-2.883331161462120429e-01,-3.798456308748519583e-01,-4.452819622483268902e-01,-5.727220889861453501e-02,-3.531214237568643111e-02,3.932916838256060588e-02,1.920057535171508789e-01
-2.839471500792850600e-01,-4.311706805927175701e-01,-4.337269977298826573e-01,4.054927567131777141e-03,1.458226594904953391e-03,1.701688921034673688e-03,1.487348228693008423e-01
-2.553481594319708115e-01,-4.267757242718284161e-01,-4.170537369919496973e-01,-2.241029134565940273e-02,-2.850765722101867086e-02,1.899729229139201711e-02,1.812256127595901489e-01
-2.551041394212015256e-01,-4.569494348881538714e-01,-4.244737844238439806e-01,-2.556366671603366170e-02,-3.463686598825340551e-02,2.099492369457233928e-02,2.052392214536666870e-01
-2.980592318991467371e-01,-4.562675296340223952e-01,-4.425556814030185415e-01,9.320445576587940706e-03,9.636457265605120545e-03,6.147002769069894942e-03,1.539516299962997437e-01
-2.975810086850017022e-01,-4.223680738248506428e-01,-3.985089509723179213e-01,-1.265346109801531241e-02,-1.369335302004279047e-02,2.147022342931107636e-02,1.248580217361450195e-01
-3.208432796264919507e-01,-4.956835069956714301e-01,-4.015217697243392281e-01,3.128222365795973754e-03,4.000215561106945650e-02,1.516762930566697629e-02,1.687966883182525635e-01
-2.889249952876011274e-01,-4.150338010523380028e-01,-3.593515078651147721e-01,-2.576684586050305426e-02,-4.621520940697875640e-02,4.818416176943880747e-02,1.653674393892288208e-01
-2.667535679878451083e-01,-4.399288031113247621e-01,-4.083176867527060216e-01,-1.098379216645661675e-02,-2.148769456432459216e-02,1.786632296203410214e-02,1.679862290620803833e-01
-2.687666787022225945e-01,-4.526268254772743971e-01,-4.402360058159280332e-01,-5.183674653018046849e-03,-6.664282553389040860e-03,2.076326787101399115e-03,1.786244362592697144e-01
-3.359339112923750426e-01,-5.063285310003545758e-01,-4.283517541308555221e-01,-1.412933852676554261e-02,-3.433282089732284798e-02,3.538757011858794516e-02,1.723944991827011108e-01
-2.795350567272199549e-01,-4.450963606704500530e-01,-4.473671199209270366e-01,1.392680381873062558e-03,6.675135147910207963e-04,1.369872869965228605e-03,1.667466312646865845e-01
-2.746615130743638722e-01,-4.396857420982793752e-01,-4.377805745061973952e-01,1.312275601633123862e-03,3.142508607102862360e-03,4.186092096344536930e-04,1.641875356435775757e-01
-2.696574226189094592e-01,-4.466480963991601993e-01,-4.476158504377790726e-01,-7.738644508678851029e-03,-6.210914163370178168e-03,4.729297461146544923e-03,1.784948259592056274e-01
-2.638516424307833508e-01,-4.470583347662378526e-01,-3.906235396307939922e-01,-9.397895353224900578e-03,-1.854535242727370012e-02,8.466039905117118264e-03,1.670991331338882446e-01
-2.822911951544613829e-01,-4.250120469064568862e-01,-4.577419165792302458e-01,4.263511055463025008e-03,8.042154707738188510e-03,6.149939615043060635e-04,1.623619943857192993e-01
-2.738586140529599700e-01,-4.507461016312392932e-01,-4.519953384775095562e-01,4.980743514397675212e-04,7.656903916728126413e-04,1.122322619122653867e-04,1.775225549936294556e-01
-2.976458694493076540e-01,-4.950226798745737677e-01,-4.659573478856944839e-01,-1.980796165177936552e-02,-3.601880010610268579e-02,1.486313329044747049e-02,1.994929611682891846e-01
-2.706391056362813519e-01,-4.410342156445263284e-01,-4.527772724426959439e-01,-7.950802476958692896e-03,-6.745448314782555299e-03,3.726302684307872867e-03,1.775982975959777832e-01
-2.749530017826915529e-01,-4.434123334088589941e-01,-4.436703914862604181e-01,2.164853394844472659e-03,5.132831842734189749e-03,1.235493793489458219e-03,1.688779443502426147e-01
-2.848431322816258882e-01,-4.882648297077130106e-01,-4.804528026367152482e-01,-7.813595768582147147e-03,-1.294527979741477708e-02,1.732047112426625532e-03,2.013632953166961670e-01
-2.726781608073956531e-01,-4.493856822427014230e-01,-4.493265923700736075e-01,1.993302299760120607e-04,1.148903111598462189e-03,-3.208872718265841969e-04,1.766903996467590332e-01
-2.867540503824826392e-01,-3.623789592916287217e-01,-4.237470496944800713e-01,1.227836951273655539e-02,1.378257072168149848e-02,2.403181990704852250e-02,1.299263834953308105e-01
-2.975416393011979244e-01,-4.451038417293665117e-01,-4.631016970409008726e-01,1.109224978895029246e-02,1.144221246404186071e-02,8.569727065658632251e-03,1.604261100292205811e-01
-2.875774767943340970e-01,-4.318079630400535329e-01,-4.483615249731704999e-01,2.361049401750215174e-03,8.442054623719495374e-03,1.680399186799158562e-03,1.539577245712280273e-01
-2.732240060614137267e-01,-4.505477961575425350e-01,-4.545351674456094559e-01,-1.547457634443199115e-04,-1.989318046262367537e-03,5.530905232653920132e-05,1.793840378522872925e-01
-2.809918137105175684e-01,-4.417633258070925439e-01,-4.397582317363740723e-01,3.761864099950240539e-03,3.152940066316368972e-03,4.721133744398510576e-04,1.600065082311630249e-01
-2.721371538081479025e-01,-4.270549750819319090e-01,-4.519907951727664686e-01,7.574712206305112688e-03,6.324028704122738181e-03,1.477814585648672607e-03,1.696555018424987793e-01
-2.709917153582231952e-01,-4.535247744080422860e-01,-4.559810621056077373e-01,2.150392778710627333e-03,1.972317912100214274e-03,5.930571281037280620e-04,1.838458627462387085e-01
-2.701732095328649441e-01,-4.497021578924069729e-01,-4.563650326089170872e-01,1.804913182296765360e-03,2.147677033595670696e-03,4.857331960479894400e-04,1.830178499221801758e-01
-2.690466055816270186e-01,-4.432460948131992096e-01,-4.516766490375405119e-01,2.713433604705843896e-03,2.812806994840076364e-03,3.244796658855822642e-04,1.786932349205017090e-01
-2.731734170315028853e-01,-4.505816679018952442e-01,-4.500163968641703316e-01,3.890685388066493174e-04,5.941507258474259959e-04,-8.640511124628240587e-05,1.771306246519088745e-01
-2.750793902508518185e-01,-4.588702972114392376e-01,-4.653776318774655585e-01,7.654287923931507760e-03,4.649661932209698569e-03,2.320121692467565569e-03,1.878142803907394409e-01
-2.713924436866855805e-01,-4.483448837086441152e-01,-4.504854156341559501e-01,-2.232637159184611581e-05,-1.344060891490518562e-03,-5.463618892299301234e-04,1.780501008033752441e-01
-2.702159031158565816e-01,-4.522741448944673781e-01,-4.574474287204369771e-01,1.457228665674214618e-03,1.374772814739157883e-03,-2.766455043650896829e-04,1.847324371337890625e-01
-2.696422361061231454e-01,-4.576197188745144695e-01,-4.438662210640948458e-01,-1.243824542465134372e-03,3.024732938027257893e-03,4.878589472273851281e-05,1.815803945064544678e-01
-2.689991626433620997e-01,-4.514171573423750861e-01,-4.510115689301604225e-01,-1.643819171059876690e-03,-1.674581441772091204e-03,-4.916042163892927330e-05,1.822608858346939087e-01
-2.786706860388906692e-01,-4.708898466543856576e-01,-4.601477884573351718e-01,1.834963617486953281e-03,5.016375198758046480e-03,-3.902992354674750925e-04,1.873094141483306885e-01
-2.732161023016906887e-01,-1.118282156477413414e-01,-4.277472820502555839e-01,1.728432759832254986e-02,-8.982360048571179194e-04,3.710539755696187769e-02,2.826561331748962402e-01
-2.684159022496253599e-01,-4.557911796751131228e-01,-4.440289726299926354e-01,-3.489361256598877089e-04,3.018884696770925136e-03,5.237774214387083769e-04,1.818582564592361450e-01
-3.013646132346406992e-01,-4.150380676571201466e-01,-4.127954804828359858e-01,5.667141547827877351e-03,3.985588075216435489e-03,5.240066335137453200e-03,1.135699748992919922e-01
-2.719166066978158658e-01,-4.608628375182438619e-01,-4.544972173799667337e-01,1.044560305296135094e-03,-2.031969308185198613e-04,-2.646155361767531700e-04,1.858549118041992188e-01
-2.977146363952708485e-01,-4.228631460648907825e-01,-4.286694076313650736e-01,-1.632162487096697548e-03,-4.107107584511072822e-03,6.968463409181837546e-04,1.283844262361526489e-01
-2.674092883350456806e-01,-4.565220740667670918e-01,-4.493432183903667276e-01,3.171810865173919219e-04,2.278214167411899208e-03,1.033527101231732456e-04,1.856703311204910278e-01
-3.069264393947958025e-01,-4.114573633565615229e-01,-4.239820849242397771e-01,-9.405509921772759515e-04,-1.045678518142215303e-03,2.592400555204048881e-03,1.114401146769523621e-01
-2.902711813461208434e-01,-4.676075176839730729e-01,-4.687212832587534517e-01,-2.483852244716456235e-03,1.761387229717991266e-03,9.247642519288356601e-04,1.779811978340148926e-01
-2.688501091086902828e-01,-4.579739274929437998e-01,-4.511708902762463502e-01,-9.360190236367837849e-04,2.313724550254211195e-03,-2.611649020945975706e-04,1.858665496110916138e-01
-2.685852754158680189e-01,-4.555488475781060420e-01,-4.494001100928908254e-01,-8.193184085604950919e-04,1.912317130909592594e-03,6.834343862118162334e-04,1.840053796768188477e-01
-2.760441213259965942e-01,-4.646462185224200514e-01,-4.563320024924080176e-01,-2.864363629795098863e-03,3.147089824541688015e-03,-5.649761675843726141e-04,1.847351640462875366e-01
-2.702202403898149585e-01,-4.558017742480933721e-01,-4.500816756286012410e-01,-1.204649391138208755e-03,1.659383844948366217e-03,6.137310054132294988e-04,1.828262209892272949e-01
-2.722991541880350197e-01,-4.567399763356069786e-01,-4.513032867991166319e-01,-3.181162939788402012e-03,2.973976205685574178e-03,6.714736192815912988e-04,1.819435954093933105e-01
-2.766613960002812789e-01,-4.507117405896470808e-01,-4.489660245436157826e-01,4.531665994036852656e-03,4.703772068088838548e-03,1.911386095204491153e-03,1.735847741365432739e-01
-2.809277904620575694e-01,-4.498928333849402939e-01,-4.574355839324414919e-01,1.553023137877061928e-03,4.520241204470617016e-03,1.127730862666169909e-04,1.730581223964691162e-01
-2.712044128842029389e-01,-4.518712500488723527e-01,-4.557446121889401902e-01,1.478115083440879321e-03,1.671728846251380749e-03,-3.500701648219158686e-05,1.826752275228500366e-01
-2.748722568112589859e-01,-4.591308739110915305e-01,-4.600593025746131937e-01,5.981301833441646058e-03,5.631401538443058657e-03,-6.753111071492664012e-04,1.852754801511764526e-01
-2.717585049984618806e-01,-4.566801436658206037e-01,-4.580913563706839886e-01,1.026258374688343447e-03,1.754093995494644806e-03,-5.113153538390507579e-04,1.856667548418045044e-01
-3.137755920742639759e-01,-4.151496646507641386e-01,-4.275393861110136640e-01,-3.254273076104109794e-04,3.564481885476747901e-03,7.827994682996200840e-03,1.091259419918060303e-01
-2.711325318381713201e-01,-4.553731168982777522e-01,-4.573579871506401884e-01,1.361037311573142991e-03,1.585703044642637833e-03,-6.592293659132932634e-04,1.852798759937286377e-01
-3.114744096043463584e-01,-4.152592857171380492e-01,-4.301284122886093186e-01,-9.374219006880288481e-04,-2.828048837156964083e-03,2.617358123013230429e-03,1.121729165315628052e-01
-2.688801241773316475e-01,-4.490875419859022277e-01,-4.511412138802085581e-01,1.808843982767153113e-03,1.553982416155028599e-03,3.086298761379060291e-04,1.812908202409744263e-01
-2.748483279529556067e-01,-4.524645908007504658e-01,-4.543703899120023482e-01,6.272953644807007650e-03,5.249434099959982870e-03,2.724995935762541152e-04,1.791385263204574585e-01
-2.697609218439869783e-01,-4.508017554865695331e-01,-4.550417203449495518e-01,1.189670874797479558e-03,1.404569213330080424e-03,-3.442237681925008766e-04,1.832263320684432983e-01
-3.041533990269211229e-01,-4.205740514675820885e-01,-4.492122661962240637e-01,3.085045957885482540e-03,6.848540510704209140e-03,4.540468828238456746e-03,1.339369416236877441e-01
-3.073584741976053691e-01,-3.511248671416303813e-01,-4.451801779503857803e-01,-1.931028173436651323e-03,-4.586028047772632010e-03,8.120549430390358245e-03,1.230872496962547302e-01
-2.878517284345267213e-01,-4.365393859573549751e-01,-4.406088547994602700e-01,1.672643279724777112e-03,6.393602737885467971e-03,1.835439745095393278e-03,1.512309312820434570e-01
-2.715183409862938491e-01,-4.507019069874753647e-01,-4.518244143138727131e-01,6.532260485322894305e-04,1.049476702055100828e-03,1.160000652401622180e-04,1.797603070735931396e-01
-2.731007356090964233e-01,-4.501472417521582559e-01,-4.529328794713834427e-01,5.714378911655898334e-04,1.689204245263223715e-03,-4.460067933754504449e-04,1.784840375185012817e-01
-2.992989822873246553e-01,-4.214066469860973663e-01,-4.328223991584892461e-01,2.482787107779419692e-03,5.758275038228438843e-03,4.429571073999806485e-03,1.288851499557495117e-01
-2.721998518055318006e-01,-4.578178578423121037e-01,-4.613954232314066983e-01,-1.489177680022831830e-03,-5.862467917751933806e-04,-8.067939901315771900e-04,1.874580979347229004e-01
-2.756359295609573379e-01,-4.476133122207437420e-01,-4.471338173455767229e-01,-1.074843796637558677e-03,2.824614427746989159e-05,5.158618037461017375e-04,1.717505604028701782e-01
-2.857711529950223150e-01,-4.486097010773061333e-01,-4.470259071120524230e-01,-2.555014076394140562e-03,-3.664965998737520266e-03,6.732202419234093469e-04,1.622412949800491333e-01
-2.783688722300226570e-01,-4.382174256107721488e-01,-4.374206400962250552e-01,-2.892087963186491719e-03,-1.000195896869743133e-03,9.364621912139793223e-04,1.595479696989059448e-01
-2.959337010464296869e-01,-4.003746582488033057e-01,-4.015640044340340054e-01,-4.115263169440363730e-03,-2.168077116195276949e-03,1.440908446802916139e-02,1.082650348544120789e-01
-2.711593750357891297e-01,-4.461971028621731228e-01,-4.497951303823323199e-01,1.122195875427436582e-03,2.468726845621769736e-03,5.579640738475995709e-04,1.769291907548904419e-01
-2.735254700600390776e-01,-4.597092268022161532e-01,-4.560539292352928098e-01,6.972071643241989228e-04,1.328529377524974070e-04,1.492929508180517134e-04,1.843875646591186523e-01
-2.763840994258023320e-01,-4.457785017476987854e-01,-4.461203488953454643e-01,5.099984527890609812e-03,1.324718209476457784e-03,7.117541953088235736e-04,1.698154956102371216e-01
-2.774554803290963934e-01,-4.442403320232883313e-01,-4.440019212659904735e-01,-3.076113189429330839e-03,-1.159674709884050275e-03,-3.306984577803477382e-04,1.667639911174774170e-01
-3.011157392735739347e-01,-3.675979855203579394e-01,-4.489599219870369362e-01,1.066707166267813998e-02,-1.028723806036571133e-02,-6.054213697235389345e-03,1.312157809734344482e-01
-3.047053261930552370e-01,-3.554233951707246875e-01,-4.578117455455854579e-01,1.677417016967205216e-02,-3.089620366656622118e-03,-1.059534263179464503e-02,1.394925713539123535e-01
-2.878177582706191728e-01,-4.063132099547012155e-01,-4.485894541420883952e-01,9.268390341376888178e-03,-1.115225687510678319e-02,-6.925301361854488240e-03,1.470125913619995117e-01
-3.014709465466001159e-01,-4.016599979266956555e-01,-4.514709764281421567e-01,2.950675194296730440e-03,-8.833251406050226726e-03,-7.443534248202227782e-03,1.339250206947326660e-01
-2.948524533460871178e-01,-4.218066611475892458e-01,-4.693338608136133350e-01,1.825911126401847523e-02,-5.449373275163024721e-03,-6.324266084299289166e-03,1.600601226091384888e-01
-2.821394944742411925e-01,-3.994249828852162731e-01,-4.481091627638439379e-01,9.125318067485670148e-03,-7.982736794772906166e-03,-1.920067253844913967e-03,1.492917537689208984e-01
-2.729934930107146274e-01,-4.556009155968747670e-01,-4.614663639651382931e-01,4.125501872976862841e-03,-1.685123182346862612e-03,1.385773677147556643e-03,1.857855916023254395e-01
-2.725871216060001823e-01,-4.538333968959636922e-01,-4.606483146639840376e-01,1.743426281138926227e-04,-1.087123311276483708e-03,7.049996150587599895e-04,1.847619116306304932e-01
-2.713745984945235556e-01,-4.502838055422787034e-01,-4.517597808831286810e-01,-5.775545825172816779e-04,-9.564283504207007555e-04,5.320093936595656739e-05,1.796621829271316528e-01
-2.710508950979575449e-01,-4.504021118061601880e-01,-4.486980512404089017e-01,3.054302380485329066e-03,8.198870934548457964e-04,2.227036012872321211e-04,1.785897165536880493e-01
-2.722367421436824309e-01,-4.533049387445298728e-01,-4.606657172579747828e-01,3.737328895542937706e-04,-3.242638401606219903e-05,-5.512132841876658546e-04,1.848621368408203125e-01
-2.696537770122677813e-01,-4.481150068494130778e-01,-4.583987614449305248e-01,4.721734482083655114e-03,-2.083136050755017565e-03,-5.647832625164070667e-04,1.840387880802154541e-01
-2.726681522608501163e-01,-4.492868017153776594e-01,-4.528033553000279099e-01,1.760483123060183324e-03,-3.353712153811045510e-03,3.775513614341390511e-05,1.785235255956649780e-01
-2.659933320708071092e-01,-4.197112723585003646e-01,-4.403694510443529886e-01,6.815045358773723014e-03,-5.973935696129578990e-03,-1.724291287922132074e-03,1.657914817333221436e-01
-3.043133975210517428e-01,-3.880324203132712313e-01,-4.334986866721117771e-01,-5.466331140514204059e-03,-1.123508958066302132e-03,4.047216738824861715e-03,1.141271963715553284e-01
-3.012318101227529632e-01,-4.185105467680468871e-01,-3.704154283400525327e-01,-2.147474092107233209e-03,-5.500500588070458829e-03,2.092685521679534325e-02,1.088361591100692749e-01
-2.712584105929781719e-01,-4.460203707621354652e-01,-4.528221096946466462e-01,2.313809033693655943e-03,-3.786095890094601929e-03,-1.490296204999768791e-03,1.784444451332092285e-01
-2.759769007904481763e-01,-4.345595435847196542e-01,-4.431445381002362960e-01,5.734648607564354038e-03,-6.431819155226281559e-03,-3.527832609111363621e-03,1.638404279947280884e-01
-2.808002854314778363e-01,-4.518178742943150250e-01,-4.581869042280022897e-01,8.116623092804243350e-03,-5.957436960275239515e-03,-3.201877224589969127e-03,1.752474308013916016e-01
-3.089358835102019585e-01,-3.889880124904903647e-01,-4.370491714566053787e-01,-5.694451252305305017e-04,6.067375903528771618e-03,8.546440203949980802e-03,1.135612279176712036e-01
-2.877390573062306167e-01,-4.237225468869246225e-01,-4.583393453862896760e-01,-1.999164648637334705e-03,-7.809080477485224464e-03,2.072452459040884532e-03,1.568596959114074707e-01
-2.860986325587294155e-01,-4.239273425052478839e-01,-4.219401118316450927e-01,-4.391803595993623056e-03,-1.456209553411297450e-03,3.296034870815861464e-03,1.371992081403732300e-01
-3.042596968546052993e-01,-4.021466202515343036e-01,-4.551689878414827417e-01,-2.356118254437354360e-03,-5.958372495769938965e-03,5.367601692959514045e-03,1.333904415369033813e-01
-2.674305378355852358e-01,-3.432866473107968330e-01,-4.482417922157831414e-01,1.260203803067698192e-01,4.825481299634386267e-02,7.760580738865864581e-02,3.121348917484283447e-01
-2.774837250353928697e-01,-4.618746520602039496e-01,-4.623118681606163127e-01,-2.957014883118485454e-03,1.010779086050211072e-03,8.911400806892968334e-04,1.846957057714462280e-01
-2.887175727399536318e-01,-4.152361521819005752e-01,-4.402617076620249370e-01,-8.965235879154225332e-03,1.325839424452999321e-02,-4.285878927888436135e-03,1.436071544885635376e-01
-2.826043932249880930e-01,-4.662102187723775049e-01,-4.676437166962058578e-01,-1.635895105913186048e-03,2.153503982071413095e-03,1.283589486509036960e-03,1.843996644020080566e-01
-2.831402825865880213e-01,-4.717321360218865722e-01,-4.714125148268693555e-01,-7.294215170307079797e-03,3.940880540019110062e-03,-3.269662514518235745e-03,1.890634596347808838e-01
-2.982954736593379508e-01,-4.254103078207649991e-01,-4.297464082268649954e-01,-1.115505700183100444e-03,-5.096463934577892367e-03,3.274883926593752815e-03,1.297767162322998047e-01
-2.896968094312833975e-01,-4.685316917725154684e-01,-4.658250117186992223e-01,-2.529640542294116397e-03,1.824404447761700070e-03,1.207414287132907698e-03,1.775915175676345825e-01
-2.967988563166908955e-01,-4.257305654610490375e-01,-4.192184262436037812e-01,-5.593413172287605394e-03,-1.297417452226428541e-03,4.962180796508312494e-03,1.264869570732116699e-01
-2.888916731375864577e-01,-4.275469697559861615e-01,-4.281618475309359462e-01,-1.966670277287278865e-03,-3.891246693847829133e-03,8.478216356189629665e-04,1.391765475273132324e-01
-4.199100347123561061e-01,-4.654731000710860545e-01,-6.348296826105326307e-01,1.079221818442876596e-01,-5.933903102416782094e-02,-1.343518744994128822e-01,3.716588318347930908e-01
-2.945684733314715142e-01,-4.279270408567514838e-01,-2.913719086257084423e-01,-1.605130270954236577e-02,3.185041716960450991e-02,-3.009892024480034095e-02,1.573376357555389404e-01
-2.983958903274606111e-01,-4.811055308424312393e-01,-4.772997872983072987e-01,-1.193908981131021297e-03,-1.018315143198944561e-03,-1.927358397455162424e-03,1.808880418539047241e-01
-2.735768658867274716e-01,-4.592142473235213962e-01,-4.604298487204135371e-01,-2.589194484942955975e-03,2.715297780601446959e-03,1.552537522634065033e-03,1.863808929920196533e-01
-2.755177445182203089e-01,-4.466668714101720838e-01,-4.535662736848847798e-01,2.454841364744785297e-03,6.082208507102716995e-03,3.399039223592976782e-04,1.750710010528564453e-01
-2.989182029713647326e-01,-4.513039851340352460e-01,-3.490071223878916662e-01,-1.180780932974260025e-02,-1.391657271619932586e-02,1.262881185015066361e-02,1.399115175008773804e-01
-2.679120500925753490e-01,-4.323859336945257148e-01,-3.208800962630830589e-01,-7.517677915448263588e-03,3.488952663484593680e-02,-1.408540542590810095e-02,1.598811745643615723e-01
-3.639468272732836462e-01,-4.081191097486874253e-01,-4.855920818696505270e-01,2.692747231568744237e-02,1.775334652155432374e-02,8.034339194313494525e-02,1.840146780014038086e-01
-2.792698532873007511e-01,-4.435952158897247810e-01,-3.910005322391895688e-01,-9.307196885996139521e-03,2.153665029306645051e-02,-6.826128865445185885e-03,1.513853520154953003e-01
-2.681383793981933494e-01,-4.233132478784700226e-01,-4.707260006987281642e-01,-3.694793500812162956e-02,-1.214949134719322046e-02,5.441481370979927082e-03,1.957334578037261963e-01
-2.681566805214397609e-01,-4.433478356067618309e-01,-4.521288132329501774e-01,-1.014411474393318337e-02,-7.134669597094032804e-03,2.818094427704846954e-03,1.810873895883560181e-01
-2.650399761099232476e-01,-4.255792292223679052e-01,-4.128263901471700970e-01,-1.148690117473736422e-02,-1.239889643734633055e-02,9.761838072439688041e-03,1.582121402025222778e-01
-2.780344779385236498e-01,-4.537253513059976706e-01,-4.551525152984009503e-01,-3.697827196663266720e-03,-4.150663895709025795e-03,2.614580978761111901e-04,1.766719222068786621e-01
-2.754086680752110272e-01,-4.477051988048486031e-01,-4.540337428326998159e-01,-2.196390542283628480e-03,-3.926130961860288364e-03,9.328194359703327393e-04,1.757266521453857422e-01
-2.771099753283055023e-01,-4.301159090381780348e-01,-4.485812719849598396e-01,-5.649854777610248922e-03,-7.792277180933345794e-03,2.234772535177693715e-03,1.639207154512405396e-01
-2.879754497478078656e-01,-4.614745489847587034e-01,-4.904730325742152064e-01,2.320558078152128167e-02,1.280526908466309705e-02,4.682695643682194091e-03,1.953132450580596924e-01
-3.018092070320390063e-01,-3.757203494776887309e-01,-4.792769192051999916e-01,3.252021377137286756e-02,8.590338387319722616e-03,2.600020620703468593e-02,1.710640490055084229e-01
-2.941102740222265033e-01,-4.548924713264594910e-01,-4.802811823308543726e-01,2.742488354777141216e-02,1.980682831455912035e-02,1.184621941742780224e-02,1.855582296848297119e-01
-2.771896877173493090e-01,-4.618994126804490952e-01,-4.622256240547772954e-01,6.705870987900706829e-04,1.814806759257260333e-03,-1.290338422901281083e-03,1.849169284105300903e-01
-2.694011381099050695e-01,-4.438872417615307153e-01,-4.513966681137270287e-01,1.457134285163594247e-03,2.181731165146300402e-03,1.724608043156525316e-04,1.784175485372543335e-01
-2.379383704586887915e-01,-3.602646582676430898e-01,-4.183135402840313377e-01,5.833901547051913161e-02,2.638127985565568920e-02,2.759712832013401507e-02,2.000433504581451416e-01
-2.913030045177323890e-01,-4.621974334148347685e-01,-5.067949255115156149e-01,5.728210013114051063e-02,3.868417610330417145e-02,4.269141328683840469e-02,2.421075999736785889e-01
-2.818129845732904037e-01,-3.907059974330905905e-01,-4.472563289939773257e-01,-1.092058348084665176e-02,8.383531907868693039e-03,-5.225126823362360139e-03,1.478651314973831177e-01
-2.713461407929121938e-01,-4.527857229950920659e-01,-4.578491952114063235e-01,1.395692690492660037e-03,1.880967796943284467e-03,-1.840424366172716724e-04,1.840685606002807617e-01
-2.900268283654462431e-01,-3.800824606041824927e-01,-4.343808719660805506e-01,3.182548923716491118e-02,2.667480534368892389e-02,4.090429018587691395e-02,1.616815328598022461e-01
-2.790466278456203986e-01,-4.482865201966130808e-01,-4.084385629925113004e-01,7.642052309071543405e-03,2.985247722185000938e-03,1.835742450794865320e-04,1.539096385240554810e-01
-2.716528349350117999e-01,-4.553238599824602773e-01,-4.556271784615266163e-01,1.043383634231154948e-03,1.742738962428249695e-03,4.785039097216036265e-04,1.838584095239639282e-01
-2.707046759827143045e-01,-4.514849205411222144e-01,-4.555965906931795373e-01,-1.965743027275615028e-05,-1.961859627190610470e-03,-6.025532849057051773e-04,1.829053014516830444e-01
-3.233921379476994984e-01,-3.968901956910935169e-01,-4.794797641807705957e-01,1.961939007600165680e-02,1.147302016643420540e-02,2.931432113463198347e-02,1.497358083724975586e-01
-3.253213860489980180e-01,-3.961394717561448897e-01,-4.783692917859916904e-01,-2.861609141839410644e-03,2.721996526670998010e-03,-1.469315469280800361e-02,1.352581381797790527e-01
-2.824222410610449652e-01,-4.368053260840594199e-01,-4.665915968979174044e-01,-1.229894539927315830e-02,4.350397780984102680e-03,-2.209508613112851506e-03,1.727572679519653320e-01
-2.763138851234729354e-01,-4.456995034786895848e-01,-4.593210048106239340e-01,1.249530952998393306e-03,3.244660528457025007e-03,-7.431597050807323699e-04,1.766981780529022217e-01
-2.706866500930082409e-01,-4.455378855370192848e-01,-4.558922909432070458e-01,-2.832161487241895408e-03,-3.235604665339664003e-03,6.567649924087553279e-04,1.804090142250061035e-01
-2.428760748776145340e-01,-3.985321857855947392e-01,-4.466894119774097449e-01,-4.440184201517042434e-02,-2.456976216750307931e-02,2.172161107544586661e-02,2.078099697828292847e-01
-3.092013118780452263e-01,-3.679410048676219902e-01,-4.618491844860923567e-01,-8.477941770250192743e-03,7.380771728825838603e-03,-5.353278010131931261e-03,1.350935250520706177e-01
-2.748032444720711065e-01,-4.568775924325384485e-01,-4.604532296235159805e-01,-2.257692338731987283e-03,-2.625796205223370969e-03,-1.315806768657841897e-03,1.840001493692398071e-01
-2.830593650727460386e-01,-4.495339674611854019e-01,-4.377508149141525196e-01,-9.688296836371915188e-03,-6.664546996976545082e-03,2.927428085070563589e-03,1.622701138257980347e-01
-2.707914871329288875e-01,-4.404462948435566294e-01,-4.572069036048014845e-01,-1.378219249394606501e-03,-7.423874124762419157e-04,5.915704345658259538e-04,1.786493510007858276e-01
-2.666096230833609471e-01,-4.422620812064611551e-01,-4.545075529592501051e-01,-4.815888045422030660e-03,-2.171986504976470243e-03,-6.009826842690575537e-04,1.823170334100723267e-01
-2.848977970369958590e-01,-3.090030558994330545e-01,-3.999249364199318757e-01,-7.938493124296203129e-03,6.449104010691480461e-03,-5.375292241598237514e-02,1.414973884820938110e-01
-2.722264211758619323e-01,-4.474553166455031983e-01,-4.195329440927260123e-01,1.164141570166347082e-02,-1.455798400492064153e-02,-6.126002208183302378e-03,1.665742248296737671e-01
-3.201982225317265285e-01,-3.730789222873040489e-01,-4.443979309425042379e-01,-3.517485652299497285e-03,-1.437277887145707199e-03,-1.599223378172606735e-02,1.116455942392349243e-01
-2.886514243118203371e-01,-3.687080790816487652e-01,-4.525950881498129186e-01,-3.435715382515943175e-03,-6.405975367731017896e-04,3.175171425563041040e-03,1.422276347875595093e-01
-2.957632310514434204e-01,-3.179657959657522515e-01,-4.029818912346486703e-01,-2.857966850033058243e-03,1.638770158353787011e-03,-5.229140732810368120e-02,1.335814297199249268e-01
-2.775462393245914372e-01,-4.475159040669910993e-01,-4.590490020089730838e-01,-1.109660540899733584e-03,3.221599321950182129e-03,7.760866873285352831e-04,1.761238574981689453e-01
-3.171356587499158941e-01,-3.698777842563482632e-01,-4.351539019749419701e-01,-2.963705245525842177e-02,8.056519035480949609e-03,-5.133759950271489514e-02,1.456775218248367310e-01
-4.241443667782274218e-01,-3.720224458116311861e-01,-5.947943711197857253e-01,5.736159910243503190e-02,-2.814401918526841448e-02,-1.484651480513073940e-01,3.451170027256011963e-01
-2.727640312058350891e-01,-4.501382785679375886e-01,-4.519071001288565426e-01,-5.687129028107979888e-04,8.056688076172107901e-04,9.156019725375601052e-05,1.782734990119934082e-01
-2.727187410657363476e-01,-4.558312015364034964e-01,-4.526531952628721767e-01,-1.279908897699528385e-03,6.219827452679456458e-04,3.558839108109686732e-05,1.815610677003860474e-01
-2.799961716905741138e-01,-4.420411925093661876e-01,-4.495625240777971210e-01,-2.124226195531870101e-03,-3.913399480191328238e-03,1.373871168835086136e-03,1.661297529935836792e-01
-3.050219098977138277e-01,-3.306031182555181913e-01,-4.729116696210821091e-01,-2.949537387299450489e-02,2.084419741987867097e-03,-8.350148363526172651e-03,1.654650568962097168e-01
-2.983041096472820453e-01,-3.974001240519168254e-01,-4.519302921809519313e-01,1.785615639792596885e-03,8.207577685281635879e-03,3.296523351960559643e-03,1.357996314764022827e-01
-2.753872805866854900e-01,-4.515574551478183096e-01,-4.509728122139484707e-01,3.299994061971452380e-03,-2.064688314713257911e-03,-1.658183238289575494e-04,1.760080009698867798e-01
-3.155094365510048293e-01,-3.567232480818580687e-01,-4.521825057417540594e-01,6.417314360323906534e-05,5.514982133450646888e-04,8.424027689589301190e-03,1.223074197769165039e-01
-2.701793718401779287e-01,-4.502774385223222708e-01,-4.483494596197559745e-01,1.416634028855840409e-03,-1.015875736944025836e-03,5.487046897815259889e-05,1.791673302650451660e-01
-2.745147256234453104e-01,-4.586976761646075484e-01,-4.597680711146351351e-01,2.640953812433724599e-03,-1.442619304131792903e-03,1.753333827393145628e-04,1.847942471504211426e-01
-2.782178566164612565e-01,-4.426795859198970340e-01,-4.524656873143965141e-01,-1.339545374707040281e-03,-4.412400349662806004e-03,5.828088713762631179e-04,1.697577089071273804e-01
-2.732121151201102327e-01,-4.501122897592569894e-01,-4.491646727708763498e-01,1.258854787791161521e-03,-4.580413505922210134e-04,5.136012743318557660e-04,1.764457672834396362e-01
-3.180212485375337184e-01,-4.435098823506815058e-01,-4.656426284902419610e-01,-1.718169018553746723e-03,-1.304169543072271516e-02,1.000748579548680142e-02,1.408340334892272949e-01
-2.988818037138152861e-01,-3.716195544154672348e-01,-4.028689484436573376e-01,-7.866828811742667196e-03,-1.031178649881295782e-02,3.199331587726736426e-02,1.100713089108467102e-01
-2.900063598365903994e-01,-4.207454320174743301e-01,-4.603103473996074113e-01,-3.641419629607490615e-03,-2.884930007046396521e-04,1.708863569818866489e-03,1.545301228761672974e-01
-3.321958486724698734e-01,-3.871285257800520796e-01,-3.749995631185089051e-01,4.391947261820298835e-04,-1.123808386557759685e-02,7.880400023705895485e-02,1.466564238071441650e-01
-3.079870050542448667e-01,-4.037164562222839703e-01,-4.608654713133141234e-01,9.544331300710848448e-04,5.192450293959134308e-03,2.801510297791819093e-03,1.341944336891174316e-01
-3.239255493527234409e-01,-3.959949556422995842e-01,-4.430817631971451509e-01,-1.197854356662332630e-03,-4.850507697344132521e-03,7.472156741830522989e-03,1.051050499081611633e-01
-3.120366693772664846e-01,-3.268361398276443675e-01,-4.596303849368960082e-01,-8.812251314580874916e-04,2.224121076548031279e-03,-3.696029721309869887e-03,1.409850120544433594e-01
-2.894441454643463807e-01,-4.270828501672460087e-01,-4.758239078191112692e-01,-2.720692883552746407e-03,5.044406311224827570e-03,-2.887963895224043235e-03,1.677865535020828247e-01
-3.804788202099690375e-01,-4.409985573383099489e-01,-4.892515503668169452e-01,-2.294472052664297754e-02,-1.628286878675932331e-02,8.141395993801907316e-02,1.765523254871368408e-01
-2.604408186102358802e-01,-3.896333015555517587e-01,-4.665418373872135538e-01,6.720769733979452265e-02,4.704319042696797348e-02,5.678979826261384284e-02,2.498132884502410889e-01
-3.135891560309204684e-01,-3.930460417551658869e-01,-4.278906946175424775e-01,-2.783502150026129739e-03,-1.017921338312812243e-02,1.122052347026477638e-02,1.049189567565917969e-01
-2.887713532907132397e-01,-4.267040922121979052e-01,-4.571478758958120170e-01,3.261220052626563701e-03,7.098225758113290568e-03,1.139265391811802603e-03,1.560077369213104248e-01
-2.805750689732319780e-01,-4.376899972552812934e-01,-4.370245210460030338e-01,4.709808152792950391e-03,-2.969328458345031879e-03,-1.103775627710511589e-03,1.570911854505538940e-01
-2.783523023297848620e-01,-4.463298702211158098e-01,-4.457007963672713347e-01,2.763684893479599527e-03,-1.138930115034680586e-03,3.343258101924306770e-05,1.677438467741012573e-01
-2.833250763044685705e-01,-4.411608930267990614e-01,-4.405908712253368553e-01,2.903155233075326112e-03,-1.851470029397027373e-03,-3.834130933867921517e-05,1.576644331216812134e-01
-3.089999459398188320e-01,-5.466196528175709668e-01,-5.548259637100744213e-01,-5.211663968710972608e-03,2.373570438108284567e-02,-4.497358769457348443e-03,2.455865740776062012e-01
-2.246243148202435314e-01,-4.171602970795875165e-01,-3.503747954561705624e-01,-1.959277863723117921e-02,3.648581162094735597e-02,-2.675807827075333059e-02,1.896445453166961670e-01
-2.739833758196991709e-01,-4.656076711383965172e-01,-4.663921573536502496e-01,-1.205030855409809122e-02,1.167744214982178313e-02,2.395420333968330956e-03,1.942491829395294189e-01
-2.728847680356661920e-01,-4.812243730075701498e-01,-4.769593143570184379e-01,-8.206249416016206388e-03,4.730245391253986784e-03,1.457762898756283622e-03,2.069070488214492798e-01
-3.197311895622546585e-01,-5.709976096183405625e-01,-5.655181187888980165e-01,-1.088314286290714824e-03,1.250331836012319453e-02,7.767863815159030405e-03,2.498831748962402344e-01
-2.711429229364081261e-01,-4.491320806792228337e-01,-4.583255447846363295e-01,1.613984318456498099e-03,1.587926401793895602e-03,-3.854036241332109165e-04,1.828026920557022095e-01
-1.847611679349480118e-01,-4.033164588609511880e-01,-3.116147029724207207e-01,5.329879673990805394e-02,1.050749801268669598e-01,5.660824367260681306e-02,2.956209480762481689e-01
-2.730340147770541348e-01,-4.584499921389699750e-01,-4.560482145698329659e-01,1.372494338922666986e-03,3.101701999694674809e-03,-8.194751766551438383e-05,1.843205243349075317e-01
-2.717584640359265724e-01,-4.573455024007440639e-01,-4.539839944743655487e-01,1.673007567409436286e-03,4.546259052508593588e-04,-3.936672475952181422e-04,1.839551031589508057e-01
-2.785967027937346630e-01,-4.861567131041449330e-01,-5.048494128383581581e-01,3.322086396137843693e-04,2.078561811109942009e-02,6.644202463642064939e-03,2.207698523998260498e-01
-1.803094494387357805e-01,-5.169703682259841893e-01,-4.464613517781907959e-01,2.426134364429433088e-02,7.800874463345118526e-02,1.419292106489557139e-03,3.385298252105712891e-01
-1.983352668587619327e-01,-5.258937251682953562e-01,-5.186080903567434897e-01,-5.637501881511233770e-02,6.563764933625779174e-02,1.685352672570471916e-02,3.581516444683074951e-01
-2.772455163898744357e-01,-4.360803042466798729e-01,-4.577707176871791406e-01,-9.037958752842368756e-03,7.812409698495217589e-03,-3.524565848856795901e-05,1.719660311937332153e-01
-2.560616792266293129e-01,-3.057853336286669999e-01,-3.978889965190585687e-01,-6.579657468415811561e-02,4.975367140630964496e-02,-9.269538641860168571e-02,2.484480142593383789e-01
-3.756604309921036666e-01,-3.470574738266858916e-01,-5.783182080893851662e-01,-7.330913418709136820e-02,-1.486828923407403210e-03,-1.408210202417664869e-01,3.511494100093841553e-01
-2.801364217522039901e-01,-4.676498688556465222e-01,-4.477314491415360642e-01,-4.039308436422906195e-04,1.202596278993911527e-03,6.906511969099129880e-04,1.784077435731887817e-01
-2.723813040034060995e-01,-4.528619528314848375e-01,-4.588603200013134376e-01,1.349403642348645516e-04,9.192093953652550080e-04,-5.417520486619631847e-04,1.835628002882003784e-01
-2.646572829671329230e-01,-4.467931422735558211e-01,-4.295950539235471322e-01,1.337915059939989021e-03,7.011996449582558188e-03,-2.960122287765077752e-03,1.746883392333984375e-01
-2.706280218729946729e-01,-4.535385034489685663e-01,-4.550078907792612370e-01,-1.601016071300328733e-03,-1.385504144304158759e-03,-3.850814839268944961e-04,1.836874037981033325e-01
-3.080167086338438942e-01,-4.273323866561948292e-01,-4.949214802645036104e-01,-2.515569912233021899e-02,5.086178915019909028e-03,-6.381114588562540949e-03,1.701973676681518555e-01
-2.856587687647099139e-01,-4.002669758817332668e-01,-4.505499584903823185e-01,-1.186832415019328964e-02,9.307990909961287238e-03,-3.045616840157645399e-03,1.487836539745330811e-01
-3.607017919734359923e-01,-4.113006241882360969e-01,-5.124911967048284556e-01,-3.147291409510648980e-02,2.211108463417032349e-02,-5.433425215636784184e-02,1.766772866249084473e-01
-2.885738020619129096e-01,-4.083434633097484112e-01,-4.568733203137521071e-01,-1.729153021837115042e-02,7.978686232578958287e-03,-1.947764025172768476e-02,1.572845429182052612e-01
-2.942301037090991889e-01,-3.671569430486180674e-01,-5.101293398066348850e-01,-5.287293828706308985e-02,9.016680882507115136e-03,-2.254353782169422199e-02,2.152699083089828491e-01
-2.722976608179809022e-01,-4.520993974388060610e-01,-4.559219965154349130e-01,1.538783007310371928e-04,-2.186073975570240226e-03,5.086337276717056271e-05,1.817828416824340820e-01
-2.734024404533185737e-01,-4.579479328040998443e-01,-4.608327756282226129e-01,-2.330284565524530591e-03,8.427944394152563599e-04,-2.760819608406216543e-04,1.860548257827758789e-01
-2.732369695660028519e-01,-4.521772894453347513e-01,-4.527622529763882797e-01,2.608967148842055881e-04,-1.484755565288249299e-03,7.586157913647902399e-04,1.792573481798171997e-01
-2.761429195291028593e-01,-4.568209173079519347e-01,-4.587886003165638771e-01,2.368900947518238088e-03,-3.810296901141024557e-03,-1.558856656970139705e-03,1.818560063838958740e-01
-2.712714077119602329e-01,-4.600123853120146600e-01,-4.581601905283875231e-01,-6.858744485819162412e-04,2.282507818910618595e-03,4.392878194897090671e-04,1.878686249256134033e-01
-3.097637451973771494e-01,-4.413625166280281675e-01,-3.663849516423727248e-01,1.240141769936939364e-02,-2.135218578020172883e-02,-2.924260344987464691e-02,1.321644335985183716e-01
-2.732174894842442359e-01,-4.522993571569601245e-01,-4.506424047770726804e-01,-1.047331383627731014e-03,1.780059774761364643e-05,-2.632885954653147085e-05,1.782684028148651123e-01
-2.724096654588874511e-01,-4.527892560198380489e-01,-4.542304527509080647e-01,2.353646740121101812e-04,-1.262126813878104801e-03,2.998952348285982453e-04,1.811188906431198120e-01
-2.718195064319616772e-01,-3.643472458942718095e-01,-1.878419615248103081e-01,2.552215829086675741e-02,5.013825179773653828e-02,1.200015694399329674e-01,2.758272290229797363e-01
-2.281216932710408429e-01,-3.678182417052811570e-01,-2.148676888194165358e-01,5.247046561314316210e-02,7.349986303831088086e-02,1.138757116819481968e-01,2.913957834243774414e-01
-3.278291673203080347e-01,-5.213408999549562495e-01,-3.329388730461572132e-01,2.230935301950653579e-02,4.137442659729573258e-02,4.331208250573267277e-02,2.207726687192916870e-01
-2.710570422783115108e-01,-3.765231306579542303e-01,-4.402567583225034387e-01,-4.708680633953832816e-03,4.142318629394066247e-03,-1.174938084946144587e-02,1.497963368892669678e-01
-3.385593335834646278e-01,-4.734374894980062920e-01,-3.013491003037037652e-01,1.978373679826356951e-02,3.485000013698656696e-02,6.118717975953227861e-02,2.016058862209320068e-01
-3.105778816262505515e-01,-4.043163580970087212e-01,-4.773088038530982069e-01,1.656195380314744517e-02,-3.844965414964707229e-03,-1.458350755537574615e-02,1.498742252588272095e-01
-3.090910755480993921e-01,-4.240260909608110640e-01,-4.206553800726356429e-01,2.233519885241817783e-04,5.512030998968759965e-05,1.339549319032798435e-03,1.133117303252220154e-01
-2.709042397466698837e-01,-4.531214243779786432e-01,-4.557514296173079682e-01,-6.560629346955757207e-04,6.984315977874346873e-04,-1.453193881646782249e-04,1.835539937019348145e-01
-2.736661139308479429e-01,-4.468988957224059866e-01,-4.467329035831812956e-01,1.416584890490872476e-03,7.364127371612956378e-04,1.516326820184735039e-04,1.731721311807632446e-01
-2.736758675508126348e-01,-4.500199412721460068e-01,-4.498022946399323763e-01,1.242249604754360045e-03,3.386788173146264313e-04,-5.600462710567873916e-04,1.762521266937255859e-01
-2.747242709579065245e-01,-4.518803872985043824e-01,-4.546604759241807958e-01,1.795728824011001701e-03,2.962922051688386856e-03,2.204073835419580597e-04,1.786636114120483398e-01
-2.732224493886432626e-01,-4.460295768686290963e-01,-4.465309756734877067e-01,1.772941969422705622e-03,2.266383936369075446e-03,3.947943775615738718e-04,1.731314659118652344e-01
-2.735213097582955832e-01,-4.505805397686181157e-01,-4.504783477284985960e-01,1.030324347148591066e-04,2.852377684543501001e-04,3.415405554637699820e-08,1.770089417695999146e-01
-2.739259494384840288e-01,-4.629471351208855334e-01,-4.624142331739347078e-01,-2.238214446983105132e-03,3.608261482092068716e-03,1.482449853007252990e-03,1.889159679412841797e-01
-3.064752189562045537e-01,-4.176976597180059869e-01,-4.127362520499717191e-01,-9.523541471873956093e-04,-7.481726648243718970e-05,1.486650202462202986e-03,1.088696271181106567e-01
-2.948302707437069348e-01,-4.514125561287735122e-01,-3.323765599035329865e-01,-7.134390161361982806e-03,-2.535725208872527045e-02,2.144086042634976187e-03,1.488089859485626221e-01
-2.733862503270777511e-01,-4.502142235896005595e-01,-4.503837634602957940e-01,3.179037183086564337e-05,3.095525586353033197e-04,6.661619339670967160e-05,1.769136637449264526e-01
-3.095980279183027650e-01,-3.343448682273819084e-01,-4.633040875456290730e-01,1.312001914707692108e-03,5.759468270487197970e-04,1.816736567106313951e-03,1.430044770240783691e-01
-2.922220139591065191e-01,-4.688887629979442417e-01,-4.684504741205049450e-01,-2.425665676437576117e-03,-3.004318091518032698e-04,-6.629908824385859819e-04,1.765025258064270020e-01
-2.772048023234979230e-01,-4.582352928530373792e-01,-4.657522043119032285e-01,-4.446414034558269536e-03,-4.119908372557494654e-03,1.569948885330598159e-03,1.852213740348815918e-01
-2.721168550968872668e-01,-4.529551848442556206e-01,-4.592815144213724943e-01,-3.524005241657627695e-04,-1.293264467942453581e-03,-3.945187555331046187e-04,1.840989440679550171e-01
-2.699274047220698858e-01,-4.508835042148882088e-01,-4.543325269922622867e-01,-1.148496768541713061e-03,-1.259493649866786453e-03,5.809384134503428506e-05,1.827289015054702759e-01
-3.921774082777687020e-01,-4.541896617889892851e-01,-5.063968476088559489e-01,1.967039809480385787e-02,-1.352363897205400081e-02,-8.093513353846228109e-02,1.765489280223846436e-01
-2.718454538520859165e-01,-4.515240879353727421e-01,-4.547063272861918137e-01,-4.121103385212186894e-03,-5.111754940524505970e-03,2.522868969729005805e-04,1.816475987434387207e-01
-2.690915454679749241e-01,-4.512577751894699118e-01,-4.560788697467764718e-01,-1.444011988548241998e-03,-1.258142236461831523e-03,1.384043851374379310e-04,1.846539527177810669e-01
-3.143960704005922535e-01,-4.431395107186592575e-01,-4.333365100033512163e-01,1.230722177028799325e-02,-8.358747296969648230e-03,-1.120294001791819621e-02,1.282553225755691528e-01
-3.055084521984127166e-01,-3.850223995961492562e-01,-4.750043772275475140e-01,4.747155560586426536e-03,-1.227101561982449915e-03,-1.310428646488922275e-03,1.471438854932785034e-01
-2.658201612516428725e-01,-4.340523162085473396e-01,-4.513413140227306997e-01,7.757887121679758920e-03,-4.784065815530197732e-03,-1.132178756653178008e-03,1.782206296920776367e-01
-2.738976963588554692e-01,-4.448367671527952427e-01,-4.579654885832375455e-01,1.083976433072360692e-03,6.744517750016932807e-06,-3.872749524938989179e-04,1.778783798217773438e-01
-2.864426218645879096e-01,-4.305383216908946764e-01,-4.687942951036813688e-01,7.078924676865351595e-02,-3.073263697261969726e-02,-3.500277266896177630e-02,2.219955623149871826e-01
-3.186000237332631269e-01,-3.822965434277614261e-01,-4.732715843055880223e-01,2.066502202940104574e-02,-2.550521905149741222e-03,-1.514746710865058806e-02,1.418361067771911621e-01
-2.802179874445170915e-01,-4.008809785409144233e-01,-4.405692350990958461e-01,9.767594223459449831e-03,-8.493270988083530607e-03,-6.487921643597516219e-03,1.468077749013900757e-01
-2.890269781185957898e-01,-4.167944875045044295e-01,-4.426737939466106053e-01,8.784257254481141197e-03,-1.107624316698356537e-02,-3.093017621767242716e-03,1.446687579154968262e-01
-3.061451324017882003e-01,-3.815261942105918069e-01,-4.391190591049568548e-01,4.093549666083881773e-03,-7.681344496845236500e-03,-1.271590205735288574e-02,1.185454204678535461e-01
-2.913891691645366100e-01,-4.678094188071799109e-01,-4.682493185490851362e-01,-7.353011605206324301e-04,1.140518307258770164e-03,-6.232087100357198766e-04,1.766595393419265747e-01
-2.732532490162217220e-01,-4.433745960244827033e-01,-4.413025863056890818e-01,-4.719528684793180238e-03,-4.573873188447596071e-03,1.613543440833255368e-03,1.695006340742111206e-01
-2.805206155022705317e-01,-4.186860028716316573e-01,-4.578127539684633263e-01,1.629431966606827327e-03,5.447547467673806432e-03,-1.939709023579443267e-03,1.616626679897308350e-01
-2.774839733858682767e-01,-4.518665724862922506e-01,-4.525315449490489028e-01,-3.065688969984303822e-03,-1.556256314973359029e-03,1.513350979777591798e-04,1.748176813125610352e-01
-2.717483785557079923e-01,-4.487686940194434149e-01,-4.512753012372578976e-01,-3.496694201164836911e-04,-1.791279069748777071e-03,-6.715969618377352164e-04,1.783186495304107666e-01
-2.719991316153432259e-01,-4.495389727230246768e-01,-4.495629115884544058e-01,-6.160015270085315679e-04,-4.734591869970177728e-04,3.372870271709728672e-06,1.775569170713424683e-01
-2.704660326582138952e-01,-4.486877177149027340e-01,-4.503757887979781271e-01,-1.458829556819719701e-03,-7.754093105641800742e-04,2.953731728337694647e-04,1.790952831506729126e-01
-2.877300789437179929e-01,-4.411561416150128201e-01,-4.393390163247626323e-01,-4.861371485455714438e-03,-1.955358227138936488e-03,-4.046235553336198065e-04,1.527969986200332642e-01
-2.762073784986684988e-01,-4.481477097159873857e-01,-4.350879829058880155e-01,-6.793062027888791855e-03,-3.793905444327775288e-03,1.572013806614908906e-03,1.663657724857330322e-01
-2.745672400680596592e-01,-4.528503111641217771e-01,-4.505868148745145740e-01,-4.042219526909804524e-03,-2.978745431464099348e-03,-3.878990564624145310e-04,1.773767769336700439e-01
-2.761850805186575886e-01,-4.425059140848027206e-01,-4.512224087170330078e-01,-2.475038078779688219e-03,5.514587621726018372e-03,-1.142363346322475661e-03,1.711778491735458374e-01
-2.703794631011853244e-01,-4.512052371388041716e-01,-4.481878055204218114e-01,-1.460381501418147199e-03,-1.843320410319712306e-03,-2.931142364538128210e-05,1.793823540210723877e-01
-2.739961255217712166e-01,-4.576131163496648391e-01,-4.604271116233315531e-01,-1.767715295690469287e-03,3.265375900776888132e-04,1.004012121847034722e-03,1.850744038820266724e-01
-2.767625053726338602e-01,-4.584783082117955821e-01,-4.536292703391174297e-01,-4.254396930786312307e-03,-2.837946581608523540e-03,7.231145445359201957e-05,1.795591115951538086e-01
-3.069086260058561111e-01,-4.300627976281093945e-01,-4.321386388945758217e-01,4.362784704115037736e-03,-3.289389072731364102e-03,-5.121462966210576194e-03,1.248805746436119080e-01
-2.885311264028455058e-01,-4.385921482324180998e-01,-4.357400608941872644e-01,5.446564022334943016e-03,-1.211402818408745382e-03,-1.605500526145989346e-03,1.489952653646469116e-01
-4.197828116680090149e-01,-3.748328026416638536e-01,-5.904308576445586043e-01,-1.573919858406753330e-02,2.507603206525501693e-06,1.585082254541773095e-01,3.390127420425415039e-01
-2.989904827886458727e-01,-4.703613736784223454e-01,-3.746618729450267860e-01,-4.170256220568139063e-03,-5.468537411172291404e-03,1.643662808666205340e-03,1.492523401975631714e-01
-2.930745340696759293e-01,-4.326778320117687371e-01,-4.310491817983280738e-01,2.432413364722447145e-03,-2.120894317549159398e-04,-5.809455927218942729e-04,1.388642042875289917e-01
-2.943505398753510915e-01,-4.199187609904923568e-01,-4.173389563485656595e-01,4.713056932243781492e-03,-2.447204897983306336e-03,-3.386733924022146403e-03,1.247762292623519897e-01
-2.927123388949400273e-01,-4.743059455746466702e-01,-4.161898459279277929e-01,-2.202082642134135532e-03,-3.471100589120341886e-03,-4.308219842225634896e-04,1.607838869094848633e-01
-2.768893104245173653e-01,-4.544634510429296781e-01,-4.519936358592622216e-01,-3.582656153829420157e-03,-2.568420941125326620e-03,1.826631736644685302e-04,1.765176951885223389e-01
-4.630790808662407776e-01,-5.647189928913978196e-01,-4.382566200271821311e-01,-2.082961211755815500e-02,2.607996093632702732e-03,-1.942161940852902557e-01,3.577032089233398438e-01
-2.709803901794293202e-01,-4.564502926327373977e-01,-4.583283518480320007e-01,-2.596055093289657140e-03,1.845172021886725897e-03,2.152362752060895496e-04,1.864980012178421021e-01
-2.721373593694232929e-01,-4.485648484411355885e-01,-4.491871935333711652e-01,-9.175302124493402980e-04,-1.485516305485577249e-04,-8.711025180673866608e-05,1.767468750476837158e-01
-2.692606124491580544e-01,-4.496134540915162070e-01,-4.476176002817295330e-01,-2.101341558914047482e-03,-2.096393190241116911e-03,3.808557072159145045e-04,1.794381290674209595e-01
-3.124606698005958361e-01,-3.461214499427598401e-01,-4.621849765648933239e-01,3.163831445281674575e-03,-1.418725654586909654e-03,-2.780750639512878652e-03,1.362712234258651733e-01
-3.183191252704785645e-01,-4.630533210583239190e-01,-3.613462498996697358e-01,4.933429517328240602e-03,-5.801018597476241892e-03,-1.379364093756476305e-02,1.315925121307373047e-01
-2.712074223903626624e-01,-4.516177031646321227e-01,-4.491438829247587083e-01,-1.455246512121367332e-03,-1.386009868988309591e-03,-2.702590345640209319e-04,1.792206019163131714e-01
-2.704552709885295614e-01,-4.507921143300324673e-01,-4.481162632067111629e-01,-1.127124708025296343e-03,1.337493740571784381e-03,-4.200875552814842370e-04,1.790410280227661133e-01
-3.027982076916012621e-01,-4.252440435775326488e-01,-4.226248327126275739e-01,-1.702233843705908568e-03,7.660200194436187675e-04,1.167959141173255692e-03,1.212174817919731140e-01
-2.721041469146021075e-01,-4.559568616936204855e-01,-4.522623737841537928e-01,-1.034811832597912554e-03,-6.293622270270335210e-04,-1.025181154654641858e-04,1.820457726716995239e-01
-2.776098451949658985e-01,-4.658011867941922457e-01,-4.578091059923150574e-01,-4.456448193215501764e-03,-3.486588685546781769e-03,5.933735474659783795e-04,1.845885068178176880e-01
-2.921344119795518668e-01,-4.499281991635506461e-01,-3.648302168146977387e-01,2.625945305044442477e-04,-5.895781694032468760e-03,3.974315901674961224e-03,1.373480409383773804e-01
-2.730992668817895375e-01,-4.604363629724818052e-01,-4.548934237774857614e-01,-8.872930483477315701e-04,-6.657808926081288346e-04,-1.360489446241393491e-04,1.846381872892379761e-01
-2.983281276393092707e-01,-4.731693810150090496e-01,-3.952156735588674974e-01,-3.846152432758242253e-03,-1.824935673344637438e-02,4.722548736406480957e-03,1.553290784358978271e-01
-2.780976071016966200e-01,-4.448655195636611603e-01,-4.452981126588447247e-01,1.626169746825364146e-03,-3.269397335876920736e-03,1.332069932272114936e-04,1.671045124530792236e-01
-2.717026035756179292e-01,-4.564633990251346640e-01,-4.468494326520029980e-01,-4.208413981369936961e-03,-3.590551895147233233e-03,6.215223533385126403e-04,1.804041713476181030e-01
-2.764869555463929096e-01,-4.596184614809254998e-01,-4.630168951549601952e-01,-6.636129829014998302e-03,2.192921822669089121e-03,4.379022332443120578e-05,1.852501183748245239e-01
-2.739480798979595511e-01,-4.642353373221824731e-01,-4.586666440919567878e-01,-3.205466858582753961e-04,2.307678596109572367e-03,7.611819621553259953e-04,1.876129508018493652e-01
-3.214007220243511043e-01,-3.920766968229214000e-01,-4.659664529201041350e-01,3.855026544282887102e-03,-3.921028885921143750e-03,-4.201340316075766711e-03,1.257802844047546387e-01
-2.715767199997050074e-01,-4.599516918173544022e-01,-4.575186581854360779e-01,-5.907646721008734392e-03,8.026767376828211620e-03,-3.128351979273953621e-04,1.879654377698898315e-01
-2.780072063362969970e-01,-4.645402277180104567e-01,-4.670080879510007388e-01,-2.486623029893314692e-03,1.508359708524204933e-03,1.949638163653189373e-03,1.878770142793655396e-01
-2.773740332859873092e-01,-4.653107057313108919e-01,-4.672474138118165032e-01,-2.035484353545549772e-03,1.655673636822104899e-03,1.726712072742057208e-03,1.889907866716384888e-01
-2.737429766042867585e-01,-4.568320296428988736e-01,-4.586904805326983414e-01,-8.972023029829008164e-03,7.474874664273930408e-03,-1.322269833465416523e-03,1.851477175951004028e-01
-3.084632210562400778e-01,-3.463600769267282664e-01,-4.658142465189650805e-01,3.163734244070012976e-03,-1.412993984822619479e-03,-2.780665207549715134e-03,1.424486637115478516e-01
-2.805414362405051487e-01,-4.663445956385980917e-01,-4.521862536839547642e-01,-7.403639208959026784e-04,-1.313104070051283011e-02,-5.889715133119544479e-04,1.805894970893859863e-01
-3.053829324086984043e-01,-3.775836903917413334e-01,-4.718642956473239058e-01,4.441496719686750805e-03,-5.834563712033523364e-03,-4.262874622689208186e-03,1.453435122966766357e-01
-2.965200384971627967e-01,-3.770878961594772427e-01,-4.457388498010469435e-01,5.599627806288942113e-03,-8.052754241069964847e-03,-6.246510222849762338e-03,1.309231072664260864e-01
-2.824495813771237263e-01,-4.763259318224213890e-01,-4.730977604850269413e-01,-6.626312202819298336e-03,1.331628230672320806e-02,-3.154146422419583720e-03,1.940776556730270386e-01
-2.785583565023191932e-01,-4.627515823997976341e-01,-4.419120008625340157e-01,2.905942726146801009e-03,1.371838075858621345e-02,1.527042905129499068e-03,1.764081418514251709e-01
-2.813623564615277406e-01,-4.676549266902524926e-01,-4.702683431707069817e-01,2.633791491939919266e-03,6.875991706494278036e-05,2.500744937851628446e-03,1.877184063196182251e-01
-2.736049467350200048e-01,-4.552218427836510206e-01,-4.508985309932647123e-01,1.442737454954856917e-03,-4.476426822763060844e-04,4.904442154672944334e-04,1.795153766870498657e-01
-2.849269937505404804e-01,-4.832659911120581464e-01,-3.348941313510462314e-01,-3.349116716105222241e-02,6.697592602500604397e-02,-8.197568322174010602e-02,2.625013887882232666e-01
-2.818228178611275059e-01,-4.681909421751520028e-01,-3.887994946041204436e-01,-8.400333206545410178e-04,1.901856082277185445e-02,1.591644626845474531e-03,1.653326302766799927e-01
-2.825220788370762515e-01,-4.812297821072513138e-01,-4.714467560216469844e-01,2.731795229690654921e-03,9.991516296077076684e-03,1.720857342930804312e-03,1.948518902063369751e-01
-2.737182198558794632e-01,-4.573375000383024802e-01,-4.383365590201081519e-01,-5.456819942057414621e-03,1.121789824601946914e-02,-7.928848234628032773e-03,1.767585724592208862e-01
-2.072058630320367245e-01,-3.705824760787740924e-01,-3.590557077920563112e-01,6.500081292882235739e-02,-8.696160551701362373e-02,-7.043679101840774615e-02,2.742041051387786865e-01
-2.734935501241806399e-01,-4.630953200578183937e-01,-4.302042601802697486e-01,-2.524235647180247868e-03,1.004945204432975900e-02,-3.482343597252813769e-03,1.765018999576568604e-01
-2.846114802884942008e-01,-4.506319414719307526e-01,-4.742551894309476879e-01,1.053469145351722432e-02,4.170062312737359868e-03,4.044356967763661562e-03,1.802136898040771484e-01
-2.991803227148299715e-01,-4.402784849040201065e-01,-4.787724671208884453e-01,1.808156829478841515e-02,1.286645912852145239e-02,1.327642689010999182e-02,1.697885841131210327e-01
-2.720815323522854934e-01,-4.586778008165197651e-01,-4.523974667818568274e-01,2.563618661244447080e-05,-2.679609379728459077e-04,4.299299768067593491e-04,1.835388094186782837e-01
-2.721861409628544282e-01,-4.518254180971720269e-01,-4.585661545155156338e-01,4.499400934966344984e-04,4.087626267751691064e-05,-2.434568894868608974e-04,1.831048876047134399e-01
-2.737799291403557045e-01,-4.566688035997216177e-01,-4.627815864100260912e-01,-6.054462284658566722e-03,3.308035611875600828e-04,-2.491871098740193317e-04,1.863173395395278931e-01
-2.770738693903966876e-01,-4.448619431375377964e-01,-4.600442908513763252e-01,-1.849291276536560013e-03,4.066218073165810132e-03,4.348830618681507969e-04,1.760431379079818726e-01
-2.738559932332541580e-01,-4.518290536783193811e-01,-4.600779633275497993e-01,-7.317481473375257207e-03,4.165678900684639634e-03,-3.602334516939623490e-03,1.829266697168350220e-01
-2.726781296683438160e-01,-4.566570317454408667e-01,-4.626193425033663376e-01,-1.020525851606540919e-03,-2.500667495538411015e-04,9.072338881561619705e-05,1.870402693748474121e-01
-2.719608192529491264e-01,-4.551750235303531067e-01,-4.607129363213978146e-01,-9.440362200804849630e-04,7.665590972889354702e-04,1.288611399720879821e-04,1.860570460557937622e-01
-2.715660826321653620e-01,-4.547792473056844198e-01,-4.564944917975183314e-01,-1.468235360945024113e-03,1.536691058285300599e-03,9.678692681705634458e-04,1.841212213039398193e-01
-2.688012742093559004e-01,-4.440688155857283603e-01,-4.577548967683586767e-01,-6.360399711148384191e-03,7.293800835953401359e-04,1.001263685912742794e-04,1.828325390815734863e-01
-3.059246591908932889e-01,-4.339527703153445160e-01,-3.489949558021937515e-01,2.224099961609911705e-03,-5.435393043971161083e-03,-2.607766644138991008e-02,1.219657436013221741e-01
-2.778610787041409513e-01,-4.527645232366587225e-01,-4.520821506539487999e-01,-2.116640896380454599e-03,-2.303439046339515132e-03,4.353207732965016477e-04,1.746489554643630981e-01
-2.710902387766642163e-01,-4.490960001671058244e-01,-4.484325013376413427e-01,-1.016280607498026541e-03,-1.508089524212800773e-03,4.808817570551141875e-04,1.777048110961914062e-01
-2.728545814783273626e-01,-4.505152142785066594e-01,-4.506778021827228531e-01,-8.412871836799432415e-04,-7.883578294925581379e-04,1.607575549938861678e-04,1.777534186840057373e-01
-3.144823788668740794e-01,-4.147172445658674489e-01,-4.322453564840692541e-01,1.754107571229477540e-03,-2.794068164457481733e-03,-3.612892448552518405e-03,1.103766337037086487e-01
-2.730028420063949079e-01,-4.496099968514946088e-01,-4.483698285484679635e-01,-1.041565743317081003e-03,-4.035061172113106262e-04,-1.997227499906870096e-05,1.760009825229644775e-01
-2.969080420666730391e-01,-5.635002456728247511e-01,-6.116732213797573259e-01,-1.583093393442419616e-01,1.354966469165561072e-02,-5.156900488871611621e-02,4.122487008571624756e-01
-2.754806811869947580e-01,-4.499416177844660081e-01,-4.469990126784710860e-01,-2.132167466896696135e-03,-1.578819399969085165e-03,3.954204457268368470e-04,1.730707734823226929e-01
-2.721182818109219581e-01,-4.604497022704290288e-01,-4.548935192573490549e-01,-9.151496158083213036e-04,1.091203098699998269e-03,-2.684568405633763690e-04,1.856326758861541748e-01
-2.736030107522371968e-01,-4.616844798067794020e-01,-4.563029456874009848e-01,9.955838231899266503e-05,-6.202303723801050935e-04,-1.311355150695264424e-04,1.854526102542877197e-01
-2.730009096799643209e-01,-4.615813933320488949e-01,-4.503651288915380690e-01,1.134004489788903967e-03,-2.421336586669749734e-03,-3.206279877395456774e-04,1.832893639802932739e-01
-2.720314706237481617e-01,-4.580122179938942995e-01,-4.538594008417321524e-01,-1.190011467120468108e-03,6.430097473946185752e-04,1.931228940603279675e-04,1.839547306299209595e-01
-2.736359245967197595e-01,-4.607221447044506646e-01,-4.558644698512623328e-01,6.056014616777482141e-04,-5.118700839917918102e-04,9.827084388519270177e-05,1.847104877233505249e-01
-2.714866807205973398e-01,-4.463051993441159437e-01,-4.460068759930385651e-01,-4.608117990938073358e-04,1.487709924078589293e-03,-2.306814083252795087e-04,1.746908277273178101e-01
-2.957749771993409826e-01,-3.884633089437239395e-01,-4.346050415885165386e-01,5.962526840868692061e-04,6.029388871750590226e-03,-5.755681184813370675e-03,1.233146265149116516e-01
-2.724150999570910670e-01,-4.594054160566284351e-01,-4.506722889908198471e-01,7.639710598415001440e-04,-2.733808629921465581e-03,-7.885793732871322972e-05,1.828464567661285400e-01
-2.963352146178644952e-01,-4.696166139592410360e-01,-1.747469880440861156e-01,6.581166543912469157e-03,1.019646650158929357e-01,6.256805314094535109e-02,3.300662338733673096e-01
-3.368083934438054761e-01,-5.116612557052581112e-01,-3.427567902037046421e-01,2.969274288219901550e-03,2.360268842644720755e-02,-5.421361275762650103e-03,1.770725697278976440e-01
-2.793719919406291163e-01,-4.545966799467921482e-01,-3.878996347476673101e-01,-9.682540613988623729e-03,1.810262311149676492e-02,-4.042597583551225775e-03,1.574122458696365356e-01
-3.126263835881548658e-01,-4.784459365626987370e-01,-4.036995125456818712e-01,-4.523836649187137904e-03,1.879757381213302200e-02,3.625262422046615727e-03,1.478161066770553589e-01
-2.854711108954808285e-01,-4.529480838460414049e-01,-3.969416326795193739e-01,-1.175370751597394799e-02,1.911882125370735139e-02,-3.182257769729416891e-03,1.527968794107437134e-01
-3.064271343644489054e-01,-4.215786979152023051e-01,-4.257446711189853406e-01,-3.874387518492621014e-05,-8.988289571759443611e-04,2.008931323767301422e-03,1.173520013689994812e-01
-3.854188827878113344e-01,-3.517555103248671822e-01,-5.600216448021523297e-01,7.897301877785450896e-03,-3.542189432784760995e-03,3.577811407009086342e-02,2.038676738739013672e-01
-2.840137621548596836e-01,-4.327192436197182523e-01,-4.254550343233594600e-01,-5.553323945457776939e-03,1.792348977966038261e-03,-1.767701076033678263e-03,1.455932408571243286e-01
-2.902437927275899332e-01,-4.617707442772918114e-01,-3.953979707845874936e-01,-5.593595799809746895e-03,1.215693172183737389e-02,-3.329072475945251720e-03,1.516990661621093750e-01
-2.701464901144600694e-01,-4.917053744711347152e-01,-4.952247395561101273e-01,7.734894171145493148e-04,-1.034552720303186452e-03,7.444159020889054047e-03,2.237224280834197998e-01
-2.964788842354019183e-01,-4.698085568723149308e-01,-3.485394436759137737e-01,1.891278150914941060e-03,2.638056609910718192e-02,3.092692067582000076e-03,1.608013212680816650e-01
-3.362098758681571486e-01,-4.973801017946110070e-01,-2.821282232702806425e-01,-1.190763700647682645e-02,4.399044394965992595e-03,-9.721200300468194749e-03,1.959182322025299072e-01
-2.717260178530974679e-01,-4.370921116563601383e-01,-4.536196252189873546e-01,1.581491846801382026e-03,-2.650141743455613000e-03,-1.999691192902536881e-03,1.743352115154266357e-01
-3.177408957875592077e-01,-4.718611979885323215e-01,-3.326984893047092440e-01,1.347816255281823186e-03,7.081632495654342253e-03,9.864714558723607432e-04,1.477509588003158569e-01
-2.863769280722264221e-01,-4.744648305401255595e-01,-4.709716988760022649e-01,8.694268030680881235e-04,4.201397567544199949e-03,-5.983221541786882440e-04,1.865168660879135132e-01
-3.200156435504169505e-01,-4.712174263191364898e-01,-3.404604393083257019e-01,2.531353017295016081e-04,6.278243323393802380e-03,-2.198635428131441756e-03,1.425539255142211914e-01
-3.114547497365863782e-01,-4.699520127144503068e-01,-3.369212420010673226e-01,-1.639033201592173970e-03,2.007694983109758503e-03,8.423414808367367780e-04,1.474985927343368530e-01
-3.102849502633602263e-01,-3.373866774591146034e-01,-4.647045421326347903e-01,-2.636130777430048706e-03,-1.851155920540552800e-03,3.591046862841719596e-03,1.430548578500747681e-01
-2.706104504200328442e-01,-4.598608860660531317e-01,-4.536012348592878274e-01,-5.122440347218602851e-04,-4.639528950059328973e-05,-7.829128442478798045e-04,1.862066090106964111e-01
-2.738789976117828040e-01,-4.627436240002215651e-01,-4.574290123188506363e-01,-9.342263246128964822e-04,-3.827403295304819281e-03,-6.686982672336582844e-04,1.863927543163299561e-01
-2.718587150794804508e-01,-4.601296811693624256e-01,-4.555972735786702477e-01,-8.084056928303598108e-04,-9.937337036922545396e-04,-2.416966746165125665e-04,1.860598772764205933e-01
-2.689451773699844117e-01,-4.554284139196836390e-01,-4.457911451810827597e-01,-1.545812259159546178e-03,-3.182033386010895033e-03,-2.778607470944353605e-04,1.819600611925125122e-01
-2.696112136873386467e-01,-4.516074580222732004e-01,-4.427188029213429132e-01,-5.439727133722927800e-03,-5.813353688136666843e-03,1.296112126797573615e-03,1.782670319080352783e-01
-2.765564800018240343e-01,-4.314241359242901308e-01,-4.412884541412255279e-01,-3.980713576734410536e-03,-8.048335317796062247e-03,1.906223015987477910e-03,1.608158200979232788e-01
-2.727328707102268934e-01,-4.537008659941333955e-01,-4.522283375309938402e-01,-1.260439474735118321e-03,-9.881212375221727282e-04,-3.834293011967711013e-04,1.802588105201721191e-01
-2.696000363038842940e-01,-4.525247737958199568e-01,-4.485626840870373111e-01,-1.487862254815338703e-03,-1.684668674041048296e-03,2.353006655789432783e-04,1.810185462236404419e-01
-3.052491770114768022e-01,-4.195641439564018471e-01,-4.211025157943229513e-01,8.527275101807748605e-04,1.567221574149099523e-05,-8.607686743157454221e-04,1.151110008358955383e-01
-2.701863909153464638e-01,-4.542130308683829387e-01,-4.490205930857419370e-01,-1.149845563912388390e-03,-1.373916298149879334e-03,2.023401430374803560e-05,1.815126687288284302e-01
-3.008957300339624163e-01,-4.196023069151451068e-01,-3.897992675814847541e-01,9.974763011576686430e-04,-6.561689340752670544e-04,-7.283274906574486660e-03,1.077268347144126892e-01
-3.084370801959085973e-01,-4.366146140234348216e-01,-3.710799657860033851e-01,-8.451406444628543685e-04,1.278524538055529180e-04,-1.176355460220706965e-02,1.128784120082855225e-01
-2.696621108489714036e-01,-4.499049991844178420e-01,-4.539424319651990114e-01,3.685847384644956419e-05,-1.684528507156475476e-03,1.009194292688063877e-04,1.823185831308364868e-01
-2.748784467963810152e-01,-4.590315751570817615e-01,-4.479483252616381916e-01,2.907295116810883293e-03,-7.007187266773261909e-04,8.821760726274382753e-04,1.789507269859313965e-01
-2.909298978621932541e-01,-4.261109891154728491e-01,-4.240032396701572392e-01,2.933014974242939207e-03,-5.570409239644105899e-03,-3.206893156375243206e-03,1.346966624259948730e-01
-3.047469802941461525e-01,-4.259085872938627726e-01,-4.234158663905477904e-01,2.562504473262005710e-03,-7.910963243423155137e-04,-8.302387227300345261e-04,1.200332120060920715e-01
-2.904080966848162082e-01,-4.303574588993266392e-01,-4.275522623480744744e-01,3.182803822105023921e-03,-7.202026541997545630e-04,-6.373428280279023724e-04,1.386876851320266724e-01
-2.945607244995015472e-01,-4.185827879905043014e-01,-4.211199142361360392e-01,1.737366264825004978e-03,-4.573463848685776004e-03,-5.301340247114438159e-03,1.259312778711318970e-01
-3.063802406811487744e-01,-4.224039218859725331e-01,-4.187077510729207974e-01,4.616867640789323380e-04,7.109782169963683790e-04,1.447791863637807241e-03,1.142574176192283630e-01
-3.097825715358192289e-01,-4.262459197501009545e-01,-4.254968025308482060e-01,3.245203018048619346e-03,-2.309002580349116089e-03,-7.823750766087364528e-03,1.170822381973266602e-01
-2.997648589533344343e-01,-4.190474582413639681e-01,-4.140308779161366304e-01,2.957880735682180077e-03,-9.445479909489771803e-04,-5.093589221031139501e-03,1.173110008239746094e-01
-2.856431968534408616e-01,-4.308691303922638771e-01,-4.326194035367372792e-01,-8.788769492484164222e-04,1.097623968244229847e-03,4.541249834890605675e-04,1.461313515901565552e-01
-2.841746426929208091e-01,-4.313114058614424540e-01,-4.452842805179081376e-01,-3.181635062930608573e-03,9.889508036259654980e-03,-1.928875328316599419e-03,1.556770056486129761e-01
-2.912108904738762716e-01,-4.364886244528524695e-01,-4.528784252324937754e-01,-2.691830043255303943e-03,7.447697472510970106e-03,-1.444510428940384708e-03,1.547569781541824341e-01
-3.099796161387320392e-01,-4.222504818891846812e-01,-4.200982126671921613e-01,5.122025484789984517e-04,-2.420309841637498292e-04,-9.953004499135484351e-04,1.112280413508415222e-01
-3.034695486402814169e-01,-4.117246281833895627e-01,-4.173197906790243050e-01,4.958607434443681192e-04,-1.346965644755998039e-03,-6.130984336424147134e-03,1.116920784115791321e-01
-2.680887967597426758e-01,-4.401455700363684498e-01,-4.547787580225909898e-01,8.063845567273346393e-03,-4.604223574191579869e-03,-7.668683724565909365e-04,1.805431842803955078e-01
-2.731724647750987667e-01,-4.486174042890071489e-01,-4.598439540823854310e-01,3.865986507354816654e-03,-3.773897495750819751e-03,-2.535848475482735376e-04,1.815609037876129150e-01
-3.109125672429040588e-01,-3.961419573009131723e-01,-4.426798657150151639e-01,-7.199930285417573258e-04,3.183411305093533043e-03,-6.731787844256946832e-03,1.164651513099670410e-01
-2.894224709342044788e-01,-4.452021368875405671e-01,-3.938449036982296092e-01,-1.755315586244606679e-02,3.718484678316016229e-02,-2.985880984928411877e-02,1.632531136274337769e-01
-2.742799388012334139e-01,-4.598354454639815292e-01,-4.606306162959811767e-01,8.768811136787102098e-03,-4.859359632915135827e-03,-6.786098782457395274e-04,1.867670267820358276e-01
-2.662881897561632516e-01,-4.360649138884807319e-01,-4.507394310570542739e-01,1.527233457594192982e-02,-1.112912322982126390e-02,-6.130735786282147902e-03,1.808726936578750610e-01
-2.740489261671208987e-01,-4.535137685709791366e-01,-4.579136873737339464e-01,4.293300405967262305e-03,-4.048661972974668122e-03,-7.705062860274024044e-04,1.819968968629837036e-01
-2.360832351500311010e-01,-2.968353121184499899e-01,-2.485631339285090946e-01,-3.033981186814068559e-02,-5.392706603294369211e-02,1.525279976468575660e-01,2.904628217220306396e-01
-2.730064885470261937e-01,-3.109233931577515264e-01,-2.677477054966012071e-01,-6.586667471423324205e-02,-4.925500347934406303e-02,1.569167565184591828e-01,3.095589876174926758e-01
-2.786185403651574854e-01,-2.920266152261642989e-01,-3.793187032769897993e-01,-7.318908966025686365e-03,-5.323640228384716663e-03,6.132134341414231110e-02,1.431668549776077271e-01
-3.240879571761817735e-01,-4.822758349578177839e-01,-4.656550929785960302e-01,-4.798078389703219065e-02,-4.360063924956875808e-02,7.278878778465315558e-02,2.262180149555206299e-01
-2.802579808779727677e-01,-4.661524567226703608e-01,-4.680606154970564647e-01,-3.287945907599896297e-03,5.679967398679694902e-04,-3.928811532754144229e-04,1.869464516639709473e-01
-3.055183424312739593e-01,-4.185803155046340929e-01,-4.507450097116943999e-01,2.135623281694139924e-03,-9.140329295301690207e-03,-4.959489002140451096e-03,1.333877444267272949e-01
-2.875814080668844808e-01,-4.335408105985987248e-01,-4.435793752483011554e-01,6.168595792600720757e-04,-6.773139684647371851e-03,-1.057208934910614006e-03,1.516979336738586426e-01
-2.877704352709882230e-01,-4.316311534643170189e-01,-4.501117027511510327e-01,2.341609153505385624e-03,-6.610877476058796796e-03,-2.833861582436111512e-03,1.544917970895767212e-01
-2.884267288557578190e-01,-4.857931751316516000e-01,-4.983652907008943589e-01,1.189472723483546261e-02,4.160591362105153963e-03,1.974366452581402878e-03,2.051364630460739136e-01
-2.913839415236687547e-01,-4.370651157523703922e-01,-4.476612579503371769e-01,-1.307854370072868404e-03,4.971205300513282035e-03,-6.315735545517074711e-04,1.515236198902130127e-01
-3.070174677374350458e-01,-4.197758004699113643e-01,-4.139185097943114955e-01,-4.916780048913095297e-04,5.946486577136022526e-04,3.740801381610895423e-03,1.101456210017204285e-01
-2.731830987217560569e-01,-4.415765928828197517e-01,-4.408915589226004572e-01,5.338054323581946023e-03,4.720190587119996693e-03,2.657211728744854427e-03,1.685674637556076050e-01
-2.833572796108723146e-01,-4.427657019554497309e-01,-4.411552321583876446e-01,1.655458043938670687e-03,1.971871090919480318e-03,1.399812935032260502e-04,1.586721837520599365e-01
-2.896747288238800677e-01,-4.326908313214786195e-01,-4.512944756671171120e-01,2.341200281849204444e-03,-7.125882458447472742e-03,-2.837412226694547342e-03,1.537961363792419434e-01
-2.743631440003777566e-01,-4.360757009619314895e-01,-4.491397238171219719e-01,2.384271221417157485e-03,-5.834980013641600897e-03,-6.253304209179030490e-05,1.689776480197906494e-01
-3.261399860974862897e-01,-3.784717199451309022e-01,-4.709650931783307404e-01,6.171904349737984685e-02,2.370750123562669412e-02,3.859115491313671459e-02,1.836182475090026855e-01
-2.717400543239206767e-01,-4.539122339979504983e-01,-4.469543477920587815e-01,-3.934941257211163786e-03,2.492970160385587792e-03,-7.297566126983482445e-04,1.789812147617340088e-01
-2.847411305103288437e-01,-4.203911108179209100e-01,-4.589792360843918950e-01,2.468256517799385236e-03,7.771862517837623734e-04,-3.034729985263867353e-04,1.585711389780044556e-01
-2.749764503456865183e-01,-4.471630020225121904e-01,-4.468030486723629791e-01,1.226805271984536972e-03,1.984084816572271280e-03,2.636200778670016380e-04,1.720549166202545166e-01
-2.779337059257214193e-01,-4.440310289452917836e-01,-4.444815211144176881e-01,1.364335608337214527e-03,3.251074763662069843e-03,-6.948113810574857354e-04,1.664394438266754150e-01
-2.780313841819556653e-01,-4.438022254916569320e-01,-4.444156837685977468e-01,1.094480092856895239e-03,-3.384670636394972957e-03,5.820790672193020595e-04,1.661957204341888428e-01
-2.856726782610914395e-01,-4.426862351540984397e-01,-4.426841520917604855e-01,2.799783761775754155e-03,-1.609981862158960456e-03,9.943685707167837322e-05,1.571122258901596069e-01
-3.066715844914931210e-01,-4.108122617430172707e-01,-4.284683728639686051e-01,7.330927089519867100e-04,-8.868518954221359845e-04,-3.546619773576355304e-03,1.141816377639770508e-01
-2.915164402499949570e-01,-4.271025215724895130e-01,-4.521793819888039745e-01,1.387779738435301891e-02,-9.469494766805860303e-03,-9.755368062156922343e-03,1.534431576728820801e-01
-3.005673546346990799e-01,-4.142450611566101393e-01,-4.435736235484534218e-01,2.206299794459884271e-03,-7.099944702080069822e-03,-4.723607053888120855e-03,1.317177265882492065e-01
-3.170449565517992063e-01,-4.291181607437716261e-01,-4.358573184107234488e-01,-6.286582120041963109e-03,6.361853178102147392e-03,-1.692081569041247596e-02,1.202498376369476318e-01
-3.059972567455084835e-01,-4.326642937586689941e-01,-4.396297827742827735e-01,1.107514069886245296e-02,-1.529425977599975159e-02,-2.281286364427346364e-02,1.400226950645446777e-01
-3.068799277247474810e-01,-6.211165990517124591e-01,-6.516029180544280486e-01,3.437928623140381473e-02,4.993869532180694737e-02,3.862972551000620064e-02,3.532112836837768555e-01
-2.497702118541294536e-01,-9.367317482533749073e-02,-4.266854912718170412e-01,7.754866710594278401e-02,-1.127712368249109837e-02,-1.468491900752825693e-02,3.199235796928405762e-01
-2.902914756081113601e-01,-1.464841348469158588e-01,-4.308906631394965325e-01,1.871947819122595641e-02,1.427493985272471630e-03,-7.190530148379872810e-02,2.779143154621124268e-01
-2.896781158967485781e-01,-5.384163252870703964e-01,-5.444068848983664166e-01,3.936144365011034346e-02,2.201282643628402029e-03,5.883634365139805110e-03,2.610805034637451172e-01
-2.184025799573789672e-01,-1.166496974628309230e-01,-3.257136604451372763e-01,6.939592579801186212e-02,-2.408133244390971150e-02,-1.280486080945446303e-01,3.133129179477691650e-01
-2.697342178506401122e-01,-4.466161115495033695e-01,-4.519788236245919633e-01,6.696845505400778401e-03,5.671766021351788353e-03,7.753142512707826475e-04,1.802702993154525757e-01
-2.692817104796482175e-01,-4.518353211661038649e-01,-4.644933906585502759e-01,1.109977911335484173e-02,-3.428671138791110438e-03,-1.628873449787679190e-03,1.902883797883987427e-01
-2.696278145104454849e-01,-4.530329795892776845e-01,-4.581087040319350434e-01,3.282233707275438155e-03,2.224789415730949252e-03,-4.230182747796348987e-05,1.861217468976974487e-01
-2.724165132426284441e-01,-4.594742313561831493e-01,-4.633325259966415977e-01,2.646086653132507464e-03,1.555757855025586200e-03,-5.718017692552837495e-04,1.890937536954879761e-01
-2.733533415038084113e-01,-4.535179654706030794e-01,-4.608763099032490707e-01,3.494687591069577624e-04,1.980898616939269941e-04,2.507721355013302258e-04,1.839560419321060181e-01
-2.741289153077642871e-01,-4.519595499107013636e-01,-4.556070502092287033e-01,3.570578435359912000e-04,-2.711228882525038714e-03,4.997472665719828692e-05,1.797445863485336304e-01
-3.117690133235861416e-01,-3.632070411192847570e-01,-4.354459008608080883e-01,-4.186915085186473581e-03,-4.322301103726048331e-03,1.936045271663476217e-02,1.131957024335861206e-01
-3.196158780481781481e-01,-3.586436097255616962e-01,-4.543974094963214583e-01,2.548912653843030574e-04,-4.387055340944177352e-03,7.864154128620069392e-03,1.211299970746040344e-01
-3.293520327522141411e-01,-3.494190481873499232e-01,-4.890992119835326779e-01,-8.452322824491072598e-03,-3.513993969400973100e-03,6.206986764278591556e-02,1.858105808496475220e-01
-3.013362856834890247e-01,-4.210975327979227800e-01,-4.329750420401533018e-01,-1.570070474333390290e-03,6.731225696542887139e-03,-4.364294289301910018e-03,1.269124150276184082e-01
-2.774410219524539034e-01,-4.369150813889771667e-01,-4.275743661993757216e-01,-1.200110869168972451e-02,9.449619664774595862e-03,-8.181432956435332610e-03,1.578936278820037842e-01
-2.744978765202026882e-01,-4.486334425348615373e-01,-4.452589060710457902e-01,-4.050974781217689218e-03,1.584491675701056460e-03,-1.298813788544175493e-03,1.726521998643875122e-01
-3.655524952355898582e-01,-3.792607972902666269e-01,-5.236330205794533788e-01,-4.049671177649417919e-02,-1.395256875336603995e-02,4.817395001870308086e-02,1.883521080017089844e-01
-3.141101340612001414e-01,-2.858051260709352226e-01,-4.679925517903854582e-01,-2.305224017228826860e-02,-1.627776816799106352e-02,2.328756009362080784e-02,1.812530308961868286e-01
-2.728392707616306145e-01,-4.456147566292356088e-01,-4.492584049520555456e-01,-1.880095342514878252e-03,3.901298054871209665e-03,-8.467758903007315983e-04,1.747930049896240234e-01
-3.179540969850854770e-01,-3.390685711194696417e-01,-4.624781858147108959e-01,-2.317487869604695997e-03,-1.552603884606108256e-03,1.640791758594950522e-02,1.382479220628738403e-01
-3.141176293800367336e-01,-5.206038007766689013e-01,-4.848138423882183412e-01,-2.733147199054570403e-02,6.038589927556755471e-02,-3.489168340304767135e-02,2.309978753328323364e-01
-3.120421141709631696e-01,-4.125438078161722255e-01,-4.308751054029201777e-01,-1.660859130147331324e-04,1.757896648644141765e-03,-4.674300083612175499e-03,1.111478954553604126e-01
-2.776661586167396001e-01,-4.721371992395997363e-01,-4.627147841966173236e-01,-7.498501267456316073e-03,1.080448410941543466e-02,-9.154378994051966950e-03,1.919522881507873535e-01
-2.773674239127374985e-01,-4.796302495005901889e-01,-4.423304649804227218e-01,-3.612636086817674202e-02,3.499446800691497633e-02,-2.170767771245174158e-02,2.091889381408691406e-01
-2.921171883815262271e-01,-4.748793202144315773e-01,-4.253870312300498946e-01,-3.752868196066170593e-03,5.443981507846853626e-03,-3.246901042545580728e-03,1.642222851514816284e-01
-3.095929354422891633e-01,-4.123043125113383667e-01,-4.322460577566228368e-01,-6.391207251678293969e-04,1.923194345029039225e-03,-4.304612953475740397e-03,1.142954751849174500e-01
-2.703704677612617235e-01,-4.523839476353938016e-01,-4.430465047383312371e-01,-5.250457695907376036e-03,6.474878166987407292e-03,-3.076792306771266011e-03,1.781949102878570557e-01
-2.848158122373772860e-01,-4.623544092316761445e-01,-4.215944173708208176e-01,-6.344657578515365895e-03,2.642085859766831694e-03,-1.393629160053722624e-03,1.615313887596130371e-01
-2.743154327678886117e-01,-4.591498383893999335e-01,-4.236111478964565968e-01,-8.644863281715172917e-03,7.194069387553185708e-03,-3.770764437051269107e-03,1.711142957210540771e-01
-3.013724970414814464e-01,-4.226130371649208239e-01,-4.381840755969539369e-01,1.653402645260488918e-03,-7.791634815102952555e-03,-1.708811042635356801e-03,1.304938942193984985e-01
-2.990790783525748564e-01,-4.721665603809792056e-01,-4.745506334424612893e-01,3.046927094602636544e-03,-1.301476935167516754e-04,-8.570541762277933146e-04,1.743780970573425293e-01
-3.156233849277886860e-01,-4.484815929670699086e-01,-3.608826974101793095e-01,-2.051486594946195976e-03,-3.834916450361360030e-03,4.001742732441387895e-03,1.174369007349014282e-01
-2.752348184113284635e-01,-4.481698126677494121e-01,-4.290820140775449820e-01,-5.977218544060432411e-03,5.261341813717568261e-03,-1.582337380353280405e-03,1.648261100053787231e-01
-2.855882441932320326e-01,-4.299058447602817079e-01,-4.360700419836557873e-01,8.698314813934365612e-04,-5.127368933148671384e-03,-2.023030651681217550e-03,1.478126794099807739e-01
-2.969737779624937457e-01,-4.239508883785236271e-01,-4.220684837798315270e-01,-1.298133793728879206e-03,3.398134311033249207e-03,-1.682397697113940981e-03,1.262374669313430786e-01
-2.667717236592503371e-01,-4.539839869991033616e-01,-4.428281866052431459e-01,2.707215373347296884e-03,-5.333356519860123733e-03,-3.272680495697839038e-04,1.821867823600769043e-01
-2.737145540241902597e-01,-4.625189251628669673e-01,-4.559013080890238490e-01,3.150195422351132531e-03,-7.588594778119284873e-03,4.643915156523339082e-04,1.861306726932525635e-01
-2.809367712433366027e-01,-4.578476720401160049e-01,-4.301354071069456442e-01,9.375691952568463577e-03,-8.512174113869014000e-03,-2.001975357796674255e-03,1.663007587194442749e-01
-2.740198648097175171e-01,-4.623684785044265833e-01,-4.576382515109840843e-01,2.807522992080894227e-03,-7.186457152098343730e-03,1.813864357110304211e-04,1.865082383155822754e-01
-2.715340813581396118e-01,-4.537693653032328633e-01,-4.602353576913705835e-01,-1.466838690021643596e-03,2.274590837446045452e-04,1.482234890268967567e-04,1.855707764625549316e-01
-2.724628899398442994e-01,-4.519808693961031576e-01,-4.643408369990978946e-01,-4.265393250199468918e-03,-1.023271140145596159e-03,-1.595850935355422025e-03,1.861818283796310425e-01
-2.898272660196214434e-01,-4.357578566395817199e-01,-4.258860724267792275e-01,6.583510148502969353e-03,-3.193663096067925981e-03,-1.736216501708761403e-03,1.418529599905014038e-01
-2.699380586279811478e-01,-4.524807879463350058e-01,-4.582540094288878874e-01,-1.137015817074392638e-03,-3.882403297332520783e-04,-1.425352916548024444e-04,1.855085641145706177e-01
-2.956025771667764035e-01,-4.163209111234447701e-01,-4.267643466193209445e-01,1.584393430202313355e-03,-4.877085670797695789e-03,-2.972097254574285630e-03,1.266810297966003418e-01
-2.718544847939668996e-01,-4.491872329239620099e-01,-4.506099717172709629e-01,3.729401800105600507e-04,-1.456467183904685886e-03,2.326550300097321542e-04,1.780678778886795044e-01
-2.722890064014499290e-01,-4.530865376842320713e-01,-4.601850009373588124e-01,-2.932601050240524914e-04,5.457002627064040309e-04,1.040139145347779531e-04,1.844524443149566650e-01
-3.086849421399132098e-01,-5.508904740684802404e-01,-5.163425171125420876e-01,9.110288211651386761e-03,4.206634218461847985e-02,-4.131577527795675213e-03,2.389525175094604492e-01
-2.967715964670697426e-01,-4.244769845756753979e-01,-4.229778994463815334e-01,1.346020802483979080e-03,-6.482943986020684498e-04,-3.755156139055636986e-05,1.269888728857040405e-01
-2.730159349892478660e-01,-4.482945713782799380e-01,-4.457709951724278530e-01,2.139910490182522253e-03,-1.382299742641394588e-03,-3.337767857716564387e-04,1.740874648094177246e-01
-3.304072335222667522e-01,-6.774719698878366447e-01,-5.945125206035967169e-01,7.394802356380110464e-02,8.016655075485777660e-02,6.040707388552719187e-02,3.810195624828338623e-01
-2.997523072530643429e-01,-4.804493852104620988e-01,-4.740588837304861580e-01,7.914950039393960340e-04,-1.922002916319596934e-03,-2.291610592554583657e-04,1.776250153779983521e-01
-2.382322739384857280e-01,-4.645818708945446129e-01,-3.701500623339215590e-01,3.804313680177790619e-02,9.911041203731749127e-02,7.715127109236891156e-02,3.007396161556243896e-01
-2.728445382719152934e-01,-4.627320121716860801e-01,-4.524314531171085285e-01,7.628124449948915815e-03,1.164345925185753493e-02,5.004215160706006020e-03,1.867185235023498535e-01
-3.255228722098027494e-01,-5.474920749023657329e-01,-4.920694608880942789e-01,1.596248416743668505e-02,6.890255807544773403e-02,1.859527865005094691e-02,2.368212938308715820e-01
-2.710342594504461800e-01,-4.655358573566960034e-01,-4.587160477356156396e-01,6.634807966506077806e-03,1.480085350345573467e-02,-1.900594347046532053e-04,1.932363361120223999e-01
-3.770601565394995358e-01,-4.742312070394819612e-01,-4.410991818636021411e-01,6.504211574874105978e-03,-1.223073373796913429e-02,-9.052357726166201934e-02,1.802212893962860107e-01
-3.328480243775492897e-01,-4.666673478500124039e-01,-3.959747244205071848e-01,-9.970631460450986132e-04,2.364486629443195327e-03,-3.300225736730450637e-02,1.293530911207199097e-01
-3.119824851703401625e-01,-4.256920910844301797e-01,-4.009957464849138176e-01,1.229546143792853907e-04,-5.496919787400565173e-03,-1.133662500725368324e-02,1.058670058846473694e-01
-3.235339347968650414e-01,-4.522131820047877726e-01,-4.082684719082295133e-01,3.332552695600755292e-03,-7.088270367062740260e-03,-7.041404686211068242e-03,1.147497594356536865e-01
-2.991035903537173080e-01,-4.151008050914699599e-01,-3.869772008464150148e-01,-7.356863577062923648e-04,4.529184509859436472e-04,-9.444799825349237121e-03,1.060843169689178467e-01
-2.958776608580451772e-01,-4.202119360669837600e-01,-3.597803417246159818e-01,-5.766195002361060133e-03,3.363071970542533522e-03,-1.673791462577700964e-02,1.121223568916320801e-01
-3.116965009292758104e-01,-4.439109435740470899e-01,-3.777139356551322269e-01,1.957656139158468062e-03,-5.161089014146576920e-03,-1.680751421635004114e-02,1.185301095247268677e-01
-3.104873739485989326e-01,-4.427250889232645092e-01,-3.826272274095346981e-01,-1.748401294530455919e-03,4.496252121629336872e-03,-1.468018594008191173e-02,1.177612245082855225e-01
-2.774680173738662825e-01,-4.481792167938779547e-01,-4.247792124259204272e-01,-1.261108924040947078e-02,1.341713690580349262e-02,-8.006133271897556899e-03,1.640265285968780518e-01
-3.287673528106085930e-01,-4.601932155213757647e-01,-3.755423114804717355e-01,-2.704381851498227282e-02,2.833485652416438058e-02,-7.042517134760581388e-02,1.810939759016036987e-01
-2.790315792198155287e-01,-4.576918576275496586e-01,-4.528179096371575119e-01,-1.480530536011411685e-02,1.726481087710740950e-02,-5.399506710663246230e-03,1.808638870716094971e-01
-2.968109978951153360e-01,-4.515200187553103373e-01,-3.516092586441669776e-01,-9.833245532349042459e-03,1.963559462734361730e-02,-2.777262304085677952e-02,1.490659266710281372e-01
-2.933553060370692744e-01,-4.479144375346160722e-01,-3.485275527848808452e-01,-1.058703201732649757e-02,1.241418551569002139e-02,-1.442987860702611355e-02,1.408132910728454590e-01
-3.079775767684431176e-01,-4.367468317957042268e-01,-3.699131818675022165e-01,-3.789241099340865011e-03,1.343600357960127384e-03,-1.268359313083043498e-02,1.139001771807670593e-01
-3.181154108484934850e-01,-4.621881740384136128e-01,-3.712394115039636122e-01,-1.338285206334791956e-02,7.999740075024427619e-03,-3.235848254215954040e-02,1.406979113817214966e-01
-2.872283140039094129e-01,-4.494810749155240259e-01,-4.307305227980654516e-01,-7.669541266904829173e-03,1.634151189743642809e-03,-1.190352531495594271e-03,1.543500572443008423e-01
-3.041124702687015846e-01,-4.496747049546351294e-01,-3.508320440107579596e-01,-5.076010497114467369e-03,7.301518889639721163e-03,-1.595800001660234446e-02,1.325582265853881836e-01
-2.751853806709133599e-01,-4.437850020887308400e-01,-4.451898691159437149e-01,-1.394955933863998307e-03,1.666183585651082001e-03,-1.417929772138048442e-03,1.693660616874694824e-01
-3.051292480027051335e-01,-4.264623537952633159e-01,-4.182636137025623757e-01,2.949631564734139962e-03,2.259948040559058187e-03,3.800753883397125447e-03,1.178088411688804626e-01
-3.081870804705114653e-01,-4.185787328744858815e-01,-4.216557043931745130e-01,-6.400884923219885437e-04,7.556400330568685715e-04,-2.072406653565549064e-03,1.120325103402137756e-01
-3.044022348778835374e-01,-4.473883627798068696e-01,-4.185252456355226802e-01,7.841469166090261553e-03,2.014586322641255794e-03,3.707258477569157998e-03,1.318672001361846924e-01
-3.090560033102504045e-01,-4.213091246332957285e-01,-4.199050419356909480e-01,-1.181430847330397060e-03,1.876930326017482937e-04,1.742462042298988491e-03,1.116177588701248169e-01
-3.082210339677273203e-01,-4.194589192620675200e-01,-4.239054720766712303e-01,-5.328022225477522253e-04,3.662063727118721585e-04,-2.286147400842084877e-03,1.136010438203811646e-01
-3.082411526283814762e-01,-4.282274204313536448e-01,-4.251742166893515695e-01,2.744073746265486557e-03,8.328038397378570651e-04,1.329839362204159872e-03,1.186155974864959717e-01
-3.023666313307771247e-01,-4.071276636498559198e-01,-4.121888560169500448e-01,8.952581248166771892e-04,1.145021691957291135e-03,5.351339496138615530e-03,1.078098043799400330e-01
-3.116457867926815672e-01,-4.343886949277573351e-01,-4.324723393652102899e-01,3.152844770847372611e-03,5.638305438094449312e-03,6.679546641880718463e-03,1.228548586368560791e-01
-3.098795541951366861e-01,-4.231818814866987744e-01,-4.266391252495154163e-01,6.490147182956315826e-04,-1.685942562933437664e-03,-1.160572881660689674e-03,1.151299923658370972e-01
-2.947390118642288503e-01,-4.263300636117139941e-01,-4.248637367253988439e-01,4.903159987855430953e-03,7.171923927250066846e-03,7.574950577762992396e-03,1.323781311511993408e-01
-2.950392801443804114e-01,-4.225717567070372827e-01,-4.164342532819529374e-01,3.189597619966467231e-03,1.384824889752865997e-03,4.080897935216464163e-03,1.249227970838546753e-01
-2.929256696934054993e-01,-4.326871708130513028e-01,-4.304466526316155783e-01,2.860644040181351162e-03,8.939943387331074874e-04,6.987666822262084392e-04,1.387572437524795532e-01
-2.760062277470910486e-01,-4.524577518957885736e-01,-4.539818726995305531e-01,4.039743760136913636e-03,-1.755608818865150465e-03,8.492304001636478495e-04,1.773887425661087036e-01
-3.027273208841296803e-01,-4.311900141606683778e-01,-4.352587038451532497e-01,1.341722743299881985e-03,-3.748230442363702924e-03,-7.519680991342670871e-04,1.307330727577209473e-01
-2.680445717469122635e-01,-4.489160911658157116e-01,-4.445393637321674030e-01,4.628966217356280527e-03,-2.840723403552205401e-03,-7.200026483448537112e-05,1.789707839488983154e-01
-2.910448482348231836e-01,-4.407432186631382587e-01,-4.434343283470084662e-01,1.128156312169362142e-03,-3.581301428086301926e-03,2.725143654440728233e-05,1.512018442153930664e-01
-2.727610497635783449e-01,-4.489495721144425300e-01,-4.463136145891340445e-01,3.033718950750444870e-03,-1.672893840461614967e-03,-1.617065747901050114e-04,1.749885827302932739e-01
-2.712518679872531480e-01,-4.519954861384616329e-01,-4.498995805715628737e-01,2.326455111226403798e-03,-1.511228210788235376e-04,8.895173436485315482e-04,1.797567903995513916e-01
-3.545278285902552229e-01,-1.935194821985576907e-01,-5.945265923896144722e-01,-9.985503458586515724e-03,3.337769791861125261e-03,-7.334765429846354379e-02,3.723400235176086426e-01
-2.774167048017109893e-01,-4.575580932083493924e-01,-4.460136426533128917e-01,5.123325215820030872e-03,-1.021309766974296115e-03,3.323796039634116690e-04,1.748907268047332764e-01
-2.728775320714351693e-01,-4.508130051376040837e-01,-4.540355621214187121e-01,-2.655519007897912207e-04,1.924410689284333700e-03,1.018164647986020315e-03,1.796086132526397705e-01
-2.764643196911854561e-01,-4.527629919103311473e-01,-4.552432334971563965e-01,-2.833007541772957893e-03,4.135517545107504286e-03,-3.410816559228978880e-04,1.777649372816085815e-01
-2.729403386051652558e-01,-4.501192372160923716e-01,-4.499266518736008691e-01,5.779678926086456118e-04,-3.194164024764043559e-04,-2.145812394109801223e-07,1.770863831043243408e-01
-2.714689824808239615e-01,-4.447183496609772857e-01,-4.474565655700605271e-01,-2.242102990458035190e-03,3.272886853289078742e-03,-5.905936607883427057e-04,1.747727096080780029e-01
-2.757074175097039559e-01,-4.522596417947649661e-01,-4.537548325257347304e-01,-2.919325936803192703e-03,3.797002855083822168e-03,-1.374873601233992782e-05,1.774985194206237793e-01
-2.736744788367052594e-01,-4.499316996496195431e-01,-4.501831420991393440e-01,-2.611804139526908812e-03,3.174499208914988071e-03,-6.080298873045306878e-04,1.765298694372177124e-01
-2.740196463969652441e-01,-4.579445940772589596e-01,-4.549656789801087009e-01,3.774131048654239505e-03,-3.051032611878298859e-03,2.256541684648410810e-04,1.826476752758026123e-01
-2.694187372234039257e-01,-4.543131870428157026e-01,-4.500556073130866919e-01,1.851548012665449588e-03,7.858053784022232000e-05,6.060441405310426676e-04,1.828340440988540649e-01
-2.705511702514059036e-01,-4.537160387929410899e-01,-4.473263352818552807e-01,3.760088549451980414e-03,-2.165812546484503949e-03,-4.318049250836636854e-05,1.802118718624114990e-01
-2.719056623092262481e-01,-4.474875676532784063e-01,-4.449568700821135980e-01,4.017629207825893639e-03,-2.653927415439426719e-03,-5.675525469717844105e-04,1.745324730873107910e-01
-2.706158106125845508e-01,-4.522727326279871729e-01,-4.511228458210839176e-01,1.738371965827258288e-03,-7.941101357800520221e-04,3.941616709288800999e-06,1.811149716377258301e-01
-2.708648574995720648e-01,-4.558449708344998186e-01,-4.528090790294039825e-01,1.221164480327991200e-03,-6.296501964102371859e-04,2.409153734942312973e-05,1.834964454174041748e-01
-2.768154660620325558e-01,-4.654552370027572050e-01,-4.674300076185604058e-01,-1.073328318702148135e-02,-9.013676477534508444e-03,4.427993495898783702e-03,1.913362294435501099e-01
-3.142478527177148262e-01,-4.160490423849667052e-01,-4.839287389176450960e-01,-4.295567343373562358e-02,-3.692090935949406821e-02,6.384860286161249399e-02,2.091323286294937134e-01
-2.772840596718839645e-01,-4.650096832882749665e-01,-4.641492287462376520e-01,-1.004338331561170465e-02,-7.667080047229888999e-03,3.626174767925504023e-04,1.885721981525421143e-01
-2.844686956514397291e-01,-4.438293943727022461e-01,-4.565385789310313358e-01,-9.975355328493688833e-03,-7.964355569934116613e-03,2.067655238152032657e-03,1.675838381052017212e-01
-2.825777522864585944e-01,-4.658438669626276396e-01,-4.673344185601813194e-01,-2.135407253472590330e-03,-2.209835037021896237e-03,3.299484937620856271e-04,1.840937733650207520e-01
-2.762047019538306225e-01,-4.622035407140301921e-01,-4.635836412076704272e-01,-4.037949665734735447e-03,-1.164329255495847324e-03,-5.334203978422233025e-04,1.868368387222290039e-01
-2.727238960989935013e-01,-4.552826902604178438e-01,-4.593657307378289367e-01,-3.253802680222999972e-03,-9.544846390462875850e-04,2.517132842683692949e-04,1.847280859947204590e-01
-3.034715172746017542e-01,-4.185537130993256527e-01,-4.107793689599653630e-01,-1.332801403306900674e-03,-8.412614228759236713e-04,4.165393663087085113e-03,1.116654276847839355e-01
-2.715244476380087590e-01,-4.512805431419487645e-01,-4.591221473118669572e-01,-2.949341101852009320e-03,-1.308570032875483371e-03,-3.026252014108553844e-04,1.838880926370620728e-01
-2.711391053198292656e-01,-4.534896028616954289e-01,-4.568330887746390179e-01,-1.754185624014074907e-03,-1.758138497438932295e-03,3.817445054545705557e-04,1.840964704751968384e-01
-3.631992235263276081e-01,-4.567275580826287706e-01,-4.622487699027897912e-01,-3.462580944559286167e-02,1.953958185844104078e-02,-9.638183608649979195e-02,2.047071605920791626e-01
-2.876645297368742304e-01,-3.100299146197424416e-01,-4.126295593456205113e-01,-7.760523209802225146e-03,5.789862504322583481e-03,-4.870949618210154014e-02,1.439467519521713257e-01
-2.885370933603162436e-01,-4.699157017638013190e-01,-4.711114978834857192e-01,3.864449964734088024e-03,3.596508796949456728e-04,-2.896365803601678990e-05,1.821035742759704590e-01
-3.199766399794128358e-01,-3.898479382857688025e-01,-4.495413691393997380e-01,-4.206415755900739378e-03,-6.562350271412737063e-05,-2.938862525606700596e-02,1.235327124595642090e-01
-3.341061628601786349e-01,-3.652416610588478663e-01,-4.354107588833796560e-01,-3.630063861311343121e-02,4.051989014330064504e-02,-6.738064639962411395e-02,1.748631447553634644e-01
-3.319894576335912229e-01,-4.055819603127682194e-01,-4.342139053953523731e-01,2.876041154901945625e-04,5.051457462112526713e-03,-4.553321608856110425e-02,1.209932342171669006e-01
-2.984552618435933891e-01,-4.570428389534210156e-01,-3.791415018424707517e-01,8.008094250651125179e-03,-1.163003021909749662e-02,-1.533946134002191382e-02,1.420158892869949341e-01
-3.375755025963354528e-01,-4.917674900729811505e-01,-3.915693013577652981e-01,6.863289091517716864e-03,-3.632387260451256511e-02,-6.556282212013044008e-02,1.880428791046142578e-01
-2.814488493841099670e-01,-4.546682741334949207e-01,-3.904961314014711027e-01,2.490100277384488942e-02,-3.889115692242637451e-02,-2.832002466509325744e-02,1.783563494682312012e-01
-3.016756002144794779e-01,-4.440783531171931253e-01,-3.844188319948825261e-01,9.033449605034998484e-03,-7.526670712494590298e-03,-7.766431090238607240e-03,1.262451410293579102e-01
-2.739564738481803929e-01,-4.535831285725369644e-01,-4.522804267220195684e-01,-1.057514825240138010e-03,-1.043200395186563365e-03,-2.899892052841519189e-04,1.789980530738830566e-01
-2.995234156657620161e-01,-4.130741115667394547e-01,-4.137458749571317207e-01,-2.510522178727673560e-03,3.594028306717164233e-03,-5.047244823931968868e-03,1.144752129912376404e-01
-2.718935721207260681e-01,-4.528092163415795013e-01,-4.586638103387153387e-01,-3.105377252694814061e-04,-1.237621447678814756e-03,-3.483983133723056241e-04,1.839271187782287598e-01
-3.071263432858880593e-01,-4.267509806475970335e-01,-4.240008020403268074e-01,-3.181975705490250935e-03,1.846616000162454177e-03,-7.375265365566153943e-04,1.184519529342651367e-01
-3.070748162620646760e-01,-4.253844006622529705e-01,-4.256567657127889870e-01,-1.857872320721389763e-03,3.133219315999752428e-03,-7.829975942781765936e-04,1.186216697096824646e-01
-2.782861845425143033e-01,-4.414228724881553712e-01,-4.426226215184130841e-01,-3.814587885700576608e-04,-1.046808915562467187e-03,-6.803332501744013567e-04,1.637554764747619629e-01
-2.720343740891845163e-01,-4.477787707233288339e-01,-4.461490371356658935e-01,-4.799556359010741019e-04,-1.218379055745649970e-03,-8.983747576946366214e-05,1.749499887228012085e-01
-3.101209060486603830e-01,-4.213434793460695826e-01,-4.234261380410323516e-01,-1.682851998933413600e-04,6.126717172984721006e-04,-1.094112744670834060e-03,1.122997775673866272e-01
-2.789342017291089881e-01,-4.681788822387192850e-01,-4.592280650079083038e-01,1.675415836080471977e-03,4.311003069548520472e-03,1.012031655930757017e-03,1.851135343313217163e-01
-2.772050702033349578e-01,-4.612859224638937161e-01,-4.552766965696068979e-01,2.335480094561926019e-03,4.127127777702615380e-03,-1.665832814028654337e-04,1.813373416662216187e-01
-2.703237574683782229e-01,-4.566150333679480644e-01,-4.509634762908997230e-01,6.231489861320966802e-04,1.348339004411458876e-03,5.517417322922904744e-05,1.835488229990005493e-01
-2.728964032851559640e-01,-4.599172759344657413e-01,-4.547967842124762683e-01,7.787876830801707378e-04,-5.033771546581039931e-05,-1.899387274582019767e-04,1.845191717147827148e-01
-2.734356120312846361e-01,-4.506264253991711932e-01,-4.527062797420508544e-01,3.896964427823859829e-03,-4.321903322430645754e-03,-1.125443317356387323e-03,1.785352528095245361e-01
-2.767994542248926604e-01,-4.535743696389323842e-01,-4.555171860973769582e-01,2.668641194159468259e-03,-3.498497209666587195e-03,-1.669440827097960225e-04,1.779178231954574585e-01
-2.959369822830152930e-01,-4.427838105003155111e-01,-4.465264194423865241e-01,-1.320579413233149632e-03,-9.098172974765358564e-03,5.516892482127644902e-03,1.499081701040267944e-01
-2.719213023520935524e-01,-4.537202321773424751e-01,-4.581003837678697121e-01,5.530828385669629265e-04,-9.612939485093808471e-04,-4.744101806133182395e-05,1.840381473302841187e-01
-3.035877020324982967e-01,-4.176223734102151308e-01,-4.218928671579829093e-01,1.009878542863222334e-03,3.741041622762299266e-03,4.421274028141789457e-03,1.166739761829376221e-01
-2.699624660164915424e-01,-4.500703017982439214e-01,-4.518796466695876313e-01,9.703279171217611253e-04,-1.782510007105314554e-03,-1.607630487477753939e-04,1.810536384582519531e-01
-2.696283724551749028e-01,-4.509099145573892686e-01,-4.540888179407944203e-01,8.158591666596009921e-04,-1.553273703508426841e-03,5.635919944558077184e-05,1.829169839620590210e-01
-2.729778699581534851e-01,-4.487858915776873348e-01,-4.491321473985006585e-01,-8.735906119560448010e-04,-3.173301759743741234e-04,-9.059401368405551664e-06,1.759887635707855225e-01
-2.848552086627779700e-01,-4.330452512680604271e-01,-4.351537092398273798e-01,-6.810217985321184372e-04,-1.014628036289120638e-03,-1.959520607915381848e-03,1.493090242147445679e-01
-2.758282270936217584e-01,-4.468776816276701647e-01,-4.478978360667321690e-01,-2.819985252736734540e-04,-1.081797970836860783e-03,2.741159190451046275e-04,1.715733855962753296e-01
-2.717951632671594675e-01,-4.470294252983040284e-01,-4.467170111655596187e-01,-1.255745596047795490e-04,-5.712706776250961010e-05,-3.497776684094136557e-04,1.750794798135757446e-01
-2.730123842762541830e-01,-4.498089555645848892e-01,-4.501520023341100130e-01,-5.298877881871236857e-04,-2.108268125265947844e-04,1.298622091082483412e-07,1.769711077213287354e-01
-2.735759149212245722e-01,-4.490745084993423286e-01,-4.467111157431583046e-01,-2.483432771232456631e-03,-1.379657310146415773e-03,6.350714496490143844e-04,1.744018197059631348e-01
-2.742501918126604155e-01,-4.453472541932224082e-01,-4.468656964822049216e-01,-1.844335141243553210e-03,-2.929654673677150808e-03,5.248524420725749666e-04,1.719682812690734863e-01
-2.755991981570713456e-01,-4.598306049780190863e-01,-4.783922214972112230e-01,-1.687835142878776548e-02,-7.015967006358514967e-04,5.755458215424876477e-03,1.966236680746078491e-01
-2.878255074121669477e-01,-4.477603933809706782e-01,-4.420711272147993531e-01,-6.666004529265998763e-03,-2.456847260489115371e-03,9.676448018011492725e-04,1.576573699712753296e-01
-2.821765910368920216e-01,-3.854980144569448708e-01,-4.462836460005648043e-01,-1.223220473336180357e-02,-1.302874184353033232e-02,8.363218779753649190e-03,1.477112770080566406e-01
-2.685504031901842503e-01,-4.461552328766410502e-01,-4.460791875216443270e-01,-6.280887753223225733e-04,-1.389851867994438151e-03,-2.205116840576559008e-04,1.775868833065032959e-01
-2.724023743258476293e-01,-4.522422544968615066e-01,-4.560719724674475728e-01,4.336383206668415098e-03,-4.178008749477139620e-03,-8.456499918800692293e-05,1.820840090513229370e-01
-3.063151467057092514e-01,-4.570458131452579398e-01,-3.480965039274145356e-01,2.188308766435465361e-03,1.547497986286533889e-03,2.020392147398698910e-03,1.349128633737564087e-01
-2.743526615664474422e-01,-4.548552723918925511e-01,-4.625041236572025594e-01,4.933646027165735672e-03,-4.212250904275265627e-03,-4.102105757954929276e-04,1.847893148660659790e-01
-2.704779513713481132e-01,-4.523390626801447323e-01,-4.570144806376840174e-01,1.487060983247858468e-03,-1.271406108048960069e-03,-3.586197118088427335e-04,1.842755228281021118e-01
-2.735213818077599224e-01,-4.563811663742273206e-01,-4.615852888344689209e-01,9.791275418525246469e-04,-7.206386408102219508e-04,-3.061676332263242790e-04,1.855293065309524536e-01
-3.130421435068677094e-01,-3.215005263029458438e-01,-4.531028734819326775e-01,-3.096819910425094909e-03,4.516617380093037454e-03,2.831984069765696582e-02,1.449133306741714478e-01
-2.721589757934465004e-01,-4.544174384765662378e-01,-4.520348816105069223e-01,1.010702644632173420e-03,4.147971555726108982e-04,4.856303462168425864e-05,1.810888499021530151e-01
-2.772793956627085388e-01,-4.418534977412421072e-01,-4.378107148524920667e-01,3.912837953898436541e-03,-2.910048614787323629e-03,-1.686061646705928159e-03,1.628358215093612671e-01
-2.969306856854309062e-01,-4.439119475201132037e-01,-4.413148938343047223e-01,6.431383465757786223e-03,-5.042475445240866133e-03,-1.373792723615076261e-03,1.464054286479949951e-01
-3.048004005940533334e-01,-4.223073776668637702e-01,-4.197598459195830967e-01,2.239491967925915338e-04,-1.174013070563758405e-03,1.331640223588788363e-03,1.162954494357109070e-01
-2.721444482650233199e-01,-4.594485987335407140e-01,-4.575987622193565807e-01,1.436777610679953413e-03,6.042147474425371700e-04,-9.270530031852321912e-04,1.864125877618789673e-01
-2.947961846515217976e-01,-4.328665675561227388e-01,-4.355533938630620772e-01,5.206238609082054943e-03,-4.160849047528955048e-03,-3.191958134520063873e-03,1.400194317102432251e-01
-2.701453484375098690e-01,-4.606157197312799045e-01,-4.582681814234292883e-01,8.485279174705295238e-04,2.477328736328700699e-03,-7.925531617890251967e-04,1.893668174743652344e-01
-2.719467116359894354e-01,-4.522985526633396258e-01,-4.551819308161934030e-01,6.303031236843686545e-04,1.158168951461492060e-03,-1.629687704549165697e-04,1.818252354860305786e-01
-2.693569299401626926e-01,-4.631258195164368319e-01,-4.831537030466814819e-01,3.723838807012164881e-02,4.358992953052166601e-03,1.927788699319400939e-03,2.146078348159790039e-01
-2.716942389386769463e-01,-4.578823687568635004e-01,-4.541373730916554718e-01,1.350678822238037327e-03,5.569098457079004827e-04,1.392549495039968090e-04,1.843616962432861328e-01
-2.883176480035140044e-01,-4.392009674549156029e-01,-4.356725010843952584e-01,4.951390501925111674e-03,-1.738686221825327125e-03,-2.029237121602681028e-04,1.494275033473968506e-01
-2.718845558163881515e-01,-4.582893253612155271e-01,-4.595116309402039745e-01,1.278151244732509588e-03,1.285043590892527218e-03,-6.487861719020380060e-04,1.870486438274383545e-01
-2.731962598555943700e-01,-4.575682629505975485e-01,-4.599574874773288413e-01,-5.652983586806328235e-04,3.381810674350789903e-03,1.330454387205158573e-03,1.856874525547027588e-01
-2.724713584912366038e-01,-4.604702884450803113e-01,-4.547727772013640535e-01,-6.740369581583159631e-04,-9.618002934078413854e-04,-3.436390732750933710e-04,1.852280348539352417e-01
-2.723561048332879819e-01,-4.596749677885239027e-01,-4.535956515703246095e-01,-2.217747906636969007e-03,-3.851942534289365481e-03,9.912945719583503981e-06,1.845150738954544067e-01
-2.710294559453969021e-01,-4.578336636995327669e-01,-4.553759681951173865e-01,1.488324435034859769e-03,7.886637972067415871e-04,-3.738495110157184472e-04,1.856116205453872681e-01
-2.758499581150615776e-01,-4.671842311888829147e-01,-4.579705510080079867e-01,-1.529043287582887737e-03,-3.776970546054099227e-03,1.532213385760741481e-04,1.870312392711639404e-01
-2.716386584483183597e-01,-4.589840122364536867e-01,-4.540579601900656126e-01,-3.026907305247079905e-04,-9.216380115119655490e-04,-4.081892427071639822e-04,1.849405318498611450e-01
-2.873014743921376568e-01,-4.265389904514130248e-01,-4.347852456896748596e-01,-2.854330031769941687e-03,-3.828704087423070567e-03,2.133221669388369202e-03,1.438240110874176025e-01
-2.877616287338183865e-01,-4.242411223625952577e-01,-4.275689548784058491e-01,-1.878000187326660806e-03,-4.026237262597214157e-03,2.619690508484620334e-03,1.384619325399398804e-01
-2.899842941390485818e-01,-4.302384828374574144e-01,-4.289334651610863247e-01,-3.670506509976002862e-03,-1.805953157393160686e-03,1.026082270914423049e-03,1.397972404956817627e-01
-2.719714522244476296e-01,-4.550785500534383909e-01,-4.543915623433194551e-01,1.761874931986679967e-03,1.482241508597111068e-03,-3.648875665346063284e-04,1.828091740608215332e-01
-2.726133754942315912e-01,-4.564057022738426950e-01,-4.552672406366387592e-01,1.605745819140119886e-03,1.456663226256217072e-03,-6.829419409918738911e-04,1.832680404186248779e-01
-3.070169618517761267e-01,-4.234442152395336278e-01,-4.193126184399291190e-01,1.807897543026878225e-04,7.338793772801439734e-04,1.551963832242723258e-03,1.144564747810363770e-01
-2.746286165107502675e-01,-4.623086822483242209e-01,-4.615675371679944794e-01,2.091402957054407964e-03,1.944738612478503787e-03,-1.731165633395075109e-03,1.873998790979385376e-01
-2.848054004128732775e-01,-4.337860061702061842e-01,-4.326766565328798442e-01,-4.852456169934018029e-03,-1.674796603110931302e-03,3.586081359154249387e-03,1.488247811794281006e-01
-2.762330409956931243e-01,-4.564065024428439199e-01,-4.659429730908964951e-01,4.588392257625896475e-03,8.920579362696672921e-04,2.374958451669497469e-04,1.853034198284149170e-01
-2.735316288361709924e-01,-4.561475393142950807e-01,-4.619609056288608295e-01,8.107524441103424470e-04,3.777854790971010238e-04,3.589518445905960685e-04,1.855984032154083252e-01
-2.757601215741433132e-01,-4.555310669066400808e-01,-4.643945691710775758e-01,4.530085212784690576e-03,7.875341819701325375e-04,-4.331272037839647618e-05,1.845345050096511841e-01
-2.684319063425550933e-01,-4.501422991894022951e-01,-4.566761366989899873e-01,2.285301471218778406e-03,5.184034086493808985e-04,-4.457492547802542306e-05,1.851083636283874512e-01
-2.720924798401338496e-01,-4.605677491079956942e-01,-4.534011172887602026e-01,4.055781919546279997e-04,1.901858175594023674e-03,6.001902287128945551e-04,1.850296705961227417e-01
-2.705683619485308444e-01,-4.592179700078074522e-01,-4.519514892133489337e-01,-7.299100953278092954e-04,1.901156871072594897e-03,-1.745129217574114047e-04,1.851572096347808838e-01
-2.720870140065773657e-01,-4.608823809335681476e-01,-4.556541292708823354e-01,-7.921972874244261834e-04,2.045590422789604883e-03,-4.405818335452260626e-04,1.862765997648239136e-01
-2.903501665355455730e-01,-5.393127510346117370e-01,-4.768868059801585346e-01,8.702118176165564781e-03,-6.436334152022729627e-02,-4.263582479127940258e-04,2.509846389293670654e-01
-2.677539822036109629e-01,-4.525887863664694866e-01,-4.387349503564181852e-01,-5.399839360890342594e-04,-7.205573068504097199e-03,8.674561811935359345e-04,1.787569671869277954e-01
-2.846018003869670299e-01,-4.568434896881019003e-01,-4.505885313899647415e-01,6.476153796247658204e-03,-7.273069678859654316e-03,-3.223926385014120200e-03,1.701312810182571411e-01
-2.949095571390136228e-01,-5.057857557711650243e-01,-4.910864248579682734e-01,1.206430594259019426e-02,-4.961188217570820791e-02,2.398073073694342427e-03,2.223128676414489746e-01
-3.573965290293639741e-01,-4.777420872295289889e-01,-2.588650890788893877e-01,-6.182511856804628024e-03,2.545247421784764194e-02,9.092625467664885996e-02,2.508191168308258057e-01
-2.827645512576595355e-01,-4.652492891367864258e-01,-4.662132430816866568e-01,-8.971113886166919103e-04,-1.074370204726877434e-03,-4.466563674862395459e-04,1.829863190650939941e-01
-2.729055514584475262e-01,-4.612103776304189995e-01,-4.557627265755654355e-01,-4.763189062545061607e-04,-2.184762206754925495e-03,2.282796989414854864e-04,1.856817752122879028e-01
-2.765053653628487540e-01,-4.649601256939014382e-01,-4.648015246460713290e-01,8.934747394917086491e-04,3.844760619957820775e-03,-1.812435702209797082e-03,1.885256767272949219e-01
-2.728794623215263226e-01,-4.491352905113911720e-01,-4.479684113913648402e-01,1.607022992670810403e-04,-2.032394939599906187e-06,-4.111062315380863965e-04,1.756769567728042603e-01
-2.860771285840350564e-01,-4.723559621536868036e-01,-4.699861428197609214e-01,1.545190477472026648e-04,-1.434019575262477329e-03,1.215148439169508737e-05,1.851221621036529541e-01
-2.796139443708013372e-01,-4.389422201274231772e-01,-4.306184439964030330e-01,-1.162230055712387862e-02,1.044771371742094293e-02,-9.365102849458038781e-03,1.585067361593246460e-01
-2.824431919003213554e-01,-4.470438897167652303e-01,-4.464595847117198701e-01,-5.316396340495174733e-03,5.553691289200503312e-03,-1.234410979814536168e-03,1.648619025945663452e-01
-2.783356347546054321e-01,-4.452176373236559348e-01,-4.345803678912275592e-01,-7.866033565213910103e-03,4.980758963584260186e-03,-1.790416361477678272e-03,1.626568436622619629e-01
-2.777700903875937044e-01,-4.344540838966058915e-01,-4.423232430976031249e-01,-2.178951449222883002e-03,4.898841622036162295e-03,-6.670924775085711926e-04,1.610352247953414917e-01
-2.775260987692244607e-01,-4.560307676430297441e-01,-4.558767668300601761e-01,-4.554154231713155102e-03,4.336552353889785126e-03,2.323992222660648422e-04,1.787603199481964111e-01
-2.801609739202819416e-01,-4.386087176835357093e-01,-4.428013447437250116e-01,-3.597279782742827253e-03,4.521599192110297566e-03,-1.698422183896555748e-03,1.609235405921936035e-01
-2.771079461457972015e-01,-4.400940800980425172e-01,-4.433116719268387351e-01,2.397470569109859569e-03,1.196997441200421675e-03,9.961249655773055361e-04,1.646929681301116943e-01
-2.731281618644051390e-01,-4.409993504810397758e-01,-4.387258672939807758e-01,5.862240476912695432e-03,1.023060549288016012e-03,9.158975827718490509e-04,1.670718640089035034e-01
-3.069386245178265527e-01,-4.193379542298892315e-01,-4.195309660431112975e-01,2.172086908342411426e-04,-1.872861077499831176e-03,2.441481089916763825e-03,1.126227676868438721e-01
-2.864923523683143292e-01,-4.285323781449630332e-01,-4.605770312304411362e-01,2.687529829667071289e-03,-4.535715005040003196e-03,-8.423854030888212928e-04,1.607462763786315918e-01
-2.751248648887009707e-01,-4.563626517100689561e-01,-4.627041752710414624e-01,3.381510165120164401e-03,-7.777457098464544451e-04,2.931626995293376906e-04,1.845888644456863403e-01
-2.708911497369640431e-01,-4.474451188150654346e-01,-4.577316961200045276e-01,2.684645082119364087e-03,-2.761695665313852722e-04,2.044175560940288214e-04,1.819759011268615723e-01
-2.711952390720421269e-01,-4.530194296742432458e-01,-4.602614675797190302e-01,2.132561407084915088e-03,-6.607782474926599328e-04,-5.136592558919254566e-04,1.855936646461486816e-01
-2.741572718865318281e-01,-4.547540555789963412e-01,-4.611735349411879570e-01,3.230298618326887024e-03,-5.615871434942621560e-04,-3.781827348702600949e-04,1.839794218540191650e-01
-2.965756982685218701e-01,-4.209462723378140092e-01,-4.212216962171621004e-01,5.607248929342312964e-04,8.963651109056443560e-04,6.051872130081186081e-04,1.245263963937759399e-01
-2.907765273785078985e-01,-4.417453471323977143e-01,-4.368407379414177560e-01,-1.561022091294786852e-04,1.631513617168954414e-03,1.775044871460602393e-03,1.486361622810363770e-01
-2.707532776002135599e-01,-4.467192124892182536e-01,-4.577673358541907156e-01,2.738558956980630468e-03,-4.915104996680068556e-04,-1.651478062737051183e-04,1.818061321973800659e-01
-2.740000792081078163e-01,-4.614934975812174933e-01,-4.541819908990334387e-01,7.689206799209526600e-05,5.125656168671709548e-03,5.930783270168434301e-04,1.841637045145034790e-01
-2.718943520559116145e-01,-4.575067033005552619e-01,-4.469930992817840454e-01,-3.246775579059512067e-03,3.608039259678193830e-03,-5.601412221954333876e-04,1.807834208011627197e-01
-2.878143942111967002e-01,-4.308038684804680885e-01,-4.508449827642531105e-01,2.379036482115848283e-03,8.990219243572837929e-03,1.767359794446916920e-03,1.548616439104080200e-01
-2.746700016386483534e-01,-4.620362691423085533e-01,-4.552192497017825135e-01,-1.759360809050110341e-04,4.714983617418795625e-03,4.782951877909456090e-04,1.842356771230697632e-01
-2.730934801806510492e-01,-4.611441374305002006e-01,-4.547219104048119132e-01,-7.238623134811757263e-04,7.439518358528880628e-04,-1.516318033806837544e-04,1.849321275949478149e-01
-2.892465048737373756e-01,-4.437326523762255004e-01,-4.329896585236173157e-01,4.996097316006635480e-03,1.496102734684778965e-03,1.830935370999919052e-03,1.497110277414321899e-01
-3.150623780905421611e-01,-3.933722029003975384e-01,-4.431470873031948532e-01,2.027790950502832493e-03,6.598571924089071013e-03,4.862565072456171388e-03,1.127906143665313721e-01
-2.718689890517249630e-01,-4.592960161766227456e-01,-4.467278018987121957e-01,-9.259582646669278598e-04,4.101703639209564566e-03,2.236515014856086856e-04,1.816161423921585083e-01
-2.738857402631749149e-01,-4.467203763548903694e-01,-4.472861752277205727e-01,1.124209006209341997e-03,1.051151875089358784e-03,2.235409237654524691e-04,1.731391847133636475e-01
-2.942324876310084547e-01,-4.415541219095593939e-01,-4.421728169729236546e-01,6.053833789014795991e-03,5.885538794819674541e-03,1.966685075594302220e-03,1.483936011791229248e-01
-2.965944149529232687e-01,-4.377834902284372665e-01,-4.323266197339477590e-01,4.708874744470327445e-03,6.219124603799780493e-03,4.275118164649299897e-03,1.393953561782836914e-01
-2.788989706209277220e-01,-4.378577622817951820e-01,-4.408073634399559682e-01,2.791947770860740176e-03,3.864253517917071428e-03,1.235463223099900112e-03,1.606805026531219482e-01
-3.017904609345263278e-01,-4.300697093212126343e-01,-4.337863789138213244e-01,-1.233048606119049309e-03,6.048756578882825323e-04,-2.559712889160684762e-03,1.302745789289474487e-01
-2.762031118592498391e-01,-4.506264483853529845e-01,-4.477964120941341220e-01,2.785259831231028885e-03,3.016932708217879688e-03,1.862361921651878663e-04,1.731720715761184692e-01
-2.837291046813126272e-01,-4.332348288719805596e-01,-4.309460522021604789e-01,4.886355222034518588e-03,2.254127897728135620e-03,1.948371148945490447e-03,1.487053334712982178e-01
-2.458821207802972530e-01,-4.954793739852542678e-01,-4.940518374490682207e-01,5.735001036019000964e-02,4.957189568824046932e-02,5.438641624011786302e-02,2.967445850372314453e-01
-3.100392164109230797e-01,-4.481986962464281632e-01,-4.071510621279249564e-01,-8.848615030500606160e-03,1.270098193194044676e-02,-2.521726783996275367e-02,1.331480443477630615e-01
-2.842364890839918501e-01,-4.166014071992625301e-01,-3.621529154414377949e-01,-1.112771385372729807e-02,6.326336109973777592e-03,-1.646760969978845399e-02,1.207606419920921326e-01
-2.722775744325744984e-01,-4.470113327627826538e-01,-4.480456075072286048e-01,8.676970312799529763e-04,1.550318303382049862e-04,-1.731018232253600270e-04,1.752600967884063721e-01
-2.975057304162627148e-01,-4.378002239357457470e-01,-4.275840438288184830e-01,-8.274755225354138086e-03,3.785416216588209388e-03,-1.931910048156906855e-03,1.364303529262542725e-01
-3.051500558526104578e-01,-4.290131596495694866e-01,-4.164658312700917353e-01,-5.487342301448507736e-03,1.708843702023380871e-03,-1.967692383500806684e-03,1.185582652688026428e-01
-3.030622779908220821e-01,-6.177634163804909262e-01,-6.359591089092803129e-01,1.129905457774320471e-01,2.138190046042277512e-02,7.722862348247594433e-02,4.033100903034210205e-01
-2.722997955220446964e-01,-4.504926382961642051e-01,-4.516524965979323292e-01,-5.659172785462377071e-04,-6.429615992974080851e-04,6.549747610657731273e-05,1.787817925214767456e-01
-2.728238787959781919e-01,-4.519690540046651939e-01,-4.512281446998857581e-01,5.310084417084418723e-04,2.160281821003566028e-04,-5.597984901286202214e-05,1.787786483764648438e-01
-2.738500005837120610e-01,-4.504639969492934548e-01,-4.499493801494238721e-01,1.694224014594088913e-08,1.554869548072669507e-04,7.451636000560615282e-05,1.763575077056884766e-01
-2.746821892210170035e-01,-4.520312970960688181e-01,-4.477322817505142716e-01,-3.553041817583609159e-03,-1.633247399778440818e-03,3.918913892161072121e-04,1.753713041543960571e-01
-2.743084524166517491e-01,-4.461815881458525146e-01,-4.508907280186977840e-01,-2.384634747863218027e-03,-4.101188818810600455e-03,3.871895012880139427e-04,1.744703203439712524e-01
-2.697123213764978655e-01,-4.486272029246498594e-01,-4.505304032478981702e-01,-1.335445830203871569e-03,-1.234416485427446402e-03,5.510876873813476060e-04,1.799041479825973511e-01
-2.723443324161715084e-01,-4.505683090617585984e-01,-4.517290340119640701e-01,-5.692819160419101184e-04,-6.464574083200087936e-04,4.352582971381538162e-05,1.788133978843688965e-01
-2.732076507258480724e-01,-4.477058971467953175e-01,-4.481220732340815416e-01,-3.094769461846405014e-04,-2.868230134024231750e-04,-4.743544330522908234e-04,1.747101694345474243e-01
-3.006045003541852334e-01,-4.685672727103263879e-01,-4.697903731703724217e-01,-9.244961394357055148e-04,1.401691775323086813e-03,-1.061888387042283621e-03,1.686127632856369019e-01
-3.147836607327121339e-01,-5.473653801625397719e-01,-6.596050142927050164e-01,1.627657376380334808e-01,9.065904128336486900e-02,-1.093771572208161562e-02,4.441745281219482422e-01
-2.699488327161213008e-01,-4.520940169417750898e-01,-4.514903868476583537e-01,-1.318763821376016387e-03,-1.461870359389356696e-03,-2.931406152631183416e-04,1.818767935037612915e-01
-2.723344118838515460e-01,-4.517867838558844440e-01,-4.446671998816967841e-01,-3.725267462586057989e-03,-2.334788758169025792e-03,8.841447825836507794e-04,1.761719286441802979e-01
-4.662242155438905966e-01,-7.303383940629580851e-01,-4.230938508818069543e-01,-4.090991675160624008e-02,-1.552344915471221554e-01,1.125439441914790339e-01,4.453317821025848389e-01
-2.844602886693011201e-01,-4.330347706061519752e-01,-4.359526926633340294e-01,2.595706354632401278e-03,3.451607255391417849e-03,2.878828468062948152e-03,1.503237783908843994e-01
-2.719924007198082361e-01,-4.505052131717401376e-01,-4.493318615114888503e-01,-6.974680831596378376e-04,-1.195213448118970191e-03,-9.211508743217268903e-05,1.779452562332153320e-01
-2.829841671088580424e-01,-4.433707454346014210e-01,-4.454589327485600769e-01,-3.515536758985586280e-03,-3.096990024754423323e-03,1.074354208601012136e-03,1.616553366184234619e-01
-2.778962839180648681e-01,-4.425861288307659791e-01,-4.407877336873999852e-01,-3.712090769199299662e-03,-1.681094819405636390e-03,2.509029213612911941e-03,1.640076339244842529e-01
-3.109514180106606185e-01,-4.302682403031372615e-01,-4.151268067464994882e-01,-2.298965919228800319e-03,-1.520693122514785037e-03,3.321139776755160488e-03,1.127609089016914368e-01
-2.754048995552282331e-01,-4.473164178431950910e-01,-4.491400861212636597e-01,-2.083275309380271285e-03,-2.273196353460158175e-03,3.107294348644681648e-05,1.729130744934082031e-01
-2.770183067111213759e-01,-4.529082130102422554e-01,-4.438721933164232469e-01,-4.786338118844333904e-03,-1.033871445061760892e-03,4.032341061707020945e-04,1.717614233493804932e-01
-2.738956094357219428e-01,-4.476892362588534846e-01,-4.526777396488121941e-01,-5.656195846828923103e-03,-5.716333781055345925e-03,3.102092389283778260e-03,1.769716292619705200e-01
-2.702082436892583317e-01,-4.473646990808778923e-01,-4.507112807735931814e-01,-2.028316495254579594e-03,-2.113344798922320300e-03,8.328275507440207693e-04,1.789309978485107422e-01
-2.700874143607486233e-01,-4.499094756434002251e-01,-4.462666279566839811e-01,-1.775997322716386028e-03,-2.466641790936828938e-03,9.981939757338540407e-04,1.781148016452789307e-01
-3.050544257737681231e-01,-4.540279564485689701e-01,-3.769174637761326108e-01,8.408422256560686356e-03,1.092767848543546930e-02,6.309073080855370254e-03,1.316870450973510742e-01
-2.730349515982720687e-01,-4.526152654898377703e-01,-4.494289807423608174e-01,-1.874639338086609265e-03,-5.244697476437172904e-04,-9.451377419449156353e-04,1.780480146408081055e-01
-2.710310295104185752e-01,-4.583579138134610265e-01,-4.496622652277351695e-01,-2.675330019487257688e-04,7.854477822070171384e-04,-1.726761766403784562e-04,1.831398457288742065e-01
-3.725851464163877358e-01,-6.148867235495172334e-01,-2.219847026489212838e-01,-3.435124206714397499e-02,4.718486891595326249e-03,2.912176831998684878e-02,3.521822392940521240e-01
-2.739654284423498343e-01,-4.534088387916822005e-01,-4.524854041796527726e-01,-1.109498208658614253e-03,-1.097731373830983974e-03,-2.853728622710287126e-04,1.790045797824859619e-01
-2.881563266283346247e-01,-4.380441117322296796e-01,-4.410929499813231458e-01,3.979260840274998542e-04,3.455447700065786970e-03,-9.646425666283002000e-04,1.515642255544662476e-01
-2.775635646065260920e-01,-4.655105676504904810e-01,-4.611371106354407168e-01,-1.414336032102983661e-03,9.889320767564524148e-03,3.129404189948541614e-04,1.866036355495452881e-01
-2.953813962525254633e-01,-4.390823682525245020e-01,-4.195678791062721347e-01,-1.146905442543405367e-02,-1.270709779097564142e-02,1.571909796650556093e-02,1.408787816762924194e-01
-3.068006777291949483e-01,-5.552239785140585804e-01,-5.457157599701116801e-01,-6.376090569230683479e-03,1.942770166681039717e-02,-1.311618422623377772e-03,2.463775724172592163e-01
-2.729459699391702521e-01,-4.559112979540156929e-01,-4.573184963634552291e-01,9.267588374117055909e-04,1.294666136654245734e-03,-1.045164457492108552e-03,1.837025880813598633e-01
-2.921101612070580167e-01,-4.754617653979781866e-01,-4.836083264775752899e-01,2.143411120491389761e-05,-7.926859971360668625e-04,1.006960823989414130e-03,1.875707656145095825e-01
-2.573325321501737650e-01,-4.488962746605966725e-01,-4.291929668586190738e-01,8.095203358017001929e-03,2.047415858056684038e-02,6.186454640036286208e-03,1.867603659629821777e-01
-3.088131002686740345e-01,-3.933912356060862425e-01,-4.346018529273876774e-01,7.867707345881737140e-04,-2.780450325423685243e-03,-5.950207259495997499e-03,1.116626933217048645e-01
-2.705392080374154906e-01,-4.572767686778320684e-01,-4.540829868549786652e-01,-9.629210452590781068e-04,4.531781781815688061e-03,-8.677724429536013686e-04,1.853412240743637085e-01
-2.909508383215442806e-01,-4.768048991524526103e-01,-4.796757048512846899e-01,2.599439093587414666e-04,3.036998926834809484e-04,3.029945809801904821e-03,1.873807460069656372e-01
-3.147422054984279627e-01,-4.570248334370179411e-01,-3.760238547545846632e-01,3.515328853263425483e-03,2.169704367607967234e-03,7.218692146272747030e-03,1.244507804512977600e-01
-2.796710761672152601e-01,-4.451569445037215078e-01,-4.527533299657291455e-01,6.726943511897494864e-03,7.669855885589299538e-03,1.186574016314154373e-03,1.703432798385620117e-01
-2.756774531824784935e-01,-4.656336821418018967e-01,-4.594752296518400114e-01,2.188356346738834068e-03,-7.176131525398324329e-03,1.401486452007385804e-04,1.874043047428131104e-01
-2.769263695325230312e-01,-4.660944722037828059e-01,-4.573437573698856951e-01,4.593730696581131180e-03,-5.367806306830817838e-03,-1.836995923383224170e-03,1.853797733783721924e-01
-2.725854419839757181e-01,-4.618110273435105384e-01,-4.568256637656228913e-01,1.066061173401216654e-03,-7.163633883338001466e-04,4.422121297870541920e-04,1.867976337671279907e-01
-2.713004025409285203e-01,-4.602700939283537185e-01,-4.557363374818096391e-01,4.858723176210593222e-04,-5.044856842023410972e-04,5.893919511521361062e-05,1.867480576038360596e-01
-3.114233245990035703e-01,-4.683593357084646636e-01,-3.537855575244007733e-01,-4.118009646440559126e-04,1.541408873934868888e-03,2.293216605530579068e-03,1.407079398632049561e-01
-2.720400389267339514e-01,-4.631442561667831748e-01,-4.563011408681896253e-01,-6.158428799393912256e-04,-1.273018675770661761e-03,-4.527294763279591941e-05,1.877921968698501587e-01
-2.729485182316812031e-01,-4.646964123016609216e-01,-4.568085313406040626e-01,-7.497588285095046004e-04,1.909443842434645948e-04,3.748244027485675704e-04,1.879340410232543945e-01
-2.890258921379791901e-01,-4.710963946913377942e-01,-4.719893486511873570e-01,3.248860422056134949e-03,-1.241626681052278877e-04,9.675257073050670318e-05,1.826055496931076050e-01
-2.681438369355862439e-01,-4.468880875918557205e-01,-4.464136333526021461e-01,1.367604891371488902e-03,1.154835016384603633e-03,-2.190511713415081480e-04,1.785348206758499146e-01
-2.726012354733811094e-01,-4.445052249434029434e-01,-4.458981093556071973e-01,-2.461295932214623266e-03,-4.479791814692486544e-03,5.371830960583496390e-04,1.728340536355972290e-01
-2.733721466608776129e-01,-4.492140359861022114e-01,-4.492732154070269157e-01,-6.343734700800565110e-04,-1.520675363609849890e-03,-2.912548049981818969e-04,1.758953630924224854e-01
-2.841765733051223597e-01,-4.370779038166514585e-01,-4.287706068972864659e-01,6.960900203530944602e-03,1.453308808904947309e-03,1.758071202533723022e-03,1.494610458612442017e-01
-2.778055211869042695e-01,-4.505629779407978042e-01,-4.461430865273171564e-01,5.112833636730802420e-03,1.336646231918047411e-03,1.446205641142212991e-03,1.708542108535766602e-01
-2.816952687475255956e-01,-4.450610757083943714e-01,-4.430635240587369461e-01,1.001759285161428177e-03,4.943158468912753692e-03,3.883719665735780192e-03,1.627501398324966431e-01
-2.702667162103447596e-01,-4.526613434218739185e-01,-4.500028749475085132e-01,2.619462106977479311e-03,6.955888075443319909e-04,-2.506998052814671664e-04,1.811413913965225220e-01
-2.830154591813488496e-01,-4.290059309590481540e-01,-4.270814128940239596e-01,4.201392783834624785e-03,1.872241919567953217e-03,1.300813509652183793e-03,1.452739089727401733e-01
-2.811198666729823881e-01,-4.378800181013763337e-01,-4.438904998918156153e-01,1.750131837016230237e-03,6.870217692792483614e-03,6.521140621974742466e-04,1.603251099586486816e-01
-2.735114815895303142e-01,-4.614515718401770994e-01,-4.619568940194410112e-01,9.783763561297656366e-04,1.171533960285710751e-03,-1.457664694220896272e-03,1.882287561893463135e-01
-2.772894492813273715e-01,-4.396874991848968017e-01,-4.320488398543049779e-01,9.078172829649186829e-03,7.299950375191563076e-03,6.502720802314369483e-03,1.603899449110031128e-01
-2.696948594383478115e-01,-4.511502578633737048e-01,-4.472998018140246779e-01,1.595308797356096873e-03,1.497948532209401364e-03,5.307353897680964399e-04,1.796034872531890869e-01
-2.715187548624697911e-01,-4.521252910126806190e-01,-4.503051163115532329e-01,1.186914350383269992e-03,8.848706230528130675e-04,-3.935359003146800219e-06,1.797216534614562988e-01
-2.710819252938835300e-01,-4.512117274613393070e-01,-4.573715402725626600e-01,-7.379249194575682874e-03,-4.713426386780305427e-03,4.346085807102361906e-03,1.840677261352539062e-01
-2.844784114634177352e-01,-4.272478005211624019e-01,-4.358704791598020933e-01,-2.342637661053369007e-03,-7.525687594082612619e-03,9.609164628903400177e-04,1.479109376668930054e-01
-2.720438787670284020e-01,-4.538764007532904432e-01,-4.511887584130032658e-01,1.234473120235086898e-03,7.901553931957374299e-04,-2.237595847625719931e-04,1.805219799280166626e-01
-2.700197825853903888e-01,-4.570204204754990673e-01,-4.446514082899274412e-01,-1.255504273659534221e-03,-1.170799393722872332e-02,8.952400110627370443e-04,1.822843402624130249e-01
-2.901152853136785836e-01,-5.055478084103692815e-01,-5.036089591252975728e-01,-3.936164306435199767e-02,-5.824340895450007966e-02,4.245599865559718245e-02,2.573512792587280273e-01
-2.682806411470092245e-01,-4.441886175547821169e-01,-4.437545648447002722e-01,-1.240807638856252859e-03,-1.730942954982085669e-03,1.863186472049873331e-03,1.757597029209136963e-01
-2.727849854955758935e-01,-4.587328192513456249e-01,-4.658917501906847392e-01,1.076975713825090511e-02,4.362957816421736412e-03,-3.547036522289133756e-03,1.907926797866821289e-01
-2.703513480586451356e-01,-4.537459842628469575e-01,-4.454149748733947090e-01,-4.814738063597571484e-03,-5.648218413070336605e-03,2.584665026086344010e-04,1.798348873853683472e-01
-2.689600709731959638e-01,-4.475033740785570591e-01,-4.534562510427713744e-01,1.770866984598782560e-03,2.377066378304812117e-03,1.304401268003307001e-03,1.816795468330383301e-01
-2.749886560995183915e-01,-4.608768703554054769e-01,-4.607780730688441073e-01,-1.982828280462005897e-03,-3.303908650705597409e-03,-1.131388654435184962e-03,1.859689652919769287e-01
-2.873673686238750746e-01,-4.677883877987759065e-01,-4.689460893262615282e-01,-1.364602615309758139e-03,-3.189198783685268448e-03,-1.198998025792503497e-03,1.811142414808273315e-01
-3.030805317593844861e-01,-4.999206220800204159e-01,-5.283345506244740974e-01,-5.398767301152405940e-02,-2.636966081451794924e-02,2.503739605466288529e-02,2.405349612236022949e-01
-2.785872103544547729e-01,-4.724656143440895129e-01,-4.688553451405588213e-01,-9.698317195310704811e-03,-1.072192100286984903e-03,2.717288802486870353e-04,1.928412765264511108e-01
-2.729110827028752850e-01,-4.556355258733513214e-01,-4.508069654447593999e-01,-1.700490872158921070e-03,-4.878203339230384461e-04,-6.742924234028366097e-04,1.803884506225585938e-01
-2.705271179525366998e-01,-4.500926526857856880e-01,-4.515685131994061075e-01,-5.486767463585507038e-04,1.221125663412815990e-03,-7.019493126160455964e-05,1.803229451179504395e-01
-2.734597439293627863e-01,-4.496011328097455628e-01,-4.501156487226479208e-01,-5.790533441720982109e-04,1.269773117280442384e-03,5.708688389536078480e-04,1.764185428619384766e-01
-3.369386339255375229e-01,-4.530805434724203273e-01,-3.998142180279837810e-01,-1.841529551916927260e-03,4.321495236310809313e-03,3.012411104143766435e-02,1.137030273675918579e-01
-3.085298728629395915e-01,-4.379474823329354005e-01,-3.896146770790313019e-01,4.413324510058897615e-03,-4.044230730051066804e-04,6.978555337849404704e-03,1.141704246401786804e-01
-2.707255301264758773e-01,-4.450060751808010973e-01,-4.476090278029649094e-01,-1.423328095344551878e-03,3.462423529043151798e-03,-1.044955306754172817e-03,1.757254898548126221e-01
-2.680916923937566865e-01,-4.478157348268749782e-01,-4.567586918389219819e-01,-1.325657971702537408e-02,5.994432122604947087e-03,-2.179893718168337321e-03,1.861108243465423584e-01
-2.838168456284018704e-01,-4.675059005894880992e-01,-4.716506061833448116e-01,-1.605001430164227152e-03,-3.106041244574965238e-04,8.115491022233025005e-05,1.858177185058593750e-01
-2.693781019548506239e-01,-4.586820227078051149e-01,-4.643770765949146173e-01,-1.351942699134427162e-02,4.435922721034525618e-03,-3.774821884343543309e-04,1.937892884016036987e-01
-2.881898290711126243e-01,-4.246497760395918641e-01,-4.304285775623261090e-01,2.463661429344604810e-03,5.445315137128556825e-03,3.559552120907983827e-03,1.399587839841842651e-01
-2.932175538120447844e-01,-3.542681349572100458e-01,-4.395375779050366694e-01,2.256169201874943728e-02,-1.208110621460727237e-02,-2.974801361890145462e-02,1.443037837743759155e-01
-4.497521136519458396e-01,-5.520940168638714951e-01,-4.706683490464147468e-01,-4.471870404519093234e-02,-4.302914813199064381e-02,2.100509164635033788e-01,3.907540440559387207e-01
-3.430208426640952712e-01,-3.687243834699139300e-01,-4.510655827237528004e-01,-5.728758081074276920e-02,-7.887792050816042067e-02,1.333121681535673619e-01,3.022985160350799561e-01
-3.050161789886810526e-01,-4.621009219717956418e-01,-4.037664684692331973e-01,-6.959829368805041903e-03,3.495136899209321402e-03,-4.831613385052602877e-03,1.384451985359191895e-01
-2.769199704813703478e-01,-4.643273399913550037e-01,-4.628614890113187941e-01,9.465553677420791585e-04,-3.239708286784452954e-03,5.718924786994000579e-04,1.867728978395462036e-01
-3.974570146035404927e-01,-6.349073403577449870e-01,-2.832464561463501895e-01,-4.790200590482999315e-02,1.215870106095528064e-01,-1.591616780766800243e-01,4.730511307716369629e-01
-3.038070660434539771e-01,-5.070217269937513649e-01,-5.348164228535596809e-01,-5.511707338368346948e-02,2.597648132975289084e-02,-2.117679483501440016e-02,2.453577220439910889e-01
-2.825305187483001523e-01,-4.461143570388835800e-01,-4.553934449934682327e-01,6.465500682240827093e-03,9.244263368613468701e-03,7.429593566732011324e-04,1.695497483015060425e-01
-3.095501620056496095e-01,-3.314814135078373303e-01,-4.556211139458070658e-01,1.661250580622379352e-03,1.809223913223433717e-03,1.175916544600023872e-03,1.365153193473815918e-01
-2.761607541754136363e-01,-4.453809591682376112e-01,-3.089176878265966764e-01,9.196336012420477241e-03,-4.543799152520394680e-02,-2.180679853938155208e-02,1.789958626031875610e-01
-1.931946184007758971e-01,-4.066087335755209087e-01,-4.653910574982708104e-01,8.203737816196211841e-02,2.856589622952087834e-02,2.552065237928251643e-02,2.934932112693786621e-01
-3.240804762898259472e-01,-4.777642768351863523e-01,-3.446330897517536629e-01,-5.072685271603213399e-03,-2.827859638121544422e-02,-4.474123267721832192e-02,1.713595092296600342e-01
-3.133918860039837662e-01,-4.541788849734597622e-01,-3.395294632779496391e-01,4.079638916003565548e-03,6.038609694282518099e-03,1.319158020927615332e-02,1.323091089725494385e-01
-3.171299285825370240e-01,-4.361582483270816657e-01,-4.164679813036752942e-01,9.713240591461919581e-05,-2.512530024392788152e-04,2.085469073185497110e-02,1.162614300847053528e-01
-2.703691055805026999e-01,-4.543975629391043825e-01,-4.443412137035431253e-01,5.268217518601735726e-03,6.875447132901613134e-03,2.826173277765416103e-03,1.799055039882659912e-01
-3.041176364644455066e-01,-4.509290262960393147e-01,-3.198922590495306695e-01,1.372024240450147974e-03,-2.760851798094584707e-03,2.131211234010053999e-03,1.397450119256973267e-01
-3.266940842800056255e-01,-4.761189193570144473e-01,-3.603714757909372568e-01,1.354921362811717985e-03,1.861878125396213782e-03,-1.302055386118220436e-02,1.376743316650390625e-01
-2.834611201069983100e-01,-4.439146083507041762e-01,-4.267513434802489014e-01,8.501949525792043549e-03,2.148642739105459214e-03,2.798343289137406736e-03,1.534281075000762939e-01
-2.242933687263233278e-01,-3.816064159176265624e-01,-3.076433960638694232e-01,5.095324593810334618e-02,9.097854103283875560e-02,6.767273288194781966e-02,2.548359334468841553e-01
-2.964112774285999063e-01,-4.224748175878816903e-01,-3.231971602188691284e-01,6.702525483058329424e-03,-1.837001365735620867e-02,-3.653281213383877818e-02,1.355870962142944336e-01
-2.942780743492630635e-01,-4.679700931498306793e-01,-4.326606921988311871e-01,4.099524248301250444e-03,2.579402941591957352e-03,2.663974075261260491e-04,1.592272073030471802e-01
-3.036559265180106548e-01,-4.577816323975628654e-01,-3.994484194604644989e-01,5.595898135503284999e-03,4.574209288568321236e-03,3.820176148210736866e-03,1.355261653661727905e-01
-3.150636643472358722e-01,-4.588005206372983702e-01,-3.767852262060165658e-01,3.175977380904152804e-03,2.296607199804644173e-03,6.891545059756642132e-03,1.256452798843383789e-01
-3.068548301023371616e-01,-4.412893568523749144e-01,-3.439990423239850381e-01,4.244089688394545729e-03,2.510934767717561220e-03,-8.100036683753994091e-03,1.213616654276847839e-01
-3.055943735980816145e-01,-4.629247531534187998e-01,-3.880388760736574461e-01,8.679630853329062604e-03,-1.378764959118454828e-02,-2.050728426443527638e-02,1.436553895473480225e-01
-2.761386488190750721e-01,-4.612365410982367520e-01,-4.578780629211665065e-01,3.245906402124916056e-03,2.134827730912470037e-03,-6.048211422760309784e-04,1.835680752992630005e-01
-2.729706485432649155e-01,-4.648569635269376721e-01,-4.593095505783172383e-01,3.012722602047505395e-03,1.102749574229627133e-02,-6.855062878264735985e-04,1.902107149362564087e-01
-2.926104681917193195e-01,-4.662092622709123058e-01,-4.136261181639230844e-01,5.311596255463535768e-03,2.180114333861934289e-02,6.848675627932651437e-04,1.590128093957901001e-01
-3.018521183059978963e-01,-4.739202790373495122e-01,-4.359628204716442523e-01,-5.514647171802494231e-03,1.862412126163414186e-02,-5.653436820703527238e-03,1.604513674974441528e-01
-2.767170818549917199e-01,-4.530198635245928362e-01,-4.458218608353110013e-01,5.887744730631849603e-03,1.432562559019655724e-03,-9.824885183112978826e-05,1.731347292661666870e-01
-2.750438103252907940e-01,-4.594519277559307446e-01,-4.567876282978096669e-01,2.750830615456016127e-03,2.029629862391128369e-03,-4.949227651775539843e-04,1.831882297992706299e-01
-2.745087357247259496e-01,-4.538018229619080746e-01,-4.374288952910294626e-01,4.915393827302072007e-03,1.665131979309484667e-03,-3.761388408076412942e-05,1.719282865524291992e-01
-2.748783809761459751e-01,-4.570450280752747507e-01,-4.388549148005142508e-01,2.278270351525787420e-03,8.800823367162717483e-04,7.411572774845501949e-04,1.738432645797729492e-01
-3.070615796132460384e-01,-3.583599613900197434e-01,-4.496605926502189599e-01,1.707389816256311369e-03,3.747287964292717911e-03,5.927427386655676964e-03,1.257266104221343994e-01
-2.709039574877237233e-01,-4.559939753454291811e-01,-4.534094394763455438e-01,2.047659623276179217e-03,1.527514527526014623e-03,-6.483498612675356928e-04,1.838680505752563477e-01
-2.743860496513875757e-01,-4.578202533303231681e-01,-4.569241988008251321e-01,5.744135816339820434e-03,7.540578516339631679e-03,-5.862079788313680033e-04,1.837257146835327148e-01
-2.734012714213114315e-01,-4.626751602662045881e-01,-4.569535068789316590e-01,6.428464947166289680e-04,2.937470752550355117e-03,9.265266888490573298e-04,1.865585297346115112e-01
-2.710435388581253213e-01,-4.491954101310404179e-01,-4.494853311000238105e-01,1.090878073180824234e-03,1.029674902369192560e-03,-9.772692484011091276e-05,1.783160120248794556e-01
-2.932806559540421798e-01,-4.374344128267461107e-01,-4.295699328173958054e-01,-6.619581966599077071e-03,-1.651297343669815617e-03,2.974162180638502233e-03,1.409774273633956909e-01
-2.817449487293999244e-01,-4.469243662974233255e-01,-4.487984126204528357e-01,-1.205733360075344606e-03,-2.304563717688263940e-04,1.019803513491110859e-03,1.661473661661148071e-01
-2.877730415044574830e-01,-4.880473989465105578e-01,-4.456832104888140411e-01,-7.750739542668069748e-03,-2.681900773480019873e-02,8.752766014533607322e-03,1.897048056125640869e-01
-2.883079915746186717e-01,-4.506677556940618112e-01,-4.407441666423278503e-01,-7.000503586929780753e-03,-2.660035482070168336e-03,1.923683209588995715e-03,1.582002788782119751e-01
-2.876014548528953441e-01,-4.261786183319153376e-01,-4.264042188807934397e-01,-4.099348491656604372e-03,-6.523193156711874427e-03,3.260305845677372982e-03,1.394449770450592041e-01
-2.713680802485974874e-01,-4.566410935026474216e-01,-4.507067841869789038e-01,-1.077366500565518029e-03,1.344170641898217631e-04,3.581087927671343493e-05,1.823879927396774292e-01
-2.903746273208409612e-01,-4.319382409499711861e-01,-4.280668573984567904e-01,-4.465225614829694718e-03,-1.482733065344420164e-03,1.424531168694043040e-03,1.399274617433547974e-01
-2.734495132898941971e-01,-4.575228520862084647e-01,-4.584862906896267631e-01,1.242051635669128755e-03,-2.035765513319619160e-03,7.364679144682281190e-04,1.846075654029846191e-01
-2.907375590257986753e-01,-4.440547814071325594e-01,-4.437813274357118587e-01,-1.297553446719477066e-03,-4.319265437943758598e-04,8.772104715337813259e-04,1.532065272331237793e-01
-2.902861775407038492e-01,-4.291187130642563630e-01,-4.391269213682424954e-01,-4.136996641609243588e-03,-9.039930650796730582e-03,3.937030362907320731e-03,1.452828496694564819e-01
-2.706532774171009348e-01,-4.523414024071585882e-01,-4.590811353480507284e-01,2.092008974389159004e-03,-6.999896773694495216e-04,-2.462323669297642251e-04,1.851899325847625732e-01
-2.725720469071054586e-01,-4.511992525280455468e-01,-4.575933682734730779e-01,-4.928125609417202896e-04,-2.040956386940475341e-03,-1.747729143865812225e-04,1.819451600313186646e-01
-3.047158388202306223e-01,-4.578198268305349594e-01,-3.948834327517428688e-01,-8.639453417861488529e-03,-2.986460495676816675e-03,5.252528000428260090e-03,1.345342099666595459e-01
-2.718429337828029979e-01,-4.527770381087523055e-01,-4.579207503282792802e-01,-6.413828952114318050e-04,-1.451970292016108686e-03,2.975911197071752067e-04,1.835813373327255249e-01
-2.693155280551872144e-01,-4.492259265352461228e-01,-4.555983469702952204e-01,-1.586898199621085501e-03,-1.643283173094950639e-03,5.768324685141227844e-04,1.832252144813537598e-01
-2.720286537759324941e-01,-4.545541458377308497e-01,-4.419944859378903135e-01,-4.153152162109537832e-03,-6.835673028287547444e-04,6.279315070375485327e-04,1.767347604036331177e-01
-2.698027619861644855e-01,-4.512049281483458407e-01,-4.585567038070060830e-01,-1.220815808264989755e-03,-5.772218096431322096e-04,-6.084431844745475781e-04,1.852052956819534302e-01
-3.098311041327659887e-01,-4.754823806075719750e-01,-1.669495754897768747e-01,1.147263062722754350e-02,5.708923467940693608e-02,9.958451501443386922e-02,3.338377177715301514e-01
-3.210073657238213807e-01,-4.148200270605225670e-01,-3.798135258847597506e-01,2.665420343765112846e-02,1.784875025745806879e-02,6.452240021185219609e-02,1.493944823741912842e-01
-3.316491947600314072e-01,-4.170582969866718503e-01,-3.651772045749764883e-01,-5.959406330372021832e-03,-2.875379142142839989e-03,6.625902964699752207e-02,1.373221427202224731e-01
-2.743101882986717643e-01,-4.471172196374929020e-01,-4.458631925579874533e-01,-2.212071204922770509e-03,-1.598705018772398527e-03,4.620729804831445481e-04,1.722501814365386963e-01
-2.923679725960378062e-01,-4.594220178733534055e-01,-4.332796229826996748e-01,-6.727730540169444239e-03,-2.054696862743227073e-03,1.643932346130256477e-03,1.561404615640640259e-01
-3.199705472286014096e-01,-3.978985147586240334e-01,-4.400212465173876097e-01,1.019902714952600426e-03,2.155549835290156147e-03,-7.879938427243196944e-03,1.064564287662506104e-01
-3.003633439666474336e-01,-4.616906302597845180e-01,-3.880702362350127443e-01,3.439148049011024784e-03,4.957810061225583625e-03,2.012155502505116357e-03,1.403240710496902466e-01
-3.581706361951604856e-01,-4.764584091058283177e-01,-3.790574910711083656e-01,-3.114012328798868110e-03,-7.704277901270888476e-03,8.564549964643167201e-02,1.848518699407577515e-01
-3.206655193896029710e-01,-4.300916794355437167e-01,-3.124997506567199212e-01,9.326574428340164355e-03,2.683199412005992865e-02,9.746112878103449506e-02,2.094066590070724487e-01
-2.831457881829838041e-01,-4.558313657037157407e-01,-4.178448158789108136e-01,5.575274819664923463e-03,-1.503167807523592614e-03,-1.672024871830998707e-03,1.575181633234024048e-01
-2.710559335237396339e-01,-4.455414245696799336e-01,-4.481631926571937319e-01,1.825314051663252425e-03,2.719575896206757361e-03,6.776209225885901398e-04,1.759064644575119019e-01
-3.052225105827653384e-01,-4.641003065092497715e-01,-4.023551501691777221e-01,4.296843106520789428e-03,4.926010493596218349e-03,2.684181836700138754e-03,1.392640769481658936e-01
-3.286787309047117800e-01,-4.807633344723483138e-01,-2.987432490410000807e-01,-4.813875172715401454e-03,9.542417108319082089e-03,7.407487150323564806e-02,2.130317836999893188e-01
-2.903223956745448753e-01,-4.474098337623742538e-01,-1.208790770706347217e-01,1.303415333147808861e-03,6.520543833846678509e-03,1.017617270979548627e-01,3.334725201129913330e-01
-4.050908959105405938e-01,-6.105971136408605560e-01,-2.929831139975379584e-01,7.795289643448725242e-03,6.991207741471941461e-02,1.600933056711963676e-01,4.117946028709411621e-01
-2.966969040879656183e-01,-4.328732279938526939e-01,-4.309626665212604735e-01,3.231619976012351046e-03,1.578216853656397214e-03,2.297247995958169109e-04,1.353751420974731445e-01
-3.604937578290413058e-01,-4.843041542213257222e-01,-3.555143016429059832e-01,2.178511842209729724e-02,4.483473132870125638e-02,8.212711042757254998e-02,2.089476883411407471e-01
-2.704868757665584988e-01,-4.557405460300925637e-01,-4.197609059789834118e-01,6.191556361985654311e-04,1.055613496471003408e-02,1.704844968976764992e-03,1.711498200893402100e-01
-3.112403941701084031e-01,-4.636778154338638269e-01,-3.507524341041470817e-01,-1.609536781405540920e-03,-5.162116605555934403e-04,-7.029208354442263848e-05,1.370541602373123169e-01
-2.895385219287221479e-01,-3.554301476398395443e-01,-2.586471052344080368e-01,5.247850204199132514e-03,-6.246375997022141253e-03,1.261141961838100345e-01,2.350436449050903320e-01
-3.209289362221241504e-01,-5.027546708081567228e-01,-1.920308537150925421e-01,2.412307724722060134e-02,-9.419619122323283356e-02,-1.656394578234121617e-02,3.198435902595520020e-01
-2.861634256157485900e-01,-4.434915846904837755e-01,-4.080154536484587591e-01,-1.247499427286882269e-02,8.075332811648865475e-03,-4.880034143598908046e-03,1.454759985208511353e-01
-2.932832409601023871e-01,-3.670388674811206342e-01,-4.534890383328917807e-01,4.373910856523357399e-03,-9.131754790234762782e-04,-4.273855780288556006e-03,1.392996907234191895e-01
-2.955714843838330719e-01,-4.690580693949055191e-01,-4.728060242854816853e-01,9.570959999738904306e-07,7.165816995019269652e-04,3.133320388957471251e-04,1.753958314657211304e-01
-3.160608707446679877e-01,-4.877906369897004879e-01,-4.023053710507839553e-01,1.296417305954488536e-02,-2.249298951695048038e-02,-2.496117780070867057e-02,1.612751483917236328e-01
-2.631090885115071609e-01,-4.491944231054639247e-01,-4.332840677803700968e-01,-1.064672893747845711e-03,1.439822279270810794e-02,-3.199450445875077695e-03,1.804888993501663208e-01
-3.503799994795918082e-01,-5.285037223502381254e-01,-2.924338096582664859e-01,-1.508594249540455448e-04,4.809347848844624206e-03,-7.903794616881452614e-03,2.136920243501663208e-01
-2.943594015862918134e-01,-4.232254812852380699e-01,-3.927684304316193531e-01,-1.629514282428820918e-02,1.355411725575616198e-02,-2.079284042531675050e-02,1.274911016225814819e-01
-3.300490697010117769e-01,-4.813480820931309023e-01,-3.711923068375603263e-01,1.257151302295481587e-03,-3.450730890637146008e-03,1.669809603021264396e-02,1.386945098638534546e-01
-2.830019859568844720e-01,-4.293340892575475687e-01,-4.275697745001085792e-01,-1.572557546113124158e-03,4.255820751339954230e-03,-1.172305839706377136e-03,1.456842422485351562e-01
-2.919521276673634480e-01,-4.525110800664535193e-01,-3.696244369820982922e-01,3.570306180335428427e-04,3.277202920807178229e-03,-3.220820590482286437e-03,1.393014788627624512e-01
-2.591482665599188495e-01,-3.965335876167959683e-01,-1.465979229589574051e-01,-1.757878150545193977e-03,3.723718259132619002e-03,-7.657249245235434043e-02,2.542557418346405029e-01
-2.710178901211049984e-01,-4.591874554241840434e-01,-4.530836362324381916e-01,1.653907771827994129e-03,1.050894162184009818e-04,1.944314505181065538e-04,1.852156668901443481e-01
-2.905771280509522603e-01,-4.965067947214999444e-01,-5.072243659032000807e-01,-3.663192317314566994e-03,6.371755738317240458e-03,8.623204236455836447e-03,2.124007791280746460e-01
-3.050677073549697416e-01,-3.854706474271474836e-01,-4.304014015717221309e-01,1.224228418424018038e-03,2.876425391335430369e-03,6.198021303506886896e-03,1.106369495391845703e-01
-2.931399597001399515e-01,-4.719200846205428013e-01,-4.699425643417844967e-01,-6.705476174311066377e-04,2.238052281899774714e-03,1.825258408907265862e-03,1.778737604618072510e-01
-2.971715501732167808e-01,-4.706215518051342084e-01,-4.716405630627529821e-01,-4.407509848553496775e-04,-5.392724287741406872e-04,1.252704946685785853e-03,1.739794611930847168e-01
-2.796207479647612182e-01,-4.544241843957899651e-01,-4.472797557406791302e-01,5.167277138986003764e-03,1.434814532468884924e-03,-9.840327781954659664e-05,1.715946346521377563e-01
-2.756777125286603569e-01,-4.587851347153341086e-01,-4.398144436145562386e-01,3.864417528209828940e-03,1.484184386112941470e-03,5.965694987532120432e-04,1.745480448007583618e-01
-2.977356780637885891e-01,-4.793405881071849395e-01,-4.814180251565981505e-01,2.873676727875475851e-04,1.678467001057749701e-03,6.144976177455167462e-06,1.826763004064559937e-01
-2.860564416569091328e-01,-4.708781051246346827e-01,-4.712697738342661591e-01,-9.592444742718168535e-03,-4.496936648387962233e-03,6.941270831088528111e-04,1.859294176101684570e-01
-2.825577547089240804e-01,-6.486262441338871421e-01,-6.016316775949408502e-01,-9.776727285027582079e-03,4.246788038303169616e-02,-3.635505904570694724e-02,3.587112724781036377e-01
-3.051792742743670850e-01,-4.719619327901705130e-01,-4.739504903631354682e-01,-9.968710424092536301e-05,-4.909345423973573606e-05,4.794340613612949964e-04,1.677879393100738525e-01
-3.103754331277275291e-01,-4.849449798414467994e-01,-4.805026754582599202e-01,6.416236626964024392e-04,-2.153886714816065535e-03,1.021546642144851745e-03,1.724443435668945312e-01
-2.791538492474255340e-01,-4.470274499146694724e-01,-4.536754464219600047e-01,1.547818187705361954e-03,-5.381064250941293425e-03,5.972282688592009565e-04,1.715718209743499756e-01
-2.771864257240672647e-01,-4.451685072186427616e-01,-4.439270549550332068e-01,-2.755223669466599565e-03,-3.171141331252631812e-03,1.155130435478342278e-03,1.675348430871963501e-01
-2.727660068847059804e-01,-4.589196496236593870e-01,-4.536785460758658295e-01,7.555157737122032528e-04,-2.269300182682812265e-04,5.159867215225716862e-04,1.835964620113372803e-01
-2.718287388645539981e-01,-4.584106869591406674e-01,-4.642828258431100363e-01,1.000830486976470382e-02,-5.459152955105948425e-04,1.163091639881561577e-03,1.903901100158691406e-01
-2.746084949254113949e-01,-4.556932209691657021e-01,-4.551728497163852749e-01,-6.148033614700241026e-03,-6.748247364169467771e-03,-5.533045586229837676e-05,1.815151125192642212e-01
-2.705819674064959823e-01,-4.528745359526471503e-01,-4.601321041411639556e-01,-9.860848634858350101e-03,-7.377951506929009834e-03,5.840595845899874093e-03,1.875196099281311035e-01
-2.726839744047001579e-01,-4.529153700798537185e-01,-4.513228909574338310e-01,-1.708576925664603407e-03,1.354726844487012282e-07,-7.225229575639638500e-04,1.794692277908325195e-01
-2.714353574657129009e-01,-4.506096635795415750e-01,-4.493640769916988909e-01,-1.261326837831887315e-03,4.743565553035311274e-04,-9.498115198536979616e-05,1.785701066255569458e-01
-2.810047080264421737e-01,-4.739969542327558960e-01,-4.531231109726278627e-01,-4.149184462466998062e-03,-1.072965388035561742e-03,1.188550895274228256e-03,1.836098432540893555e-01
-3.341936635574256909e-01,-4.664254013885323902e-01,-3.069850403651108173e-01,-1.132547586926925705e-02,4.167689144178543699e-03,2.199279954083996000e-02,1.539848744869232178e-01
-2.769021771782760322e-01,-4.336015265921276396e-01,-4.351108804981690947e-01,-4.952708743276396271e-03,-2.367426300237134365e-03,1.755286779933296331e-03,1.577755510807037354e-01
-2.735500764659166695e-01,-4.489765469355121441e-01,-4.472372234755584430e-01,-2.984216016839182865e-03,-1.140886188171049516e-03,9.193164159895134439e-04,1.746582537889480591e-01
-2.735182970809074132e-01,-4.500057061785259771e-01,-4.497556743977091931e-01,-1.495013832483962956e-03,8.568078739490217509e-05,1.493227485344846039e-04,1.763817816972732544e-01
-3.132807782027756116e-01,-4.605065259252150156e-01,-3.405818271145026332e-01,5.126600574930664745e-04,-2.514231497013168486e-03,-2.901544126748025094e-03,1.358173787593841553e-01
-2.845514605549115950e-01,-4.564586522452439565e-01,-4.766085501002282898e-01,1.349683886000841576e-02,-7.341081206061423139e-05,3.346176901475451221e-04,1.843064278364181519e-01
-2.743947493801480730e-01,-4.602357202601398689e-01,-4.651548251951425073e-01,9.913961361117658994e-03,1.848501594598594110e-03,-4.141256151395824973e-03,1.892928779125213623e-01
-2.840880874933185973e-01,-4.558875256809236109e-01,-4.063263057515031917e-01,-1.749653005318136442e-03,-3.319185098242925184e-03,6.338073713599762021e-04,1.532977819442749023e-01
-2.760744991012668015e-01,-4.618247725994802932e-01,-4.562656858984407426e-01,2.675876477815922454e-03,-4.048543876755928209e-03,-2.979857608480104212e-06,1.832269579172134399e-01
-2.822303454405349354e-01,-4.734937580546742519e-01,-4.854553627531930093e-01,1.125773167583758033e-02,1.277582750387803653e-02,4.180754908831694648e-04,1.997072547674179077e-01
-2.742234248728548929e-01,-4.651713867767387489e-01,-4.654545654090077034e-01,1.330555406811483564e-02,5.452351093812078144e-03,1.950676850242907259e-03,1.927355378866195679e-01
-2.999273317973696895e-01,-4.615108053276065769e-01,-4.341797403986396575e-01,1.292094957444111201e-02,-1.735339473133924726e-02,-6.213507656597908914e-03,1.547903567552566528e-01
-2.995055983888916251e-01,-3.809271265791829286e-01,-4.588728544217791638e-01,-4.512317802378778935e-03,2.019881590444576325e-03,-1.909329362718263602e-03,1.383319199085235596e-01
-3.088988329442131087e-01,-4.547344035960893538e-01,-3.372067292583506570e-01,2.092241564701155521e-03,-2.471644460831022919e-03,-2.825836551201450341e-03,1.341509222984313965e-01
-2.481238459944885566e-01,-4.136465053260788283e-01,-4.772534857097859851e-01,4.719645636829807034e-02,1.621694766409790753e-02,1.113254261583948752e-02,2.231933772563934326e-01
-2.714357756072440231e-01,-4.551929465178789491e-01,-4.529447645661562327e-01,8.713607250942162832e-04,6.894842843763143540e-04,1.577213698499792727e-05,1.826536059379577637e-01
-2.756066592476170696e-01,-4.580123479234514128e-01,-4.625422903084401849e-01,1.926933653855797879e-03,-1.186079924082458163e-03,-2.198752869454321905e-03,1.847931444644927979e-01
-2.730915761473979853e-01,-4.516540414794686376e-01,-4.629644306663524000e-01,1.150030785748672700e-02,4.036551333799922800e-03,-2.789980443486823284e-03,1.857447028160095215e-01
-3.548261496456475705e-01,-3.700190061703057531e-01,-5.255875759196599883e-01,3.148485227010263537e-02,7.544931326759076774e-03,2.413217319068645603e-02,1.780103445053100586e-01
-2.723614961523072586e-01,-4.593812619341942627e-01,-4.464173972060560547e-01,1.417431473169156880e-03,2.539840224714913584e-03,1.421199063785218370e-03,1.809734702110290527e-01
-2.832024936100715484e-01,-4.278080140821555744e-01,-4.289026806921955037e-01,3.487603834657398462e-03,1.446401473040318875e-03,3.600682938935764223e-04,1.453045308589935303e-01
-2.925720113977356984e-01,-3.052844399028825650e-01,-4.466930752122773574e-01,1.387920783930228844e-02,1.247098784193402792e-03,2.022087464316906988e-02,1.541585922241210938e-01
-2.995621664586468058e-01,-4.515588987632964679e-01,-3.766470321833702561e-01,5.130621266702967143e-03,-3.285374558246509976e-03,-3.984772083867947449e-03,1.322400122880935669e-01
-3.881733973310474983e-01,-2.338313397043915165e-01,-6.601094862902715521e-01,9.430949673713753811e-02,-1.831864403701623928e-02,4.109811359010052262e-02,4.153295159339904785e-01
-3.203872075335122416e-01,-3.702536658780291035e-01,-4.717811115530915478e-01,7.203871341848190960e-03,1.599111196391308229e-03,1.299302093888943244e-02,1.361143440008163452e-01
-3.096047682881384877e-01,-4.210926462826587446e-01,-3.931050385652728463e-01,2.570870568533253301e-03,2.326081903415120353e-04,-8.099797299164032682e-03,1.015351414680480957e-01
-3.111964977417608913e-01,-3.330799604514989576e-01,-4.524370512449580328e-01,-1.528495803834678882e-03,-2.739812700990455869e-06,1.800542272734792894e-03,1.317333728075027466e-01
-2.912032712106992216e-01,-4.715062298927630846e-01,-4.202682502474412440e-01,2.456544502478465370e-04,4.611632218562483274e-03,-9.905720357251178530e-04,1.611305475234985352e-01
-2.797440820253719873e-01,-4.391361592279163228e-01,-4.389178207015476119e-01,1.023623378741639377e-03,2.271065842170570323e-03,3.276639564397995845e-06,1.593414545059204102e-01
-2.941401902408803393e-01,-3.363112112956715971e-01,-4.403611568551265010e-01,1.569320768914165415e-02,6.067434305464039501e-03,2.645388860274846751e-02,1.412139385938644409e-01
-2.975702646692022224e-01,-3.495341202197183028e-01,-4.417016368198805054e-01,-3.006465305503378503e-03,9.110115084539885735e-03,3.316812072389145605e-03,1.276462972164154053e-01
-3.160711252986873054e-01,-3.950213050080005339e-01,-4.747809119969979008e-01,9.423979464688102964e-03,6.821754371442285102e-03,1.549256236522097464e-02,1.414844989776611328e-01
-3.058120683057757860e-01,-3.508023548316711593e-01,-4.757312014927640442e-01,1.394852811762790912e-02,4.282475172471537049e-03,3.475518241919026401e-03,1.546831279993057251e-01
-2.520622263112869965e-01,-3.552543889704178892e-01,-4.087718355774782597e-01,8.305775319597871742e-02,-4.339055364821470251e-02,-8.879577435892349602e-02,2.627420425415039062e-01
-2.754706780921167275e-01,-4.651898040137458779e-01,-4.581039063621935581e-01,-7.298011827685704344e-04,-1.505349113686238439e-04,-4.550400446965739503e-04,1.862834244966506958e-01
-2.692824442660095574e-01,-4.591519282316611772e-01,-4.571884673817213085e-01,-1.805967035529481223e-04,3.524993373940587833e-03,7.032518116468715720e-04,1.889982372522354126e-01
-2.740946087822984101e-01,-4.624920480821853586e-01,-4.523001670649174910e-01,-1.501235465196190449e-03,7.875555074881789800e-04,-1.731406089751318361e-04,1.835376173257827759e-01
-3.216759787915846047e-01,-3.558051408136398974e-01,-4.837496018875750425e-01,9.831065860833097456e-03,5.746482592902932285e-03,4.009226751550768082e-03,1.494605690240859985e-01
-3.089423517247299467e-01,-4.472839947353143275e-01,-2.908030657485919379e-01,-4.105943552879061376e-02,9.131139513675287644e-02,-1.104842121139533867e-01,2.977718710899353027e-01
-2.908876955240814466e-01,-2.585560906020982763e-01,-3.853062826363573001e-01,-5.014058058234472509e-02,3.342306280456546624e-02,-1.286777308809160247e-01,2.712569236755371094e-01
-3.303317900773939941e-01,-3.976594633193297756e-01,-4.820377068421997646e-01,5.702559969283130595e-03,3.814574974862883824e-03,1.503418535150591144e-02,1.347330212593078613e-01
-2.817981124299985263e-01,-4.720428820388995472e-01,-4.507455598465648361e-01,-4.840907800965604910e-04,2.087954502172981522e-03,8.160676323839257881e-04,1.805844008922576904e-01
-3.010457246445320534e-01,-4.063342922524265100e-01,-4.291766421935809817e-01,-3.385948171526872736e-03,5.933335290064064432e-03,-4.500654425377731936e-03,1.192194148898124695e-01
-2.917339829908199844e-01,-3.670114242221764189e-01,-4.059171392391175415e-01,-7.560017703174093211e-03,6.768029050377584108e-03,-3.194643464664287391e-02,1.161020025610923767e-01
-2.743993489036268829e-01,-4.562742534569585451e-01,-4.623821349246331480e-01,8.461815273891106351e-08,1.049345427942570625e-03,4.618149880171783868e-04,1.850151419639587402e-01
-2.368785014958029733e-01,-2.710798082591220903e-01,-1.814602200845999713e-01,1.379456661159728439e-02,-1.097198217315498159e-02,-1.322050789766070489e-01,2.439320981502532959e-01
-3.648083778666346699e-01,-4.613439151828386264e-01,-4.061661759187995546e-01,1.262416158590282805e-02,-7.136524497423050659e-03,-7.706296997316974817e-02,1.596373468637466431e-01
-2.727592077598544051e-01,-4.554328327419827627e-01,-4.520387514117372163e-01,1.188833760704120172e-03,-5.363082099864479235e-04,2.678907695161532299e-04,1.810151487588882446e-01
-2.761917955870451524e-01,-4.427239593363689885e-01,-4.396226485663533023e-01,1.321216248027840077e-03,-3.982685012904113239e-04,1.664143048126146386e-03,1.650458425283432007e-01
-2.801866362882035055e-01,-3.918426023626868648e-01,-2.449827976012278752e-01,-2.357986614079904744e-02,5.475482423152717298e-02,-1.282229750154032510e-01,2.786086499691009521e-01
-2.718792127115512436e-01,-4.584551005765804543e-01,-4.497848802077389907e-01,7.622134614856157552e-04,-2.730497700363779690e-03,-3.864735409120413656e-04,1.824627071619033813e-01
-3.240406307571728761e-01,-4.554926879830241693e-01,-4.155258356417808607e-01,-8.764454746898263371e-03,1.887160405190590681e-02,-2.960338094552252691e-02,1.324809640645980835e-01
-2.653661865816804855e-01,-4.386635502406885934e-01,-4.497545232528231685e-01,1.482125071803223892e-02,-8.588456307631312306e-03,-3.727430731624148310e-03,1.816562563180923462e-01
-3.070149056602693438e-01,-4.202379734313623771e-01,-4.226292383241297967e-01,2.773808511846242043e-03,-2.280361097985708369e-03,-4.590239629987533793e-03,1.148817688226699829e-01
-2.670778424276253338e-01,-4.477259797056766244e-01,-4.353308370285337014e-01,8.341413725943745000e-03,-1.032037802646050551e-02,-3.506397235401747647e-03,1.763898581266403198e-01
-3.032001654352704523e-01,-4.044643800700229441e-01,-4.238728411972183530e-01,4.701040172596471049e-03,-3.695334520358007323e-03,-7.653714036778927823e-03,1.134879514575004578e-01
-2.824520869856274041e-01,-4.298383522036919868e-01,-4.402540511135202839e-01,8.110985679660948425e-03,-1.063930041939451128e-02,-7.215101283887960688e-03,1.551110893487930298e-01
-2.800103078724547334e-01,-4.559956052826742434e-01,-4.474717490004044285e-01,4.644977302437578240e-03,-1.696503172981672202e-03,-2.070992597969151315e-04,1.720956116914749146e-01
-3.163888329373798491e-01,-4.579560616309670262e-01,-3.247577624546079678e-01,2.495377905145160224e-03,-4.413977741381062275e-02,-2.124028551763167127e-02,1.616899520158767700e-01
-2.825531764366357446e-01,-4.373644703140926460e-01,-3.990101329757427262e-01,1.310180631482484731e-02,-1.251734339102019040e-02,-8.382313407949050152e-03,1.438600718975067139e-01
-2.944582968032250503e-01,-4.403853834539898093e-01,-3.708745146867606923e-01,7.739959636983014327e-03,-3.317528943760548587e-03,-2.581447034756239288e-03,1.273408383131027222e-01
-2.709339549943473036e-01,-4.335904996488430529e-01,-4.263009991575982260e-01,8.804415509267008236e-03,-4.926779771537048713e-03,-3.243127707581117992e-03,1.601921617984771729e-01
-2.700475817502659415e-01,-4.520788795451925468e-01,-4.409006369494662958e-01,4.350934899406610698e-03,-7.289829557868913665e-03,-1.851689706869208245e-03,1.773472875356674194e-01
-2.727996313134894435e-01,-4.400015812949600313e-01,-1.362778393638146568e-01,1.517770957902157651e-03,3.430938683753739088e-02,-2.161525735877466853e-02,2.726928293704986572e-01
-2.901770386170359761e-01,-4.205865291602676193e-01,-3.043485721864518379e-01,9.767912781799448219e-03,-1.203145415689404508e-02,-4.417878759016152096e-02,1.481052488088607788e-01
-3.101737966089503917e-01,-3.459922527896335809e-01,-4.435251493224043884e-01,-1.568196078803077561e-03,4.297032732124477471e-03,-7.133991719645905484e-03,1.204348728060722351e-01
-2.650149393667110553e-01,-4.821830385783807404e-01,-4.879545300515384931e-01,2.204914839389280484e-02,1.170695021823294803e-02,5.933820155620766514e-03,2.245527952909469604e-01
-1.873879262081088459e-01,-4.590804941023078900e-01,-3.988503075137051490e-01,3.507348179132241395e-02,7.512164377368016344e-02,2.190573820545749228e-02,2.883405089378356934e-01
-2.862147171867901463e-01,-4.585080449433632799e-01,-4.170757132668323486e-01,4.041306117661947584e-05,5.122596458975438478e-03,-1.379999402297389221e-03,1.560370326042175293e-01
-2.693389378478976415e-01,-4.961623623221613211e-01,-5.069367824058033101e-01,5.534515305454065087e-02,1.379678636422390914e-01,4.169801535658639730e-02,3.542875647544860840e-01
-2.676109648644889871e-01,-4.618727230815333207e-01,-4.640146280019549208e-01,2.922501109684808203e-03,9.578718523225481993e-03,-6.080958211044026895e-04,1.961129754781723022e-01
-1.868701031967300030e-01,-5.175987821774397091e-01,-5.827679228115785204e-01,5.529218957225076614e-02,5.968428664517931581e-02,1.235448852709617601e-02,3.943323493003845215e-01
-2.936635085805419099e-01,-4.706546238969656071e-01,-4.685094540093843185e-01,2.482696295941724633e-03,1.494266644790419795e-03,-1.554267966343989222e-03,1.760205030441284180e-01
-2.688447955119174226e-01,-4.618290843304212467e-01,-4.594749413191649423e-01,-2.603388509857313586e-04,1.001477460829178906e-02,-3.572518780275516729e-03,1.927006542682647705e-01
-3.055585870642444357e-01,-3.980952300674757693e-01,-4.623818999955264797e-01,-4.089474001442850240e-03,4.025288491922420463e-03,-3.545512331699983248e-03,1.370444148778915405e-01
-3.272277118360571446e-01,-5.730314742436866116e-01,-5.568344908574407448e-01,-2.241012297879757531e-02,5.022588407602586458e-02,-1.260676237203908409e-02,2.573944628238677979e-01
-2.908892536619522295e-01,-4.896467120853657540e-01,-5.021172448457797977e-01,2.009822857187468659e-03,4.488496710110210890e-03,6.637930655534661495e-03,2.057751119136810303e-01
-3.090931228674974052e-01,-5.348689821437948577e-01,-5.264872792307156990e-01,-4.520007956443129055e-03,5.310933231264072449e-03,-1.687869503413186615e-03,2.220519334077835083e-01
-3.329675606346106376e-01,-4.889377208253810059e-01,-3.610255827100876669e-01,1.792500348023534076e-03,3.595619373707312477e-03,-6.588089143656501723e-03,1.446249037981033325e-01
-2.945626585958918131e-01,-5.403701345913950460e-01,-5.241032209909716189e-01,8.309277100571620805e-03,1.277147235342830688e-03,-1.390135591118136669e-03,2.385481595993041992e-01
-3.273266344084267976e-01,-5.546666138069457075e-01,-5.551300051130861890e-01,-3.774252379256354695e-03,-6.508330907439958783e-03,2.144281558058484458e-03,2.279750704765319824e-01
-2.731690911607742578e-01,-4.595729193749429897e-01,-4.520680532833548648e-01,-1.482164790301924821e-03,8.033979471673494003e-04,2.812533322230030943e-04,1.827909648418426514e-01
-3.251953901875902497e-01,-8.766632735578619995e-01,-8.058695920924354716e-01,-3.324555318646647828e-02,1.262222541768390771e-01,-1.416937154270534426e-02,5.672762989997863770e-01
-3.003416163371099290e-01,-4.772895621755707252e-01,-4.743830148091363053e-01,-2.116969751399540474e-03,-1.176909513011205419e-03,3.501448683318180029e-04,1.755639016628265381e-01
-2.872062260654916210e-01,-4.619017112194034880e-01,-4.618291373490457929e-01,-4.035147915675648365e-03,7.701755924636873377e-03,-9.877684735487676695e-04,1.753156185150146484e-01
-3.258558974010733467e-01,-4.834823871229176895e-01,-3.561574575032273038e-01,1.465780682307747922e-03,-1.050708396951965766e-02,-4.048294126085690524e-03,1.462011486291885376e-01
-2.967135290851231066e-01,-4.454996373527523312e-01,-3.536112502060459462e-01,7.035343864741193040e-03,1.635576668913614473e-02,5.517114459669853442e-03,1.339828521013259888e-01
-3.412559996151558472e-01,-5.137729643433905924e-01,-3.399937663387136433e-01,1.392564401037443313e-02,2.104864037225005410e-02,1.656033357866416172e-02,1.808731406927108765e-01
-3.551487993250116437e-01,-5.293110384047322592e-01,-3.732450439550794585e-01,1.601347517681359425e-02,3.775826593351657573e-02,3.002774878708645845e-02,1.877754777669906616e-01
-2.796611061429394307e-01,-4.694485864917780082e-01,-4.490475851621287817e-01,-3.073335619104565746e-03,2.367621093971332327e-03,-1.422696665025282225e-03,1.805958449840545654e-01
-3.058374319652079620e-01,-5.146002396840515525e-01,-4.769732994073456189e-01,-4.865944969323527519e-02,4.167186241072964870e-02,-3.409650327325084579e-02,2.300938218832015991e-01
-3.106307341771172847e-01,-6.073999603516181400e-01,-3.974211246461082925e-01,3.436402942782190023e-02,1.628827350676778363e-01,-1.634390227150277208e-02,3.921532928943634033e-01
-4.401145617011732458e-01,-3.456332358144865724e-01,-6.662414601009923887e-01,-9.006890506554275644e-02,1.711272526215965040e-02,-1.017524654392624461e-01,3.710812926292419434e-01
-2.712940868475188227e-01,-4.460222976915544368e-01,-4.467194667816403730e-01,1.288265436002842363e-03,-4.769922562032081472e-04,-1.425736104420003390e-04,1.750941723585128784e-01
-2.714811991800842317e-01,-4.521850055170809068e-01,-4.578675026134673143e-01,-1.828566202402655456e-04,7.863247036029817876e-04,3.286484003659624034e-04,1.836172193288803101e-01
-3.088876982206839594e-01,-4.571984088037274185e-01,-3.598233892972181880e-01,6.443955770113918291e-03,7.064400390372717851e-03,3.275952329932032420e-02,1.432831287384033203e-01
-2.727788332352764078e-01,-4.550312271490986049e-01,-4.525104400413474393e-01,1.145793037631608535e-03,-5.815074094315012768e-04,2.778483207432018822e-04,1.810194849967956543e-01
-3.183880099819468290e-01,-4.769634886485805136e-01,-3.659403425203267002e-01,-7.645700847730026433e-04,5.261474978824094186e-03,3.251627991913865270e-03,1.413622796535491943e-01
-3.181027937667593175e-01,-4.834459620693014048e-01,-3.754156122504969106e-01,1.806473614176946343e-03,1.444469976362398184e-02,-5.206808948480100719e-04,1.475919783115386963e-01
-3.138497493337099042e-01,-4.589802948763141988e-01,-3.265470453497869574e-01,2.444137819072079564e-03,1.916078621815832037e-02,6.880252914043104122e-03,1.436755806207656860e-01
-2.740794093182186142e-01,-4.494371860758282211e-01,-4.489878670808350458e-01,-9.897057988813278556e-04,5.697011781365355102e-04,6.126175085374516030e-04,1.751479357481002808e-01
-2.727405740411263935e-01,-4.493870144488457674e-01,-4.494008835251043221e-01,-6.805683387064580562e-04,3.154990797098672427e-04,1.710169971399509486e-04,1.766584068536758423e-01
-2.734723265895048216e-01,-4.577684890725318145e-01,-4.531592765208091733e-01,1.363222094287206386e-03,-4.976131431213259284e-04,4.597925045383862135e-04,1.820544153451919556e-01
-2.703631084657571182e-01,-4.508242998067959473e-01,-4.454001196345679370e-01,-4.144173080317611196e-03,2.483090075100177242e-03,-1.547768954333139191e-04,1.780081540346145630e-01
-2.726469886545021537e-01,-4.535267184542467467e-01,-4.509733392662108598e-01,-9.793555869559284182e-04,1.738613102150894641e-04,-1.740388731338434413e-04,1.796251684427261353e-01
-3.172157682547355195e-01,-4.338260045762486472e-01,-4.246602781724700959e-01,5.074883583611084457e-03,9.737956981573456933e-03,2.057704039952437322e-02,1.193529665470123291e-01
-3.018574790071822944e-01,-3.928496542334081743e-01,-4.184935141524325219e-01,2.159647716772437626e-03,5.296872736197212779e-03,1.008629637423743425e-02,1.080459952354431152e-01
-2.750675923494866892e-01,-4.618029394844922475e-01,-4.610323139722934949e-01,4.471953263035218472e-03,-2.049364012807558533e-03,2.855488380410443265e-04,1.865465641021728516e-01
-2.823166329419476983e-01,-4.515575056762409778e-01,-4.159042490030770423e-01,7.827707993365325481e-03,-2.401123568853075121e-03,-1.324141518862034534e-03,1.551966965198516846e-01
-2.933062190741435593e-01,-4.140107659919539107e-01,-4.168838094650355597e-01,1.453405779389575075e-03,5.401996552185039067e-03,5.035456738282434105e-03,1.228600069880485535e-01
-2.859999809406808535e-01,-4.586766345301939163e-01,-4.546479896680916677e-01,1.106345560599925060e-02,-1.683660443066351334e-02,-6.828013771557788110e-03,1.746289879083633423e-01
-2.958652093260150107e-01,-4.331238471689176084e-01,-4.251800032130019225e-01,4.077263877896798033e-03,5.507198598285776431e-03,4.399308448868284767e-03,1.342072933912277222e-01
-2.974930130210720614e-01,-3.979367789356922924e-01,-4.553423090206116242e-01,1.972300346558789226e-03,4.151866218414847556e-03,6.627891024722006030e-03,1.390882581472396851e-01
-3.121281810514891508e-01,-4.622270981417176405e-01,-3.311899730181204204e-01,-4.744356056172996296e-04,5.081504495316163661e-03,1.879566897066178768e-03,1.418471783399581909e-01
-2.781105137659026783e-01,-4.214620107908274016e-01,-4.361756308737176902e-01,1.955677848127429855e-02,-1.763059117635283959e-02,-2.377947965154352319e-02,1.632533818483352661e-01
-2.902150766358068679e-01,-4.229805532209266472e-01,-4.395686277766699401e-01,3.481572772901717506e-03,1.051503305985695275e-02,1.448352532336761450e-03,1.431031674146652222e-01
-2.969624036224428609e-01,-4.230190366772048072e-01,-4.223706501092350241e-01,3.494282702078036797e-03,-1.151995205110411353e-03,-1.436136844443488408e-03,1.259196549654006958e-01
-2.742029510771659129e-01,-4.580476117557892302e-01,-4.635432540049044814e-01,-2.351662953259318727e-03,-3.394509600089981702e-04,3.058804463291264005e-05,1.866985410451889038e-01
-3.136306552923825430e-01,-4.591698840395992409e-01,-3.836628859899688937e-01,4.357390256961088740e-03,-2.613767995134690710e-03,-3.870770152635855717e-03,1.265549212694168091e-01
-2.723218948759191793e-01,-4.588439606757886424e-01,-4.626577775163844830e-01,-1.515891385823219624e-03,-9.729730385015780345e-04,-3.020783110118245877e-04,1.884844750165939331e-01
-2.709515693581703299e-01,-4.541255309233162007e-01,-4.602758070551263847e-01,-1.359819673759322597e-03,-9.147955871228277171e-04,-2.040244969600928115e-04,1.863472014665603638e-01
-2.713323966057291092e-01,-4.552756270316279941e-01,-4.614753387870618728e-01,-1.571837912597351177e-03,-9.262786691044290596e-05,-8.978070689870321292e-05,1.871400624513626099e-01
-3.065615837101781649e-01,-4.094713024914743427e-01,-3.005497697310543503e-01,1.179191261356739989e-02,1.521210395617428324e-02,6.699725241046276814e-02,1.606937944889068604e-01
-3.133496897365743439e-01,-4.538819302703815950e-01,-3.687273409452526685e-01,-3.742386057138427126e-03,1.366826577589576232e-03,-7.143786239506770379e-03,1.234275996685028076e-01
-2.777566764522421128e-01,-4.602544038421674810e-01,-4.700967003546241418e-01,-5.709227366862080523e-03,-2.163195857285760311e-03,6.262306470476852608e-04,1.879135072231292725e-01
-2.730768038069005810e-01,-4.291425907375587823e-01,-4.465776872475094583e-01,-6.816932557936945282e-03,7.666665381145304145e-03,-3.200756830401067701e-03,1.665173023939132690e-01
-2.687017366780658501e-01,-4.439216097816326978e-01,-4.544973753849517184e-01,-5.395782920658210267e-03,-2.399673615835270103e-03,7.796451723888398095e-05,1.810292005538940430e-01
-2.718716691877912650e-01,-4.471382899596451632e-01,-4.628815394910271719e-01,-5.667717002575837180e-03,-2.145679326589602313e-03,8.315225984626910098e-05,1.839448511600494385e-01
-2.743388822158529528e-01,-4.556033397375400806e-01,-4.619463177630859230e-01,-5.649823202282472888e-03,-2.232754551478839146e-03,-1.680327222328690574e-04,1.848177313804626465e-01
-2.703538857154808017e-01,-4.458809657489365974e-01,-4.583978094571455886e-01,-5.321629646438790981e-03,-2.234298172095063040e-03,5.915925470084962756e-04,1.823854595422744751e-01
-2.758392773305308743e-01,-4.749137644072010112e-01,-4.759505549358212240e-01,6.836078733562931525e-03,1.652443670822968322e-02,-3.067217657484321881e-03,2.020537406206130981e-01
-2.880618479669910803e-01,-4.820530596758899611e-01,-4.806246703766077211e-01,8.458517711963566693e-03,2.474538323613187981e-03,-5.032200192857591570e-03,1.940786242485046387e-01
-2.852720238448636092e-01,-4.707867530277805024e-01,-4.720604549520501791e-01,9.791962608185185782e-03,2.800452522630850639e-03,7.017725329583634521e-04,1.869927346706390381e-01
-2.619322492834055272e-01,-4.107546343088169238e-01,-4.206566379179956794e-01,1.214304977899347514e-02,1.441092613074759776e-02,1.100286631494853083e-02,1.585823595523834229e-01
-2.773672493976878650e-01,-4.538713219567102608e-01,-4.748289880696956455e-01,1.006585298455702805e-02,8.453949923179725906e-03,6.867550896321068625e-03,1.896098256111145020e-01
-2.729436851256359375e-01,-4.461702069391736969e-01,-4.500724319357983227e-01,-4.767360443472043810e-03,4.385651525386520706e-03,-8.083455054709456173e-04,1.755746901035308838e-01
-3.008660271919677553e-01,-4.449997485579407219e-01,-4.083231953472589160e-01,-7.550952774810876580e-03,2.508529002615523043e-03,-4.642362096452902660e-03,1.307208985090255737e-01
-2.964804707026110764e-01,-5.056182534705184750e-01,-4.991977027126700550e-01,3.581842074283950184e-02,3.933498524057842810e-02,2.779787881030516480e-02,2.307505607604980469e-01
-2.683926406361858419e-01,-4.443345781207532208e-01,-4.237088634197502812e-01,-6.314857224502950193e-03,7.675267872557100732e-03,-1.867779099650158751e-03,1.675078570842742920e-01
-2.776738573223584416e-01,-4.524468001469598155e-01,-4.521710774515617093e-01,-4.087992559362402245e-03,1.848647748535207913e-03,-1.006465677872204340e-03,1.748167425394058228e-01
-3.134658579504802645e-01,-4.285343564356806079e-01,-5.054535283611415464e-01,5.640678553279194346e-02,3.780689821682116369e-02,4.417724057634032225e-02,2.183951437473297119e-01
-2.740173802290427618e-01,-4.590632452723770740e-01,-4.532292358317914216e-01,-1.621857107543996914e-03,5.294466763356734870e-04,1.803961306132834119e-04,1.822231560945510864e-01
-3.235552514955187808e-01,-4.217616779482630252e-01,-4.418174562539834982e-01,-7.711559110111440574e-04,-1.498813803095027427e-03,-1.964211011718143551e-02,1.148142144083976746e-01
-3.204894488977740874e-01,-4.380355020520941833e-01,-4.233949678125911165e-01,5.418032377522931896e-03,-3.910628679604761550e-03,-1.536120703370493813e-02,1.146835982799530029e-01
-2.800349271612417312e-01,-4.642678070941071988e-01,-4.512748004960683290e-01,-5.350162429555292698e-03,1.386463635580030117e-03,-1.743424447213645981e-04,1.783495545387268066e-01
-2.929911567855045251e-01,-4.934590772539386161e-01,-4.904120986511592561e-01,-8.542794544508793345e-03,3.800126214005822636e-03,-2.956209272792503003e-03,1.996855735778808594e-01
-2.784559119160626151e-01,-4.504957239529394086e-01,-4.502665629185497176e-01,-2.414275444558629073e-03,2.064105398219165215e-03,4.073026873578387353e-04,1.720148026943206787e-01
-2.769000931815482347e-01,-4.511381257858556593e-01,-4.427663015303232030e-01,-5.122975784325954976e-03,1.265467503719198234e-03,-5.524459756815843674e-05,1.704518646001815796e-01
-3.000389835543463835e-01,-3.884715018043242707e-01,-4.153253002713720998e-01,-1.808521894559989940e-04,9.331844519345735200e-05,-9.434234082104239749e-03,1.057512387633323669e-01
-2.721778115613945337e-01,-4.531658908302943489e-01,-4.597271679266233257e-01,-1.657097631959663535e-04,3.431462557100879349e-04,1.736503716761077980e-04,1.843577325344085693e-01
-3.148236959606935947e-01,-4.244252104006003834e-01,-4.273065513172193408e-01,-1.182744937219879210e-04,4.281449813843829239e-04,-8.910279330418671706e-03,1.121399328112602234e-01
-2.772431895397650115e-01,-4.495014416659329215e-01,-4.445893171977939873e-01,5.309132762746509443e-03,-1.349999619184781953e-03,1.470251328499006590e-04,1.701204627752304077e-01
-2.726644047301398643e-01,-4.527827708244195892e-01,-4.579295562499333672e-01,4.698897632316629235e-03,-4.407984611495490736e-03,-7.076811200400961793e-04,1.830906271934509277e-01
-2.752497736035505738e-01,-4.476790377340483240e-01,-4.491794671561319952e-01,1.660741186123722204e-03,-1.311346086978771967e-03,-6.412598260931798994e-04,1.732266992330551147e-01
-2.767539023464167802e-01,-4.441432805840783704e-01,-4.484311194654817534e-01,1.306760816418084305e-03,-4.725999370335375906e-03,1.642771230930196904e-04,1.697867363691329956e-01
-3.162160453985504716e-01,-4.181842816994160161e-01,-4.372117543187432620e-01,-9.886354102751012968e-04,2.238271762508873422e-05,-1.968636932909169010e-02,1.177512481808662415e-01
-3.205085488446650643e-01,-4.888962500062576377e-01,-4.838611101988608554e-01,4.199856960720111526e-02,-4.400377274243424952e-02,-4.649899313664454525e-02,2.124123871326446533e-01
-2.729628373064377778e-01,-4.564881473597467432e-01,-4.617704819246221115e-01,-9.920418655579011074e-04,3.315038108930290755e-04,-1.345251511129712372e-05,1.862314939498901367e-01
-3.014387597642703143e-01,-3.324597099963815250e-01,-4.044188066019716032e-01,7.370991930731885140e-03,4.382131118571725402e-03,5.079856480880451386e-02,1.278074234724044800e-01
-2.696368698718086265e-01,-1.065421524584836410e-01,-4.580478030878877282e-01,7.650238048406360347e-02,-5.826723580647139543e-03,-7.862216366142137439e-03,3.326748013496398926e-01
-2.734102489815706249e-01,-4.492024632943656948e-01,-4.494852054222682747e-01,3.729844756481348438e-04,-1.511099017444660639e-03,2.326832593228259300e-04,1.759548634290695190e-01
-2.519806370184182742e-01,-1.238747788155411256e-01,-4.144947838952686703e-01,-4.465103157889264290e-02,1.897782865866809226e-03,7.411691276393309264e-04,2.638836205005645752e-01
-3.739212390795489949e-01,-3.944597128295517230e-01,-5.181113967322337199e-01,1.322917257998490990e-02,5.127848096352657578e-03,5.752718561296310540e-02,1.696562170982360840e-01
-2.883194742314156844e-01,-4.503815199459802465e-01,-4.309894559351038490e-01,7.193589534418288502e-03,-1.916243682905300000e-03,-1.706435190376981610e-03,1.538584977388381958e-01
-2.755706631080488411e-01,-4.397012085028439987e-01,-4.429208400760455966e-01,3.055490523748647866e-03,-1.272713002793015788e-03,-1.306745024824808115e-04,1.658630818128585815e-01
-3.337751870880640848e-01,-1.941352735773220206e-01,-5.198529725269891433e-01,-1.676056206168227009e-02,1.128770110978817749e-02,1.020764680723157819e-01,3.355472087860107422e-01
-3.603737410473468739e-01,-3.870442127949974553e-01,-5.153224535721085964e-01,2.311800035728930197e-02,1.140408534641631187e-02,5.583992209042091398e-02,1.787054538726806641e-01
-2.939198306973146990e-01,-2.228031074568421754e-01,-4.493580580675380909e-01,-4.017842237039199321e-02,-1.203856799979824421e-02,6.924338671630680953e-02,2.448152899742126465e-01
-3.025151337012165209e-01,-4.459236745885857278e-01,-4.113076210900231122e-01,7.324501012028039777e-03,-2.377737676468444188e-03,-4.022539785220797560e-03,1.304855942726135254e-01
-2.842027685860120112e-01,-4.298934688348362565e-01,-4.312924229612754012e-01,3.981805945817889873e-03,-1.093549865074455079e-03,-1.345722621041280185e-03,1.465883255004882812e-01
-3.475838541635754009e-01,-3.493997410793138192e-01,-5.197394605109815213e-01,-3.884888596722375215e-02,-1.943104262492991721e-03,2.864866660612026827e-02,1.906030178070068359e-01
-3.093279905068914148e-01,-4.223710950272213660e-01,-4.200593691879307423e-01,-4.290940489250967028e-03,3.647286787609766486e-03,-5.055733739397390292e-03,1.126702651381492615e-01
-3.136838151759955839e-01,-4.359505483994671193e-01,-4.204695390275632882e-01,-5.626554694665740486e-03,3.000820918499219354e-03,-2.747635044908216476e-03,1.159337759017944336e-01
-3.021672055917224431e-01,-4.185209368739246649e-01,-4.225644398694003989e-01,2.021187918694512201e-03,-3.531290803437040285e-03,-3.984089957973961996e-03,1.188372895121574402e-01
-2.975709668802620222e-01,-4.007208345214076650e-01,-3.980486272684609084e-01,1.045147735124052736e-03,-9.326396957610127948e-04,-1.666011001067792957e-02,1.058771088719367981e-01
-3.102157386278946438e-01,-4.207274110059492922e-01,-4.222025483067622931e-01,4.894605831955367234e-04,-1.130655593728023718e-03,-9.535969092260778920e-03,1.124961525201797485e-01
-3.012122111964149473e-01,-4.339551163180665472e-01,-4.279968338815305917e-01,9.298373600965055465e-04,-1.073520719995191188e-03,-2.186271525805885858e-03,1.299448013305664062e-01
-3.012015098595385854e-01,-3.883523387025385465e-01,-4.156398227239104792e-01,1.008149833808016406e-03,-2.022693645454520881e-03,-1.002360334861015362e-02,1.050463765859603882e-01
-3.101387259083152603e-01,-4.200350746687393499e-01,-4.329010170020189952e-01,1.958255904492548459e-03,-3.920126721082974920e-03,-2.555039080362130413e-03,1.171915158629417419e-01
-3.094043199135880218e-01,-4.396264480436493094e-01,-3.939858862996094002e-01,2.365003354928396206e-03,-1.970619276088571119e-03,-6.647880261640520989e-03,1.151454076170921326e-01
-3.136873508255068055e-01,-4.429943753650675276e-01,-4.259253217908709477e-01,8.431852571568409019e-03,-8.037248244578049094e-03,-1.319794387698082494e-02,1.254358291625976562e-01
-2.714796367696743484e-01,-4.536737818867395133e-01,-4.592239372537124664e-01,-1.295272070121713430e-03,8.090166624717455048e-04,-1.855527457949202746e-04,1.850508451461791992e-01
-3.101944099899598961e-01,-4.146591935045522703e-01,-4.221969648157046229e-01,8.076395886592840207e-05,3.413480683327001198e-04,-5.229876229626420799e-03,1.088097617030143738e-01
-2.737500825469150190e-01,-4.575275557562016870e-01,-4.529619177480831427e-01,-3.295794365455725038e-03,4.176261295087427272e-03,-1.298293987684584570e-03,1.817853450775146484e-01
-2.746597484264843292e-01,-4.579576330745034896e-01,-4.543998964051984557e-01,-3.432190806724091502e-03,2.666595533659046977e-03,-3.859068600239380664e-04,1.817024052143096924e-01
-3.120405051241068595e-01,-4.280430471126315806e-01,-4.220106911123295834e-01,-2.420560613555835898e-03,6.964559190568812841e-04,-1.733192950066921988e-03,1.132309809327125549e-01
-2.968196238999311065e-01,-4.291124460018045372e-01,-4.168651057257096726e-01,-4.092955904023099119e-03,2.154145363769449130e-03,-1.997881744875414350e-03,1.269145607948303223e-01
-2.686098169994195484e-01,-4.484707441943194817e-01,-4.430539632813095263e-01,-1.140112807440283975e-02,1.035946884960873941e-02,-5.184762862325820003e-03,1.794368624687194824e-01
-2.758288737647493494e-01,-4.447889088310853500e-01,-4.450598137533219867e-01,-3.329611675147978438e-03,1.008093802630795593e-04,-4.652097655235751510e-04,1.691959798336029053e-01
-2.687662177253489215e-01,-4.478312391653396229e-01,-4.393821991962603146e-01,-5.922815157049501553e-03,5.528543647241377160e-03,-1.920846375471837357e-03,1.755868494510650635e-01
-2.935256766597740818e-01,-4.303599207723405318e-01,-4.312889603786500547e-01,-1.022538898980844763e-03,3.380873183570888042e-03,-5.894589422753630488e-04,1.374411433935165405e-01
-2.724643067614612724e-01,-4.556005746946115709e-01,-4.595688866699055852e-01,-9.230628735502327932e-04,5.229107031900854987e-04,4.066493991397264403e-05,1.851614564657211304e-01
-2.886787558230126116e-01,-4.502971644341818847e-01,-4.315039590609083264e-01,-8.046753233710419312e-03,1.657298764050472604e-03,-1.190508314975869016e-03,1.537631601095199585e-01
-2.772480041069573797e-01,-4.558607085168470685e-01,-4.535018040014285323e-01,-3.570112648551232101e-03,2.058327230107058828e-03,-3.455436645182038110e-07,1.775885075330734253e-01
-2.725808924731902838e-01,-4.533735467924479012e-01,-4.504683053925175318e-01,-2.074357317796146367e-03,4.469982383258427086e-05,7.683416425316416838e-04,1.793986111879348755e-01
-1.851628392590243533e-01,-4.228112992262237912e-01,-4.815347489734436714e-01,7.813730093230281115e-02,1.127604713997820696e-02,3.161679538473812553e-03,3.043164908885955811e-01
-2.747241924627398801e-01,-4.548547400053212231e-01,-4.703348101444894680e-01,1.128873878196526986e-02,3.352086261847002629e-03,1.139587281214314921e-03,1.894597411155700684e-01
-2.810471075024557619e-01,-4.916592981869191692e-01,-5.201499641220539427e-01,4.677348521956400940e-02,7.304833950062904376e-03,3.819959722436476468e-03,2.407007068395614624e-01
-2.656319755887183720e-01,-4.376030209696629703e-01,-4.537588389153621726e-01,9.380563560669335360e-03,1.716073221875818750e-03,9.185599215542646469e-04,1.813525110483169556e-01
-2.741492805299822200e-01,-4.528717459370151799e-01,-4.426353265141359516e-01,-4.988048042153757182e-03,1.188997710566403040e-03,4.693490314819048941e-06,1.740572005510330200e-01
-2.787412846095866925e-01,-4.830682226498481113e-01,-4.976496767125290210e-01,4.906118174113974217e-02,-1.054910490789827231e-02,1.729574408365945008e-03,2.291404008865356445e-01
-2.761232650038638603e-01,-3.973507035836233436e-01,-4.125126555339106993e-01,-9.876133458985731847e-03,1.110617527442455885e-02,-1.856576124004107042e-02,1.358703076839447021e-01
-2.725072695220375207e-01,-4.559977843561316968e-01,-4.604963762711597464e-01,-1.026654004299957417e-03,6.289214281334364227e-04,1.474821749980143655e-04,1.857925504446029663e-01
-2.726040538093053023e-01,-4.676045970516048977e-01,-4.831921559559073653e-01,2.349326343205043049e-02,-1.463215508998662491e-02,3.291306232825177351e-04,2.088209539651870728e-01
-3.220611171531725936e-01,-4.582094624514422287e-01,-3.494532530355333733e-01,-7.705855099580515878e-03,-1.387045124051496971e-02,3.449511706439095660e-02,1.410048007965087891e-01
-2.778150897929301255e-01,-4.499541051336389819e-01,-4.493972598981900157e-01,-2.377850844150283024e-03,8.057332500455123905e-04,-2.038443657080085084e-04,1.719166338443756104e-01
-2.787052312473188853e-01,-4.498222038381921584e-01,-4.497829768362422431e-01,-2.564412068788944014e-03,1.496367643780209230e-04,-5.410148529405810463e-04,1.711577624082565308e-01
-2.712171589374281488e-01,-4.494274823182836665e-01,-4.485436471639522304e-01,2.034994984817962028e-03,-7.735350481167749953e-04,-9.451720765543011296e-05,1.778101176023483276e-01
-2.725675892513351739e-01,-4.617310552286018055e-01,-4.625235883542241910e-01,7.336309055272193132e-03,-4.744426898248730110e-03,-2.276412558354456810e-05,1.901640295982360840e-01
-2.865736961851627074e-01,-4.546609387177554806e-01,-4.272615859792566750e-01,8.323508715099708910e-03,-1.977386063550791179e-03,-3.720595570321153303e-03,1.570339649915695190e-01
-2.706398632317584818e-01,-4.538476558125054128e-01,-4.556160616183446144e-01,1.001246782251823553e-03,-1.728663650899313255e-03,3.624910648365019944e-04,1.841319501399993896e-01
-2.755893946711376885e-01,-4.448049050510410329e-01,-4.536533076197575842e-01,8.371561473043004093e-04,-5.132933980481773142e-03,-8.789173712353780515e-04,1.740486472845077515e-01
-2.786642146203177628e-01,-4.534981718740144219e-01,-4.482951439778846692e-01,6.622653986783751112e-03,-4.433831151281752807e-03,-8.227614511536725586e-04,1.728493720293045044e-01
-2.736386467804461375e-01,-4.515721205850537490e-01,-4.508567073363203281e-01,6.770914327606769026e-04,-3.331883371932235337e-04,3.442480045483277667e-04,1.775826662778854370e-01
-2.725519634400654923e-01,-4.502074111262726608e-01,-4.499612312520659407e-01,1.122064364174662522e-03,-2.843252916081257615e-04,4.303842460010210585e-04,1.775453686714172363e-01
-2.730450201112363806e-01,-4.422857336885622770e-01,-4.424507738879955299e-01,4.501382785688931402e-03,-4.266600879759949519e-03,-2.672447472655718487e-03,1.697268486022949219e-01
-2.726926335566867143e-01,-4.473003471195297065e-01,-4.466411315778301971e-01,3.574005356558738913e-04,-2.499508085070507282e-04,2.773145045445514511e-04,1.742813438177108765e-01
-2.700585346221296978e-01,-4.422404804277693668e-01,-4.490400716018454474e-01,4.547979818531635438e-03,-5.270743895029647227e-03,-1.023885797263580227e-03,1.761027127504348755e-01
-3.420595406571595998e-01,-4.928869137727110439e-01,-5.300280587889533157e-01,5.822306561474576564e-02,-4.661090146111793869e-02,-6.875102849245189052e-02,2.461663633584976196e-01
-1.843245337960585650e-01,-7.852309115239316517e-01,-6.721688002359559322e-01,-6.612837014567382599e-02,-8.832426352819005774e-03,2.167339133044568489e-02,5.662984251976013184e-01
-2.837853227353171470e-01,-4.493308224241796545e-01,-4.513357727280203902e-01,8.146577547740009931e-03,-7.576545053943729326e-03,-1.137094084027175794e-03,1.676795631647109985e-01
-2.714832919310973813e-01,-4.553932554105123987e-01,-4.569686130085158782e-01,8.572484300317490501e-04,-1.640163251264225176e-03,7.805071518315959611e-04,1.847354471683502197e-01
-2.807300768909752886e-01,-4.521225637570641664e-01,-4.479524261744153302e-01,3.019009237627093799e-03,-1.018483740005528791e-03,-9.919516338097121556e-05,1.694359183311462402e-01
-3.330134719808512944e-01,-5.877746929290402766e-01,-6.036721760560438410e-01,-3.213083549506938474e-02,1.400898165950534811e-02,-1.244373274761084031e-02,2.708441317081451416e-01
-2.768947360813698300e-01,-4.422915390405894320e-01,-4.437972850406745606e-01,9.864771938914377713e-04,-3.923025703624300441e-03,7.446775390964105370e-04,1.663074493408203125e-01
-2.878813016322652740e-01,-4.573322040730087856e-01,-4.572263857206029236e-01,9.833119375431935080e-03,1.049946583773305256e-02,3.881715906466215883e-03,1.713525056838989258e-01
-2.924667218709086081e-01,-4.484868233470944987e-01,-4.401992187544524482e-01,4.331180055266175763e-03,-2.069515062108322461e-03,-9.642665362101155617e-04,1.522821038961410522e-01
-2.711695809725015449e-01,-4.461527183907144090e-01,-4.480791941291090152e-01,1.891794885114805478e-03,2.590801428659346081e-03,7.872846926929342277e-04,1.760472804307937622e-01
-2.697243443364487625e-01,-4.494122413860201504e-01,-4.513584919727389178e-01,1.317048272758290480e-03,1.363544626978389733e-03,-1.433144334537355411e-04,1.806988865137100220e-01
-2.766441375286504134e-01,-5.403427055256115885e-01,-2.962933311518550772e-01,3.566819633993024291e-02,-1.544867681870779053e-01,-1.381475489461083950e-01,4.443095028400421143e-01
-3.120582253385830729e-01,-4.563419103863050608e-01,-3.461030236871671106e-01,3.810464159803904436e-03,-2.023104253159292102e-03,-1.286595305528057814e-02,1.327296346426010132e-01
-3.172714697693059804e-01,-4.598572866287146677e-01,-3.873026419207358795e-01,-2.928576751618245950e-03,7.102644265053290919e-03,-7.354947593183769165e-03,1.248558610677719116e-01
-2.987432119741589842e-01,-4.254086460536870007e-01,-3.959680277026144113e-01,8.659347582622295425e-03,-4.775151330443015013e-03,-6.857942721593136490e-03,1.166885867714881897e-01
-2.701512149092796244e-01,-4.478780870033428063e-01,-4.473613865335588913e-01,4.704534655283813772e-04,1.158286730474007795e-03,3.134461651128663256e-05,1.774823069572448730e-01
-2.757569500865048595e-01,-4.515429748508255070e-01,-4.493444054802159804e-01,1.344086753908071800e-03,2.185265159969754060e-03,-2.473957270884727345e-04,1.747541427612304688e-01
-3.087182924984808174e-01,-4.313732347166140957e-01,-4.143647655234593552e-01,2.924568057226268215e-03,-3.750620238229079558e-04,-2.964392545858932863e-03,1.153247356414794922e-01
-2.703311185750196244e-01,-4.500157629892532762e-01,-4.483503961942200688e-01,4.176180013733251989e-04,1.130249365442743611e-03,-1.805760163608218232e-04,1.788702309131622314e-01
-3.137396234555072105e-01,-4.322628062722502218e-01,-4.162785324147127430e-01,1.959222416168238372e-03,4.016134704312419672e-04,-3.237734836054239219e-03,1.115893498063087463e-01
-2.529267418221877173e-01,-4.501760914367464173e-01,-3.933835873001640393e-01,1.389743228990915564e-03,4.065066106156939307e-02,6.445690329330394999e-03,1.897848099470138550e-01
-2.875247859935819994e-01,-3.705890777924013557e-01,-3.811004570141932613e-01,5.875609298037727697e-03,-8.602744178069287456e-03,-3.652053390246346593e-02,1.104994267225265503e-01
-2.972409040941599856e-01,-4.307687467553849570e-01,-4.400921958788082122e-01,2.408692073324278111e-03,-6.678407965862919078e-03,-2.766287967599634617e-03,1.390529274940490723e-01
-3.027485778834558272e-01,-4.034441921991714919e-01,-4.374332792689263893e-01,-6.301740954840772541e-03,5.639836467708369931e-03,-1.638458418339903272e-02,1.254485547542572021e-01
-3.062809516075192251e-01,-4.256841913881340700e-01,-4.055769508260222422e-01,-1.881774492105495796e-03,3.603245194775484082e-04,-4.706746956931661015e-03,1.110767200589179993e-01
-2.549280995923763893e-01,-4.420766234737917300e-01,-3.415432011343035867e-01,8.639255096055342698e-03,5.013238455603773180e-02,1.376141692790533444e-02,1.861415207386016846e-01
-2.818182055148747978e-01,-4.515572264232113886e-01,-3.927389889920960275e-01,3.581137985340367754e-03,1.591185682237189133e-02,1.133805445325692437e-03,1.519508510828018188e-01
-3.030583488700503425e-01,-4.374628332490320126e-01,-4.220925177358004765e-01,-6.545253188756614514e-03,2.551429692027011240e-03,-1.234155567611917338e-03,1.280140280723571777e-01
-2.818220564468351119e-01,-4.684284431829316420e-01,-4.359077003505093528e-01,6.672118593622249766e-03,7.908681247541123754e-03,7.663894787119666843e-04,1.735912412405014038e-01
-2.923780288339742350e-01,-4.674691172803610573e-01,-4.025333368709110848e-01,7.618347435042681706e-03,1.362432897600218684e-02,3.737879900549640009e-03,1.558100432157516479e-01
-2.933494402076260998e-01,-4.842208824112800847e-01,-4.127306286633917187e-01,9.153280221933159100e-03,1.455124745591942527e-02,1.363321827724727452e-02,1.712935268878936768e-01
-2.910200653014515249e-01,-3.498655345605984346e-01,-3.619111632890630315e-01,-6.864809830835522271e-03,3.362905206121387554e-03,-8.715683944353194712e-02,1.651695072650909424e-01
-2.979134348685222311e-01,-7.282682031961760227e-01,-5.727064200186992027e-01,-4.160669141060900460e-03,1.228672347766141398e-01,-6.534503835964006191e-02,4.478937983512878418e-01
-2.731073448486180388e-01,-4.631466097407428983e-01,-4.602261582855737831e-01,-4.979697778076492068e-03,7.744728966224514663e-03,7.794546789676265420e-04,1.892738938331604004e-01
-2.738158534205462624e-01,-4.501551736783740987e-01,-4.500476102597981143e-01,-2.355416506529004546e-04,5.421472689344633339e-04,-1.628177800068745704e-04,1.762887686491012573e-01
-2.703976489701430674e-01,-4.472132549493760267e-01,-4.491677744393727245e-01,-3.445270325249684667e-04,2.030467487319188684e-03,-5.861176619159504488e-05,1.778367310762405396e-01
-2.920130651485965401e-01,-4.446521250380943147e-01,-4.401387791187404419e-01,-4.335246534653929701e-03,1.110190649948592390e-03,-3.656183716051846205e-04,1.506340652704238892e-01
-2.744380002582097466e-01,-4.498353195861416465e-01,-4.525310977182392946e-01,-5.822748283530553405e-04,7.756776768444963643e-04,-1.615977351364128217e-04,1.767688244581222534e-01
-2.739674528557319855e-01,-4.396086010568929781e-01,-4.415405291661219644e-01,-1.584644665641430066e-03,5.420178689075857460e-04,3.926835912190255670e-04,1.666421443223953247e-01
-2.775646710319409349e-01,-4.484175591402539962e-01,-4.473123869080522508e-01,-2.605573387418189894e-03,1.824854052958137815e-04,-1.305958168612447214e-03,1.703780889511108398e-01
-2.765403986352150678e-01,-4.422194283511304280e-01,-4.460029459543088937e-01,-8.640155142765053742e-04,-3.418635626891357131e-04,1.588318646692282428e-03,1.676331162452697754e-01
-2.712872645574328501e-01,-4.530857104837039961e-01,-4.581639910804359284e-01,-1.247278390439328106e-03,7.409920216570444265e-04,-3.737122620673228690e-04,1.844082921743392944e-01
-2.756790693544660664e-01,-4.494591587421119527e-01,-4.505428012343881683e-01,-1.076409190096194171e-03,1.294995287551705426e-06,-8.239891016347354732e-04,1.743402481079101562e-01
-2.780945836354409284e-01,-4.502803262151738872e-01,-4.492218840597658747e-01,-2.492610971713456365e-03,2.159656210302485745e-03,3.668527445452006972e-04,1.717551648616790771e-01
-3.349505150483519378e-01,-4.832163220560078409e-01,-3.797421895923053237e-01,1.979647938433923282e-02,1.940641053409164138e-02,8.144736833702415080e-02,1.988831758499145508e-01
-2.941585705488127256e-01,-4.553198553841533713e-01,-3.559092339841379293e-01,-2.001957847333589967e-03,4.201945000417022652e-03,7.914533320676275102e-03,1.417293250560760498e-01
-3.052733738082055170e-01,-4.792371786226443664e-01,-3.888435190438699895e-01,9.058265012514735148e-03,3.494977509019406986e-02,1.256216578625387811e-02,1.646002233028411865e-01
-3.033221125263417250e-01,-4.529941399544198943e-01,-3.575960563444531837e-01,8.333451472699355753e-03,1.817042679030981753e-02,1.542356393929827235e-02,1.383350193500518799e-01
-3.232847721417964060e-01,-4.887218415090625045e-01,-3.764705647879785233e-01,2.195477812911908293e-03,1.242146612141237227e-02,5.603840184895431988e-03,1.482255011796951294e-01
-2.849660656535162317e-01,-4.572161047759869534e-01,-3.938224120612424106e-01,2.028254500497969626e-03,1.583041079613389454e-02,1.132308859261046919e-03,1.534185856580734253e-01
-2.876947819378037341e-01,-4.260457282295470605e-01,-4.465241117489202605e-01,-3.057823019550604069e-03,7.360262208024848443e-03,-2.324684836798139934e-03,1.503340750932693481e-01
-2.728605294773965850e-01,-4.515520829242842260e-01,-4.489272379383550393e-01,-1.341039087780694639e-03,2.412325241384187264e-04,5.454230140409200775e-04,1.774119138717651367e-01
-3.029449605611866936e-01,-4.153663227402986102e-01,-4.058198329401507820e-01,1.663702357251719719e-03,9.281429578182722514e-04,6.688355461449121964e-03,1.086349785327911377e-01
-2.967266341303115840e-01,-4.214082489781015850e-01,-4.259833448035297288e-01,2.086049843113219407e-03,4.763309341165799897e-03,3.914777095731204574e-03,1.275302469730377197e-01
-3.001695653856165102e-01,-4.028752710946424398e-01,-3.996245250006711935e-01,-2.661353476006958658e-04,-1.260195112755741354e-03,1.844676166041961732e-02,1.060706600546836853e-01
-3.005693221636178691e-01,-4.404057172252487384e-01,-4.310642291562050143e-01,6.280259756301156959e-03,3.221348461995601244e-03,1.534910706465470983e-03,1.359842866659164429e-01
-2.811721220296418133e-01,-4.543042285220897925e-01,-4.457345127821804032e-01,-6.923158485977251933e-03,6.711684155901720232e-03,-1.592130893658622341e-03,1.698558479547500610e-01
-2.912829933888431699e-01,-4.284309244059552602e-01,-4.131260599806593214e-01,7.864427591848729970e-03,4.839677601835018148e-03,6.416533708452338766e-03,1.316210180521011353e-01
-2.984941389983106763e-01,-4.116925725790033241e-01,-4.115725668367531953e-01,3.240817518025985826e-03,3.097099238393988870e-03,5.701247440004958249e-03,1.138337031006813049e-01
-2.717311692852156790e-01,-4.475637283066488115e-01,-4.457079945830788037e-01,-3.414236018635856493e-04,5.996062285074916202e-05,5.230409261373028139e-04,1.749154478311538696e-01
-2.744064984518830297e-01,-4.553877729738797231e-01,-4.532620062657435334e-01,4.778917311822464264e-03,6.875061979356860385e-03,1.130070881033589996e-03,1.805219203233718872e-01
-2.758641628594032946e-01,-4.444116179800906563e-01,-4.532422129459192095e-01,-1.984569787270529413e-03,5.068544395886886988e-03,-3.092840419238559362e-04,1.733890771865844727e-01
-1.998128666794584674e-01,-4.592733178569310404e-01,-4.162584866242630688e-01,-1.110200785721586307e-02,1.127900895683251609e-01,-2.079255175324350516e-02,3.127953410148620605e-01
-2.754105424517506173e-01,-4.684648710558607099e-01,-4.665028008731291198e-01,-9.120403066070475063e-04,1.262705340087593581e-02,-7.933982998090496116e-04,1.933332532644271851e-01
-2.735320373025304508e-01,-4.503774344566354171e-01,-4.488970334107021953e-01,-8.780066092756088833e-04,4.170849466617665749e-04,4.474896196836405807e-04,1.761196106672286987e-01
-2.665548832385185030e-01,-4.722797729666041722e-01,-4.660118798618293479e-01,-4.804354931872774521e-03,1.307261271319434988e-02,4.017692978491292990e-03,2.042128890752792358e-01
-2.988247183539219920e-01,-4.881992539175138424e-01,-4.236909843651882612e-01,-6.006482397553342513e-04,2.378587001914464136e-02,1.031526491190392020e-03,1.717829555273056030e-01
-2.658504747818183356e-01,-4.466472408041960995e-01,-4.198337170968268195e-01,-5.413740377828944565e-03,8.725608770720158849e-03,-8.595943139667905917e-04,1.699328869581222534e-01
-2.730620795450491856e-01,-4.601932248277268434e-01,-4.535496879936351533e-01,-1.053756191492573411e-03,3.284815749693598824e-03,-3.360101853305691726e-04,1.839973628520965576e-01
-2.964621713030006211e-01,-4.215060515878522596e-01,-4.236952053196395007e-01,-1.899504341181762739e-03,5.370781783207142189e-03,-2.585500744126947685e-03,1.266172230243682861e-01
-2.737238628652230998e-01,-4.650262586608633342e-01,-4.497473931609535236e-01,1.865221866387371807e-03,4.014694710359516076e-03,-6.184325981459018722e-04,1.843016743659973145e-01
-2.869227930930457471e-01,-4.348311798455978816e-01,-4.304379799057176381e-01,-7.007709963277271087e-04,9.366348514947261733e-04,1.047915751933060045e-03,1.457868218421936035e-01
-2.910611711377580346e-01,-4.410796669145014004e-01,-4.427812161847913264e-01,-8.852219295764865870e-04,3.780086745239735584e-03,3.228813518401948919e-05,1.510262489318847656e-01
-2.678256332955540886e-01,-4.536724739349172197e-01,-4.197333465474634151e-01,-1.917099322805088232e-03,1.050394413500781686e-02,-5.421136193049027078e-04,1.724132746458053589e-01
-2.681252435836271597e-01,-4.569677907365771174e-01,-4.496807881411778451e-01,-9.816482928699566974e-04,2.358907511533934933e-03,-6.196709192418970195e-04,1.853624731302261353e-01
-2.723225612012559194e-01,-4.599975572033808691e-01,-4.479941678542099237e-01,-2.907786265520861686e-03,3.164461083901091293e-03,1.174496908792796142e-04,1.821227520704269409e-01
-3.064534583522086630e-01,-4.204002955650076312e-01,-4.227275300068182862e-01,-2.440630242694530327e-03,-1.675757641047989372e-03,7.872747788058402640e-03,1.160461679100990295e-01
-3.002024488666625857e-01,-4.139221144988357581e-01,-3.848946288264588067e-01,2.586642801526738955e-05,1.656311703915959205e-04,1.048177394882078561e-02,1.039396375417709351e-01
-2.773259681250122566e-01,-4.415778952172074723e-01,-4.439723078867375827e-01,-5.776383594215441777e-04,8.630696770125063314e-04,1.823514929781799767e-03,1.655020415782928467e-01
-2.722581198708656225e-01,-4.537288420791095178e-01,-4.504358191481566132e-01,-1.587179052519842185e-03,2.600846608523275580e-04,2.168433448356631545e-04,1.798687875270843506e-01
-3.026306236424061158e-01,-4.177466059901183137e-01,-4.128909471919982033e-01,-5.293222721130023956e-03,-3.519960263650913530e-03,1.160144930702277331e-02,1.150708869099617004e-01
-2.826908126829899559e-01,-4.524336792893426940e-01,-4.438408559888763483e-01,-7.868617950335539055e-03,-7.537163615239862030e-03,2.088377587898178258e-03,1.667248159646987915e-01
-2.694980675871431197e-01,-4.523783602948149296e-01,-4.517498482551032812e-01,-1.821164095447095439e-03,-1.498784400068947772e-03,1.957187093766515212e-04,1.826128661632537842e-01
-2.733008421807463506e-01,-4.565250963797520267e-01,-4.578142436966798900e-01,-9.124496391501719234e-03,7.024857542020450027e-03,-1.403385444968189731e-03,1.849668025970458984e-01
-2.706149029270075168e-01,-4.537133975119554408e-01,-4.553506191255878299e-01,-1.589709166561132205e-03,-1.913814908933275877e-03,8.938143247593413718e-05,1.839731037616729736e-01
-2.703967553870569862e-01,-4.010133692415743800e-01,-3.767911617642449307e-01,-1.107050166581020900e-02,1.171178067901678353e-02,-2.393613396749574157e-02,1.303133666515350342e-01
-2.708663209347964562e-01,-4.541085853209420597e-01,-4.563171117154822265e-01,-6.653257320410115201e-03,-5.100422173240394541e-03,5.482991656295679254e-04,1.849298328161239624e-01
-2.699370923601581151e-01,-4.497131107072925849e-01,-4.532443891958073401e-01,-1.024958086274833707e-03,-1.404358113980932196e-03,1.752661617127482935e-04,1.815926432609558105e-01
-2.763592024021401805e-01,-4.460593850730570908e-01,-4.498259011621668635e-01,-2.401162360231627602e-03,-4.580149836903414998e-03,9.225201564663760125e-04,1.718554645776748657e-01
-2.787785471412274618e-01,-4.405729621867290335e-01,-4.452811873111504615e-01,-8.342744738346551461e-03,-7.752365264760035721e-03,4.938357781249986568e-03,1.656008064746856689e-01
-2.733564838717008616e-01,-4.508973089852227889e-01,-4.514528881026306228e-01,5.552920668655550668e-04,-5.984830429653643620e-04,3.471530197335598940e-04,1.778258979320526123e-01
-3.116397529332675109e-01,-5.632604825827299821e-01,-4.750487962748309867e-01,-2.064889152697611460e-02,-6.738290892385261077e-02,2.076208303344621170e-02,2.551315128803253174e-01
-2.740729189039665670e-01,-4.655931337263450875e-01,-4.648991666170965154e-01,4.910245401335518352e-03,-1.239749249598809736e-02,-3.419884234740608233e-04,1.925651580095291138e-01
-2.484734929856519670e-01,-4.401168789708709839e-01,-4.182742810223493146e-01,-2.125975004242222979e-02,-2.393676402870283798e-02,1.475335603641120957e-02,1.916927695274353027e-01
-2.617662653273674089e-01,-4.428529289019860204e-01,-4.112367538736681483e-01,-1.348376177695666082e-02,-2.561907486727770661e-02,1.273788327588120349e-02,1.762608885765075684e-01
-2.951416119296934037e-01,-4.702928964945014001e-01,-3.938583435532129196e-01,-1.176929193821799058e-02,-3.099573820026723520e-02,1.367589388747260555e-02,1.642907410860061646e-01
-3.417428016889225151e-01,-5.259935663963520858e-01,-5.189307884044230823e-01,-4.268610601197244531e-02,-4.710653266250360016e-02,4.767608890719939735e-02,2.272428721189498901e-01
-3.107444961156665131e-01,-4.237463159908999022e-01,-4.231229715881354436e-01,-4.308192063232991510e-03,3.960646786378234190e-03,-9.595997787767660339e-03,1.143606230616569519e-01
-3.219969455260777158e-01,-4.398650124918332405e-01,-4.316781732052729637e-01,-7.022879095992109327e-03,8.136115301461233767e-03,-1.587274150888444771e-02,1.187321469187736511e-01
-2.976050012247851151e-01,-4.227949514837601730e-01,-4.216243192851218957e-01,-1.030203832865550766e-03,1.541948920204517636e-03,2.590838805038695901e-04,1.246509552001953125e-01
-3.118555913501057097e-01,-3.659770774980843355e-01,-4.380792795871816248e-01,3.986681874297769851e-02,-1.662191935989683692e-02,-5.549584999485444869e-02,1.639099270105361938e-01
-2.955768725228541394e-01,-4.080599144224227870e-01,-4.103816080459708471e-01,-5.825825149372403089e-03,5.012821284487932981e-03,-1.383889038654708553e-02,1.169218793511390686e-01
-3.158419740953665178e-01,-4.295667116351986614e-01,-4.283020977707734378e-01,2.354237597360913682e-03,-2.242212899068914741e-03,-7.911337898030921384e-03,1.140639036893844604e-01
-2.688822764275253796e-01,-4.567564742641664344e-01,-4.472197500581980290e-01,-8.156912483066777438e-04,-2.796502409021974465e-03,-9.251863854367006106e-04,1.833684444427490234e-01
-3.093667803054029886e-01,-3.946708816501127703e-01,-4.264417366499051454e-01,-4.581256906248902115e-04,4.418102564808915056e-03,-1.035467140311182102e-02,1.066639944911003113e-01
-3.083380652554273404e-01,-4.308499859411506483e-01,-4.264038608728791813e-01,-5.242991978140965591e-03,3.142709742449317344e-03,-7.104999175538358885e-03,1.214404180645942688e-01
-3.113417098689169604e-01,-4.352638120166824054e-01,-4.346850298334192786e-01,-5.569902833758806626e-03,4.758430527124612314e-03,-6.318414041911810455e-03,1.247640401124954224e-01
-3.054251665123149939e-01,-4.204111940856966600e-01,-4.178797624532993304e-01,-8.265754036831143544e-04,9.311773958674169098e-04,-8.564899224889879672e-04,1.137715578079223633e-01
-2.724022632293219282e-01,-4.546108241849660669e-01,-4.591703968635676425e-01,1.042174431295033203e-03,-1.320249837410691256e-03,9.536398178696067784e-05,1.845536679029464722e-01
-2.964416763590954074e-01,-3.972432608672200605e-01,-4.227778019726592396e-01,-1.024258706721052278e-02,9.306418214560600519e-03,-1.971367327523793067e-02,1.229932531714439392e-01
-2.780248906557531985e-01,-4.408952312649239147e-01,-4.371355675460096291e-01,4.027642625481634917e-03,-2.795329051880546777e-03,-1.803656744082208661e-03,1.612774431705474854e-01
-3.030426057520609340e-01,-4.047057841633256992e-01,-4.545475869019285353e-01,-2.864257686016461347e-03,8.771381324702712604e-03,-6.261359511249844738e-03,1.351285278797149658e-01
-2.715583273682834475e-01,-4.329191156500576954e-01,-3.914520884537341372e-01,1.027110687639569940e-02,1.329935746657305573e-02,7.259328161580539535e-03,1.485626697540283203e-01
-2.987003258203383416e-01,-3.581401351209056449e-01,-3.579420874470836678e-01,4.590312094211178827e-03,1.286697831607593826e-03,6.922598807343145755e-02,1.340382397174835205e-01
-2.893811949888433488e-01,-4.355144084542727501e-01,-4.179477224794652113e-01,9.451604784066898815e-03,6.056615976625660119e-03,4.172614542251108435e-03,1.397379934787750244e-01
-2.976822149904987391e-01,-4.566754284194188829e-01,-3.819401914831666578e-01,4.638033819102601457e-03,5.365342941177845236e-03,-4.306160272316742301e-05,1.383210122585296631e-01
-2.859827575690094270e-01,-4.618110138603149784e-01,-4.157920479175025164e-01,5.151195620775897606e-03,2.966996301486084751e-03,7.501212513662804072e-04,1.582706123590469360e-01
-3.073447486936344841e-01,-4.254472129670858749e-01,-4.214073063695099597e-01,8.264713554111478681e-05,2.155776003632243576e-04,-2.151462978381488492e-03,1.161956787109375000e-01
-2.701502291004216350e-01,-4.540598026339350834e-01,-4.468195884584745814e-01,-3.088056421987498811e-03,2.576373775816639088e-03,-2.089332278102922099e-04,1.805332601070404053e-01
-2.914348232272337413e-01,-4.620472026992201164e-01,-4.835111392711661793e-01,2.046403706593314178e-02,-6.366918326931233010e-03,-5.694836450204642658e-03,1.862968951463699341e-01
-2.696242624586582814e-01,-4.496989853764175593e-01,-4.171716574977132885e-01,-9.269453705443372535e-03,1.916475189702241885e-02,-5.344775927376642019e-03,1.705078184604644775e-01
-3.143376397337577233e-01,-4.131796010932239360e-01,-4.288616764298071593e-01,-5.759396957560619515e-04,-2.804934503159307868e-03,-4.582892860789267858e-03,1.079505160450935364e-01
-2.679319141554055150e-01,-4.529825033193410899e-01,-4.173553654835215898e-01,-9.863562680864829124e-03,2.321394000909732594e-02,-6.340786695978481609e-03,1.759242415428161621e-01
-2.046643311952442701e-01,-2.411088043439988948e-01,-2.403816961739661251e-01,5.923392567770258826e-02,5.793482930933063768e-02,1.489137218767787041e-01,2.973607778549194336e-01
-2.630900834294359614e-01,-4.494294169405887995e-01,-4.626650981573055543e-01,-1.936157562933362580e-02,1.388258776917052073e-02,-6.296575015247833813e-03,1.979535073041915894e-01
-2.711613566576581702e-01,-4.617040299849409779e-01,-4.588251339962266528e-01,-9.855964924709225902e-04,2.894659580776135031e-03,-6.368880700546901896e-04,1.891970187425613403e-01
-2.763137843889300616e-01,-4.616817056063466373e-01,-4.555127599314082176e-01,-4.467678423048780136e-03,3.410633609207336641e-03,2.929012729907527583e-04,1.826221048831939697e-01
-2.694502016912874165e-01,-4.514512485824122012e-01,-4.411445961349875766e-01,-5.769686437773238231e-03,-6.576086937615397733e-03,1.469727758323322638e-03,1.777382045984268188e-01
-2.727791515424488056e-01,-4.619143150651470742e-01,-4.612731766594091454e-01,-4.625760721479773956e-04,1.916223802965499315e-03,1.317450868835721208e-04,1.888464093208312988e-01
-3.389037174735842761e-01,-4.504651155212394675e-01,-3.918709087651801593e-01,1.074565923030713216e-02,-4.063955055792937282e-02,-8.012890085581435284e-02,1.841342598199844360e-01
-2.699125939215402115e-01,-4.541039550805577862e-01,-4.530581662175894309e-01,-1.510594448399277864e-03,-1.535920257122903127e-03,-3.690330650996461077e-04,1.837097108364105225e-01
-2.779748067977524384e-01,-4.458342432089376084e-01,-4.641759812564472121e-01,1.774099896980146527e-03,-7.528865728432470412e-04,-3.164605034689064469e-04,1.777736991643905640e-01
-2.706230495917817946e-01,-4.236581004813496643e-01,-4.519043396663628975e-01,6.699488430334819833e-03,-6.056122212635139251e-03,-1.484346287646863679e-03,1.696806699037551880e-01
-2.865215063936074058e-01,-4.549777767635594938e-01,-4.216496069859380635e-01,6.515737334887142067e-03,-3.209612121349114926e-03,-3.015391409824926244e-03,1.551112234592437744e-01
-2.696481480631462424e-01,-4.512215544924131905e-01,-4.586596470644707102e-01,1.910566778816100847e-03,-9.649338103417109003e-04,7.351534227709444463e-04,1.854458153247833252e-01
-2.636708241572559008e-01,-4.129619923201885978e-01,-4.461582480992525857e-01,9.929408755248335036e-03,-5.202630768236274047e-04,-1.132045079047512115e-04,1.692406088113784790e-01
-2.696648272327538676e-01,-4.441031587577926598e-01,-4.625200291355348603e-01,9.719241270681725289e-03,-1.016494598751276372e-03,-1.255766356086766150e-03,1.851262897253036499e-01
-2.684497385521774082e-01,-4.444779270813206673e-01,-4.493859029551721118e-01,9.459196544311557209e-03,-8.340624165645710297e-03,-1.929503564914620889e-03,1.798951029777526855e-01
-3.130303910926902078e-01,-5.033955262574053569e-01,-5.698982157558256656e-01,9.793998196406590584e-02,-4.066459780308812923e-03,5.307080512906263946e-03,2.867614030838012695e-01
-2.803667869454015693e-01,-4.463350837977506647e-01,-4.486760603210864229e-01,1.072921486448566658e-03,-6.527175533509027832e-04,-9.682106847079838350e-04,1.671736389398574829e-01
-2.906705173500800932e-01,-4.429670553210355854e-01,-4.395068105519117641e-01,8.017413392134801337e-04,-1.083248942726998659e-03,-1.388532491014643055e-03,1.506335288286209106e-01
-2.754556165765740250e-01,-4.591002398937641393e-01,-4.551855876678949642e-01,3.236242942097664489e-03,-2.785487514169466237e-03,4.389677669782382177e-05,1.818693727254867554e-01
-2.772214894526982554e-01,-4.332194949574317833e-01,-4.343972320267168730e-01,3.610798881151143936e-03,3.027694705121910558e-03,1.870406456526964257e-03,1.568362116813659668e-01
-2.717716531523808876e-01,-4.549438157712332176e-01,-4.479111656573806499e-01,3.274627971995075579e-03,-1.653185484305890905e-03,1.964019077541612462e-04,1.798716187477111816e-01
-2.774598897161379973e-01,-4.624731847750231939e-01,-4.709126753041062430e-01,4.428835292633101668e-03,-1.780386897700299200e-03,-1.058717558857225072e-03,1.895633935928344727e-01
-2.711154345671238364e-01,-4.549673409357469778e-01,-4.606205986678285069e-01,1.227017638112745104e-03,-3.307341966646433463e-04,1.438244535949818360e-03,1.867723166942596436e-01
-2.723974969807464452e-01,-4.530279221045784288e-01,-4.571998047667700793e-01,1.023147241381487139e-03,-1.819470385665778725e-03,-6.831870122665428466e-04,1.827916800975799561e-01
-2.701317990013802905e-01,-4.528991135708831384e-01,-4.526280181102678157e-01,-1.702774249211237148e-03,-1.238690621818018490e-03,8.484084852364234830e-05,1.826683878898620605e-01
-2.713097548638478407e-01,-4.524408230925951457e-01,-4.510308659113053120e-01,1.609061279366886784e-03,-3.640431309792615459e-04,2.477949970862202496e-04,1.804533600807189941e-01
-2.726651340576996541e-01,-4.545143711047201496e-01,-4.570071999542533181e-01,6.291128382976203699e-04,-1.417138085373306593e-03,-6.378011226279656307e-04,1.831313967704772949e-01
-2.856988230944005336e-01,-4.479032934054222870e-01,-4.262979423160536685e-01,8.010445179574247551e-03,-2.777997543455409512e-03,-2.455351838933555585e-03,1.533177644014358521e-01
-2.902910405804341454e-01,-4.351199088034146678e-01,-4.452439998743160099e-01,1.746579488647631313e-03,-4.422365376497791427e-03,-2.208464207326956644e-03,1.504214555025100708e-01
-2.742805495479438971e-01,-4.530912169697796643e-01,-4.545017006774540458e-01,1.858071899834128635e-03,-3.364939533704368844e-03,6.054800325178162764e-04,1.796465367078781128e-01
-2.762856206702373751e-01,-4.555323438041805062e-01,-4.636713012843142190e-01,4.005816700170788253e-03,-3.781851296068994978e-03,1.470989763067994940e-05,1.836996376514434814e-01
-2.692397776487518990e-01,-4.506689804876582439e-01,-4.564352967172730646e-01,2.420082249238445470e-03,-1.209271258609442932e-03,3.054742640361004071e-04,1.844402998685836792e-01
-2.762601506056163725e-01,-4.537246819350084781e-01,-4.551446530489473563e-01,1.887816601406890494e-03,-2.943210331282591127e-03,8.878451490286723858e-04,1.782882958650588989e-01
-2.770015752158158095e-01,-4.488387741277857779e-01,-4.444258168243672702e-01,5.765729711809612808e-03,-1.438510801759575230e-03,2.196721971123887960e-04,1.699860841035842896e-01
-2.714902281139304763e-01,-4.478750390507345580e-01,-4.465663656358615508e-01,8.201857753014909439e-04,-1.501681914571106934e-03,-9.399556791219262518e-05,1.757591962814331055e-01
-2.718363063350785480e-01,-4.448957892523209834e-01,-4.476775764852943262e-01,1.574676571283150457e-03,-2.250281524086247299e-03,-2.940164259711561061e-04,1.745325922966003418e-01
-2.736821739884233162e-01,-4.588486065855631457e-01,-4.593607453464543244e-01,7.588493717097916612e-03,-9.035873730112071317e-03,-1.199894965797649172e-04,1.865460872650146484e-01
-2.800955807074889115e-01,-4.505230758451936879e-01,-4.695395316883601566e-01,1.065788001053791581e-02,-2.805323798026346151e-03,-3.107430994950110691e-04,1.816941201686859131e-01
-3.321197208626472386e-01,-5.384348865277708285e-01,-4.727690787538234574e-01,2.544888277430171208e-02,-7.650636787908235426e-02,-2.441782467099085779e-02,2.337122112512588501e-01
-2.981998275500458706e-01,-4.175545941091232116e-01,-4.308962043148256149e-01,9.794797036575568147e-04,-6.415553577709507890e-03,-2.986451333945377203e-03,1.271575987339019775e-01
-3.029317420459862742e-01,-4.654237114618935411e-01,-3.886945889841306734e-01,4.233883635332276463e-02,-5.985847241289508902e-02,-9.477192957603225443e-02,2.507890164852142334e-01
-2.718863422268211760e-01,-4.500740675421971426e-01,-4.502513260556770813e-01,6.027613549229023180e-04,-1.824662621605127513e-03,9.137726857376961785e-05,1.783075630664825439e-01
-2.703894799767339596e-01,-4.559879178304181990e-01,-4.542044770763926098e-01,1.525773504864090220e-03,-1.148379913081513763e-03,9.256505796240326652e-04,1.847497373819351196e-01
-2.854370900398194300e-01,-4.360196804507198154e-01,-4.320760226347361010e-01,8.090789414906398441e-03,-1.507183012787588960e-03,-2.494982027963730045e-03,1.493944227695465088e-01
-2.888937806988122747e-01,-4.416992611947978542e-01,-4.257147574148851255e-01,1.032815484506412022e-02,-1.173751872313967722e-02,-1.012776390562884245e-02,1.490085124969482422e-01
-2.735461880716417715e-01,-4.045061750131090372e-01,-3.528668334782699145e-01,3.989602157555414280e-02,-5.974797003172750004e-02,-8.267484343534053925e-02,2.214596569538116455e-01
-2.753928547460441911e-01,-4.406991600749308735e-01,-4.386106958722520432e-01,1.015782406621219131e-03,-3.229266124292093712e-03,-3.682559615272957220e-05,1.643766462802886963e-01
-2.799640942195786852e-01,-4.181555671799321861e-01,-4.534957668117192697e-01,-3.484479896708440102e-03,5.998758129486692070e-03,-1.810210876426892679e-03,1.593227535486221313e-01
-2.193590515637278138e-01,-3.759303650172814426e-01,-3.600003738760163552e-01,6.543814261187000381e-02,-9.767876255073909553e-02,-7.201404383430549949e-02,2.816062867641448975e-01
-2.779021367579119772e-01,-4.454931282775279056e-01,-4.543582703024485747e-01,-1.728858662772763972e-03,5.597710984338229515e-03,-3.158062574177572675e-04,1.724943965673446655e-01
-2.762644504672333579e-01,-4.591571444257056545e-01,-4.430834969793035483e-01,-2.282020021195565595e-04,1.124728990711008425e-03,-8.176030381046319969e-05,1.754204034805297852e-01
-2.793611728522771287e-01,-4.365052459309559652e-01,-4.418608099526618593e-01,-2.013714614353502748e-03,5.958657099993439760e-03,-1.157261603212563807e-03,1.602723896503448486e-01
-2.729734137968460872e-01,-4.611386432825037573e-01,-4.535592790385882811e-01,-2.338150816868836131e-05,5.407697143258451914e-04,7.902587859896188305e-04,1.844998151063919067e-01
-2.731979530078766372e-01,-4.574247555593271009e-01,-4.520592866594164705e-01,-1.888445341578583007e-03,3.252480862390914841e-04,5.359555953562073274e-04,1.816362291574478149e-01
-2.802570897780635173e-01,-4.644564123316620163e-01,-4.520368007645175767e-01,-5.491992562813792327e-03,9.377855851138976184e-03,-1.228456145156493545e-03,1.793175935745239258e-01
-2.729290585924690760e-01,-4.579459312241210833e-01,-4.535915660742281807e-01,-1.454119649542435708e-03,5.503479256119374330e-04,1.641569227209478991e-04,1.828986257314682007e-01
-2.746634651642892999e-01,-4.483662236444392324e-01,-4.259912645743544335e-01,-5.447896490156569488e-02,5.877491652571538439e-02,-3.366875150717230092e-02,2.223843336105346680e-01
-2.706578593727758109e-01,-4.526264364188135048e-01,-4.228195882959294716e-01,-7.434640033430711496e-03,8.354411974007242003e-03,-1.507141299451898210e-03,1.701738089323043823e-01
-2.738484411017632070e-01,-4.611545167591050709e-01,-4.582539907827114511e-01,-6.094040948497266193e-04,2.468864497821484098e-04,-1.179881929957365483e-03,1.858875155448913574e-01
-2.747939650684275703e-01,-4.684680386839789601e-01,-4.537693090248601790e-01,-1.863087994776112255e-02,-2.819629812581342376e-02,6.054294015542531666e-03,1.959982663393020630e-01
-2.714894339343019158e-01,-4.584743978701427691e-01,-4.567505372425604837e-01,-1.496275599756688576e-03,-2.589475813229786400e-03,-5.745892287195992739e-04,1.862037479877471924e-01
-2.895226986177859563e-01,-4.853858640043157147e-01,-4.593317166152077746e-01,-4.481009793883531170e-03,-1.310345793007805515e-02,-2.348522556189220570e-03,1.858225911855697632e-01
-3.146908112857126349e-01,-4.342210649101404529e-01,-4.180802997309988056e-01,-8.329536299851553974e-04,1.923590059182562258e-03,-1.792410946586371623e-02,1.166005954146385193e-01
-3.073752215731083148e-01,-4.124875290859718047e-01,-4.263491225401923601e-01,-1.235524932468266227e-03,1.090036893607020801e-03,-4.260884059009467824e-03,1.129618287086486816e-01
-2.752004854760964903e-01,-4.600306743897276673e-01,-4.546645930794004364e-01,-3.951039433642064037e-03,-5.180856697183440496e-03,-6.655965235079334703e-04,1.825592070817947388e-01
-2.823038495333646258e-01,-4.548773747991555760e-01,-4.493018864979860250e-01,-6.685355620478902229e-03,6.460628564422503904e-03,-2.167936239624152633e-03,1.706573367118835449e-01
-3.118850309106382390e-01,-4.438092166040659148e-01,-3.952545296919433571e-01,-3.276377985458807460e-03,5.300832699752448780e-05,-7.192720912223710301e-03,1.163762360811233521e-01
-2.685747508314172416e-01,-4.547289263766238765e-01,-4.500050024299242502e-01,-1.636417006342517260e-03,-2.716951469224192488e-03,2.216006807875670732e-05,1.839198023080825806e-01
-3.159280627749141424e-01,-4.178206150905012795e-01,-4.332064025623675874e-01,-1.242535602636028226e-03,3.642212063167176925e-03,-4.285053089530335008e-03,1.108423471450805664e-01
-2.924644363655494184e-01,-4.865460734475547389e-01,-4.315795101054282212e-01,-1.570226607239856229e-02,-2.640596832143097400e-02,-3.845346659425465975e-03,1.813749521970748901e-01
-2.744962356991288432e-01,-4.603125012581754105e-01,-4.519459367468689481e-01,-3.958809312050692343e-03,-5.207290947630022031e-03,-7.403775446002353131e-04,1.821347028017044067e-01
-2.675450449651565754e-01,-4.428110052719197443e-01,-4.552985664721100889e-01,-6.155049504223643851e-03,2.731368884966103188e-04,-1.499688184269944678e-04,1.821446865797042847e-01
-3.083312754930918609e-01,-4.125968079659345644e-01,-4.322481032094642739e-01,7.113458455554768191e-04,-3.212405975085261874e-03,-3.576389629645053241e-03,1.156601756811141968e-01
-3.059971387090321127e-01,-4.162300906547543589e-01,-6.539922263735012953e-01,1.167527097635893130e-01,-6.077435372947092435e-02,-4.569235972955886654e-02,3.913168609142303467e-01
-3.085042393094691304e-01,-3.905643541014910403e-01,-4.356267259389681179e-01,2.044658736348798673e-05,1.842497350600055730e-03,-7.000958732795313846e-03,1.123366802930831909e-01
-2.723935616128375647e-01,-4.589388637779507896e-01,-4.563089247116377534e-01,-2.309567503043740994e-03,-2.553813636639058141e-03,6.499072458605617509e-04,1.853437274694442749e-01
-2.834707769354159468e-01,-4.256806349031956316e-01,-4.370201609383023711e-01,1.781328433621856512e-03,-7.666457531360942011e-03,-2.016651766015924684e-03,1.488719731569290161e-01
-3.857470672362399711e-01,-6.661644738729265436e-01,-9.485809792043700117e-01,2.550255196854224748e-01,4.164040775569975011e-02,3.043584544725795940e-02,6.638391017913818359e-01
-2.816529460279708630e-01,-4.361353808299553991e-01,-4.347831564397537374e-01,2.055677494331450451e-03,-4.106442237091085558e-03,-2.201117558949894012e-03,1.540634781122207642e-01
-2.708472891569125851e-01,-4.498380428708885770e-01,-4.518246211576311122e-01,-5.240628020621594299e-05,-1.838526619256291043e-03,-9.685639203832790067e-04,1.800282746553421021e-01
-2.735595542046921347e-01,-4.562639601767286557e-01,-4.588972506784015915e-01,1.330124574256555956e-03,-2.498514818884139607e-03,-9.411856520264645946e-04,1.841076910495758057e-01
-3.000775632212662192e-01,-4.103818930386746167e-01,-4.437195338192216898e-01,2.599714183626560069e-03,-6.960939214203430356e-03,-4.845810240716044194e-03,1.311175674200057983e-01
-2.719147228984262199e-01,-4.555124814448235915e-01,-4.597239661310351111e-01,4.749232491008551567e-04,-3.799955742198370405e-04,7.366569791224713898e-05,1.857423484325408936e-01
-3.108580877521101571e-01,-4.229803208800101411e-01,-4.233463338877888615e-01,2.005846075223217777e-03,-3.218749661705570028e-03,-8.627077405240306945e-03,1.134856715798377991e-01
-2.981349156190116756e-01,-4.132896488956194769e-01,-3.918521448306422350e-01,4.320656720080946235e-03,-4.554184639170720875e-03,-1.047680345349213775e-02,1.081622168421745300e-01
-2.880271296457384000e-01,-4.130268428130592917e-01,-3.891099979333594305e-01,6.683882274516887885e-03,-2.238825364913738826e-03,-1.168711225349117373e-02,1.173293292522430420e-01
-3.021368742951592301e-01,-4.142182290968054459e-01,-4.246663255399344972e-01,3.876590055860302132e-03,-4.642458090858692446e-03,-2.798457054999069389e-03,1.182187125086784363e-01
-3.067658196577857654e-01,-4.824682170358997046e-01,-4.818816253294563312e-01,-2.154431787172108204e-04,-3.315443067395581469e-04,-2.897338691482963507e-03,1.754829436540603638e-01
-2.731322706282921509e-01,-4.545801569768298522e-01,-4.564677832203535290e-01,7.301189345286407568e-04,-1.773874286865672429e-03,9.251280900965185667e-04,1.824363172054290771e-01
-2.942662060122018808e-01,-4.697660142947720496e-01,-4.019661836272295785e-01,8.319178897160568048e-03,-1.209368937548811057e-02,-5.316084155788461559e-03,1.556577086448669434e-01
-2.929422773784932099e-01,-4.307080356369144547e-01,-4.349794070275608826e-01,1.457085472649189859e-03,-4.499253911656829821e-03,-7.075770654100268196e-04,1.401952207088470459e-01
-2.986753173791215632e-01,-4.074944279715568829e-01,-4.373799367849292574e-01,2.469032370177408169e-03,-8.243065340293048021e-03,-5.219543796278279524e-03,1.276351064443588257e-01
-2.137446357667679153e-01,-3.415212250045389086e-01,-1.895164075339879350e-01,4.659175389299848730e-02,8.209862465767749085e-02,1.033316526262658547e-01,2.806686460971832275e-01
-2.919062552941182886e-01,-4.387066983039462076e-01,-4.233172413899416453e-01,9.265464279844223480e-03,-2.622626627610338563e-03,-2.588164126815974391e-03,1.408059000968933105e-01
-2.713198097032712974e-01,-4.504701645153071921e-01,-4.509276066993945231e-01,7.961543967495071433e-04,-1.383403126881354661e-03,-8.056083519652293163e-05,1.794008761644363403e-01
-2.947318120205100755e-01,-4.255487150273488117e-01,-4.360146239024494941e-01,5.269904775204287649e-03,-7.346811520582359305e-03,-2.119401526872833046e-03,1.372968852519989014e-01
-2.764713607615120194e-01,-4.332812574112992476e-01,-4.470135714992027887e-01,4.889448348256433471e-03,-7.828281930122480206e-03,-1.687238181392520554e-03,1.649102419614791870e-01
-2.748731014187112409e-01,-4.598771555632075736e-01,-4.432929242010953397e-01,-4.181614075911097884e-03,-1.534381177761055468e-03,-1.166076312791483301e-03,1.774739027023315430e-01
-2.846515835086589341e-01,-4.131311089329978703e-01,-4.322763069886836895e-01,8.926164022366253267e-03,-1.031587892986828188e-02,-3.514207271830318766e-03,1.411687731742858887e-01
-2.881972090663654229e-01,-3.885524691851507395e-01,-4.429768884458338274e-01,2.978786834911641840e-02,-2.115472852286278196e-02,-1.757690837936109682e-02,1.530566364526748657e-01
-2.781515402898773748e-01,-4.442297584590585990e-01,-4.615410839860871195e-01,-1.762215592779371081e-03,2.641212278651856784e-03,-5.977193023603016462e-04,1.754651218652725220e-01
-2.857067384579364822e-01,-4.646814638829029342e-01,-4.702017949256701024e-01,3.947164315614660134e-04,3.772316991714509400e-04,2.031458116706859763e-03,1.818342655897140503e-01
-2.887091713570410501e-01,-4.701585808781021392e-01,-4.715740615231059918e-01,3.871886711598196765e-03,-6.731249111754632479e-05,-2.257356671589459197e-04,1.822851300239562988e-01
-2.828643478990849336e-01,-5.146400396110624165e-01,-4.935789339265039821e-01,4.355080505773965133e-02,-1.552365651685651618e-02,-7.818907484570191205e-03,2.363862544298171997e-01
-2.708824722101912386e-01,-4.516213540696676909e-01,-4.546850217575229558e-01,-6.506423400341305140e-04,1.461887872944538092e-03,9.658392482732849535e-05,1.823111772537231445e-01
-2.634024437859608381e-01,-4.355265741644096522e-01,-4.498364741234815445e-01,-9.799592198962729303e-03,2.650950440532972956e-03,4.377414918669717491e-04,1.805666685104370117e-01
-2.815346144771115333e-01,-4.701696359871210262e-01,-4.704175958258257628e-01,2.180742136199454763e-03,-7.513217926098651744e-03,-1.422676119286052062e-03,1.892609000205993652e-01
-3.006294217581266803e-01,-3.772440157805337924e-01,-4.657668515475791859e-01,-3.986411019092421688e-03,-4.675408043749595781e-03,2.667860505848903326e-03,1.436065286397933960e-01
-2.972677113424439521e-01,-5.252000153410838479e-01,-4.957002723776035014e-01,9.355217571428969120e-03,-1.305856204085802628e-02,5.949268459835738675e-03,2.167481184005737305e-01
-2.943235401178587729e-01,-4.762707521499777163e-01,-4.755270266293827874e-01,1.339674637041790312e-03,-5.879412846442245598e-04,-4.492112311423139266e-04,1.815958321094512939e-01
-2.829767567596360167e-01,-4.687504168688295114e-01,-4.676505159680969248e-01,1.454715408033831203e-03,-1.262557831112374757e-03,2.254800397016024278e-04,1.852566152811050415e-01
-2.794838807535136027e-01,-4.707969992142470583e-01,-4.663900036788028447e-01,-9.163417181452904875e-03,9.255755482108172019e-03,-1.977554774106339217e-03,1.905194371938705444e-01
-2.732215713650967270e-01,-4.538856895437645145e-01,-4.600335866602313084e-01,-5.811191754034166976e-03,-2.406569289305254995e-03,3.970195393515064649e-04,1.841390281915664673e-01
-2.977398096775184522e-01,-4.104477945034042397e-01,-4.433504874514365701e-01,-2.543424980153157714e-03,6.818743989840282162e-03,-3.218617342648398810e-03,1.329813748598098755e-01
-2.711800232791982124e-01,-4.537092204666332007e-01,-4.579484112526505113e-01,-5.611264511009611718e-04,-1.120888501245235645e-03,-4.262718764761916042e-05,1.846980601549148560e-01
-2.883853673062019563e-01,-3.654199248024590507e-01,-4.239172074732817652e-01,-9.805536882349204231e-03,1.328784332255617852e-02,-1.428827523495348854e-02,1.236655861139297485e-01
-2.705724088585591547e-01,-4.567081529801726436e-01,-4.587958349148799631e-01,-1.560559281174953537e-03,-1.462640510392711462e-03,-2.158543952435404217e-04,1.872253417968750000e-01
-2.771275710862322050e-01,-4.468985716232519723e-01,-4.503567837330160195e-01,-1.397992037003616562e-03,5.061830310138418221e-03,-3.309864740078704085e-04,1.717682033777236938e-01
-4.762922407478130116e-01,-6.583984232144676207e-01,-4.335981174547687833e-01,2.837823832896631173e-03,7.648286157291711302e-05,-1.702269488592731417e-01,3.601612746715545654e-01
-2.731650125126595108e-01,-4.554498774528091820e-01,-4.597058898257145865e-01,-2.100112670507470192e-03,-1.174188940133307846e-03,-2.985665127164056687e-05,1.844967752695083618e-01
-2.730757495712134442e-01,-4.557655748172315113e-01,-4.585420371172193033e-01,-2.393068243461076751e-03,-9.439057090831128472e-04,1.447661304734513274e-03,1.841647475957870483e-01
-2.718822676601598265e-01,-4.465023141641795701e-01,-4.593158311686420525e-01,-3.977033080144241547e-03,-4.141668699059990709e-03,9.325059225416129031e-04,1.816462576389312744e-01
-2.719300529444934611e-01,-4.556717810066335805e-01,-4.568512996023684769e-01,-1.135901798634071560e-03,-2.145265036801411677e-03,3.357560865397534876e-04,1.843831837177276611e-01
-2.711011745311686649e-01,-4.536844192744895476e-01,-4.577031010373707187e-01,-5.723010302068376768e-04,-1.144212825201153206e-03,-8.151158501898434579e-05,1.846387386322021484e-01
-3.097413601816631501e-01,-3.360785100155775917e-01,-3.327806411646882512e-01,9.562764588040749414e-03,1.036251254320043509e-03,-1.430591068561290480e-01,2.495855540037155151e-01
-3.081455902233698474e-01,-3.882177987374709205e-01,-4.330361227118492695e-01,-3.498093701254755949e-04,-5.302093128012465122e-03,-6.466047846817194432e-03,1.105399280786514282e-01
-3.031100877769057345e-01,-4.139693216942771370e-01,-4.072060456828681119e-01,-1.775636173763122955e-03,4.083266725047290761e-04,-7.785676227306773285e-03,1.085244193673133850e-01
-3.019674263629471000e-01,-3.938647998608004186e-01,-4.475048349470545084e-01,-1.845610442391063671e-02,1.360925531330186601e-02,-1.497847269447031247e-02,1.360233128070831299e-01
-2.972342081785983026e-01,-4.412343388704244029e-01,-4.011990909944216921e-01,-7.328051145021901094e-03,1.766558992393716136e-03,-4.875904907717057250e-03,1.296748369932174683e-01
-2.997601142100518867e-01,-4.128111484024436506e-01,-4.166721641082041239e-01,-2.095373829046790620e-03,3.081010334826166704e-03,-5.793933201027671315e-03,1.156472861766815186e-01
-3.195258574570067900e-01,-3.946693593677932932e-01,-4.409231780004524426e-01,3.737529694050728524e-04,-2.203583942236153094e-03,-6.672433328408142010e-03,1.068184748291969299e-01
-3.170075151301690597e-01,-3.559185101830228959e-01,-4.626594474977442362e-01,-1.530098908147425668e-03,-5.693030109921617780e-04,-6.558693048292818517e-03,1.311416625976562500e-01
-3.006708179467911246e-01,-4.011360257234302673e-01,-4.257384955537000248e-01,-6.937024565324935270e-03,5.730067760052384024e-03,-7.960542348176441810e-03,1.166328042745590210e-01
-2.917322060856846755e-01,-4.316674264424028573e-01,-4.138041884112715341e-01,-6.491057866331867952e-03,4.206417577324493388e-03,-5.654482596579184228e-03,1.329536288976669312e-01
-2.724655043553330103e-01,-4.597594564492110125e-01,-4.597065558491649773e-01,3.954783666693584797e-03,7.216226880186581020e-04,-5.246457759216418409e-04,1.873991191387176514e-01
-2.710433240057113502e-01,-4.540132427388540171e-01,-4.601869240794462246e-01,1.007363053956316897e-03,5.106331643553080378e-04,-1.434643150370540549e-04,1.861440092325210571e-01
-2.959048526509643340e-01,-4.242833897965472278e-01,-4.187452550041985688e-01,-4.965391796478146880e-03,1.716740600346016192e-03,-3.958169416690041076e-03,1.262162774801254272e-01
-2.789670083422742808e-01,-3.872068871279162883e-01,-4.505499913469691586e-01,-1.616438645293244089e-02,-2.761535724548506553e-03,9.435854472693936540e-04,1.529505848884582520e-01
-3.107902623162962508e-01,-3.329018396446088435e-01,-4.557127507650706733e-01,1.295018739717469130e-03,-1.902662397051043362e-03,-2.351229958764363727e-03,1.353494077920913696e-01
-2.668331622247901436e-01,-4.217960249786477100e-01,-4.468141701991660275e-01,6.859755019387394834e-03,-4.163687237243089874e-03,-8.062206396769618609e-04,1.694444119930267334e-01
-2.987724413912331567e-01,-4.388975564128673179e-01,-4.292055732272666013e-01,-5.845699373571803040e-03,3.088099487127432975e-03,-1.903279584490297867e-03,1.360620707273483276e-01
-2.850892262602253147e-01,-4.723074377241226474e-01,-4.666860100901902841e-01,-6.622295026840682719e-04,-2.294460456181780621e-03,4.444318565740200074e-04,1.845197230577468872e-01
-2.715038631361937349e-01,-4.143049007695324137e-01,-4.114221305010429819e-01,2.833021278270919652e-02,-3.721684114907462815e-02,-4.206385019051633173e-02,1.784936040639877319e-01
-2.915025712567084204e-01,-5.086730421493695919e-01,-4.986159988319294190e-01,5.010493115378157093e-03,-1.584322160946190217e-02,-1.282172431029776974e-02,2.154102921485900879e-01
-2.744787986006103631e-01,-4.533174300131119772e-01,-4.549824016536880289e-01,1.875032907354345088e-03,-3.336229871039992322e-03,7.475594336870658224e-04,1.798037886619567871e-01
-4.005147320483347095e-01,-8.569861234425567575e-01,-1.003509775000983373e+00,1.725484191066383455e-01,-5.266406909268948888e-02,-9.889638767152179530e-03,6.282132863998413086e-01
-2.773763245755451745e-01,-4.503123215213079011e-01,-4.542729334121010654e-01,1.752514376891446376e-03,-6.060883691162735967e-03,-2.122110453949374106e-06,1.752908825874328613e-01
-2.826824511941294915e-01,-4.770229964471683903e-01,-4.800919770021908062e-01,8.907880998367740874e-03,-6.147646669562121559e-03,2.294012191700412276e-03,1.968281269073486328e-01
-2.920977893793938462e-01,-4.732132021286175605e-01,-3.838566402757292439e-01,8.037622372969031870e-03,-2.067484840856221445e-02,-7.866617825761998070e-03,1.620658636093139648e-01
-2.727851361192444868e-01,-4.515092478557513056e-01,-4.630762065799793881e-01,4.438500529621290137e-03,2.129004778360907291e-03,1.576311900060361039e-03,1.849960833787918091e-01
-2.729507387595125345e-01,-4.557686705331159827e-01,-4.615633558147853033e-01,5.678744749634282926e-04,-1.017757612376081694e-03,6.412495023520776733e-04,1.857973486185073853e-01
-2.697425593052198978e-01,-4.634962114436527170e-01,-4.621197571784413372e-01,1.155924923009735844e-02,-1.239535269491489310e-02,-8.469932426992584631e-04,1.952936649322509766e-01
-2.915167939697547728e-01,-4.761345012198945348e-01,-4.772512343524676348e-01,1.994265421461549961e-03,-1.703428968692905507e-03,1.617173500216021668e-04,1.852345168590545654e-01
-2.838978677558952057e-01,-4.710247581369964021e-01,-4.695609596043645029e-01,2.026316930320972830e-03,-4.449415778219337030e-03,2.117333139395876512e-04,1.865919232368469238e-01
-2.715126228864252478e-01,-4.569946970359533012e-01,-4.523928522834347321e-01,-1.137392620916672986e-03,-1.400177384799817723e-03,-3.645405370909427412e-04,1.832522302865982056e-01
-2.782017702801286574e-01,-4.497170473263222834e-01,-4.416002888462273734e-01,-4.521867763900699368e-03,-1.501490070795633317e-03,-9.066077326709855427e-04,1.678147614002227783e-01
-2.729950172568309519e-01,-4.537066840177428340e-01,-4.449844252439924541e-01,-4.156322835413397802e-03,-2.757851274367493968e-03,5.836551954629857304e-04,1.767264455556869507e-01
-2.741215694347947651e-01,-4.531322823684307832e-01,-4.600439025217817890e-01,-4.120605736723531197e-04,2.225900635294063724e-03,2.680621783944083588e-04,1.826073676347732544e-01
-2.743769207696927226e-01,-4.595071682128084034e-01,-4.450282088715087347e-01,-4.397467299013415980e-03,-9.225728369177022166e-04,-5.259927016851429068e-04,1.785042136907577515e-01
-2.717896012899504998e-01,-4.568516115850491111e-01,-4.518394695079923640e-01,-1.374666143221324856e-03,-1.609434785210832851e-03,-7.610679453852729238e-04,1.826490908861160278e-01
-2.728433568506359874e-01,-4.524016583990467799e-01,-4.289417497531273216e-01,-6.059531553233660217e-03,-4.011469503431536188e-03,1.042909810969535733e-03,1.695311814546585083e-01
-2.716537674674353031e-01,-4.541990323820316311e-01,-4.585813397197338048e-01,-7.545133641241851810e-04,9.946082287625611015e-04,3.409146323417808753e-04,1.847889870405197144e-01
-2.752653099999925468e-01,-4.514026841741046736e-01,-4.338375824797302549e-01,-6.558758143557749491e-03,-5.920015402752963618e-03,4.838450837998597813e-03,1.689480990171432495e-01
-2.743926114270646144e-01,-4.494434357225728927e-01,-4.445048391138508581e-01,-4.685659694085016896e-03,-5.471886421393025966e-03,2.093127904039656251e-03,1.731228232383728027e-01
-2.637420677327170782e-01,-4.474054699338803065e-01,-4.085060790568700861e-01,-1.886620255454745125e-03,-2.527489713086493797e-02,2.992834870509884435e-03,1.733638495206832886e-01
-2.738047296818734155e-01,-4.578279424727127456e-01,-4.527070910709778406e-01,-3.781810221633595624e-03,-3.798452482776090277e-03,-6.923141073292368329e-04,1.817581951618194580e-01
-2.851416637558520373e-01,-4.713360863426547809e-01,-4.694672249300599898e-01,-2.291480531327562062e-03,-8.681520982234503881e-04,-2.225361850076098841e-04,1.853160709142684937e-01
-2.730800828200971586e-01,-4.591383319935495866e-01,-4.564013988642238728e-01,-1.353886979677325266e-03,-1.736289946838862107e-03,-7.183482538873830689e-04,1.847485452890396118e-01
-2.704861730944972398e-01,-4.568209780881241078e-01,-4.527447256986290025e-01,-2.711190962815137988e-03,-2.811384756803365741e-03,4.961309218798740962e-04,1.844565719366073608e-01
-2.777852300765857874e-01,-4.338171695948454532e-01,-4.341958900455223924e-01,-3.451828862083794209e-03,3.981776378284142964e-03,-2.686066868480494526e-03,1.565572023391723633e-01
-2.731249826348267629e-01,-4.609454606992938741e-01,-4.554339104891831358e-01,-1.381364293144084036e-03,-1.915865104274979813e-03,1.828453020966369603e-04,1.851717084646224976e-01
-2.745959220775180398e-01,-4.539634851746930932e-01,-4.580697672256842101e-01,2.896943035512690359e-03,3.388904078428051254e-03,1.956896508902736261e-06,1.816197931766510010e-01
-2.809560422146352154e-01,-4.486077272382986703e-01,-4.662663437681119349e-01,-1.800092914303997845e-03,5.184177841352223884e-03,-1.241647210332545454e-03,1.774102151393890381e-01
-2.802296947262838955e-01,-4.602282805758234341e-01,-4.626434523969026325e-01,7.383663898473625739e-03,6.655157983508202917e-03,-5.927389356563905710e-04,1.820371747016906738e-01
-3.036486898986285876e-01,-3.416359068641016128e-01,-4.398363724225266558e-01,1.855043710207655286e-03,-3.743441668356372112e-03,-7.166130491597273028e-03,1.225689426064491272e-01
-2.710453239128050029e-01,-4.507050358995197681e-01,-4.524758516835785116e-01,1.119769221364257713e-03,1.009462148948703664e-03,4.990662302423041130e-04,1.805725842714309692e-01
-3.030314505009917836e-01,-3.835490232836494262e-01,-4.685131928548637581e-01,-3.030161162288106964e-03,2.521825864103256071e-03,-1.843556761372268068e-03,1.435267180204391479e-01
-2.706336047037774528e-01,-4.466860424340054481e-01,-4.505903782922552336e-01,2.339881295310443452e-03,3.684823240832371671e-03,3.862309822683445098e-04,1.781984269618988037e-01
-2.809947991651008947e-01,-4.729328397767256220e-01,-4.894763826678293350e-01,-1.398961417778004680e-02,2.514474511661707410e-03,-1.914365559606944671e-03,2.022531181573867798e-01
-4.185803061307636908e-01,-4.353635435809650733e-01,-7.805297382652288674e-01,-1.753975996197155163e-01,4.236189623361362455e-02,-8.192731539733046076e-02,4.929778873920440674e-01
-2.983694413513421906e-01,-3.433748006120839191e-01,-4.434186070924021617e-01,-2.100114118794990051e-03,3.050536789856014754e-03,-4.475959089643513807e-03,1.289883852005004883e-01
-3.222520847800888211e-01,-3.399616560523258113e-01,-4.689348421218083041e-01,3.333099722520941905e-03,-4.957442927363791933e-04,-2.042873450218759754e-02,1.432404816150665283e-01
-3.287855497118519210e-01,-3.859573552906233052e-01,-4.657148791446563685e-01,-1.432385996105730794e-02,4.748941011392065689e-03,-8.204416803293864552e-03,1.227797716856002808e-01
-2.970464635523109576e-01,-3.851178455484814966e-01,-4.490505128635098875e-01,-3.281985296487164964e-03,4.918144412138484960e-03,-3.707682689035067189e-03,1.327430307865142822e-01
-3.264092126447191156e-01,-3.938035760600499535e-01,-4.585911548118446479e-01,-1.095344532584514689e-02,5.264276692795629049e-03,-2.737311288850720337e-02,1.256848573684692383e-01
-3.045931168379042986e-01,-3.461350373224710286e-01,-4.460043270328837295e-01,-3.286971038974160347e-04,4.401833046323547390e-03,-4.219866494474739868e-03,1.263338476419448853e-01
-2.913622624686281193e-01,-3.068587579303325708e-01,-3.947299114191601399e-01,1.991856193219826172e-03,-1.866421435811333037e-04,-5.513010590819671097e-02,1.358424425125122070e-01
-3.674450525989890748e-01,-3.663766934960759891e-01,-5.313508638949375751e-01,1.090472581666351165e-02,3.295423216014071663e-03,-4.386674974727699378e-02,1.822184473276138306e-01
-3.263139122574607587e-01,-3.534470193573647223e-01,-4.706440294901906851e-01,3.309379821913948239e-03,-1.553399960718099921e-03,-9.599898093425981299e-03,1.340441405773162842e-01
-2.770783540296449243e-01,-4.629355515053119041e-01,-4.615661714698240381e-01,3.622576002630078628e-03,-1.335700482675421328e-03,1.030590894641382092e-03,1.853056102991104126e-01
-3.300059297896644761e-01,-3.755942888640438349e-01,-4.789652209342640243e-01,-1.199942431376288185e-02,5.424837964769781487e-03,-1.222910483355398384e-02,1.358133256435394287e-01
-3.140734649680206325e-01,-4.406734775643384450e-01,-3.923294119377357947e-01,3.081170951504323945e-03,-1.054397810494099239e-03,7.030093203884191060e-03,1.114649474620819092e-01
-2.953683200286711941e-01,-4.194185113976178769e-01,-4.185445790783664521e-01,3.346328673751878917e-03,1.267253949427516293e-03,1.475339103740205653e-03,1.237971857190132141e-01
-3.027936520736941861e-01,-3.907336764838237886e-01,-4.754091651837417665e-01,4.570933498937120899e-03,-5.642659355385984052e-04,-2.945849020473937816e-04,1.497118771076202393e-01
-2.851288914478096737e-01,-4.233742412833543245e-01,-4.657313794528451512e-01,7.090063621863961114e-03,-2.077157344205938106e-03,-2.564793349893115890e-03,1.641495227813720703e-01
-2.695327857158430485e-01,-4.526701147461080765e-01,-4.595125307352235788e-01,1.936033708147189740e-03,-1.054084607493888825e-04,1.777403646539712329e-04,1.866830885410308838e-01
-2.719593588296055353e-01,-4.547164541715262298e-01,-4.596617751056739087e-01,1.256753594375204864e-03,-2.236417327169784358e-04,-1.835311166541925059e-04,1.852927207946777344e-01
-2.722623727254031012e-01,-4.553642719039140419e-01,-4.600573029433037142e-01,1.321385190252769926e-03,-2.291955467133769797e-04,-3.331806401844000575e-05,1.855074912309646606e-01
-2.783978517716875212e-01,-4.476425435346488291e-01,-4.642217172555251903e-01,1.176904753191804600e-03,-3.617180401830266765e-03,8.067756578390422725e-04,1.782412230968475342e-01
-2.725536793362720589e-01,-4.452467370591088880e-01,-4.648413988304405109e-01,8.632778924857363242e-03,-3.397126489524835476e-03,4.164285371685329262e-05,1.839807182550430298e-01
-2.863077486686496087e-01,-4.229045793486030380e-01,-4.566130356141874236e-01,2.580948687980937420e-03,-7.329265704953156352e-03,-9.353287792679217030e-04,1.567902565002441406e-01
-3.170081531652316764e-01,-3.339741308595741698e-01,-4.730670010363672295e-01,-4.664835264446282569e-03,4.941052259849393336e-03,-8.025599706363906183e-03,1.494197845458984375e-01
-2.709110656994649924e-01,-4.575925401707161000e-01,-4.540381845219229051e-01,1.843693442778946085e-03,1.407467864163014070e-03,-5.488840314983149411e-04,1.849759966135025024e-01
-2.679057096131016724e-01,-4.208178138080083119e-01,-4.487265389229414536e-01,7.037922524715098903e-03,4.361495895407732561e-05,1.865276958874731049e-04,1.690482050180435181e-01
-3.189865943885270561e-01,-3.673682673937772036e-01,-4.573459577352154692e-01,2.382261522139434004e-04,-1.747542630913174284e-03,7.341537696487617989e-03,1.223154440522193909e-01
-2.859273934695188424e-01,-4.249692693016835499e-01,-4.620552085918153695e-01,3.031938512875036358e-03,-6.468694889236956298e-03,-1.798651318803294651e-04,1.613000780344009399e-01
-2.972235140336362824e-01,-3.267582021861438757e-01,-4.639529086631672405e-01,2.247641009191339231e-02,3.433403292973141643e-03,1.049633842788469731e-02,1.600879132747650146e-01
-2.720124275549402060e-01,-4.252524834977094992e-01,-4.568786971531752505e-01,7.183691745074458589e-03,-9.668367116445742131e-04,5.178897823767513852e-04,1.717194169759750366e-01
-2.769369156534698950e-01,-4.447539724363980262e-01,-4.582411119285128009e-01,9.606402918247945993e-04,-4.896359264323018635e-03,3.798779167246169074e-05,1.751643121242523193e-01
-3.010537252940725939e-01,-4.254752048432250966e-01,-4.845791607432283210e-01,1.637739415447617489e-02,-1.003612742856635877e-03,5.497389994043898505e-03,1.650034189224243164e-01
-2.700303826360687109e-01,-4.529176221325171836e-01,-4.582656626276325751e-01,-1.505078071846130145e-03,-4.871901312030827162e-04,-4.494618462855832900e-04,1.856409013271331787e-01
-2.682725419781791798e-01,-4.451470520059040981e-01,-4.560675263878453678e-01,4.832393700384059708e-03,7.822780036652779000e-04,-2.137452209296514933e-04,1.827770024538040161e-01
-2.732094480564351002e-01,-4.532654958798103539e-01,-4.601641283387721826e-01,3.699191511682479159e-04,-7.854409356179495316e-04,-1.049857798655052751e-04,1.836088448762893677e-01
-2.679254062928404512e-01,-4.533174101289352831e-01,-4.389381260212181779e-01,-1.067067517814369827e-03,8.306928045069789796e-03,-5.756572303986285961e-04,1.792277246713638306e-01
-2.850302983029050496e-01,-4.584244848576095599e-01,-4.161215334512790576e-01,6.252487536351555983e-04,-4.041207422580146008e-03,8.272402189692366513e-04,1.567552834749221802e-01
-2.742377335320645981e-01,-4.643042374697344266e-01,-4.608102148695477629e-01,4.312733593156854164e-04,2.144702988332957208e-03,5.592031658042431437e-04,1.883843988180160522e-01
-2.764705169287163811e-01,-4.638240216592636744e-01,-4.572122670285597157e-01,-2.642459472674369911e-03,3.928197427827749381e-03,-1.355134271321485487e-03,1.843341141939163208e-01
-2.890793538549662478e-01,-4.440814608862404533e-01,-4.409093572208024336e-01,-3.308916011600373727e-03,-1.161216714946826205e-03,-7.364486993586904324e-04,1.535661220550537109e-01
-2.712230485540284564e-01,-4.594902295740337372e-01,-4.549700598751557634e-01,-4.268523816853224255e-04,2.692996010723656790e-03,8.246068883776344486e-04,1.861137002706527710e-01
-3.288583321477306920e-01,-5.702018477620514059e-01,-4.339044281029876271e-01,-2.484236454652159580e-03,-7.652662838127735623e-02,8.720031153801537094e-03,2.484849840402603149e-01
-2.731195640906098898e-01,-4.545466160223304852e-01,-4.628360307749302960e-01,-3.654337133715354234e-04,-2.637227177373668613e-04,-2.361730302232691221e-04,1.857126504182815552e-01
-2.711342300536020433e-01,-4.518131616422419450e-01,-4.587551923895514250e-01,-4.922659374552052370e-04,-7.983083660965144192e-05,-3.417456068644757336e-04,1.842510402202606201e-01
-2.737876095940338095e-01,-4.612172687908694391e-01,-4.593098415212676366e-01,9.293939398568024481e-04,2.580975283216677650e-03,-7.582758831307111246e-04,1.865484118461608887e-01
-2.754667724661425954e-01,-4.608844600323649399e-01,-4.611463456973001196e-01,3.883638414005805245e-04,8.614271242682652787e-04,-7.274405383333211320e-05,1.855560243129730225e-01
-2.704068129723906644e-01,-4.569558093496337015e-01,-4.513480366007708855e-01,1.070369358968572583e-03,1.280718240840881877e-03,-6.141098921116727814e-04,1.838350892066955566e-01
-2.794080939338591252e-01,-3.833558387147724678e-01,-4.563071597800359980e-01,-1.474065463237730911e-02,-1.350861891169583299e-03,2.294043509208749769e-03,1.561514586210250854e-01
-3.796470559383142707e-01,-3.211602093290748527e-01,-6.886290160798061999e-01,-1.691250043363339284e-01,2.279285534672238420e-02,-3.894851773960814750e-02,4.570352733135223389e-01
-2.872278782817721532e-01,-4.859639010190069941e-01,-4.587723835081214951e-01,-5.397283478748676235e-03,2.486182372270740598e-02,-1.973681643132947205e-03,1.917937994003295898e-01
-2.739291562373260547e-01,-4.621847193968021128e-01,-4.486608181710575183e-01,1.800492817212677628e-03,3.410153945699238940e-03,2.217487376634176457e-04,1.819941252470016479e-01
-2.790175743024178034e-01,-4.658931442133927292e-01,-4.362522269121619778e-01,1.221948573188791354e-02,2.592506535234675655e-02,1.756632476324420863e-02,1.834445446729660034e-01
-2.739475598304786375e-01,-3.321037336972022525e-01,-4.276000519664026611e-01,1.766142352136549146e-02,1.060073455721613142e-02,1.072203349398855726e-02,1.402611136436462402e-01
-2.969997414743456021e-01,-3.780298715465853499e-01,-4.587286317765943977e-01,-3.025207937403044754e-03,-4.310475518853743634e-05,-1.778344563982753356e-03,1.401932686567306519e-01
-2.155402866242677740e-01,-3.213099430505079179e-01,-3.138086432718387164e-01,9.921236386023329912e-02,1.054743453545931992e-01,1.244233486459739996e-01,3.461175858974456787e-01
-3.245854004731674736e-01,-3.102932686367817494e-01,-5.015200947238357410e-01,1.584370157987173913e-02,6.124523706518692281e-03,3.509202302897401066e-02,1.964659541845321655e-01
-1.902526055070232480e-01,-3.163983432467448731e-01,-3.895745064829262971e-01,-1.079989487133057591e-01,6.906280701112621490e-02,-6.462762764034921115e-02,3.038566708564758301e-01
-2.756922279214232274e-01,-4.619921181597888560e-01,-4.620883754502964069e-01,-2.066439668122244805e-03,-3.162192297060696655e-03,-7.820515411747878953e-04,1.864677816629409790e-01
-2.793467651990138578e-01,-2.391680341085868911e-01,-4.496690595447523364e-01,-9.112477107930895548e-02,3.254270290349024763e-02,-4.896329712942205231e-02,2.697180211544036865e-01
-3.090388324788231889e-01,-3.003846035345807408e-01,-4.756013575633246115e-01,4.059197799635079484e-02,1.523628336388367470e-02,2.731852251913159061e-03,1.868726611137390137e-01
-3.420937920030625579e-01,-3.457478909857590321e-01,-6.064831191381997444e-01,-6.460464892957723526e-02,6.187256890001902043e-02,-1.073059178516831691e-01,3.570694327354431152e-01
-2.881252938855838330e-01,-2.762717306430833020e-01,-4.274340291767620981e-01,1.578373650584909485e-02,4.374285894563696882e-03,3.576483564499315093e-02,1.607510149478912354e-01
-3.576885264334889181e-01,-3.917830513647229673e-01,-5.456287828881721813e-01,4.833067933737873745e-02,1.500789381932406304e-02,3.285314562337107724e-02,2.024784088134765625e-01
-2.795064947970508085e-01,-4.444558950701184008e-01,-4.398712504143891255e-01,7.413866327920229891e-03,6.296659284717763712e-03,4.219295721380027404e-03,1.637386232614517212e-01
-2.896647648201493563e-01,-4.207519386846158560e-01,-4.701509462824018937e-01,4.491306245348896178e-03,9.254170674303743198e-04,-1.791325953333994725e-04,1.617493927478790283e-01
-2.840236775836442740e-01,-4.541640710183800778e-01,-4.485314501490482719e-01,6.561264462932411834e-03,5.669119179589046133e-03,1.384200395422340631e-03,1.680846810340881348e-01
-2.910625463935286872e-01,-4.215021162787432885e-01,-4.178443148546244768e-01,5.467601315932500532e-03,7.855411450553543770e-03,9.182463627038178408e-03,1.306847333908081055e-01
-3.114675232645817693e-01,-3.636185032945333240e-01,-4.733823602264117802e-01,-1.142546040933581364e-02,4.715842715874735830e-03,-3.059810012093901015e-03,1.448397338390350342e-01
-2.967897455589982858e-01,-4.284165420314000605e-01,-4.298586670307878999e-01,5.055764792412677060e-03,4.228164050406761632e-03,2.474077238079537295e-03,1.329142302274703979e-01
-2.817325366770349060e-01,-4.388817341896969482e-01,-4.413685146953114646e-01,1.908654135263415782e-03,-4.063238282814892431e-03,-1.742512213956057612e-03,1.586266607046127319e-01
-2.855382276960639065e-01,-4.420599260146899634e-01,-4.317598488740932439e-01,7.177175604099690458e-03,1.591164879008119277e-03,9.684808162057126878e-04,1.521771699190139771e-01
-4.416274706178268672e-01,-3.324559317185287743e-01,-6.330263235165135560e-01,3.353614349426996266e-02,-3.793928566793040684e-03,1.340774577467286066e-01,3.560824990272521973e-01
-2.714864592753481465e-01,-4.492395236593836882e-01,-4.635646719179566944e-01,4.911646779426038882e-03,-1.740382936791015156e-03,1.138521462549408367e-04,1.855510622262954712e-01
-2.889360218420556348e-01,-4.333141988706802339e-01,-4.327825154728673351e-01,6.306828559015450683e-03,6.193645786505609131e-03,4.495047013432865342e-03,1.451330631971359253e-01
-2.858540037318501592e-01,-4.222740639524129036e-01,-4.335933756801088057e-01,4.196815394605533586e-03,6.526343624298477919e-03,1.745870616199292607e-03,1.430821567773818970e-01
-2.803139423981095835e-01,-4.365217223804496172e-01,-4.348571315892162947e-01,4.137167676465262900e-03,-3.483960635130524484e-03,-2.642953000717203176e-03,1.557316184043884277e-01
-3.394127884180403454e-01,-4.659465081813358722e-01,-3.594309440250755827e-01,-3.610678020237458822e-03,1.852612957946265723e-02,-4.939113041644987295e-02,1.492171287536621094e-01
-2.750938519417404637e-01,-4.566208430233352211e-01,-4.635124838311716067e-01,1.124254116843733569e-03,3.138434795206940909e-05,1.048013792324359100e-03,1.850882321596145630e-01
-2.745927349865573408e-01,-4.749784606568063228e-01,-4.840040932368059323e-01,2.697064609803307214e-02,-4.610863497208490813e-02,-9.863895101730801862e-03,2.256028950214385986e-01
-2.797950937984108322e-01,-4.492858820412486409e-01,-4.669577961202720506e-01,1.709236767778292594e-03,-6.876415536613389012e-04,5.856430082350456241e-04,1.790135800838470459e-01
-2.749207712158653338e-01,-4.554888872632849028e-01,-4.581677499978731305e-01,3.731129993506166354e-03,-3.769687859296938590e-03,-6.714868594761689473e-04,1.821578592061996460e-01
-2.606748802838970702e-01,-4.267182812383237822e-01,-4.184838815766565578e-01,1.971478836117822320e-02,-2.069547106667030470e-02,-1.500262509959098510e-02,1.714558601379394531e-01
-2.709943501212579986e-01,-4.582489640621462135e-01,-4.603524615624950966e-01,2.190641883212697972e-03,1.084657407873600935e-03,-6.763637953583642682e-04,1.883664131164550781e-01
-2.693713297444245147e-01,-4.522907330760214117e-01,-4.583422413338685830e-01,2.036620572783697045e-03,5.580881609610584878e-04,-1.907816522257948860e-04,1.860552430152893066e-01
-2.690268380173607699e-01,-4.495256989639411782e-01,-4.483243428102102190e-01,1.911300501585863230e-03,-6.162274349630094111e-04,8.098098269566354236e-04,1.799402832984924316e-01
-3.134101537601978182e-01,-5.330401052645047377e-01,-4.540872828254265414e-01,1.707215673565104161e-02,6.896094371160282899e-02,2.883972692936748877e-02,2.340231984853744507e-01
-3.153320409805969171e-01,-3.464575080400152940e-01,-4.599631682836671787e-01,4.220892879034994385e-04,3.522301653481519582e-03,1.006771489238214752e-02,1.331430673599243164e-01
-2.782746289175531684e-01,-4.449407565145523380e-01,-4.573823436972709322e-01,-1.660591512019454720e-03,-4.519476640236456434e-03,5.842883396946392527e-04,1.734259426593780518e-01
-2.742637104438111484e-01,-4.427621756991519941e-01,-4.476388829390297586e-01,3.775060020301090023e-03,-5.101317980219620060e-03,-1.184023868978151348e-03,1.713542044162750244e-01
-2.695153433781998786e-01,-4.501560083944775026e-01,-4.528530667277159694e-01,-1.082373805357159623e-04,-2.182283883035930974e-03,-4.945404545799498728e-04,1.820455342531204224e-01
-2.827939949359468130e-01,-4.440605256396968348e-01,-4.408154311631387601e-01,3.633818950251731933e-03,3.006941410314365772e-03,5.811144722122900830e-04,1.598807424306869507e-01
-2.867171980159998745e-01,-4.373629385927486068e-01,-4.387126519378957146e-01,2.063001188641725141e-03,3.083193677575156704e-03,1.978126116500499975e-03,1.515002101659774780e-01
-3.363957353149917839e-01,-5.141384712094515530e-01,-4.212163775900051310e-01,4.102026863719158284e-02,5.552791609602815426e-02,6.870254268774117490e-02,2.284051775932312012e-01
-2.738467850428073502e-01,-4.624115488459442647e-01,-4.584310303925681063e-01,-7.146772145519048221e-04,-1.265424282320509655e-03,-4.136919350558341331e-04,1.866247057914733887e-01
-2.892501815846912905e-01,-4.497742975852558334e-01,-4.201242464594075465e-01,1.249813566902807302e-02,1.372677240990470907e-02,1.391294687769838688e-02,1.533041447401046753e-01
-2.782271863096612563e-01,-4.661006880003342179e-01,-4.656761180734877437e-01,-3.191831501791452582e-03,-1.497477459289715731e-03,-9.782800285502812714e-04,1.877685487270355225e-01
-2.831585922747124062e-01,-4.270971051631395898e-01,-4.391475107484043017e-01,1.988243666943283368e-03,9.885105944940176387e-03,2.563061180666660176e-03,1.514025777578353882e-01
-2.892346260102560684e-01,-4.193056411133482264e-01,-4.177379715734968468e-01,2.138611903440449085e-03,5.475332879678045106e-03,5.509687887830965088e-03,1.300451755523681641e-01
-2.780705594963333027e-01,-4.657750143435758217e-01,-4.606970921101090077e-01,2.638931290238720820e-02,4.626622270635375594e-02,1.525159993400491271e-02,2.086008340120315552e-01
-2.779118693373812121e-01,-3.836950161057524622e-01,-4.545408419117761833e-01,-1.446174228746723023e-02,2.477088355496805724e-03,-9.439891296467425646e-04,1.560512930154800415e-01
-2.833431847204561649e-01,-4.391160270454811387e-01,-4.459517555285341661e-01,2.616436646262373673e-03,5.389267973177016939e-03,7.125708196284729918e-04,1.596430987119674683e-01
-2.987698018598463623e-01,-3.717200624066134829e-01,-4.693008520744630374e-01,-4.186196527547748208e-03,-1.509352130734348632e-04,1.800428979123953541e-03,1.484070718288421631e-01
-2.745639747723044310e-01,-4.283194999806928527e-01,-4.368812658990896547e-01,4.008329893962736014e-03,8.783871938755372435e-03,2.987723567615846974e-03,1.591757982969284058e-01
-3.112698338930992570e-01,-4.214121447863459768e-01,-4.243422530157228145e-01,2.443390653679603213e-03,-3.232619701903149262e-03,4.557278625169957145e-03,1.121347844600677490e-01
-3.122594508204331598e-01,-3.380797992634361204e-01,-4.633661909188384054e-01,-1.169773809471068553e-03,-1.304150215995356597e-03,3.157708103155171860e-03,1.401336193084716797e-01
-2.928442309372926156e-01,-4.102554176012662146e-01,-4.531711648528770064e-01,-9.751714120946261555e-03,7.558671587156296987e-03,-5.457505489159008086e-03,1.456433236598968506e-01
-2.932315491234717686e-01,-3.783936025589597074e-01,-4.025176186882984397e-01,-2.439353228381531847e-04,-1.656142306613954699e-03,1.225189509112899720e-02,1.017237827181816101e-01
-3.040404215058502002e-01,-4.151004997594877066e-01,-4.098812627822573940e-01,-8.397385187166160224e-04,4.840075536294728351e-04,4.203482322912113420e-03,1.088014617562294006e-01
-3.081160621466114136e-01,-4.148458737428142307e-01,-4.168474432569344024e-01,-1.456278842644608473e-03,-1.338129237157491529e-04,4.286849016597349057e-03,1.080297827720642090e-01
-2.873019142420049077e-01,-4.277171662785719253e-01,-4.608633499974544856e-01,-3.805093198271238247e-03,-6.068991986257443044e-03,7.197304635154264758e-04,1.600775718688964844e-01
-3.261891859862034448e-01,-4.265732443188745004e-01,-4.447631692352499444e-01,3.690872913309377768e-03,5.233114315553261120e-03,1.976406206669530444e-02,1.163128986954689026e-01
-2.939344424162974034e-01,-4.405501667045217951e-01,-4.420589979614405474e-01,5.761421004431425789e-03,8.686726526341465721e-03,7.804783285711656624e-03,1.490918099880218506e-01
-3.012649066213228255e-01,-3.857323814717913968e-01,-4.162669427875988482e-01,1.715962038469146238e-04,3.984529763081722485e-03,1.357028032634211533e-02,1.060493588447570801e-01
-2.960658466249368459e-01,-3.962994180320982274e-01,-4.281643279433551830e-01,8.521339044454671885e-03,1.335417252789830589e-02,9.952790143334612830e-03,1.237177848815917969e-01
-3.104707230568691800e-01,-4.281637299459282731e-01,-4.238302138115386253e-01,-1.701261777568648711e-03,-1.348793202364455745e-03,1.181482289792828598e-03,1.156664490699768066e-01
-3.008425248550853914e-01,-3.906556458482297600e-01,-4.598406940790100150e-01,-4.446679840373710113e-03,-6.261856793524634562e-03,6.098859024192529801e-03,1.391230821609497070e-01
-2.703010850838737378e-01,-4.603156837316887962e-01,-4.648627430657277237e-01,9.602660188993191598e-03,-2.705329443583050306e-03,9.181798611526296528e-04,1.931096762418746948e-01
-2.873553445738067924e-01,-4.744164103098164054e-01,-4.532212442237302241e-01,5.242588063884866430e-03,1.133410824731571551e-02,5.206474147212438418e-03,1.789565533399581909e-01
-2.937260393030678984e-01,-5.087082244166709621e-01,-5.505587964100197018e-01,4.795284553779082665e-02,9.904695988166786064e-03,1.750065813609090123e-03,2.533137500286102295e-01
-3.159409428590996272e-01,-3.620673194464090194e-01,-4.640350436986048765e-01,-8.493580320588785260e-03,-6.869787182912178922e-03,1.149915770199762440e-02,1.341013014316558838e-01
-3.097177396267845051e-01,-4.350872935075218995e-01,-4.166482356240067686e-01,2.488225555087801404e-03,1.531170593780126080e-03,4.472471820576617504e-03,1.176071614027023315e-01
-3.112323861538832670e-01,-3.365786241475910989e-01,-4.600887276319906016e-01,-1.071455566785166997e-03,-1.980649917994748484e-03,3.541984641728868587e-03,1.381323486566543579e-01
-4.225636675910710016e-01,-2.786081335626542366e-01,-6.715586812850292686e-01,-4.972658465252890320e-02,1.548770132468327418e-03,-5.245967867977339993e-02,3.663978278636932373e-01
-2.977357042658217434e-01,-3.914698638143913612e-01,-4.384270434701026953e-01,2.276864328758192516e-03,9.139255644911224025e-03,5.494708783777639202e-03,1.254960894584655762e-01
-2.991583142810936846e-01,-4.299352484784482176e-01,-4.203342630354531817e-01,5.335638753454459600e-03,2.248015145223224414e-03,2.595407266567874207e-03,1.267279535531997681e-01
-3.019458152867567913e-01,-4.641920116740393398e-01,-4.477851623597884356e-01,1.188226561792690358e-02,9.220516372633543595e-03,8.040204471697965857e-03,1.574916392564773560e-01
-2.988485180217138604e-01,-5.051619456430400668e-01,-5.413374924218666839e-01,4.743489703468890817e-02,-2.116938244388039472e-02,-5.669752885028415262e-03,2.439845800399780273e-01
-2.413381491766019571e-01,-3.000836566633639513e-01,-3.143426156136945870e-01,7.658252912279714386e-02,-8.602041289736352125e-02,-1.364069192029242761e-01,3.163948953151702881e-01
-3.648367446607432285e-01,-2.499540748014887070e-01,-6.349171692546937695e-01,-6.218402202924056682e-02,3.517319922679851881e-03,-5.179188353405735773e-02,3.699376881122589111e-01
-3.031846023677550739e-01,-4.977962936801788585e-01,-5.153563738589825860e-01,7.789272960711429543e-03,2.293765103505066624e-03,-6.347739418278686672e-04,2.044467478990554810e-01
-2.814632462416976622e-01,-4.253983570133685888e-01,-4.505652171912999382e-01,2.054488131647618301e-03,7.544697258588646538e-03,2.706605492743460132e-03,1.586773097515106201e-01
-2.696993437335106769e-01,-4.449550404914484059e-01,-4.532923822798162750e-01,5.434161922915760161e-03,4.740356181838704941e-03,1.410847658634533427e-03,1.800200343132019043e-01
-2.725464876221483923e-01,-4.303221975108192932e-01,-4.444494655501634583e-01,5.388560305734962225e-03,7.506602295787844978e-03,1.620928427372819855e-03,1.660895347595214844e-01
-3.144247663943114945e-01,-4.392237748510601225e-01,-3.882620680131629309e-01,-3.002218997019763264e-03,-2.510288221387010563e-03,6.921485289518198268e-03,1.095517352223396301e-01
-2.719849904654165762e-01,-4.533824594298133115e-01,-4.579695460911281102e-01,6.424144379594655743e-04,1.008346655884902188e-03,-1.148882430281869999e-04,1.837457418441772461e-01
-2.881332774794205243e-01,-4.208443560686139229e-01,-4.714709722080587806e-01,4.639533536030367167e-03,3.676015403289112967e-03,2.254687211586306646e-03,1.643604636192321777e-01
-2.703967256756656390e-01,-4.523064064508044990e-01,-4.570354227615294751e-01,1.481833857770411232e-03,1.020498010581672799e-03,-9.019309352669440023e-05,1.843461096286773682e-01
-2.708815272097831461e-01,-4.507339710021420753e-01,-4.542072791657947306e-01,1.043783398298453848e-03,1.169305341815225253e-03,-1.393777709376653408e-04,1.816344559192657471e-01
-2.707727763974321356e-01,-4.557731116307856545e-01,-4.585881738253373419e-01,1.222688093395270237e-03,1.204595076520107236e-03,-4.120379296432052159e-04,1.864488720893859863e-01
-2.725000736645796229e-01,-4.580835944450252772e-01,-4.574641857665328604e-01,-1.480968023665049779e-03,-1.408531430089614289e-03,-4.806663178615058697e-04,1.853102743625640869e-01
-2.731413336741915221e-01,-4.600426767222930424e-01,-4.554899537913447705e-01,2.208588761046599049e-03,2.035096516790656403e-03,2.668062767414294345e-04,1.847409009933471680e-01
-2.711771931325674956e-01,-4.576602077136133762e-01,-4.604127354771740954e-01,1.824250801917039417e-03,9.982522074107286029e-04,1.032431238648845228e-04,1.879090070724487305e-01
-2.802586481277263841e-01,-4.513509513457140132e-01,-4.647667504954733908e-01,1.333492961111689074e-03,4.753121371427944733e-03,1.585542358281972347e-03,1.784055829048156738e-01
-2.692961561537510762e-01,-4.534798853304999877e-01,-4.552481170488660855e-01,2.099557443159589046e-03,1.414470048368058177e-03,5.292006724372823583e-04,1.851283907890319824e-01
-2.714027396217366661e-01,-4.560521645638951904e-01,-4.599089187742396168e-01,2.664047982369854416e-03,1.908729329079158089e-03,-6.529392313300384082e-04,1.866974383592605591e-01
-2.690121590950542152e-01,-4.504120134831259836e-01,-4.538294002157182705e-01,2.547687600615698104e-03,2.512033754497554165e-03,4.753338349442470665e-05,1.832372993230819702e-01
-2.700085011945927427e-01,-4.521548579614886876e-01,-4.577676882433670547e-01,1.896444227732805221e-03,9.667243615494168930e-04,1.519133144873909024e-04,1.850535571575164795e-01
-2.820631937535987843e-01,-4.501173724582705482e-01,-4.473337100459426341e-01,-2.536349330843326502e-03,-1.088110495563876599e-03,3.156273141571929548e-04,1.667492091655731201e-01
-2.740175020063541633e-01,-4.458181257093360994e-01,-4.459553693904131366e-01,-1.924857715570906652e-03,-1.951611864471842431e-03,2.487044476794890565e-04,1.719353944063186646e-01
-2.978865452759609234e-01,-3.928327034688220976e-01,-4.503596842123740451e-01,-2.994011329100782198e-03,-6.747631598653634939e-03,5.926883203346183619e-03,1.343687474727630615e-01
-2.726961514008857668e-01,-4.446218731392910795e-01,-4.483487554300469857e-01,-3.064154995294351633e-03,-4.742052750400960193e-03,8.529731954006612889e-04,1.741002649068832397e-01
-2.762137264844704010e-01,-4.416907332456149193e-01,-4.360105465946171321e-01,-3.401773202626711713e-03,-1.948401093227494513e-03,1.448330255182722452e-03,1.628722250461578369e-01
-2.714039737432936139e-01,-4.521203154708119398e-01,-4.573573790669694938e-01,-3.190421130793956320e-04,-1.548311747471559606e-03,-4.266432133897674864e-04,1.834128946065902710e-01
-2.716500354290355412e-01,-4.393806905500950433e-01,-4.435194405801022310e-01,3.931897656738776378e-03,4.654127628124224599e-03,2.517885446485577331e-03,1.702212691307067871e-01
-2.712834953807516936e-01,-4.576175850358499275e-01,-4.604275920680769296e-01,1.814189001653824986e-03,1.003549308701740016e-03,1.079709985392329595e-04,1.877892911434173584e-01
-2.742581426874695638e-01,-4.282844901832347784e-01,-4.631138083039304520e-01,8.114897197725200184e-03,4.694669373209049007e-03,1.627427386564641492e-03,1.748526543378829956e-01
-2.717619661888979188e-01,-4.262337882990969717e-01,-4.479825640430530886e-01,5.681670643935011859e-03,7.971490341110387678e-03,3.740407651875397692e-03,1.674024313688278198e-01
-2.766958250051853030e-01,-4.597809740905638431e-01,-4.640173057866789907e-01,6.225442377929872595e-03,4.730552706209053757e-03,1.396312034040461886e-04,1.857341825962066650e-01
-3.356690672190105196e-01,-5.056667370776153358e-01,-5.190139580436243794e-01,6.767438910183631862e-02,5.104629092892427888e-02,3.716994544535538042e-02,2.388468235731124878e-01
-2.789825485848047570e-01,-4.599468681931289660e-01,-4.825348140981673417e-01,3.422629098045336382e-02,3.946177316100225874e-02,3.503727368023751981e-02,2.218439877033233643e-01
-3.005081907984365475e-01,-4.847910971129256730e-01,-4.855759818957331997e-01,2.354069069507050155e-03,-6.410358826509962148e-04,4.823895503759027467e-03,1.849137991666793823e-01
-2.511411651091096653e-01,-4.555782520414858872e-01,-4.621806716817928873e-01,-2.996275602863497992e-02,2.850610872521421729e-02,-8.447255976003254646e-03,2.203021943569183350e-01
-2.877241502793976280e-01,-5.395166189560435255e-01,-5.077511530435190323e-01,-2.165741992005391220e-02,3.245407696254039298e-02,-1.304243936492345546e-02,2.479666024446487427e-01
-3.030385187698793059e-01,-4.363410673943539653e-01,-4.290391137406693867e-01,-4.022496358835985636e-03,-3.874579556193980803e-04,1.648709599859766615e-03,1.300256401300430298e-01
-2.826435156328609422e-01,-4.738858087281623277e-01,-4.702376448429267941e-01,1.765281957668392125e-03,1.483397736758243837e-03,3.659736389374450023e-03,1.895926445722579956e-01
-2.508448375805955588e-01,-3.248300737842823027e-01,-4.007486876652192054e-01,-8.318026006527480531e-02,-4.865627013391438105e-02,9.138905415851070191e-02,2.641388773918151855e-01
-2.707123228955663485e-01,-2.945097639556557567e-01,-4.474795625628673057e-01,5.843181714527770354e-02,-1.023886502691166538e-02,-2.129677139555352303e-02,1.988073438405990601e-01
-4.191807739225000828e-01,-2.313939181870216799e-01,-6.557346542923794264e-01,-1.653945917951524886e-03,2.988803809817328159e-03,-6.153417436864815765e-02,3.834549784660339355e-01
-2.923437762590428424e-01,-4.489996891064649276e-01,-4.949384900192923542e-01,2.853384739042293464e-02,-8.286206469979419051e-03,3.688622246801049557e-03,1.911475211381912231e-01
-3.291137220414608322e-01,-2.776704116217467710e-01,-5.087774732163690139e-01,-3.968425695446349544e-02,-8.402678645655666315e-03,4.299577267105483130e-02,2.337738722562789917e-01
-3.032071048149689307e-01,-4.165426327317079402e-01,-4.452656095122450863e-01,-1.883680863765734709e-03,-7.871108125730039151e-03,5.746907845388957506e-03,1.312283277511596680e-01
-2.922161845453679629e-01,-4.362922699852573305e-01,-4.525035370037722715e-01,-2.518379433639453616e-03,-7.214678542459289703e-03,2.508183608685983761e-03,1.534615010023117065e-01
-2.747936597045167462e-01,-4.552068122039281128e-01,-4.378137951164325914e-01,-2.648233623685539162e-02,-2.404782322511783352e-02,2.168665092249847867e-02,1.869846582412719727e-01
-2.912150263272796913e-01,-4.191177703838281365e-01,-4.590983934578860004e-01,1.406697281018689030e-02,-7.722576702317681535e-03,-2.372862227591856273e-03,1.544688940048217773e-01
-3.127220408506515836e-01,-4.080780109053489535e-01,-4.697777216031160941e-01,2.348467438519794611e-03,9.014472805286975060e-03,6.465501096926351728e-03,1.384513825178146362e-01
-2.939667316694677957e-01,-4.003744606855600408e-01,-4.271662528883274912e-01,-1.244215038027711526e-03,-7.537638183310702705e-03,7.426149201091711803e-03,1.234171539545059204e-01
-2.852324153428320574e-01,-4.270049350798954535e-01,-4.563961024297459868e-01,2.474414945858594440e-03,4.372394847507773963e-03,2.296549262683768994e-03,1.588133871555328369e-01
-3.084981909096153885e-01,-4.547778381430588879e-01,-4.511153022488054720e-01,-1.767411320393384722e-02,-2.930966860321687628e-02,2.033493051046684347e-02,1.600943952798843384e-01
-2.847348894820640464e-01,-3.879455363679659707e-01,-4.540388935985346652e-01,-1.169196162973453780e-02,-9.670379373039017859e-03,7.712856199751857121e-03,1.507031023502349854e-01
-2.869941748708249030e-01,-3.873867408580021765e-01,-4.569130570065410568e-01,-1.681177992205059452e-02,-8.273518961882012079e-03,1.877203793035833040e-02,1.549287885427474976e-01
-3.072046908333013748e-01,-4.202452775956335151e-01,-5.092254054146304609e-01,-5.013377388520132150e-02,-1.172763884782409248e-02,4.728277138095290932e-02,2.131050974130630493e-01
-2.802911512434113628e-01,-4.496841612532463395e-01,-4.444595735352620536e-01,3.180678220651205791e-03,1.029099164139642315e-03,9.213039084268072462e-04,1.669501513242721558e-01
-2.517526259572713809e-01,-3.266883405539808827e-01,-3.632372209557663822e-01,-4.114716898345628648e-02,-2.948456941028081146e-02,6.523273095472313654e-02,1.736180186271667480e-01
-2.740311676939365948e-01,-4.526948930867832899e-01,-4.586239244218933697e-01,4.610953009216534428e-04,1.767840697279255075e-03,-1.933797871588079499e-04,1.817286610603332520e-01
-2.915804101540475091e-01,-4.087368875454578387e-01,-4.451870764491537846e-01,-1.295499246151576682e-02,-9.854837630250341471e-03,3.097111231109659236e-03,1.419445574283599854e-01
-2.807167906609625563e-01,-4.450875319745432601e-01,-4.553383606701643105e-01,-8.669627087861656381e-03,7.848447326260030860e-03,-3.333983290927571529e-03,1.710303574800491333e-01
-2.464347870941923646e-01,-4.015332180953464225e-01,-4.428869396713023265e-01,3.823543030084746580e-02,-1.369488903516453970e-02,-1.269432183109795928e-02,1.939367949962615967e-01
-2.882853244967317763e-01,-4.264697366904544040e-01,-4.667847942625957258e-01,3.114727993420271686e-03,5.229935804182839904e-03,2.705750677836040157e-03,1.625554412603378296e-01
-2.788241295936541020e-01,-4.479555086080193038e-01,-4.561482589448858649e-01,1.058095623947937153e-03,5.846769687227585527e-03,1.384768907902389425e-04,1.736783385276794434e-01
-2.716984864831888391e-01,-4.507878444947727714e-01,-4.527448427526555297e-01,4.548240898941000249e-04,1.049646594033031748e-03,1.159069950310842589e-04,1.800868511199951172e-01
-2.835332272752913996e-01,-4.505544213632120543e-01,-4.685671091166063729e-01,-1.072191576013350155e-02,9.785779588145002410e-04,9.579846801892190171e-04,1.777063310146331787e-01
-2.735209447094196222e-01,-4.294312274070791191e-01,-4.548776272225237283e-01,-1.114461481490596796e-02,9.053150308680357359e-04,-3.155980546772093383e-03,1.712537258863449097e-01
-2.743207510579063202e-01,-4.493254873074223332e-01,-4.582589404574491931e-01,-2.870024289659484432e-03,3.445520520120337951e-03,-9.619835820413925355e-04,1.798136830329895020e-01
-2.722459904622345772e-01,-4.517520869294353592e-01,-4.546989042392605707e-01,-2.680879526164174674e-04,-1.408365132358130496e-03,-4.647710609378054736e-04,1.810163259506225586e-01
-2.781970479671915797e-01,-4.536261796703224825e-01,-4.513223598165341244e-01,-4.406780325148339575e-03,-3.623749852306666977e-03,6.278329656090697423e-04,1.745719611644744873e-01
-3.145192835473924475e-01,-3.994246998476300714e-01,-5.229333667312114908e-01,5.844766224230819179e-02,6.750177432439093649e-03,2.819287992203498711e-02,2.138211280107498169e-01
-3.137021669571558036e-01,-3.289910990908768151e-01,-5.417011745205277951e-01,6.246736750043298259e-02,-8.511009978521720185e-03,-1.944445323982648549e-02,2.485749870538711548e-01
-2.722690059595046508e-01,-4.511511221873066857e-01,-4.482802633310495888e-01,-1.422341183192210893e-03,-7.186511586766908743e-05,-5.679184202806329337e-04,1.774839758872985840e-01
-2.713783123926911123e-01,-4.525526986637777305e-01,-4.547648024966472469e-01,-6.407045545155486826e-04,-8.062529050027785870e-04,-1.171567732792932331e-04,1.822993457317352295e-01
-3.362708815415380581e-01,-3.623655310922581640e-01,-4.731887245142775700e-01,-1.923567858548426088e-03,1.619999797697791247e-02,4.284715694958122351e-02,1.488645672798156738e-01
-3.254672348838961726e-01,-3.612959023181256391e-01,-5.099377228498481740e-01,2.715079156122174667e-02,-2.046972678973928064e-03,2.121749645351216768e-02,1.796617209911346436e-01
-2.734097003185377850e-01,-4.610696397217822207e-01,-4.645231123642081794e-01,-1.998694334958457750e-03,-9.466080346342881004e-05,-9.259580780660794529e-05,1.894420683383941650e-01
-2.633003480345464387e-01,-2.710567224853243085e-01,-4.448434503296310183e-01,5.953329487014446392e-02,-5.290383941536175479e-03,1.296428124980990694e-03,2.057464271783828735e-01
-3.066405310731638023e-01,-4.160811990173067798e-01,-4.216545993975849838e-01,-5.700265241557977113e-04,-2.430254754256536750e-03,9.048340831452790500e-03,1.135014966130256653e-01
-2.779343767865399273e-01,-4.481023975022748740e-01,-4.434875694523460199e-01,-5.480731380689025413e-03,-4.531520634321068580e-03,1.119632443761523800e-03,1.683705300092697144e-01
-2.870836845821496675e-01,-4.397374277192154790e-01,-4.385976492166575591e-01,-5.116045208455569267e-03,-1.724410140717485846e-03,-6.838313457182358104e-04,1.523788571357727051e-01
-2.783976653605392260e-01,-4.348731165960806888e-01,-4.491790450277341473e-01,-3.579490286499086450e-03,-7.616228575815101390e-03,1.661946715238337823e-03,1.647680103778839111e-01
-3.113198613516919844e-01,-4.254529764583859230e-01,-4.325647583991007461e-01,-6.186013425798975694e-03,-6.015004042246967220e-03,1.504986922716795503e-02,1.216201931238174438e-01
-3.084934658880676417e-01,-4.221041766805032069e-01,-3.888469465148008952e-01,-5.195449792488039155e-03,-3.403054087343288393e-03,1.018891643232788975e-02,1.032580360770225525e-01
-3.483115607118072998e-01,-3.219502704131755877e-01,-2.592344900871482727e-01,-6.016827944061749547e-03,-3.784042793682793060e-02,1.773711756489586289e-01,3.241409659385681152e-01
-3.105859862753424516e-01,-4.254041110805181214e-01,-4.315987233057854700e-01,-3.451738077383433630e-03,-3.194405637475487749e-03,6.481117223462264099e-03,1.188494861125946045e-01
-3.334986834558167357e-01,-4.145667558850492096e-01,-4.685889869419853082e-01,1.600005819539884050e-02,1.310210447096177289e-02,2.661621260144854395e-02,1.314464956521987915e-01
-2.973361668356774845e-01,-4.229130988165261118e-01,-4.211555268684360476e-01,-2.722174660496736679e-03,-6.092985358194928994e-03,7.702431019489024361e-04,1.252490580081939697e-01
-2.980125926674954129e-01,-4.228269867820110828e-01,-4.286238729035387607e-01,-1.660774738232895014e-03,-5.053492163425933083e-03,3.136512105666903766e-03,1.282582283020019531e-01
-3.092688097909132017e-01,-3.943035499727639559e-01,-4.385902220061616008e-01,-1.381590207300327651e-04,-4.324278691892274352e-03,7.402636867096097813e-03,1.147984117269515991e-01
-3.078952627020498656e-01,-4.032387840243826238e-01,-4.260315592547991304e-01,-3.147702503775096018e-04,-2.525642576505394022e-03,4.506851555188370190e-03,1.089192852377891541e-01
-3.017327997527001204e-01,-4.164286867164445627e-01,-4.461267564904493610e-01,-2.168390245753848769e-03,-7.966106188228421273e-03,5.524762105658918149e-03,1.331894099712371826e-01
-2.969254197667097195e-01,-4.230975246944350676e-01,-4.219081930099476963e-01,-7.358018937856078195e-04,-3.616374479894672936e-04,2.571609424956416284e-04,1.255904883146286011e-01
-2.987258204495328306e-01,-4.306292525820553108e-01,-4.403220936931656615e-01,1.903212233067124934e-02,-2.354529212854580833e-02,-2.423346942637207013e-02,1.525862962007522583e-01
-3.073413509166712521e-01,-4.238268094034864930e-01,-4.222733668930593320e-01,-2.657860543817318604e-03,-2.529876340718664133e-03,3.319950255036384704e-03,1.160335391759872437e-01
-2.730749030834965785e-01,-4.554855553534732371e-01,-4.066379585876731539e-01,1.238763962492432646e-02,-4.006199463966939739e-02,-1.950114490985590740e-02,1.821141093969345093e-01
-2.771629632121064279e-01,-4.433111952907202169e-01,-4.598255271092106522e-01,-1.517248050568005850e-03,-3.042349101419394332e-03,1.118029498525162325e-03,1.751005649566650391e-01
-2.700067330124610310e-01,-4.251920752634300027e-01,-4.421609229398437702e-01,-7.036604670696589535e-03,7.972083091907170710e-03,-2.795446108946606986e-03,1.654279232025146484e-01
-2.652341642379139053e-01,-4.172866540208044484e-01,-4.434960043745149738e-01,-9.410301414325713751e-03,6.588552278258958533e-03,-1.651448780844606661e-03,1.679171174764633179e-01
-2.733686920296638512e-01,-4.528294631564460104e-01,-4.539431248989131418e-01,-9.424457905859340463e-04,-1.357214207448323960e-03,-5.243327684897238633e-04,1.800452172756195068e-01
-2.743326374752491081e-01,-4.530325601754783271e-01,-4.573689464769089552e-01,2.520324710535806843e-03,3.702507167317806592e-03,-2.616758649032896174e-04,1.810739189386367798e-01
-4.624619935412158656e-01,-6.226410120932988068e-01,-4.108082413594706939e-01,3.399102799291174593e-02,3.279114610712254019e-02,2.107497678056514945e-01,4.201638102531433105e-01
-3.124430665663280315e-01,-4.270943742487892103e-01,-4.282473568692071186e-01,-3.327124784840422567e-03,-1.422681704884309201e-03,6.451869045950681461e-03,1.159422472119331360e-01
-3.019085626024249347e-01,-4.268877198824770347e-01,-4.320680346226721258e-01,5.628827884899306917e-04,3.636833662788287701e-03,6.545627574098631524e-04,1.278122514486312866e-01
-2.709526721758501733e-01,-4.471672168195660602e-01,-4.247275028482934145e-01,7.339153115811454346e-03,7.243608680840831100e-03,6.881999437106371036e-04,1.670967489480972290e-01
-3.070776406013413506e-01,-4.274795579068269014e-01,-4.261646683154352022e-01,-3.029338845348495540e-03,-2.625483023859150620e-04,1.301766441346562369e-03,1.198868528008460999e-01
-3.052774003479441500e-01,-4.113842968433883973e-01,-4.187860422573402297e-01,-5.649492756601209517e-04,-1.783955505849633277e-03,3.494413540661633552e-03,1.102087721228599548e-01
-3.118958939356596960e-01,-4.094922512526905090e-01,-4.154356966425848952e-01,3.598152775323855109e-04,7.583523791123451471e-03,2.123176071092931771e-02,1.080079302191734314e-01
-2.754803791354561437e-01,-4.530112574362518685e-01,-4.494701794128448946e-01,4.256362982022335491e-03,3.043201837337505475e-03,3.079168791706942375e-04,1.760213524103164673e-01
-2.881655199859495253e-01,-4.371721148351071506e-01,-4.458044844437214493e-01,7.942907004339414109e-05,8.049927590960660739e-03,1.036761402543360871e-04,1.541370153427124023e-01
-2.751342348093347434e-01,-4.455833944985140849e-01,-4.531243142375787070e-01,1.444358518320266235e-03,4.706949530812519142e-03,-2.158466302790921281e-05,1.745504289865493774e-01
-3.065275832059511929e-01,-4.302271973317058906e-01,-4.140400329014042868e-01,6.758438058793258749e-03,3.581169067795969291e-03,3.219485159384031375e-03,1.173365786671638489e-01
-2.737297953361760849e-01,-4.535056518192531749e-01,-4.580741357084280319e-01,3.262558099262093374e-03,3.341701837307158376e-03,1.365835313980820487e-04,1.822828054428100586e-01
-2.483500993234939724e-01,-3.325409387431015329e-01,-4.287843821201685612e-01,7.318123493248629430e-02,-3.915062973865893192e-02,-7.718639632662803451e-02,2.509815394878387451e-01
-2.549380767631327926e-01,-3.388789091400855602e-01,-4.738619848288411207e-01,8.890981415490940842e-02,-3.575676964293577481e-02,-4.589721809302591687e-02,2.654566764831542969e-01
-2.741082651762360434e-01,-4.504275362501121149e-01,-4.508484673121557762e-01,3.768728281321341491e-04,1.133183044601801265e-03,-1.367764420414639996e-04,1.765423864126205444e-01
-2.719118502008440741e-01,-4.526899536715160433e-01,-4.533851365785779297e-01,3.772447320818659894e-04,1.074861426688095319e-03,-4.036200195707883372e-04,1.811387836933135986e-01
-2.789900253297045163e-01,-2.506517398210869607e-01,-4.216378460635578085e-01,4.968425475214883341e-02,-2.275932842960041308e-02,-8.434086836378383578e-02,2.355706691741943359e-01
-3.267157522301684103e-01,-1.783963208568032088e-01,-6.047404488897774044e-01,9.867038011874479375e-02,3.600815523293147968e-02,-1.958716802017742772e-02,4.180683195590972900e-01
-2.697491615780492347e-01,-4.554593465930549256e-01,-4.572100142207100038e-01,-1.626615985441815914e-03,-1.298770724364353745e-03,-6.235990664683460898e-04,1.866296380758285522e-01
-2.690512481917544663e-01,-4.472312115344839190e-01,-4.483011940854989552e-01,-8.971019097936224667e-04,-2.678923779111119959e-03,-8.207748817058108733e-05,1.787843853235244751e-01
-3.302911494528822933e-01,-3.748334010952941719e-01,-5.191902715612718433e-01,2.059500370805465719e-02,-1.039164194499434977e-03,-1.428117846638869877e-02,1.764665842056274414e-01
-2.830986869688557062e-01,-4.451444241975025529e-01,-4.728921294189517011e-01,1.006897327126955212e-02,2.031530035837457275e-03,6.413790694914545121e-03,1.787878572940826416e-01
-2.761672581923217962e-01,-4.407752132572096415e-01,-4.379258510756233180e-01,-1.198324178530674796e-03,-3.048149703445294199e-03,1.013538500184753667e-03,1.633099317550659180e-01
-2.874338661060423794e-01,-4.597479137222347245e-01,-4.963359857500050376e-01,2.631706126688887135e-02,-2.691525186246069949e-03,-7.463094353974985586e-03,1.990026235580444336e-01
-2.762962918635724074e-01,-4.467687290298482106e-01,-4.381029575123253639e-01,-4.311556817445342561e-03,-1.383815427983508053e-03,3.358106211440504453e-04,1.664948165416717529e-01
-2.747746353278344156e-01,-4.507309707306544344e-01,-4.525405674816290191e-01,-9.003977368140659698e-04,-9.936493974474110147e-04,-8.237945489729485958e-05,1.768833845853805542e-01
-2.760993481436651575e-01,-4.598090029364738096e-01,-4.646054651380285283e-01,1.473499348143137225e-03,-5.088961803392767162e-04,-1.511494948450063224e-03,1.861922293901443481e-01
-2.721824536867675226e-01,-4.552000611741723879e-01,-4.614859687130625776e-01,1.142336698686935220e-03,-2.630412642761269064e-04,-1.107740756339908091e-03,1.862610876560211182e-01
-2.742639866784762903e-01,-4.609781159942805129e-01,-4.645266712211000293e-01,1.571186274534565894e-03,-1.954622566672505838e-04,-1.232383659615367407e-03,1.885454803705215454e-01
-2.547443358154543036e-01,-3.795418394617653957e-01,-4.629404468045626997e-01,6.793082411086653893e-02,5.978826464542783166e-03,2.635505598979145589e-03,2.165861278772354126e-01
-2.744006546449783146e-01,-4.542989486987215053e-01,-4.600061824945962941e-01,3.140952366529756873e-03,3.226050611293308345e-03,2.346036582181127220e-04,1.829854547977447510e-01
-2.674812299515743064e-01,-3.809566738070598313e-01,-4.371159504841690691e-01,-1.622404428655695868e-02,-7.604530261350498505e-03,2.907509522370752952e-03,1.529435962438583374e-01
-2.749797517325170415e-01,-4.530222507654255715e-01,-4.546391090813189373e-01,2.002095992805685062e-03,2.713550151445612030e-03,3.343709383804015526e-04,1.789526939392089844e-01
-2.949840484485335423e-01,-4.273375511209319688e-01,-3.996921531116156001e-01,-8.393763543026171170e-03,-2.607844846636803854e-03,7.142119419147212322e-03,1.225053071975708008e-01
-2.138273451923624335e-01,-1.823865216074874729e-01,-3.491249381791902695e-01,9.289229412283012133e-02,-4.717284258978451245e-02,-1.135339200986674735e-01,3.078643381595611572e-01
-2.840745871225250907e-01,-4.365342043779145143e-01,-4.302420575598822072e-01,-1.284479515569372614e-03,-3.878749635756497272e-03,7.970463078463955499e-04,1.495868265628814697e-01
-2.711384287853892960e-01,-4.567223970682709466e-01,-4.586323181164915219e-01,1.068773672705978671e-03,1.272632372136524173e-03,-6.269166399109785213e-04,1.865716278553009033e-01
-3.048997652937904812e-01,-4.210817419823403851e-01,-4.171204335908199612e-01,-2.757380708718564985e-03,-2.141783073677014544e-03,3.020956990908876642e-03,1.145323589444160461e-01
-2.796201846195660035e-01,-4.645521258489161420e-01,-4.662632691612765279e-01,-3.057455262299968359e-03,-1.589706131853857451e-03,2.793710930643563436e-05,1.858892738819122314e-01
-2.822414313295604771e-01,-4.854269577694221849e-01,-4.728364945794784613e-01,-4.530596740643282397e-03,-1.248203892638603991e-02,5.114467820763874545e-03,1.987262815237045288e-01
-2.976875228556773445e-01,-4.201845828321011389e-01,-4.295674570912058066e-01,-2.340035695229701791e-03,-6.929046052120027381e-03,4.468031404487330695e-03,1.283093690872192383e-01
-2.961397686303240961e-01,-4.225075032743467185e-01,-4.228255758049511148e-01,-5.400279921273253882e-04,-3.095530941338023138e-03,2.544794521692186375e-03,1.267207562923431396e-01
-2.882798429361351222e-01,-3.961749294513530750e-01,-4.707267761163735909e-01,1.462917492933729982e-02,1.810493975290698775e-04,-1.362605936389435848e-03,1.609062254428863525e-01
-2.723631147050095125e-01,-4.441629547207534001e-01,-4.437361268072175791e-01,-2.948247361637875222e-03,-3.718529527697217018e-03,8.152046141418665222e-04,1.717893779277801514e-01
-2.790296332551851499e-01,-4.338322889629539492e-01,-4.317884674958759605e-01,-7.936622912004184793e-03,-7.725852497084296534e-03,4.923019197102563270e-03,1.552172452211380005e-01
-2.709373006929445271e-01,-4.582934471124010534e-01,-4.532101195321224796e-01,4.087514026350333365e-04,-1.354117914701749191e-03,-1.478370530102913615e-04,1.848833113908767700e-01
-2.723907975370259971e-01,-4.605060000202049197e-01,-4.544509794754179599e-01,-1.830830900438925441e-04,-1.308298868735107996e-03,-3.695583390389635074e-07,1.851760894060134888e-01
-2.760350786336286388e-01,-4.617681157862784103e-01,-4.561715852971779950e-01,2.706997904134942744e-03,-4.016349402042733961e-03,1.877449540820127181e-05,1.831911504268646240e-01
-2.996549772635015430e-01,-4.352811507395468738e-01,-4.181552198790182140e-01,-6.220030509866064823e-03,-5.856256596923373366e-03,8.735131565379708474e-03,1.296645402908325195e-01
-2.695178735877565845e-01,-4.305200143144019553e-01,-4.166798086183497452e-01,-1.281220708626334796e-02,-1.251916587786445871e-02,9.106497195277332354e-03,1.584183424711227417e-01
-2.847478037526857131e-01,-4.329308083662420925e-01,-4.348454436757209773e-01,9.457595686177277822e-04,4.324438411756032809e-03,6.190131656816614961e-04,1.493503302335739136e-01
-3.068137557286938488e-01,-4.236388804999627888e-01,-4.402670730324960702e-01,2.625823429551182604e-03,8.009863696827721272e-03,2.215460825114806600e-03,1.268663853406906128e-01
-2.815405550862336570e-01,-4.723826939723450580e-01,-4.538719501565286474e-01,-8.045775324234483248e-04,-1.409603013239701420e-02,-2.888564544956092662e-04,1.839266866445541382e-01
-2.744508362505481136e-01,-4.496093773335086974e-01,-4.541423435244452689e-01,-3.831706612186557784e-03,-5.108908071664274887e-03,1.713457032260997141e-04,1.778130680322647095e-01
-2.980019649623872890e-01,-4.346689683493940581e-01,-4.115743207264660475e-01,5.532364694259011076e-03,1.958708963543850587e-03,4.359735195642964502e-03,1.273393481969833374e-01
-2.711559240370611246e-01,-4.493755748086095680e-01,-4.493101682041209521e-01,6.145847102369953515e-04,1.015526242347653983e-03,5.247010789859907383e-04,1.782011389732360840e-01
-2.812711361229013329e-01,-4.873110138503821687e-01,-4.810754018555541411e-01,4.010734469554792098e-02,-2.197002825124422937e-02,-1.056513702577467975e-02,2.186669558286666870e-01
-2.762344530350659966e-01,-4.634649275200916074e-01,-4.586327391317061575e-01,-8.055443266106809353e-04,-8.581880049170893116e-03,2.154962336248712100e-04,1.854640096426010132e-01
-3.022159021943880419e-01,-4.309251071069197248e-01,-4.122043358113804956e-01,6.638888041656612095e-03,2.232304798936665148e-04,2.513201527322792700e-03,1.210715249180793762e-01
-2.965926349718397415e-01,-4.150483252567663262e-01,-4.265016619791514030e-01,2.086009396281852599e-03,3.975056323700599560e-03,3.259667053652887201e-03,1.249478906393051147e-01
-2.853831339497652775e-01,-4.327945872743488298e-01,-4.370894557144717196e-01,7.908542559458713907e-05,6.055648786559052546e-03,1.032264342651538974e-04,1.499725282192230225e-01
-2.795775740999637549e-01,-4.458986224534727816e-01,-4.466786164766626266e-01,5.973011366674979084e-04,4.922048001875424343e-03,-1.138506305430199645e-03,1.669450998306274414e-01
-2.829611300527377638e-01,-4.629119079014393789e-01,-4.460113026787146939e-01,5.886160991779035290e-03,-8.577174040822971648e-03,-1.159054751345055880e-04,1.730645000934600830e-01
-2.593900104678409368e-01,-4.407898847924457963e-01,-4.064860763818949341e-01,-5.598994320356819564e-04,-1.062625477919780514e-02,7.449462816347277114e-04,1.679324805736541748e-01
-4.298238293234470930e-01,-6.168754542869784308e-01,-6.904226134121530523e-01,-1.218280246706425207e-01,-8.871306430818344524e-02,1.170342027334156376e-01,4.042052030563354492e-01
-2.739627859390899589e-01,-4.499168271988245316e-01,-4.508624089964036741e-01,2.777519837274811110e-04,1.251613987463810100e-03,-2.578414031687832164e-04,1.764432787895202637e-01
-2.811533476282697674e-01,-4.499732819119677818e-01,-4.485885500045729835e-01,2.250741593681278239e-06,1.203677343499186345e-03,9.957085967900213604e-04,1.681536138057708740e-01
-3.382765324458049117e-01,-4.033868297094225785e-01,-2.944448524189624550e-01,4.726647065371343548e-02,2.594513037269241540e-02,1.720527862280551157e-01,3.264088630676269531e-01
-4.511581470750164469e-01,-2.904502261364912963e-01,-6.981397807945538547e-01,5.147998045874028344e-02,-1.804517016857258918e-02,-6.640227235418641460e-02,3.855828046798706055e-01
-2.747360067296873432e-01,-4.619693479721517781e-01,-4.561376760130875230e-01,7.603543470323691818e-04,-2.891088046142212438e-03,-2.029359981179314936e-04,1.844597011804580688e-01
-2.743051491889415550e-01,-4.614474727070160820e-01,-4.552874505183037157e-01,4.476522558406200000e-04,-3.222369422598287628e-03,-1.743085814435937919e-05,1.842258125543594360e-01
-2.780814765032396663e-01,-4.453546654130972615e-01,-4.450016745464071555e-01,-4.162741311277545590e-03,-6.017362451691884041e-04,1.890696809226192659e-06,1.672556996345520020e-01
-2.871945661177359721e-01,-4.321169390760081774e-01,-4.358355594678933187e-01,-1.396179705117381580e-03,-8.688705581616412493e-04,-9.728476359380017939e-04,1.468542963266372681e-01
-2.828591792870991939e-01,-4.649588185918243077e-01,-4.357704688505517621e-01,-6.519465165487394950e-03,-1.385942769774991916e-02,2.129708269517961456e-03,1.715063303709030151e-01
-2.787229450925394758e-01,-4.537167716081926816e-01,-4.467971248407107687e-01,-5.492683769696593728e-03,-8.503556377391705131e-04,-5.426094770847849757e-04,1.719109863042831421e-01
-2.737195246039073604e-01,-4.629586446183858173e-01,-4.593755854123965365e-01,-1.957242027929947026e-04,-1.410303514256357671e-03,-2.227226095523740228e-05,1.874894946813583374e-01
-3.482886167148472323e-01,-4.425454755442843613e-01,-4.178679047530448054e-01,-2.413778642254053863e-03,-1.852904398773253317e-02,1.008572106511697458e-01,1.968026757240295410e-01
-2.716647826644425501e-01,-4.533639041767306699e-01,-4.532904081660938389e-01,-1.368303244336524938e-03,-8.613751566309215020e-04,-2.509690868479775693e-04,1.816844940185546875e-01
-2.733817323965658241e-01,-4.518515309434967264e-01,-4.509237675610203722e-01,-1.267813761876477718e-03,-1.573745058135884165e-04,-1.005389939186883516e-04,1.780215650796890259e-01
-2.778293012661622319e-01,-4.684825538898210739e-01,-4.689769738407491562e-01,-1.994678767443245401e-03,-9.977125558986343207e-03,2.175579051845908177e-03,1.917496621608734131e-01
-2.705175713078099564e-01,-4.589340123810737859e-01,-4.549433969495094154e-01,-3.374893815925862042e-04,-8.278283487967872051e-04,-2.877670990647339936e-05,1.864596009254455566e-01
-2.715611914049244069e-01,-4.594003397715955006e-01,-4.537760851225451919e-01,6.315926478773635673e-04,-1.420583851225254348e-03,-2.647159351329107994e-05,1.851107180118560791e-01
-2.694330601283109194e-01,-4.575881274489275730e-01,-4.518286634396690982e-01,-5.407288975442730390e-04,-7.446988878005602989e-05,-2.100503436141283175e-04,1.853452324867248535e-01
-2.742200382140745907e-01,-4.528356132041501114e-01,-4.282628628012571936e-01,5.737548776825005664e-03,-3.944370735969713986e-03,-1.705875946912694448e-03,1.681440770626068115e-01
-2.706027651519937738e-01,-4.601890593584981315e-01,-4.579003107283535767e-01,-1.201561387470220701e-03,-1.865816422298177939e-03,-3.051578266362836404e-04,1.884922832250595093e-01
-2.737735291643034197e-01,-4.631446348845917882e-01,-4.568632577855901156e-01,-1.384573863765498742e-04,-1.845294306074268939e-03,-2.068237834014150498e-04,1.863377541303634644e-01
-2.705228314733280071e-01,-4.558789820145612293e-01,-4.537669502016006273e-01,-1.854016035142982055e-03,-1.982114356083872556e-03,-8.167258388934406322e-04,1.843745708465576172e-01
-3.024153172115389143e-01,-4.005457335655844275e-01,-4.234564400621845803e-01,5.340813996546434159e-04,-3.829459516661106160e-03,4.549123298533671277e-03,1.118465438485145569e-01
-3.320051133004199295e-01,-4.971108502366360371e-01,-3.371961062595703051e-01,-4.958787507671806594e-03,-4.101933702416975941e-02,5.588611640964523397e-02,2.022896111011505127e-01
-2.712397172787542887e-01,-4.600939004656496856e-01,-4.557041705373892637e-01,5.145496191704542702e-04,-5.162961029143634103e-04,8.891407717508765986e-05,1.867023557424545288e-01
-2.730833974694608091e-01,-4.606353484121058495e-01,-4.556217749023844799e-01,7.519322585826958066e-04,-1.865077569137115832e-03,2.710514930137398698e-05,1.851288676261901855e-01
-2.400228113095722871e-01,-5.379452413430425572e-01,-3.582277997356892452e-01,-1.581748030621380960e-02,-1.336219266851370324e-01,2.405659569808675860e-02,3.515188097953796387e-01
-3.358438563654601028e-01,-5.508071487950728651e-01,-5.163537820524813915e-01,-4.428314200814800067e-02,8.959071219175900047e-02,-4.312114699476286839e-02,2.748287022113800049e-01
-2.708620438739833824e-01,-4.568827702405207636e-01,-4.493772270654866063e-01,-2.240265798693509298e-03,-1.952614960878503152e-03,2.040430618381721133e-04,1.824567764997482300e-01
-2.798446260383635753e-01,-4.820598186888330750e-01,-4.698158206057398978e-01,4.544872413685021283e-03,-1.268094126115070115e-02,-4.063307609408867496e-03,1.978860646486282349e-01
-3.427131152608905440e-01,-4.131007447609222338e-01,-3.143384913883316423e-01,4.014469622147445044e-02,-4.453642638751778744e-03,-1.515605887795083151e-01,2.855921685695648193e-01
-2.697746900965279915e-01,-4.593866474924852561e-01,-4.531252476345493108e-01,1.243660864780261020e-03,3.935584445217897814e-04,6.213017830735070727e-04,1.865768581628799438e-01
-2.818616355688004504e-01,-4.410734006805788754e-01,-4.023604581363067201e-01,-1.326328626013132013e-02,1.245191550797153379e-02,-1.048198620767984771e-02,1.483443081378936768e-01
-3.175435734202336491e-01,-4.364141448807485890e-01,-4.161490668567915940e-01,-3.053977454502421630e-03,1.103163062551795011e-03,-1.499611870481775203e-02,1.133059859275817871e-01
-2.709426667895399321e-01,-4.605416135032117109e-01,-4.549957462917290085e-01,1.114092970245943387e-03,-1.438725661462807994e-03,3.725796470040923362e-04,1.869154274463653564e-01
-2.855773098154111289e-01,-4.334003085817270673e-01,-4.313259697425353978e-01,1.167665889066195253e-03,-3.637279885349085917e-03,-1.973048223086233764e-03,1.469855904579162598e-01
-2.909979481149522207e-01,-4.285417202503565282e-01,-3.641188269666835731e-01,-1.553645427710563000e-02,2.247598682944554338e-02,-3.910273172269752850e-02,1.450322568416595459e-01
-3.080486524514268187e-01,-4.795672074530062390e-01,-4.177535958580618769e-01,-3.840446264159573953e-03,-1.528257332836463825e-02,3.363031142373499975e-03,1.530235409736633301e-01
-3.007159830073242168e-01,-4.495623476613332947e-01,-4.027317350755700298e-01,-8.402914043920803669e-03,2.971512660637930150e-03,-8.851153692618383279e-03,1.336081027984619141e-01
-2.986624343802461445e-01,-4.054673540189862591e-01,-4.022501325142265882e-01,-4.310989973418063483e-03,3.964388692411554421e-03,-1.553952154649781286e-02,1.090933531522750854e-01
-2.856292716328837078e-01,-4.309570550521916177e-01,-4.339455365927901709e-01,1.798669881684350665e-03,-4.279398978264316138e-03,-2.030564417810989692e-03,1.471068263053894043e-01
-2.811056697887130973e-01,-4.370954071503797000e-01,-4.365403028595008506e-01,4.114898517520819247e-03,-2.863021939317631371e-03,-1.612143987205012959e-03,1.559798121452331543e-01
-2.805484842593239936e-01,-4.660437463665013658e-01,-4.677649691834436241e-01,6.736727566230148352e-03,-6.853112541765029285e-03,-2.457748672264295931e-03,1.871520727872848511e-01
-2.968395173214248839e-01,-4.376291580562704508e-01,-3.744057595543299755e-01,-1.277564213177134755e-02,1.019669921866956167e-02,-1.219180769544596192e-02,1.271424889564514160e-01
-2.735137286783997368e-01,-4.556118436006013628e-01,-4.626332229415655584e-01,-1.158688137349072299e-02,7.280391692088507803e-03,-6.104771570695870925e-03,1.875131726264953613e-01
-2.704460394628366848e-01,-4.531892596361231651e-01,-4.590884244289877292e-01,-1.646062685856488576e-03,6.802277186290540956e-04,3.102132813048748944e-04,1.857894510030746460e-01
-2.687811233445037140e-01,-4.526929093335106402e-01,-4.494953737231897617e-01,2.617699516606696031e-03,-5.785151611333526865e-04,3.698911691955887051e-04,1.823942810297012329e-01
-2.730068199030678544e-01,-4.499864499797568418e-01,-4.509702672754794528e-01,7.749146472846049584e-04,-5.877266956380338336e-04,3.561049577602355318e-04,1.774826496839523315e-01
-2.696391515500469183e-01,-4.514803043451512954e-01,-4.558943648446079910e-01,-1.463659128871851092e-03,1.340962361766014294e-03,1.115530781553855590e-04,1.841200888156890869e-01
-2.799237015500020687e-01,-4.554168354785449457e-01,-4.477533255471295992e-01,4.772086855201787027e-03,-1.951736469448084928e-03,-3.678805668497056917e-04,1.720227599143981934e-01
-3.005033139014607890e-01,-4.218363018206175985e-01,-3.468220762699393833e-01,-9.531914709682681730e-02,5.176970070076587077e-02,-1.204326132370936303e-01,3.000944852828979492e-01
-2.751026224230733730e-01,-4.465501312169287140e-01,-4.471351459052895216e-01,4.481647814126303218e-04,-1.595464434855818885e-03,-1.802963380023243543e-04,1.717650294303894043e-01
-2.819107500443400749e-01,-4.493093363596878387e-01,-3.799846894303504086e-01,-1.732484541051251478e-02,3.638431687573005779e-02,-2.374423167161911555e-02,1.666931807994842529e-01
-2.748405381143856907e-01,-4.513778075766943787e-01,-4.508829270722669591e-01,2.338111164001193624e-03,-2.651401200241984731e-03,6.085908979492800353e-04,1.763997972011566162e-01
-2.746025259640867966e-01,-4.421774283652861737e-01,-4.431906926700561189e-01,1.785806851119815276e-03,-5.755568567488243865e-03,-1.100363330257369014e-03,1.684183776378631592e-01
-2.697212367454673299e-01,-4.486952826615991929e-01,-4.479721254995395197e-01,2.374249401023516629e-03,-2.013530912929673618e-04,1.414566761456742625e-04,1.786614060401916504e-01
-2.746267177482837329e-01,-4.454983915482877421e-01,-4.296468153419479297e-01,7.412869453479552402e-03,-4.816436406515856028e-03,-1.641059553863448211e-03,1.642630249261856079e-01
-3.091929252351430235e-01,-4.037001463512829291e-01,-4.261827506981878955e-01,6.783414506657429533e-04,2.818392980815848971e-03,3.991568333711724946e-03,1.078650057315826416e-01
-2.861994258232876676e-01,-4.431341362990435795e-01,-4.333063171378532252e-01,-6.873614088882232416e-03,-1.109199025173952498e-03,1.314732754883121604e-03,1.527526676654815674e-01
-2.822655950746949527e-01,-4.604624767889993753e-01,-4.460758608790764135e-01,6.659320170390983264e-03,-8.491986408183835669e-03,-1.508767178592806393e-03,1.724925041198730469e-01
-2.717974018516837731e-01,-4.555332748190208392e-01,-4.479849307522880686e-01,2.914169867633065528e-03,-3.101616075640713493e-03,-4.912501672334948890e-04,1.802332103252410889e-01
-2.829414441965206750e-01,-4.461716389817553252e-01,-4.384898558036571248e-01,9.455014008360733413e-03,-9.048816777362021432e-03,-5.944840079098507972e-03,1.614591777324676514e-01
-2.706860549815646166e-01,-4.554427845696894517e-01,-4.411064703253772534e-01,4.795080649805113539e-03,-7.984386670060546545e-03,-1.741795081328092673e-03,1.787769049406051636e-01
-2.128659274463233775e-01,-1.573529622669382899e-01,-3.993035095088178221e-01,-1.011587276144788744e-01,2.149852441595775585e-02,-3.121051578548156985e-02,2.884414494037628174e-01
-2.778876025282599471e-01,-4.468962952780176634e-01,-4.402872232443986733e-01,5.096823199592019453e-03,-5.768444204441053672e-03,-6.787033067968015372e-03,1.667530387639999390e-01
-2.776833506068867585e-01,-4.419802857921709127e-01,-4.410794231423062484e-01,-1.203526892405835762e-03,6.296663809539061957e-05,-4.140470582693749632e-04,1.638632267713546753e-01
-2.964357423889787402e-01,-5.804147638974952450e-01,-3.756768871906870921e-01,-5.749102089430129653e-02,1.401162153261404641e-01,-1.336117729333996529e-01,4.321921467781066895e-01
-3.059497602941934069e-01,-4.164348981497280611e-01,-4.236753682507236607e-01,1.938618144535175872e-05,3.367621119005070884e-04,2.513208704078088215e-03,1.143619045615196228e-01
-2.907530596017910418e-01,-4.330447724279133936e-01,-4.286544860208803542e-01,-5.055589538620763532e-03,-2.459006067069045755e-03,1.840659823611565582e-03,1.405221968889236450e-01
-4.304115390742974112e-01,-6.392293870322989235e-01,-3.075354678951473519e-01,-4.277726751613994405e-02,-9.427696411495258000e-02,1.483304121614625326e-01,4.272259175777435303e-01
-3.133085085567912653e-01,-4.182819644806072268e-01,-4.361118346311722016e-01,4.746075869444428552e-04,2.207519860400400033e-03,6.439277137605134080e-03,1.155364960432052612e-01
-3.166611192799387853e-01,-4.377419665710073349e-01,-4.200204096813354160e-01,-4.940915116116673285e-03,-1.013293911772227994e-03,3.453677842741612655e-03,1.137584522366523743e-01
-2.724678167992872213e-01,-4.477160920579336678e-01,-4.438180386976207648e-01,3.008251302949782862e-03,-1.745110439062099632e-03,-8.844839014465973081e-04,1.734435260295867920e-01
-2.712286729831251408e-01,-4.611359007434748247e-01,-4.501966505775738536e-01,-7.681198866588598816e-03,1.053367261738651778e-02,-5.719924903251791433e-03,1.863196492195129395e-01
-2.721298939303286590e-01,-4.581674166791436242e-01,-4.547042522162839662e-01,-1.806740901282844402e-03,1.046893700697733472e-03,-5.942801656966167960e-05,1.843658536672592163e-01
-2.699107661079063192e-01,-4.546119386635729676e-01,-4.506695299758757267e-01,-1.454965835562161899e-03,1.256905718602601470e-03,9.865183568680601170e-05,1.827922761440277100e-01
-2.980327946516232451e-01,-4.502124105331041792e-01,-4.415291028051133715e-01,-1.180487708780538457e-02,1.161692398175588614e-02,-7.562651051117449778e-03,1.513509750366210938e-01
-2.790267212089732052e-01,-4.691240562366495448e-01,-4.647640384007586944e-01,-7.836312576261125415e-03,6.828454040981529229e-03,-8.809060183742520832e-04,1.888216435909271240e-01
-2.716460320842413179e-01,-4.602010250551252790e-01,-4.508817313501162216e-01,-1.446563037273931223e-03,-3.193573611776927626e-03,1.213618567567322209e-03,1.841844916343688965e-01
-2.679140045133993064e-01,-4.592002578055498496e-01,-4.548192888907394149e-01,7.214588023445276180e-03,-1.132584658392499048e-02,-2.587040861341280504e-04,1.905591189861297607e-01
-2.837528483597565043e-01,-4.090644854129117935e-01,-3.382886899630795918e-01,-2.664730099869845256e-02,-6.247763945060085672e-02,8.657951681132780575e-02,2.194808125495910645e-01
-3.065696747216410389e-01,-4.269823310193053834e-01,-4.127025675955428019e-01,-1.467128641255911704e-03,-1.227542427670090888e-04,4.313988170624215648e-03,1.142190396785736084e-01
-2.849569842041796419e-01,-4.592682933300568093e-01,-4.502477305687937470e-01,-5.703182009169091918e-03,7.741249640678837633e-03,-3.526205908936039420e-03,1.709037125110626221e-01
-2.722294185843293635e-01,-4.567735829068889086e-01,-4.541711384479559799e-01,-2.124465604682302788e-03,1.121320234805719875e-03,2.143078282681778324e-05,1.833040267229080200e-01
-2.885165475714352445e-01,-4.602342341810063964e-01,-4.239970463226293562e-01,-7.044070757208214031e-03,-3.571478423827611787e-03,2.470039628500907830e-03,1.574260443449020386e-01
-2.717256553980910150e-01,-4.563546032017482545e-01,-4.468077368171303743e-01,-3.589921561510689765e-03,3.904920859120082893e-03,-5.767694741849801066e-04,1.802824735641479492e-01
-2.764354147913178350e-01,-4.538789027361617157e-01,-4.526564555300418569e-01,-2.871245474594132357e-03,2.759740479560761437e-03,4.131876546498245567e-04,1.769713610410690308e-01
-2.729659039682086896e-01,-4.619958129143160175e-01,-4.575944437730304903e-01,-3.949557528831416399e-03,9.597555408342459474e-03,-2.892779301352246487e-04,1.877313852310180664e-01
-2.738742455641091089e-01,-4.566410738611350051e-01,-4.526331152553556558e-01,-3.547648836034715883e-03,2.548056535903169863e-03,4.306459709428879333e-05,1.809543967247009277e-01
-2.744054293036730652e-01,-4.537492197559126472e-01,-4.353625691688934873e-01,4.796723116758490162e-03,-2.056993268296054226e-03,-5.691869248590104564e-05,1.711328774690628052e-01
-2.741815919736208529e-01,-4.547818036495722693e-01,-4.318742976339806638e-01,2.680152550776001077e-03,-2.975295048883278264e-03,-1.684446275560084496e-04,1.704473048448562622e-01
-2.757066041595885864e-01,-4.598524093800221979e-01,-4.585367354861970557e-01,-5.330937724532959672e-03,6.626215575590182691e-03,-2.189999191460976070e-04,1.840821951627731323e-01
-2.752244962471971368e-01,-4.587720889217288267e-01,-4.568003922804852457e-01,-6.220921450800026564e-03,5.796502406086193569e-03,2.682271762917463431e-04,1.831633746623992920e-01
-2.740894129429836679e-01,-4.476731358241853309e-01,-4.285556546744968553e-01,-5.382423057383812007e-03,4.359068399647774740e-03,-3.170518787066547994e-03,1.653855443000793457e-01
-2.731428937678697655e-01,-4.576891005710739813e-01,-4.601990820549096695e-01,-2.343885768676170437e-03,9.195913732664799927e-04,-1.476293863990634945e-04,1.858652532100677490e-01
-3.166663580444655235e-01,-4.709047541744206811e-01,-3.595454981329830324e-01,-1.212180484524067554e-03,-1.582250526424688192e-02,1.869784981054809316e-04,1.406060457229614258e-01
-2.896601568591444797e-01,-4.625327268895411126e-01,-4.029852514337167735e-01,2.233852029660253133e-02,-3.360436669370026747e-02,-1.672753836488146198e-02,1.698850244283676147e-01
-3.031145472800360618e-01,-4.720508799434218195e-01,-4.023647348425863912e-01,1.058200448243239167e-02,-1.950904880652638840e-02,-2.760821705963979657e-03,1.520649045705795288e-01
-2.691659836562187991e-01,-4.509378674551670074e-01,-4.517393654328850650e-01,1.719746631639274817e-03,-1.075171717606749179e-03,7.832949625234933346e-04,1.822128742933273315e-01
-2.786167736255369953e-01,-4.529503368534710805e-01,-4.714911761846194982e-01,-1.115409553751139059e-03,8.581856882019652747e-04,7.801057548478502546e-04,1.843258291482925415e-01
-2.930771039283543988e-01,-4.526585896305266865e-01,-3.461780336407113690e-01,3.676589426965322979e-03,-1.864547170377681487e-02,-2.889572606834727407e-03,1.446395367383956909e-01
-2.991598653194079693e-01,-4.263720299425526883e-01,-4.247602599457783734e-01,1.028629905716438786e-03,-2.904023327556087223e-03,-2.710359266512034522e-03,1.266136169433593750e-01
-3.146949839240192892e-01,-4.533180753430061660e-01,-3.515473974609527597e-01,1.736337415650021686e-03,-1.515641778217888432e-03,-1.291862751933550539e-02,1.264218091964721680e-01
-2.810915253386036539e-01,-4.519992694398331512e-01,-4.474627332736800800e-01,3.349515788298059165e-03,-8.714609092293102311e-04,-1.718430491447024960e-05,1.687917262315750122e-01
-3.152677081936462455e-01,-4.987065360995144303e-01,-4.095515780401692840e-01,-1.982271394278349412e-03,-3.036448324262475129e-02,1.462315728534666764e-02,1.693021953105926514e-01
-2.698362358626770208e-01,-4.625163459957239431e-01,-4.420421408758621329e-01,-4.099430004525598907e-03,-9.870551572182858363e-03,4.227619704969570735e-03,1.843804866075515747e-01
-3.004073351529675251e-01,-4.838327828597981384e-01,-4.270624483020783457e-01,1.173213613945413812e-03,-2.317439200427378818e-02,-2.839194186852543166e-03,1.676129847764968872e-01
-2.825820958490611323e-01,-4.299547946721856695e-01,-4.045147857300003813e-01,-3.207255102421350396e-02,3.359220131633353090e-02,-7.221536181409117516e-02,2.018246054649353027e-01
-2.752078418653060021e-01,-4.445645626174998255e-01,-4.426288973122173287e-01,5.609822516081619699e-03,-1.285691552429448371e-03,-6.604855094631857659e-04,1.686958968639373779e-01
-2.634210107379487686e-01,-5.774872213652505470e-01,-6.846536121304694911e-01,6.217495074322826332e-02,3.134650014936814916e-02,4.577924345821372115e-02,4.057237505912780762e-01
-2.817022040310331321e-01,-4.481450425808008453e-01,-4.524900443915998993e-01,1.314182978382361783e-03,-2.970154812020917110e-03,-2.781707307631242220e-04,1.687518060207366943e-01
-2.742000622916254127e-01,-4.528463616910168854e-01,-4.520838968732739382e-01,1.054401566373916466e-03,-4.108215126544624085e-04,2.060078209490196963e-04,1.782774180173873901e-01
-2.925332678050808211e-01,-4.314053921599979025e-01,-4.327199889797004317e-01,-3.966768336337601615e-04,-2.645054100294182229e-03,-9.254805928891587843e-04,1.396201550960540771e-01
-2.981399921786122564e-01,-4.394147678180241878e-01,-3.948366707375359219e-01,8.218841390117453266e-03,-1.730463349664275625e-03,-6.764962342319257374e-03,1.264789849519729614e-01
-1.609829725719539584e-01,-4.672880547132703954e-01,-4.711971201268020382e-01,-2.486378699595578542e-03,3.001765551201227445e-03,1.020294058538437267e-03,3.083571791648864746e-01
-2.822441753214933735e-01,-4.701298867712547791e-01,-4.695045549857657097e-01,2.105714849426659069e-03,5.187050373354836971e-03,4.886120545065364244e-03,1.880148500204086304e-01
-3.217968759670983281e-01,-3.991002190919657466e-01,-4.485718046641596346e-01,-3.916453772592212723e-03,-6.412678881323333538e-03,4.924489777674006565e-03,1.117573231458663940e-01
-3.091693695937218767e-01,-3.824434520380005642e-01,-4.323516033420501947e-01,8.767368816719177957e-04,6.917554383379183672e-03,1.108938382679273277e-02,1.096889972686767578e-01
-2.877568291574043036e-01,-4.504224209745588126e-01,-4.317374737084511693e-01,-6.742099043174884336e-03,-1.701292156834966537e-03,2.248355356671494915e-03,1.546933799982070923e-01
-2.809702785091566790e-01,-4.699334435213109451e-01,-4.680158128294790720e-01,1.198097751539342224e-03,2.494504307014348225e-03,4.242465256575345990e-03,1.882162690162658691e-01
-2.877255673223173549e-01,-4.498965675581375612e-01,-4.315161462988282848e-01,-6.643880985325393770e-03,-1.704763398516726328e-03,2.255956759609539265e-03,1.543143242597579956e-01
-2.708652092641116171e-01,-4.657601604059463662e-01,-4.586856091951093117e-01,8.402719060037771096e-03,1.963667317589869177e-02,9.673309142175672004e-03,1.957156807184219360e-01
-2.778241305248155824e-01,-4.625518574204514621e-01,-4.653782087752652563e-01,-1.877486346865733660e-03,-2.158688134512103465e-03,-3.263246028790836389e-04,1.862237900495529175e-01
-2.704781155337017129e-01,-4.526320542558216475e-01,-4.458468863526582338e-01,-3.284571708770628144e-03,-2.061143905870406988e-03,6.581404806957243114e-04,1.789875924587249756e-01
-2.898914437522431831e-01,-4.280820748443718293e-01,-4.307683171814410961e-01,-1.737918135501973112e-03,-3.728664208735095638e-03,9.879552873083299012e-04,1.397453993558883667e-01
-3.055520498383413330e-01,-4.217436008960064320e-01,-4.178119576106706368e-01,4.608683889778334916e-03,4.844949119521067826e-03,7.889605926101378799e-03,1.156719028949737549e-01
-2.876045688944944834e-01,-4.676315120720276886e-01,-4.714538994571537689e-01,-6.707679219151924718e-04,-7.698381477782964468e-04,1.809504683068547011e-03,1.820038259029388428e-01
-2.489299487283924139e-01,-4.271865617891374978e-01,-3.509730325221850911e-01,-2.260991854136815138e-02,-6.169243724536736112e-02,3.305924580714885569e-02,2.005706727504730225e-01
-2.995569887876571302e-01,-4.824453476026870358e-01,-4.863036426811927493e-01,5.342228842205354366e-04,-6.531124625869186035e-04,3.831863040176385678e-03,1.849725991487503052e-01
-2.977498964059034359e-01,-4.705082416650442911e-01,-4.700689438604707671e-01,-2.445815563344853243e-04,-4.925966003449127641e-04,-1.363041451829258364e-04,1.725419014692306519e-01
-4.375392278722960993e-01,-6.195351118608443119e-01,-7.055643812714877949e-01,1.556161655828272872e-01,1.259522589655397706e-01,1.356442449112640058e-01,4.812688231468200684e-01
-2.741230096917913750e-01,-4.553744624558888621e-01,-4.607480553341926077e-01,-2.848743497562514129e-03,9.100877095323775838e-04,-1.756654161711456742e-04,1.840702593326568604e-01
-2.951716350684272516e-01,-4.744037066778250544e-01,-4.773758623484516961e-01,1.830171159147015673e-03,4.199170439600875891e-04,-3.227438856752433871e-04,1.807665973901748657e-01
-2.990461200372437345e-01,-4.712986515514659969e-01,-4.702909178012111280e-01,-1.997420538265411161e-03,-1.691877142303474177e-03,-7.233380437716936456e-04,1.718152761459350586e-01
-2.818866887604031812e-01,-4.530869785204552636e-01,-4.672447554992384955e-01,-1.110971623200085467e-02,-2.092953791229009656e-03,4.472728195665947345e-04,1.797715723514556885e-01
-2.987622339434350405e-01,-4.403975168369433923e-01,-4.289241082795764437e-01,-6.957859467439000967e-03,-3.979507146280643164e-03,2.703617134826673436e-03,1.370467990636825562e-01
-2.722167667915132983e-01,-4.547187741060378374e-01,-4.615805397360082662e-01,-1.400809485230223011e-03,3.090342107636795898e-04,-3.331314950501746471e-04,1.860453188419342041e-01
-3.480424789680383046e-01,-5.040455620985575536e-01,-3.883013222620474436e-01,-3.049571174572962215e-02,5.963251010834845489e-02,-5.364880682243033244e-02,2.043768316507339478e-01
-3.048192497614887198e-01,-4.609997652917433020e-01,-4.014075994581605689e-01,-7.780797262606976850e-03,-4.065521113919705158e-03,4.083398965615996253e-03,1.375415325164794922e-01
-2.425130062142861198e-01,-4.057254717462764337e-01,-4.505896728860281364e-01,-3.994121089110946182e-02,2.640967805020530507e-05,-2.735845646617553542e-03,2.019451856613159180e-01
-2.778558333467211483e-01,-4.738895806342032779e-01,-4.279276576395863452e-01,-5.932673175873531303e-03,-2.856682225181800955e-02,1.836141176143700135e-02,1.873415112495422363e-01
-2.529248847875056883e-01,-3.431157379977624045e-01,-4.359570415765152696e-01,-5.069990939407601621e-02,-6.685868375828130095e-03,1.420761088169969835e-02,1.832442283630371094e-01
-2.708403802029723528e-01,-4.477945189194066367e-01,-4.594625177632208901e-01,-6.067842651440392455e-03,2.443034068863826711e-03,1.559488738001069477e-03,1.834373623132705688e-01
-2.792146138889745055e-01,-4.551946802054249730e-01,-4.462716204322434987e-01,4.668468843299935361e-03,1.564068123358679013e-03,6.209129837212250778e-04,1.719075441360473633e-01
-2.731362254027998038e-01,-4.370350923261704379e-01,-4.544267033337597295e-01,-1.797569207888411943e-03,4.015602018765543867e-03,-1.225801346810834495e-03,1.734311133623123169e-01
-2.951542603062432546e-01,-4.559687945845734003e-01,-3.788865036380065776e-01,4.232969650922252351e-03,-2.454774025798911897e-03,-1.478354650154361854e-03,1.395902186632156372e-01
-2.753198188255371881e-01,-4.565434495428317696e-01,-4.631844910741054755e-01,-2.904395768851204644e-03,1.388316009826649159e-03,-3.287235347757652866e-04,1.847188025712966919e-01
-2.934823724023400415e-01,-4.351018069525711129e-01,-4.322552851331720736e-01,4.248914128255465612e-03,-2.739515902191455316e-03,-4.864688026873918714e-03,1.407434344291687012e-01
-2.807313356023234951e-01,-4.427641416984809952e-01,-3.854663608376127648e-01,2.205061652529830690e-02,-3.133477922685059397e-02,-3.809379896392305065e-02,1.703269034624099731e-01
-2.831464085716444146e-01,-4.525153239519300041e-01,-3.791741532022200323e-01,8.386480713200784864e-03,-1.623885349614185084e-02,-1.542261804247342140e-02,1.528355777263641357e-01
-2.826399425557162282e-01,-4.407936245816526655e-01,-4.424966475350672335e-01,3.863097452810454295e-03,-4.147664315542272558e-03,-1.160405425886943103e-03,1.593274772167205811e-01
-3.108265551619628919e-01,-4.230778081058391704e-01,-4.232585477002902552e-01,2.005115816839394324e-03,-3.480198773251290574e-03,-4.305196568614939705e-03,1.128036603331565857e-01
-3.036429358294470138e-01,-4.114681656299311596e-01,-4.183776174433189721e-01,1.268524045776423057e-03,-2.097995344795319534e-03,-5.516939215872779939e-03,1.119302287697792053e-01
-1.819524640198953158e-01,-4.655279541815631195e-01,-4.683707423517111668e-01,3.700354127733052750e-02,5.508888185686988681e-02,1.919495798513952411e-02,3.091064095497131348e-01
-2.880493908239624701e-01,-4.490976373897592744e-01,-4.274863463867507041e-01,7.425846733694050662e-03,-2.720530218470709055e-03,-2.459624329223017002e-03,1.520819067955017090e-01
-2.963565953774771611e-01,-5.036941044460432337e-01,-5.208687165716552325e-01,7.829755984053362108e-03,-8.412591816720370666e-03,-8.809826260401191697e-03,2.178848832845687866e-01
-2.852185509069994906e-01,-4.942113028567945987e-01,-2.869365541379879092e-01,-2.194975203232049990e-02,-1.058577555471047066e-01,6.998936667663073485e-02,3.050907552242279053e-01
-2.922109270896097732e-01,-4.484684580208243010e-01,-4.391369816943798687e-01,4.847557914532750478e-03,-1.344258530798833791e-03,-1.176259779616338529e-03,1.520705372095108032e-01
-3.259628022552984450e-01,-4.469783485101979092e-01,-3.763081070335750900e-01,-1.431197471346750544e-02,2.985440251818222493e-02,-4.679162598577277232e-02,1.447189301252365112e-01
-2.228966412937080643e-01,-4.142856981122789994e-01,-4.791997435778860281e-01,7.723833230831739227e-02,4.220374061873101434e-02,2.612144091819440517e-02,2.802769541740417480e-01
-1.798698899549260877e-01,-3.525439641064577190e-01,-4.285172111503920966e-01,9.154563050990607853e-02,-3.672509408289528765e-02,-3.728884763396295154e-02,2.864720821380615234e-01
-2.767025306145098340e-01,-4.841498159252188294e-01,-5.052274561996181745e-01,4.615431043057411503e-02,-1.274513389052526688e-02,6.470752340055850420e-03,2.342108637094497681e-01
-2.745892776275834501e-01,-4.583455683978920892e-01,-4.610999484910415780e-01,-1.313233103816476531e-02,-2.644731222156544454e-03,2.286238054139932020e-03,1.866390556097030640e-01
-3.071659752302814406e-01,-4.195165899802899556e-01,-4.217707674774890947e-01,3.830532466642503383e-04,-3.072724199932778759e-04,-1.544940592067896301e-03,1.135292202234268188e-01
-2.920386917841838459e-01,-4.844185480793699594e-01,-4.786596909811178246e-01,-6.329049350883633566e-03,-4.528671804002978515e-03,1.215837884284435818e-03,1.900563538074493408e-01
-2.992297904479241932e-01,-4.746679857634019117e-01,-4.736617454493410873e-01,-2.151722156407274349e-04,-6.101996153126266597e-04,-1.709115161689243249e-04,1.749410927295684814e-01
-2.862123206483435101e-01,-4.694181716227879830e-01,-4.691215396705589180e-01,-3.542732330659807954e-03,9.358905413881967372e-04,7.869698229849861424e-04,1.831727772951126099e-01
-2.964008867980897910e-01,-4.179123251425930219e-01,-4.241851581974314667e-01,1.740346804340409418e-03,-3.600797453460478567e-03,-4.054459932537008392e-03,1.251554936170578003e-01
-2.771468749539254262e-01,-4.631247720276204238e-01,-4.630199339976731610e-01,-3.700874953243650511e-03,-5.025806242871690274e-04,-2.071890492704459973e-03,1.860726177692413330e-01
-2.731561921979498431e-01,-4.532909917707143022e-01,-4.612495446254133435e-01,-1.286248479586574352e-02,-2.926847847750263000e-03,6.785837712243885690e-04,1.856580376625061035e-01
-2.829647189026912035e-01,-4.699849474717873177e-01,-4.698053487693167884e-01,-3.407696365203905300e-03,-2.134755676523729297e-03,-2.089193349770596640e-03,1.870951950550079346e-01
-3.060160257320657662e-01,-4.506230013717692495e-01,-4.313835140975576521e-01,1.421723563608154849e-02,-5.770542800436424639e-03,-1.023631771765498230e-02,1.397132873535156250e-01
-4.573992277455630751e-01,-5.871049049511725126e-01,-3.244434888912142156e-01,-1.593523887317692747e-02,6.295700143650051483e-02,-2.028479611476791122e-01,4.334055185317993164e-01
-2.821501140713984501e-01,-4.459036285909959707e-01,-4.460134350571242079e-01,4.038779196414978186e-03,-3.101784806257278614e-03,-3.172472648368638258e-03,1.641377508640289307e-01
-2.702295078763721770e-01,-4.525434336198180252e-01,-4.551558108591270968e-01,-2.049245170521392032e-03,2.090228410220222339e-03,4.232178693591568037e-04,1.837054938077926636e-01
-2.737333991753238549e-01,-4.478076439271170828e-01,-4.530173497983690512e-01,-2.031351293186484889e-03,4.026983888907928640e-03,-5.677181524413521183e-04,1.769119948148727417e-01
-2.915290136266818211e-01,-4.404959530426437730e-01,-4.476603494283751816e-01,1.607570143535634773e-03,4.578332376192435771e-03,1.075044500178817244e-03,1.529177576303482056e-01
-2.682046278612156831e-01,-4.496566497379908545e-01,-4.499490086371545905e-01,-1.785833569991616314e-03,1.868419809706082851e-03,-2.775628433527726775e-04,1.816541850566864014e-01
-3.032305229277694192e-01,-4.194732541819219396e-01,-4.471077577502590161e-01,3.072458276373609895e-03,7.351695200727944787e-03,4.742194283025778084e-03,1.332151442766189575e-01
-2.701374613863991581e-01,-4.493455133309766092e-01,-4.507326698817664123e-01,-1.310562199689123452e-03,1.385932407633695988e-03,-9.676169548431352233e-06,1.799359768629074097e-01
-2.712002249626299100e-01,-4.444172877923899811e-01,-4.501751128062764229e-01,-2.807914000103898123e-03,4.553413595381958223e-03,-1.268286880504996801e-03,1.764237433671951294e-01
-2.975330984315603389e-01,-4.355615346924912590e-01,-3.991128929700893391e-01,-6.659762145134664330e-03,-3.679116685953586104e-03,5.848864401811828227e-03,1.250027865171432495e-01
-2.900318598379687529e-01,-4.187372637858203239e-01,-2.915421623740797052e-01,-1.203434337441237900e-02,-4.275797780144052762e-02,6.698656154818306840e-02,1.890867203474044800e-01
-2.703840093454800142e-01,-4.413462864245989437e-01,-4.408416314760106869e-01,-4.694387060690100033e-03,4.336808588137218770e-03,-1.706857795096242093e-03,1.710945814847946167e-01
-2.600733937026691311e-01,-3.220725205690979087e-01,-2.138905781042546306e-01,1.776729592889099082e-02,3.854531176081797683e-02,1.313846622142682552e-01,2.569631934165954590e-01
-3.059138290035025576e-01,-4.350481952795585694e-01,-4.241938490553212038e-01,9.857737980038644085e-03,9.856202860614395392e-03,1.330377519771612504e-02,1.284747570753097534e-01
-2.987717991804819118e-01,-4.283574814561102451e-01,-4.156629707224867021e-01,5.921600638791285447e-03,7.046152802381662385e-04,2.823731063942363454e-03,1.242544949054718018e-01
-2.724715055518519558e-01,-4.584244916253353286e-01,-4.627242874280095841e-01,-2.367031210977887847e-03,1.359673821836611613e-03,1.593708227628210764e-04,1.881993412971496582e-01
-3.410403963544304529e-01,-8.322625502110508888e-01,-7.051757080615204121e-01,2.784038247099003549e-02,-1.682054964125863084e-01,-1.490893631988464071e-02,5.318775773048400879e-01
-3.423051774794725333e-01,-4.498707063438680542e-01,-4.367717909438424972e-01,4.348731682653516478e-02,4.962421299576190437e-02,8.395694245733545391e-02,2.110458910465240479e-01
-2.677573216890830610e-01,-2.564611624271427304e-01,-3.941092404321258624e-01,5.419690118152105385e-02,2.865360519511323326e-02,1.006759473219662748e-01,2.433138787746429443e-01
-2.695541922867576989e-01,-4.582659453640104963e-01,-4.540480029428697328e-01,-6.023257490873378580e-04,-1.187293154932115170e-03,3.059674295082226957e-04,1.866535246372222900e-01
-2.890861543687575086e-01,-4.728896051896786523e-01,-4.692661145557357472e-01,-1.357446068014204728e-03,-2.359698781239566012e-03,-1.930334020346687464e-04,1.820801198482513428e-01
-3.131663024898416747e-01,-3.515086639932664681e-01,-4.371448490378275209e-01,1.961493243796674606e-03,8.223064322891668896e-04,4.666126423539435075e-02,1.365012079477310181e-01
-4.064032305044476545e-01,-4.499939890599298775e-01,-5.191944187523287457e-01,9.465157550855600802e-03,7.332364688348800555e-04,8.787245369511388626e-02,1.820451468229293823e-01
-3.647370907348814195e-01,-4.764471232323370664e-01,-4.027358161003193882e-01,9.146417527846978368e-03,2.640256741517738384e-02,8.703657917677441735e-02,1.864042729139328003e-01
-2.770824667187177792e-01,-4.563693159435325830e-01,-4.460791331191419906e-01,5.092417584291169391e-03,-1.049426241221825288e-03,4.948170636127214705e-04,1.746041327714920044e-01
-2.848599050198936111e-01,-4.407505645415815132e-01,-4.292039328626305883e-01,7.110822051222727598e-03,-1.941409044674760045e-03,-2.089088866838648834e-03,1.510341018438339233e-01
-2.871152141099749810e-01,-4.418810376266426032e-01,-4.137814436054825795e-01,1.007516851131527551e-02,-7.645698366775153035e-03,-2.925397918871378879e-03,1.445640325546264648e-01
-2.813636690622325354e-01,-4.368125492229636975e-01,-4.013878115471845032e-01,1.045054482642088917e-02,-9.578920142479031494e-03,-6.640439927216378047e-03,1.436931639909744263e-01
-2.722530950970629693e-01,-4.403123177932946053e-01,-3.766302983019899076e-01,-1.942690169628822489e-02,4.666895565519579847e-02,-3.814668249776072967e-02,1.833811551332473755e-01
-2.984351604480087183e-01,-4.722124069834582327e-01,-4.288204741276238074e-01,1.664654687983843726e-03,2.535871597128343952e-02,1.189322896586089045e-03,1.627347916364669800e-01
-3.016783761478681880e-01,-4.816990525422276681e-01,-4.287032121142964058e-01,4.065597939842816727e-02,-4.656818900697239777e-02,-6.649484184928605712e-02,2.245102673768997192e-01
-3.105965707007613541e-01,-4.606753871383408860e-01,-4.082529150028692544e-01,8.035441111194946417e-03,-2.436598662075676724e-03,-6.791918757000565618e-03,1.332447826862335205e-01
-3.056532014667846520e-01,-4.377769685222485663e-01,-4.418470919481777837e-01,8.392041389610424909e-03,-8.265243736208027076e-03,-8.990054582065526781e-03,1.366371065378189087e-01
-2.818108016678786409e-01,-4.531029563885774492e-01,-4.108104436529844139e-01,3.769732442921724502e-03,4.361242275942730888e-03,-1.277121441797166978e-03,1.548866331577301025e-01
-3.076973519065797635e-01,-4.672752722922051127e-01,-4.099453486693414028e-01,7.405310130878599642e-03,-3.912538656272552921e-03,-5.040401557156067719e-03,1.410315483808517456e-01
-2.661931543666401501e-01,-4.524887871761296698e-01,-4.487883723952186266e-01,1.090927752853630174e-02,-1.279904634262289849e-02,-5.953012493503698557e-03,1.870432645082473755e-01
-2.987836112850891235e-01,-4.388618748032826478e-01,-4.007418830171517454e-01,-7.158390219623974975e-03,1.369608379410964692e-03,-4.449790240695427473e-03,1.263092607259750366e-01
-2.970740601489978983e-01,-4.228864324405730568e-01,-4.232504579559868141e-01,3.188743524580274144e-03,-9.120248252505274138e-04,-2.062855733713775223e-03,1.261762678623199463e-01
-3.026549880848850016e-01,-4.388496121274613193e-01,-4.254243291631819024e-01,5.297528455177374224e-03,-2.195859060795452532e-03,-4.383044745754473802e-03,1.306026577949523926e-01
-3.101650637107371544e-01,-4.065753941620312562e-01,-4.076126518282397471e-01,8.199997784271642739e-04,-3.096104610586052335e-04,-1.560834128226393225e-02,1.006439030170440674e-01
-2.747991892475288300e-01,-4.542163610353451841e-01,-4.283625288570406253e-01,7.058270620916241335e-03,-4.544893669317456864e-03,-2.011472909609087530e-03,1.686531454324722290e-01
-2.909164415227830647e-01,-4.254746150886121736e-01,-4.234881373470055221e-01,5.612613699769162558e-03,-6.801038957563329546e-03,-4.550120583855416651e-03,1.346771270036697388e-01
-2.881024778323922897e-01,-3.637811851278239250e-01,-3.988236154483682516e-01,7.905508655838427295e-03,-6.185155610814846092e-03,-3.129195597790149913e-02,1.133447140455245972e-01
-2.825240791743741098e-01,-4.386689479529407021e-01,-4.442288537774163881e-01,1.096895619760751908e-03,-5.685691626063810698e-03,-1.068268652281285447e-03,1.593245118856430054e-01
-2.789248620077987573e-01,-4.236816021481143446e-01,-4.217359154394285659e-01,1.864932117908975687e-02,-2.277837663074815458e-02,-1.782143102639744889e-02,1.556580066680908203e-01
-3.051783958702384836e-01,-4.321635733593264250e-01,-4.261736757732589309e-01,6.687485357846849332e-03,-7.614715878151024318e-03,-1.119868735163659888e-02,1.268260031938552856e-01
-3.089961599723158869e-01,-4.334124315986346287e-01,-3.996177281296363071e-01,3.995231671970759547e-03,6.933109831339597006e-04,1.214254894505137697e-02,1.136157214641571045e-01
-2.949113296957475705e-01,-4.092338246721964889e-01,-4.283221571541895867e-01,1.914385496906845100e-03,-8.509671002602903905e-03,-8.076462478211341584e-03,1.266497075557708740e-01
-3.082582789954819713e-01,-4.250311464100435255e-01,-4.062706648461247849e-01,3.278728784725389554e-03,3.739851512116643562e-04,5.089130032795664491e-03,1.091215386986732483e-01
-3.028099892388729231e-01,-4.915020136106998949e-01,-4.968382101748493596e-01,-7.506315398903997890e-03,-6.703536492677295835e-04,4.777164960760325874e-03,1.920387893915176392e-01
-2.981517424839810193e-01,-4.180254095482120458e-01,-4.101340012648228561e-01,-4.763859056037475503e-03,-2.726274759223305637e-03,6.321395158460924556e-03,1.170310154557228088e-01
-2.761085137842316795e-01,-3.284632745578669466e-01,-2.993081129262963325e-01,2.753057576728194442e-02,-4.204565289532803674e-02,-1.310933174099317700e-01,2.473829388618469238e-01
-3.125889324833309169e-01,-4.027557740636724115e-01,-4.256262838846326391e-01,5.838124513456922036e-03,3.172518972201090071e-03,1.333706664973748242e-02,1.066834554076194763e-01
-2.912411382162205520e-01,-4.553046491911598714e-01,-4.521199528033603143e-01,2.474599568603090896e-02,-2.341151175831756789e-02,-2.201857066763349829e-02,1.770319938659667969e-01
-2.997031338433805425e-01,-4.574877571833433354e-01,-4.359513644080802997e-01,1.328030406156359942e-02,-1.387799034369904122e-02,-8.731298315994246578e-03,1.526345163583755493e-01
-3.071753425476961841e-01,-4.276890701460111521e-01,-4.069530637736697432e-01,3.007331488327796409e-03,2.322114936574350694e-04,5.269158668481400791e-03,1.120943948626518250e-01
-3.062089303359196157e-01,-4.995607808104430836e-01,-4.624851978708752753e-01,3.770937839465703101e-02,-5.606522352412949411e-02,-5.295094448622232608e-02,2.317287921905517578e-01
-2.677871013003020328e-01,-4.512148679933213336e-01,-4.531988755483924436e-01,5.902164930588940650e-03,-3.951714561923790753e-03,-2.397975161110343922e-03,1.848843097686767578e-01
-3.052523725059372306e-01,-4.362398382065800218e-01,-3.835687996995724158e-01,-3.084265624014957859e-03,1.061643833384383340e-03,4.975756901403471412e-03,1.146250516176223755e-01
-2.675781039290799912e-01,-4.460485543030303091e-01,-4.565917734135077066e-01,5.870070900112184242e-03,-2.932139577846741216e-03,-1.240425277340445392e-03,1.843320280313491821e-01
-3.065279754946971247e-01,-4.476140135928881048e-01,-3.225646272883767041e-01,-8.783461867767284248e-04,-1.191099140199082529e-03,-2.879783081050007326e-03,1.339079737663269043e-01
-2.758174375906792264e-01,-4.552420523783606288e-01,-4.665035303202377248e-01,4.751660919845288912e-03,-3.416758671558867751e-03,-1.046858563514365499e-03,1.855980753898620605e-01
-2.789267023364678799e-01,-4.555797780379706730e-01,-4.291302884734481959e-01,8.290059345228598109e-03,-7.816728033389803293e-03,-2.162914279676309177e-03,1.662438362836837769e-01
-3.236189610916785364e-01,-5.700155256041233853e-01,-4.650400763130944637e-01,4.014129639210108416e-03,7.113100055387559795e-02,1.857364003955416310e-03,2.471903562545776367e-01
-3.118109342002503004e-01,-4.495891494094882979e-01,-3.686115915436815049e-01,-1.501891237151444956e-03,-1.320172033491586773e-03,7.062309691912742500e-03,1.206021681427955627e-01
-2.688729015490992635e-01,-4.447457749193423071e-01,-4.534380776818831560e-01,3.859090705723189872e-03,-4.384778853074206527e-03,-5.979439324297628269e-04,1.806626468896865845e-01
-2.862451552584194259e-01,-4.192078029856279864e-01,-4.218758750241294320e-01,1.171832511162125903e-03,6.206922294845330576e-03,4.572599351591849492e-03,1.349939256906509399e-01
-2.748520893718403024e-01,-4.555516246581964857e-01,-4.581724909627942210e-01,5.299252742429138956e-03,-6.653844173163055847e-03,6.850778226935456397e-04,1.826232671737670898e-01
-3.064920575958290927e-01,-4.372454701022467916e-01,-3.844796007496754653e-01,2.908405227873072599e-03,-3.316550003278308971e-04,-7.345044949118933846e-03,1.147559583187103271e-01
-4.633847976307327032e-01,-5.152787855236112824e-01,-5.057809038690053161e-01,-5.448821129579228123e-02,5.087167504603693630e-02,-1.922417229742964528e-01,3.603215515613555908e-01
-3.058574039872547501e-01,-4.665292920859269166e-01,-4.469170337175764618e-01,-1.897075014339797555e-02,2.873766814898404479e-02,-6.553942359805947290e-03,1.635085642337799072e-01
-2.736758063561527399e-01,-4.605798629403632383e-01,-4.642263140420134215e-01,2.443250818100373145e-03,-1.077280790141343751e-03,3.423548224830763923e-04,1.888112872838973999e-01
-2.858042347716679421e-01,-4.726988300033078683e-01,-4.750772196338806097e-01,1.646966408578837485e-02,-3.143956899870580662e-03,-2.656616331756709009e-03,1.903794407844543457e-01
-3.389945617710135028e-01,-6.771397410747705958e-01,-6.690617359862672808e-01,1.311423932918429347e-01,6.827014728925345777e-02,-4.132077722871339148e-02,4.270544648170471191e-01
-3.094701694171531625e-01,-5.371676498069708483e-01,-5.431568669632707014e-01,1.577930173737291525e-02,-7.199203691169777167e-03,7.260682001965238809e-03,2.330372035503387451e-01
-2.868659616872472062e-01,-4.675287213088246130e-01,-4.686891897441257671e-01,1.852313961347810403e-04,-2.652035371111863965e-03,-2.110611732704033381e-03,1.813411116600036621e-01
-2.693687738333572779e-01,-4.543505273144126666e-01,-1.913532305864249494e-01,-9.030137658168379752e-03,-6.174319832739016967e-02,5.634599753787999238e-02,2.755758166313171387e-01
-2.055875692317620795e-01,-4.940433782432562815e-01,-5.111434747040208837e-01,7.001640192784992778e-02,-8.522246671982156366e-03,7.107209050424936544e-03,3.217267394065856934e-01
-2.960402067900418377e-01,-4.115982530986658228e-01,-4.053043513202072012e-01,-1.772193093844998124e-02,4.336514988566090439e-02,-7.112651439393215258e-02,1.855443865060806274e-01
-2.700198731141568720e-01,-4.553636240237036725e-01,-4.504897111891646988e-01,1.362741191818278704e-03,9.883359252824007370e-04,-9.387578730464751992e-04,1.829859465360641479e-01
-2.314457409267812737e-01,-5.053392443288551306e-01,-5.474971872731749789e-01,6.877634540074094305e-02,-4.534633204298630510e-02,-5.454693478857638306e-02,3.429683148860931396e-01
-2.564935792345879872e-01,-2.338370275064517168e-01,-2.769882369779984588e-01,1.499738409176898553e-02,-2.345468821237949031e-02,-1.473875778546561433e-01,2.624730765819549561e-01
-2.824952366834512785e-01,-3.170722493776316209e-01,-3.210845525344318552e-01,4.622284008204199934e-02,-6.709884283056853638e-02,-1.381519417811824246e-01,2.802225947380065918e-01
-3.193383963970908845e-01,-4.582567579143090875e-01,-3.620115703279409014e-01,-2.534990557340417510e-04,-3.039662596903790876e-04,-8.451074076365302362e-03,1.241207271814346313e-01
-2.846954330853375126e-01,-4.743156057806028891e-01,-4.580311919543271215e-01,-1.536656440055747660e-03,-1.267101823617600154e-02,1.133948287430943920e-03,1.833732426166534424e-01
-2.730403390014727316e-01,-4.606810228839952615e-01,-4.548489881466779572e-01,-1.942776213112981480e-03,-3.561516752003446740e-03,-3.067660826516916805e-04,1.849280148744583130e-01
-3.086762625392271420e-01,-4.225379083312935657e-01,-4.207032274920192161e-01,3.624254409342961693e-04,-2.076476051899964366e-04,-1.637797775869520188e-03,1.129934117197990417e-01
-3.015967379130181092e-01,-4.291727345961089957e-01,-4.328072556683872918e-01,-1.123517675779099438e-03,3.841997804592106255e-03,-5.652481590925714697e-06,1.296170949935913086e-01
-3.131683205531551883e-01,-4.295061776462398284e-01,-4.150406099617353628e-01,5.253282902062702923e-04,-1.984676673461512899e-05,-3.644043640584839535e-03,1.100069209933280945e-01
-3.013856176426920053e-01,-4.419963982997797136e-01,-3.986434295380098525e-01,8.832070399889526899e-03,-2.918162348107216850e-03,-6.145625445926007104e-03,1.262055784463882446e-01
-2.734526251732450342e-01,-4.573091096588863813e-01,-4.519720868537136504e-01,-3.645057692762515046e-03,-3.660537696458551586e-03,-5.130736458248399620e-04,1.814698129892349243e-01
-2.845562052454286839e-01,-4.524655828752775499e-01,-4.419749974402953363e-01,-8.602114098713420365e-03,7.008591935000083213e-03,-4.167991903966561558e-03,1.642059981822967529e-01
-2.733792263999428873e-01,-4.587393863585187415e-01,-4.542767223748873651e-01,-1.101871890866666604e-03,-8.299459736718483444e-04,1.685095726027821270e-05,1.831851899623870850e-01
-2.725970039439092885e-01,-4.597811362549802938e-01,-4.551047729522469387e-01,5.922052721081038978e-04,-1.792937102370906113e-03,-1.119237643441001846e-04,1.849193274974822998e-01
-2.895649321369334617e-01,-3.994851052922981927e-01,-4.033207665048556545e-01,-5.227357028385581396e-03,-4.397315172392894829e-03,1.629235169042395417e-02,1.159960329532623291e-01
-3.114055125909410693e-01,-4.350145589613610420e-01,-4.173934251713849464e-01,-4.589079534294601866e-03,2.814744253131492647e-04,3.752261861446869358e-03,1.162635982036590576e-01
-3.660632794341905361e-01,-4.451001261582606672e-01,-3.557865003952220828e-01,1.412952309153990907e-02,-1.458907319775335464e-02,1.947111968253149861e-01,3.494845926761627197e-01
-2.981317947228782073e-01,-4.313450321066675253e-01,-4.139170968138792261e-01,-1.404889717824426773e-02,-4.572261298141209844e-03,1.148522700512372673e-02,1.295315772294998169e-01
-3.005035745441768102e-01,-4.285949168837551726e-01,-4.329593298556131398e-01,1.058388295771092247e-03,5.456199353218430968e-04,3.080976231903792637e-03,1.304538846015930176e-01
-2.719958707729416836e-01,-4.525850546530026386e-01,-4.335901561694284201e-01,-2.838215538993569403e-02,-2.731646998584884647e-02,2.227545572345399419e-02,1.889094561338424683e-01
-2.750057051365067950e-01,-4.395444803515545784e-01,-4.326127890654242747e-01,7.926654851439023444e-03,2.720681588458806390e-03,2.281342287208559458e-03,1.618852764368057251e-01
-3.392831987252449277e-01,-4.694872317113392146e-01,-4.256210846020175298e-01,9.790917702972884440e-03,1.869585730435906895e-02,3.487913199087355753e-02,1.347279995679855347e-01
-2.885453141632423057e-01,-4.268148410277496918e-01,-4.098691018581481771e-01,-8.685518788537589102e-03,-5.885308668358840180e-03,7.673151456629757894e-03,1.325495988130569458e-01
-3.036374051634017079e-01,-4.192780859090479706e-01,-4.305703942408400375e-01,-2.414109229006732634e-03,-5.271199864583961565e-03,3.437212314828306907e-03,1.222391799092292786e-01
-2.789227658449888181e-01,-4.639923375720415022e-01,-4.660989270101137394e-01,6.778309638178540118e-04,2.184439200453969221e-03,-4.285935889380629304e-04,1.861754357814788818e-01
-2.783266936474808051e-01,-4.489561524199096598e-01,-4.629338311304398434e-01,1.893039172080937830e-03,4.227805644362273019e-03,-3.156356981691007483e-04,1.782118529081344604e-01
-2.951586781150892236e-01,-3.975469346630986500e-01,-4.235132352848383075e-01,-3.814873070397044406e-03,-6.904418358240239396e-03,5.111930994203918617e-03,1.186647191643714905e-01
-3.055941025021699509e-01,-4.544760125310964849e-01,-3.376883472042150336e-01,9.614000508004180755e-04,1.555065775394997999e-03,2.136976293170959364e-03,1.357988864183425903e-01
-3.009445069397577721e-01,-4.146398012909710551e-01,-4.264769678974294487e-01,-2.513529475968306025e-03,-5.044887943298454608e-03,1.605288150534815370e-03,1.204807236790657043e-01
-2.861783977159699233e-01,-4.301297621724873843e-01,-4.295657746590334503e-01,-7.463193952970526186e-03,-6.350051254951619498e-03,4.460208215548716257e-03,1.448753774166107178e-01
-2.833819840572668891e-01,-4.163350620364566490e-01,-4.332197722128444672e-01,-3.749335792607390219e-03,-8.711121172752415293e-03,2.401489206625449097e-03,1.431559026241302490e-01
-2.719970320638965267e-01,-4.454826504505999818e-01,-4.533520200039150017e-01,1.898245138145370804e-03,1.414507341335723319e-03,3.050370451704395732e-04,1.775992661714553833e-01
-2.871671540199132178e-01,-4.497524358279150203e-01,-4.347579692969892329e-01,8.406877609670942303e-03,1.538904104396144300e-03,1.529705205887526122e-03,1.563556194305419922e-01
-2.180375026860506549e-01,-3.294490954220913870e-01,-3.920378585546954175e-01,1.114500084385951217e-01,6.481504090603446011e-02,6.895101936448827518e-02,2.956890761852264404e-01
-2.923965313473019800e-01,-4.237721024124669889e-01,-4.247858294186475647e-01,-7.138802417522502330e-03,3.025290004278876222e-03,-1.828352941247229566e-03,1.326051354408264160e-01
-3.060117440694458124e-01,-4.273337296809199826e-01,-4.201950789213137472e-01,-4.854748806292010464e-03,2.538699959278510956e-03,-3.119770338160606296e-03,1.184193789958953857e-01
-3.060770966103561475e-01,-4.174979680226518775e-01,-4.298964534019605321e-01,-2.767952343345823733e-03,6.464526417601294643e-03,-2.958075572051994864e-03,1.188460737466812134e-01
-3.166253611666077217e-01,-4.798752131273054666e-01,-3.668906172214326245e-01,-2.043375312459713104e-03,4.015602136312644392e-03,6.086766741303187853e-04,1.450287103652954102e-01
-3.248625306325112483e-01,-5.191744121951566981e-01,-4.188491272587633318e-01,1.240263425358775762e-02,4.398440541825592021e-02,4.590887959657479617e-02,2.022773176431655884e-01
-3.033708142684477527e-01,-4.215121670587543279e-01,-4.171198216910821932e-01,-3.306814221406584407e-03,2.221632774789223958e-03,-3.325929761738110127e-03,1.163552850484848022e-01
-2.149059854800393077e-01,-3.911662092550821646e-01,-4.269435425114280758e-01,1.045690559359749722e-01,-6.276697076730282376e-02,-7.215709751352610002e-02,3.144787549972534180e-01
-2.172024059499705062e-01,-3.779657404073740734e-01,-7.901899054654007437e-02,9.737618296993414205e-03,-6.221033330106295195e-02,-3.914828934746313743e-02,2.892177999019622803e-01
-3.030399586232905840e-01,-4.105395644110980680e-01,-4.144041515331074454e-01,-7.458021145060863069e-04,2.053348233457026693e-03,-5.371130876085182700e-03,1.099427416920661926e-01
-2.741635246065018405e-01,-4.460466275711187367e-01,-4.452746063938591292e-01,1.707073963536027581e-03,3.002580641281831376e-03,5.838803635437861666e-04,1.716056913137435913e-01
-3.788362127044995753e-01,-5.387109272378232117e-01,-4.648430265148043028e-01,-8.539790365888742796e-02,1.015143902033783241e-01,-1.688741524821009143e-01,3.969334065914154053e-01
-2.981516683708902438e-01,-4.239391289063047519e-01,-4.222609492429702516e-01,-1.117637991800616995e-03,1.456231487168702619e-03,-5.621508694132315729e-06,1.249972656369209290e-01
-3.097002454565893070e-01,-4.283774984487052073e-01,-4.096144904750874116e-01,1.730957215016542964e-03,-1.406751374448220616e-03,-3.026458473617083152e-03,1.106887608766555786e-01
-2.927447480029630733e-01,-3.861922372984101792e-01,-4.103103874573498788e-01,2.567233405725159560e-03,-4.465630097988404663e-03,-1.093061283060262762e-02,1.095715835690498352e-01
-3.106098902547783647e-01,-4.210068335112959748e-01,-4.233729824756821691e-01,2.199254197822457133e-04,-5.395403129437103618e-04,-1.263676349756682419e-03,1.116248592734336853e-01
-2.777493442751633457e-01,-4.065993650367578649e-01,-1.613247930280277131e-01,8.992785403280400061e-04,1.119003604706544312e-03,-6.125373729344008034e-02,2.375301122665405273e-01
-3.055584918410624851e-01,-4.454551228510136851e-01,-3.465091520090630706e-01,-3.041441879115810727e-03,1.422440349562663613e-03,-6.919131746869947204e-03,1.252861022949218750e-01
-2.867583968593716559e-01,-4.461499749512877755e-01,-3.405890391388206040e-01,-1.361459160330758412e-04,3.803649356559184180e-03,-8.896257871324081759e-03,1.414360255002975464e-01
-2.787208168374004646e-01,-4.339692167777166598e-01,-2.374046259504421219e-01,3.287534767356059540e-02,-7.748834542521461366e-02,-8.018335819926987462e-02,2.697539031505584717e-01
-3.060481076657197708e-01,-4.266220472457392665e-01,-4.232950732125820847e-01,-3.072397337206812535e-03,8.143676834304095728e-04,-1.256709042738183603e-03,1.190925836563110352e-01
-3.109363473222711560e-01,-4.306105134746147645e-01,-4.157565755204871150e-01,-3.776206733532544869e-03,8.024279376765486912e-04,-2.897455832086716972e-03,1.132908165454864502e-01
-3.106595946592672353e-01,-4.407439233454471528e-01,-3.881050702105743322e-01,-2.016982659036336851e-03,9.644529235963575711e-04,-6.993866371920556477e-03,1.140483617782592773e-01
-3.061835286432001424e-01,-4.198274886905138947e-01,-4.169739703049537005e-01,-6.321794829264074339e-05,8.425821261847646002e-04,-1.358286297725729702e-03,1.122785955667495728e-01
-2.916912699094517114e-01,-4.337392939817336091e-01,-4.548544851601840633e-01,1.551048947162227132e-02,1.233208879572252059e-02,1.235951844643431302e-02,1.589311361312866211e-01
-3.263112506045596217e-01,-3.949860080033281706e-01,-4.967635878449414566e-01,1.107501522733255889e-01,3.622755030334016968e-02,8.785799773330726925e-02,2.931818962097167969e-01
-3.062225112608547573e-01,-4.263266356561005166e-01,-4.126182385687047205e-01,-2.282939081506302897e-03,8.688928655138833433e-04,-2.845140650077853436e-03,1.140555590391159058e-01
-3.146232368757644893e-01,-4.292399021360407407e-01,-4.253485642064825378e-01,-2.142571745629327177e-03,1.829853532085948210e-03,-5.756517476778793586e-03,1.132666766643524170e-01
-2.835329148768474528e-01,-3.889377037698003581e-01,-4.483008928759629197e-01,3.306123923031673711e-02,2.431939746236723432e-02,6.316270652955073561e-02,1.947134882211685181e-01
-3.024060288881449399e-01,-4.374150416246814221e-01,-4.226406625248713134e-01,-7.980523779601267007e-03,1.566218650795244164e-03,-2.076904567840686874e-03,1.290829479694366455e-01
-2.643623186860672436e-01,-4.574116150127571778e-01,-4.475592391206513754e-01,-2.214813548972386151e-03,-1.317710203006694156e-02,2.268580406790607785e-03,1.897739917039871216e-01
-3.179227338258002744e-01,-4.187585229914377871e-01,-4.343162786996279112e-01,8.141740570588779959e-04,5.371270854337122785e-03,1.922600425101475899e-02,1.147873550653457642e-01
-2.732895236256661642e-01,-4.405451569358071473e-01,-4.378113548624875673e-01,4.866139194732572310e-03,3.066425680975798547e-03,1.486581079245912190e-03,1.662244051694869995e-01
-2.738681102349033170e-01,-4.508425103549579260e-01,-4.502644044189766381e-01,2.256262482984149401e-03,2.503651118632871288e-03,-1.768935142901958946e-04,1.767827272415161133e-01
-2.447415335270195225e-01,-3.251163686477281378e-01,-3.975598520715928341e-01,9.315390032942466592e-02,5.948377148402213960e-02,6.966061246954144415e-02,2.621764838695526123e-01
-2.701326170113327874e-01,-4.540975735735961472e-01,-4.591531360111638649e-01,-1.404574556382004284e-03,4.527829863760527112e-04,-1.196754566281820759e-05,1.865616291761398315e-01
-2.856961476368516384e-01,-4.418198114957821443e-01,-4.742152211450695876e-01,-1.196492892329910525e-02,-2.691341120903756497e-03,2.184587873949177337e-03,1.759183853864669800e-01
-2.822348736878346753e-01,-4.639366022173135873e-01,-4.797018024576879536e-01,-1.285488250611623376e-02,-9.780300109364469321e-03,-1.836299554696916659e-03,1.921495497226715088e-01
-2.900827482726650586e-01,-4.448524335997686707e-01,-4.411242948524456420e-01,6.760023664638730107e-04,1.490559858126443843e-03,6.893997315960140662e-04,1.529706269502639771e-01
-2.778840163439646460e-01,-4.267457345314026318e-01,-4.646228887892094872e-01,-8.985077173252266000e-03,-9.331473670791316875e-04,-2.058792220714398408e-03,1.717278957366943359e-01
-3.133522011904907867e-01,-4.797261620319012154e-01,-3.953533467108373833e-01,-1.627884258515261947e-03,4.688007817907810168e-03,-2.125549165789210066e-03,1.443920433521270752e-01
-2.728408932661885999e-01,-4.215178943553465896e-01,-4.527793178607014690e-01,-6.835219588051459974e-03,3.923239785731470796e-04,-3.836218914578129013e-04,1.669462323188781738e-01
-2.719516684015452213e-01,-4.587425116357547461e-01,-4.517480803290195857e-01,1.151539020357280349e-03,1.215070473488837717e-03,-6.573220846684262476e-04,1.834201365709304810e-01
-3.104888865087507277e-01,-4.666664601644275323e-01,-3.723924594708027391e-01,-2.097286154364657630e-03,6.110996480466056313e-03,-4.752716430537736250e-03,1.369252800941467285e-01
-2.732324531503088627e-01,-4.554260222036894401e-01,-4.622887339576742805e-01,-6.207626368598091228e-03,2.708766300948819506e-04,-8.215870473895776471e-05,1.860316693782806396e-01
-2.744214591351546439e-01,-4.488586597840131254e-01,-4.422282052982776657e-01,6.553486589880792509e-03,1.845434358092412673e-03,1.122367495105439051e-03,1.716349124908447266e-01
-2.741898604630066960e-01,-4.613067457402462712e-01,-4.650151686498532611e-01,-1.027422135165343038e-02,-9.927899578693415682e-04,-3.112986563923939975e-04,1.898428797721862793e-01
-3.432028099380000086e-01,-2.967699732597883222e-01,-4.203351133476160295e-01,-5.346823154026235890e-03,4.955000072590935722e-02,1.520408384322890216e-01,2.974684834480285645e-01
-2.895189534847437685e-01,-4.510510720736896628e-01,-4.359935618828466031e-01,7.800801003368880264e-03,1.318115110983542580e-03,1.523655811841351368e-03,1.551831662654876709e-01
-2.736982000980823226e-01,-4.548564308400928624e-01,-4.609671386485800770e-01,-4.590080525986134710e-03,2.506832339583018893e-03,3.852980591015463664e-04,1.845132857561111450e-01
-2.714899724966188255e-01,-4.529137304837620448e-01,-4.556850348567905717e-01,1.547916278613845845e-03,1.713165162088395440e-03,1.070243589039072556e-04,1.828689873218536377e-01
-4.061560218335417694e-01,-4.081056156972304727e-01,-6.989823308623810405e-01,1.470068110308647424e-01,3.222942996553290751e-02,6.253227361085859914e-02,4.060298502445220947e-01
-2.772529213161635253e-01,-4.588178526266488699e-01,-4.382843157455835748e-01,3.457866501979001313e-03,-2.043171107944346480e-03,5.913383323969588707e-05,1.723591685295104980e-01
-2.868593609528846677e-01,-4.502302309347846476e-01,-4.745862521592290051e-01,-1.053010790882064930e-02,-4.697704539247521231e-03,2.572960044912523357e-03,1.779916733503341675e-01
-2.736026663985196561e-01,-4.551457691923272986e-01,-4.615165574054335140e-01,-1.955648561890025762e-03,-1.332519912950201222e-03,2.237315473833172380e-05,1.848563253879547119e-01
-3.129349012661757912e-01,-4.910503954364642265e-01,-5.023455986022860031e-01,5.595400001745389623e-02,4.350750679158703338e-02,6.856569408794505049e-02,2.510768473148345947e-01
-3.141952364530877784e-01,-4.629896317243961668e-01,-3.555364620967662592e-01,-1.824556905457758648e-03,1.377639705700828667e-03,-6.807501383740558083e-03,1.336122453212738037e-01
-2.834763086802770671e-01,-4.563804160303988056e-01,-4.129762470340092029e-01,5.578777438148776850e-03,3.120490016458454894e-03,1.102252997356606987e-03,1.562088876962661743e-01
-2.755628798276869018e-01,-4.580389912120295670e-01,-4.664463640216297557e-01,-6.058145103324547726e-03,1.152945188177501414e-03,-8.885200513834554982e-04,1.871331632137298584e-01
-2.700067150602305510e-01,-4.460407340976990098e-01,-4.563778841006344011e-01,-4.098410296805833630e-03,2.711140487648323969e-03,9.773904391797278140e-05,1.816232204437255859e-01
-2.749351366575726874e-01,-4.569963382541896713e-01,-4.624360670245172278e-01,-4.210777875328695560e-03,2.734859174379249830e-03,-1.792707812336606922e-05,1.850455850362777710e-01
-2.708955639072139210e-01,-4.544653230463417959e-01,-4.597823387020950059e-01,-9.035237619867736349e-04,3.905664622635959598e-04,8.296865619959852012e-05,1.862930357456207275e-01
-2.740133790583510476e-01,-4.585109258776374763e-01,-4.612311403056809644e-01,-9.327767181066949458e-04,1.019491822901102702e-03,2.860897406113725814e-04,1.858886480331420898e-01
-2.745449656360460233e-01,-4.608116997994810560e-01,-4.622861642702390528e-01,-3.034339576421078884e-03,1.982514133476262919e-03,1.123731083554876768e-03,1.871237903833389282e-01
-2.723083855362755656e-01,-4.590217161532951784e-01,-4.551240256149267638e-01,1.666083200480988858e-03,2.129282980370691448e-03,-1.880269504908105619e-04,1.848549246788024902e-01
-2.902479316730010028e-01,-4.746321914064946523e-01,-4.273209735527432329e-01,-2.753847968740387626e-03,3.577342978728463574e-03,-9.787249298879934726e-04,1.660616695880889893e-01
-2.741606554404826812e-01,-4.628138237449420656e-01,-4.535288741492690123e-01,-1.373020730581244776e-03,2.338582598009273088e-04,4.349309045955971573e-05,1.842021197080612183e-01
-2.710597748912829674e-01,-4.550019564249656590e-01,-4.598135238199403396e-01,-9.621852292999715384e-04,3.608087887484726823e-04,1.646492296071730660e-04,1.864032596349716187e-01
-2.968617782186160348e-01,-4.498528852004671785e-01,-3.798138367908125423e-01,-4.914746106271534326e-03,2.916012283482449265e-03,-5.615660429307804333e-03,1.333753168582916260e-01
-2.849474213190267835e-01,-4.369945249370142393e-01,-4.432648172091339100e-01,5.826650636764693116e-03,-6.780255173428498781e-03,-4.390487037974309670e-03,1.562325656414031982e-01
-2.989530710499713750e-01,-3.358478043361488030e-01,-4.479641805745239180e-01,1.365929411506486453e-02,-5.539275399397134043e-03,-2.287750227316089763e-02,1.424420177936553955e-01
-2.703758663499182258e-01,-4.543342494833631506e-01,-4.556524842050537760e-01,-1.226730991490099319e-03,1.747842813906964280e-03,3.419830569352467955e-04,1.846590191125869751e-01
-2.865470793513943404e-01,-2.818620380483596310e-01,-4.014863749841952600e-01,-2.927238988537570960e-02,2.589349989974765176e-02,-1.031711994260971210e-01,2.242463231086730957e-01
-3.030455447698545135e-01,-4.355141141736992294e-01,-4.283328131819146289e-01,-4.114185160293813183e-03,1.552448277800149096e-03,2.608450473932092035e-04,1.292532831430435181e-01
-3.044171711029701743e-01,-5.685388117383988194e-01,-5.324599260202795836e-01,-1.335289329922369206e-01,8.101279003980048354e-02,-5.882501836930306011e-02,3.809107542037963867e-01
-3.083967447805164297e-01,-2.454955076284110471e-01,-5.017245966594133799e-01,-4.706569188749300942e-02,9.790520159973177539e-03,-2.015533123906475266e-02,2.482832968235015869e-01
-2.785593359516734813e-01,-4.468692668193444129e-01,-4.459400660034035235e-01,-1.590489608118625820e-03,3.400555284595207194e-03,3.635354223789744152e-05,1.679731756448745728e-01
-2.853117984595107126e-01,-4.489665383562452261e-01,-4.319156369043949950e-01,-7.828936101312555448e-03,2.552417784059084552e-03,-8.059065443554428885e-04,1.564880758523941040e-01
-3.077645837698904652e-01,-4.275624622478122472e-01,-4.125962737411862369e-01,1.729168657252775536e-03,-1.979277580182013736e-05,-3.634330165271618725e-03,1.132748723030090332e-01
-2.965664104941481138e-01,-4.262353955397656935e-01,-4.164181713401467477e-01,-5.091478468420143795e-03,1.582422006436596694e-03,-1.694773428442763151e-03,1.254246085882186890e-01
-3.349680802747628805e-01,-4.027838997889061634e-01,-5.245875288431778305e-01,-1.276416026930146386e-01,3.221252310138208313e-02,-8.570736374215032205e-02,3.189398944377899170e-01
-2.811540440282206399e-01,-4.387460060790481786e-01,-4.432092729284379806e-01,-2.780072961678242000e-03,5.180348370254082152e-03,-1.742712374477607337e-03,1.602227389812469482e-01
-2.871076184511838214e-01,-4.434525198210493846e-01,-4.314715271744914982e-01,-7.252921600226473406e-03,1.671864370935348312e-03,8.841554150365907826e-04,1.512701213359832764e-01
-3.237290995390923465e-01,-4.022518797802457913e-01,-4.632235490173124970e-01,-3.744198317521655901e-03,4.780043615477684756e-03,-2.737269621421098073e-02,1.304968744516372681e-01
-2.720837863606451190e-01,-4.493163552974898667e-01,-4.512007264827246900e-01,-2.192541345435629482e-04,1.588558759499000047e-03,5.978705623354718278e-04,1.782068908214569092e-01
-3.486874194279099282e-01,-3.795687603072970262e-01,-4.817936933288592960e-01,3.228125305528809635e-02,-2.616818738136420311e-02,-5.119501258838428381e-02,1.661438643932342529e-01
-3.780180769166543997e-01,-3.361357256221873535e-01,-5.401953309356534172e-01,-9.741719730602043520e-03,2.102509453563148646e-03,-3.309717725261922955e-02,1.960413008928298950e-01
-2.711342528547001640e-01,-4.498082255759392467e-01,-4.510123822529978899e-01,1.215186911365268452e-03,1.251050257946512969e-03,-8.378253239297207974e-05,1.793045848608016968e-01
-2.818207463416844694e-01,-4.332968122608752415e-01,-4.281762667160249336e-01,7.958747862558667244e-03,2.253063192937149357e-03,2.328983877418131822e-03,1.497234255075454712e-01
-2.820799530100985830e-01,-4.533339858619293006e-01,-4.509533852810883037e-01,2.843270331483509650e-03,8.701506435195823300e-04,-1.080408348939619780e-04,1.701542884111404419e-01
-2.884656795307791732e-01,-4.450001063559594905e-01,-4.349058968362890520e-01,4.874600580443067509e-03,2.289766970502597060e-03,2.470602197547601669e-03,1.520860046148300171e-01
-3.983070843435122521e-01,-6.463415761002815341e-01,-4.371591256119027880e-01,-7.329845737883192158e-02,1.222618893307624022e-01,-1.495550399454274593e-01,4.259764850139617920e-01
-2.719476425643649331e-01,-4.532026039571799836e-01,-4.546102067472179709e-01,1.412210288753355542e-03,1.881798420194360057e-03,-7.932931512916772748e-05,1.820085197687149048e-01
-2.699589461198899087e-01,-4.526934328018228926e-01,-4.544012016210887128e-01,2.384554039350250589e-03,1.575446317444328514e-03,8.453762105070724989e-04,1.836668848991394043e-01
-2.772020762065484645e-01,-4.657653683359596619e-01,-4.649234252955644631e-01,-7.323967041583575796e-03,1.356994014416480071e-02,-7.334219107651585457e-04,1.900342851877212524e-01
-2.630218223894642549e-01,-4.977002577843899767e-01,-4.854997191353648267e-01,-3.009302172429583616e-02,3.169035817930627996e-02,-1.520803558451462416e-02,2.424522191286087036e-01
-3.244112036508237651e-01,-4.935140501060085172e-01,-4.785503371974808573e-01,-3.848119078279719357e-02,5.551816954846344049e-02,-3.313522844090263653e-02,2.080199867486953735e-01
-2.780050008033646547e-01,-4.591187508629596681e-01,-4.813527337599257105e-01,-8.925759814794824443e-02,5.897440934429452192e-02,-7.088173987202912862e-02,2.945009171962738037e-01
-2.760644922202755147e-01,-4.586394620080261331e-01,-4.539913570039774138e-01,3.241987656421185197e-03,2.713233245266646193e-03,-1.364130031012247097e-03,1.804599612951278687e-01
-3.407604394924276248e-01,-6.080931575521122401e-01,-4.412295998300537203e-01,-3.214952112763366787e-02,1.412001990396996032e-01,-1.161796900964525703e-01,3.976286649703979492e-01
-2.715001115455418779e-01,-4.593864451855140252e-01,-4.534189735897965479e-01,7.721063947346814074e-04,3.740336431360200518e-03,3.659246252391459408e-04,1.850941330194473267e-01
-2.725887713750030916e-01,-4.555949806641783617e-01,-4.535121354354211265e-01,1.465219191193840517e-03,1.148321118091457510e-03,-1.968270146928543867e-04,1.820026040077209473e-01
-2.339249103036624144e-01,-4.193042315612167670e-01,-3.301790192275664837e-01,-5.447444943921565808e-02,1.107908087264719149e-01,-7.715303032258707949e-02,2.989495098590850830e-01
-2.893848594196199997e-01,-4.696875478464992981e-01,-4.688787275577794844e-01,-2.421381628410072470e-03,-1.127217095435674085e-04,8.257972397073754444e-04,1.799543052911758423e-01
-2.765976025957647133e-01,-4.642096359665610072e-01,-4.649412286440910425e-01,2.765854899986177045e-03,7.616013502215094634e-03,-8.561643948945947503e-04,1.885078996419906616e-01
-3.109598249045461560e-01,-4.519220416028063569e-01,-3.511441135726401930e-01,5.406146837918361994e-03,1.580953160736047695e-03,1.437013600606956362e-02,1.285898089408874512e-01
-2.797122661667025278e-01,-4.515403920684050165e-01,-4.710517884557833823e-01,1.533180391508372252e-03,6.322491343480721475e-04,-1.981086596094411203e-03,1.824232190847396851e-01
-2.784634141204454516e-01,-4.545245268909840486e-01,-4.482086091394891225e-01,-5.273021956063550508e-03,1.203295356491487647e-03,-3.475579766180234779e-05,1.732431203126907349e-01
-3.469415940808773802e-01,-4.059433285866568819e-01,-4.964721953289824574e-01,4.203334627415511449e-02,2.650089017609946751e-02,7.343188384801895008e-02,2.014995366334915161e-01
-2.808882856269372397e-01,-4.519107649175711505e-01,-4.191511385395463307e-01,-5.172948483340588169e-03,1.543676473758074123e-03,-2.893794754434566349e-03,1.575810909271240234e-01
-2.698962201976447539e-01,-4.508538925466972769e-01,-4.491311496256064628e-01,-1.153212083815528333e-03,1.124399640074673270e-03,-1.775496542384679430e-04,1.801243424415588379e-01
-2.805454994190785811e-01,-4.434702167751701229e-01,-4.375805979099184895e-01,-4.117575289171607721e-03,2.097805528821781833e-03,-1.367256170330693630e-03,1.602786928415298462e-01
-2.794310621495179059e-01,-4.430474709390575527e-01,-4.364076339349571843e-01,-5.030073760993777898e-03,1.293951411067232552e-03,-1.157147255627403440e-03,1.606641709804534912e-01
-2.690960125445856499e-01,-4.492896947110996408e-01,-4.516703932720591563e-01,1.972212981498022710e-03,-1.629062483719016579e-03,5.751212254400326880e-04,1.814525872468948364e-01
-2.714580912348518171e-01,-4.505971600369471641e-01,-4.518559566281774020e-01,5.276025991833576149e-04,-1.257483801145114653e-03,1.381637963787862519e-04,1.797874420881271362e-01
-2.849402243193207562e-01,-4.593608906280037818e-01,-4.196183881749365741e-01,7.407068209471068905e-04,3.585097909195025020e-03,-1.184934263158411629e-03,1.584756672382354736e-01
-2.729954939439653283e-01,-4.479855470020197572e-01,-4.494023459987321889e-01,1.746782820324460812e-03,-2.799171906934010568e-03,3.223531363335579633e-05,1.757956594228744507e-01
-2.698477434996747748e-01,-4.505913907564935705e-01,-4.538093894290566310e-01,1.977447947906038617e-03,-1.745300213465236132e-03,9.433855979797426891e-04,1.824384629726409912e-01
-2.749278216596962032e-01,-4.521362380064220532e-01,-4.517061221522374326e-01,2.029916986856378398e-03,-2.969412729020889496e-03,7.634738620561676336e-04,1.771083027124404907e-01
-2.746424463965613794e-01,-4.542326085749588405e-01,-4.555176703247824643e-01,3.734779108211072726e-04,-1.337092310375438253e-03,1.378422065474718065e-04,1.802523285150527954e-01
-2.716148779542994496e-01,-4.523904423566044164e-01,-4.532988033762796465e-01,1.824987379309179634e-04,-2.226597576524130817e-03,1.897805954820681309e-04,1.812730580568313599e-01
-2.935545542834976374e-01,-4.330024603294509999e-01,-4.295909932475909243e-01,-3.052849976069574398e-03,2.252770709059261414e-04,-7.177599079303319338e-04,1.378814429044723511e-01
-2.741737075330323847e-01,-4.546316242006724906e-01,-4.648030427484597382e-01,4.728983125046816623e-03,2.123352723968735881e-03,1.188285942482577087e-03,1.859808713197708130e-01
-2.719657718604444052e-01,-4.459152954392658352e-01,-4.451031932758061638e-01,-5.938253831968940029e-04,6.972192642147800531e-04,-4.596409621902005862e-05,1.735521703958511353e-01
-2.812547329892345349e-01,-4.538305823395746841e-01,-4.340932029009975102e-01,7.888932203848130625e-03,-8.319714015448882380e-03,-5.283643383065544756e-03,1.650572717189788818e-01
-2.565288121489573414e-01,-4.675386452214695954e-01,-4.771726110024463452e-01,3.479464758471452479e-02,1.248941924266770351e-02,1.164471047215340574e-02,2.261804193258285522e-01
-2.821757096462451098e-01,-5.160219305787143718e-01,-5.319020828519809285e-01,3.389209766472799090e-02,4.238555613563724928e-02,2.659262713222674407e-02,2.638311684131622314e-01
-3.031603444743130038e-01,-5.143373842607582569e-01,-5.140907835531571823e-01,3.571300541397709472e-02,4.096235963944732522e-02,2.940227945435983786e-02,2.366372942924499512e-01
-2.811808386413596761e-01,-4.373654713227618229e-01,-4.380340782705153813e-01,4.483794343413857394e-03,4.128379284676455749e-03,1.371769620841987091e-03,1.568935960531234741e-01
-2.747420900927187160e-01,-4.556429208735782166e-01,-4.599144620155645180e-01,1.513651664210028313e-03,3.056653100665602044e-03,3.820775369576757865e-04,1.831704676151275635e-01
-2.718605237842887656e-01,-4.585852816817820310e-01,-4.542468573683230981e-01,1.380219923342595762e-03,-8.725262057932598077e-04,4.901011448746062918e-04,1.846174001693725586e-01
-2.749983751087978767e-01,-4.477893396250135494e-01,-4.463279612666622431e-01,1.887943511558832187e-03,1.312940705197933756e-03,2.922194118275715856e-04,1.721117645502090454e-01
-2.746932992455613509e-01,-4.628302292978235810e-01,-4.644345283253712986e-01,3.001773335180911786e-03,5.824950489050714384e-04,4.847247538043681714e-04,1.890202611684799194e-01
-2.712656407708211592e-01,-3.898162200743685579e-01,-4.304538886196589975e-01,1.378346996504278485e-02,1.198751241280367370e-02,8.458274311018717725e-03,1.474413722753524780e-01
-3.926356976853600522e-01,-7.047577850709112468e-01,-4.474036649723263093e-01,3.496059773775217483e-02,-2.119367514093243865e-01,-8.608682714390995805e-02,4.939398169517517090e-01
-2.705961244045106406e-01,-4.538304219919859772e-01,-4.494293835708462748e-01,2.397817732319135458e-03,5.535108302569183422e-04,-3.089565313221518447e-04,1.811248511075973511e-01
-2.767165941673896401e-01,-4.656044176600997453e-01,-4.693507031829712295e-01,1.248879048610521646e-02,4.095248056760448022e-03,-2.386669340470276655e-03,1.921863257884979248e-01
-2.723568437156987931e-01,-4.522416007287959339e-01,-4.481653810637825086e-01,1.702911913736192707e-03,7.647164281676930610e-04,-1.148298466973921841e-03,1.779221743345260620e-01
-2.547574327101159164e-01,-4.204043047900867247e-01,-4.852444156484286286e-01,4.503486465349972739e-02,8.488765490824619342e-03,-3.237677535403746948e-03,2.207164019346237183e-01
-2.881155427414026637e-01,-4.205826637577215199e-01,-4.367716003790261259e-01,-3.998404156690718234e-03,9.674616414580075596e-03,-3.870913138359327599e-03,1.425756961107254028e-01
-2.837296288727670368e-01,-4.233883926734696157e-01,-4.361068428555473497e-01,-2.630941334461957184e-03,8.621320111582671947e-03,-4.354506808766278950e-03,1.474557667970657349e-01
-2.698656790468981770e-01,-4.433523924908710501e-01,-4.598028822992199505e-01,-7.901086897997275371e-03,4.776286546747052393e-03,-2.017771108742313132e-03,1.830030977725982666e-01
-2.788877097601637489e-01,-4.351925322396648088e-01,-4.350363479858292970e-01,-1.804712342402527104e-03,4.129714038883490652e-03,-2.525557860038030698e-03,1.564828455448150635e-01
-2.696846426024827048e-01,-4.213084312006899479e-01,-4.310232508108356453e-01,-5.042328774547367651e-03,8.270913654983806304e-03,-4.982334526969007214e-03,1.578388959169387817e-01
-2.812898372767467792e-01,-4.468812474830627379e-01,-4.438843740047292985e-01,-6.438743724092864038e-03,8.362178639816484141e-03,-6.316660645701508738e-03,1.654904484748840332e-01
-2.789692260548929381e-01,-4.690261810022813282e-01,-4.479512267076697363e-01,-2.415208514275507014e-03,1.429201158566160805e-03,-1.302374689548105703e-03,1.805244386196136475e-01
-2.446092573394355318e-01,-2.697387802102093057e-01,-2.190124935522150262e-01,-1.217705390226924561e-02,1.859127520089336530e-02,-1.482690823838163363e-01,2.633682489395141602e-01
-2.733811268367777325e-01,-4.423279131048045709e-01,-4.199522382055030922e-01,-1.119002895447722065e-02,1.427517415886152101e-02,-9.366799777695665116e-03,1.628299504518508911e-01
-2.959663018881930618e-01,-4.272368146035902536e-01,-4.075291991026381289e-01,7.300471634349218336e-03,2.002038744064704636e-03,4.549012068515300052e-03,1.235609352588653564e-01
-3.274329725531383573e-01,-4.674404921142575886e-01,-4.640244965734989790e-01,-5.376389693773418743e-02,1.019988535164232518e-01,-1.635767090480575447e-01,3.732164204120635986e-01
-2.730647314984516183e-01,-4.576644847820464101e-01,-4.595120119287983140e-01,-7.794982123878149705e-03,6.219408840778598707e-03,4.484235803795147239e-04,1.863342821598052979e-01
-3.197891383179084501e-01,-4.415876461546202614e-01,-4.258930772254540531e-01,-1.454803003886844838e-02,1.064020179950164388e-02,-3.456001245495946006e-02,1.331442147493362427e-01
-2.861055401748333060e-01,-4.625500543594778247e-01,-4.433079996031204506e-01,5.472410077256728393e-03,7.466036200049949376e-03,2.136193678601430897e-03,1.684592664241790771e-01
-2.433249822950756536e-01,-4.022291835726877207e-01,-4.672550047514673066e-01,4.854853035779805454e-02,-7.418923381289420187e-03,-1.048672701436263212e-02,2.176641821861267090e-01
-2.732838946450728557e-01,-4.563048808356913177e-01,-4.412136019564185663e-01,2.748566609594187658e-03,-8.120885278586103726e-05,1.341834949959229526e-04,1.760259717702865601e-01
-2.479386582435847142e-01,-3.368938382309920043e-01,-3.438117727665755963e-01,-6.548233167708887581e-02,5.370460929471440603e-02,-1.093129632717487476e-01,2.567890286445617676e-01
-3.179074176127753559e-01,-4.617594934797805695e-01,-3.985660114538361887e-01,-1.226711571928643107e-02,1.186132897441880343e-02,-3.298704264569864847e-02,1.404787451028823853e-01
-3.164001603269389062e-01,-3.653130399374354687e-01,-4.377557849795684630e-01,-4.025886602687104437e-03,-5.818271437236493399e-03,1.917591947489266993e-02,1.115218922495841980e-01
-2.750384942076650185e-01,-4.613998259602910545e-01,-4.540661272411367633e-01,-3.242087856209127737e-03,4.350643236763923963e-03,-2.640902045249673025e-04,1.830468177795410156e-01
-2.925797488490331499e-01,-4.740782884953911314e-01,-4.755596715446798739e-01,-1.171107012854178016e-03,3.222164080674929428e-03,-1.365054872107755030e-03,1.823557913303375244e-01
-2.932694958566836041e-01,-4.360191369758062985e-01,-4.339885480431932563e-01,-5.036119828178745560e-03,-4.126173705730270570e-03,2.714450343474568862e-03,1.422708183526992798e-01
-3.131473251341285735e-01,-4.158179535815789141e-01,-4.283879349620382526e-01,3.525650719919448456e-04,-1.831374830767940314e-03,2.132399875448535986e-02,1.156045123934745789e-01
-2.966832014623796421e-01,-3.909804334334869291e-01,-4.394995276676191831e-01,-2.319437929798120589e-03,-9.887277245719174046e-03,2.106767846967790448e-03,1.270591020584106445e-01
-3.049258849384978154e-01,-4.264633791923992390e-01,-4.255049988163283614e-01,-5.051590236421681611e-03,-3.225668433663698379e-03,8.200852822854967986e-03,1.223328858613967896e-01
-3.003401408780872472e-01,-4.273393958027572603e-01,-4.327735226050546391e-01,-1.487618839580259278e-03,-4.418783517771755071e-03,2.432600149766030780e-03,1.301208585500717163e-01
-2.734044089926643273e-01,-4.511180911147484318e-01,-4.510955412589823244e-01,-5.957020511470613412e-04,-6.005459880815354999e-04,-1.936084639650165326e-04,1.777087599039077759e-01
-2.735304847161240116e-01,-4.504350441712893227e-01,-4.493437878719415135e-01,-8.457596393021866738e-04,-3.106142392537022631e-04,-4.178057107969547577e-04,1.763698458671569824e-01
-2.708682634244304888e-01,-4.574561926279876456e-01,-4.531454021136929744e-01,-1.215751133298640079e-03,1.405835507002494269e-03,-1.878632075022276403e-04,1.844986826181411743e-01
-2.746001628829181085e-01,-4.473016402677002512e-01,-4.336713059869271580e-01,-6.866401202815418381e-03,4.455402724424281646e-03,-1.578456357252139113e-03,1.669313460588455200e-01
-2.801099993567557345e-01,-4.403861841680731248e-01,-4.386718852660643764e-01,-1.319137265258199044e-03,-1.440339061796937258e-03,1.652587145170718340e-04,1.594620943069458008e-01
-2.800582432885252993e-01,-4.399538327674332727e-01,-4.388029413742909335e-01,-7.062606913226008405e-04,-2.046681556152904827e-03,1.189432126611801723e-04,1.593675166368484497e-01
-2.814921214590092036e-01,-4.411003560145667080e-01,-4.423969715435293049e-01,-1.892783178919499321e-03,-4.444656921793598871e-03,1.972167813128462388e-04,1.604791283607482910e-01
-2.796070410157481811e-01,-4.429096597671635105e-01,-4.473934799507565674e-01,-1.470534052682064344e-03,-4.406438339970035131e-03,7.619592896627955811e-04,1.657906770706176758e-01
-2.711602642449232325e-01,-4.547894335830056090e-01,-4.603035168810648003e-01,-1.399016609456280903e-03,8.760085264837282016e-04,-7.820549007377041134e-05,1.864693462848663330e-01
-2.733649989303948979e-01,-4.497051282799376382e-01,-4.496884445088746851e-01,-3.421466834227191735e-04,1.033283495392246830e-03,5.241486446614403291e-04,1.763442009687423706e-01
-2.771513828178308603e-01,-4.453863896298844716e-01,-4.450011074738320360e-01,-2.530670566062053622e-03,1.305650031347284573e-03,1.063697937893319856e-05,1.681150645017623901e-01
-2.747172949797352381e-01,-4.504166013870252172e-01,-4.505557095757546371e-01,-5.770747280359802547e-04,-2.376784218187828212e-07,2.817266785904142131e-04,1.757724136114120483e-01
-2.767753728957818016e-01,-4.452574147920331793e-01,-4.438482086957160067e-01,-3.518591222389451639e-03,3.275534305752357436e-04,2.054356884180054497e-04,1.678938567638397217e-01
-2.739404036659309760e-01,-4.484246409531338906e-01,-4.534897402020073853e-01,-3.339021762940482668e-03,-5.088442887244765817e-03,-5.950311521709173487e-04,1.773876249790191650e-01
-2.788465716558756746e-01,-4.663418733194789056e-01,-4.591398044116244415e-01,5.638836522786455120e-03,6.883222244157135086e-03,1.164728531167568554e-03,1.846553534269332886e-01
-2.742564744240230112e-01,-4.589197730400551567e-01,-4.566246013920329250e-01,-2.546526663923512866e-03,-2.895602421854738366e-03,-5.455056823528184025e-04,1.836504042148590088e-01
-2.761547444307057009e-01,-4.583769781646050978e-01,-4.652023663470657988e-01,-2.289825868156369817e-03,-9.779609147975742208e-04,-7.577583789565127403e-04,1.857837140560150146e-01
-2.732669703363720948e-01,-4.532926944118385593e-01,-4.531307701303617375e-01,-1.107329094490558819e-03,-1.550238137750250666e-03,-5.739347488266309224e-04,1.799778193235397339e-01
-3.005670382262044527e-01,-3.260830782510747428e-01,-4.569445875755324682e-01,-2.289712062600079631e-02,1.187719856305242613e-02,-7.510336232941496222e-03,1.525782495737075806e-01
-2.599123546611946112e-01,-4.319943153747714537e-01,-4.558419826195349023e-01,-2.010900958674098626e-02,1.633553635396140912e-03,-1.608850122858824887e-03,1.884503960609436035e-01
-2.739100305831503879e-01,-4.610300006885211244e-01,-4.567179514426309983e-01,8.446436788085117438e-04,4.473267666038421527e-04,-2.588414303133291291e-04,1.850095838308334351e-01
-2.696971128330663547e-01,-4.468557157487266229e-01,-4.444890665658955409e-01,2.289431911189973058e-03,1.081184304288181248e-03,-1.405378345574231273e-04,1.760420054197311401e-01
-2.738761088898807317e-01,-4.518275233442485828e-01,-4.478137894244565986e-01,7.321205770590692068e-04,1.637922398160966426e-03,5.593035950068982794e-04,1.760089844465255737e-01
-2.722267917684698668e-01,-4.471554556481193710e-01,-4.468653501652787297e-01,1.050242297498359123e-03,5.010911364717002096e-04,-8.299916228636858425e-05,1.747954785823822021e-01
-3.168141934881987254e-01,-3.129908787472616138e-01,-4.720321611768055203e-01,-3.498767076543880805e-02,7.508512242003937028e-03,-1.127763386612102257e-02,1.700699329376220703e-01
-2.742383613401052078e-01,-4.549316078648114603e-01,-4.625020560115411516e-01,1.686933935342605233e-04,-2.975918720987923895e-05,-1.749711514007702326e-04,1.845954209566116333e-01
-2.715178628247331138e-01,-4.521090906477334137e-01,-4.508240776945379169e-01,1.181954954447030342e-03,9.564617204965996950e-04,-1.699665600485189727e-04,1.799716651439666748e-01
-3.055992712944044509e-01,-3.324084760173603992e-01,-4.699725640948794192e-01,-2.214865382961497126e-02,-1.251850411660486830e-03,-1.033268435243624161e-02,1.585158556699752808e-01
-2.741404525560490746e-01,-4.629468878732958537e-01,-4.566193638617894179e-01,-9.256208459250418383e-05,-1.297047357279419385e-04,-2.347066443393639270e-04,1.857241839170455933e-01
-2.383730657120659568e-01,-1.131214514779285696e-01,-4.105705763019440457e-01,-5.576123774144303019e-02,6.439959221340948482e-04,-2.994657136929106470e-03,2.761594951152801514e-01
-2.184671489610295059e-01,-1.419239935702685251e-01,-4.115383250140109972e-01,-8.448399091956765306e-02,-9.112118023306234327e-03,1.941835908366939395e-02,2.840889990329742432e-01
-2.724597937371286971e-01,-4.591383293477295791e-01,-4.540756820617151690e-01,1.268386584087776011e-03,4.415063701425636102e-04,2.680018272923547431e-05,1.842140853404998779e-01
-2.590210196566817835e-01,-2.482055526605927986e-01,-4.452144184326847220e-01,-9.748815114093126177e-02,2.807467955553186872e-02,-5.047064245043690611e-02,2.744393646717071533e-01
-3.076964224713688578e-01,-5.014290822090711197e-01,-5.349105405646077394e-01,4.255118616106261936e-02,-2.620031151634560906e-02,-2.592549604734140783e-02,2.337677776813507080e-01
-2.720375131958970294e-01,-4.577004028594034990e-01,-4.532978928610831293e-01,-1.131672446189663358e-03,7.190939839450974586e-04,-1.869547324647326920e-05,1.835159510374069214e-01
-2.725151284126193785e-01,-4.589399666997059368e-01,-4.544667852984984879e-01,8.846506055538934420e-04,-1.264423160533854147e-04,-2.784331293014515128e-04,1.842361092567443848e-01
-2.107233309600540505e-01,-3.657853941540208931e-01,-7.518551499353329226e-02,1.089271960106678698e-02,-6.167103764773956831e-02,-3.972430181208644329e-02,2.827215492725372314e-01
-1.905751710516908060e-01,-3.666014330243454467e-01,-4.593938228428163240e-01,9.533225284895610607e-02,-2.930182076522712051e-02,-1.300228278909650731e-02,2.937299013137817383e-01
-2.713543647251186464e-01,-5.969401425210909551e-01,-7.331480175058504578e-01,7.732297916950831018e-02,-5.084209994181250469e-02,-3.250752405813112089e-02,4.447106122970581055e-01
-2.717330159597912131e-01,-4.527704855829047803e-01,-4.524191004472598587e-01,1.147506818932607885e-03,1.301121753276639984e-03,-1.689532837064131054e-04,1.808872222900390625e-01
-2.341254711690408663e-01,-4.013697003797178642e-01,-4.837034138708050102e-01,1.202533519954232383e-01,-6.912148330459436107e-02,-3.608422287843498361e-02,3.318756818771362305e-01
-2.983652067382169815e-01,-5.046516550150117464e-01,-5.346077725751821053e-01,4.836883143906243326e-02,-2.492716106694985861e-02,-2.227549156833469671e-02,2.449537217617034912e-01
-2.736114843769210103e-01,-4.533366909354876739e-01,-4.578797051315116051e-01,-3.333857847384141121e-03,4.104365445214877561e-03,9.094161820420872981e-06,1.822694838047027588e-01
-2.712326410744193561e-01,-4.586442333094151169e-01,-4.509159147919719612e-01,-1.543365732472483159e-04,1.246023972000109977e-04,-1.950858168309764810e-04,1.836700439453125000e-01
-2.708809553037543894e-01,-4.586179001714899561e-01,-4.559393487398314404e-01,-1.420857154057799483e-03,1.026020494246820654e-03,1.716724117429854833e-04,1.864370554685592651e-01
-2.687403554132952177e-01,-4.490754505292146592e-01,-4.508723665259510849e-01,-1.281813560221264046e-03,1.264974090287157831e-03,-3.706158461192021834e-04,1.812682151794433594e-01
-2.696372449066628540e-01,-4.507120863112195619e-01,-4.539259014498118194e-01,-1.296408592379366025e-03,1.530719489737789431e-03,-3.677140166521941330e-05,1.827359944581985474e-01
-2.706810746320829075e-01,-4.532998051688215679e-01,-4.503790724401760537e-01,-1.402143918772187896e-03,1.078721862924364710e-03,-2.974062491761473583e-05,1.812019348144531250e-01
-2.716224445863606451e-01,-4.530776448651686605e-01,-4.576611812071891827e-01,-6.868583091873567501e-04,1.191435690110158492e-03,5.091747397240749907e-05,1.838053017854690552e-01
-2.716160327575021238e-01,-4.500070750921218443e-01,-4.528658106435812791e-01,-3.394799753706620980e-03,4.664503732838120448e-03,-1.082934158304664756e-03,1.801246106624603271e-01
-2.742117513936149220e-01,-4.573786042987197376e-01,-4.541626780847947686e-01,3.778922200395630742e-03,-2.363709622976724323e-03,3.734460531684138875e-04,1.817454546689987183e-01
-2.799776647244748284e-01,-4.633159569565646896e-01,-4.477877910069449352e-01,-5.870018151249109875e-03,4.781514629996287181e-04,-1.424977860968173072e-03,1.764009445905685425e-01
-2.700964274033340051e-01,-4.548742565629088075e-01,-4.513655650750530990e-01,1.764874003494430917e-03,-8.345567879243620101e-04,1.034865168013866023e-04,1.830800175666809082e-01
-2.761599932854263972e-01,-4.529733846887311066e-01,-4.539034821407677556e-01,2.780118590181189335e-03,-3.400133047606522518e-03,1.554621809945891451e-04,1.774436086416244507e-01
-2.721936106676207112e-01,-4.495845368537188524e-01,-4.489682502504029893e-01,-3.767076160211224015e-04,4.456085335057257150e-04,-2.559749512546833803e-04,1.770870238542556763e-01
-2.722536031304338966e-01,-4.529731350228184406e-01,-4.504907076684331879e-01,3.484805949166414410e-03,-2.524139045200011599e-03,-1.685344658289931595e-04,1.796460896730422974e-01
-2.714020774211277076e-01,-4.561432547894213041e-01,-4.541834313503079201e-01,1.306883758709989369e-03,-1.140247565709432906e-03,4.985637859562084715e-04,1.837956905364990234e-01
-2.694880016962989400e-01,-4.517725531192887667e-01,-4.514558324413462942e-01,1.066063471215578182e-03,-1.630499417252190796e-03,4.819688924318768150e-04,1.821595579385757446e-01
-2.703907102980307453e-01,-4.523285571447469011e-01,-4.591071523392913911e-01,1.630493213004682905e-03,1.120978547496089385e-03,5.037055002733365535e-04,1.854538172483444214e-01
-2.694995698263814576e-01,-4.454704030571821627e-01,-4.586603761635606458e-01,5.109417761974413032e-03,1.637323969633478751e-03,1.269955321557334193e-05,1.831587404012680054e-01
-2.722743337999103952e-01,-4.545651057065382972e-01,-4.606149734656712624e-01,8.017471969113107227e-04,9.075422539034748567e-04,9.218025243805250536e-05,1.854016929864883423e-01
-2.725122075749048522e-01,-4.549304091998193078e-01,-4.614875181010442695e-01,4.878521778534451563e-03,4.635749489889426215e-04,-1.078859615839419762e-03,1.859867423772811890e-01
-2.712387822658894887e-01,-4.516215802948466695e-01,-4.498513756348520021e-01,1.191628753379475256e-03,8.810119108856555433e-04,-1.420821335363686483e-04,1.795227676630020142e-01
-2.715682260006375692e-01,-4.554481499665616884e-01,-4.531406490025512435e-01,1.824218996132082700e-03,6.747253568089974299e-04,-7.855110789578371435e-04,1.827732175588607788e-01
-2.815475618225230514e-01,-4.488089523086256083e-01,-4.519380175956120294e-01,1.700388054840577118e-03,2.606388530450017092e-03,5.274300387870251971e-04,1.689361482858657837e-01
-2.810426130805629974e-01,-4.965909963765365309e-01,-2.602838467121731392e-01,2.823406836672647663e-02,7.841998446654765975e-02,3.623911637972763999e-02,2.759473621845245361e-01
-3.296955053325600904e-01,-5.128865069240676755e-01,-2.240954555578273943e-01,1.720192731528722915e-02,1.159364994843185420e-01,4.871022927019045407e-02,3.352385461330413818e-01
-2.760847087354999507e-01,-4.550839933031288198e-01,-4.415762504010613543e-01,5.342764410848591973e-03,1.024995057877930646e-03,-1.329367189984679383e-03,1.729144752025604248e-01
-2.960818982733441351e-01,-4.814429268279028507e-01,-3.155569912932528198e-01,1.077818074186180815e-02,3.456448855954522698e-02,9.420441341081485856e-04,1.872521042823791504e-01
-2.724355978658598021e-01,-4.563455338628874536e-01,-4.541162700268828178e-01,1.885953271423804764e-03,2.054243627063477400e-03,-6.760582127913705676e-04,1.828730553388595581e-01
-2.977354929043529164e-01,-4.393553930132074181e-01,-3.042006588180964921e-01,2.617844532366984944e-03,1.127245435231068182e-02,2.051725915287137478e-02,1.443850249052047729e-01
-2.721603181298669627e-01,-4.616734212240100055e-01,-4.642230160022861596e-01,8.481187603611578529e-03,2.833129935509282656e-03,-7.336104009986337037e-04,1.914324611425399780e-01
-2.722071197047218893e-01,-4.584531634461638250e-01,-4.576828974252268867e-01,1.775022633573631616e-04,2.012992249972240730e-03,-2.591855562469945300e-04,1.858956068754196167e-01
-2.729459407548819327e-01,-4.576909664000020639e-01,-4.536254864458584835e-01,1.444188933830675876e-03,4.413360497109005613e-04,2.678984399122447702e-05,1.827649325132369995e-01
-3.569468664372766886e-01,-5.385535346495372577e-01,-3.413361314511362821e-01,6.367313182340231985e-04,-3.579183784564673315e-02,-4.486418016984616668e-03,1.999111175537109375e-01
-2.711615448507804782e-01,-4.609903386855865315e-01,-4.574901805851355752e-01,-4.840679537109397290e-04,2.188573635602102281e-03,5.034824198099312588e-04,1.881452202796936035e-01
-2.695573520214451513e-01,-4.515166536498915750e-01,-4.520403058475223057e-01,-9.597408192456058666e-04,1.079995724612228987e-03,3.959952201375352681e-04,1.822401583194732666e-01
-2.736433954137070801e-01,-4.534608040178242372e-01,-4.614507410843729507e-01,4.455157824219323172e-04,-7.093762005567546408e-04,-3.067038967802132067e-04,1.839490532875061035e-01
-2.887527086453984815e-01,-4.270868714441433123e-01,-4.373485122089220689e-01,1.000999990869825065e-02,1.574929116257307860e-02,1.331855440083689300e-02,1.491242796182632446e-01
-2.755233340692926358e-01,-4.634123854529705322e-01,-4.615485077746614984e-01,2.249486163078133222e-03,2.758959275594765823e-03,-1.880164700059026948e-03,1.870940625667572021e-01
-2.866954810608514648e-01,-4.716881179635348809e-01,-4.721007948012766464e-01,-1.053227545546253988e-02,5.960788344702671639e-03,1.959147636817759608e-03,1.864126622676849365e-01
-2.722447448540825099e-01,-4.580313162114955094e-01,-4.549699822931229098e-01,1.648556518937870780e-03,5.653400074595519697e-04,-1.526395684779695186e-04,1.842998862266540527e-01
-2.591511268884568175e-01,-1.911894720066185660e-01,-3.499930134567664775e-01,2.559340212726045338e-02,1.321419492201569845e-02,1.180435070290255656e-01,2.516674697399139404e-01
-2.755615701209935264e-01,-4.629384008818728247e-01,-4.621558108337727733e-01,2.259594639646149167e-03,2.769827610651569554e-03,-1.861566093642777172e-03,1.871170252561569214e-01
-2.753748876124438305e-01,-4.584756841558567109e-01,-4.502921112503884271e-01,2.755099839164841351e-03,3.156184406564543129e-03,7.014046869556850262e-04,1.793002635240554810e-01
-2.760814526122595258e-01,-4.667226806653430593e-01,-4.525624581694896453e-01,-3.395486571669290715e-02,4.385066565997166460e-02,-3.258193601116812083e-02,2.150750011205673218e-01
-3.182847582538003706e-01,-5.852629791360963729e-01,-5.768087539367071637e-01,-1.666026830863421571e-01,3.745846074036119494e-02,-6.191834970995369058e-02,4.099660515785217285e-01
-2.744544999636853166e-01,-4.642827873427087249e-01,-4.506344585801367875e-01,-1.241413491763301326e-03,3.960527933056351944e-03,-9.843511732791224503e-04,1.835342049598693848e-01
-2.679806055654396779e-01,-4.741274372310525509e-01,-4.817610910560607418e-01,-1.393911149965105893e-02,5.788156267966020063e-03,2.791594364603748558e-04,2.116886377334594727e-01
-4.196120645006479188e-01,-7.604848005327953242e-01,-7.010720683296611799e-01,7.327992466239950653e-02,1.416806914308419985e-01,8.201137916162636043e-02,4.426958560943603516e-01
-3.082820165000743629e-01,-5.529149967706691315e-01,-5.500799914119194334e-01,-3.258283966690143224e-02,9.703714375612577936e-03,-3.676935909613967580e-03,2.503353059291839600e-01
-2.700114200290870681e-01,-4.564242732817782588e-01,-4.452991874124884730e-01,-9.567399451352165526e-05,3.837414678061591179e-03,5.698837498347205922e-05,1.812287867069244385e-01
-3.013107496067115587e-01,-5.416723453867793303e-01,-6.049160848831156567e-01,-1.462164812820656856e-01,7.436536330418830332e-02,-1.886350805489349705e-02,3.984604477882385254e-01
-2.861263946493401988e-01,-5.151564125671463934e-01,-5.068051198361634979e-01,-8.046049639067409665e-03,7.398625398919235138e-03,1.255889340568329925e-02,2.268113940954208374e-01
-2.742433894414881834e-01,-4.540322313884049832e-01,-4.511693763327447315e-01,-1.965427429501186412e-03,4.194281098494484494e-04,1.615357341941580835e-04,1.784088313579559326e-01
-3.030585697884388696e-01,-4.731947719753797910e-01,-4.735103600624009923e-01,-7.187538044325294129e-04,1.924762373246366757e-03,1.658637071313750610e-03,1.703556180000305176e-01
-2.709980080561996685e-01,-4.585351436370857514e-01,-4.564265052609254858e-01,-1.484972755928550209e-03,9.293308275128041784e-04,2.298248700950071934e-04,1.865168660879135132e-01
-2.706458639609176098e-01,-4.577927201755506714e-01,-4.513270526200279797e-01,8.879780958937906173e-04,1.648102742180356265e-03,-1.465319059264891905e-04,1.840279847383499146e-01
-2.886784319162521428e-01,-3.883071503625228349e-01,-4.162787446504196964e-01,1.381897243385984530e-03,6.649834229008470474e-03,1.092598341137305390e-02,1.182860359549522400e-01
-3.090002069711538235e-01,-4.356255689856577407e-01,-4.173671952654206541e-01,6.193621180195907523e-03,5.201459478164021689e-03,1.917113963370241717e-02,1.239121630787849426e-01
-2.973223278060305175e-01,-4.347434956948157403e-01,-4.303369936682711616e-01,4.621834794799166597e-03,2.243903614911653497e-03,8.751662354409230809e-04,1.355726122856140137e-01
-2.730689302730368029e-01,-4.601615651636275506e-01,-4.524459984210204011e-01,-1.212156213300837320e-03,3.415197257127320220e-04,3.081713260392459361e-04,1.833703964948654175e-01
-2.751537224791024139e-01,-4.555630874609737369e-01,-4.561552327017519004e-01,-5.363161440785528707e-03,5.879133136099817976e-03,7.080344677812464276e-04,1.812352240085601807e-01
-2.979240711639135064e-01,-4.336756705125144329e-01,-4.334814540580295139e-01,1.272271028227550237e-03,3.687440277550459340e-03,6.273117631963810639e-04,1.358270794153213501e-01
-2.927127602011842522e-01,-4.738925275686817207e-01,-3.980268252680462249e-01,3.120530595725018192e-03,1.946711416546310566e-02,-6.598975094015517573e-04,1.612569689750671387e-01
-2.722313761797952036e-01,-4.544532827891230586e-01,-4.520156525453224439e-01,-1.303990040608880721e-03,3.678326140335793650e-04,1.595768680264766839e-04,1.810308247804641724e-01
-3.198802527548788022e-01,-4.909008352061702829e-01,-3.572458996748815729e-01,-5.028671602270811097e-04,-2.455689875118354654e-02,-6.089818823508515166e-03,1.617871373891830444e-01
-2.991201691698714971e-01,-4.140624548703403240e-01,-4.114507192627083199e-01,3.638204877410811892e-03,2.119103395297268662e-03,4.628131442074383782e-03,1.141743883490562439e-01
-2.730900403994021008e-01,-4.517352324574758216e-01,-4.495286256123716684e-01,-1.708906777494399645e-03,6.094972597167245491e-04,6.581077428823016873e-04,1.775836348533630371e-01
-2.721776581564790964e-01,-4.561882772733670821e-01,-4.553291246445817508e-01,-1.532167461895702319e-03,9.345496360655741394e-04,6.584773101532754355e-04,1.836124062538146973e-01
-2.722650994834240334e-01,-4.504073716890785173e-01,-4.493290705223197956e-01,-2.194908255308757560e-04,3.711741183342613291e-04,-1.894019749417671949e-04,1.776074469089508057e-01
-3.555356925089305786e-01,-4.696519243985795011e-01,-7.824239592486685879e-01,-2.332961143504903023e-01,5.265415632487911030e-02,-7.800866324643256078e-02,5.799964666366577148e-01
-3.012937285462776171e-01,-4.321347345370237791e-01,-4.253927153349469914e-01,2.129907864548056628e-04,1.261710162994988038e-03,2.945139562639069279e-03,1.277247965335845947e-01
-3.053768158477992989e-01,-4.239229692438233887e-01,-4.218937168545826566e-01,1.338638888392203186e-03,1.003933783774725716e-03,5.253262400721401236e-04,1.175839081406593323e-01
-2.775204058538779939e-01,-4.446692972212047401e-01,-4.446185321743877372e-01,-8.859625870456961380e-04,4.099897659761711326e-03,5.501853385628626596e-04,1.672840714454650879e-01
-2.739262414507058763e-01,-4.626743749040101439e-01,-4.672235241467160849e-01,-1.030767536308083501e-02,2.869263100707129636e-03,-6.154228648997501442e-04,1.919629573822021484e-01
-2.733115896733235295e-01,-4.483745958591401348e-01,-4.530529431068064383e-01,-1.493152047209308055e-03,3.901849410712783864e-03,-9.933276263360552168e-05,1.775960028171539307e-01
-2.760839421082250666e-01,-4.541962724809147089e-01,-4.501455813478160706e-01,6.049559847884936233e-03,4.683743241300887886e-03,-5.578958088766464195e-04,1.766223907470703125e-01
-2.705769657687440155e-01,-4.507975777166414733e-01,-4.512408427289832380e-01,1.296918763649681020e-03,1.857972025700259247e-03,5.668058736668947755e-04,1.804879903793334961e-01
-2.718193748895972872e-01,-4.529210231977017775e-01,-4.525643236200438402e-01,1.134961094316896393e-03,1.312462580464229117e-03,-1.263000029403660838e-04,1.809486597776412964e-01
-2.719421584772330203e-01,-4.456875499140187658e-01,-4.506134579603890411e-01,2.685307671385527093e-03,3.341077959919057459e-03,1.576209131088662947e-04,1.764164865016937256e-01
-2.871236281551278191e-01,-4.260679372163215795e-01,-4.336087057107436693e-01,-2.992866818975666639e-03,6.258724909665560991e-03,-3.600217901839212423e-03,1.435040086507797241e-01
-2.696069223363206646e-01,-4.240930114327922662e-01,-4.231166382895701350e-01,7.407318505848276870e-03,7.446430494158618948e-03,4.934707619549931305e-03,1.553063988685607910e-01
-3.164265302680956959e-01,-4.445283523429225392e-01,-4.039837775153042876e-01,4.061584466321933352e-03,5.728376338698920774e-03,6.584038884811664431e-03,1.146214902400970459e-01
-2.674776297189008223e-01,-4.389864127316378539e-01,-4.452676118791076831e-01,1.181124941235744963e-02,1.131254252867824536e-02,5.670327169583494996e-03,1.772875934839248657e-01
-2.871080843968819019e-01,-4.676303771892725836e-01,-4.181770214123752827e-01,4.696108417843970415e-04,4.168987188834179930e-03,2.641265556070200257e-04,1.617390215396881104e-01
-2.729039432135914600e-01,-4.613913441875741039e-01,-4.625884556671430725e-01,4.220277383441572473e-03,3.023059641381721421e-03,-1.293249466629835037e-03,1.893157213926315308e-01
-2.800094735882138197e-01,-4.503135034702248074e-01,-4.469520680768333531e-01,2.345988148213682453e-03,1.321724530940904339e-03,-1.169928099541623408e-03,1.687250882387161255e-01
-2.684910509661524447e-01,-4.722398665869871337e-01,-4.415230670155843584e-01,5.609788682740770270e-03,2.049219537873621724e-02,4.540847330458755611e-03,1.939449608325958252e-01
-2.776731885211343176e-01,-4.466370025591822057e-01,-4.343125986947289907e-01,7.236005665202322260e-03,3.006704466440396090e-03,1.756879488993474871e-03,1.637429147958755493e-01
-2.719426441932119021e-01,-4.600016453366825298e-01,-4.580342711775953202e-01,2.408657982329820164e-03,2.345457111753198719e-03,-5.991211855916143275e-04,1.871765553951263428e-01
-2.746713597044684319e-01,-4.605144684634820962e-01,-4.503499574111610726e-01,1.789203439922362705e-03,2.350654336336269364e-03,8.914363853488384585e-04,1.810539662837982178e-01
-2.721920957040843136e-01,-4.589958833115332371e-01,-4.551353416792236484e-01,1.021170393629216959e-03,2.201487838738662092e-03,-1.338510157582725518e-03,1.849660426378250122e-01
-4.284407097283497445e-01,-3.769357388098484307e-01,-7.392982221120731889e-01,1.521678950630687699e-01,-1.122766747491353231e-02,-3.644604401866111815e-02,4.348841011524200439e-01
-2.964719524044148180e-01,-4.296225491308971467e-01,-4.321960839859986803e-01,-5.421237671728433918e-03,-6.465530648791672011e-03,5.122438349840369338e-03,1.355384439229965210e-01
-2.735302982500044666e-01,-4.605881552072622065e-01,-4.562053865029422894e-01,1.612959245834943945e-03,1.946697874365563730e-03,-8.420791582090574262e-04,1.849630177021026611e-01
-2.791567801257114900e-01,-4.483931846832798218e-01,-4.380916841832407371e-01,6.480818935291800774e-03,1.800165713604361204e-03,7.625197609679854787e-04,1.647457480430603027e-01
-2.710527616722124833e-01,-4.454024851801452467e-01,-4.567524918695206604e-01,2.495992113654499703e-03,2.911843483732715673e-03,6.765617463644125508e-04,1.804190129041671753e-01
-3.187020475331319158e-01,-5.197279590724399601e-01,-4.947122693970724128e-01,4.717744099298751270e-02,5.489824431615013961e-02,5.581308988245361341e-02,2.471280843019485474e-01
-2.944520880456053535e-01,-4.271889511873068757e-01,-4.275996570015433429e-01,-5.353601678471982955e-03,-4.959269011028250018e-03,4.144540327115885971e-03,1.337350308895111084e-01
-2.728167452074775068e-01,-4.573679712588248347e-01,-4.600613856974165583e-01,1.693811921499136907e-03,6.691493925115133768e-04,-1.633882680758792525e-05,1.859393268823623657e-01
-2.950604204352779147e-01,-3.766957331834702161e-01,-4.334685325848203208e-01,-1.243153223091100594e-02,-7.242597797512465713e-03,1.882420960195739859e-02,1.273035258054733276e-01
-2.704281814373117876e-01,-4.513353430447094583e-01,-4.514815460299370087e-01,1.640812468794734542e-03,1.733368961561905725e-03,2.883799582324098813e-04,1.810282021760940552e-01
-2.696978529583347051e-01,-4.596708344884032904e-01,-4.573090447071264109e-01,5.209473090868935695e-04,-1.725913284639798420e-03,-2.822310570276480613e-05,1.888289898633956909e-01
-2.752495002794012047e-01,-4.632078665105452409e-01,-4.488304125674815181e-01,5.562180570425441159e-04,-6.089189935613674703e-04,-2.821604085359247032e-04,1.812042295932769775e-01
-2.632120367093331859e-01,-4.385865512306557079e-01,-4.515865750806801748e-01,9.395892083163687181e-03,3.197346491309677186e-03,9.054351462823644840e-04,1.830384433269500732e-01
-2.657297325327739879e-01,-4.207620255391018027e-01,-4.475741465403280106e-01,8.593161579396758204e-03,4.271967228135949146e-03,1.013922730954457119e-03,1.708508282899856567e-01
-2.686796613852937554e-01,-4.589448101785755796e-01,-4.634846955203929530e-01,1.006192941381528309e-02,2.518723393863577225e-03,-4.554890270221489523e-04,1.934130340814590454e-01
-2.726677417677701443e-01,-4.568231561561096332e-01,-4.544352661463747500e-01,1.870040281746629613e-03,2.057858657992968354e-03,-5.612435231888028347e-04,1.830391138792037964e-01
-2.808104027196119956e-01,-4.478327041528251673e-01,-4.639472587401290982e-01,1.003092549083094663e-02,1.024659639012117393e-04,-3.253829020230859814e-04,1.764931380748748779e-01
-2.807019928726985358e-01,-4.806798717237635854e-01,-4.695467419103462325e-01,2.402158817870702311e-03,-1.202844475032695780e-02,-7.203487274359554344e-04,1.958102136850357056e-01
-2.960470571292489472e-01,-5.346924761477105381e-01,-5.220261703468848102e-01,1.777414418232492856e-03,-1.980591806685152306e-02,-6.111651079011128432e-03,2.353458553552627563e-01
-3.141616409395379672e-01,-4.552853076460875448e-01,-3.759493722601043864e-01,3.082610272108751281e-03,1.414279222712486747e-03,6.938608027220634356e-03,1.232592463493347168e-01
-2.706088386732351525e-01,-4.580844322298821547e-01,-4.644336759692374028e-01,-1.306417658006528947e-02,4.779180739800664365e-03,1.431277607628230722e-04,1.922455281019210815e-01
-2.729816205892801051e-01,-4.626826664804055134e-01,-4.569643044112585151e-01,-1.017277418461550375e-03,1.822013218143993902e-03,-8.875942028549737173e-04,1.869487464427947998e-01
-2.747216255812817698e-01,-4.594297726185272435e-01,-4.648147976033765727e-01,2.179985565192664974e-03,-2.844153085403016454e-04,1.703489312200057995e-04,1.874975860118865967e-01
-2.728012687274471437e-01,-4.500058191826407095e-01,-4.622247428056500129e-01,3.334568004062809111e-03,1.018420182294180101e-03,-3.682839875419383719e-04,1.837195754051208496e-01
-2.690117360954079606e-01,-4.513264990422944933e-01,-4.507833063419345310e-01,1.139811897063089732e-03,-1.992017844809698332e-03,1.165557584042907821e-04,1.820872873067855835e-01
-3.043538719123172753e-01,-5.449526248313755206e-01,-5.126261713903421668e-01,2.919263637850483956e-02,-4.310145750327384895e-02,-3.985429639855081647e-03,2.435827255249023438e-01
-2.687763421479016923e-01,-4.508691822706493157e-01,-4.510559798829089084e-01,-1.311038699480179988e-03,1.382163714014713728e-03,8.257946049162865785e-05,1.822162419557571411e-01
-2.715106709735520818e-01,-4.551034412761640335e-01,-4.541241866560880580e-01,-1.606809954380590674e-03,1.043651222289240224e-03,3.279965382260021734e-04,1.831360608339309692e-01
-2.768117190840816422e-01,-4.532003385796549155e-01,-4.472473959266021759e-01,-4.851235885964053605e-03,1.692969859920244284e-03,1.927559466387443281e-04,1.737172007560729980e-01
-2.778079810105166803e-01,-4.564554238376051232e-01,-4.473583904074482920e-01,-4.715113915257578871e-03,1.626735519593838688e-03,-3.703820696380832151e-04,1.744922697544097900e-01
-2.722829168267289490e-01,-4.570855300291882806e-01,-4.574237914431706353e-01,-2.714097499246768443e-03,2.337398678690337517e-03,4.876857764510019811e-04,1.850779205560684204e-01
-2.989668462540175931e-01,-4.408027831213021108e-01,-4.269769155877660149e-01,-9.466555192262866847e-03,8.636275024554510016e-03,-7.290821940206382648e-03,1.378392279148101807e-01
-2.799962679937461063e-01,-4.732160860902896449e-01,-4.687344956141876740e-01,-3.024388099865965573e-03,-1.160743202028478513e-02,-1.719389914541074151e-03,1.921680420637130737e-01
-2.712510911795887325e-01,-4.496943133660847858e-01,-4.483616572036675518e-01,-1.740465410867989005e-03,1.003640356299005144e-03,-1.884182483855190323e-04,1.778149902820587158e-01
-2.758171906251559724e-01,-4.600727374930879687e-01,-4.602428752977363313e-01,1.953714060940055577e-03,-1.430573700106216577e-03,-9.198279793253471767e-05,1.843884438276290894e-01
-2.784864497019593488e-01,-4.663587407315594735e-01,-4.618939930412995776e-01,5.196516063449697735e-03,-8.525335758800822727e-03,-1.366331019187385981e-03,1.864987611770629883e-01
-2.712959815642424499e-01,-4.528800164378756765e-01,-4.509491712527206597e-01,1.188061776443451872e-03,-1.020195109960169442e-03,-5.539483080770849638e-05,1.806467473506927490e-01
-2.713516921491723743e-01,-4.497232812619857412e-01,-4.539783845639392412e-01,-4.626124354090584124e-04,1.565035324146624900e-03,1.300484779115806836e-04,1.805590242147445679e-01
-2.738009782971955741e-01,-4.510359320231006053e-01,-4.553430654153612922e-01,-6.062033433710625231e-04,2.207759183636998513e-03,1.355897597354953864e-04,1.794712692499160767e-01
-2.694637571572613410e-01,-4.527597820271907492e-01,-4.525260077582128893e-01,-7.554670348203420399e-04,1.022720728308197354e-03,4.480975355653121534e-04,1.831941306591033936e-01
-2.744288772373782992e-01,-4.628765098443861081e-01,-4.580085158114068911e-01,7.311789321485491835e-04,-1.890997415342852940e-03,-6.408115125064425864e-04,1.860978454351425171e-01
-3.047778143299741949e-01,-4.230728835445605185e-01,-4.251872266440826498e-01,-5.627958304013679428e-04,-2.755102713909348463e-03,4.876152601160641041e-04,1.194685995578765869e-01
-2.721735315365483299e-01,-4.672577161656397693e-01,-4.492157711742123527e-01,1.660733346755033498e-03,-1.260388792151928561e-02,8.010437131244228836e-04,1.880170851945877075e-01
-4.083143635118176018e-01,-5.149650470320744633e-01,-7.284742870545786175e-01,1.905112269707711359e-01,5.745085800816286670e-02,7.951822950062532869e-02,4.663542807102203369e-01
-2.713004989866757422e-01,-4.578639083677790711e-01,-4.579616677851862661e-01,2.374133321489411974e-03,2.326383517924661935e-03,-9.181249727287128792e-04,1.867078691720962524e-01
-2.992278927923306409e-01,-4.404828121375711225e-01,-4.060529200024993179e-01,-6.508050912292779114e-03,2.426916246344249135e-03,-4.159506263784355784e-03,1.283417940139770508e-01
-2.726298662269270312e-01,-4.595697666536786574e-01,-4.559102066995081581e-01,1.370728838828515423e-03,-1.062822638697124428e-03,1.085355406220032905e-04,1.851617246866226196e-01
-4.168928241442966809e-01,-3.240342054772791802e-01,-6.672064944102323869e-01,9.319879793721627670e-02,2.263958361455386051e-02,7.354197284203307927e-02,3.719467818737030029e-01
-2.764454152059050984e-01,-3.715984372267785441e-01,-4.580964616247135690e-01,-3.670569740712843060e-02,-1.312010433170556802e-02,1.150079326901626980e-02,1.723998188972473145e-01
-2.721917148955009802e-01,-4.590011053367605287e-01,-4.615137724451595647e-01,2.536267472982142203e-03,-5.906919117468356498e-04,5.292391149929239619e-04,1.881346255540847778e-01
-2.696374728983599312e-01,-4.518462072969663956e-01,-4.577573491229270930e-01,2.132991888578157115e-03,-2.204680944609253054e-04,-1.796818100813841101e-04,1.852725446224212646e-01
-2.729134797235658327e-01,-4.733297672159063607e-01,-4.613965572624446621e-01,2.452659124186824802e-02,2.579142346318094928e-02,8.444493686414367151e-03,2.047722190618515015e-01
-3.180369672187474128e-01,-2.915706283981460145e-01,-4.847059133187435753e-01,2.854017202357168707e-03,-4.096641627442523868e-04,4.203881922815435462e-02,1.954912990331649780e-01
-3.128529953549823439e-01,-4.745645112873448923e-01,-4.752685124496369151e-01,1.619710391907993154e-03,3.937187943340728156e-05,7.164039469539776935e-04,1.620937138795852661e-01
-2.757388951125723242e-01,-4.623856900550742943e-01,-4.474845172026531981e-01,4.559471746479852594e-03,-1.022603098639955545e-03,3.328026708707953205e-04,1.798434108495712280e-01
-2.728175461260330392e-01,-4.590034270578836617e-01,-4.610430103031991633e-01,1.173585412520424063e-03,-1.783312880405337614e-03,1.461537535473990401e-03,1.872676312923431396e-01
-3.074601055113568293e-01,-3.662017428069369029e-01,-4.444376669963253645e-01,-4.154240578726196148e-02,-1.642050910795048863e-02,3.241819048285074500e-02,1.526636034250259399e-01
-2.704385431738431378e-01,-4.545311850920635277e-01,-4.526220807834934745e-01,-2.321877096634629954e-03,1.700153332095234162e-03,-4.836090857612254570e-05,1.832133829593658447e-01
-4.392911026137751307e-01,-5.753995507543800958e-01,-4.459221851974886075e-01,6.938000105156751085e-02,-1.397262931484084814e-01,-2.202455911540120714e-01,4.860065579414367676e-01
-4.018104754133756673e-01,-6.133396759195672843e-01,-8.169827360986389175e-01,2.059304211977147359e-01,-5.075848590570748720e-02,-6.411820401659126811e-02,5.259051918983459473e-01
-3.253714293409444291e-01,-4.021303749066247324e-01,-5.168551355011992143e-01,-5.536271827676951529e-02,-7.040797485552830262e-03,2.221297537913647507e-02,1.966822743415832520e-01
-2.848984574533240943e-01,-4.174334766059453194e-01,-1.619276129761641758e-01,-9.984622525356076639e-03,-1.655906065022988080e-02,8.214443190206786871e-02,2.652359604835510254e-01
-3.405642090581860182e-01,-4.847323168651467284e-01,-3.376622165615835724e-01,-1.695354253529334984e-02,-7.100750183679913584e-03,4.461659096661044210e-02,1.679186969995498657e-01
-3.581846213525292089e-01,-6.603743288141795675e-01,-8.166904617677652745e-01,2.147840618226797560e-01,2.475749886372527117e-02,3.872638505784155739e-03,5.507003068923950195e-01
-3.031975071541105349e-01,-4.625003427097953423e-01,-3.400226417376895904e-01,4.039675874994346026e-05,1.845350899275701373e-03,1.769856274011186127e-03,1.445225030183792114e-01
-2.753858413716323561e-01,-4.613616708239123287e-01,-4.599985580895566972e-01,-2.051482172518265170e-03,2.232333527147673576e-03,4.096435185432985857e-04,1.853737831115722656e-01
-3.192700343499427773e-01,-4.636014463713498124e-01,-3.512370372080411696e-01,1.367377725208861411e-03,5.816802882070606050e-03,3.006538909822973130e-02,1.416280418634414673e-01
-2.825071251631758318e-01,-4.350927802633394181e-01,-2.332390912628654611e-01,1.998417492935007991e-02,4.660203693265756175e-02,5.776524148987692564e-02,2.257235795259475708e-01
-2.709480954521887308e-01,-4.509886560159808711e-01,-4.525465205588020678e-01,5.067947014899428209e-04,-1.680855477468986637e-03,4.294353683492701504e-05,1.808501034975051880e-01
-2.989927173495705581e-01,-4.248467041628524732e-01,-4.259797017773343519e-01,-1.043816787967207687e-03,-1.444336809318078540e-03,-4.581045660606374134e-04,1.264644563198089600e-01
-3.121640443717579871e-01,-4.659419727764190777e-01,-2.832975875885183070e-01,2.587105411773443428e-02,4.171510751639736364e-02,9.013658890927690737e-02,2.460124939680099487e-01
-2.854199355809677319e-01,-4.764797845846983071e-01,-4.715805968929061565e-01,1.119149155529271591e-03,3.577640255471801253e-03,-2.884656985806840004e-03,1.888357698917388916e-01
-2.743196038170016560e-01,-4.601214070577741011e-01,-4.630714559363680594e-01,-1.348642481571341555e-03,3.221271929203240771e-03,1.125421711867420843e-03,1.874020397663116455e-01
-3.012899669648348988e-01,-4.772595533299932025e-01,-4.763965866913313363e-01,1.030902411909038986e-03,-8.880053081086122790e-04,-5.725946633123201639e-04,1.755583137273788452e-01
-2.981819862442550706e-01,-4.827252405879443597e-01,-4.816622585900529607e-01,1.933456114381118789e-03,1.059697551081819434e-04,3.753000423142820847e-04,1.840457767248153687e-01
-2.931785159503081384e-01,-4.715501050045551867e-01,-4.685249969081810018e-01,6.639696461283782708e-04,1.892590086696500440e-03,-9.208389265592954297e-04,1.769197434186935425e-01
-2.887690091634158573e-01,-5.250018712704584978e-01,-5.359716492014369171e-01,3.445654689544598581e-02,1.161768720982387162e-02,-5.423649747611379059e-03,2.501452565193176270e-01
-3.056521454661584869e-01,-4.366938235898371046e-01,-4.327396553364236120e-01,-4.183961777557058601e-03,-1.278084123687585642e-03,7.970182645227400072e-04,1.293395459651947021e-01
-2.738072449861951307e-01,-4.626106643154221376e-01,-4.644793116161362589e-01,1.301049787254058947e-02,6.067121218426921488e-03,1.312652986500927477e-03,1.913803815841674805e-01
-2.846419316217500550e-01,-4.634271337871988528e-01,-4.679619886940429296e-01,5.035739179590622769e-04,-2.121630688138896397e-04,-1.363437045286879827e-03,1.811130940914154053e-01
-2.815725665839108327e-01,-4.316720002436156833e-01,-4.119623439669192200e-01,8.688515003877428713e-03,7.871799097472095136e-03,3.997165714244811305e-03,1.428992748260498047e-01
-3.625595019553032317e-01,-5.015121094696840531e-01,-4.009872665394714208e-01,2.251491895467771717e-02,-4.434729129794873215e-02,-6.375382064408309513e-02,1.872414052486419678e-01
-2.775161833446175841e-01,-4.632657125870291992e-01,-4.652683923414256406e-01,-3.026347219736061356e-03,1.897200575820384358e-03,8.538578591097078195e-04,1.868672221899032593e-01
-2.898722163549165565e-01,-4.664228087228720065e-01,-4.668505341556106192e-01,-7.704825048475848117e-04,2.376108657001743847e-03,7.831242763898865148e-04,1.768229901790618896e-01
-2.621852527469109018e-01,-2.767578711215092913e-01,-2.580320759568691114e-01,3.016050147297753142e-03,-8.421956789631540249e-03,-1.526181644247023572e-01,2.653433978557586670e-01
-2.705591315716850964e-01,-4.547076337678789826e-01,-4.559091121291333759e-01,-1.184968118281778688e-03,1.739137254542502285e-03,4.328035135210749431e-04,1.847896426916122437e-01
-3.078882248751867445e-01,-3.759237480739489046e-01,-4.385982935112515690e-01,-1.613635999281964450e-03,4.183619637615171132e-03,-1.115749894966581827e-02,1.151295602321624756e-01
-2.786339158289371509e-01,-4.471009013267077115e-01,-4.599365570438828099e-01,-1.955135970076143318e-03,5.007273795904287374e-03,-1.027362849784223709e-04,1.754849851131439209e-01
-2.784515169317742789e-01,-4.477137302551941200e-01,-4.540247292018551040e-01,-1.689900882459910306e-03,5.640306000619526444e-03,-5.894236381324982838e-04,1.728085279464721680e-01
-2.706799352974966211e-01,-4.507209914898455683e-01,-4.567480227894685774e-01,-2.078141149360386727e-04,1.077191501611500513e-03,1.324447019144958811e-04,1.831389665603637695e-01
-3.233571529473391326e-01,-4.218898828247171218e-01,-4.341686150470795980e-01,9.118921510547944084e-04,1.547390270511145598e-04,-1.888468071347544283e-02,1.101897582411766052e-01
-2.715956282646803110e-01,-4.491910401849600887e-01,-4.615427573765322755e-01,-5.802484384405203963e-03,1.156179872327949476e-03,-1.237361204901037516e-03,1.843798011541366577e-01
-2.949786321927736488e-01,-4.197110150340936929e-01,-4.147626601928542933e-01,-4.607007986117781818e-03,-1.502749401576721801e-03,7.966454548798899971e-03,1.233947947621345520e-01
-2.726867991582461181e-01,-4.616789849782129140e-01,-4.615480538497040430e-01,4.329721271940288781e-03,3.175933752196237296e-03,-1.400232002813994216e-03,1.891710907220840454e-01
-2.741526583353353086e-01,-4.586312352480579335e-01,-4.633648913685962656e-01,2.340818521656280824e-03,-6.626758177852190394e-04,1.386239924601464314e-05,1.869378685951232910e-01
-2.844080635639158472e-01,-4.521020983415987571e-01,-4.768106486499927299e-01,1.262607039913066220e-02,-6.732363273986787140e-03,-6.225540738796155223e-04,1.830045580863952637e-01
-2.985438144601948451e-01,-4.126068099492054553e-01,-4.163614246517052808e-01,-1.576215181939875660e-03,-3.429166859910912427e-03,3.728573344841720934e-03,1.163493171334266663e-01
-2.682535666910277894e-01,-4.255929679097087970e-01,-4.461323835744019917e-01,1.769250314691843406e-02,-1.560432328270892205e-02,-9.448162464566176727e-03,1.742026805877685547e-01
-2.729449090706650427e-01,-4.576514518354772854e-01,-4.583857773732888385e-01,1.520678270881837060e-03,-1.928010831638865379e-03,9.123496956699370369e-04,1.851304024457931519e-01
-2.773727431204473515e-01,-4.315535175944235080e-01,-4.655549769211238531e-01,1.222224413233732355e-02,-6.324784342444153724e-03,-2.661984605550390699e-03,1.753841489553451538e-01
-3.313585899499520981e-01,-4.409866795227865843e-01,-3.852739862271316040e-01,2.055744836683573787e-02,-1.416329604798077443e-02,-6.130009418000176291e-02,1.488531976938247681e-01
-2.608605004023747953e-01,-4.009541506375894904e-01,-4.517276424906491172e-01,4.153785840751406805e-02,-2.187091821221107818e-02,-1.808239033710033403e-02,1.921180188655853271e-01
-2.727021327881838375e-01,-4.463952043599335728e-01,-4.439517591563335586e-01,-2.312964428438606460e-03,2.955760788789396631e-03,-1.845488452656073811e-04,1.726070791482925415e-01
-2.718861149927132015e-01,-4.468583001857218129e-01,-4.469432143750494135e-01,1.467242299070707778e-05,4.162758497259904929e-04,4.466200255658057689e-04,1.750178486108779907e-01
-3.407870315219813095e-01,-1.988055445633916951e-01,-6.433927827010070821e-01,1.048246044933815874e-01,-2.948299523099716379e-02,8.071433874232912878e-03,4.364185929298400879e-01
-2.712530395316520293e-01,-4.479940382543726174e-01,-4.587077698576392804e-01,3.183688064201666609e-03,9.769604669502454219e-04,3.526206749671332327e-04,1.824263185262680054e-01
-2.727124147963657097e-01,-4.505051235508703567e-01,-4.498183374815554192e-01,-3.769430815274602106e-04,4.458869954704141551e-04,-1.952970973953018983e-07,1.774531900882720947e-01
-2.720166622045407379e-01,-4.461299102452184195e-01,-4.450722440316858819e-01,-5.737629417217567952e-04,7.251800619897356840e-04,-7.913494466724411969e-05,1.735942810773849487e-01
-4.048156919761017880e-01,-3.695608382768634792e-01,-7.202455614279957841e-01,1.647971178261042613e-01,-2.142165424116210248e-02,-5.215377593239077514e-02,4.504112899303436279e-01
-3.149880828055647286e-01,-5.322070576571042988e-01,-5.184349511411528999e-01,-5.226322452415181098e-03,2.777430321264662272e-02,1.420656608795079412e-04,2.162832170724868774e-01
-2.833061719189255978e-01,-4.649589215535301356e-01,-4.622719917533406608e-01,3.687572009969332723e-03,-1.039414621862195425e-03,7.009575289117655041e-04,1.804504394531250000e-01
-2.750127559052060189e-01,-4.605621320818368281e-01,-4.620809412947757822e-01,4.732119883940314083e-03,-1.801282546819257813e-03,2.578462153826553932e-04,1.865202486515045166e-01
-2.792519458923329867e-01,-4.647113517210454958e-01,-4.648095664132753657e-01,2.314430217865258085e-03,2.143940996364758489e-03,-1.470019864364286452e-03,1.856064647436141968e-01
-2.910139935111778486e-01,-3.654288315531674103e-01,-3.571993314403134057e-01,4.224409623338416797e-02,-4.380256808526625939e-02,-1.337116524294094388e-01,2.640814185142517090e-01
-2.737302691090708340e-01,-4.616411381528914282e-01,-4.550970958423425916e-01,1.153639192787843880e-04,-1.822402338631448767e-04,1.915633762314653433e-04,1.847264766693115234e-01
-2.718116146735401473e-01,-4.497579568844214948e-01,-4.496745545525636101e-01,-3.366024482237432508e-04,3.833332031338941158e-04,-2.199102125543904841e-04,1.779072582721710205e-01
-2.736168642131380224e-01,-4.506512438404616239e-01,-4.489120770793909032e-01,-9.798140076521214166e-04,5.191399084008668481e-04,4.892804845053680407e-04,1.761837452650070190e-01
-3.118473604301957303e-01,-3.605119290679413280e-01,-4.488432559723156690e-01,1.147292982836826958e-02,3.367011824073472270e-03,1.880772753972477854e-02,1.263303458690643311e-01
-3.244909550770990192e-01,-3.986584331399647962e-01,-4.644062384149572065e-01,9.662025455674280294e-04,5.926052462910761168e-03,9.240367937628257353e-03,1.227364912629127502e-01
-4.120626371442441815e-01,-7.472712121899829363e-01,-5.302030058052285000e-01,1.343030175573021318e-02,1.466856090754950770e-01,2.862710172178802026e-02,3.927721083164215088e-01
-3.139424052427905454e-01,-3.380553736164404466e-01,-4.624053153186905019e-01,7.895244579945814942e-04,1.570946664179035919e-03,1.575367108837634478e-02,1.407003849744796753e-01
-3.261686377211492904e-01,-2.984113690124030049e-01,-4.479534090883426911e-01,7.471382185829003597e-03,6.524501943694535318e-04,3.398098375739144750e-02,1.503837555646896362e-01
-3.748573602049732889e-01,-3.891413762687598865e-01,-5.170220914314562766e-01,-2.637649904996043626e-02,-1.252171274751322054e-02,6.012930312438943825e-02,1.782927364110946655e-01
-2.824493592472914205e-01,-2.728911284401089876e-01,-4.244763139451252498e-01,1.448728332080751781e-02,6.080939084150055463e-03,3.482354193871324555e-02,1.612425446510314941e-01
-2.713911207205828013e-01,-4.588070135993195797e-01,-4.605515502106953818e-01,-1.450114590486016163e-03,8.714819331310924826e-04,4.309077847413319878e-04,1.883185058832168579e-01
-2.726428644327792417e-01,-4.538828174607976718e-01,-4.567389343337786012e-01,5.324591214807086227e-04,-1.414423113569481883e-03,-6.329932902009644848e-04,1.827068030834197998e-01
-2.740083524615032906e-01,-4.613997673373835262e-01,-4.498672024957976467e-01,-4.409931030397542737e-03,-3.829004844317740724e-03,-5.127195715012211521e-04,1.821827441453933716e-01
-2.721803306860698379e-01,-4.572035541911620982e-01,-4.585952096881765749e-01,1.709841270820659440e-03,-1.435115424414513778e-03,2.588825338437585250e-04,1.857637465000152588e-01
-3.069138110460793989e-01,-4.758010859746674148e-01,-3.954254518129688423e-01,6.257427421607928775e-05,5.025077751661257731e-03,4.917172636837360009e-04,1.465783864259719849e-01
-2.811925624407466962e-01,-4.465495068031019033e-01,-4.677625544112375966e-01,-1.422420921400837984e-03,-4.999454371176024342e-04,-6.141372470186129808e-04,1.769423335790634155e-01
-2.666834419773720377e-01,-4.414499778357254267e-01,-4.536584204674122267e-01,7.640525494959604126e-03,-2.973772860355837315e-03,1.937887128203815193e-04,1.817355006933212280e-01
-2.910878192047399171e-01,-4.578900937913476521e-01,-4.669814077579106937e-01,8.150669764909756337e-03,-9.376880691424078346e-03,-3.511450077288497378e-03,1.729802638292312622e-01
-2.739284188278280907e-01,-4.562017620203822621e-01,-4.619988532993702379e-01,2.000781134176966500e-03,-8.174980734150301843e-04,1.102828972163579380e-03,1.852876096963882446e-01
-2.738696168328251801e-01,-4.546941727377349918e-01,-4.637104257359443427e-01,-5.323760672905810797e-04,1.247579503854005355e-03,-1.035504259451128494e-04,1.855120658874511719e-01
-2.764529056302116317e-01,-4.433261777191065400e-01,-4.567256484304073605e-01,-1.813640260652534539e-03,2.752248428516491929e-03,-1.765579622523786999e-04,1.740543991327285767e-01
-2.974121025277464136e-01,-5.213007117752683772e-01,-4.981398158500179862e-01,-4.541733407328514723e-03,3.479747431325635413e-03,1.372254123895602935e-05,2.134836912155151367e-01
-3.056230089811962647e-01,-4.785850262143391820e-01,-4.746678521433080333e-01,6.765925617979244274e-04,-8.923698524334525541e-04,1.615122902972613867e-03,1.710709482431411743e-01
-3.123208042842837151e-01,-3.618613875583050477e-01,-4.478039479529146161e-01,2.636606387986454702e-04,-4.316427662618955649e-03,7.226796617055117680e-03,1.196278408169746399e-01
-2.996032831535480057e-01,-4.709724528697120105e-01,-4.751812624609274005e-01,-1.697807571285150008e-03,7.052136076112453878e-04,-1.346023974391081070e-03,1.735567450523376465e-01
-2.983234043536390212e-01,-4.752653558168328241e-01,-4.774600821234162296e-01,-1.189429994011574100e-03,-1.538689998847774009e-03,-6.705483182868001053e-04,1.780851036310195923e-01
-2.690770656336888278e-01,-4.665247859629564342e-01,-4.674365683178012265e-01,-1.322943844942658410e-02,2.914499042020244571e-03,7.190775013417635003e-04,1.992951333522796631e-01
-2.709769436858577851e-01,-4.573971592394018293e-01,-4.596111950125350565e-01,-1.270197170304377624e-03,1.309071031097631824e-03,9.024490928722424948e-04,1.875701546669006348e-01
-2.711508318788618532e-01,-4.546909258056844871e-01,-4.613352612443578638e-01,-1.670035521494682993e-03,-1.936730550141681348e-04,-2.161749514127385440e-05,1.869735121726989746e-01
-3.196124864650555231e-01,-4.572896924267126351e-01,-3.718131552941117413e-01,4.629717997931861702e-04,8.438334913432738978e-04,-5.849013448653841638e-03,1.208242252469062805e-01
-2.860783174507990356e-01,-4.465381194528567632e-01,-4.423726264332060731e-01,-1.458490331872302342e-02,-1.049144703050851335e-02,1.270711677452953173e-02,1.629389077425003052e-01
-2.904262979469338091e-01,-4.740048349105729364e-01,-4.764684042737062919e-01,-2.828597131017920874e-03,2.465873744844245246e-03,6.948714226619480384e-05,1.849369257688522339e-01
-2.777355921036447906e-01,-4.615192861401278268e-01,-4.629870150778260252e-01,-1.427381693035347995e-02,-9.063549490548772347e-03,1.379498806570646696e-03,1.868467926979064941e-01
-2.964095999957790384e-01,-4.783077930769407682e-01,-4.105077260165826414e-01,-1.049885069927722868e-03,-1.630664756230480045e-02,9.067993926943651931e-03,1.624770909547805786e-01
-2.769385379388109025e-01,-4.635729231704032727e-01,-4.639020499756519866e-01,3.376895670089124796e-03,1.032910150682187379e-03,-8.542767021949117592e-04,1.869051307439804077e-01
-2.931930175862708099e-01,-4.341086759012678931e-01,-4.678091493733835260e-01,-2.215596518263393891e-02,-6.675397644386154260e-03,6.821633606227850595e-03,1.657945066690444946e-01
-2.882857433712952555e-01,-4.063939388972963029e-01,-4.448290454346988665e-01,-9.850195701265161349e-03,-1.004438460399971998e-02,8.859937933250024156e-03,1.442066133022308350e-01
-2.772844053993192004e-01,-4.677426483703532867e-01,-4.654275487192398586e-01,-9.315996781354615990e-04,3.505800977778639627e-03,1.613398299483291727e-03,1.894361525774002075e-01
-2.888728238461319986e-01,-3.916033646535705404e-01,-4.597177752071278101e-01,-1.358107927523213507e-02,-1.139631179409741381e-02,1.693088980457018236e-02,1.548983454704284668e-01
-2.764898571416728457e-01,-4.627376661685832504e-01,-4.631900211657856148e-01,3.363511609879396135e-03,1.038898326198924114e-03,-1.077212036651067299e-03,1.865833848714828491e-01
-2.995634795609192214e-01,-5.538660592993508436e-01,-5.121694140359586145e-01,-2.293731706348992386e-02,4.085584579612468875e-02,-2.345607952729010254e-03,2.498145550489425659e-01
-2.779481771087638498e-01,-4.685019967223784110e-01,-4.527709132702179007e-01,7.423652812651513992e-04,-7.040445061526388144e-04,8.863661828616284854e-04,1.832105517387390137e-01
-1.584073618741479728e-01,-4.177462813425624200e-01,-4.491173848322390638e-01,7.283229478983641036e-02,2.074079011989557290e-03,-6.750970894602662800e-04,3.038164973258972168e-01
-3.617803820512459634e-01,-3.613655278300333396e-01,-5.591009313627115507e-01,5.509851864451704995e-02,-4.127083541976904468e-02,-1.451390866462589913e-01,3.412196934223175049e-01
-2.726223381669490298e-01,-4.586615041169601614e-01,-4.555653652055333125e-01,1.661304420297310142e-03,-1.007180381302728855e-03,2.551495594244322131e-04,1.845417916774749756e-01
-2.790772117942097452e-01,-4.650649901817415777e-01,-4.639588774603772281e-01,-1.743500868839529009e-03,5.099115395433298503e-03,-2.745251310370753171e-03,1.857328265905380249e-01
-2.817887150339672964e-01,-4.817870504841353374e-01,-4.793246712591687220e-01,-7.813050407220675786e-03,1.160600732926330564e-02,-6.323208191612318327e-03,2.005494982004165649e-01
-2.671704125354649739e-01,-4.771425025839277634e-01,-4.663322573126535975e-01,-4.938193054478616506e-03,2.929416762881136352e-02,-1.320576528475320664e-02,2.123818993568420410e-01
-2.959833278599182105e-01,-4.735155642707972734e-01,-4.736008955468644643e-01,2.503336544706716901e-03,8.157569077604305725e-04,-3.979270353866049556e-04,1.776348054409027100e-01
-2.965725667085900574e-01,-4.779107869173714884e-01,-4.821740241604607347e-01,-1.543719811171810315e-03,9.364140594806333870e-05,-2.291164149223691611e-03,1.835694313049316406e-01
-2.860599053124341373e-01,-4.517269564146271232e-01,-4.362814934112626553e-01,-7.902310885021439010e-03,-2.413471942001069962e-03,1.104377781039699198e-03,1.591659635305404663e-01
-2.863885456078270053e-01,-4.501344701351218669e-01,-4.495142801085660333e-01,-3.460087804392886646e-03,5.225613893474733047e-03,-9.820339032229423969e-04,1.638056486845016479e-01
-2.749195033142534106e-01,-4.600938140560529854e-01,-4.532157875217476817e-01,-2.271910615819426518e-03,-2.012254323745278899e-04,-1.977471450674357547e-04,1.818761229515075684e-01
-2.774276725376363384e-01,-4.623515836346978602e-01,-4.638718345686516642e-01,-2.332164061876622601e-03,1.382756452106677358e-03,8.627192618309618239e-04,1.857540905475616455e-01
-2.960175446151888101e-01,-4.377990344243609111e-01,-4.307498194842155348e-01,-5.783316417091046747e-03,1.680641282639619470e-03,-8.878182535065215096e-04,1.387926936149597168e-01
-3.006906078382632352e-01,-4.688838384711625507e-01,-4.697695829193471728e-01,-9.858670314286766901e-05,1.542246995509509184e-03,4.785410620347670509e-04,1.686611324548721313e-01
-2.821190416880708374e-01,-4.688092159420204075e-01,-4.675955170664061189e-01,-3.911309791912098363e-03,-2.420483882104483824e-03,-1.369739339720421525e-03,1.862718611955642700e-01
-2.819141538151001547e-01,-4.483283651698473649e-01,-4.569456037251373171e-01,-1.828984742507925795e-02,-1.771905822194620381e-02,2.088207378470555153e-02,1.801544129848480225e-01
-2.862463494615237192e-01,-4.351696642971613627e-01,-4.301190984162875375e-01,-5.257998442513058153e-03,1.973592762995981208e-03,-2.025167751051036059e-03,1.468279361724853516e-01
-2.813433705487679570e-01,-4.404945534329314794e-01,-4.382287337036019359e-01,-2.743904155985882332e-03,1.205302122481524381e-03,-1.317565976251928940e-04,1.581158488988876343e-01
-2.999379142933535358e-01,-4.466132744815044520e-01,-4.254317437273648084e-01,-8.355499969229834151e-03,6.946333861735456278e-03,-6.619928511762989375e-03,1.390725672245025635e-01
-2.802498557545164415e-01,-4.445031852584853671e-01,-4.682904487279235806e-01,-2.335136191385402561e-03,2.089340757960574373e-03,-1.584686124251779953e-03,1.774517297744750977e-01
-2.864981057954104071e-01,-3.768595273990997807e-01,-3.900088900542396653e-01,-9.842211295741374114e-03,9.874658909811130647e-03,-3.141010513177432822e-02,1.143206283450126648e-01
-2.536783302192588962e-01,-4.002152331142617703e-01,-4.529163962299256885e-01,-4.630924050935042446e-02,2.444618126103684230e-02,-2.086548907870673653e-02,2.037295550107955933e-01
-2.781754567070264805e-01,-4.633348634311914016e-01,-4.695015307514280867e-01,-2.482756269564104223e-02,1.924073677229827528e-02,-1.282701263074053884e-03,1.960322111845016479e-01
-2.863558091919877202e-01,-4.683514691258409690e-01,-4.664066074245083460e-01,-1.993534450199507379e-03,1.001839584797725464e-03,9.487303809376100745e-04,1.810797601938247681e-01
-2.794154060296160091e-01,-4.648731892409632693e-01,-4.631427248497308469e-01,-2.678635625655531680e-03,-1.401561903377150165e-03,-1.312926503295422549e-04,1.846730262041091919e-01
-2.718117268954810539e-01,-4.524536572045679272e-01,-4.587355897957300366e-01,-4.216660616742505703e-04,-1.203308892429766960e-03,-5.446928639905292352e-04,1.838790774345397949e-01
-3.226913388754180101e-01,-4.815579826835245658e-01,-3.974861121931165253e-01,-3.227910608867219297e-03,9.164375165271613013e-03,-1.468418001444927318e-02,1.409984529018402100e-01
-2.723436911706307861e-01,-4.826152539498533844e-01,-4.414149895024754300e-01,-5.898035098209692371e-03,2.926719564919207095e-02,2.000887375986421489e-03,1.998360008001327515e-01
-2.767736772441375392e-01,-4.636500107050162689e-01,-4.641424735208143915e-01,-2.192338651247003212e-03,2.073724142789560004e-03,1.016574981168843128e-03,1.872043162584304810e-01
-3.208959729490221680e-01,-4.932401888862078532e-01,-4.137571751134174192e-01,-2.736833085405957627e-03,2.071202189812410693e-02,-3.079034456650485353e-04,1.537249535322189331e-01
-2.717740435630089935e-01,-4.601807009903600698e-01,-4.581487432298348983e-01,2.003766538241652777e-03,-3.094136707107423764e-03,4.148115922832803734e-04,1.875090599060058594e-01
-2.760192020609487651e-01,-4.410691741107415909e-01,-4.581658906409024068e-01,-1.526424777516811968e-03,-3.018131741748299787e-03,2.245835307350076875e-04,1.743274927139282227e-01
-3.609232697637987930e-01,-2.814462183853395638e-01,-5.257024013769797666e-01,2.566786552150910131e-02,-2.872985423816304396e-02,-6.429068494308154413e-02,2.518283724784851074e-01
-2.940822887019978182e-01,-4.397738098867749468e-01,-3.740905804796346712e-01,-1.341579687036629706e-02,8.515319239229350232e-03,-1.289968533078307555e-02,1.312535852193832397e-01
-3.068154778892815404e-01,-5.251244908316308191e-01,-5.700753817847827865e-01,5.149021889974308985e-02,-3.764548198604685154e-03,1.338382214152239978e-02,2.608183622360229492e-01
-2.813209564734154289e-01,-4.524352279294416856e-01,-4.709873196792490613e-01,8.379445504660919513e-04,-3.509692243910287821e-03,-1.739980474840878985e-03,1.812372654676437378e-01
-4.506924672317253466e-01,-5.019086252345846821e-01,-5.588156755076859605e-01,3.397255106015996395e-02,-3.297936351660350068e-02,-1.883546591522052838e-01,3.491902351379394531e-01
-2.890566319270957418e-01,-4.010564115648922456e-01,-2.974908060136322030e-01,-1.156113533371278673e-02,2.883116456143286488e-02,-6.528369551382907920e-02,1.653814762830734253e-01
-3.333867654760955257e-01,-4.783345147182989643e-01,-3.868925488106465527e-01,-7.952221969880762928e-04,4.667878591672047599e-03,-1.693025659577056252e-02,1.305539757013320923e-01
-3.159044455106604921e-01,-4.346881629378478440e-01,-4.339907373215013409e-01,1.854507457873329213e-02,-1.826933993313875279e-02,-3.092245463949350182e-02,1.375822424888610840e-01
-3.205804840889419638e-01,-4.579876846937777080e-01,-3.601292587524423383e-01,-2.313624103267420025e-03,-3.446890831085078991e-03,-7.942582371755213533e-03,1.234970167279243469e-01
-2.719876345941130147e-01,-4.592225803968471576e-01,-4.605917626446994761e-01,2.412764052484890100e-03,-7.660107059482521323e-04,4.274269476966333645e-04,1.879758834838867188e-01
-2.726831790682894829e-01,-4.570952556681266987e-01,-4.580417871024101140e-01,1.594270144948758353e-03,-1.934791515283564240e-03,7.823630232100879352e-04,1.849431097507476807e-01
-2.713486201605697090e-01,-4.561327637174158456e-01,-4.588542767867078709e-01,1.473281359913230625e-03,-1.888858661324514234e-03,7.315181804995013167e-04,1.862103641033172607e-01
-3.057384890489713847e-01,-4.530298327544412529e-01,-3.658676869979790580e-01,-5.039840835713433644e-03,6.769338477925202630e-03,-5.354740521939721672e-03,1.294350922107696533e-01
-3.061455790488533113e-01,-4.647558103695464959e-01,-3.546161902165722024e-01,-6.024907562393001445e-03,1.152492514623453847e-02,-4.837637910907999737e-03,1.428154408931732178e-01
-2.828285964779854167e-01,-4.448159038073548066e-01,-4.546517545299025298e-01,-6.176575350246415325e-03,-7.665325103248104253e-03,2.564156156170879341e-03,1.680486798286437988e-01
-2.771603349495238566e-01,-3.687541441910607287e-01,-2.746715625298840058e-01,-1.847361318224528121e-02,1.203076501055010822e-02,-6.693373562655102749e-02,1.533688157796859741e-01
-2.707129479554040152e-01,-4.550539731064501270e-01,-4.567197065257005972e-01,1.284693043586636850e-03,-1.810913072286922908e-03,4.005805092203011154e-04,1.852207332849502563e-01
-2.759878035049864176e-01,-4.607754514069196117e-01,-4.618450695423141350e-01,3.017373555226389881e-03,-2.117867506693566285e-03,1.231755049604113311e-03,1.854470074176788330e-01
-2.923359494674274695e-01,-4.660227127880701703e-01,-4.697466296280287668e-01,5.926354830083802473e-04,-3.480132702827610711e-03,-2.875565752005437262e-04,1.756854802370071411e-01
-3.412854659020138071e-01,-5.100991843237467904e-01,-3.496904272456585749e-01,-1.889154476136874899e-02,3.843740268259301235e-02,-4.155646969487782061e-02,1.945087015628814697e-01
-2.806008178246206519e-01,-4.614575637656934681e-01,-4.474395207573371169e-01,-6.774366620675461095e-03,-6.874726054145969883e-04,6.315217939816766433e-04,1.746731251478195190e-01
-2.715181539648997555e-01,-4.592482638843122800e-01,-4.590043139565359587e-01,-3.269186554319859859e-03,3.790902476946414294e-03,3.072175238550136039e-04,1.878092586994171143e-01
-2.845644457682091621e-01,-4.469596432878613634e-01,-4.284820803191049521e-01,8.385889014809569039e-03,-1.993231664060133093e-03,-1.750231095778810109e-03,1.547418236732482910e-01
-3.276725215622446896e-01,-2.446995579414579236e-01,-4.906959915455345600e-01,3.016035026380761534e-03,2.558923948211175216e-03,-7.409964157300318044e-02,2.520057857036590576e-01
-2.722925945595541797e-01,-4.580095768841316306e-01,-4.439153171714291246e-01,1.017495922723068459e-04,-1.063095309127500953e-03,1.177617413652661113e-03,1.791074723005294800e-01
-3.133971045895614926e-01,-3.000242505483863842e-01,-4.600464712988355243e-01,3.468283202914616836e-02,-5.403520360931318017e-03,-3.359522269228726321e-03,1.654573678970336914e-01
-3.079846904527726581e-01,-5.129868189216909569e-01,-5.292082335105862123e-01,-6.654138781924907181e-03,-7.363245096653313858e-03,8.249504495124534639e-03,2.147418856620788574e-01
-2.148166548840284018e-01,-4.745274223968497518e-01,-2.872551867998932584e-01,1.535800864110153929e-02,-9.429321658738185064e-02,-1.768179438688545491e-02,2.867108881473541260e-01
-3.050789917519081129e-01,-3.427892839175574746e-01,-4.719140524641222134e-01,1.985539905524254939e-02,-6.669262671291290153e-04,-2.015749037812262275e-03,1.554375737905502319e-01
-3.078247962982848529e-01,-4.717094467250606549e-01,-4.707612010830886651e-01,-2.452891652315646932e-04,-1.079406987338612980e-04,-2.022678511559761938e-06,1.634132564067840576e-01
-3.162194996591529694e-01,-3.636283087638087497e-01,-4.844267703008937054e-01,1.028623957258456394e-02,3.298933472681334599e-04,1.995886941819663050e-04,1.512767076492309570e-01
-2.959956120941281688e-01,-4.738583105198799217e-01,-4.744385109169457770e-01,1.606971156055085528e-03,-3.569592442582497898e-03,1.535174818429731582e-03,1.783023178577423096e-01
-2.656913991304132860e-01,-4.504734212080460098e-01,-4.431901711600029214e-01,-6.257221783332330735e-03,-1.200127160512112767e-02,4.967641557190074532e-03,1.829623132944107056e-01
-2.793105945608833629e-01,-4.475304216558005921e-01,-4.629521944777448828e-01,-1.850159659318603494e-03,-3.383217176214864744e-03,4.557615669458681574e-05,1.765633076429367065e-01
-3.235889544709012466e-01,-3.375953256899504318e-01,-4.772518143641397148e-01,5.061424031795387635e-03,-3.306025627709283186e-03,-4.761205793372908293e-03,1.477628052234649658e-01
-2.722698551050465321e-01,-4.595549015976505003e-01,-4.617111786129155515e-01,-1.907351804874404160e-03,-3.750256121125657345e-04,-2.478477406078914073e-04,1.884030103683471680e-01
-2.788550622463356610e-01,-4.650851273316539691e-01,-4.610010889390341871e-01,-2.269634628111263930e-03,-7.397076003471520205e-04,-4.112831467018006901e-04,1.842697709798812866e-01
-2.741915863263373332e-01,-4.549819008835733758e-01,-4.510130453102164094e-01,-1.947329239807855678e-03,-4.672490686131426044e-04,-4.400115669304054252e-04,1.788741797208786011e-01
-2.638142648983783367e-01,-4.376951151089928382e-01,-4.512984698862749222e-01,-1.030571632853195287e-02,-2.962136863121354099e-03,5.666270885240437755e-04,1.820188760757446289e-01
-2.905800605353539567e-01,-4.895448528627512341e-01,-4.612225665211633907e-01,-1.058879924582502817e-02,-3.078665833143367017e-02,1.464265372489610001e-02,1.964104026556015015e-01
-2.722229374828267767e-01,-4.709119239349418562e-01,-4.695223851647751245e-01,1.589741399589931440e-03,-9.658349094809419097e-03,1.141557021173539126e-03,1.987322270870208740e-01
-1.931870028348224855e-01,-4.704552089551717886e-01,-4.513092874717881120e-01,-4.932845716332518587e-02,-5.921757939491593264e-02,2.057803277241947518e-02,3.017053008079528809e-01
-2.474735368141476877e-01,-2.462189063931148336e-01,-3.357707389739768011e-01,4.867109449963288176e-02,-3.927819185053858797e-02,-1.233038894357406517e-01,2.554510831832885742e-01
-3.247925650899778915e-01,-4.054931984728855077e-01,-4.595404530124378994e-01,-3.842016450391984306e-02,-1.595550044211826307e-02,5.486238787620695279e-02,1.673829555511474609e-01
-3.374300156809906248e-01,-3.282378216853456543e-01,-4.631146884587502011e-01,-1.559891928166268768e-03,3.592877796313790478e-03,2.688394473815349309e-02,1.387469470500946045e-01
-2.718891510198870876e-01,-4.547667182399205421e-01,-4.599814282372048369e-01,-6.390836946642735120e-04,-8.078932840255318923e-04,4.884550699960757062e-05,1.855484843254089355e-01
-2.601914987919904387e-01,-8.176935639103441456e-02,-4.021740091076077550e-01,-6.889677207553489453e-03,3.689171841475546998e-03,-2.652394734698802423e-03,2.784432768821716309e-01
-2.875340362852594200e-01,-2.954413543122916264e-01,-4.416340755747885094e-01,-5.610320615470310024e-02,-3.069060549462784143e-02,9.522075539627995744e-02,2.491189539432525635e-01
-2.709354968220140103e-01,-4.526911958523517354e-01,-4.554262696784758258e-01,-6.221625137960095329e-04,-1.032661996411463144e-03,-1.444681471432706309e-04,1.831506341695785522e-01
-3.435028113578865172e-01,-2.870857503709866032e-01,-4.613179713481173616e-01,-6.534775067625113454e-02,-2.624220411414785251e-02,1.012759493350067347e-01,2.633580863475799561e-01
-2.909632649599283027e-01,-4.298337691721375586e-01,-4.778628923137842044e-01,3.066548305305579099e-03,-3.503823018393045427e-03,-3.360358684646387682e-03,1.684059351682662964e-01
-3.543717295548758917e-01,-4.079327013051290418e-01,-4.841886952414342637e-01,-8.119197278262896972e-03,-3.789890418599437850e-03,7.618113345333220321e-02,1.744122952222824097e-01
-3.038607998194457482e-01,-3.369030264553203313e-01,-4.359108065899906514e-01,9.802423300275328252e-03,5.215032164246764280e-03,3.330311522482870545e-02,1.336522102355957031e-01
-2.679304440550722144e-01,-1.849016181665402159e-01,-3.755094374191475515e-01,9.809755215289667901e-03,2.761804953318906537e-03,9.423568026002769604e-02,2.331348359584808350e-01
-3.395461594253015858e-01,-4.016735915725796469e-01,-4.657893649808495518e-01,6.860056367746909974e-03,3.076470091921440064e-03,3.142467171271497162e-02,1.228255033493041992e-01
-4.303591423976068087e-01,-5.636937279572571402e-01,-4.494106204296853257e-01,3.367868657838340996e-02,-5.346317782942822810e-02,-2.162019182790402005e-01,4.096441864967346191e-01
-2.711904726870588700e-01,-4.512561101804215546e-01,-4.542497669920569359e-01,-5.772760353887327906e-04,-1.369246225062837035e-03,5.482329675896955055e-05,1.815992444753646851e-01
-2.727668003867130819e-01,-4.511089969078509454e-01,-4.572832644238241095e-01,-3.115087003730336243e-03,-3.365188973199808361e-03,5.761699206254682938e-04,1.816845387220382690e-01
-3.231958681383010346e-01,-3.821183828107322933e-01,-4.463814822114535730e-01,2.680463325557894995e-03,6.665553475177119283e-03,2.616393563151240415e-02,1.166046783328056335e-01
-1.993957874839507316e-01,-3.234090446648358874e-01,-2.107504651924445027e-01,-7.075137038397476263e-02,-9.374972614653971636e-02,1.200106476470497591e-01,3.141529262065887451e-01
-3.410816786966553438e-01,-4.993594066388940544e-01,-5.174357196147688631e-01,-9.670499184713900187e-02,-1.247790669866876700e-01,7.081551664767218868e-02,3.435828685760498047e-01
-2.398675605825816293e-01,-4.297131910452129944e-01,-4.507194446034148982e-01,-7.186390346447979471e-02,-6.649360890199024210e-02,7.199176412500837841e-02,2.911640107631683350e-01
-2.883813043880971150e-01,-4.031073763524082865e-01,-4.275182316210509037e-01,2.089735143212482354e-02,-2.148188923020177832e-02,-1.761931309377908622e-02,1.420716643333435059e-01
-2.903838242172712691e-01,-4.518739039739211871e-01,-3.435135877482170530e-01,3.661269126018749237e-03,-3.711210731950962023e-03,9.754244985170341595e-03,1.438362151384353638e-01
-2.906488246834066924e-01,-4.544865260382460193e-01,-2.848712658175263646e-01,7.221503865522047039e-03,-3.532367920193398708e-02,-9.056250707034620151e-03,1.787974834442138672e-01
-2.709196693520217747e-01,-4.580556570304424868e-01,-4.557336917032273060e-01,1.371442766752603093e-03,-1.043202940260659281e-03,1.786522149249945054e-04,1.860100775957107544e-01
-4.020996323251253557e-01,-6.289479844718830481e-01,-3.437614900781243987e-01,6.522593288545182333e-02,-1.739457556550191575e-01,-1.484325991110494181e-01,4.875743687152862549e-01
-2.978856369120140291e-01,-4.692519865123517819e-01,-4.686373869438092976e-01,-1.107125092678058623e-03,5.052516906210732057e-04,-2.482698428616142883e-04,1.710734069347381592e-01
-2.702566724297454925e-01,-4.518520296008792236e-01,-4.567780717853108241e-01,1.274873944339052854e-03,-1.275218382279169529e-03,-6.102160570445416300e-04,1.841373294591903687e-01
-3.105144652914277881e-01,-3.093480887632800713e-01,-4.557775083780054026e-01,-8.568336539347661332e-03,-3.840568068580571710e-03,-2.712067472942617311e-02,1.540884077548980713e-01
-1.939713940621527188e-01,-4.702884922071660645e-01,-3.046032153943443177e-01,2.626216281166941086e-02,-1.157894649604527398e-01,-9.099521418718631988e-03,3.171122670173645020e-01
-2.624544505202180411e-01,-4.895950780375274425e-01,-2.710728622563336465e-01,4.819428628097236281e-03,-8.818135335835586286e-02,1.039384040023090192e-02,2.709818780422210693e-01
-3.599459621633002704e-01,-6.549311453560501262e-01,-3.807410827421187083e-01,-7.416715151283817531e-02,-1.087348764786540550e-01,1.049126814147549464e-01,4.078070223331451416e-01
-2.783865132525416564e-01,-4.481341475224174253e-01,-3.907022154838477035e-01,-8.699702605656797413e-03,-1.324194474246331160e-02,4.270917112618929749e-03,1.522221267223358154e-01
-2.688654609422788111e-01,-4.553876163835124946e-01,-4.458547282110866816e-01,-2.200325689248399611e-03,-3.763658334087857226e-03,-3.141616442228265362e-04,1.821005493402481079e-01
-3.219199673727184963e-01,-5.036321614859015083e-01,-3.728421725619563420e-01,3.534513828334694130e-02,7.098797440266771397e-02,5.701270900910783423e-02,2.344701886177062988e-01
-2.915630305072894890e-01,-4.592409047475949913e-01,-4.120576004664863179e-01,1.090819671453141688e-02,1.240226420722149135e-02,6.579265801167450030e-03,1.529013216495513916e-01
-2.943295694347751179e-01,-4.445395617028383706e-01,-3.495772959250145195e-01,8.367348998633103441e-03,8.665448200234026482e-03,1.220371207948540114e-02,1.349025219678878784e-01
-4.006109062804041887e-01,-4.416948276070145618e-01,-5.070462780334056285e-01,-1.393438159876696572e-02,-1.329103169085566784e-02,-2.005954926474028399e-01,3.612086772918701172e-01
-2.786786856096922227e-01,-4.426314840671062290e-01,-4.631305458358931926e-01,-1.914890282263984143e-03,-1.033213556456308822e-03,6.012784700493671716e-04,1.751482188701629639e-01
-2.973305171482052423e-01,-4.395737545840908145e-01,-3.873715969530766579e-01,1.278110881254387703e-02,5.575196756562593101e-03,1.105512600129767917e-02,1.283852308988571167e-01
-2.695007613944381264e-01,-4.538500975942513227e-01,-4.519803326938947041e-01,-2.620861952478897774e-03,-3.033446401022921873e-03,1.012343511225966258e-03,1.835613548755645752e-01
-2.805780775435124941e-01,-4.648349657888199982e-01,-4.662538516294543745e-01,-3.934413890966487540e-03,-2.423926688398768837e-03,-2.135864772845207874e-03,1.851804703474044800e-01
-3.042834063467179662e-01,-4.518726998930130412e-01,-3.759710035726082089e-01,8.553947584478922839e-03,9.282415572586853389e-03,5.949903286499419984e-03,1.300984025001525879e-01
-3.059852547371469389e-01,-4.208775250366636467e-01,-3.876375724737775030e-01,3.280958101237259512e-03,1.245243814205528998e-03,1.978664208020687598e-02,1.081554144620895386e-01
-3.651973259008315376e-01,-3.548314355629054728e-01,-5.720349810023545034e-01,5.584369101623114923e-02,-1.120381699487094269e-02,-2.075338854748575226e-02,2.367647886276245117e-01
-3.431885665635115990e-01,-3.297187072203340286e-01,-6.063983634694445346e-01,8.202601320611022095e-02,2.065359417429318833e-02,2.685104541099910327e-02,3.108595907688140869e-01
-3.289863324078087237e-01,-2.711401784496552114e-01,-5.958461695194998686e-01,8.224827409514144649e-02,2.479936687440329260e-02,2.130889329646302663e-02,3.368957340717315674e-01
-2.746441858331586938e-01,-4.616512377176182902e-01,-4.612764321134249501e-01,-1.553905175179310467e-03,-1.605837841685025646e-03,-7.189864792938229637e-04,1.868641674518585205e-01
-2.744551124424872701e-01,-4.604777303881493755e-01,-4.617973025133139675e-01,-1.549740771513414325e-03,-1.602424705756502364e-03,-8.131111614083293441e-04,1.867311447858810425e-01
-2.716831527519683043e-01,-4.570931079869186009e-01,-4.582000941287713291e-01,-3.447043997542686804e-03,-3.538790065780505600e-03,-3.410032359147373315e-04,1.861636042594909668e-01
-3.416447486013179935e-01,-3.199997881055576254e-01,-5.281581465784178642e-01,5.359979913489785336e-02,-1.476668093769203764e-02,-4.217950115691210256e-02,2.321704924106597900e-01
-2.745095290275106348e-01,-4.527748758316223476e-01,-4.509310140404612643e-01,9.046785345239998378e-04,-8.155147603018295631e-04,-1.268372456892211163e-04,1.773632913827896118e-01
-3.252641497209494137e-01,-3.263514153163189491e-01,-4.947471434794128431e-01,4.854159677466851619e-02,-8.148445056243902584e-03,-9.965059940434728425e-03,1.900193542242050171e-01
-2.711979321042733426e-01,-4.447909795688986812e-01,-4.517455066183031498e-01,4.314329952661224640e-03,-4.849516156885291113e-03,-8.573526229518626477e-04,1.775352656841278076e-01
-3.421630934783242983e-01,-1.717756668565121603e-01,-4.884314754057192953e-01,6.349592751091553966e-02,-4.926714170721460673e-02,-7.242360794316007877e-02,3.323568701744079590e-01
-3.075974874356396382e-01,-5.344550386038536827e-01,-5.324010745579086379e-01,1.474074288828593031e-02,-2.742257277785951214e-02,-2.858135094157812552e-03,2.322390526533126831e-01
-3.017402837214764877e-01,-7.103694091552334999e-01,-5.506504907700248141e-01,3.263468053489428783e-02,-1.286755809733695355e-01,-3.808010577536097979e-02,4.294643998146057129e-01
-3.244180811163882572e-01,-3.407624906976535195e-01,-4.437127141149664888e-01,-6.771383397959804609e-03,-6.864266571457661517e-03,-8.264642070243564953e-02,1.825342476367950439e-01
-2.877254086743462613e-01,-5.216259983059716721e-01,-4.894806411041925376e-01,1.157958386748894619e-02,-3.837864454680348786e-02,-1.337648012381087090e-02,2.314774394035339355e-01
-2.711832150072073233e-01,-4.571125585914701528e-01,-4.521882964765910895e-01,9.645099309522594047e-03,-1.096970859014127428e-02,-2.919627615452107406e-03,1.853215098381042480e-01
-2.717752491378238044e-01,-4.532249364428592164e-01,-4.532750413868828487e-01,1.270692083866400502e-03,-9.328125770714132100e-04,3.017511437358681562e-04,1.814960390329360962e-01
-3.172984895606582034e-01,-4.423450609798838529e-01,-3.954062237467402263e-01,-4.443969139801456740e-03,1.888508242599126015e-03,-7.088049153863544213e-03,1.104129776358604431e-01
-2.787114372230278247e-01,-4.737414137427883865e-01,-4.957329338042819611e-01,3.156167486916826997e-02,-4.368367109270904908e-02,-1.871222824869085005e-02,2.292879670858383179e-01
-2.623774640056923957e-01,-4.732150486138718692e-01,-4.633451154919783765e-01,7.959559620011723985e-03,-4.250594997622610810e-02,-2.643958517165792901e-03,2.193177044391632080e-01
-2.766017902135720630e-01,-4.631562401748654523e-01,-4.622871420618594462e-01,1.958752127905423034e-03,-2.077029737101822923e-03,1.343927594263785285e-03,1.862016469240188599e-01
-2.747474909603940252e-01,-4.538672213217460061e-01,-3.684259634296287444e-01,-9.944812148526436732e-04,1.784166561240690257e-02,-1.076687133573608381e-02,1.593285650014877319e-01
-2.721474095382535596e-01,-4.567370672500298268e-01,-4.479522223870920361e-01,2.968831642246408300e-03,-3.089859809136522896e-03,-6.423124613167789654e-04,1.805138289928436279e-01
-2.765022497511308019e-01,-4.324476188948816469e-01,-4.355357444631892117e-01,-5.036715369657272443e-03,5.645371078827372303e-03,-4.170391263335340368e-03,1.582212597131729126e-01
-2.679549640629197427e-01,-5.015004655826389435e-01,-4.446555436458073385e-01,-1.041232276770939671e-04,-4.758014896980745922e-02,-1.212924792067695753e-02,2.274466305971145630e-01
-2.874326998197980210e-01,-4.197807841728918854e-01,-4.218589119985025615e-01,-2.050195790288508128e-03,5.545138385885602789e-03,-4.962478992438884746e-03,1.340675354003906250e-01
-2.886405756343226603e-01,-4.349457447400857935e-01,-4.406813166047973129e-01,-1.613524901886005409e-03,4.339574896832075306e-03,-7.816953955839009253e-04,1.494770348072052002e-01
-2.943196541901216268e-01,-4.329196735671745344e-01,-4.309315061150333914e-01,-2.874782176984615103e-03,1.578530015066318282e-03,-8.829376044342502434e-04,1.377423852682113647e-01
-2.724648623139439008e-01,-4.590355397399850101e-01,-4.566108900707293583e-01,-1.055414235600097119e-03,-1.375431441455686986e-03,-2.135877874834996872e-04,1.853949427604675293e-01
-2.698286372459223204e-01,-4.530114981634918991e-01,-4.438746965035861303e-01,-3.610896089757079097e-03,-3.877959084699597863e-03,-3.602099480974724991e-04,1.790261417627334595e-01
-3.228202017847082717e-01,-4.636120286474759156e-01,-3.524465518080919790e-01,1.938605359250825414e-03,1.477474481505497905e-03,-1.138962057103830305e-02,1.301380246877670288e-01
-2.688132758791027532e-01,-4.661412038955325965e-01,-4.557589988270209780e-01,-2.161386180612988664e-02,1.755388096845860238e-02,-7.014301327957923318e-04,1.983047425746917725e-01
-3.579002615954491873e-01,-4.986105778348711715e-01,-3.788245239901151251e-01,-5.480745757523736855e-03,2.305513623484735375e-02,-7.990876765753922306e-02,1.952790915966033936e-01
-2.767840206426093741e-01,-4.643937159683457772e-01,-4.638787543439576444e-01,-5.317623682853716768e-04,-3.263570975419043205e-03,-3.118720352431612387e-04,1.874410361051559448e-01
-2.737104580180274582e-01,-4.645272672541778669e-01,-4.531636123209486500e-01,-1.491990180264964744e-03,-3.426168753415711164e-03,-1.188983627596546791e-03,1.855207383632659912e-01
-3.357159668107984052e-01,-4.761928865139232747e-01,-3.410980504330587970e-01,-7.906176842093569357e-03,-7.422251621999868647e-03,-3.481500990952632324e-02,1.516433954238891602e-01
-2.736077448538989376e-01,-4.515475199865952582e-01,-4.286321601859688912e-01,-7.529675223518304990e-03,-5.165360940023804373e-03,1.404505134600776608e-03,1.684225946664810181e-01
-2.725974802716485401e-01,-4.527799832415936310e-01,-4.498981919984891276e-01,1.654600406220449633e-03,-2.383236633460589921e-04,9.686116058957404537e-04,1.787903457880020142e-01
-3.063949058935835912e-01,-4.758051272601687698e-01,-3.847415169489488140e-01,1.049605384756695800e-03,-5.190974113639539728e-03,-2.823555505463802920e-03,1.472187489271163940e-01
-2.728467338784490992e-01,-4.450094631932330902e-01,-4.444137594709974270e-01,1.589944759839813501e-03,-6.800183557057028552e-04,-9.555301782578108638e-04,1.718997210264205933e-01
-2.706054989186711945e-01,-4.482119229227971569e-01,-4.535390253429313900e-01,-1.610473898194863607e-03,-1.798684125085755169e-03,1.038476673731854360e-03,1.803864389657974243e-01
-2.741082079568663565e-01,-4.466237456043248288e-01,-4.467999677233216449e-01,9.512908185698233958e-04,-9.826040404789541591e-04,-6.464571925486598176e-05,1.726200133562088013e-01
-2.730348340943078433e-01,-4.485374639932535046e-01,-4.488709217615343694e-01,6.268498279857427549e-04,-1.256356817829068278e-03,4.173738931492104775e-04,1.756879091262817383e-01
-2.755135325987441708e-01,-4.383430466812515691e-01,-4.455631590620287019e-01,-1.062125058835226756e-03,-5.050972909603489679e-03,-6.367061167341889509e-04,1.668003797531127930e-01
-2.737073710504013269e-01,-4.683478672998045433e-01,-4.679895106406280481e-01,-1.057430008334464891e-02,-9.450363075260511184e-03,3.576695395353875467e-03,1.961047053337097168e-01
-2.764698970567472380e-01,-4.507335539964305027e-01,-4.355543837443954791e-01,-6.489401218945207994e-03,-3.230883616530510170e-03,1.420034156960467983e-03,1.676805168390274048e-01
-2.744379864108280609e-01,-4.503993929547269737e-01,-4.494864910369735789e-01,6.894216781310294200e-07,-7.234699445178275788e-04,-6.521148230805648297e-04,1.755148470401763916e-01
-2.744902353485423330e-01,-4.534336909352987832e-01,-4.516310699191131706e-01,2.033481687264238318e-03,-1.888633298210879189e-03,1.295857852228044730e-03,1.781280040740966797e-01
-2.731921004241466555e-01,-4.485752993189678350e-01,-4.493678780730134825e-01,3.076446565862230921e-04,-8.144998440618575128e-04,4.234177971410753587e-04,1.757888197898864746e-01
-3.185872428830502368e-01,-3.313785111868222666e-01,-4.627079550844156453e-01,-1.392609905916291149e-02,-4.107565607119774247e-03,1.701504813666800814e-02,1.434986740350723267e-01
-3.094239595465379522e-01,-2.960257217382792905e-01,-4.712257817280785521e-01,-4.893223735482003095e-02,5.030188952973062115e-03,1.621430110286480736e-02,1.912456899881362915e-01
-3.047883243131878084e-01,-3.230487705241700813e-01,-4.584660667560029323e-01,-1.829921090890310534e-02,7.537439701444609806e-03,-2.198327935599314609e-02,1.541716009378433228e-01
-3.164928629956003658e-01,-2.988268528091080345e-01,-4.717434043526820830e-01,-3.366709788823708804e-02,1.717873910097164050e-03,4.356964368610845295e-02,1.904250234365463257e-01
-2.916945937385761467e-01,-4.941349574853691196e-01,-5.011367443302684466e-01,-1.604705135469537691e-02,3.309082929595040241e-04,-1.197016976149056517e-03,2.079079598188400269e-01
-2.726699987751948218e-01,-4.519648089824191972e-01,-4.505812101858235330e-01,1.243880343664285557e-03,-2.019476450410421554e-04,2.182345796324071602e-04,1.786207705736160278e-01
-2.713136252747552213e-01,-4.504415594028438052e-01,-4.509518386409362423e-01,6.000963760931306464e-04,-1.241023525467542261e-03,-1.242620904145039110e-04,1.793996393680572510e-01
-2.711012114583176147e-01,-4.466700532842385885e-01,-4.423141610236562271e-01,5.392903700225263296e-03,-4.292837146444098036e-03,-2.063959709817419878e-03,1.738791167736053467e-01
-2.707587118139866966e-01,-4.548804728787310681e-01,-4.536468920415969164e-01,1.656843866558290043e-03,-1.717985519551905619e-03,2.081106065478568741e-04,1.835549920797348022e-01
-2.707343026827300769e-01,-4.516574729951082223e-01,-4.512773861682973786e-01,1.269096758577462286e-03,-9.316410713459708859e-04,-2.124779175901962680e-04,1.807543784379959106e-01
-2.718517657076762184e-01,-4.472938722232057129e-01,-4.508552402653110969e-01,3.494974735904345792e-03,-4.327276774776779751e-03,-8.944052256333973007e-04,1.775180250406265259e-01
-2.919693418338124014e-01,-4.307613991070551873e-01,-4.316910965155788538e-01,9.715796047642686955e-04,-3.039537447469564582e-03,-1.235561501672923510e-03,1.393852978944778442e-01
-2.724432296601084214e-01,-4.464855197292147970e-01,-4.491428722465008461e-01,4.337907475393362050e-03,-4.621943567719628138e-03,-1.256698003054748398e-03,1.757428497076034546e-01
-2.711863010051474010e-01,-4.468770539780265727e-01,-4.475990471480362776e-01,7.902075957772952469e-04,-1.340978975239409893e-03,-5.724842203681915253e-04,1.760762929916381836e-01
-2.781845556293507937e-01,-4.350172499684719085e-01,-4.315062591632284894e-01,4.828215272878553371e-03,-2.899087883677739334e-03,-2.008217062336027040e-03,1.554523408412933350e-01
-2.713593401725060694e-01,-4.541845675291913964e-01,-4.515197283644528103e-01,1.378574130630297410e-03,-1.047580784212493116e-03,2.445522477419318064e-05,1.815322637557983398e-01
-2.715446966525688621e-01,-4.543935465810300389e-01,-4.499284920005933719e-01,1.926762895922124299e-03,-3.619118141881095358e-04,4.789454444035081771e-04,1.806915253400802612e-01
-2.746513357332644456e-01,-4.636207038921605350e-01,-4.597442850571158424e-01,3.828062344769875974e-03,-9.175261730976807389e-03,-5.280988867353116544e-04,1.878544092178344727e-01
-2.751175608983071341e-01,-4.516057671081783464e-01,-4.441917427286160569e-01,6.210331392895089217e-03,-2.179141537881147499e-03,-4.765342349041909627e-04,1.732778102159500122e-01
-2.749343846865479613e-01,-4.591994563712867850e-01,-4.544995537380629447e-01,2.921645949904210903e-03,-4.104242787922582347e-03,-5.340197499508653493e-04,1.821721047163009644e-01
-2.767283138430600142e-01,-4.662333066303340212e-01,-4.587917662036957722e-01,1.106874989859585453e-03,-3.559272239479053385e-03,9.977693953999390488e-04,1.860160678625106812e-01
-2.716518416611449771e-01,-4.590627476795071660e-01,-4.572481122995440406e-01,1.341962099041846702e-03,-8.698777123816460975e-04,5.422157379800906368e-04,1.865331381559371948e-01
-2.706582850036594601e-01,-4.559109899848778347e-01,-4.522125241277062391e-01,1.270853146388956035e-03,-1.340712441515681851e-03,-1.673005522031980718e-04,1.834595650434494019e-01
-2.726728885790163370e-01,-4.580731811232858774e-01,-4.544752766738924254e-01,9.351024195813897530e-04,-3.518287668752051499e-04,3.182798716556250454e-04,1.836367547512054443e-01
-2.714086936069409206e-01,-4.615442693724827183e-01,-4.186211278343477948e-01,3.398171801546977407e-03,-8.951594517464135994e-03,-2.387703259954461737e-03,1.735651344060897827e-01
-2.704896569858658006e-01,-4.565462744679865681e-01,-4.524116756211852275e-01,1.210606162726044367e-03,-1.251409253989084740e-03,-1.027497115655547034e-04,1.840489506721496582e-01
-2.891989213017119864e-01,-4.407817033700445752e-01,-4.431151336946990149e-01,-2.109650046454169744e-03,-5.534382909024184935e-03,9.487346847561966374e-04,1.531157493591308594e-01
-2.728564537427302650e-01,-4.597375705757611453e-01,-4.552699944700585033e-01,2.680202176109066693e-04,-4.766351934030569628e-04,1.206295803294184720e-04,1.846904009580612183e-01
-3.147019436594364339e-01,-4.321062757496529905e-01,-4.453430254035587454e-01,-6.844513424944626348e-03,-7.787065850670912316e-03,1.337855042921128924e-02,1.279549002647399902e-01
-2.720977514341156311e-01,-4.608275954512486283e-01,-4.579978055865012165e-01,4.498281885306283276e-04,-1.364478273090519080e-03,1.624863083338361878e-05,1.873475164175033569e-01
-2.968189494502627701e-01,-3.946161587793501346e-01,-4.164174752268537949e-01,-2.346884064106111081e-03,-5.693938323847193804e-03,1.074974934011074454e-02,1.123928725719451904e-01
-2.719110131538436947e-01,-4.590209850284362458e-01,-4.539455139916545034e-01,-3.883466907577760364e-04,-7.272256436030835516e-04,-2.450514248786758980e-04,1.846305727958679199e-01
-2.726338676792235960e-01,-4.603495881875945828e-01,-4.572059019729934892e-01,-1.482082336461885931e-04,-1.446358653098350809e-03,-5.754548686671348426e-04,1.861834824085235596e-01
-2.733481671978030825e-01,-4.614010708137113448e-01,-4.586166619755902563e-01,-1.976394675869354214e-04,-1.296645399135690126e-03,-2.210436247201163270e-04,1.866904944181442261e-01
-3.334159524456298818e-01,-4.798586951447438853e-01,-4.349955821282472934e-01,-1.725145182610737793e-02,-2.943378907172845144e-02,3.389469198965708308e-02,1.543591022491455078e-01
-2.677868140292218868e-01,-4.523809047403051786e-01,-4.387072028045478911e-01,-3.537840673271543980e-03,-7.246360144264811336e-03,1.163934452276901626e-03,1.787092834711074829e-01
-2.727605927986506695e-01,-4.577066290252412295e-01,-4.531858250574610225e-01,-1.177521941860219324e-03,-7.359903070464638352e-04,-2.894320400373953314e-04,1.827441006898880005e-01
-2.941033856812104164e-01,-4.105199644655423974e-01,-4.273506248972888666e-01,-2.444171554318476294e-03,-7.036949791631644593e-03,8.025335053773469812e-03,1.271029263734817505e-01
-2.743999887312821295e-01,-4.051820597397444712e-01,-4.164480295186706593e-01,-8.574028166161177730e-03,-1.231498630629330147e-02,8.724977646739654966e-03,1.400291174650192261e-01
-2.709264573137881715e-01,-4.560154012536480894e-01,-4.525591410518292057e-01,-1.278416808925813587e-03,1.503888129745724897e-03,-3.192699884342955216e-04,1.834179461002349854e-01
-2.719354184915865891e-01,-4.581721890776102590e-01,-4.556525964212564950e-01,-9.942274395973442914e-04,-1.461983333896271775e-03,-4.758931565708372064e-04,1.850170195102691650e-01
-2.733867532485127483e-01,-4.563970500198121782e-01,-4.516232851991594521e-01,-1.969448614877288787e-03,5.352210820586610854e-04,5.560306288250796815e-04,1.807078719139099121e-01
-2.721537421948809210e-01,-4.549694542042458933e-01,-4.525751749057223550e-01,-1.241333193214368613e-03,-6.581843679631182260e-04,-3.631145568432706243e-05,1.816467195749282837e-01
-2.777490510962931647e-01,-4.585653296002942803e-01,-4.647078009644142749e-01,-6.445379665436081450e-03,-7.406824281875623757e-03,-2.241176322198854941e-03,1.847895979881286621e-01
-2.719006510943219324e-01,-4.557456129842323844e-01,-4.546352588579221088e-01,-1.570709143942134248e-03,-2.192610406580365080e-03,9.939805310196549182e-05,1.833519190549850464e-01
-2.748168895815732427e-01,-4.531969020104105184e-01,-4.486235306088321995e-01,-3.579499738108595820e-03,1.379170363951229489e-03,-7.613176255442653828e-05,1.762631833553314209e-01
-2.694528923626178241e-01,-4.500077719022932410e-01,-4.484649590899231764e-01,-7.578723275315675523e-04,1.519173453906094750e-03,4.048488473920494715e-05,1.798124909400939941e-01
-2.718148744776796022e-01,-4.538892884907156922e-01,-4.511526495436234407e-01,-1.294540206349046197e-03,3.117457825483817713e-04,-4.622326606828436275e-05,1.807363629341125488e-01
-2.715287434589934157e-01,-4.514731444725612608e-01,-4.500675165739939088e-01,-1.100722505754709538e-03,4.471882303388451129e-04,1.160211592786337183e-04,1.792576462030410767e-01
-3.097833367312512465e-01,-3.601312677027067033e-01,-4.525818647130832040e-01,-1.829832050483105182e-02,-1.534124932094969775e-03,6.218644325466708873e-03,1.298625618219375610e-01
-2.797712142411347691e-01,-4.592222350744136206e-01,-4.646844029465729831e-01,-7.409621695304183069e-03,-6.167217841366925794e-03,-2.429714624176188952e-03,1.830552369356155396e-01
-2.908320212278940886e-01,-4.065302908824006134e-01,-4.534516505114414842e-01,-8.803844861408435807e-03,-1.000911431379387755e-02,4.017417539108918655e-03,1.469622850418090820e-01
-2.729009246480873507e-01,-4.497383228257021415e-01,-4.478924910765296752e-01,-1.274504327320753489e-03,-2.867953643192430215e-04,-3.108038384079618295e-04,1.759371161460876465e-01
-2.719822573008160438e-01,-4.532125643818951666e-01,-4.536715760087464688e-01,-2.624573433517646097e-03,-2.978131915112250047e-03,-3.449161858107654445e-04,1.815914362668991089e-01
-2.707845865883681813e-01,-4.462927886821587142e-01,-4.556652227609491734e-01,6.403791597364781596e-03,5.178369917864955423e-03,6.504866691163060152e-04,1.809437870979309082e-01
-2.777309026629720123e-01,-4.413816114695632287e-01,-4.505881582151036180e-01,2.446762252500183309e-04,-5.654888435578145009e-03,-1.022130783629144864e-03,1.687371283769607544e-01
-1.777770447832655865e-01,-3.867732236358545350e-01,-1.445257489172055432e-01,-3.277944545549688060e-02,1.000939507874534368e-01,-5.377878869100253395e-02,3.060895204544067383e-01
-2.907744354691762512e-01,-4.665700526712417973e-01,-4.658203326824129076e-01,-2.424970606624352997e-03,-3.053761997353111337e-04,5.768935342370766088e-05,1.754730641841888428e-01
-2.676111073300805332e-01,-4.559039232112586104e-01,-4.505421008381485515e-01,-9.597907005189859966e-03,1.000316698831385000e-02,-3.476335655127280218e-03,1.873129606246948242e-01
-3.343032242881022187e-01,-2.881025071344692767e-01,-6.282387107562219519e-01,-9.399702382233812714e-02,-1.514035171306520045e-02,7.163847981700273426e-02,3.803982436656951904e-01
-2.916605149703380140e-01,-4.288769229468565869e-01,-4.787254871775522558e-01,-2.405016486291667362e-03,2.800615871199482135e-04,9.603569043691698214e-04,1.678499877452850342e-01
-2.947559661671895759e-01,-4.707050931739578670e-01,-4.686642973110612953e-01,2.426797422584993542e-03,2.165864943830280841e-03,-1.649581702043126982e-03,1.750516742467880249e-01
-2.806626278147452691e-01,-4.466852851761692889e-01,-4.521252058587677536e-01,-1.060312594389156053e-03,3.155739548851707425e-03,-1.173135499097094228e-03,1.689190417528152466e-01
-2.446915598736908448e-01,-3.362708793291394049e-01,-4.109235815311788054e-01,-4.374899815136046310e-02,-2.572105781819809117e-02,3.000889608600178921e-02,1.767050772905349731e-01
-3.090507049818735918e-01,-1.826740979730426262e-01,-4.212227372543485560e-01,-1.364779765572524464e-02,-4.184294379810414577e-02,-9.795509547732578204e-02,2.780762910842895508e-01
-4.094644158491826946e-01,-2.486303765757965079e-01,-6.566331299017533762e-01,-8.387487993326309121e-03,6.660151274903698335e-03,-6.634277190170789762e-02,3.745147883892059326e-01
-3.163442434649047508e-01,-4.653769357091307457e-01,-3.466393220002886300e-01,8.697194775210071371e-04,4.891786147939426732e-03,1.584981031355756423e-02,1.394320130348205566e-01
-2.650207054032248655e-01,-4.010438150447693806e-01,-1.681121037099929383e-01,-8.554403511842436844e-03,3.111097867833300529e-02,-7.777260379455264161e-02,2.496884465217590332e-01
-2.808159780579809750e-01,-4.202802575204582780e-01,-4.539172553901028029e-01,3.235215332047646376e-03,-5.041357545680656693e-03,-4.449756383665142865e-04,1.593145728111267090e-01
-2.864557910412796060e-01,-4.425809611091685025e-01,-4.467724733032220064e-01,2.071977675085206506e-03,-5.929763280755775620e-03,-1.827232885517570326e-03,1.586676388978958130e-01
-3.164396512015362761e-01,-4.541128434195225161e-01,-3.761775896183093826e-01,2.914779740457903914e-03,7.450089609032488087e-04,7.445474770018794056e-03,1.203813701868057251e-01
-2.763595622289358178e-01,-4.630341015198479737e-01,-4.616788077253870526e-01,-1.930630161367543696e-03,2.109462892365155610e-03,8.941532359969712757e-04,1.860729753971099854e-01
-3.798598521945021345e-01,-7.011733453136577143e-01,-7.917934337372843911e-01,1.829142722828678014e-01,3.670241580554860911e-02,4.874799979060998045e-02,5.021105408668518066e-01
-1.747342975856243930e-01,-4.785677357724813508e-01,-4.569301322707295387e-01,5.015143291060358832e-02,-5.792538857731968638e-02,-6.023815536977768746e-03,3.223803937435150146e-01
-4.293686467558849307e-01,-4.123777744466243789e-01,-7.575330677381904021e-01,-1.619370370957743666e-01,1.507400592138334258e-02,-1.507732998964929870e-02,4.399895966053009033e-01
-2.997678557405984989e-01,-4.053581011914379473e-01,-4.464986754444592587e-01,1.115874863373736946e-02,-9.149382030184519121e-03,-1.285655154435950617e-02,1.353013217449188232e-01
-2.751358044436484906e-01,-4.517924342219907796e-01,-4.783017263284000675e-01,-2.622857989094927803e-02,-2.611721965459310162e-03,-4.529021939994225731e-04,1.966678500175476074e-01
-3.073966281882256624e-01,-2.738246600925982044e-01,-4.727311217126429210e-01,-6.097201094591284815e-02,2.530939034051291059e-02,-1.052248919076794326e-01,2.833804190158843994e-01
-3.113453367289763518e-01,-5.575268851415222660e-01,-5.547557526217880008e-01,-1.500236949271779516e-02,-7.465537946372249184e-03,-4.083899358213747936e-03,2.466237694025039673e-01
-4.142464122590935882e-01,-2.772464079673478410e-01,-7.125396130845733644e-01,-4.829099853027153666e-02,-8.200124419997949221e-03,5.733542188490393932e-02,4.070305228233337402e-01
-3.115638766650146718e-01,-4.730235334797868174e-01,-4.724482765821781394e-01,1.616204909750002970e-03,4.048637015101400603e-04,7.394544470633361783e-05,1.611986756324768066e-01
-4.178382864559453957e-01,-5.772786117871420153e-01,-6.058715428692096339e-01,1.109213657288655591e-01,-9.384319128455735626e-02,-1.390244407675096106e-01,3.900144994258880615e-01
-2.903223166928498022e-01,-4.264573712649288861e-01,-4.633528989612616389e-01,4.618549381522433876e-03,-8.357716238567031858e-03,-3.012647532821109524e-03,1.588004529476165771e-01
-2.921532641039746303e-01,-4.289916456937042932e-01,-4.749441595246327030e-01,2.508911601623678780e-03,6.670239524081902774e-04,2.417276172889057937e-04,1.647569090127944946e-01
-2.719249061866190198e-01,-4.451882969599114115e-01,-4.473748993252573136e-01,2.452152084642243279e-03,-3.273148367851037421e-03,-5.621614101544135118e-04,1.745135188102722168e-01
-2.735807954477897375e-01,-2.514772340631710179e-01,-4.575164916723550856e-01,-6.951466418629261013e-02,-1.951243834919896836e-02,6.926286138075539445e-02,2.615676820278167725e-01
-3.793053840426001688e-01,-3.565757463363398161e-01,-6.934155661567236173e-01,-1.113778440254241664e-01,1.433984408836646782e-02,-3.851138524511316802e-02,3.854903280735015869e-01
-3.193799861027907805e-01,-4.548851973655331782e-01,-3.728264167082411817e-01,-3.535892017238965145e-03,-8.384262499509764462e-04,7.199942471785408457e-03,1.190422102808952332e-01
-3.018332911505569038e-01,-4.161125764825450157e-01,-3.932539070929285674e-01,-8.783875564647500647e-03,-1.272879544265929745e-02,2.541018627730625562e-02,1.167243346571922302e-01
-3.055266126214473688e-01,-4.274711802074485090e-01,-4.197663553531056913e-01,3.473525934054131226e-03,2.887374851590399603e-03,6.259692697230215264e-03,1.190337687730789185e-01
-3.959386511666315167e-01,-6.870111090688969524e-01,-7.030244590592642506e-01,1.573106102539115758e-01,-1.115434613947039327e-01,-1.013696569227422045e-01,4.816988408565521240e-01
-3.089246907262197528e-01,-3.539130586622559194e-01,-4.640898077400683608e-01,1.070266247786671489e-02,1.659730563954112028e-03,1.308362759761838925e-03,1.395585238933563232e-01
-2.791450493343580197e-01,-4.305110046567360849e-01,-4.080191602198174339e-01,-1.186178850784850268e-02,-1.029632671800390781e-02,5.735354623326935006e-03,1.444017589092254639e-01
-3.092489451003843648e-01,-4.181394687348123362e-01,-4.228258953565035005e-01,-4.283359414871512724e-04,-9.971079572825530379e-04,1.335074064855700134e-03,1.113476380705833435e-01
-3.024088868865681956e-01,-4.726648305179049769e-01,-4.718363484938759567e-01,-2.268057898676262014e-04,1.449900870213709312e-03,-1.607635153505319078e-04,1.698624640703201294e-01
-3.059657513638677773e-01,-4.198364056188128024e-01,-4.186492174165600821e-01,-9.769195068063062613e-04,-5.296292919221742531e-04,1.549353742908348612e-03,1.133298501372337341e-01
-2.717302597772601747e-01,-4.519312737574566752e-01,-4.596013185335366402e-01,4.565214540195442253e-04,-1.443092204869074165e-03,1.623658905219529534e-04,1.841747462749481201e-01
-3.142528620107465365e-01,-3.854038495584420354e-01,-4.741735688931125181e-01,-2.241128376628976487e-02,7.638479440812256374e-04,3.739027573429124299e-03,1.442534774541854858e-01
-3.263983764190475645e-01,-4.881673892683042748e-01,-3.246929353041825839e-01,4.352644136938518815e-03,-2.154212775702123487e-04,4.270962812029184541e-02,1.788220405578613281e-01
-1.929392041516949652e-01,-4.803666898556427367e-01,-4.974515230999758675e-01,5.924372867540574072e-02,-4.675496733091454027e-02,-2.518037236530261055e-02,3.268131017684936523e-01
-3.095094174568094325e-01,-4.268266016209891212e-01,-4.224845308863772742e-01,-2.751099968972697558e-03,-5.295717679304288300e-04,1.603584766021009123e-03,1.153431311249732971e-01
-3.072435356170694076e-01,-4.170098177338401046e-01,-4.175180062989899410e-01,-5.703485767362414822e-04,-1.173876105214175392e-03,2.262452251987069531e-03,1.101142242550849915e-01
-3.116827415685585745e-01,-4.139864716540845313e-01,-4.264940225098380888e-01,1.748474371246751355e-04,-1.749898439908375951e-03,3.205283973862579298e-03,1.092801913619041443e-01
-3.085747897141073448e-01,-4.269537777121853450e-01,-4.216422350215789927e-01,8.202827153028842844e-05,2.775082856636884370e-04,3.793644979258486895e-03,1.160019338130950928e-01
-3.237286167735082820e-01,-3.862375954185762739e-01,-6.095617533437481805e-01,-1.188227543835591316e-01,5.146345315343739055e-03,7.597857691410668524e-02,3.570644855499267578e-01
-3.259180340289951072e-01,-3.852056987516533915e-01,-4.918157406571612156e-01,9.323495880880584841e-02,-8.524427905261808269e-02,-1.112360644695568473e-01,3.258831202983856201e-01
-2.773663164721928420e-01,-4.635309996165650759e-01,-4.704524125117424127e-01,-8.305883972546161675e-03,5.211184636299068772e-03,-1.242364089755830514e-03,1.904909014701843262e-01
-2.118540840896167843e-01,-4.062285864976293848e-01,-4.530205169022361589e-01,7.660943724303853619e-02,4.574242557722298791e-02,2.295338124416629322e-02,2.730032801628112793e-01
-3.106797904762971241e-01,-4.744291327282023074e-01,-5.466302125661313127e-01,-7.577053900572094935e-02,-7.391357324446463060e-03,1.781672623337954980e-02,2.493781298398971558e-01
-2.514637573184367314e-01,-4.459297230033811843e-01,-4.682655471198924335e-01,-3.281229546587925011e-02,-1.089775482135442800e-02,3.837842806329614786e-03,2.151508033275604248e-01
-2.995851360840829924e-01,-4.351572268468112403e-01,-4.185669994944255512e-01,4.643448347942453168e-03,6.619094059450603574e-04,2.938979786448835726e-03,1.284436434507369995e-01
-2.608190525411909766e-01,-4.540272062374340334e-01,-4.789250736850084733e-01,7.588018684428000926e-02,6.307931711430656008e-02,5.831710066809712989e-02,2.866580188274383545e-01
-2.866585386964290438e-01,-4.235069967841362804e-01,-4.350158212707413985e-01,4.129009498528575517e-03,6.675223616297266786e-03,2.164131907618555093e-03,1.436446756124496460e-01
-3.039630493839898251e-01,-4.069642399778642394e-01,-4.054306045326540597e-01,9.879898675020195361e-04,-1.678151169566660314e-03,1.167522036203833512e-02,1.042781844735145569e-01
-3.626487869827954569e-01,-4.603600393460984264e-01,-4.523227047133567269e-01,2.504875684602114738e-02,2.834737401962256209e-02,7.632621317079144041e-02,1.749195903539657593e-01
-2.776756296570712101e-01,-2.219885711175374754e-01,-3.604492863080919207e-01,-2.719569660244123763e-02,-1.315199034680822505e-02,1.229490958226299169e-01,2.502980828285217285e-01
-3.284307654547662381e-01,-5.124228300267691383e-01,-2.548707403810761551e-01,-5.379052313402531149e-02,1.022042516767524972e-01,-7.952322727692819060e-02,3.343468904495239258e-01
-3.001663079589662053e-01,-5.130437269950314239e-01,-5.599840737924686174e-01,-3.933942306457779287e-02,1.879040581727916496e-03,-4.515460761291337916e-03,2.494539320468902588e-01
-2.244116245568944512e-01,-3.310464568052680634e-01,-2.665492289664526115e-01,-8.553928723309521531e-02,8.726147282245809433e-02,-1.428287832570972193e-01,3.385971188545227051e-01
-2.731158404167083331e-01,-4.575227871445435301e-01,-4.393673713700841921e-01,4.254665724735941755e-03,4.966967863769466626e-03,4.618669375232513190e-04,1.763987392187118530e-01
-2.843176415333557028e-01,-4.187341761741089075e-01,-4.592786001981580268e-01,-2.207400768660243082e-03,6.237101032378562608e-03,7.451442748033857691e-04,1.590424031019210815e-01
-2.810901844799693627e-01,-4.377738677793068245e-01,-4.398787627716803650e-01,-3.235759481480681224e-03,4.417065104971768658e-03,-1.932911485933460835e-03,1.580669432878494263e-01
-2.728307254364131795e-01,-4.536873382617960804e-01,-4.504688267814984104e-01,-4.129350221717276864e-03,3.446053649660378582e-03,-4.478255393261349696e-04,1.795125752687454224e-01
-3.360669333532999015e-01,-3.222588634727706070e-01,-5.154583945574371384e-01,-5.308297335140530621e-02,-1.659153681928776268e-03,8.510774778917738065e-03,2.086335867643356323e-01
-2.961574556018781168e-01,-4.891502394849071012e-01,-4.896375576852511902e-01,4.229407238624391212e-03,-4.269421810326616377e-03,-1.208174342365588363e-02,1.946451961994171143e-01
-2.646323085990204271e-01,-2.665298799163771659e-01,-4.724972625340723709e-01,-1.043220500947162482e-01,-1.651282586408490960e-02,2.620052680857208605e-02,2.798994481563568115e-01
-3.050739903952944809e-01,-3.713726358188920162e-01,-4.328389935048767567e-01,-4.207118843594527535e-02,1.605360397505739903e-02,-6.733288604403507571e-02,1.786981374025344849e-01
-3.816204282169165518e-01,-2.135928048543392077e-01,-6.122339981635325223e-01,-1.905939346054726265e-04,4.775400081033993709e-03,-7.651414639741013768e-02,3.712103366851806641e-01
-2.964651043695127886e-01,-4.401362027494212237e-01,-4.461718258147390759e-01,9.557933158740084673e-03,-9.272048913931449365e-03,-7.115816669094616152e-03,1.490933895111083984e-01
-2.668229347053663325e-01,-4.399730102506578255e-01,-4.546683665805579810e-01,-9.367204034369424476e-03,-2.119844045187239327e-04,-5.113931219521016978e-04,1.816743165254592896e-01
-3.197518380645545943e-01,-2.722695119766525007e-01,-4.738206543288657757e-01,2.465332324984335216e-03,-1.480938196058630661e-02,-3.056917737329293422e-02,1.917991936206817627e-01
-4.150179680506125846e-01,-2.706061116141864620e-01,-6.530901873804085822e-01,4.540552513179221122e-02,-6.204017777268581134e-03,-7.040484363431642745e-02,3.648076057434082031e-01
-2.990607689187068097e-01,-4.289025692503470322e-01,-4.233259528937752258e-01,4.986093927667141490e-03,-1.856846828870917102e-03,-2.183151140324211814e-03,1.275348514318466187e-01
-4.398827558453981545e-01,-2.901042609933391914e-01,-7.052436276624457490e-01,-5.408904794495311003e-02,-2.724074331880682598e-03,-4.038667760542424129e-02,3.824757933616638184e-01
-2.933014699629948874e-01,-4.673371995650412170e-01,-4.670658933089388287e-01,2.956579061672127019e-03,2.108948080572142520e-03,-9.236152598847725825e-04,1.740213185548782349e-01
-2.852689120255897381e-01,-4.545678638698402718e-01,-4.234313144754886515e-01,-4.909727660508943561e-03,3.162890056094976986e-03,-1.730655818814094216e-03,1.564338505268096924e-01
-3.440704153999941117e-01,-1.974543114017743850e-01,-5.196922583919199035e-01,-5.658928966527308063e-02,3.117690628325632193e-02,5.648601531053890588e-03,3.011761307716369629e-01
-3.021903287214396383e-01,-4.084620846147888340e-01,-3.355424673301548588e-01,4.893140977907811835e-03,2.938861868068833039e-03,-4.828723998856730704e-02,1.263106167316436768e-01
-2.896845589088079542e-01,-4.317918058420744387e-01,-4.645584424104040044e-01,-3.526264635692898369e-03,5.777619141005182687e-03,-5.537182470668089196e-05,1.614371538162231445e-01
-4.398705234083253313e-01,-2.901106320135212746e-01,-6.968715289959239723e-01,-6.453743747470161440e-02,2.207203324388647137e-02,-3.909579816956616077e-02,3.814553618431091309e-01
-3.125864695531447301e-01,-4.302300591526018181e-01,-4.435375147392826567e-01,1.082817886982382141e-02,-7.936511858637963074e-03,-1.398633679464318484e-02,1.292679607868194580e-01
-2.960545931313959267e-01,-4.009134684410337601e-01,-4.196196164186244970e-01,1.261103452593306459e-02,-9.513995942729992078e-03,-2.187664410134190773e-02,1.244637891650199890e-01
-2.729384620561933206e-01,-1.523766906396955556e-01,-4.301150636685935336e-01,-1.492112535817715496e-02,-2.064227204809108984e-03,-4.501024274657103308e-02,2.548481523990631104e-01
-3.028050594545652063e-01,-4.834229392203475140e-01,-4.387915248302792781e-01,7.198059230715750899e-03,1.853785483497582404e-02,1.405597396296634320e-02,1.683230698108673096e-01
-3.246476765730423319e-01,-5.230451921367740287e-01,-4.038341291198962457e-01,-1.198243233004233216e-01,1.134810009189920338e-01,-1.127474590093379136e-01,3.869948983192443848e-01
-2.656040518138979012e-01,-4.469319556940096749e-01,-4.496682836686816120e-01,2.478551019055942866e-03,1.865399717970842291e-03,2.625838261027634100e-03,1.828469932079315186e-01
-3.095255635293843177e-01,-3.595459709144718241e-01,-4.635163722790813234e-01,-1.407814966754379789e-02,5.354039580630329948e-03,-4.021680938642785592e-03,1.387141942977905273e-01
-2.855378398243936244e-01,-4.578952946688386039e-01,-4.131684205549853162e-01,3.472750196522843714e-03,4.480175883307502965e-03,3.522154247140819525e-04,1.552267521619796753e-01
-2.715858169549308920e-01,-4.596154422194859146e-01,-4.546151168577327595e-01,8.966378869345180587e-04,-8.073070136920595312e-05,-2.982773673137237660e-04,1.855872571468353271e-01
-2.647954907756797094e-01,-4.945823418292673579e-01,-4.669183383875651350e-01,-7.957069207024475288e-02,7.714938826401930572e-02,-3.495407050831621232e-02,2.961864173412322998e-01
-2.696343015274700883e-01,-4.559383576587064391e-01,-4.455531203780099814e-01,-1.228585230037018867e-03,2.953643434267917353e-03,1.221092672161454436e-04,1.814193725585937500e-01
-4.233110691385584823e-01,-6.081300641028895004e-01,-2.893052984981510090e-01,-1.730273115173379048e-02,1.466123387153608600e-03,-1.383833642951524390e-01,3.677456974983215332e-01
-2.692162477956928646e-01,-4.526399113759764781e-01,-4.550636414142237851e-01,-2.934697210807538093e-03,2.470464829570407066e-03,-5.789619478096886054e-04,1.847696900367736816e-01
-3.667742736050630392e-01,-3.624535828050694519e-01,-5.529438681723217730e-01,-4.355018928752830282e-02,-9.813465910640721632e-04,-7.751182520198379722e-03,2.033596783876419067e-01
-2.532812354429708757e-01,-1.300280724932989518e-01,-4.178632155793993719e-01,-6.822762462113800275e-02,7.213051611254187728e-03,-2.800457495305568381e-02,2.811364531517028809e-01
-3.689299500172144586e-01,-3.361608962768585784e-01,-5.551008776988705096e-01,-1.109969314138185489e-02,-9.679722249394133362e-04,-2.214799369402732296e-02,2.089930474758148193e-01
-3.255726099858147760e-01,-4.934748307168817516e-01,-5.782043484038088543e-01,-7.272638783764141801e-02,-5.727415798720538083e-03,8.677960433173379298e-03,2.564921677112579346e-01
-4.179034310893983695e-01,-6.424525254241110206e-01,-2.826550242095562937e-01,-2.112783322914429246e-02,3.608286015208171660e-02,-9.561026227321005322e-02,3.629784882068634033e-01
-2.683030415725615181e-01,-4.487994494588064542e-01,-4.534042054046301673e-01,-1.666022252183340041e-03,1.243853510619782193e-03,-9.667404849121862551e-04,1.828854084014892578e-01
-2.872401268082799830e-01,-4.568642418313300091e-01,-4.261226501735014827e-01,7.127515752741629511e-03,2.858028242306356274e-03,1.265843278824391530e-03,1.571132987737655640e-01
-3.336944888278624011e-01,-3.097929668922661528e-01,-5.324887923769392462e-01,-2.292382663857888206e-02,-1.089772871062579624e-03,-2.043829447116135567e-02,2.183464765548706055e-01
-3.059979244560961931e-01,-5.355841117809793106e-01,-5.420268108468727641e-01,2.294439000023716646e-02,1.025984123571061987e-02,1.885770649819519963e-03,2.369309514760971069e-01
-2.964403549002985194e-01,-4.563800953896657298e-01,-4.301193701269024339e-01,-1.251533172512536880e-02,1.038737044434234584e-02,-7.963590197337718640e-03,1.518356353044509888e-01
-3.255991688044854726e-01,-4.325720873883921458e-01,-4.325144574947373810e-01,-3.266359771764691146e-03,-5.781786450837925716e-03,4.230689619963602655e-02,1.301497519016265869e-01
-2.694820587095086983e-01,-4.772847774406248078e-01,-4.693237400682220839e-01,1.556647093217386306e-02,1.410050995428524349e-02,4.913882165394626439e-03,2.073327749967575073e-01
-3.248347462288905252e-01,-2.769542097969838190e-01,-4.636659756602005134e-01,7.531471408269670154e-02,3.743858211554346171e-02,6.965713044818673538e-02,2.529667615890502930e-01
-2.712907379690709386e-01,-4.485539044045504520e-01,-4.575459894498027369e-01,-2.819792985426196157e-03,1.127123960187399266e-03,-1.660834535716453324e-04,1.820022016763687134e-01
-2.712768993257814731e-01,-4.525506668737747096e-01,-4.611081647119706917e-01,3.048243745047180594e-03,1.798415382918797621e-03,-6.881940170191812485e-04,1.858054250478744507e-01
-2.865056037248647214e-01,-4.668014175672354771e-01,-4.669098968058380539e-01,3.216206577112201443e-03,1.590820455469180335e-03,-1.344247451324292629e-03,1.804721504449844360e-01
-2.853657999469970674e-01,-4.659578467164257609e-01,-4.638436437240346377e-01,3.068384550699901001e-03,2.030875370249620154e-03,-7.757050614101896648e-04,1.796623915433883667e-01
-2.978878998168846826e-01,-3.602437939482721063e-01,-4.458648209763176329e-01,9.623333835780173776e-03,-1.021648861947203890e-02,-8.822619066535230745e-03,1.318433284759521484e-01
-2.758231026287598087e-01,-4.573281723613172867e-01,-4.621686435091965639e-01,1.591948672459034351e-03,3.027941585557357082e-03,-2.613030227485981460e-04,1.840690225362777710e-01
-4.035859206689532686e-01,-7.410565102743549293e-01,-6.680181756698325701e-01,1.104899067622928388e-01,1.384198749635256187e-01,8.718637052160133072e-02,4.598709940910339355e-01
-2.740802050941925083e-01,-4.612673821812454666e-01,-4.650466022282701006e-01,1.023555112982955234e-02,1.132797408387221233e-02,2.762800538443632280e-03,1.910050064325332642e-01
-2.855772509237321510e-01,-4.218797391447162148e-01,-4.240070755723883700e-01,-3.528737441388466681e-03,-6.587615125470565151e-03,2.993964816725495828e-03,1.380843669176101685e-01
-3.351439335670503561e-01,-5.136605590745737526e-01,-4.928439498070159575e-01,3.675643562378195367e-02,5.898669366348237297e-02,3.462239209416628077e-02,2.160391956567764282e-01
-3.021146920093991661e-01,-4.631480686466707963e-01,-3.175771123198361523e-01,-1.118070963207354156e-02,-5.053285540051325603e-02,1.607730799305270505e-02,1.802554875612258911e-01
-2.700510055484287575e-01,-4.536781946727324599e-01,-4.636746502322850461e-01,1.594774207361136092e-02,3.742183622018717404e-03,2.758351542504993217e-03,1.910034716129302979e-01
-3.180959096692334565e-01,-3.633130078894203363e-01,-4.542885378365428273e-01,2.714323210026460022e-03,6.200509165552601024e-03,6.105603739725638628e-03,1.211777999997138977e-01
-4.228467741216216380e-01,-4.086514147147088938e-01,-4.449423723559817190e-01,-2.365443694479495151e-02,-2.303355804700888201e-02,2.133252933519683703e-01,3.752287924289703369e-01
-2.871661766229667845e-01,-4.593647208867339682e-01,-4.171805095520882967e-01,5.517795703372341959e-03,3.927752170928993682e-03,4.174018330614106230e-03,1.560694575309753418e-01
-3.328244595291939278e-01,-4.497699842148212834e-01,-5.259023886604553555e-01,1.562017392855671594e-01,6.607669713060547456e-02,6.163167156688412196e-02,3.550584018230438232e-01
-3.045166635995047999e-01,-4.712089396214703685e-01,-3.835257925319159877e-01,9.152295304421159466e-04,-5.149955259805365920e-03,-9.426139171339282868e-04,1.447179615497589111e-01
-4.142036282160966310e-01,-8.050327418588273387e-01,-6.599682808190131533e-01,-1.005789451214940122e-01,1.672397602093357027e-01,-7.914480496838255386e-02,5.001431703567504883e-01
-2.679687543019509954e-01,-4.587176320246112438e-01,-4.642148320332826206e-01,1.590449205029188795e-02,7.964876846343107650e-03,-2.629051903292131502e-03,1.960455328226089478e-01
-4.157105351895536982e-01,-7.731461259096308325e-01,-8.732263545577971797e-01,1.781569860803111083e-01,-4.407328922330883830e-02,-4.167832152276341323e-02,5.289676785469055176e-01
-2.566103639891257338e-01,-4.014653120533497876e-01,-4.462080178139401498e-01,2.527495762775233690e-02,7.180432962494599260e-03,4.421307304732500706e-03,1.777522414922714233e-01
-2.987099879560427551e-01,-4.416126758355147786e-01,-4.018252215734909316e-01,-7.883658274792855122e-03,-3.414555002797773839e-03,5.088954146218866575e-03,1.289093196392059326e-01
-2.945208743289849940e-01,-3.523466581461222602e-01,-4.650027823136456129e-01,-5.404314122779853985e-02,-9.906767893030946417e-03,2.352073541266631873e-02,1.823889911174774170e-01
-2.731500916378358790e-01,-4.380877084833126323e-01,-4.533815989953082215e-01,3.879690400054319407e-03,6.365255792959517711e-03,6.569644280177222920e-04,1.735766679048538208e-01
-2.760878350202350395e-01,-4.603526041604751873e-01,-4.626095015792271448e-01,3.156445320363408455e-03,-1.954599710466503777e-03,1.280920628334432723e-03,1.855282634496688843e-01
-3.134487200986602051e-01,-4.788446869024125530e-01,-4.753770253763671128e-01,1.935829135516137830e-03,2.590504627815992645e-04,-3.411074322354307685e-04,1.637257039546966553e-01
-2.855898005171335075e-01,-4.634258367140565160e-01,-4.671993776122108644e-01,-8.596135085858282480e-04,-3.086302029019036275e-03,-2.084879673411390438e-03,1.798744052648544312e-01
-3.218738313649803784e-01,-4.840551310375247329e-01,-3.682888874860129613e-01,1.757647644855934044e-03,-1.825078409118391018e-02,3.342889605148578313e-03,1.482280045747756958e-01
-4.098731919898305209e-01,-7.099909635023879950e-01,-7.787786510944553209e-01,1.720818426805278689e-01,-1.072878951075154075e-01,-8.780044370756118211e-02,5.118028521537780762e-01
-3.195717356308792612e-01,-5.552885484998737464e-01,-5.530612567499453291e-01,7.293309721473098702e-03,-8.393622581690303452e-03,-1.588841729333326496e-03,2.354163825511932373e-01
-2.801608566650142795e-01,-4.701889557835001732e-01,-4.773038131185671218e-01,7.458510772071856761e-03,-8.191363461866250223e-03,-1.668057941730555650e-04,1.946319341659545898e-01
-3.310180492434108279e-01,-4.893812475696172615e-01,-3.590158332844540223e-01,-1.625248878585750520e-03,6.957890529545048865e-03,1.140554956653500387e-02,1.482308357954025269e-01
-4.192775437205573663e-01,-4.094557334467573417e-01,-5.688621809050803391e-01,7.596334402716661827e-02,5.146930187317330652e-02,1.747048255025648589e-01,3.751867711544036865e-01
-2.996706287367915111e-01,-4.513011282846284278e-01,-3.558215529395457599e-01,9.728502204621109969e-03,1.316814621779035903e-02,7.471184816334429379e-03,1.363896280527114868e-01
-3.300805701800175185e-01,-4.838095818939413539e-01,-3.681734835585321886e-01,-8.574805578237419332e-04,-1.794305557491313735e-02,2.157418136193070795e-04,1.421122699975967407e-01
-3.422974435971070095e-01,-4.832955071686055315e-01,-3.250187141900327537e-01,1.086021728059988114e-03,8.446150123796083986e-03,-1.911260653678152968e-02,1.546890437602996826e-01
-3.230949071082330204e-01,-4.842148796060629090e-01,-2.537025851077996386e-01,4.410348784189806540e-03,2.342861103234684592e-02,2.337212408441581568e-02,2.128362059593200684e-01
-2.739969756822695501e-01,-4.297419077292367606e-01,-4.638244388522443362e-01,8.644917129034973904e-03,2.034076563124025822e-03,1.237248160330092772e-03,1.759758293628692627e-01
-3.596053780065321392e-01,-8.570386466077875021e-01,-8.647038153425722351e-01,4.131016085739797061e-02,3.203457535541839873e-02,5.495604056693402864e-04,5.094218850135803223e-01
-2.923837499079627866e-01,-4.694766225773845947e-01,-4.723842597915698938e-01,-7.734811656942162852e-04,2.591299002621457771e-03,2.036598367909093089e-03,1.786606907844543457e-01
-2.941077027791502152e-01,-4.527921095496455495e-01,-2.847907833338647610e-01,-5.228169117593331298e-03,-3.104865346373748836e-02,4.522916730653928942e-03,1.725729554891586304e-01
-3.356718631734170732e-01,-2.816570041762630483e-01,-4.713962504058354375e-01,1.138189093812253319e-02,-4.962915828859211335e-03,9.177065672497996401e-03,1.714206486940383911e-01
-2.865468061439291336e-01,-4.672298264251673605e-01,-4.681833202201116650e-01,-2.408937284449366289e-03,5.290075516604366909e-04,1.043846791203173257e-03,1.812210232019424438e-01
-3.263091030073408394e-01,-3.782632139260675985e-01,-4.876310108737964555e-01,-1.386059433196551796e-02,-3.472045261954197475e-03,8.092461222422098546e-03,1.454359889030456543e-01
-3.089784881325993160e-01,-4.729299403887142761e-01,-4.734500059398068506e-01,-2.241442318968014176e-04,6.872397141973868838e-05,5.729040321389390275e-04,1.642156094312667847e-01
-2.777561736500250844e-01,-4.630045672429875525e-01,-4.641947977695741190e-01,3.748021435636506721e-03,-2.368179029578318297e-03,-4.697511379544825499e-04,1.860067248344421387e-01
-2.763169048461017185e-01,-4.633821188189908846e-01,-4.746576089111831376e-01,7.626588093493576713e-03,-6.370261320793492790e-03,-4.534897103161307161e-03,1.938755065202713013e-01
-2.894224976359961454e-01,-4.664341617113964000e-01,-4.275597685416845373e-01,-9.082875548875756280e-03,1.807483418252911608e-03,-1.671430172030462799e-03,1.619530916213989258e-01
-2.899398828143871509e-01,-4.719606436782819991e-01,-4.743482179756606243e-01,4.506146809328789686e-03,2.244611290979788096e-03,1.681386347236821753e-03,1.834566891193389893e-01
-3.077433642948272929e-01,-4.865894775310544151e-01,-4.876798560815712724e-01,-2.228888293177573414e-03,4.140673768195957463e-03,-9.840045767944465352e-04,1.795866787433624268e-01
-3.057009691372196691e-01,-4.526810082812791070e-01,-2.201940817487935131e-01,-6.310522494101645716e-03,-1.545015649319484959e-03,1.061222371611914295e-01,2.745811045169830322e-01
-2.722747425311246583e-01,-4.591903888348385365e-01,-4.546759705687028474e-01,-5.024927039287130619e-04,-1.952947430060747664e-03,-2.587125848463332268e-04,1.847333908081054688e-01
-2.750831666746803572e-01,-4.609437606734968496e-01,-4.614635128403086206e-01,-1.620397574289371412e-04,-3.345600386879280571e-03,-1.158656236072802678e-03,1.862222254276275635e-01
-2.694620931290511168e-01,-4.469544842797777418e-01,-4.577063463634969964e-01,2.668494655578829491e-03,1.632651842186906305e-03,2.820657191384233617e-04,1.831860393285751343e-01
-3.150044534406527541e-01,-3.337294309950529780e-01,-4.691438271058978593e-01,4.866106193854608398e-04,3.026714750286203619e-03,3.036767106904934236e-03,1.458738297224044800e-01
-4.151593199476981688e-01,-7.422653768566788157e-01,-6.398099919171096328e-01,1.004329006343357977e-01,-1.464613300331920054e-01,-7.904040314795265920e-02,4.442262053489685059e-01
-2.890892822369905968e-01,-4.679229502909387772e-01,-4.126027784842923873e-01,-4.621643785290081158e-03,-3.466384365949605560e-03,2.205636707587664645e-03,1.589446812868118286e-01
-3.399675621493476463e-01,-3.770749490475600041e-01,-4.938184682225406630e-01,1.155054328735860038e-02,2.980227430895811443e-03,7.030439273808210786e-03,1.411142349243164062e-01
-2.795890552941722729e-01,-4.657922986697721202e-01,-4.613155610367694615e-01,2.251310051336504782e-03,-3.088974338142860473e-03,-7.186208339792334379e-04,1.841289848089218140e-01
-3.711386219337027836e-01,-3.714159721082277432e-01,-5.138724292185512521e-01,2.003303116530852357e-03,2.614189497236838779e-03,5.875181747294357798e-02,1.752749234437942505e-01
-2.847239736703243151e-01,-2.696696158105906238e-01,-4.224046282708031619e-01,1.449943955814598021e-02,4.195070124559832463e-03,2.511234447741446732e-02,1.543718725442886353e-01
-2.730345808314176281e-01,-4.549001034817486966e-01,-4.600657858917613918e-01,5.291969619745356262e-04,4.791461722132387422e-04,-9.878575853898156943e-05,1.845068335533142090e-01
-4.502167193017712621e-01,-6.445591659116520766e-01,-3.269707228482620076e-01,4.030131753707832248e-02,-9.471999095760941234e-02,-1.075549036046975354e-01,3.786857426166534424e-01
-2.752676986262598269e-01,-6.969062454799836992e-01,-5.482506122226445955e-01,2.743103896280821644e-02,-1.399251363401918802e-01,4.570767220984726931e-02,4.521733224391937256e-01
-3.231587927681930372e-01,-4.700602761652364348e-01,-3.635324070119166362e-01,2.249982566182092292e-03,-9.853913356338639754e-03,-2.744598954204537870e-03,1.326959431171417236e-01
-3.121411301921250825e-01,-5.045709237993569740e-01,-2.917231414233147913e-01,-3.554039445570278313e-03,-3.854090292239224086e-02,9.673930534347889576e-03,2.148255109786987305e-01
-2.799774902290117495e-01,-4.480093116676219234e-01,-4.630914472844196439e-01,-1.274573348086157102e-03,-5.321606793945839187e-03,9.528288554785491844e-04,1.763207316398620605e-01
-2.848527598931477889e-01,-1.725835369147006582e-01,-4.742515692181318299e-01,5.880413437591255899e-02,-1.090837093916601636e-02,-4.462508058404445616e-02,2.940151393413543701e-01
-3.014306802219421377e-01,-4.312972123049883533e-01,-4.354831354277365341e-01,1.033671847945260127e-03,-6.951680854840262391e-04,-2.723648353598600007e-03,1.321111619472503662e-01
-2.800592631580665626e-01,-4.372502342082600357e-01,-4.373688628664005318e-01,4.709296866263086405e-03,-4.993930166224719476e-03,-2.431053573450750720e-03,1.577553302049636841e-01
-2.999970178553701405e-01,-4.181608273846564305e-01,-3.926309756956413710e-01,-2.748630065574423232e-03,5.266837985772229432e-05,-9.892144999189113677e-03,1.091512292623519897e-01
-2.731436727025844946e-01,-4.552547911311291551e-01,-4.600879067196030348e-01,5.240115449395032522e-04,4.765483354882848631e-04,-4.454611420197157265e-05,1.845792382955551147e-01
-4.163904629752992470e-01,-3.513129774059678967e-01,-5.267728572631567019e-01,-4.515461533471965688e-02,3.086287092670703808e-02,-2.051552143760063673e-01,3.985512554645538330e-01
-2.758923293899999685e-01,-4.034349470868366372e-01,-4.167355417802128814e-01,-1.319921277490676385e-02,1.572540984042837542e-02,-1.849419837976378975e-02,1.429372131824493408e-01
-3.135128406299530490e-01,-3.485681539572007548e-01,-4.508167588859091079e-01,2.503330968839910433e-03,-4.922971955940548885e-04,-7.936260344773937367e-03,1.244045346975326538e-01
-3.188003071690316270e-01,-4.592502706320121253e-01,-3.412094622685002965e-01,2.687438422111921698e-03,9.358361967146342983e-03,-4.370402144695023118e-03,1.319950819015502930e-01
-2.896361849972459712e-01,-2.826236321550590347e-01,-4.200610569780920400e-01,-4.492843965383061522e-02,2.906841484024626221e-02,-7.976583560909188131e-02,2.136651873588562012e-01
-3.002081861329051193e-01,-4.581416125391878369e-01,-3.840145352650453092e-01,-6.838705472778005591e-03,3.056230631372005516e-03,-6.735020429279659979e-03,1.379675865173339844e-01
-4.198896594399840199e-01,-5.059578936004456295e-01,-6.504876024681427449e-01,-1.113353831883993339e-01,5.616765769633844801e-02,-1.319650353952163679e-01,3.736728727817535400e-01
-3.053847877408350509e-01,-4.785678152738818691e-01,-4.756270230008223243e-01,-1.263316944554564777e-03,-5.557632145696117781e-04,-3.980555198122491490e-04,1.717495322227478027e-01
-3.140351990154030548e-01,-4.055676453341867660e-01,-4.417238749605094661e-01,3.755542863153816385e-03,-7.283592961449427208e-03,-4.719984135230182072e-03,1.151660904288291931e-01
-3.021432081121444568e-01,-3.920511574574128133e-01,-4.630058904045274426e-01,-3.531975966432401685e-03,8.089146569856811228e-03,-5.111734767247229014e-03,1.407463103532791138e-01
-3.136098009223340366e-01,-3.361049830640069347e-01,-4.622392695138421992e-01,1.298780099098041868e-03,-4.371051494332319799e-04,-2.366524568514631697e-03,1.388370990753173828e-01
-2.846765194947443733e-01,-2.957227169779503839e-01,-4.109198882421926102e-01,-1.545362315015437991e-02,9.378952016166272609e-03,-3.623384278265086300e-02,1.399425268173217773e-01
-3.012527570178196168e-01,-3.794066728211673012e-01,-4.832007529732078033e-01,-4.054360975806706180e-02,1.570957708513763193e-02,-5.041066977663019588e-02,1.956747025251388550e-01
-3.436540148613116408e-01,-5.747506770622654582e-01,-3.673348704654293972e-01,-5.592361921875717290e-02,1.263765084694336849e-01,-3.220642907048212183e-02,3.300016224384307861e-01
-2.759298461202955299e-01,-4.632994416066406052e-01,-4.648614175892528677e-01,-5.771970558105186380e-04,6.113330096474216789e-03,-1.643920810200196099e-03,1.884773075580596924e-01
-2.769604260089415515e-01,-4.316032377451314850e-01,-4.405430043043268573e-01,5.645312026051590125e-03,8.262624124154235167e-03,5.684079105184778290e-03,1.605432629585266113e-01
-2.953762923955270958e-01,-4.477457318354913784e-01,-3.881959817826799997e-01,-5.463225888345950992e-03,-2.637450418908080484e-03,5.540932239327653330e-03,1.337593793869018555e-01
-2.951445950462158185e-01,-4.759154474479012076e-01,-4.776760472383273504e-01,6.456614061739199750e-04,1.283587387802619757e-03,-1.062964059666288413e-03,1.816839277744293213e-01
-3.128003018953925407e-01,-3.619635931984156452e-01,-4.631051006608715714e-01,7.922707400446196355e-03,-4.018197959420560621e-03,-1.070616284722432886e-02,1.349062472581863403e-01
-2.868717507889724239e-01,-4.314575833863659171e-01,-4.445622489686552603e-01,-1.866818124421225616e-03,-5.656033350009853980e-03,2.919441160999987264e-03,1.519984900951385498e-01
-2.900635754387938525e-01,-3.624034414724134345e-01,-4.515261379392762064e-01,-4.130708922577613559e-03,-4.388436061003380198e-03,5.406012392644068271e-04,1.404737532138824463e-01
-4.215827666636494109e-01,-3.821813227837989047e-01,-7.016945112510095672e-01,-1.441241798758430559e-01,-2.936532137275475046e-02,7.299579750287213398e-02,4.146556854248046875e-01
-3.176092404991188167e-01,-3.510101008081363827e-01,-4.695508531735884672e-01,1.045291022327467408e-02,3.397614831884434141e-04,-1.939153580730055768e-02,1.434681862592697144e-01
-3.137979405229006091e-01,-3.744506428892414029e-01,-4.561030388950141345e-01,8.396428179757371366e-03,-5.347790622902569638e-03,-5.595954061802738480e-03,1.252579092979431152e-01
-4.177857482701272662e-01,-3.510399712072290179e-01,-5.642074882714104289e-01,-6.805924001252852684e-02,3.530301358791665400e-02,-1.670321583640078378e-01,3.701373636722564697e-01
-2.712884441957913451e-01,-4.197272337216789162e-01,-4.580769642928059771e-01,9.228987470750602690e-03,2.340618435249069897e-03,1.560606917140699729e-03,1.716875880956649780e-01
-3.249915883251913162e-01,-4.167321671356288282e-01,-4.060559694334832104e-01,3.131388504083094243e-02,-2.741620094092749385e-02,-5.468376891761525527e-02,1.473717838525772095e-01
-2.580127901672760737e-01,-4.778327565728625603e-01,-4.463054925851703270e-01,-1.748633078024887030e-02,-2.794603826774968297e-02,6.944067305687123565e-04,2.136496454477310181e-01
-3.052774914274272167e-01,-3.745140962738945922e-01,-4.370501306430001898e-01,-2.219404532264600792e-03,6.318030899537021780e-03,-1.291218260746162562e-02,1.169142797589302063e-01
-2.787078607044895517e-01,-4.633039340024839858e-01,-4.622778018850892123e-01,-2.760007345185660523e-03,-1.270403849951744647e-03,-6.772702955545830848e-04,1.841640919446945190e-01
-2.792034451756205127e-01,-4.430593997820526653e-01,-4.533033307285317948e-01,-7.312265935762446564e-04,-5.942652865843832052e-03,3.910771686669305570e-04,1.695294976234436035e-01
-2.840038064656098538e-01,-4.668767788384194928e-01,-4.686890259117295066e-01,-4.740995242723129157e-04,-2.187889391707710258e-04,1.523683881546516626e-03,1.838069707155227661e-01
-2.779053273730347495e-01,-4.648792173790335380e-01,-4.649995530718799563e-01,-2.736373876912463060e-03,2.089787113493897074e-03,1.047971870757913012e-03,1.871379464864730835e-01
-2.741742300560843226e-01,-4.601037228551713709e-01,-4.617166429692359242e-01,-3.072936784945244724e-03,1.999680480160670112e-03,9.392646689007856566e-04,1.868561953306198120e-01
-2.896413623978270069e-01,-4.246119822984604220e-01,-4.623233529281394749e-01,-3.617370578086785433e-03,9.087106680189121349e-03,-1.759653206143954032e-03,1.581942290067672729e-01
-2.507454856857302961e-01,-3.103841044239464275e-01,-4.311340362334965537e-01,-5.354096062329111172e-02,3.944383017647187621e-03,-2.107419835864671881e-03,1.843870133161544800e-01
-3.147588479170675413e-01,-4.706280977345992378e-01,-3.328826215001375877e-01,8.802374435705370400e-04,-2.911073256818873158e-03,-3.326679854732352525e-03,1.478502750396728516e-01
-3.160990677649921365e-01,-4.726773739046175593e-01,-3.238745113586161684e-01,2.682751343839110108e-03,6.213501265197296161e-03,-1.932246242969410527e-02,1.568988412618637085e-01
-3.220921115028216875e-01,-4.947441692236809185e-01,-3.877286976910860328e-01,-3.438709612699256644e-03,-2.544346344949136030e-02,-7.742838060439066229e-03,1.579304933547973633e-01
-3.496894395588272531e-01,-5.605545594581984314e-01,-3.674451105895631953e-01,-5.734813652261632790e-03,-5.329826385908336545e-02,2.967329248718768124e-03,2.228957265615463257e-01
-2.931611842742340990e-01,-4.206440942871403355e-01,-2.367316794322245899e-01,-2.495780616922136860e-02,-4.303759949406018442e-02,1.117794607753648528e-01,2.674683332443237305e-01
-2.886519212837093673e-01,-4.675943941799118875e-01,-4.669544775045563201e-01,-1.472193030654190670e-03,-2.574085936146706423e-03,-5.288169163230568067e-04,1.786995530128479004e-01
-3.006975152804569618e-01,-4.709769012213637085e-01,-4.694886597531479078e-01,-2.366218462218188105e-04,-1.368557010155185350e-03,-7.023481254061804402e-04,1.695615947246551514e-01
-3.134970072063771873e-01,-3.414788069907238599e-01,-4.564194106464696254e-01,8.890678781048724560e-04,1.654688559199110707e-03,-1.051292914554052826e-02,1.324866712093353271e-01
-3.492033644236202106e-01,-5.186982702144589119e-01,-3.550339771616579099e-01,-8.454241485495306643e-03,1.532287617586224580e-02,-2.273379924575103395e-03,1.694360077381134033e-01
-2.773870395315131132e-01,-4.323292176729451874e-01,-2.563813136112493840e-01,5.483233485435759849e-03,-2.138827807078126642e-02,-2.091401575462309079e-02,1.745787858963012695e-01
-2.855556782192697485e-01,-4.648890216077523063e-01,-2.541472011292769118e-01,-2.252352665435917740e-03,-6.687666116756729728e-02,3.340260330041098374e-02,2.357104420661926270e-01
-2.727660562475667239e-01,-4.499946796505385760e-01,-4.519440742949368817e-01,1.867867734067642064e-04,1.247963460464689318e-03,-3.382570054362313912e-04,1.782256811857223511e-01
-3.148633541532501745e-01,-3.390271175895427369e-01,-4.646700900530256750e-01,7.355478477560062605e-04,2.826365469464378350e-03,3.412579300784580622e-03,1.395226716995239258e-01
-2.704688516246450680e-01,-4.519580308076336372e-01,-4.559739884614770200e-01,1.622333750250162234e-03,1.058498532902966928e-03,-8.225016763354103431e-05,1.835608333349227905e-01
-3.126662482553108635e-01,-3.942549402074782550e-01,-4.419706501433807722e-01,5.316016759485289153e-05,3.566104473953584774e-03,-7.140108555706252760e-03,1.140950024127960205e-01
-2.962257072322682649e-01,-4.135543041029148270e-01,-4.355089240770314007e-01,-2.158934025901695659e-03,7.606797929615102122e-03,-6.809805309791443738e-03,1.309603154659271240e-01
-3.162575514578593872e-01,-3.461965693376434228e-01,-4.670477822700923043e-01,-4.881214713145197448e-03,1.595002996703878597e-03,-5.788590395489310279e-03,1.389214247465133667e-01
-2.886615103016680339e-01,-4.518409589232480483e-01,-4.043636834746656694e-01,1.113814075632303668e-02,-1.082402135529103755e-02,-6.120641530393733723e-03,1.482239812612533569e-01
-3.064012234161577752e-01,-3.578847276933005972e-01,-4.486750118263433396e-01,1.111999324237284044e-02,-7.178533972229249327e-03,-3.441646672802121942e-02,1.401665657758712769e-01
-2.901908726916321291e-01,-3.347341767771006005e-01,-4.468071048923976107e-01,1.790313452049332316e-02,-1.269341592576596735e-03,-1.749410613265616962e-03,1.432205587625503540e-01
-4.378680444813561334e-01,-2.880820794706602239e-01,-6.876249922027093398e-01,-4.736991437582786790e-02,6.048781863767332435e-03,-5.619658548408675708e-02,3.722097575664520264e-01
-2.757041365308642300e-01,-3.844863107239450684e-01,-4.461488373199914426e-01,4.269598100388242307e-02,1.845774290979215054e-02,2.112666411765455957e-02,1.737052798271179199e-01
-2.900664438361725272e-01,-1.653478046336037122e-01,-4.074856512239217188e-01,1.513459349155859765e-02,-1.885398015303252350e-02,-1.152605250045064533e-01,2.925660908222198486e-01
-4.147647225142156446e-01,-4.108332110436084261e-01,-5.336088149393598545e-01,7.896778755548870821e-02,-4.463425911404495655e-02,-1.907026236755200166e-01,3.852187395095825195e-01
-2.789708443536531579e-01,-2.702620300985700275e-01,-4.461587369733855946e-01,-6.011044141922892298e-02,-2.792024886234462100e-02,6.948592652893724464e-02,2.390542626380920410e-01
-2.707471292082335168e-01,-4.572182757200320413e-01,-4.596179678850558781e-01,2.404019490156551926e-03,-1.134494435115146384e-03,1.628972774215619961e-04,1.877391785383224487e-01
-2.962872544905141292e-01,-4.905400312267684804e-01,-4.844508978170746771e-01,-1.489340011401834793e-03,-4.856195410430275486e-03,-4.234060293441586562e-03,1.916235089302062988e-01
-2.978509922940947297e-01,-4.158135050858061121e-01,-4.851469777449053389e-01,2.470487704727222442e-02,-4.603703354457416332e-03,2.123016800022524929e-03,1.697325259447097778e-01
-2.745308249217752739e-01,-4.600983411066318363e-01,-4.597506603732331443e-01,2.961706347408847063e-03,-2.033464023457539314e-03,1.624610658449518940e-03,1.855196654796600342e-01
-3.108823122279950057e-01,-3.426546066967428028e-01,-4.551224312457975985e-01,-4.312620927248868481e-03,5.431201910826164575e-03,-1.027966245966657755e-02,1.330156177282333374e-01
-3.178271770611889591e-01,-3.599841495931053181e-01,-4.729232161601824580e-01,-9.875472489701531652e-04,1.223924044051152198e-03,-5.451354098548618320e-03,1.392486393451690674e-01
-2.963374833539262898e-01,-3.924469456990208882e-01,-4.364640168855392632e-01,9.707137462430199615e-04,8.021671422087237741e-03,5.573607069598775048e-03,1.252759099006652832e-01
-3.003848733895985723e-01,-3.939685910790994838e-01,-4.396320553727848246e-01,1.223735422471368753e-03,9.443501237838028764e-03,5.700113514777408776e-03,1.244424656033515930e-01
-2.959796545262132761e-01,-4.141360512821698481e-01,-4.808848879223010520e-01,2.463828734308659216e-02,-4.890711680230168043e-03,1.799476997406419766e-03,1.679456830024719238e-01
-3.147009191647275883e-01,-4.043789978099032734e-01,-4.511765059673157330e-01,1.654372920404947184e-02,5.728324770943798300e-03,2.391339217791035865e-02,1.306290626525878906e-01
-2.937890002011204205e-01,-4.202902750072876614e-01,-4.647714842388924184e-01,5.301423700231363417e-02,2.036357968509942135e-02,2.411680655787511868e-02,1.871590167284011841e-01
-2.806056987888127519e-01,-4.661914694282661697e-01,-4.649686233477438591e-01,3.390943982347724862e-04,-2.537882053793958856e-03,2.150550991794781543e-04,1.850309073925018311e-01
-2.786276911227261177e-01,-5.180508513185593245e-01,-4.492906980283866147e-01,1.436790363330023301e-02,-4.284216468325817428e-02,-7.578696237760211042e-03,2.277863174676895142e-01
-3.292053326643143984e-01,-5.574977228217798952e-01,-5.242577492307691767e-01,-3.818256024771517210e-02,-6.639396235052684447e-02,5.582051332663345161e-02,2.694064974784851074e-01
-2.832106627326029802e-01,-4.639246150777526778e-01,-5.934176773874527688e-01,1.140464990961226749e-01,-7.669536306014160254e-02,-2.773619651015039184e-02,3.630446493625640869e-01
-2.701557194331540845e-01,-3.605786192869037676e-01,-4.452394010167451399e-01,4.008557974765404597e-02,1.505746920838593218e-02,1.618790252303832847e-02,1.711312681436538696e-01
-4.328126026719602004e-01,-5.341528894101124081e-01,-4.703570321475941673e-01,5.485754887596305807e-02,-4.286973728361149344e-02,-2.119117192422622642e-01,3.964037001132965088e-01
-2.854646015699977557e-01,-3.132187371878206728e-01,-4.264963612732710629e-01,2.534548139270422287e-02,9.112501219229357172e-03,2.928774839448078024e-02,1.466139256954193115e-01
-3.061459383049743854e-01,-4.323779068952109395e-01,-4.511777174172679206e-01,6.298026164533240302e-03,1.513529036080025862e-02,1.046899509096861636e-02,1.406986415386199951e-01
-3.238819590346616595e-01,-3.342375078696526725e-01,-4.989094504582409773e-01,-3.013477363928211347e-02,1.657312961774839999e-02,-2.923576043636674782e-02,1.871947199106216431e-01
-2.742161015119560785e-01,-4.542886236181504223e-01,-4.617128911508601163e-01,3.755691592903687322e-03,-4.043508041300359853e-04,7.453653459449541101e-04,1.840179711580276489e-01
-2.410500580306378648e-01,-4.311627715968039953e-01,-3.344242947378525121e-01,4.614212703065322801e-02,-7.715427977846474328e-02,-8.175614127827277033e-02,2.672223746776580811e-01
-2.951249085269021522e-01,-4.769660519405103938e-01,-4.312822314403172985e-01,1.274939817709920282e-03,-4.653743220328945308e-03,2.509774567291281865e-03,1.641181260347366333e-01
-3.347370874535765539e-01,-2.039195508776527888e-01,-5.231551492722810170e-01,-5.727207612402498288e-02,2.791990466028447179e-02,-5.219576428705825083e-02,3.124340176582336426e-01
-3.152851787894020430e-01,-3.382809194938342090e-01,-4.717482963164666976e-01,-2.142685167993779120e-03,-2.266086610960216501e-03,2.204652033081468641e-03,1.464762240648269653e-01
-2.803979667630245309e-01,-4.511507632837167270e-01,-4.672290924378616483e-01,1.322347627147319946e-02,-1.115807723956526039e-04,-1.123726250682693158e-03,1.808006018400192261e-01
-2.998679360013603024e-01,-4.391829884216579272e-01,-3.952663768915370412e-01,7.982919821554789255e-03,-2.002681240373735752e-03,-6.617564877926199012e-03,1.247144639492034912e-01
-3.452794306129450819e-01,-4.230904785341138008e-01,-4.564688788975963529e-01,3.475163914560688654e-04,-5.358047968187755125e-03,-9.809995652149426648e-02,1.967820525169372559e-01
-2.948391563683872008e-01,-4.281143889700176342e-01,-4.620411860572503082e-01,1.355315096378955329e-02,-9.041610190681476089e-03,-9.360137509456661897e-03,1.565058082342147827e-01
-2.854998443351630111e-01,-4.581997531031971604e-01,-4.226319688244475903e-01,6.138011218989101667e-03,-3.280289207248343955e-03,-2.929451279566763419e-03,1.584891974925994873e-01
-2.814979467713846217e-01,-4.524167645537798821e-01,-4.563432518494324741e-01,1.219345389044508132e-03,-5.021455608857764742e-03,-1.286770877946997987e-05,1.731469780206680298e-01
-2.710371360357509696e-01,-4.515688764417487011e-01,-4.569870929087870293e-01,2.436323127861493587e-05,-1.669921156820640667e-03,5.861614044630113424e-04,1.833265572786331177e-01
-2.933040481750759376e-01,-3.163724920531669205e-01,-4.603320488417616541e-01,-2.849062789111856536e-02,-6.065513606527748840e-03,8.652038768763022775e-03,1.653708666563034058e-01
-2.666651352323436419e-01,-1.473902482783617240e-01,-4.112576023906331368e-01,-4.873794266674645603e-02,1.044008447742320045e-02,-5.872214012996510024e-02,2.649108171463012695e-01
-3.546200509013145430e-01,-3.184986660343299136e-01,-4.471582319417775064e-01,2.044346435980004539e-02,2.319045168003719057e-02,-1.677554158890308122e-01,3.170228898525238037e-01
-3.684364836365358054e-01,-3.026818481379107140e-01,-5.476751926481326915e-01,6.369979554404187061e-03,-8.067038984096422741e-03,4.033572635725029935e-03,2.204580008983612061e-01
-4.350468483098625105e-01,-2.492389609849221255e-01,-6.358270733464560509e-01,7.443089059413841857e-02,-1.775266547430339945e-02,-1.325131877112882550e-01,4.270695447921752930e-01
-4.351933753104109126e-01,-5.264280596663964973e-01,-4.601037526258449084e-01,2.403914298626439253e-02,-1.537887736639063051e-02,-2.154069456580291753e-01,3.851171731948852539e-01
-3.904063565665510382e-01,-1.850564511912021204e-01,-6.517954236974636828e-01,1.313640955866327530e-02,1.105161314744908599e-02,5.608671503870571451e-02,4.177203774452209473e-01
-2.820909078140348969e-01,-1.660878167211786716e-01,-4.749763949866335766e-01,-6.565825967379518291e-02,-8.769808487650774392e-03,9.658146452059489934e-03,2.940755486488342285e-01
-2.807904112261662699e-01,-4.457797345028505775e-01,-4.620605603013785423e-01,1.808598950185742044e-02,2.148859558848457280e-02,1.414917360864991099e-02,1.820436418056488037e-01
-3.288120067847043471e-01,-1.912368847256386006e-01,-4.758905513966855683e-01,-2.644415866881977273e-02,-8.082497479863937767e-03,4.373119296373006309e-02,2.623441815376281738e-01
-3.952262935797565824e-01,-6.867667073939954792e-01,-7.029696577841242355e-01,-1.365410753037491765e-01,1.215009573340854188e-01,-9.113645936351888466e-02,4.638076722621917725e-01
-2.816072171468908536e-01,-4.806529378990513912e-01,-4.925952701100937414e-01,-1.256476539399914959e-02,5.220999274818684775e-04,-2.488192826195946149e-04,2.064304053783416748e-01
-2.862561256795558284e-01,-4.267398616271005918e-01,-4.493482815400839381e-01,-3.013237852632047638e-03,7.630552711687255650e-03,-2.272577938118071524e-03,1.537541747093200684e-01
-2.988623188926871066e-01,-4.355923467283803197e-01,-4.126447272783109743e-01,-7.703285082688251031e-03,1.448681266991058226e-03,-6.826518334618633319e-03,1.280944496393203735e-01
-2.686831628296518226e-01,-4.521124194787137784e-01,-4.515418169078914135e-01,-1.107095264300633243e-03,1.325108064528811953e-03,1.346248266032005916e-04,1.831691861152648926e-01
-2.703089302333959720e-01,-4.558509693802085261e-01,-4.588538390170657233e-01,-1.474178197313388101e-03,1.290105013239318870e-03,5.705022396013351583e-04,1.870949268341064453e-01
-2.890459985426726552e-01,-4.484839044267729391e-01,-4.328700845349079396e-01,-8.341669478870980536e-03,2.864762385355380282e-03,-9.777972252514709889e-04,1.530066728591918945e-01
-2.876341503428966329e-01,-4.339241132014644009e-01,-4.385011177800545723e-01,-8.658994051720801839e-04,5.001906933955271167e-03,-7.046509377220379561e-04,1.488961726427078247e-01
-3.003679456530400360e-01,-3.185795976696944587e-01,-4.651100021121619132e-01,-2.241778887823223446e-02,1.273712684078376334e-04,8.338483232307498591e-03,1.618261337280273438e-01
-3.247016000871180141e-01,-3.435657982002360833e-01,-4.773371270881410222e-01,-2.780419058287365397e-04,-2.942112612762684976e-03,2.370227496106242816e-03,1.442815661430358887e-01
-1.650929856705351806e-01,-3.304603002724834648e-01,-2.601119724117754162e-01,-7.813377202539127653e-02,1.094061128389221538e-01,-8.420850925851412760e-02,3.100949823856353760e-01
-2.731222346733352957e-01,-4.549015603569916966e-01,-4.422475553182356189e-01,-3.259847841433073570e-03,9.835690471225134665e-04,-7.093759291138868918e-04,1.758974194526672363e-01
-4.092931635536508628e-01,-5.492668855772101510e-01,-5.724054620968312967e-01,-1.069238851906291338e-01,8.547794001852694612e-02,-1.468276785122542838e-01,3.798151016235351562e-01
-2.724604811669013027e-01,-4.548501466999683718e-01,-4.586659116869962194e-01,6.741705884030566162e-04,-9.420728347720155795e-04,2.249669246346773640e-04,1.843385100364685059e-01
-4.170657764613255880e-01,-3.952557064836426659e-01,-4.788460417331230623e-01,1.719635795685781759e-02,1.699520818616400905e-02,2.053599618687864947e-01,3.659394979476928711e-01
-2.763305222296634223e-01,-3.544072840447100581e-01,-3.989312334285381456e-01,-2.230423982219030890e-02,2.242558637215932502e-02,-4.275172240125731798e-02,1.415589451789855957e-01
-2.453468688228882533e-01,-3.962902251436516421e-01,-4.473840844951925688e-01,-4.356686751288683934e-02,2.613184597880021526e-02,-1.970539074449310576e-02,2.049743980169296265e-01
-2.770901025914465077e-01,-4.685446683443233451e-01,-4.653597255497552432e-01,-1.009385335733194861e-02,-2.832745837974916681e-03,-1.721552436240083661e-03,1.907717138528823853e-01
-2.688928808875176157e-01,-4.517218504534679102e-01,-4.516057571766088352e-01,-8.508318309390759280e-04,1.084821944232573342e-03,1.658741333476118607e-04,1.827867776155471802e-01
-2.987977854847481129e-01,-3.946178533388559617e-01,-4.280460506975658497e-01,-7.063230127476362134e-03,1.074204604726108209e-02,-1.029235248320243927e-02,1.196480765938758850e-01
-3.209130940009594646e-01,-3.157477906381231936e-01,-4.725299636478883514e-01,-3.721227348177104377e-02,-1.412263624543964912e-03,6.278648612630249870e-03,1.675589829683303833e-01
-3.224423228320782431e-01,-3.515349315006233155e-01,-4.679000594580657868e-01,1.263197117202858775e-04,-4.272104153329299653e-04,9.801275748506851904e-03,1.343926340341567993e-01
-2.170545283220296773e-01,-3.402425605648849993e-01,-4.543919226298854808e-01,-1.085835606368707323e-01,6.438575593711259870e-02,-7.162727741465876874e-02,3.247558176517486572e-01
-2.668482301879841478e-01,-2.044307639225868556e-01,-3.902789089139572232e-01,2.673718763751100139e-02,1.322060712914238309e-02,8.795756363798273858e-02,2.295950502157211304e-01
-1.820044641309732647e-01,-3.469111360413378309e-01,-4.521556422517077900e-01,-1.223485498961955492e-01,4.266995034047060126e-02,-2.791280292711149566e-02,3.291400671005249023e-01
-2.892212913397708696e-01,-4.728940027948932423e-01,-4.794620617566544007e-01,-2.172845246442721336e-03,3.159654106318711452e-04,-2.197860977963841684e-03,1.871206313371658325e-01
-4.362556880045281860e-01,-4.176223866768297710e-01,-5.007388562207917282e-01,-8.864553298541046761e-03,-1.418277501410473117e-02,-2.170702482259277144e-01,3.845835328102111816e-01
-2.827963555147746666e-01,-4.491019576455878570e-01,-4.231442113639256597e-01,-7.613892615071987842e-03,2.416006854010872493e-03,-3.312766460859229226e-03,1.556881070137023926e-01
-2.906876173721606449e-01,-5.866743672899971118e-01,-6.985732182114078315e-01,-8.410471476062977847e-02,2.572775615667260984e-02,-5.852983674642647793e-02,4.083305895328521729e-01
-3.255081780067937691e-01,-3.948902562909306080e-01,-4.651595472201440207e-01,-8.263445767989012133e-03,-5.818895959008651281e-03,6.012666117298131122e-03,1.226456835865974426e-01
-2.295904719067734800e-01,-3.746860935823861372e-01,-6.141089317642995926e-01,-2.129745844107139574e-01,-4.351400766474760456e-03,-6.380616654406276456e-02,5.113318562507629395e-01
-3.725258167383048713e-01,-6.879059895422526827e-01,-8.029196748339002543e-01,-1.763104535264458095e-01,1.043680757300915474e-01,-8.327360664172364646e-02,5.437862873077392578e-01
-1.953863781970505975e-01,-3.244765656244625873e-01,-3.666093662789112750e-01,-9.401199474617062679e-02,6.804216399702849027e-02,-7.686179863066271156e-02,2.863661348819732666e-01
-4.029623701897298571e-01,-5.744151665866692458e-01,-3.768015842399415338e-01,-3.491503973499179847e-02,-8.159367471572372132e-02,1.736872352721096080e-01,3.856129050254821777e-01
-4.217140192191315418e-01,-3.604135927671161532e-01,-4.956579369536817659e-01,-3.378493272660337138e-02,-2.471824925327855901e-02,2.038065374226482040e-01,3.789812624454498291e-01
-2.715397679443959378e-01,-4.611212687635019014e-01,-4.586678187939680074e-01,-5.788586787293873836e-04,1.988372469617368833e-03,6.919337231887410329e-04,1.884047240018844604e-01
-2.806115157226884982e-01,-4.510783793043066092e-01,-4.622491917088937252e-01,-1.162129824749615764e-02,6.617722800518897192e-03,-2.030514140098244828e-03,1.778676658868789673e-01
-2.945594083814959685e-01,-1.405787036549004110e-01,-4.515672984540011758e-01,-5.050129930478867990e-02,-9.588544575842860435e-03,-8.240872919405114105e-04,2.836665809154510498e-01
-2.717097623638362602e-01,-4.584748249009088505e-01,-4.616723479550919329e-01,-1.661246515213005625e-03,8.229719426130337754e-04,5.589131005532866920e-04,1.884140223264694214e-01
-2.778273374060172274e-01,-4.630009983659684192e-01,-4.659919069647272538e-01,-3.615661040420516809e-03,-9.518844301599288992e-04,9.297423602860779932e-04,1.868063062429428101e-01
-3.704748126195424596e-01,-8.888802380869481601e-01,-8.806118689844123493e-01,-5.032650102826401184e-02,5.064226877785951014e-02,-1.520403268246104875e-02,5.296337008476257324e-01
-2.553894182295122217e-01,-3.293372636496714190e-01,-4.320704037245363671e-01,-1.058092530385276453e-01,-5.110586318935215339e-02,5.839326823738690692e-02,2.743552923202514648e-01
-3.037128368112744781e-01,-4.803668351684453608e-01,-6.942401015562627009e-01,-1.403367355639967562e-01,8.306583039670464852e-02,-3.406532618962575948e-02,4.449655115604400635e-01
-2.974512444589400006e-01,-5.221118791593346575e-01,-5.012104962273908892e-01,9.673946007279138120e-04,7.722128731521287100e-03,-1.431805357504011521e-02,2.168185263872146606e-01
-3.106420511825154773e-01,-3.319531912499284476e-01,-4.866419900543632604e-01,-2.917060169894030927e-02,-1.465259832744947484e-02,2.545100526090003645e-02,1.811615675687789917e-01
-4.265900691079983487e-01,-6.354071953809573570e-01,-2.829241595024897249e-01,2.028402534190240115e-03,-2.679829187688378619e-02,-9.718952766538950516e-02,3.531976640224456787e-01
-4.117298509622159264e-01,-6.348250402924540126e-01,-3.606354820752416535e-01,2.896037955153093341e-02,-7.806491352473783618e-02,-1.184250957532025361e-01,3.558834195137023926e-01
-4.393485213881281326e-01,-6.651093293325441858e-01,-3.354135128237941688e-01,-1.877949713166615284e-02,1.074894636415559546e-01,-1.577930151664563019e-01,4.423242509365081787e-01
-3.105932231603811822e-01,-4.402241643190071829e-01,-3.945744672802322106e-01,2.075927254342465039e-03,-1.851704196737027517e-03,-6.656258763890887144e-03,1.145713552832603455e-01
-3.462008865520889156e-01,-4.840382420892908044e-01,-3.275439598098079386e-01,-1.272192117453458705e-02,-1.940963939160688170e-02,6.187233396479346198e-02,1.871340125799179077e-01
-3.368423972601469751e-01,-6.263307538132718566e-01,-8.175790921260567279e-01,-2.388132873213449081e-01,-1.362368191971337870e-02,-2.373647681326822214e-03,5.894172191619873047e-01
-2.745602598586829868e-01,-4.362455528904202184e-01,-8.478070244589863691e-02,-5.800787922220879481e-03,-2.833702938402319835e-03,4.211315816005371110e-02,3.135100901126861572e-01
-4.114128882162145784e-01,-7.261979217239660223e-01,-4.723218012293516344e-01,-1.389346656390526812e-02,-1.651561767498937738e-01,2.330260657507713523e-02,4.094680845737457275e-01
-2.712032720492486004e-01,-4.645491557928735360e-01,-4.508567447170744869e-01,-7.253847808372504251e-03,-1.260628959600374778e-02,5.758551960088961232e-03,1.888301819562911987e-01
-3.360933127178252211e-01,-4.876635414397960111e-01,-3.792360724855136089e-01,-6.851184357604742439e-03,-1.384728178768723263e-02,2.546966950589344900e-02,1.447682380676269531e-01
-3.067622578836313729e-01,-4.765827020359478805e-01,-3.866423055311700163e-01,-5.664779346135778021e-03,-4.566636369970105552e-03,8.936896775751846820e-04,1.477016210556030273e-01
-3.236538527079509953e-01,-4.595815932016394378e-01,-3.302975556040549932e-01,-8.408953731357768661e-04,-2.067331625236176751e-02,5.448355536706928764e-02,1.667545437812805176e-01
-3.413446268414509488e-01,-5.085679672324964207e-01,-4.365210359820229091e-01,-1.023023596953420190e-02,-6.906449368087342125e-03,3.055626669985701468e-02,1.560916453599929810e-01
-4.449095660218190806e-01,-6.403674162346860710e-01,-5.096105934087794553e-01,9.348560932642975552e-02,-1.265861868249602284e-01,-1.526204857021003780e-01,4.170294702053070068e-01
-4.306408881810523392e-01,-7.281724716225449479e-01,-4.217014775022632778e-01,5.582622406977182095e-02,-1.718309852008911010e-01,-1.228657481074865582e-01,4.842314124107360840e-01
-2.705711001005364214e-01,-4.589597885076080463e-01,-4.609982056969756381e-01,2.333536655274563113e-03,3.691529559934626477e-04,2.235301007972920586e-04,1.894607096910476685e-01
-3.265491771249464104e-01,-4.826623862105294260e-01,-3.473384752743435833e-01,-4.291772441232946135e-03,-1.156741397035926724e-02,1.335853638552494949e-02,1.501668095588684082e-01
-3.088785673073328186e-01,-4.489011613444386373e-01,-3.305575406334455568e-01,-7.801944628417575682e-03,-1.113156078190581308e-02,1.312727344078869381e-02,1.345811337232589722e-01
-2.750933442989216826e-01,-4.685088309164931464e-01,-4.798712714395801937e-01,1.500487639293521941e-02,7.780957230226167795e-03,6.442018770601823548e-03,2.017867565155029297e-01
-4.220333534615626769e-01,-5.873891234092423197e-01,-4.467181796993439091e-01,5.211619061904211592e-02,-7.657312013654914151e-02,-1.633170835023081413e-01,3.600362837314605713e-01
-3.295092133866019402e-01,-8.347668105024036445e-01,-8.527264625391164365e-01,6.866400816387673023e-02,-5.865658633522415066e-02,-1.678470923886026672e-02,5.385102033615112305e-01
-3.029615865434657218e-01,-4.548164871245243823e-01,-3.984446413164000611e-01,-6.424600408537363590e-03,-4.021230684991868552e-03,3.937499933452500746e-03,1.337766945362091064e-01
-3.115651494995606008e-01,-4.561815898739600694e-01,-3.296528373507788823e-01,-1.059137320425290610e-03,-9.146820066584594776e-04,1.641536546427795670e-03,1.365256756544113159e-01
-3.242139152275678726e-01,-4.620938401234329085e-01,-2.151110169126096427e-01,-1.791480054989662979e-02,6.092118393681456717e-02,-4.923951479847855917e-02,2.555934190750122070e-01
-2.949634166888430720e-01,-4.435594692408689754e-01,-3.469915335835651593e-01,-7.531880863970746853e-03,-1.000641405985634030e-02,1.054586158171974715e-02,1.336441487073898315e-01
-3.155922196438546434e-01,-5.137402503955670330e-01,-3.517790269682481430e-01,2.166465563453342374e-02,-4.900498141040797451e-02,-1.106734240793075946e-02,2.058683484792709351e-01
-3.048716464119732295e-01,-4.747676662896390121e-01,-3.889497717288001866e-01,-3.911810167510152282e-04,-2.348669422254759213e-03,6.698883148454134063e-04,1.471991986036300659e-01
-3.548079120089657201e-01,-5.329773152277232917e-01,-3.628827221597556996e-01,-9.510373588334475672e-03,1.179533050420504027e-02,-8.234695616776671612e-03,1.768135130405426025e-01
-1.870907957782694808e-01,-4.156506427538855797e-01,-4.868263831344097348e-01,-8.538920664204219246e-02,7.987650678961982775e-03,-6.604370794671797149e-03,3.094668388366699219e-01
-3.037300346128851691e-01,-4.605608310931936789e-01,-3.985735624352076401e-01,6.049561194891184095e-03,4.061172167301093164e-03,3.669440769116634471e-03,1.375371664762496948e-01
-3.637195342508012241e-01,-3.335576700364846214e-01,-5.245571204664729592e-01,6.831150302815966989e-03,3.000673062862726451e-03,3.373941141976388725e-02,1.876477450132369995e-01
-3.966091701798126201e-01,-6.525291311190254406e-01,-2.917247327158255521e-01,1.830341260966541692e-02,-1.085153237606196197e-01,-7.872545874434779684e-03,3.739725947380065918e-01
-3.014112994651707012e-01,-3.344827116150431157e-01,-4.564769656577457035e-01,1.931660822489449786e-02,1.645593409767174284e-03,1.545103027364745814e-03,1.454149931669235229e-01
-3.133447024399436676e-01,-2.992568605488082900e-01,-4.697695191709444495e-01,2.991347649362311855e-03,-5.564214388722022071e-03,1.247853488528491601e-02,1.657037883996963501e-01
-3.124795887256965332e-01,-3.321401004706431848e-01,-4.635039053725283908e-01,2.411253751255608424e-03,4.629549022990353709e-03,4.351975287472132151e-03,1.427032798528671265e-01
-3.097888952478482505e-01,-4.705729442318070110e-01,-3.595576537682265705e-01,-8.745152138143903395e-03,-1.853239196402138231e-02,9.909279738358976394e-03,1.479215323925018311e-01
-3.083726969430248821e-01,-4.672672005045575006e-01,-3.007785098398965684e-01,8.488804500795623688e-04,-1.203598009314452329e-02,-3.667855445206079281e-03,1.642830669879913330e-01
-3.356616362024429923e-01,-4.854606534721650490e-01,-3.721669119843135642e-01,-9.339154278510431199e-04,-6.323433297270706147e-03,9.551780372247428361e-03,1.367487162351608276e-01
-3.226025806600375523e-01,-5.130709478324239070e-01,-3.229629956805870061e-01,8.155297282885391047e-03,-3.262181950644583994e-02,-3.019317382605154251e-03,1.990706026554107666e-01
-2.270914104789530374e-01,-4.696091708132368314e-01,-4.664762066040374910e-01,-5.808854911598859000e-02,4.018360116621830236e-02,-3.443213959960964021e-02,2.767464518547058105e-01
-2.811052046139921323e-01,-4.700714165620101248e-01,-4.740011989284398375e-01,1.169998012518896381e-02,3.173701676744609262e-03,1.825580495366454278e-03,1.921383738517761230e-01
-3.575498767225362973e-01,-5.516247836846821517e-01,-3.728692850828913552e-01,3.871182413210300967e-03,-4.665507090502380577e-02,-1.270119427121832803e-02,2.049039900302886963e-01
-3.216643210776621853e-01,-4.830192918508598998e-01,-3.838629132549477574e-01,-6.445548613681410972e-03,-2.589928408970437398e-02,1.125571205143931740e-02,1.496164053678512573e-01
-2.882612982859542039e-01,-4.332737960029200974e-01,-2.730774355889469263e-01,-1.736340980018431920e-03,-9.681077381331110523e-03,2.164522157148068490e-02,1.586089134216308594e-01
-2.918455505226757452e-01,-4.384198958639612953e-01,-2.799240095561755237e-01,-2.150405216721636495e-03,-1.395649737724487943e-02,1.777237851785144762e-02,1.578586399555206299e-01
-2.686050787473494572e-01,-4.481732375004209290e-01,-4.442743017259331295e-01,-2.368593749844199320e-03,-1.759741112145277219e-03,3.359446709413501340e-04,1.777252405881881714e-01
-3.216387444448172150e-01,-4.595092073394424492e-01,-3.320032783738295912e-01,4.208566104392090848e-03,7.762430802306565653e-03,3.306494287130419540e-02,1.456039100885391235e-01
-4.184149995531354360e-01,-6.830573717947663326e-01,-3.088113405595582783e-01,3.285645247532545388e-02,-1.050856215367621388e-01,-7.730056054614958816e-02,4.066301286220550537e-01
-2.750872149874857842e-01,-4.385375181403967093e-01,-3.797144896185731255e-01,-1.020681162496404545e-02,1.505385581079592139e-02,-9.040000128497583526e-03,1.476450711488723755e-01
-3.198041844214896123e-01,-4.732108882778777170e-01,-3.374482629502431608e-01,-1.233866834919139814e-03,-9.765229194904491254e-04,1.546112435235248760e-03,1.454400569200515747e-01
-2.686867277353449657e-01,-3.366821721900744024e-01,-4.205500219604152989e-01,-7.233014336623916352e-02,-3.962523536953188596e-02,8.306962553354133028e-02,2.417993843555450439e-01
-3.207226378609536743e-01,-5.106005609584135518e-01,-3.361061599940465272e-01,1.079376373812517519e-02,1.396262293990445207e-02,-1.916720057704235369e-02,1.881643235683441162e-01
-3.371754559591707556e-01,-4.947704235094142478e-01,-3.762599559737196953e-01,-2.718068871850715888e-03,-8.729466577819186557e-03,7.369825559633475832e-03,1.435895860195159912e-01
-3.220314221578909897e-01,-4.796885181825532030e-01,-3.516952546920270040e-01,-2.185668809691202093e-03,-4.625963217180793828e-04,7.886146482679651584e-03,1.458099335432052612e-01
-3.199719773733218919e-01,-4.662945525226113719e-01,-4.179257894431459008e-01,-1.188757671287840427e-02,1.706711539846457112e-02,-1.815539307679606834e-02,1.376918554306030273e-01
-3.200107504089285682e-01,-4.727334222946359965e-01,-3.509326266214766177e-01,4.226316915444278143e-04,4.989382453695283270e-03,1.004009039240606055e-02,1.411932408809661865e-01
-2.939951176661685928e-01,-4.549943742604627417e-01,-3.101237371347230765e-01,4.868993141796167101e-03,1.952165274225266256e-02,5.987897263959757535e-03,1.578168869018554688e-01
-3.433700675131159952e-01,-4.850216868379758073e-01,-3.217269157525688428e-01,-1.134798329602380688e-02,1.091934484583995286e-02,-4.700924972602423500e-03,1.562360972166061401e-01
-2.839009613027513868e-01,-5.130707355475000453e-01,-4.780633598034313980e-01,1.143330295029840746e-03,2.583839164458565096e-02,7.949153656413099692e-03,2.189018577337265015e-01
-2.728518352055042673e-01,-4.483829123269271189e-01,-4.494891966172072095e-01,-1.908617315818070845e-04,-1.405666436963818071e-03,-4.108301976139286881e-04,1.761054098606109619e-01
-2.502969124840780379e-01,-4.576167741061711314e-01,-4.262773909647569193e-01,-5.333278916670715353e-03,3.078240529111396853e-02,-8.179459425753802040e-03,2.014822959899902344e-01
-2.870438217426219962e-01,-4.814627372890749046e-01,-4.578016090193571253e-01,1.317453849121566359e-03,1.013167725115032662e-02,1.376024244175715885e-03,1.846002042293548584e-01
-2.843305659732434654e-01,-4.597615333875540999e-01,-3.882623018878083587e-01,8.632047910026782993e-04,1.804215180300025936e-02,3.361600023612627223e-03,1.560694724321365356e-01
-2.692518824184698123e-01,-4.584008214880849752e-01,-4.093194708345648802e-01,-3.763622535936249694e-03,2.525802906826120353e-02,3.018349407361954422e-04,1.756681203842163086e-01
-2.488771196241084671e-01,-3.076597607859854477e-01,-3.520997568813439282e-01,8.668307442646590311e-02,-6.353044311327257776e-02,-9.903038472612424314e-02,2.685402929782867432e-01
-2.927653441563504155e-01,-3.774438339838216416e-01,-4.271792953279233696e-01,1.495120063117181229e-02,1.158205039768942825e-02,8.358679151629784185e-03,1.230375394225120544e-01
-2.800043590794261128e-01,-4.664420375780315986e-01,-4.425037560356631094e-01,9.386215632315045646e-04,2.152019256414578960e-02,1.753831104169186698e-03,1.796392947435379028e-01
-2.729374471918137868e-01,-4.512632992835862722e-01,-3.861959703508934805e-01,-6.727177319204667889e-03,1.801857771947128553e-02,-2.599713852930911687e-03,1.598772257566452026e-01
-2.736173587062482038e-01,-4.657036073733503700e-01,-4.278346119073398457e-01,1.193063294186106965e-03,8.523345851584278668e-03,2.367544252125472048e-03,1.769070476293563843e-01
-4.453891680804010766e-01,-6.103987484474627800e-01,-4.531262838166693063e-01,4.984899995883763230e-02,8.638696737186499219e-02,2.013520077661387908e-01,4.212862551212310791e-01
-3.327975470081735443e-01,-4.438018015469922251e-01,-4.754545879362747640e-01,-2.392252397944657008e-02,-1.216141566498190295e-02,3.379950059524510636e-02,1.497505158185958862e-01
-2.976748623095744062e-01,-2.041512272648982607e-01,-4.359035199955831885e-01,3.416634854333215707e-03,-4.816333723199172322e-03,8.436136879726033322e-02,2.494726628065109253e-01
-3.210384404185847029e-01,-4.836149924134412470e-01,-1.570310328959032276e-01,-5.737996547622443468e-03,-2.542207232511829729e-02,4.282840269189615301e-02,2.958610355854034424e-01
-2.949402802471206009e-01,-4.588259221656155740e-01,-3.786650693529565181e-01,1.205542246668142060e-02,3.576390067976386450e-02,1.418143875883856077e-02,1.581883728504180908e-01
-2.644443765712237715e-01,-3.895674356932287696e-01,-4.424385951486573543e-01,2.587998855427093778e-02,1.264223606954109971e-02,2.355048032634668442e-02,1.709362864494323730e-01
-3.400035242368288357e-01,-5.752999710785827725e-01,-1.228741135342295288e-01,-7.440140829543390177e-03,2.881575041886347624e-02,-1.092169649080461380e-02,3.957453072071075439e-01
-3.067224626844048396e-01,-2.656184764405890575e-01,-3.315733799843479934e-01,8.257444929691067081e-02,5.403014045219493161e-02,1.533969673704423664e-01,3.211446106433868408e-01
-4.371672123275039956e-01,-6.797078767929284338e-01,-2.827351360553502779e-01,4.222080851883026377e-03,-3.338512455947614116e-02,9.672023586141728635e-02,3.893493115901947021e-01
-1.919790913063139370e-01,-2.694301043345613822e-01,-2.704796530799327692e-01,7.308988669973723318e-02,7.098207807689183024e-02,1.196948552851449799e-01,2.832020223140716553e-01
-4.144603835453350982e-01,-5.891610007136350857e-01,-4.767651773287923667e-01,8.852794070438753382e-02,9.533480838549655834e-02,1.709592855169809744e-01,4.024630486965179443e-01
-3.665416047124230303e-01,-2.706124889756779117e-01,-6.082421768748296209e-01,-6.327846316326518616e-02,3.672211159187311648e-03,8.925908708589781748e-02,3.560367822647094727e-01
-2.348421657459869583e-01,-1.818478404881549992e-01,-2.528092875999131128e-01,4.215278105680499154e-02,2.693264201960890794e-02,1.648550681386932448e-01,3.051583468914031982e-01
-3.022574508418713890e-01,-4.430057089173186080e-01,-4.121577585576238212e-01,8.147447991002091522e-03,2.131000794537877413e-03,4.736383304774337104e-03,1.292282491922378540e-01
-3.142074085847195164e-01,-3.259141934619980141e-01,-4.448445224991351976e-01,2.827310564050685912e-02,2.331284228978366957e-03,3.273613369102401638e-02,1.459559500217437744e-01
-3.153118825801836667e-01,-3.791715764745663964e-01,-4.225913533947389666e-01,-9.760873874300730543e-03,-1.019814715136129531e-03,4.117981260245913433e-02,1.187955662608146667e-01
-4.382826429863411200e-01,-7.116645797101988080e-01,-3.328003072257693651e-01,3.271691802447870834e-02,1.334046034638558531e-01,1.192137382973116055e-01,4.625348448753356934e-01
-2.810819695797028839e-01,-2.066938130572494592e-01,-3.782700886934767803e-01,1.691367406349141445e-03,4.375508499781725728e-03,1.072280576569639016e-01,2.382611185312271118e-01
-2.722313124337290002e-01,-4.582633589196034030e-01,-4.605540319866838761e-01,2.992031770159376842e-03,2.012003463618968358e-03,-2.416553816912049991e-04,1.872925162315368652e-01
-2.884523220535492039e-01,-5.207014409292727297e-01,-4.905328904799687861e-01,-9.817701165399918273e-02,1.394333953924696834e-01,-3.609417987635499259e-02,3.728173077106475830e-01
-2.230375985867855959e-01,-4.924849746123792782e-01,-4.281867597367695621e-01,4.359531972452970056e-02,9.016440387507876353e-02,1.127754856352962583e-02,2.998053133487701416e-01
-2.207363428944404959e-01,-3.354062826690651922e-01,-3.070714120852490181e-01,1.046733518802568513e-01,1.112773568947678093e-01,1.158763221480522548e-01,3.478539288043975830e-01
-3.107924313669269134e-01,-3.824958131184669763e-01,-4.525940923870339083e-01,1.585032641507548926e-02,1.019277855891245407e-02,4.010430454454333438e-02,1.448166817426681519e-01
-4.329690549625953011e-01,-3.292322752263421304e-01,-6.873212221348949935e-01,-8.977016992670780460e-02,-2.088180635420231607e-02,7.605701481010104792e-02,3.803685307502746582e-01
-4.149239991740653610e-01,-6.897247337949088397e-01,-4.597045751199290153e-01,-8.601071779431648801e-02,-1.591423850127409723e-01,1.335007868231036232e-01,4.656767249107360840e-01
-2.810183372622272469e-01,-4.440204732698470047e-01,-4.636620956227682222e-01,2.383450265513607693e-03,-5.933115886520245325e-03,-1.261387339078400872e-03,1.740245372056961060e-01
-3.326621780493980163e-01,-4.621727209865177377e-01,-5.445698681001738262e-01,5.835486741401173238e-02,1.328034543826409064e-02,3.387026808022180341e-02,2.200457453727722168e-01
-4.423714771812773949e-01,-4.522731564237848501e-01,-6.006710294998023336e-01,-6.706420338124578773e-02,-4.195882616615378286e-02,1.629100369072643828e-01,3.492604494094848633e-01
-2.910055810003726595e-01,-4.795763056805146807e-01,-4.556745106899429687e-01,6.663639730921188005e-03,1.101732245037053727e-02,2.303320900722620381e-03,1.792660206556320190e-01
-2.742084685387851661e-01,-4.502091240586920118e-01,-4.571016280922070019e-01,3.021251883818406453e-02,2.327599180078742530e-02,2.250999997837936639e-02,1.952450424432754517e-01
-2.727307484141808236e-01,-4.568168796819180866e-01,-4.622760423900704185e-01,1.059681034622191867e-03,1.443078327147639500e-05,-5.943748148908640410e-04,1.868873834609985352e-01
-2.810533188055293063e-01,-4.491970489181118520e-01,-4.645515280985066942e-01,-1.009603900025564556e-02,3.503367554200729865e-03,-1.853520296998814642e-03,1.773210316896438599e-01
-3.176387436394833563e-01,-4.712281635477418851e-01,-3.709483206263050059e-01,2.275216475239017887e-03,1.489914630269342961e-03,7.119590508815380747e-03,1.357132643461227417e-01
-3.338965275685219503e-01,-4.527880093123835548e-01,-3.302311280163271467e-01,6.705912729348178711e-03,1.838202095853389700e-02,7.806748904692606406e-02,1.844359189271926880e-01
-3.136914266809304186e-01,-4.688459163542807451e-01,-2.430624030777243649e-01,2.959512545654539428e-03,2.477106942380609758e-02,1.219950488583060322e-02,2.057507336139678955e-01
-2.710247202507234943e-01,-4.509088812291252024e-01,-4.588929891980131348e-01,4.740833921855402088e-04,1.138070030042765047e-04,2.143438734746493850e-04,1.840084791183471680e-01
-3.036467287677526716e-01,-4.207682667517677610e-01,-3.870525432313023928e-01,2.995952964897345694e-03,1.897568308052361265e-03,1.029682036626444058e-02,1.061186641454696655e-01
-2.793241688446611581e-01,-4.215594563867084976e-01,-4.779590889420958222e-01,2.692829406499817196e-02,-7.815409431277080612e-03,-2.404918937323034811e-04,1.838277131319046021e-01
-4.493202755073446020e-01,-4.542079879042388857e-01,-5.885609176412380794e-01,-8.246764433161073160e-02,6.702214739460544968e-02,-2.060422766435590081e-01,4.242289364337921143e-01
-4.626464178377465708e-01,-4.408058705521712972e-01,-6.160239273369372270e-01,-4.731498877818746812e-02,2.647647394668974780e-02,-2.122918727457961674e-01,4.139736294746398926e-01
-2.989403005399579039e-01,-3.948112282747013868e-01,-4.354283282113019515e-01,7.201706100518460302e-03,-7.547616252140408426e-03,-5.212021393582515379e-03,1.230567842721939087e-01
-2.696391039474539397e-01,-4.461929282463698021e-01,-4.480185548181502830e-01,-6.073884335584322364e-03,6.130909744732827849e-03,-3.407510354965169550e-03,1.781998276710510254e-01
-2.752124143114399457e-01,-4.567365481438041552e-01,-4.467087346692478200e-01,-3.220291829241535807e-03,1.380084659066093756e-03,-1.735405082907420923e-04,1.768281459808349609e-01
-3.059828011979981999e-01,-4.767485960385544619e-01,-4.496763193037807138e-01,-2.624867332868243905e-02,2.881627233370832528e-02,-1.981208337039092396e-02,1.760866641998291016e-01
-2.941187057043161412e-01,-4.280881160843442168e-01,-4.264437323777497957e-01,-5.450541095710135717e-03,5.066317502314167560e-03,-6.757124973429585839e-03,1.342881768941879272e-01
-3.327975866582895126e-01,-3.071487956961479471e-01,-5.956407893629614980e-01,-8.797428494048371850e-02,4.632660777771128308e-02,-8.876537586532401436e-02,3.602510094642639160e-01
-3.081384855617942398e-01,-4.532958189024183238e-01,-3.522950243283216043e-01,-3.536790548389906561e-03,2.115623504910511040e-03,-1.126456672652293746e-02,1.305466592311859131e-01
-2.350333186272354213e-01,-4.118280618189004150e-01,-4.500862625842327325e-01,-4.721526197590210361e-02,-1.366023208602846865e-02,1.020993676873651994e-02,2.168969660997390747e-01
-3.148220546463429970e-01,-3.756826247271231600e-01,-2.602463038214964941e-01,-4.677292081086563413e-02,-7.964421229683356362e-02,1.290278020593316755e-01,2.924743890762329102e-01
-2.718133519513946661e-01,-4.289370779439454218e-01,-4.478989153631877662e-01,-7.572421517889925575e-03,-7.672840431852733477e-03,3.791924474708041875e-03,1.685780286788940430e-01
-2.714954300649314867e-01,-4.480628374475235098e-01,-4.559228659273309447e-01,2.934865483624149451e-03,3.326664620607323788e-03,4.482910547631004344e-04,1.807907521724700928e-01
-2.735405580200577225e-01,-4.584860867108218052e-01,-4.632178787300926248e-01,8.267906583522509605e-04,6.044340144902691126e-05,-5.068201596054884963e-04,1.873638033866882324e-01
-2.218376796597617273e-01,-2.602238687900028657e-01,-2.654695448431003690e-01,6.412279233671405732e-02,6.650932847595560082e-02,1.311488507896133582e-01,2.809058725833892822e-01
-2.749540000090238134e-01,-4.541945757783577564e-01,-4.639554256928785647e-01,6.041390355589733654e-04,1.654675338758317604e-03,1.113087105473370317e-05,1.843401938676834106e-01
-2.826122251324714729e-01,-4.106108165004752619e-01,-4.375960704568940263e-01,-8.309635512376836383e-03,-1.149036812302736861e-02,4.932487665592235997e-03,1.457468420267105103e-01
-2.865251660170823333e-01,-5.089116341637145435e-01,-3.365793398568616146e-01,-9.537608772486536046e-03,-1.141838341379270289e-01,3.160490477182568286e-02,2.884668707847595215e-01
-4.218301730766705893e-01,-3.258493945515940626e-01,-5.894792856878372511e-01,3.332185990702928036e-02,7.377768296285008506e-03,1.526711262439250372e-01,3.561311364173889160e-01
-2.706523032109334759e-01,-4.202442128873078997e-01,-4.560365902895662238e-01,8.800796292821192260e-03,1.227142699404431365e-03,6.690728379849336617e-04,1.710301339626312256e-01
-2.786938783573759681e-01,-4.486136726311630851e-01,-4.637066545580172949e-01,1.702059425801778509e-03,3.241274561628477817e-03,1.073834820518647674e-03,1.780696511268615723e-01
-2.968311893617667785e-01,-4.742091446271614608e-01,-4.709303138839486813e-01,6.157006484764949994e-04,1.623009040354326561e-03,-1.206025517275028476e-03,1.757996082305908203e-01
-2.947878131409377156e-01,-4.987593361970322769e-01,-2.479590353008168657e-01,-7.724401653893798146e-03,-6.300932924972232896e-02,1.521096767567004827e-02,2.571627795696258545e-01
-3.044566310074716120e-01,-3.587913906610942782e-01,-4.268632187527863220e-01,9.359267345842850396e-05,-3.593689405714835163e-03,1.712869279165406960e-02,1.104701459407806396e-01
-2.853044279443917031e-01,-4.413426105880075001e-01,-4.293155827503946642e-01,-7.279981844528743418e-03,1.389643219391387303e-03,-7.191663415142148354e-04,1.509378254413604736e-01
-3.064111121450919795e-01,-4.265043960686704105e-01,-4.122477043733484559e-01,-9.233904440910053503e-04,-1.053885936124584382e-03,3.522715094647172526e-03,1.138272210955619812e-01
-4.600516070167795513e-01,-2.694483388875726915e-01,-7.102959281674119385e-01,8.355803403479170055e-02,1.125156107155603907e-02,5.582490100527397886e-02,4.210986793041229248e-01
-3.350038512112442080e-01,-4.277864805202186149e-01,-3.742708908270477863e-01,3.847062185138271778e-02,8.331510118295636091e-02,1.653334433101579237e-01,3.373082280158996582e-01
-2.900880998516373599e-01,-4.759626623468494189e-01,-4.780658953157834179e-01,1.065171532620475892e-03,-7.722034439367281506e-04,3.171200189239171095e-03,1.870296150445938110e-01
-2.824655303409309148e-01,-5.191346481502201460e-01,-5.163991003556862580e-01,4.041043461051700009e-02,-5.595201074827461235e-03,-4.568540406819076097e-03,2.458208203315734863e-01
-3.020358828133193896e-01,-4.733246136501264578e-01,-4.803787926197642388e-01,6.188256894675457035e-04,2.380389467521097473e-03,-3.659968738440051283e-04,1.749755442142486572e-01
-2.889992333251820700e-01,-4.737295021934416206e-01,-4.709616697379771511e-01,-2.063727968121791077e-03,1.555013341718329252e-03,6.023322263754833737e-04,1.834196001291275024e-01
-2.919422404488656309e-01,-4.661578396934192292e-01,-4.058104279689824234e-01,-3.409109411283456521e-03,-5.237702074151867268e-03,1.330868982625950901e-03,1.536291092634201050e-01
-4.058619168691156576e-01,-6.543724574270713967e-01,-5.798360603789584067e-01,-1.236894806644643074e-01,-1.448580839113453866e-01,1.261860687741355180e-01,4.532192647457122803e-01
-2.754906458826163473e-01,-4.564565736745052060e-01,-4.604480959371505255e-01,-1.851822282955309937e-03,-2.035058648967452439e-03,-3.810433738838340124e-04,1.830575764179229736e-01
-3.031377229225956094e-01,-4.746178633357480137e-01,-4.722948727422912607e-01,-1.781187757768417724e-03,-8.189324779643258586e-04,9.302761521753708917e-04,1.703719943761825562e-01
-2.980508320877341966e-01,-5.254759610765069588e-01,-5.016615072859104130e-01,6.762024287695928004e-03,-8.600651596299264262e-03,-8.804245268853231818e-03,2.178645133972167969e-01
-3.030737866319013207e-01,-4.799307713849780832e-01,-4.811994035893031874e-01,-1.973306632060837021e-03,-1.313076669732262097e-03,6.278644321260855700e-04,1.775455027818679810e-01
-2.721670725195632912e-01,-4.478581007902276978e-01,-4.456608438987316179e-01,1.902917481717033947e-03,-6.637798985639348226e-04,-7.242415680048500028e-04,1.746421605348587036e-01
-2.764470882101757732e-01,-4.345829428207274026e-01,-4.490019909447798274e-01,-4.434980514389080634e-03,7.283919560611894391e-03,-1.721764268303132292e-03,1.664995253086090088e-01
-2.890735620080110424e-01,-4.985254808766887979e-01,-4.973736625192243799e-01,2.540146624737617612e-03,-1.299025936229481447e-02,6.096622398520384553e-03,2.103979289531707764e-01
-3.012712000582208338e-01,-4.763652663532990106e-01,-4.172776604901383690e-01,2.928199208812261659e-02,-3.077938445794512617e-02,-4.042017301129850748e-02,1.847137659788131714e-01
-3.938541816108569460e-01,-8.182709663528406896e-01,-5.101000737480959613e-01,-2.264318347326236408e-02,-2.015701199833178081e-01,3.181215488370010142e-02,5.203573107719421387e-01
-2.926280992271812487e-01,-5.821286426761468347e-01,-5.363374879728787237e-01,3.274931013820010089e-02,-1.280930267181971671e-01,-6.904359720379757426e-02,3.733536005020141602e-01
-2.951939507972395349e-01,-4.930009233053620488e-01,-4.973358545982144996e-01,6.011527168301615716e-03,-1.479007485838551529e-03,7.950620557479011127e-03,2.007697373628616333e-01
-2.767686558341789782e-01,-4.618752029722195118e-01,-4.678482009741490311e-01,1.063436346855177114e-02,-4.655182652144989816e-03,-1.318750822255094568e-03,1.892491728067398071e-01
-2.718448427018254066e-01,-4.594925968878346700e-01,-4.535483189712943841e-01,-9.436672754835323919e-04,-1.239991404578091264e-03,-2.721534244933507634e-05,1.847670674324035645e-01
-2.662329935835843209e-01,-2.446591758876026090e-01,-4.790273124267052651e-01,-1.081997593292008675e-01,-8.112911762425883272e-03,-8.898890278898036188e-03,2.930771708488464355e-01
-4.014319566055813415e-01,-6.547531418295776673e-01,-2.309787717352791148e-01,2.700094235860027794e-02,-1.371610080753171423e-01,-6.435541785733692177e-02,4.554741978645324707e-01
-3.899450332038176259e-01,-6.623382468363121500e-01,-1.490257467684504289e-01,-1.129454023927298732e-02,-1.232443966758197673e-01,4.986962396657668162e-02,5.012745261192321777e-01
-2.808617345380809982e-01,-4.480594468779260375e-01,-4.553273152889364406e-01,-8.475331636478755561e-04,4.701729981057846917e-03,-2.654523799068328319e-04,1.711483299732208252e-01
-4.179603240541455711e-01,-7.869658539129565922e-01,-4.924595628485566867e-01,1.266184434562125059e-02,-1.784097754841996175e-01,-2.128885476662756293e-02,4.599514603614807129e-01
-2.846430454751799899e-01,-2.432153080564560532e-01,-3.898510414346063602e-01,-2.818178339897737736e-02,-2.355081794235334806e-03,1.181469473676745041e-01,2.478283494710922241e-01
-4.341293970636217470e-01,-5.279413151106574498e-01,-4.762115978915786862e-01,-5.657952931204238839e-02,-8.012245106743522138e-02,1.889795429448817288e-01,3.776587545871734619e-01
-2.444304031550803835e-01,-3.748013050710726213e-01,-5.855739414355174421e-01,-1.525578196623008365e-01,-3.165018961394849145e-02,9.238943004502236933e-02,4.328216612339019775e-01
-3.167323121031642152e-01,-4.449574843163377480e-01,-3.999326267780075050e-01,-3.103690515152972024e-03,-2.795394504011642842e-03,4.174998320651115112e-03,1.131381690502166748e-01
-2.571217162223636277e-01,-2.663001009877934977e-01,-4.379740356806299806e-01,-7.334207877810232368e-02,-2.237757111734584026e-02,5.573914679531884186e-02,2.410225719213485718e-01
-2.936121445254458728e-01,-3.931684754420091132e-01,-5.013545949318890527e-01,-3.625300366333693985e-02,-9.656798862164495470e-03,1.526719883182640382e-02,1.931532472372055054e-01
-2.986314971691870213e-01,-4.414177415094754364e-01,-4.841208111025444571e-01,-5.583677131847331054e-02,-1.047924073421660149e-02,5.793188629751551584e-03,1.951723247766494751e-01
-2.930359458919302718e-01,-4.601429003194423828e-01,-3.166785334176840383e-01,-1.143134215402959349e-02,-4.662736688595144757e-02,1.406506264866699829e-02,1.789991706609725952e-01
-2.778867624286749383e-01,-4.647834704775613002e-01,-4.749213733500210477e-01,-1.055312487294227282e-02,1.079368472070024168e-03,-1.219277761471718961e-03,1.930542886257171631e-01
-2.211569241644860129e-01,-5.461097635835938657e-01,-4.796773517071821202e-01,-3.859476086933955052e-02,6.281186054977222488e-02,-5.166838700406376980e-03,3.237359225749969482e-01
-2.649259636263222584e-01,-4.367522280360923714e-01,-4.531870461930997407e-01,-9.527011444436277871e-03,-3.931313535903480962e-03,1.808983458950018082e-03,1.815124750137329102e-01
-2.722791736737977808e-01,-4.533663360304943657e-01,-4.611302504642442179e-01,-3.657560782954936366e-04,-2.645825658272672786e-04,1.070458979328477622e-04,1.850930303335189819e-01
-2.718107143813105475e-01,-4.552682289121657844e-01,-4.599043591529862196e-01,-9.469707912655352935e-04,-5.847829646879068675e-04,-1.678475833002806436e-06,1.858289539813995361e-01
-2.713305060009505998e-01,-4.542860655427752303e-01,-4.592329266646671404e-01,-8.949294930584225779e-04,-5.951377744608572383e-04,-2.397353136869529399e-04,1.854882836341857910e-01
-4.731352915257504010e-01,-6.427406266242142729e-01,-4.132824525242497771e-01,-8.160583668299687191e-03,-3.455778981263139382e-03,2.107483217502642281e-01,4.194995462894439697e-01
-2.739752364385102390e-01,-4.580961674740023359e-01,-4.603002244052207814e-01,2.033081000943841744e-03,-6.831545411661750760e-04,-2.135110633574912058e-04,1.852704137563705444e-01
-2.818175258635570168e-01,-4.282365969306924924e-01,-4.490295721503487214e-01,2.158950938335642451e-03,7.706778863627178518e-03,1.711958360470272741e-03,1.584813594818115234e-01
-3.062849060431107606e-01,-5.226033279220320127e-01,-5.642713205494809259e-01,4.146538334631624800e-02,1.076423211714370998e-02,1.096204302768445313e-02,2.518127858638763428e-01
-2.936364339061680040e-01,-4.331561430597982154e-01,-4.282096512320459070e-01,-5.328610895489969621e-03,2.699232554490527472e-03,-2.654005812568038976e-03,1.375799924135208130e-01
-2.942019267478580558e-01,-4.271105248483567096e-01,-4.261029254858573756e-01,-5.411996073192561901e-03,3.122335449018606105e-03,-2.679523492169039092e-03,1.329302340745925903e-01
-2.970217014322847904e-01,-4.210006303403147077e-01,-4.251436970149466421e-01,-1.956003286117576675e-03,4.789136675323700000e-03,-4.214964041763392955e-03,1.266300678253173828e-01
-3.054898369344855591e-01,-4.277750319847545835e-01,-4.202894676915100991e-01,-5.189864384993509924e-03,1.790358532735952064e-03,-3.448022999858271504e-03,1.192493811249732971e-01
-3.178873557033900510e-01,-4.157906156561295141e-01,-3.808160103832190502e-01,3.937396333639587437e-03,3.859374424710261368e-03,3.099409309872273172e-02,1.017705202102661133e-01
-2.684234326349932420e-01,-4.561904787352935586e-01,-4.491300226340151358e-01,-1.373055255206593684e-03,-2.190476869838172205e-03,6.471429145145728666e-04,1.843960434198379517e-01
-3.867941275200311724e-01,-6.007404412595592769e-01,-5.855373375796839586e-01,1.245777414263765925e-01,1.030337308184703787e-01,1.271360966029510542e-01,4.118846356868743896e-01
-2.849238460548907392e-01,-5.290095511194787825e-01,-4.351051075745750452e-01,-1.427639136161797107e-02,8.218019890228660251e-02,1.040928774054801671e-02,2.582100033760070801e-01
-4.093628478838559626e-01,-7.946637662857878315e-01,-5.697489628870888723e-01,4.176216012733340033e-02,1.809119063185451737e-01,3.994021501969007015e-02,4.696688652038574219e-01
-4.032293052405186429e-01,-7.704355366975841335e-01,-8.613023507836837789e-01,1.769775777527655414e-01,1.107186364675308843e-01,5.301621646804052790e-02,5.618142485618591309e-01
-2.874884069200099312e-01,-5.120186657209303549e-01,-5.108515672797655505e-01,-2.870625456826371436e-02,7.665365174862162449e-03,-1.552724244653472425e-02,2.313544005155563354e-01
-2.688745429800222797e-01,-4.388795088498886332e-01,-4.469240693059648994e-01,5.490314012015166251e-03,4.630005791995389815e-03,2.086320541002655016e-03,1.746477037668228149e-01
-2.871709868924675613e-01,-4.724870235616185354e-01,-4.497423403429905986e-01,5.624722648958141100e-03,1.135056354077145294e-02,4.321817908042386902e-05,1.764251142740249634e-01
-3.274832048442854471e-01,-5.160165016143227756e-01,-5.627693871475867304e-01,-5.827017138240853100e-02,1.830157998080284010e-02,-1.643004539113254725e-02,2.419628798961639404e-01
-3.432175820096715624e-01,-4.962411233648635345e-01,-3.640190934653305677e-01,1.720094673929027998e-02,3.385437550762557951e-02,5.949712304667783419e-02,1.887100487947463989e-01
-2.562494043221191786e-01,-4.401314794618243487e-01,-4.146112774531339751e-01,2.372783676046892609e-02,4.106595648970418760e-02,2.194744892136768141e-02,1.948448866605758667e-01
-3.260597465891674762e-01,-4.826469118245503842e-01,-7.073392369041427985e-01,-1.228871614980689836e-01,4.427920112852034434e-02,-2.200833378635692894e-02,4.035206735134124756e-01
-3.017168435575985908e-01,-4.114488487599899380e-01,-4.942125366769108408e-01,-5.309332019830285965e-02,4.442555730378819345e-02,-3.875309600421476819e-02,2.164619266986846924e-01
-2.900647367675137644e-01,-5.188366436221751865e-01,-4.992566359225993344e-01,1.115792478971466654e-02,-6.082773986340962767e-04,-1.329290298364407298e-02,2.216874361038208008e-01
-2.501354824633823526e-01,-3.219284570790415523e-01,-4.209690242343667732e-01,-9.262541555951482597e-02,4.658248751789016706e-02,-7.877880677745260907e-02,2.700743675231933594e-01
-2.973194440897978796e-01,-4.754117470231683518e-01,-4.712556715164490928e-01,3.184133505473889296e-05,-1.886392376627665009e-03,-5.696576119629945993e-04,1.760841459035873413e-01
-2.763865667112330726e-01,-4.607365345352288366e-01,-4.466670247466272836e-01,-3.599813337799416795e-03,1.766744297301945646e-03,4.019855214186695744e-04,1.778703778982162476e-01
-2.227285819075888740e-01,-2.893223965756321348e-01,-4.064600066067369233e-01,-9.146257839305721449e-02,3.821161914228889123e-02,-6.094978337309882310e-02,2.580267786979675293e-01
-2.806177330650413415e-01,-4.622181517544600160e-01,-4.449517052339562739e-01,8.552334957834898180e-03,1.187434519835085800e-02,2.021915336486278941e-04,1.754531264305114746e-01
-2.937886249507087877e-01,-4.804731123396565606e-01,-4.847583078998395356e-01,-1.593892042051510026e-03,-1.216191781549139138e-03,-2.186203097501973787e-03,1.889334172010421753e-01
-2.802882289371404489e-01,-4.686133457227406596e-01,-4.692883015279218917e-01,-8.360014540581358136e-03,1.394951366927293848e-03,-5.466659038335065443e-05,1.892338097095489502e-01
-2.841079577949430779e-01,-4.692064465531100570e-01,-4.714152286181966800e-01,-2.621129505836620674e-03,-3.225403617623084137e-03,5.805690949083939329e-04,1.863545030355453491e-01
-2.907980025324140572e-01,-4.378468762833250816e-01,-4.427700806418505275e-01,-1.654456076432320654e-03,3.560939854306117655e-04,-2.104324290839345961e-03,1.496443748474121094e-01
-2.724500112399546037e-01,-4.505734127867509486e-01,-4.684737369988315470e-01,-2.385964779951906325e-02,2.081930865494644248e-02,-7.502128494998430534e-03,1.959945410490036011e-01
-2.886370961331743423e-01,-2.620080328089355870e-01,-4.393914948723645075e-01,2.267146471873108041e-02,-1.612218115759832824e-03,-2.587813201092313206e-02,1.760944724082946777e-01
-2.947819739390863392e-01,-3.506411176071385638e-01,-4.490393899787929466e-01,3.833479539198204195e-02,-1.408313224514405257e-02,-4.463222089584606422e-02,1.711101531982421875e-01
-2.732496744015502355e-01,-4.620518049889675294e-01,-4.605854491738826662e-01,7.472512091075660633e-03,-9.987705335781617288e-03,-1.315774552192153408e-04,1.893102526664733887e-01
-1.803937703504830403e-01,-3.661598311084300894e-01,-2.971259351309993857e-01,5.787847335996815223e-02,1.011103999345002863e-01,6.337400910199726678e-02,2.814587652683258057e-01
-2.682686358086784351e-01,-8.478478417487365082e-01,-9.450274634108797311e-01,1.089086130355867571e-01,6.105352015658951914e-02,-6.775475021025669474e-03,6.697632670402526855e-01
-3.059135499106933609e-01,-3.485984720397078962e-01,-4.643530223245240784e-01,2.237274304696037358e-02,-2.763017131813128545e-03,-1.168193291674683373e-02,1.486472934484481812e-01
-2.472012059516129900e-01,-3.293190829691310939e-01,-3.800064200821943183e-01,4.785502239612635794e-02,-2.984203641809871424e-02,-5.722265837778132275e-02,1.812184751033782959e-01
-2.847975714537818170e-01,-4.658529451467599003e-01,-4.656066536017106627e-01,-5.435474698938586513e-04,-8.518531064764883970e-04,8.679815632402955320e-04,1.809470653533935547e-01
-2.840764042908299758e-01,-4.727655304331660480e-01,-4.685318012441663793e-01,9.295998308448996357e-04,1.724144499169375910e-03,-4.033126210699986155e-04,1.866404265165328979e-01
-3.284822436474958973e-01,-3.762662868344212042e-01,-4.856528473425322789e-01,6.146811575388620719e-03,-9.023138360554985166e-03,-1.394249935313604180e-02,1.428861320018768311e-01
-1.768372466911485585e-01,-4.460130556730111939e-01,-4.567030035371935637e-01,3.870941384038127653e-02,5.224140377415077696e-02,1.548557963651468576e-02,2.980763614177703857e-01
-3.060130612845629594e-01,-3.586826624548710707e-01,-4.671251745902212926e-01,1.566337335003989764e-02,-4.182952049066226974e-03,-9.102762699268121191e-03,1.458855271339416504e-01
-2.718957339144977281e-01,-4.536425849054082082e-01,-4.579316423846513384e-01,5.451778686085984472e-04,-9.309023054408951774e-04,-5.476639204507167627e-05,1.839383989572525024e-01
-2.706192042725536484e-01,-4.497424693043280963e-01,-4.504502249533147151e-01,9.093270385006103906e-04,-1.170028365940556109e-03,1.273144636214707036e-06,1.794965416193008423e-01
-2.760966295080018451e-01,-4.439911427839435820e-01,-4.607847135842623176e-01,-1.755070558068089637e-03,-3.737508539218572200e-03,9.962325714776144696e-04,1.770431101322174072e-01
-3.060548785435769359e-01,-7.479507634758773005e-01,-6.177644008411867782e-01,3.852986991796333166e-02,-1.676932696687931379e-01,-4.199522177956097058e-02,4.987977445125579834e-01
-2.720962734838756614e-01,-4.619040455196984363e-01,-4.561725582509011390e-01,3.796520672628891230e-04,2.970911024380614839e-03,-6.388625470921799592e-04,1.870831251144409180e-01
-2.802545325445530144e-01,-4.968180738448284006e-01,-5.270839977471513116e-01,1.971370105461052458e-02,8.210582132572192063e-03,8.035274760006860849e-04,2.360939532518386841e-01
-2.713399864366949910e-01,-4.573916817782775479e-01,-4.555842648959096963e-01,1.709343810690735783e-03,-1.537354536956959256e-03,1.056358859867222643e-03,1.852064579725265503e-01
-4.277013216392981376e-01,-7.648323734197124413e-01,-4.532913638519536215e-01,-7.171799853346687292e-02,-1.883809600337136292e-01,1.245501887598891161e-01,5.235607028007507324e-01
-2.088637118744578469e-01,-4.302331996746711074e-01,-1.836749091080545071e-01,1.307757064175748760e-02,-1.464174894090172763e-01,-5.097549038839158803e-02,3.575440943241119385e-01
-2.762525902351983809e-01,-4.643005484551320783e-01,-4.613768125250685692e-01,-5.257138973908002597e-03,-8.605422139516264585e-03,2.898874358651489435e-04,1.874195933341979980e-01
-2.780936475328125157e-01,-4.437869073963145450e-01,-4.386135162131044596e-01,6.341438627700239465e-03,-3.641781568286936790e-03,2.646284577952875467e-05,1.636589616537094116e-01
-2.746050307442727267e-01,-4.539140610608071724e-01,-4.561146909086347678e-01,1.408883603088452278e-02,-2.195711377355177851e-02,-9.605072233243304100e-03,1.867344826459884644e-01
-3.184596593874120529e-01,-5.090935192665066999e-01,-3.645420455354566602e-01,4.985675535604974611e-03,2.987721852652079971e-02,2.725389182264957924e-02,1.861741989850997925e-01
-4.565593127021896347e-01,-6.325768159320765971e-01,-5.819279517589251993e-01,1.162201676694297470e-01,-1.442882500223839626e-01,-1.462389104219762870e-01,4.379138350486755371e-01
-3.325441335935632736e-01,-5.153960414393220502e-01,-2.756406716357296949e-01,-1.329634242676961374e-04,1.370312031011045907e-02,-6.488446853005103328e-03,2.185575664043426514e-01
-2.709579823143414834e-01,-4.529451148066062083e-01,-4.525114308754867309e-01,-1.511244295933016069e-03,1.064678180488753826e-03,2.178879897797161369e-04,1.817992627620697021e-01
-2.651775374015476472e-01,-2.130773244765366281e-01,-3.787970111813593332e-01,-7.896560017658246777e-02,3.985047814775011243e-02,-1.112350278172012930e-01,2.865902781486511230e-01
-2.001154492295289522e-01,-4.238170103246172715e-01,-3.560397693805852359e-01,5.170500205870211252e-02,-9.233664262222276986e-02,-4.017708863358825100e-02,2.791330218315124512e-01
-3.274617592052030401e-01,-4.755379857131943333e-01,-2.426000073697604509e-01,5.403095740446713612e-03,5.973230188067357033e-02,7.126729360198638674e-02,2.602356672286987305e-01
-2.723474459555316196e-01,-4.513959173805738856e-01,-4.541315815350238649e-01,-2.845383768367751418e-04,1.062526187246321798e-03,2.543254907875829528e-04,1.804424524307250977e-01
-3.525006215351492722e-01,-7.995463307600265690e-01,-6.331238234215705862e-01,-1.181130743931803617e-01,-1.783294105570785715e-01,8.914817825605221568e-02,5.605767369270324707e-01
-2.257552667615101427e-01,-3.859994740422462156e-01,-4.895539186198692438e-01,-1.241691374978883822e-01,7.596842611488129580e-03,-4.310448538060290477e-03,3.154021799564361572e-01
-3.169710823141143052e-01,-4.597549060323522507e-01,-3.481692614238211525e-01,1.148270375010920427e-02,3.780762379782064142e-02,3.094809970948824221e-02,1.564068794250488281e-01
-2.778163674364955149e-01,-4.330810584131362662e-01,-3.017544430605770822e-01,3.747394276219650697e-03,2.956199926170092335e-02,6.126928667243046640e-03,1.540775746107101440e-01
-2.534749656871649881e-01,-4.347726001503514626e-01,-2.408723120746614765e-01,2.840136578319295627e-02,7.429754166080342059e-02,4.933701102025173091e-02,2.481838017702102661e-01
-3.008782433130558487e-01,-4.424347904583980085e-01,-4.629960473253207365e-01,-1.185584125196693407e-02,-1.193676420805488830e-02,6.774919424818378298e-03,1.560719162225723267e-01
-2.380287580970568140e-01,-7.900802222486762449e-01,-8.826601276924858075e-01,1.242702001958910368e-01,7.135342330752719731e-02,1.575776369880962577e-02,6.532907485961914062e-01
-2.918840400349158593e-01,-3.836019452289335385e-01,-3.768666671032800952e-01,-2.540996508956983122e-03,-7.868714300475219969e-03,4.641915719882677011e-02,1.204538345336914062e-01
-3.373995743922638679e-01,-4.134766281161874613e-01,-2.663239865453058131e-01,-1.731432660250671954e-02,6.888157170583542738e-03,1.355475399955282101e-01,2.690869569778442383e-01
-2.649906804774173619e-01,-4.474814298304522486e-01,-4.095635990045509711e-01,1.222245366945752055e-03,2.025257136506519728e-02,-1.003625579735529941e-03,1.704669594764709473e-01
-3.021506735717210956e-01,-3.857316705825946102e-01,-4.587356016759204236e-01,2.614088733939126143e-03,6.935929005386570062e-03,6.930938736500546517e-03,1.368431001901626587e-01
-2.943762674053737038e-01,-4.388954240965298181e-01,-4.322684991524015641e-01,-6.652583517656378807e-03,-8.178147696196664748e-03,4.265169099197645836e-03,1.426883935928344727e-01
-2.721685180038614371e-01,-4.554690473163948705e-01,-4.585284622776592545e-01,-2.437915901391674977e-03,-1.157416381261969782e-03,9.062098164072982616e-04,1.849149763584136963e-01
-2.710320144458612246e-01,-4.634374635534237452e-01,-4.603963215796552100e-01,-6.656074690463011090e-03,1.290873566557322778e-02,-7.491265541394679511e-04,1.925577074289321899e-01
-2.704098351953226342e-01,-4.460533162090156711e-01,-4.544634006735545073e-01,-2.754824848893552142e-03,-3.343856433173493688e-03,6.846153560302462634e-04,1.801562011241912842e-01
-2.683943888556579171e-01,-4.495412056425120984e-01,-4.561924962317779331e-01,-1.779952034105628271e-03,-1.121712342230374434e-03,-4.324713785214338932e-06,1.845983415842056274e-01
-3.172306840955960161e-01,-3.870364244996749026e-01,-4.843614370536523661e-01,-2.103900733872025863e-02,2.398356919991879044e-03,4.564340036784204219e-03,1.501549780368804932e-01
-4.107790118115831057e-01,-3.402591192883907545e-01,-6.780912458015950772e-01,-1.051335860284763474e-01,-2.797895125281994050e-02,7.282719246731388096e-02,3.830127716064453125e-01
-2.832956053907815241e-01,-4.481436797117216986e-01,-3.980810947298857871e-01,-8.213562235683822058e-03,-1.200577908206378920e-02,3.438332826912427528e-03,1.486563086509704590e-01
-2.874134065205611321e-01,-4.599731154983436876e-01,-3.940229332011930263e-01,-5.446705630440220464e-03,-2.012760611289391224e-02,1.525666419119494147e-02,1.573168635368347168e-01
-4.181369989270191656e-01,-5.697000833806921127e-01,-5.120572736495548893e-01,-1.081438843264373034e-01,-1.269246490624924562e-01,1.791720708800912942e-01,4.441625177860260010e-01
-2.792149155704940489e-01,-4.388902330290428977e-01,-4.373188492311982922e-01,-3.507886402290208514e-03,-2.553137502349775087e-03,6.229766882707170241e-04,1.590767204761505127e-01
-4.526505183587754000e-01,-6.911275881731167026e-01,-3.947179789253428828e-01,-4.869324472693206673e-02,-8.652191398669267786e-02,1.693363728293107162e-01,4.354752898216247559e-01
-3.317873525878428653e-01,-4.351711795016408590e-01,-4.275915391852070924e-01,-7.306254874316272250e-04,1.498335255942388538e-03,3.017247914834699646e-02,1.127010509371757507e-01
-2.837646641229447653e-01,-4.087224638931087339e-01,-4.438246303485230970e-01,-7.275695451860083630e-03,-1.202778373874593097e-02,5.736531960929497874e-03,1.480690240859985352e-01
-3.009459262345107744e-01,-4.514275956096551190e-01,-4.844423441361188076e-01,-3.339183061465554603e-02,1.894645766137330670e-02,-2.160058663913820218e-02,1.858077645301818848e-01
-3.142959782605985186e-01,-4.422091695319213533e-01,-3.887202625541388290e-01,8.680661060303689665e-04,-1.163533475295987479e-03,-7.489842337771677842e-03,1.120514422655105591e-01
-4.307138295011084250e-01,-1.802642419886313907e-01,-6.908965928994071914e-01,5.608602297338746712e-02,4.762488915687501136e-03,3.414436705373517789e-02,4.567112922668457031e-01
-2.831072157475009177e-01,-3.984358455855441794e-01,-4.377152261895383978e-01,-1.443983729337489433e-02,1.141564611804956123e-02,-1.624804326447455705e-02,1.455406248569488525e-01
-3.113849813954461809e-01,-4.165677387119158248e-01,-4.227949601993273299e-01,-5.735274784973437437e-04,-1.293201759891644950e-03,-5.354032871784361602e-03,1.088539734482765198e-01
-4.059464810759337294e-01,-6.313187632476257027e-01,-1.910998818182336190e-01,-8.323817112406404345e-03,1.546359572779580248e-03,-1.134062000404933296e-02,3.820641934871673584e-01
-2.875808650015177492e-01,-4.429335811458785521e-01,-3.454674401512627391e-01,1.034982336252028914e-02,-1.429472815613378779e-02,-1.330851812137679759e-02,1.412735283374786377e-01
-3.023826412434061361e-01,-4.519316150709816737e-01,-3.985813353612711052e-01,-8.067361995903677557e-03,1.859656509322875004e-03,-8.395364782006021348e-03,1.328523159027099609e-01
-3.466690104612886181e-01,-4.686332691863883126e-01,-2.410361519984158818e-01,-1.566715389791234134e-02,-3.093487856028535529e-02,-9.883733028425673028e-02,2.680125832557678223e-01
-3.300957915687804944e-01,-4.828523317936086467e-01,-3.723854446235728699e-01,6.926649155771927475e-03,-1.026247868917118736e-02,-2.256686707678463161e-02,1.437032967805862427e-01
-3.441716315826436334e-01,-4.708433374458703136e-01,-3.691657200492522994e-01,-9.743878725806497457e-03,2.067378170760194971e-03,-5.023963590339979718e-02,1.461988240480422974e-01
-4.031689884852296402e-01,-7.327175418103251126e-01,-3.823961184481210474e-01,1.837056997765964400e-02,9.297508359836709202e-02,9.238862269703257413e-02,4.104045927524566650e-01
-3.268410927110055320e-01,-3.929160485275763892e-01,-2.044651124296953670e-01,-2.804563292030211666e-02,-8.983405052518765241e-03,-1.232112386513907892e-01,2.749046683311462402e-01
-3.014597387572708342e-01,-4.371306420502499845e-01,-3.958281966678794395e-01,-1.050672233035153391e-02,4.464179487563061516e-03,-7.653352892719633878e-03,1.227828487753868103e-01
-3.194406437353019546e-01,-4.510357968473992507e-01,-3.793350960529733307e-01,3.447518679694911575e-03,-2.291168618666400772e-03,-9.859090862856070489e-03,1.156106367707252502e-01
-4.224287653262861486e-01,-7.252475819119759137e-01,-4.262776165924443972e-01,-2.917967913321349929e-02,1.420049145254693168e-01,-2.878428221534426110e-02,3.950755596160888672e-01
-2.979271661009235683e-01,-4.552101769799931086e-01,-2.640819443878225092e-01,-3.774496472811480346e-02,1.023157708592815629e-01,-7.117145730227596168e-02,2.865003347396850586e-01
-2.709287495863795803e-01,-4.588648612581029962e-01,-4.541362595956331405e-01,-2.185834920146182987e-03,2.334196707862355724e-03,-6.148188366932903293e-04,1.857026666402816772e-01
-2.609955339715781530e-01,-3.690284017245564208e-01,-1.667775241186027491e-01,-5.809071175298330392e-03,9.447695177676615486e-03,-1.136937579052053476e-01,2.643380463123321533e-01
-3.330097318581455856e-01,-5.227246748023762768e-01,-3.869027895854467158e-01,7.571731324550054487e-02,1.210567427278266134e-01,6.880896195164043494e-02,3.225514888763427734e-01
-3.015619914733352336e-01,-4.556074785568567376e-01,-3.960228637902119542e-01,7.210007237805494094e-03,4.022497631607151007e-03,4.181141559985336077e-03,1.354936808347702026e-01
-2.737081531399421230e-01,-4.306498183596629281e-01,-4.464328923987274100e-01,3.127275159118932980e-03,6.716091177297578083e-03,1.269106851981654160e-03,1.659105271100997925e-01
-2.713813973253013101e-01,-4.282784264264856144e-01,-4.419038812628419688e-01,1.038109549236456049e-02,1.028858555639835040e-02,6.903610481972210534e-03,1.665051579475402832e-01
-2.961476127595917274e-01,-4.667835105254893868e-01,-3.985907720222061634e-01,-1.777484877758630025e-02,4.218535545670796388e-02,-1.685422639832591038e-02,1.710835248231887817e-01
-2.808540887882241543e-01,-4.099643522978994037e-01,-4.425309581620501809e-01,7.918261326882508264e-03,1.221198580982497603e-02,4.719495047889469067e-03,1.504561156034469604e-01
-3.126316214938800742e-01,-4.683036878043069784e-01,-3.652056447870441480e-01,2.191240182031434583e-04,1.050167333606038048e-02,4.187105165811023142e-06,1.383637040853500366e-01
-2.738809625465546960e-01,-4.527558922268511976e-01,-4.555336185071707233e-01,-9.103531296244690664e-04,1.190515310379288523e-03,4.860315023982272366e-04,1.803004890680313110e-01
-2.734973583564532240e-01,-4.544434114405530578e-01,-4.494580851173464175e-01,1.211907724267536138e-02,1.035384525443934153e-02,5.269544514618074854e-03,1.808584481477737427e-01
-2.976509806542180780e-01,-4.668946491506024699e-01,-4.007866681623228899e-01,-1.567388135307195207e-03,1.066866577443292829e-02,-1.543940772092449593e-03,1.489339172840118408e-01
-3.359468851501297149e-01,-4.577409088693332739e-01,-4.514201711239886339e-01,-1.542816212517964143e-02,-1.434587404820893836e-02,3.603828708871512077e-02,1.390384137630462646e-01
-4.217835759815781738e-01,-4.942011579806887545e-01,-5.862205934054067757e-01,1.039516902256328312e-01,7.777963425073816661e-02,1.726558216287232272e-01,4.004655778408050537e-01
-3.302603752470219534e-01,-5.887656284173005128e-01,-4.650757616259361127e-01,8.270110574200729286e-03,7.836362092829997350e-02,1.176216020886188679e-02,2.630446255207061768e-01
-3.034403627041762364e-01,-4.159645086357701693e-01,-4.105675495978402534e-01,-3.619767201343780487e-03,-3.452082014028596733e-04,3.574213774051232528e-03,1.102792471647262573e-01
-2.807650040856981555e-01,-4.826748228764916049e-01,-5.174917694246857769e-01,-4.518032604654341478e-02,2.574095809084485376e-02,-1.965819771681065822e-02,2.414137274026870728e-01
-2.795320505117659948e-01,-4.472069039482384212e-01,-3.865055705800798380e-01,-5.736676091166244273e-03,1.692727474268744536e-02,-5.111133486730323056e-03,1.505261361598968506e-01
-3.257704329384249475e-01,-4.919169979266849735e-01,-3.808214161319657953e-01,-8.285424421996685752e-05,1.790264371693714093e-02,-4.489431326490306469e-03,1.500358581542968750e-01
-3.051115779789434490e-01,-4.737841804548828528e-01,-3.914915041111869942e-01,-3.472759934555897255e-03,6.979607830256534182e-03,3.277442501329724464e-03,1.468215286731719971e-01
-2.968109902795967869e-01,-3.641829810028759939e-01,-4.466492163550109806e-01,-1.792808225793969187e-02,-1.071051425565687672e-02,6.232039221355526772e-03,1.353531926870346069e-01
-3.052792987568159200e-01,-4.069937776865532042e-01,-4.445525519729079944e-01,1.054249340508541487e-02,1.148562445091871539e-02,1.520898092615676628e-02,1.303836554288864136e-01
-2.958501140806272245e-01,-5.151290406863866522e-01,-5.211828527294725122e-01,5.160193972401792319e-03,1.641913778999838300e-02,-1.082166176498911003e-02,2.251385003328323364e-01
-3.323277474707274082e-01,-4.819628442199633822e-01,-3.336329940511738035e-01,-1.519366824758504667e-02,1.338044255112405718e-02,-1.696142245918895453e-02,1.558517813682556152e-01
-4.466615749160183224e-01,-7.196930770856670989e-01,-6.941279582600518028e-01,1.697486130537723681e-01,1.579212110902573352e-01,1.230373966787904061e-01,5.243046879768371582e-01
-4.365609011098104397e-01,-6.700082404624867483e-01,-3.533926901026843703e-01,1.980192239063641516e-02,9.535180319108005342e-02,1.435852872336237374e-01,4.136815965175628662e-01
-2.386478445786134883e-01,-4.272057076925559471e-01,-4.695280673820074746e-01,6.270164595075301828e-02,6.237636376059008808e-02,6.181627567772913362e-02,2.832951545715332031e-01
-2.853731183081730793e-01,-4.445172135307774997e-01,-2.974776839249956284e-01,-6.185491909526238605e-04,2.612694483414145299e-02,-1.007340384543715418e-02,1.609360575675964355e-01
-2.756094827282734028e-01,-4.677124960072599480e-01,-4.640813732956526327e-01,1.825227337145414680e-03,1.566334312824244068e-02,-5.483190660512053238e-04,1.922657489776611328e-01
-2.792567625548600385e-01,-4.662438259688401754e-01,-4.566445661769895636e-01,8.667264581086407335e-03,9.924400979637171619e-03,4.887052065756304284e-03,1.839942038059234619e-01
-2.979623550688694222e-01,-4.581945174766470785e-01,-3.609046638979389043e-01,-9.897303028794464733e-03,2.089083205166296017e-02,-7.597906958005855825e-03,1.460377722978591919e-01
-3.708277022999600381e-01,-7.442649293571170777e-01,-7.942098982197188795e-01,1.200195501352903094e-01,4.554760602111258827e-02,3.362430967058836068e-02,4.619857072830200195e-01
-2.759511389840064721e-01,-4.546747085331124261e-01,-3.567737812479943593e-01,4.965150778146903456e-03,4.290749523469999244e-02,4.740525914539267006e-03,1.723195761442184448e-01
-2.934887526765417309e-01,-3.795939182546310686e-01,-4.964664764994745627e-01,-5.868542714319972819e-02,1.702688511005627514e-02,-7.796379275193814117e-04,2.057671844959259033e-01
-2.705379574017700572e-01,-3.174513994450766097e-01,-4.416660022231846949e-01,-7.061397692129006698e-02,-3.619875860261097950e-02,7.824000365026938242e-02,2.463980913162231445e-01
-2.844800685927516559e-01,-4.448750073838783070e-01,-4.851887166911469373e-01,-6.843346790524630630e-02,-1.494089540331160378e-02,1.151826008716864969e-02,2.212124913930892944e-01
-4.340663963534444614e-01,-7.173276614032836340e-01,-3.479572712950818048e-01,1.198788849266115009e-02,1.243496566700136169e-01,7.519590252581514339e-03,3.987886309623718262e-01
-3.434201728906149387e-01,-4.218078956409606617e-01,-5.429454031846546735e-01,-4.521653798688378412e-02,-2.340834001751650878e-02,4.597962694185608878e-02,2.107948213815689087e-01
-3.712641033899845566e-01,-6.429051526001732242e-01,-3.498678089862929941e-01,-5.022176250807752068e-02,-1.129066550603021607e-01,1.644363865513232548e-01,4.549584090709686279e-01
-2.803665279099183949e-01,-4.619080314728407077e-01,-4.679870831597262582e-01,-2.200419722427145522e-02,-1.416487756040465951e-02,4.880861635208249942e-03,1.903255730867385864e-01
-3.031658575448322734e-01,-4.129083103837154489e-01,-4.699684788722752748e-01,-5.039585453598208892e-02,-2.671615279347196864e-02,2.955705171961742206e-02,1.842349916696548462e-01
-3.035222533700759895e-01,-4.724095994355730910e-01,-3.870336041399980997e-01,-1.891851967081579263e-03,-5.667132857516175327e-03,-1.645038260394889387e-03,1.466570049524307251e-01
-3.160815886061056901e-01,-4.746470589958818320e-01,-3.635657849475136816e-01,5.779370837689520868e-03,1.478652915493315276e-02,8.522800983108843546e-04,1.436200141906738281e-01
-3.679541167424787984e-01,-3.595014941320113788e-01,-6.716913219695871407e-01,-1.292389279578603778e-01,3.247119254529039212e-02,2.909092140155124240e-02,3.882076740264892578e-01
-3.030044861230874464e-01,-3.222165784092968499e-01,-5.527955713091050605e-01,-1.349278052593746446e-01,-3.653284734280799056e-02,-1.002256889071456714e-02,3.418881595134735107e-01
-4.753888704011560162e-01,-7.417004636439613607e-01,-3.366997800744170322e-01,-1.554516288646065093e-02,-8.767279080051011697e-02,2.784982377372962822e-02,3.914107680320739746e-01
-2.844464737784459518e-01,-3.953849023409867769e-01,-5.345795082146406196e-01,9.318643631218283263e-02,-1.537509547385049712e-02,-8.920329855630085292e-03,2.722563743591308594e-01
-2.192840454002730755e-01,-3.069178404702551655e-01,-4.307358083246410896e-01,-1.011606425585084706e-01,-2.807435262939211168e-02,5.266198746728249086e-02,2.743100523948669434e-01
-2.781051238359507627e-01,-4.690286557205815554e-01,-4.670351580389416335e-01,1.141688451536816001e-02,3.656831110441597418e-03,-6.436504801400962528e-04,1.910695135593414307e-01
-2.844971098109143059e-01,-5.534333320882687257e-01,-5.598690660800931251e-01,3.961744518146126381e-02,-2.621118111769800852e-03,1.379460646178244307e-02,2.817783355712890625e-01
-3.129532952415627345e-01,-4.190146061601894845e-01,-4.255652122341593291e-01,-3.113798117850391343e-05,-1.864371056158053335e-03,6.615701012079045970e-03,1.101290658116340637e-01
-2.711010516798420533e-01,-4.263416706298382985e-01,-4.547798652283266962e-01,7.212611267758001383e-03,-2.797159564078855257e-03,-1.348728031862054004e-03,1.717793345451354980e-01
-4.005056944671030461e-01,-5.075174839841128938e-01,-7.897532198301331352e-01,1.931017039382594280e-01,8.321761914871278129e-03,-6.821427725411319254e-02,4.973361194133758545e-01
-2.824873465976288633e-01,-4.404202843764928321e-01,-4.333940231386428366e-01,7.456274154730282988e-03,4.621802651584456037e-03,3.779104085195121501e-03,1.554227173328399658e-01
-2.770840230008699834e-01,-4.592894447277593439e-01,-4.584238546250105628e-01,4.803119111126317141e-03,-7.584086803117047124e-03,4.783088111334173661e-04,1.824398487806320190e-01
-2.698424577039406635e-01,-4.517283393085331777e-01,-4.447612568574282332e-01,3.526049541784993455e-03,-1.897112558532725122e-03,-7.084802359921885118e-04,1.786432266235351562e-01
-2.939485420294362106e-01,-5.015726831586742041e-01,-5.319994371978636893e-01,3.403163081518374711e-02,-3.645526990946126866e-02,-2.078637033904666767e-02,2.431224733591079712e-01
-4.283403450622134678e-01,-4.979314480355093164e-01,-7.116035524719537264e-01,1.215021346264625463e-01,5.470200280028208323e-02,1.057697056092774118e-01,3.901221454143524170e-01
-2.844941210921373975e-01,-4.304888707026190975e-01,-4.318636481697981644e-01,1.429905302202195321e-03,-4.006077837564476357e-03,-3.153809212578151302e-03,1.469734162092208862e-01
-4.116372413284066778e-01,-5.741018959873286365e-01,-9.010199075651958989e-01,2.206401841263546104e-01,4.362904849309405531e-02,1.910739303154712328e-03,5.815070867538452148e-01
-3.112043353113325139e-01,-3.658328834548245090e-01,-4.367974308631268898e-01,4.674110911169614135e-03,8.847221242790500109e-03,1.405409936823197141e-02,1.130922213196754456e-01
-2.738812742663909727e-01,-4.467608329146004476e-01,-4.465761825995391843e-01,1.256973614793153657e-03,-5.789992788985981898e-04,-1.242906129850147618e-04,1.728040724992752075e-01
-2.793835825075002277e-01,-4.223676619561206325e-01,-4.047125021488306995e-01,6.965286787209845273e-03,-3.472412306724032699e-03,-6.092889168296080835e-03,1.361059695482254028e-01
-2.971526744713589574e-01,-4.203603039411260012e-01,-3.948397796586208819e-01,5.871682048091680407e-03,6.386312520735906544e-03,1.036460775128924920e-02,1.150441393256187439e-01
-3.010756640821881103e-01,-3.839898804545974764e-01,-4.592660372931600121e-01,3.745407485162433742e-03,-3.511252649986294685e-03,-2.061178164591487890e-03,1.373846679925918579e-01
-2.706782091306091376e-01,-4.452907129197982705e-01,-4.431410826681647097e-01,2.086999690797502506e-03,-3.710309192003016961e-03,-5.118669752849914741e-06,1.737042367458343506e-01
-3.443823910121259213e-01,-3.015961605185698557e-01,-4.983459735173878524e-01,6.411453598597581342e-03,-1.605396943197619653e-03,4.190492256843297153e-02,1.937061846256256104e-01
-3.742409266004395607e-01,-7.186393853314956282e-01,-4.837699482553167174e-01,-8.322253039537649832e-02,1.723234299358905874e-01,-1.100271669519506113e-01,4.889450669288635254e-01
-2.966902813006300765e-01,-5.112045406864711428e-01,-4.980124313510793099e-01,-1.531571510218194372e-04,2.197043427306914765e-02,1.174689854571759479e-02,2.126561552286148071e-01
-2.892082813183239898e-01,-4.347753823517182536e-01,-4.248255872845981829e-01,6.685497054613990728e-03,-3.136711486605477193e-03,-1.329192904718759852e-03,1.414543092250823975e-01
-3.106743846182521973e-01,-3.229314533364340267e-01,-4.580126783742076158e-01,-8.321589818629046174e-04,-2.782612114981001562e-03,2.158048267958392538e-02,1.465446352958679199e-01
-2.758475106443025182e-01,-4.619189299859125519e-01,-4.442974352823166329e-01,4.200129625866244609e-03,4.829684101960975357e-04,-3.506023342813066167e-04,1.780680418014526367e-01
-2.802465950816703244e-01,-3.872145908964313987e-01,-4.553716399418500926e-01,1.510674927316557441e-02,1.860091862748019858e-03,1.006025383119953966e-03,1.551651209592819214e-01
-3.274560544339225054e-01,-4.530766534344604635e-01,-3.515582682196140563e-01,-5.333419525123030830e-03,-1.252184229567175622e-02,6.914906667897534331e-02,1.680304259061813354e-01
-3.167457681612378395e-01,-4.359960928558453963e-01,-3.347696450158961778e-01,-1.372875989846396999e-02,-1.897220190317743319e-02,1.010988676632788991e-01,2.114340513944625854e-01
-3.031616090752274340e-01,-4.148862751955874062e-01,-4.087320647175669008e-01,1.207810844694962374e-02,2.026243987539381661e-02,2.673003639954719957e-02,1.250820755958557129e-01
-3.150229026394838483e-01,-4.761370323551237793e-01,-3.491885493191936307e-01,1.041996164508836135e-02,2.751487493176659263e-02,3.096717207928754642e-02,1.646035015583038330e-01
-2.733561014986182758e-01,-4.609426870109005758e-01,-4.591477306610106668e-01,4.828120711046189899e-04,1.999552466112144468e-03,3.107669454747911497e-04,1.867303550243377686e-01
-2.908446910929396445e-01,-4.267164038645578361e-01,-4.522981979469821723e-01,-1.103121236683271555e-02,-1.513838432520515920e-02,9.568023751688334994e-03,1.546564251184463501e-01
-2.961029226796408897e-01,-4.666042136181164368e-01,-4.242568449123766960e-01,4.915557599187866077e-03,2.278926082832868905e-02,7.909188677463960954e-03,1.595678925514221191e-01
-4.511115962435590099e-01,-7.548806152245923773e-01,-5.300926871391175021e-01,8.331882117488856321e-02,1.399449403966943339e-01,1.193575351435273435e-01,4.436666667461395264e-01
-2.705722219865537292e-01,-4.538376163903857230e-01,-4.494412119761281854e-01,1.649389485747109006e-03,1.635412876217027904e-03,-2.494327475101839123e-04,1.811524182558059692e-01
-3.675239574463433634e-01,-5.354505203665016477e-01,-4.121938913497508183e-01,1.905059782438614860e-02,-3.718863199970806610e-02,-7.074825260190878429e-02,2.072369903326034546e-01
-4.410521380516012058e-01,-6.360699763827721842e-01,-3.273739252693861346e-01,-3.879818275959284052e-02,-1.030056484947150380e-01,1.751078154695346611e-01,4.488413929939270020e-01
-4.027206611711094397e-01,-6.147431269354969308e-01,-2.036085014485520817e-01,-2.370698482600469212e-03,-2.664231108227181274e-02,1.366382267101566572e-01,4.300834238529205322e-01
-4.217404384206670520e-01,-5.994996645799972601e-01,-3.938088149559590967e-01,8.048104904801504922e-03,-1.555865941632571942e-02,1.845394781309296628e-01,3.747380673885345459e-01
-3.113372160016131818e-01,-4.281023989918878447e-01,-4.068214406005342676e-01,-1.410380435372779462e-02,-2.003379449325884062e-02,4.606448992049337610e-02,1.406013369560241699e-01
-3.156508442167813566e-01,-5.630853604478962549e-01,-5.205404028911533310e-01,-1.029659462565670272e-02,-4.997034735082209883e-02,3.624247924101463465e-03,2.456733435392379761e-01
-3.558883376107935814e-01,-4.951605895170639871e-01,-3.764512413505192168e-01,-2.564692646643744814e-02,-2.740301621678979324e-02,9.112932961015104971e-02,2.146985977888107300e-01
-2.801893947509750404e-01,-4.642959357380283536e-01,-4.642668480039507384e-01,1.594983498090629843e-03,-1.053213817323832638e-03,1.040955040384614798e-03,1.841305941343307495e-01
-3.473993975925744326e-01,-5.788548184336037572e-01,-4.087097151902855940e-01,-2.690830289613864099e-02,-1.588624629399755794e-01,2.663548672305096968e-02,3.509306609630584717e-01
-2.443707469127370246e-01,-7.633138694448950989e-01,-6.407378881743759358e-01,-3.892268321606478371e-02,7.007071291715563643e-02,1.757738688153946335e-02,4.908343851566314697e-01
-2.836438762193844165e-01,-2.980106472955598162e-01,-4.215106054497199661e-01,-1.402534373793434645e-02,-7.246571469215559030e-03,3.340376510187479525e-02,1.460412442684173584e-01
-3.731429319786019883e-01,-6.771816511360838620e-01,-6.707623054198172952e-01,1.102316005094812895e-01,-1.192239241809668476e-01,-9.407371347501959635e-02,4.429160952568054199e-01
-4.103801585427969134e-01,-6.474471536649333281e-01,-8.071587402446707138e-01,1.612942887636282796e-01,-5.683872550173530575e-02,-8.523935792063336292e-02,4.786518514156341553e-01
-3.160722190020778810e-01,-3.877569784615149118e-01,-4.431931689910991179e-01,-7.968405636020007080e-03,-4.391545164202845068e-03,1.287290256500545245e-02,1.137158051133155823e-01
-2.690235464197174853e-01,-8.561288617812158330e-01,-8.042567071625330577e-01,-4.194584749607958851e-02,-1.116148629307157358e-01,3.710071895799961668e-03,5.996851325035095215e-01
-3.072898010658287049e-01,-5.370951818923673793e-01,-4.340097679195455971e-01,-2.048540155644380453e-02,-7.177222396121668568e-02,1.857996200284185023e-02,2.397830039262771606e-01
-2.914544939522051292e-01,-3.890456933272887219e-01,-4.334640427341023283e-01,-2.661120768770285604e-03,-8.887705686356611387e-03,1.590611905999783984e-02,1.298041045665740967e-01
-2.785738658014568769e-01,-4.572987033249334421e-01,-4.596249650119685892e-01,6.164178113097903630e-03,-5.332260450115858773e-03,1.446828479452002669e-03,1.804696917533874512e-01
-3.118107766379093482e-01,-6.434612936344226153e-01,-7.636340459683246262e-01,7.567429650047070855e-02,-3.399319529392928058e-02,-1.719981208109816126e-02,4.310716986656188965e-01
-2.875942131673618896e-01,-3.911603916428917360e-01,-4.576090569065364155e-01,1.344402243034429137e-02,-2.264123173169665503e-03,-2.555457649715671149e-03,1.503343135118484497e-01
-3.069941414968485605e-01,-4.024569575974005220e-01,-4.410169677094228913e-01,-6.049745831179877999e-03,-7.918344339474657489e-03,5.904501122995057215e-03,1.211757361888885498e-01
-2.907588193528494180e-01,-4.638094098552609790e-01,-4.859845663287785111e-01,9.418006650405154681e-03,-3.219024432419386340e-03,-7.534910723640717359e-03,1.863952130079269409e-01
-2.703387119477399514e-01,-4.518255918411897554e-01,-4.546861731722807720e-01,5.183262283390641795e-04,-1.586769041513761205e-03,-5.860715657084511867e-06,1.829567998647689819e-01
-4.136895675308033260e-01,-6.077046956796344768e-01,-9.109721678723010641e-01,2.223352018065994362e-01,3.863648499494251598e-02,9.272825025061694204e-03,5.843685865402221680e-01
-2.728750187984281261e-01,-4.488044874358711467e-01,-4.457886168750655465e-01,2.378274941663820370e-03,-1.140007837073103280e-03,-3.859381735644591411e-04,1.745021641254425049e-01
-1.985280888899575991e-01,-8.603508296101823882e-01,-9.471347838960775256e-01,6.777362045914674116e-02,7.561911816329024150e-02,7.901125125733791596e-03,7.308202385902404785e-01
-3.034800176957954121e-01,-4.267702311588792430e-01,-4.405081615093192626e-01,-1.180972947128001646e-02,1.379343588491791645e-02,-1.221724344417231788e-02,1.360879391431808472e-01
-2.704257799515208394e-01,-4.518331562374803823e-01,-4.549762510201308952e-01,5.028951815707958899e-04,-1.615871087218744223e-03,3.706070000541168919e-05,1.830226480960845947e-01
-3.272170942437520047e-01,-5.318419608662858789e-01,-5.605214150422207497e-01,-3.068663127076338287e-02,3.316968077901034234e-02,-1.883697405745266007e-02,2.361198067665100098e-01
-2.719766165782167011e-01,-4.504201573620972843e-01,-4.493016862656170063e-01,8.284262529673048180e-04,-9.303447308067220450e-04,1.641690756171721441e-04,1.779002547264099121e-01
-2.798688711540432417e-01,-4.617403967520877783e-01,-4.625612362500344799e-01,-1.673553531045184105e-03,-2.670111703120430120e-03,-9.792826828341856180e-04,1.823729127645492554e-01
-1.957422662069488728e-01,-3.995170222755143330e-01,-4.872169413673275717e-01,-1.128225925279277148e-01,2.998725128120814654e-02,-1.820725553682757056e-02,3.300991952419281006e-01
-2.109381769083080727e-01,-3.372706108584552775e-01,-4.607798429798326545e-01,-1.237878311254030778e-01,-1.053522918524805356e-03,1.129305569981478921e-02,3.052439093589782715e-01
-2.919146450306648877e-01,-4.757256538637432697e-01,-4.732312311724370391e-01,-8.260930175331008055e-03,1.616385894973506676e-03,3.902278006215756444e-04,1.831590235233306885e-01
-4.226989974187840282e-01,-4.647757088524814284e-01,-6.915408860574723260e-01,-1.323963880653261649e-01,5.066652590836027981e-02,-1.077609759609848145e-01,3.973152637481689453e-01
-2.655192410898694622e-01,-4.514122687318975480e-01,-3.980815330659346896e-01,6.309370448513324479e-03,-1.194132158097447292e-02,-7.732583874391837919e-03,1.679677367210388184e-01
-3.153478754381254245e-01,-1.007009030743812872e+00,-9.836896914403776560e-01,-4.857020635790999102e-02,7.848215330333979667e-02,-4.803310083512953022e-02,7.037662267684936523e-01
-3.433303423598915161e-01,-1.073988279243599298e+00,-1.102606163280679841e+00,-5.497517350127480162e-02,8.283886594701092565e-02,-2.292994003439484743e-02,7.660423517227172852e-01
-3.096532945343299925e-01,-3.706646984840085146e-01,-4.366131180126401334e-01,-2.672980147072330157e-03,-3.877412369941615755e-03,1.915773532617430497e-02,1.151641681790351868e-01
-2.732445050969276590e-01,-4.494463908031095523e-01,-4.473234039785838334e-01,2.831787492866358509e-03,-3.350062096577194164e-03,-2.619644158613653644e-04,1.753153353929519653e-01
-2.808431576006590324e-01,-8.436589604295000600e-01,-8.772309557490344245e-01,-8.346068948959697864e-02,-8.731030829241237523e-02,2.669777481848501638e-02,6.186179518699645996e-01
-2.970460988446948503e-01,-4.714421434146448542e-01,-4.721494614513290777e-01,-1.648612650888168054e-03,3.966775081020399991e-04,8.611987987828170483e-05,1.747755259275436401e-01
-2.697361335791345072e-01,-4.422891028099501520e-01,-4.419962418014770633e-01,2.973956698543120739e-03,-3.415241509950851361e-03,-1.858697806339871693e-03,1.726150810718536377e-01
-2.693088478400543773e-01,-4.493928642413070884e-01,-4.503210737241278294e-01,1.042545264239873011e-03,-1.708354806502142232e-03,1.615017578927528533e-04,1.805834025144577026e-01
-3.174272143199728391e-01,-6.020522755894504030e-01,-8.122770301676638383e-01,-2.181206582455163523e-01,-2.950163523606538427e-02,2.205879203870299635e-02,5.760570764541625977e-01
-2.716477457934665107e-01,-4.511706501037066053e-01,-4.513652790489918742e-01,6.910505358990869530e-04,-1.243481250129320308e-03,4.044715991454550752e-05,1.796372085809707642e-01
-2.988555886161963770e-01,-4.778398831980943395e-01,-4.793853941235516336e-01,-5.605384599573675491e-02,6.285385582576399899e-02,-2.848833436194983179e-02,2.367003709077835083e-01
-4.185574570276562878e-01,-4.346869795527701918e-01,-7.228409622377096611e-01,-1.649897454897817084e-01,2.854077475229725019e-02,-5.533031266427809736e-02,4.257153570652008057e-01
-3.480554174770872367e-01,-6.716464917119183697e-01,-6.872557689006584258e-01,-1.456034397772355826e-01,1.386258993730906663e-01,-9.768535502018858840e-02,5.097898244857788086e-01
-2.800970070195124562e-01,-4.629108993715832510e-01,-4.458427220703639615e-01,1.644627234246583353e-03,1.078596273386009906e-02,1.690083721808987574e-03,1.759478300809860229e-01
-3.038825116921827219e-01,-3.538153224972785948e-01,-4.909331190268594325e-01,-4.167114473461570878e-02,-1.654543834451372569e-02,4.618078794888934302e-02,2.014198452234268188e-01
-2.261646881087943373e-01,-4.606892701654340394e-01,-4.260374846238859092e-01,-4.544879229490154243e-02,5.934193263835264853e-02,-2.930989494301757675e-02,2.596424818038940430e-01
-2.628592791332116096e-01,-4.604414483199346098e-01,-4.622139529252514700e-01,-7.991308934353911000e-03,1.373061619449223586e-02,1.374165776036433790e-03,2.003868967294692993e-01
-2.793109142488270358e-01,-4.060266196042190412e-01,-2.835667986926340700e-01,-1.644119957904717879e-03,6.472297735262323368e-03,-3.669917914109938756e-02,1.403921842575073242e-01
-2.861256692160649151e-01,-4.271657274829397388e-01,-4.556624141464561406e-01,-3.426629842977778773e-03,7.864343504931573317e-03,-9.949121060570816598e-04,1.579470485448837280e-01
-2.736320437247782289e-01,-4.598974309505419744e-01,-4.598951350092834733e-01,-3.148523496249349199e-03,-2.189951163535668391e-03,-1.423390675564879934e-03,1.863989531993865967e-01
-3.743042007216805800e-01,-4.933711926701789263e-01,-4.323542950131835094e-01,-1.515301428578444409e-02,2.679131622205941851e-02,-9.216583849361803527e-02,1.973846554756164551e-01
-2.767121118251820167e-01,-4.618596063768811710e-01,-4.608072410113698836e-01,-3.262917794975719096e-03,-3.401150109450834817e-04,-2.862097267367055874e-04,1.847116500139236450e-01
-2.709304741491088686e-01,-4.510080467229287682e-01,-4.259524081857402611e-01,-6.302984965448817437e-03,7.356507041005291153e-03,-1.146070409069009253e-03,1.697917431592941284e-01
-4.377352768217436241e-01,-3.290037415477830574e-01,-6.589991980863076915e-01,-3.367513019200406993e-02,-7.125746861751967171e-03,9.805135968266376345e-02,3.423962891101837158e-01
-3.229340327445170411e-01,-5.596248871524815982e-01,-5.530436932836513275e-01,-3.731997655603066545e-03,1.593237849749520180e-02,-3.979347873116189857e-03,2.352848798036575317e-01
-3.067706219291800318e-01,-3.534624283358496211e-01,-4.550103701632364772e-01,2.592376834496304926e-03,-2.673082606125662918e-03,-1.130594040623250467e-02,1.328857988119125366e-01
-4.560951273990928589e-01,-2.886025747951084242e-01,-7.234655213388789807e-01,-3.623246604858965797e-02,8.219958803875680731e-03,5.205035073301440135e-02,3.957171142101287842e-01
-3.184345801368930751e-01,-3.346932140181168025e-01,-4.650239972348949591e-01,6.790047738305838784e-03,-1.513432681227594185e-03,-2.920632422442787177e-03,1.397863775491714478e-01
-3.252628691073546352e-01,-3.426102616424560598e-01,-4.844893305835872854e-01,-7.059223418347471352e-04,1.559487565311938563e-03,1.922048744864786590e-03,1.513661444187164307e-01
-4.375911266278988965e-01,-4.753200792067429625e-01,-6.416695030920012144e-01,-1.178819714342743269e-01,-6.709410755403466542e-02,1.600266507246946024e-01,4.091341197490692139e-01
-2.828698819781172435e-01,-4.167799978188550525e-01,-3.632278916847408445e-01,1.060310784684505465e-02,-1.323077093012256684e-02,-1.765761802988777621e-02,1.242030188441276550e-01
-2.861128938913868880e-01,-4.712531756299481178e-01,-4.720723368593156000e-01,7.826052216236966275e-04,-8.598989088643057546e-04,-9.340911234218517980e-04,1.855691969394683838e-01
-2.910264876707511217e-01,-3.974929202464597133e-01,-4.719871670535892294e-01,-2.013978953594200774e-02,-8.316708912816260860e-03,-5.872500581450943065e-04,1.619907468557357788e-01
-3.323481455855805677e-01,-5.154367871353329189e-01,-3.443595606908909645e-01,1.583931574015525964e-02,-3.015309142612040104e-03,-2.175767339173752257e-02,1.834848374128341675e-01
-3.079387209206498888e-01,-3.522674428652928791e-01,-4.477710429842034490e-01,-1.981805464530753819e-03,-5.101224152673180211e-03,8.270760371234784497e-03,1.249583587050437927e-01
-3.548184294655102877e-01,-5.297240153709046329e-01,-3.576597966400708040e-01,1.524712560460596278e-02,-3.233272676254479727e-02,-6.031661587434269250e-02,2.117805182933807373e-01
-2.636385001048567878e-01,-2.741331153560436773e-01,-3.880745162146810312e-01,7.305664234506949184e-02,4.661015102281118594e-02,9.306788630704343479e-02,2.506048381328582764e-01
-4.665118252327368764e-01,-3.011297415397070631e-01,-7.322163616949660669e-01,5.593375773858683120e-02,-2.017402378482968336e-04,7.123749392978161177e-02,4.080479443073272705e-01
-2.688433589982175409e-01,-4.433429706012691485e-01,-4.187596392069159457e-01,1.476948883125197426e-02,2.257833708648149598e-02,1.146231717772279099e-02,1.712967753410339355e-01
-3.217428755851034494e-01,-3.605821885266955462e-01,-4.789313563747223945e-01,-1.259452385698400399e-03,-3.219898466080884942e-03,9.491600270759726482e-03,1.428906917572021484e-01
-3.007755611278726815e-01,-4.783195847180418681e-01,-4.814501113307842473e-01,2.203994042343468710e-04,-7.911366582969455016e-04,-1.117826202205252691e-03,1.791459172964096069e-01
-2.781782602018686990e-01,-6.568274371591480421e-01,-5.826832062692663960e-01,-4.800120369121922866e-03,1.292570346943777149e-01,3.342707891700739259e-02,4.175419509410858154e-01
-2.790140854555250849e-01,-4.672597422395997624e-01,-4.681202906434140387e-01,-9.342466333577267162e-03,2.082335878093757257e-03,-2.916714245021370211e-04,1.894050389528274536e-01
-3.008253350822023275e-01,-5.856117772201256955e-01,-5.408336026179056955e-01,7.884754331393102958e-03,8.109392065069088995e-03,4.538178569665888597e-03,2.660860121250152588e-01
-4.163382505971828795e-01,-3.493315642911327679e-01,-6.012604064280215876e-01,-1.337470508933673308e-02,-2.496782018192362021e-03,1.514091778710792424e-01,3.469966650009155273e-01
-3.108390905116613645e-01,-3.831095410854119532e-01,-4.354334055470603371e-01,-1.552524020716950295e-03,5.947525609794734186e-03,8.653646090771249105e-03,1.099103316664695740e-01
-3.060980607314462976e-01,-3.915400970694593030e-01,-4.526611280369060020e-01,-1.290575561899620291e-02,-7.078665741562291218e-03,3.168082339613371295e-02,1.411362737417221069e-01
-3.557979858983270627e-01,-6.213484460692682010e-01,-7.914139030921316653e-01,-1.887920525565155716e-01,-4.908893300126875026e-02,5.368725997171340525e-02,5.171109437942504883e-01
-2.745497265280920085e-01,-4.552765054892265462e-01,-4.618062566043795725e-01,-2.923487664446474624e-03,1.339969288059510155e-03,1.364944815878227054e-04,1.841629445552825928e-01
-3.107378192453381094e-01,-4.886206288217448401e-01,-4.858743802776467335e-01,2.584088890788290146e-04,-9.777459970530439932e-04,-3.255723000868326975e-03,1.766244471073150635e-01
-2.665706479110367400e-01,-4.394911680296549883e-01,-4.539715340973033975e-01,-7.671080541256810464e-03,-4.396737229898663862e-03,-1.127334649890458741e-03,1.812552958726882935e-01
-2.984219275023614060e-01,-4.304940859787527718e-01,-4.783005331057733067e-01,-1.391381828997180058e-03,7.342396683806273489e-04,2.357168922770643080e-03,1.614512503147125244e-01
-2.702379245895852877e-01,-4.551720900420346272e-01,-4.557908602423050848e-01,-2.460424284218391128e-03,2.090330524319384837e-03,-1.794042847611420266e-04,1.853289604187011719e-01
-4.193145343419736881e-01,-5.016986202471158673e-01,-7.647110952347966339e-01,-1.638302549328891078e-01,-3.420604868920083114e-02,4.921385656315680618e-02,4.346584677696228027e-01
-3.207145787202606013e-01,-3.834817791660616870e-01,-4.449773640995849933e-01,-9.218283457003447964e-03,1.246030083448545784e-03,-1.595898443655396556e-02,1.122719421982765198e-01
-4.133467389542753168e-01,-4.041792758345595926e-01,-6.127558631001712719e-01,-1.194628085363766828e-01,-7.019439095648589977e-02,1.437526123275840173e-01,4.015798866748809814e-01
-2.891515716432238037e-01,-4.125111675812708212e-01,-4.099582872672338785e-01,-1.081160055716171020e-02,-1.117939888065218844e-02,1.197187964634751495e-02,1.267468780279159546e-01
-2.714173934211507877e-01,-4.529108163642739937e-01,-4.593900775305079787e-01,-1.387197771466850858e-03,5.351094980963299989e-04,9.707529654149935181e-05,1.848362684249877930e-01
-4.461485040415254510e-01,-3.877040903179698184e-01,-7.612990125437588684e-01,-1.136000633564160922e-01,-1.699006388155454086e-02,2.733229606618894914e-02,4.037034213542938232e-01
-3.131303197924906190e-01,-5.472738865679043219e-01,-5.426749907758600111e-01,1.112565285063736760e-02,2.021385775010224942e-03,4.907470302563715116e-03,2.328591942787170410e-01
-3.605368549070646633e-01,-7.122773822042873793e-01,-6.960001171150492771e-01,-1.301385765718754695e-01,1.344297476103207545e-01,-1.033968904195549654e-01,5.053275823593139648e-01
-1.921216056921838111e-01,-5.658710010292782311e-01,-4.911036848978594382e-01,-2.677309580504309491e-02,-9.042013319157880813e-02,5.702962680600894008e-03,3.796180784702301025e-01
-2.647957275108646646e-01,-4.901958738673367066e-01,-4.864235452591467723e-01,-6.532486640351392593e-02,-6.542381478413474005e-02,4.608561523173041602e-02,2.863278985023498535e-01
-2.787703493051739700e-01,-4.768354590244256452e-01,-4.846970094502470183e-01,-3.525896288077005891e-02,-1.076309144708576665e-02,1.160878076409199364e-02,2.129086554050445557e-01
-2.773717505573647935e-01,-6.749984467012505318e-01,-6.650035140739396500e-01,3.872140932461340390e-02,9.844503624123507324e-02,-6.272527658539488182e-02,4.467754960060119629e-01
-2.787876512612474933e-01,-4.881188994238673251e-01,-4.965400077308448346e-01,-1.271289614521320865e-03,-1.965491246952927665e-02,1.623307325734576513e-03,2.163908183574676514e-01
-2.687634262663535778e-01,-6.999297018061726439e-01,-6.109711205045001980e-01,4.903410701687157397e-02,1.848675223823434324e-03,-3.197904388634639772e-02,4.071281254291534424e-01
-2.977064912090610083e-01,-5.757209672858475402e-01,-5.689875773670350911e-01,-1.006398930489943860e-01,1.044929287109160193e-01,-1.321411234638448506e-01,4.370248615741729736e-01
-3.010787180178025602e-01,-5.580611092555720631e-01,-4.673235696494368874e-01,-1.405590577526225071e-02,8.227984187994949461e-02,-1.000993094208090265e-03,2.680688798427581787e-01
-2.722628208120138615e-01,-4.688267077613090805e-01,-4.619376205975773142e-01,-1.073601265449547829e-02,-1.172780566067340574e-02,-6.813350912722453037e-05,1.951642930507659912e-01
-2.719200899889344658e-01,-4.415364443318783860e-01,-4.435867571365280648e-01,3.065815744750986956e-03,2.107662199657209332e-03,1.284795456793752597e-03,1.707868725061416626e-01
-2.866154639388888703e-01,-4.536383171946002379e-01,-4.273574345049395706e-01,8.566059709233759395e-03,2.205281186134444137e-03,2.861713830220787187e-03,1.563876569271087646e-01
-1.597378996183213273e-01,-4.931950354704690564e-01,-4.506240399781989980e-01,-3.425348517048762420e-02,-8.463178512313129787e-02,-2.612654586613969050e-03,3.519067168235778809e-01
-2.855506138679888006e-01,-4.707985053049138502e-01,-4.702318567514034986e-01,-2.030075553353694572e-03,-2.730601726325420850e-03,-1.740013417932107214e-03,1.850836277008056641e-01
-2.774447979802198705e-01,-4.633418422875597020e-01,-4.670602959818403455e-01,1.159525526152948433e-02,3.176135099766256523e-03,-2.114019592402412249e-04,1.889352649450302124e-01
-4.318895522324857628e-01,-6.245341209042174491e-01,-4.753458799556862791e-01,5.775013664023295745e-02,9.348596165525631385e-02,1.773481684958153615e-01,4.015096426010131836e-01
-2.711041623255179278e-01,-4.726497107748179882e-01,-4.903886980486216185e-01,-1.870134806712544714e-02,-2.072783852784364222e-02,5.716650404634441608e-03,2.166718393564224243e-01
-3.030853607981494058e-01,-4.007608152605841578e-01,-4.235027802537694730e-01,-5.260347341525118802e-04,1.381571431462815837e-03,3.854916792308884198e-03,1.110412552952766418e-01
-2.933825661259457096e-01,-4.730033248890440634e-01,-5.034441550892444495e-01,-2.601450472720800641e-02,7.779354398039310323e-03,-5.006373909815758048e-03,2.023489028215408325e-01
-3.070167344176123470e-01,-4.493529872908127443e-01,-4.200838446064504295e-01,7.088746919571421549e-03,1.636286681023027068e-03,3.593772147660238055e-03,1.309494525194168091e-01
-3.148743605690693670e-01,-4.904607821659425215e-01,-4.629854447324220357e-01,-2.326605874571911065e-02,-2.882581709493361316e-02,2.216945189292398102e-02,1.798676103353500366e-01
-2.753316272824695154e-01,-4.388524420649993485e-01,-4.411445634581852016e-01,3.155672757264012772e-03,-1.062187969262985655e-03,-7.248679681793964336e-05,1.647798418998718262e-01
-4.336375706305907185e-01,-6.489393462414669855e-01,-3.855981166694737450e-01,2.663607680924143933e-02,7.192363176164094651e-02,1.575699822303772979e-01,3.887647092342376709e-01
-3.418233126552545631e-01,-6.089085395287564539e-01,-2.870503435662374869e-01,-5.885483417086091523e-04,1.172353061711029348e-01,-3.562018935786370050e-02,3.660647869110107422e-01
-2.813306462791120288e-01,-4.672701825133296349e-01,-4.673215993443999294e-01,-2.537670386141621399e-03,-1.717259656627631234e-03,-1.220220117150359884e-03,1.860529631376266479e-01
-2.737884528349824875e-01,-4.650152558056799834e-01,-4.587605730540210702e-01,-1.861412855179774006e-03,-1.073474125223195137e-03,-1.484890234260645816e-03,1.882318109273910522e-01
-2.694214842235858054e-01,-4.590435282461816646e-01,-4.457960682235127536e-01,1.909231144741253437e-03,-5.598043298527248524e-03,-8.249587269957615356e-04,1.836491078138351440e-01
-4.322098251406657488e-01,-6.547658421746542778e-01,-6.487372427335331704e-01,-1.401201869358219831e-01,1.390805473027942607e-01,-1.429010592341084518e-01,4.758352339267730713e-01
-3.750925391025534128e-01,-6.626947563630316562e-01,-3.736673353204242876e-01,-1.220754822453793409e-01,2.249387390687053456e-01,-1.538183716851535265e-01,5.921205878257751465e-01
-2.731349078470062253e-01,-4.601208183634407645e-01,-4.540041161805903336e-01,-1.596832988170721968e-03,-2.858218825383635289e-04,-2.527479255374725608e-04,1.840257942676544189e-01
-2.742279450004511121e-01,-4.595903944950886499e-01,-4.641876329648035870e-01,-2.222141965023463010e-03,2.433098723695624769e-04,-1.625515829958439117e-04,1.877434402704238892e-01
-3.630830492656721975e-01,-5.712107266453747556e-01,-4.087033690581582945e-01,-1.240919887197635130e-01,2.042069028130195085e-01,-2.035943570304473149e-01,5.758066773414611816e-01
-2.721719569683272444e-01,-4.562938944788403339e-01,-4.570636698895506056e-01,-1.507952301636989378e-03,1.546431175837158657e-03,6.682681372425345765e-04,1.845495849847793579e-01
-2.760888104926209063e-01,-4.470492085412408612e-01,-4.264383892225545036e-01,-8.671442855740682867e-03,6.558457120802232976e-03,-3.559609038613764567e-03,1.628535091876983643e-01
-4.166718565083883941e-01,-7.282033267570615642e-01,-3.554435271359812631e-01,-2.225691764754001226e-02,1.433049090708266027e-01,-1.589185176083479992e-02,4.286350011825561523e-01
-2.817998055442361149e-01,-4.813039790006387597e-01,-4.721786401775370789e-01,5.410295391585392662e-04,-1.055140244081278524e-02,3.991303726744617475e-03,1.960798501968383789e-01
-2.705409018153960288e-01,-4.591612296476414445e-01,-4.547947951878556494e-01,-3.422870026404287126e-04,-8.235961155886755737e-04,-4.012776041834331426e-05,1.864818632602691650e-01
-4.323603577852236368e-01,-7.960003815835705598e-01,-4.834620019226306131e-01,-1.618768745658440145e-02,1.853423275075443410e-01,-2.684996468483613619e-02,4.714520871639251709e-01
-2.160479455762788215e-01,-4.805824098658365018e-01,-3.504745548015530954e-01,-1.618221948407252975e-02,1.114966238740346255e-01,-2.894472126793183261e-02,3.050934374332427979e-01
-2.739470328800286403e-01,-4.629602650032935141e-01,-4.580589699002978188e-01,-7.076005726027189986e-04,-3.587203218693971966e-03,1.878038175279473883e-04,1.867185831069946289e-01
-4.241048214474048006e-01,-6.982756427944830646e-01,-3.496541603623321004e-01,-2.390057240822592716e-02,9.905514526367900641e-02,-5.927686777019431502e-02,3.779093325138092041e-01
-2.795997955462884432e-01,-4.786952599145405940e-01,-4.353944362530508538e-01,-1.217091538951702023e-02,2.344476726309326770e-02,-1.264433175093415858e-02,1.883241087198257446e-01
-4.260762198368747700e-01,-7.507567996747503969e-01,-5.515015518474452039e-01,-5.982479088263117223e-02,1.841132036151822415e-01,-8.513792848157218651e-02,4.632507562637329102e-01
-2.921001706199861658e-01,-4.671238819235147832e-01,-4.333899433290460124e-01,8.221010487902930680e-03,2.556373043954137877e-03,6.615180835006677536e-03,1.619280129671096802e-01
-4.117383605507253241e-01,-6.780548157545112087e-01,-3.567423009940176026e-01,1.387405808811798154e-02,1.238957203138393304e-01,6.956103580063247027e-02,3.869619071483612061e-01
-2.674446097136983225e-01,-4.496383399131188563e-01,-4.186879897990032351e-01,2.896102786159635012e-03,1.149148539232456787e-02,1.346762639651992877e-03,1.701184511184692383e-01
-2.695054626122456165e-01,-4.496475712683242199e-01,-4.534912621089665086e-01,-7.753317995396463843e-04,1.044358779469382707e-03,-1.466442916797467896e-04,1.821084916591644287e-01
-2.667873522878372317e-01,-4.302333515152679255e-01,-4.139109814050443426e-01,-2.053720131754452338e-02,2.124609473264554502e-02,-2.101724808351521090e-02,1.681008040904998779e-01
-2.127391380027061074e-01,-4.775658976838201841e-01,-4.792767130341671900e-01,-4.586846765891071376e-02,5.306712269330014081e-02,-8.288732210499430431e-03,2.924985885620117188e-01
-2.703371366981775492e-01,-4.506959284456101278e-01,-4.531659840650354987e-01,-7.271586212301775357e-04,2.190075587040350019e-03,5.178045379419419321e-04,1.816526055335998535e-01
-3.058333207511466090e-01,-4.590150739902852384e-01,-3.878871269410133493e-01,4.496880850729177703e-02,4.993738733004811359e-02,4.476601132073058237e-02,1.928422302007675171e-01
-2.802841423542689614e-01,-4.678544193796018158e-01,-4.611069805849840053e-01,-1.075045541916759551e-02,2.220589965478445699e-02,-8.609114833851058690e-03,1.897653639316558838e-01
-2.872468543434734678e-01,-4.684458513688503634e-01,-4.681359551432670574e-01,9.563281763026019620e-04,1.592469647010233804e-03,4.301371638447964323e-04,1.810743659734725952e-01
-3.264546856067935265e-01,-8.455278236414138782e-01,-7.361543817060577366e-01,-2.827059520320229433e-02,1.406543111059047890e-01,-2.065667882327138979e-02,5.363351106643676758e-01
-3.288701035163879016e-01,-7.095863001720636998e-01,-6.361574737447427408e-01,-1.235252197610976904e-01,1.557644731929715420e-01,-8.777854992253344979e-02,5.138671398162841797e-01
-2.714772351585427179e-01,-4.965678484177974417e-01,-4.753711957744983785e-01,-9.530937888846603050e-04,2.998915479440384182e-02,1.089293626163186438e-02,2.222625911235809326e-01
-2.803188643895597743e-01,-4.452964353616122861e-01,-3.945376897632222879e-01,1.272622345064310795e-02,1.638579353488037529e-02,1.091613592717799106e-02,1.518842726945877075e-01
-2.379101878236219991e-01,-4.499501938814455815e-01,-4.081194992225068430e-01,-3.973626979205595149e-03,3.407252747604306437e-02,-5.988835505459122986e-03,2.036633789539337158e-01
-2.799832442793264153e-01,-4.626981989111055293e-01,-4.352946147813757105e-01,4.976591599401030373e-03,9.904535342574734974e-03,2.589552174996830134e-03,1.718062311410903931e-01
-3.281449970837492791e-01,-5.460699116146041643e-01,-4.034106322944519540e-01,4.520860400272220560e-03,5.745663825455445822e-02,6.258629985304135952e-03,2.164175361394882202e-01
-3.151704452402946388e-01,-3.378400754389510041e-01,-4.717197444880174562e-01,-2.182424680167331394e-03,-1.000196494076737195e-04,-5.407563918447740384e-03,1.468833684921264648e-01
-4.384445169446761770e-01,-2.710689899566683936e-01,-7.210976728024645066e-01,-6.152896559772911417e-02,-1.418373717388743231e-02,4.668278012367355762e-02,4.167918264865875244e-01
-3.100129992602846385e-01,-3.336996926655864115e-01,-4.539620767701098014e-01,7.916804456875159825e-04,3.742620080329775922e-04,4.313097941363029306e-03,1.339060366153717041e-01
-2.902837278995423764e-01,-3.831257661602119335e-01,-4.317228796372154509e-01,-5.141025315255373478e-04,-8.285741846113645406e-03,4.066758709340324504e-03,1.254972070455551147e-01
-2.874443691373752552e-01,-4.457893891508226125e-01,-3.074041417434749679e-01,-9.731789218748652243e-03,-2.770438117201980480e-02,3.487835032078042546e-02,1.689592450857162476e-01
-2.806819271692245210e-01,-4.369999600329735334e-01,-4.370816847300577623e-01,1.733005738162149813e-03,3.663149252455865333e-03,2.162189224447595183e-03,1.565611660480499268e-01
-2.718084216470731396e-01,-4.522506285839076878e-01,-4.518117676951466377e-01,8.334720816199080217e-04,-1.604721411530420560e-03,3.100484530976154135e-04,1.802511960268020630e-01
-2.805083220738094907e-01,-4.487242814009044789e-01,-4.467663510487173695e-01,5.792410495851175664e-04,-1.184652553242437336e-03,-1.195495589603348110e-03,1.672739982604980469e-01
-2.830899713317892585e-01,-4.281443000504829843e-01,-4.333423197440553487e-01,1.734198876817605230e-03,-7.633822622045407548e-03,-2.192810081183149944e-03,1.483915299177169800e-01
-2.963923191267400226e-01,-5.239019508954317894e-01,-5.133494023771766335e-01,8.105082904512027342e-03,8.645545299586067031e-03,-3.396439852837907294e-03,2.234437316656112671e-01
-2.944282228452230199e-01,-4.610876709470616008e-01,-4.170655704940834929e-01,1.847092607837804573e-02,-2.649570960483634691e-02,-1.265252047420432902e-02,1.612031906843185425e-01
-2.823485417921644536e-01,-4.333101101803318866e-01,-4.116202330007184829e-01,-9.214176643380509596e-03,7.746024005464119400e-03,-4.058122705405377284e-03,1.430720686912536621e-01
-2.736644812665203763e-01,-4.448898195473278694e-01,-4.451440980686166005e-01,-2.373897893520264101e-03,-9.120768715280716619e-04,9.906338843632218547e-04,1.714178174734115601e-01
-2.805706018574249949e-01,-4.715554366729528546e-01,-4.689247021138264748e-01,6.010760902395990805e-03,-5.157078817239433080e-03,2.228317028201969030e-03,1.902176886796951294e-01
-3.099022430987559695e-01,-4.205611931549394500e-01,-4.233154776282112564e-01,2.233279232875027762e-03,9.473610965805663239e-04,5.865313858361157796e-03,1.125994473695755005e-01
-2.752575470673586100e-01,-4.373369445194130178e-01,-4.456952679086901847e-01,-6.691793153725955493e-04,-4.604996080329113242e-03,-4.392033107694829448e-04,1.666128635406494141e-01
-2.840663684186873761e-01,-4.658559029858663214e-01,-4.639087710010636467e-01,4.841955562813682161e-03,-6.511259150437138802e-04,-3.969581763825440852e-04,1.810230314731597900e-01
-2.856861289199792986e-01,-4.683190615065633278e-01,-4.725180602429461252e-01,1.752745355557233826e-03,2.357080428605476039e-04,6.603919648539578790e-04,1.847971528768539429e-01
-2.792260010669255221e-01,-4.600810736341444662e-01,-4.562605058456982166e-01,1.820046101725391122e-02,-1.302638959119054550e-02,-8.449739682058659065e-03,1.837095767259597778e-01
-2.038464740338417347e-01,-4.497910276352137804e-01,-4.103957755769096494e-01,5.196821227217182648e-02,-7.307823618040300284e-02,-2.573512644238921260e-02,2.801105678081512451e-01
-2.255336906261533325e-01,-4.534040128357939570e-01,-4.616457953453421137e-01,6.594327851786908889e-02,-5.835101644372817781e-02,-4.466348968904747946e-02,2.882974445819854736e-01
-2.792827282540410461e-01,-4.648073991277647532e-01,-4.642962529019317719e-01,-7.128913740627103660e-03,5.465784117400866379e-03,-1.468483283247015063e-03,1.859392225742340088e-01
-2.890284424427951304e-01,-4.256821689407873643e-01,-1.916000716501060630e-01,1.131947459722203696e-02,-5.240624339749783145e-02,-7.842896022230019804e-02,2.618347108364105225e-01
-3.413227667781996155e-01,-5.270428775343101169e-01,-3.856952609980549007e-01,-5.915966438626490097e-03,-6.221187604653551084e-02,3.658501726007021976e-02,2.096457779407501221e-01
-2.913970703885176983e-01,-4.400312697253335736e-01,-2.742116004566647613e-01,-4.300243847538754924e-03,-1.386411303558804549e-02,2.066340917016133358e-02,1.638745218515396118e-01
-2.599960712340442237e-01,-4.248061269138256879e-01,-2.942552410050170431e-01,2.239775705870933331e-02,-5.477959943085003447e-02,-3.428868967213132002e-02,1.916359215974807739e-01
-2.889577614341538592e-01,-4.589807403656406826e-01,-3.883162357335609993e-01,5.284611613608257777e-03,-1.440740276857847661e-02,-1.049163473059360960e-02,1.514048278331756592e-01
-2.771786760955782802e-01,-4.534375865369520975e-01,-3.771304678970095470e-01,-8.248021154879497377e-04,-1.557919575760499664e-02,-1.436340599107687865e-03,1.554880589246749878e-01
-3.212452619723817349e-01,-4.611949557465909733e-01,-3.643082763338046925e-01,4.967370873420892501e-03,-8.182030917567088141e-03,-1.265735509217477857e-02,1.271580606698989868e-01
-2.727772485937237090e-01,-4.259535356012901230e-01,-4.557861471586543978e-01,8.393793458173887806e-03,6.978302793780291960e-03,1.487808994632863237e-03,1.711335927248001099e-01
-2.777683547505255257e-01,-4.529435856618355682e-01,-4.474354804241070238e-01,-4.959973024169945892e-03,1.512127008542933334e-03,3.054240752021494614e-04,1.727216243743896484e-01
-3.002884750230375155e-01,-5.160975614443581438e-01,-5.404271686476700420e-01,-9.999295024627381789e-03,-2.739572851670200090e-03,1.205441094764190917e-02,2.305958420038223267e-01
-2.913125416049407446e-01,-5.055168697908041242e-01,-4.956707478222427410e-01,-3.620309090060602579e-03,-9.946782493829063945e-03,-5.230244754101183620e-03,2.104508429765701294e-01
-2.218611341775738599e-01,-5.615083982538937590e-01,-7.174254476968382477e-01,-1.062236101050463566e-01,-6.696513890131801372e-02,7.133907195613509167e-02,5.051715970039367676e-01
-2.729508504232568411e-01,-4.485823060930726469e-01,-4.496273155718742975e-01,-1.244403935943114885e-04,-7.616894849139625723e-04,-3.660570303936746465e-04,1.761624962091445923e-01
-2.731320785187405509e-01,-4.539870693666389068e-01,-4.524773561608437245e-01,3.484261393932341824e-03,-2.467689506517387402e-03,2.166231406787572881e-04,1.802570372819900513e-01
-2.911795162697167205e-01,-4.381291076847790289e-01,-4.462172178948915491e-01,-8.695601829920737670e-04,6.941858239152155080e-03,-7.076279041059058703e-04,1.516459137201309204e-01
-1.143332496234927831e-01,-5.015540812009409155e-01,-5.129830174928691200e-01,-5.604437656978983676e-03,-2.670662530808874321e-02,5.527471317792543096e-03,3.960072398185729980e-01
-3.405325852546968735e-01,-5.879790803512771058e-01,-6.028367760765088734e-01,4.341277074808422287e-02,1.217730536271545844e-01,9.913387976639286003e-02,3.804597556591033936e-01
-3.122897667537520849e-01,-5.003252604354615496e-01,-4.454040460807600077e-01,4.008143173785286111e-03,2.515235086743653967e-02,6.965948169003813133e-03,1.736036837100982666e-01
-2.681830098012796260e-01,-4.532971409348371394e-01,-4.200539768730391366e-01,-1.872098673354327149e-03,-1.027877004212042131e-02,-6.876797726549732735e-04,1.718937605619430542e-01
-2.740606603410461473e-01,-4.638930825082915876e-01,-4.591758088399074400e-01,-4.234508191825562054e-03,9.357845698624606134e-03,-7.698506213193021972e-04,1.883650422096252441e-01
-2.751672001557065039e-01,-4.623844969857840992e-01,-4.450416085169519032e-01,-2.910198043474142814e-03,1.231190359819988971e-02,-9.468624216941019757e-04,1.805188357830047607e-01
-3.394015680016774228e-01,-5.362252778877548698e-01,-2.872987867079206392e-01,4.033190057470125854e-04,-9.721750144733923293e-02,-9.079531247205130384e-02,3.237204253673553467e-01
-2.701782734912352435e-01,-4.617509252695218835e-01,-4.630973033668911998e-01,9.376574494416018909e-03,9.606982479465604394e-03,2.409068702029259698e-03,1.936953216791152954e-01
-2.718365553241040011e-01,-4.617914451841633738e-01,-4.580299428520298588e-01,-7.700529868180053684e-04,1.667179833464353927e-03,-4.200909287694014186e-04,1.881306469440460205e-01
-2.730320938278555376e-01,-4.505833991012312967e-01,-4.495319296185714686e-01,3.899449345847809628e-04,5.957517596153379114e-04,-1.561329958179978746e-04,1.770324110984802246e-01
-2.781041151667880129e-01,-4.775491026501983982e-01,-4.261882081035874292e-01,-3.366140153524751610e-03,2.611267570547153027e-02,6.156383634478805079e-03,1.853803694248199463e-01
-2.801003533848008820e-01,-4.681233150526143416e-01,-4.711986420337028192e-01,-2.648484699515893555e-03,-4.957305956699778601e-04,-2.087840887916598848e-03,1.896712481975555420e-01
-2.711047014390250420e-01,-4.506459551339239145e-01,-4.580840989366642413e-01,-2.934482837227443165e-03,-1.334784525904485642e-03,-1.312562944562731444e-04,1.834586411714553833e-01
-2.741214683987544531e-01,-4.506355585392992080e-01,-4.506851103738761521e-01,1.605680908465422689e-04,6.830854997783389901e-04,-2.942265373525366785e-04,1.765437871217727661e-01
-2.605910184158731768e-01,-4.143182101317914312e-01,-4.550461497266495847e-01,-3.570889031814653697e-02,-9.000396842163114336e-03,6.744552225391273366e-03,1.890943348407745361e-01
-2.900643009076029899e-01,-4.919861857753432544e-01,-5.084609507867243750e-01,1.560398342564983838e-02,4.129364104817183530e-03,1.303675451540359069e-02,2.136865854263305664e-01
-2.722390459494155035e-01,-4.315255696602623980e-01,-4.561816481826320713e-01,2.963188321533146222e-02,-2.929933639553685201e-02,-2.674381167477320187e-02,1.930354684591293335e-01
-2.729200712036087828e-01,-4.504855579886074546e-01,-4.529501972924496189e-01,7.422895706160488041e-04,-2.194348012622688963e-03,4.980174146488547610e-04,1.788576394319534302e-01
-2.757121620985870658e-01,-4.310785436872004439e-01,-4.522352093571488929e-01,-6.559653070041017615e-03,-7.292426083608344496e-03,2.913739484001142809e-03,1.678911745548248291e-01
-2.757266306289902769e-01,-4.614182074099062447e-01,-4.661122721147937797e-01,-9.207011550182766721e-03,-5.827317169699162318e-04,3.439419858398205907e-04,1.887610256671905518e-01
-2.846724122186915507e-01,-4.333888060539899389e-01,-4.266752154143587106e-01,-5.087488274646836776e-03,2.047933238319670900e-03,-4.397609983925842951e-04,1.457876116037368774e-01
-2.733275097652337893e-01,-4.514126973692930700e-01,-4.505378270882827163e-01,-6.121280423855224783e-04,-6.202057755359600792e-04,-2.315666509701984528e-04,1.776562333106994629e-01
-2.784822113646774899e-01,-4.332021061043948573e-01,-4.490519359625051998e-01,-6.570126846173379546e-03,-8.597046499214517495e-03,1.617075616063669849e-03,1.643192619085311890e-01
-2.768796486484779162e-01,-4.324925834939593594e-01,-4.320278374854411019e-01,-3.609059632759830608e-03,1.734650243135829519e-03,-1.945552402330413908e-03,1.555722951889038086e-01
-2.863148487416895538e-01,-4.537399484326608001e-01,-4.597117847041230498e-01,6.499221963902470332e-03,-9.969936793151487620e-03,-2.693701896719743333e-03,1.717944890260696411e-01
-2.681183122887894621e-01,-4.544053573615781660e-01,-4.594017697009534218e-01,-1.499871645580009433e-02,-5.004448263415907025e-03,1.439208230149487556e-03,1.908266842365264893e-01
-2.991963818322143642e-01,-5.108955534784956898e-01,-5.100689830276107228e-01,-6.108095596960252081e-03,-6.106143938290987949e-03,-2.400943189343453243e-03,2.118568271398544312e-01
-2.780210311252830913e-01,-4.677813796353925135e-01,-4.673389898749021332e-01,3.549117450254955244e-04,5.964980668638824798e-03,3.214356504335734010e-03,1.899035423994064331e-01
-1.756659135614169198e-01,-2.736567341641085727e-01,-3.494473868985217835e-01,1.049353366861897341e-01,-6.123956393207782845e-02,-8.410082458593062804e-02,2.971147596836090088e-01
-1.999751326913677962e-01,-5.317852464513357358e-01,-4.883766903516181257e-01,4.006522715006824442e-02,-7.486638747961252283e-02,-1.266147301428663732e-02,3.459630012512207031e-01
-2.942705121371316235e-01,-5.119422887272825351e-01,-4.954354747465733455e-01,-1.033721764887652120e-02,-1.861828114037390736e-02,1.781330241995379010e-02,2.153435498476028442e-01
-2.734246660517422600e-01,-4.597757616694828076e-01,-4.586015830138938654e-01,1.173241065766948525e-03,2.607724776779919967e-03,-7.272232240022719583e-04,1.858370751142501831e-01
-2.688830246940201452e-01,-4.512448429795760108e-01,-4.584832004266117256e-01,2.566288475661232093e-03,5.402144234861231374e-04,5.481963099470136191e-04,1.861444562673568726e-01
-2.817056179855417231e-01,-5.129791057368433549e-01,-4.641600440512720915e-01,-2.529819422752111260e-02,-3.531745631513098088e-02,9.704789969363291149e-03,2.247769683599472046e-01
-1.745764126711018549e-01,-4.309811184772693871e-01,-2.866148168645705208e-01,-7.348456736656682441e-03,-1.089028611017909265e-01,1.148695710188445476e-02,2.927561402320861816e-01
-2.832391539758879473e-01,-5.004817610275885675e-01,-4.285688490514116822e-01,-3.559560414746258672e-02,-8.897450472287246614e-02,3.431478533063158504e-02,2.604348361492156982e-01
-3.002210489325614629e-01,-5.436520932510697790e-01,-5.114783050001404652e-01,-2.903072924527310208e-03,-6.945135041818006373e-03,-6.788893880226399419e-03,2.297171801328659058e-01
-1.701951949477245873e-01,-4.228422391118186185e-01,-3.128573972991197660e-01,5.648301696172645676e-04,1.107190152984623838e-01,-8.068466938508227562e-03,2.917399704456329346e-01
-3.115462659956287905e-01,-5.708537032902958330e-01,-5.274002409395960322e-01,4.137475363795535196e-03,5.749931205407736445e-02,2.217595433139372182e-03,2.604714334011077881e-01
-2.801946779009553135e-01,-4.493182569400591131e-01,-4.490285056931037078e-01,-1.157284667978309778e-03,2.552624368246874699e-03,8.016013480682162694e-04,1.690542995929718018e-01
-2.717116767322737547e-01,-4.492641653993725837e-01,-4.494376171115137542e-01,-9.248282430914342867e-04,2.107111677106092602e-03,-1.748720942878284558e-04,1.776842474937438965e-01
-3.016658518003425549e-01,-4.802819258170906158e-01,-4.792511245761225114e-01,-2.127952005259993191e-03,-2.966033415674311750e-07,-2.769929142323923881e-03,1.782056391239166260e-01
-2.842408624950369944e-01,-4.730006986271101388e-01,-4.696153807681305303e-01,9.785768092893886404e-04,2.995152087701227414e-03,5.864554362057781446e-04,1.871724873781204224e-01
-2.838161076499906565e-01,-4.386996703658212482e-01,-4.112817869660626569e-01,-1.111741232957303739e-02,-7.614936589022262489e-03,4.003396246550099125e-03,1.452133357524871826e-01
-2.951773519413526392e-01,-4.336821908452198615e-01,-3.891034645199519804e-01,-8.368100225892802571e-03,-3.331766902622268923e-03,4.333424295769694110e-03,1.236777976155281067e-01
-2.784848930410952494e-01,-4.667201935642935617e-01,-4.612605452085130620e-01,2.253843870675822838e-03,3.582066010663840540e-03,1.055564583176317722e-03,1.857194453477859497e-01
-2.620893627680468962e-01,-4.597505926338258941e-01,-4.597068509262939306e-01,-9.794095099179641364e-06,2.283134671825288314e-02,5.002487329003957664e-04,2.015586197376251221e-01
-2.794780947191635723e-01,-4.534632557852107948e-01,-4.536414502623651313e-01,3.578957180218012620e-03,3.643603331695253762e-03,-6.628877165418242722e-04,1.743027418851852417e-01
-2.856807994037878773e-01,-4.324863161240881104e-01,-4.291729698008349692e-01,4.528076922603344002e-04,9.604251385471041218e-04,-7.831868823546963123e-04,1.451951861381530762e-01
-4.206307026280273753e-01,-2.666023373623255810e-01,-6.519870485923379144e-01,5.308993418843704210e-02,1.033074614615773178e-02,6.452822448856482263e-02,3.662695884704589844e-01
-2.862619348839092193e-01,-4.491822667470825592e-01,-4.353129542864863089e-01,-7.479485368917541607e-03,-2.195174900742192462e-03,7.371944809868672408e-04,1.570341140031814575e-01
-3.241546162140653276e-01,-4.634618294774323077e-01,-5.126199029003088992e-01,-2.718073175348472564e-02,-1.811182210158379310e-02,1.546773415312464525e-03,1.785462349653244019e-01
-3.036770471085243894e-01,-3.984909779059025436e-01,-4.640214535711439936e-01,2.729341289176119914e-02,8.999292036219578433e-03,1.379807633980132363e-02,1.501533836126327515e-01
-2.604011167592361620e-01,-2.101069546023346390e-01,-3.796010212032094877e-01,4.829047770871388451e-02,2.276141268160455575e-02,1.031241865296727706e-01,2.513704895973205566e-01
-3.073542722112582171e-01,-3.443607506777293659e-01,-4.708559264017055379e-01,1.806061476028517077e-02,3.829417666887355884e-04,7.696249722392855229e-03,1.523428559303283691e-01
-3.351305855782474863e-01,-3.724811173042901213e-01,-4.836021257665932271e-01,1.036128311449836976e-02,2.386780371917645791e-03,1.388658760064961570e-02,1.371533423662185669e-01
-2.484966807494215502e-01,-9.109053328462168864e-02,-3.900861675008856500e-01,1.487332979554356789e-02,4.343498381297287471e-03,3.157051751106936671e-02,2.661234140396118164e-01
-2.974864218583154196e-01,-4.751540796625133845e-01,-4.758784467598289325e-01,-6.052198566214142582e-04,4.716903787885189754e-04,-1.384962363272870985e-03,1.780520677566528320e-01
-3.041959005013792350e-01,-4.103743487758754194e-01,-4.176421163266914593e-01,-1.585909443759401984e-04,9.019695836992801773e-04,6.533940143321662931e-03,1.105846166610717773e-01
-2.748101422296619356e-01,-4.524212848538682330e-01,-4.767537602061292512e-01,1.664709660768377147e-02,-5.450087218247339632e-03,-5.652523062377136018e-03,1.935867965221405029e-01
-3.377757972500397554e-01,-3.755695225540945370e-01,-5.004343573732441541e-01,-1.401539287104616553e-02,3.494236014894512229e-03,-1.209217338204002842e-03,1.495627313852310181e-01
-2.831762618886148331e-01,-2.847519266057734200e-01,-4.868774523730901027e-01,1.147862460667880558e-01,-3.365307827007886499e-02,-3.817165112414799139e-02,2.974427044391632080e-01
-3.590682800988281853e-01,-3.321103729130286397e-01,-5.560456317246322833e-01,5.692988327945916471e-02,9.332894655485302754e-03,1.311109401225573311e-02,2.352380752563476562e-01
-4.572477307257721280e-01,-4.692027956788276666e-01,-8.500521403389083019e-01,2.001911019683549064e-01,-2.638457311703056030e-02,-6.450073622036844867e-02,5.334239602088928223e-01
-2.721495543962728081e-01,-4.536549011304760737e-01,-4.538026593503213801e-01,-2.631706775168461687e-03,-2.980752971198573093e-03,-2.622412124011174448e-04,1.817104071378707886e-01
-2.716445422347840699e-01,-4.478574980312641229e-01,-4.565277290631737372e-01,-3.425649374927046235e-03,-4.079037398710137589e-03,8.451076566431516349e-04,1.809454262256622314e-01
-2.774283120495816268e-01,-4.734230541619275368e-01,-4.734234318780056183e-01,2.411378963765173182e-03,2.044865963732554054e-02,-1.883255898046449616e-03,1.992399096488952637e-01
-2.982294856429662522e-01,-1.719666287544011074e-01,-4.383033591080557345e-01,-6.234812534464140646e-03,-2.823722687616588424e-04,-5.643151153501799883e-02,2.508376538753509521e-01
-3.020934753939279460e-01,-2.833064367611352052e-01,-4.549017656846948698e-01,-5.230134993257432030e-03,3.324810142773481064e-04,-9.605530701792626760e-03,1.641137897968292236e-01
-2.850901499146140106e-01,-5.176539935954200811e-01,-5.343301892818229648e-01,3.430532155572309227e-02,3.222293295041393085e-02,3.132253143301558934e-02,2.604441046714782715e-01
-3.358531869422388683e-01,-3.186569910364367431e-01,-4.987212756577051875e-01,8.031807007869049345e-03,-1.327748918035575633e-02,-4.257204821628676750e-02,1.891612410545349121e-01
-3.564276047058058117e-01,-3.953681969564183385e-01,-5.283567335664549613e-01,-3.916279115417117124e-02,1.883439350922359173e-02,-5.247206417590340177e-02,1.957199573516845703e-01
-2.806431994998249135e-01,-4.665539801993694446e-01,-4.667396272018580761e-01,3.329866943363907292e-03,-2.217230447420442431e-03,2.311641309925486880e-03,1.861757487058639526e-01
-3.010922578077290246e-01,-3.599441723305589202e-01,-4.659719854528138194e-01,-6.014907852322692351e-03,7.682210680040558667e-03,-1.192129378168130249e-02,1.471642702817916870e-01
-3.339884088668245155e-01,-3.623658194326941917e-01,-3.458794247430295732e-01,1.209965925561369733e-02,2.417854776392494229e-02,2.150028923536378700e-01,3.761395812034606934e-01
-4.360550566511258719e-01,-6.776534650858332398e-01,-5.277782289555058570e-01,7.792492416337010175e-02,1.227248249003426023e-01,1.589749170440178383e-01,4.287689924240112305e-01
-3.304781429560368355e-01,-5.518574552168836744e-01,-2.817621546577760427e-01,-8.710719771037548492e-03,1.332829804051584299e-01,2.373076840013711025e-02,3.426031172275543213e-01
-2.761573175998747742e-01,-4.468563620367232980e-01,-4.568723814839099062e-01,1.411227858204125744e-03,2.675660942073213554e-03,7.320649279571258975e-04,1.760036051273345947e-01
-4.246537201427897923e-01,-6.848103516183514650e-01,-5.009550912136842005e-01,6.138284100336994370e-02,1.270942212210334488e-01,1.124399284587180303e-01,3.890291154384613037e-01
-2.729585403197153370e-01,-4.479693600027629397e-01,-4.524719236801930111e-01,1.783162614477466334e-03,2.964095460000458655e-03,1.017877716348701697e-05,1.774061918258666992e-01
-2.735385868688062772e-01,-4.623191793650204273e-01,-4.565999579419627863e-01,7.573658188299171434e-04,4.322488541798830608e-04,-2.823901888995683359e-07,1.859930753707885742e-01
-2.725755721038401469e-01,-4.576490526901722533e-01,-4.529212833958529139e-01,1.669894358807372595e-03,4.799828490309017361e-04,-1.451320067323871822e-04,1.827804148197174072e-01
-2.921545751137135660e-01,-4.283592064627005369e-01,-4.777182129445530223e-01,-3.566772152818784708e-03,-3.651054116164105176e-03,1.479107751700530502e-03,1.667203009128570557e-01
-2.732677866357454688e-01,-3.794700792674949863e-01,-4.444253532325089240e-01,-4.648392925309702446e-03,-1.445531828648310025e-03,1.308167323159319106e-02,1.515948325395584106e-01
-3.031913083160884259e-01,-4.328073560159179101e-01,-4.857848559975482816e-01,-2.203015894431994970e-02,7.682287367601636947e-03,-4.506181618961407898e-03,1.678321212530136108e-01
-2.719599898114362646e-01,-4.519569014297855070e-01,-4.599603654281540499e-01,-5.361091872458104363e-04,-1.127106096122151369e-03,-8.732147596035396602e-04,1.841480433940887451e-01
-3.191034942017634823e-01,-3.592949677037561851e-01,-4.620817695118653035e-01,1.308408272863603033e-02,7.748658041986831828e-03,1.744097864445662630e-02,1.338577717542648315e-01
-2.825384960465681106e-01,-4.639060916202389917e-01,-4.635706584156699117e-01,-3.851500357430849564e-03,-2.552665685772824346e-03,5.173660628865957040e-05,1.813767850399017334e-01
-2.758790814171768746e-01,-4.595142458291492926e-01,-4.637950126790951755e-01,-1.667684367928980475e-03,1.155049583765520955e-03,4.333815127495933709e-04,1.858472675085067749e-01
-2.824936360866891483e-01,-4.570782894433279564e-01,-4.343567954157944166e-01,-2.067751783498697829e-02,2.634941777599421331e-02,-8.087572203136736068e-03,1.749029010534286499e-01
-2.769193325433103037e-01,-4.260824097808627031e-01,-4.606298915850020603e-01,-8.070548938935735023e-03,-7.775974023040874497e-03,3.104331000763533004e-03,1.702999472618103027e-01
-2.811002735762059834e-01,-4.923814244481678482e-01,-5.202047198636621239e-01,-1.013037218609201540e-01,5.218769194474256329e-02,-4.515944005370430697e-02,3.104327917098999023e-01
-2.774460807772359261e-01,-4.616059372412680273e-01,-4.624494604105492956e-01,-3.053324432334019334e-03,1.090602185945722990e-03,9.098644530478533846e-04,1.846752017736434937e-01
-2.730683019169950487e-01,-4.573767506988751785e-01,-4.593501380607938889e-01,-1.374382364055234907e-03,1.331003559699128714e-03,1.228607082100298181e-03,1.853448748588562012e-01
-3.027335258759046854e-01,-4.761295300455169466e-01,-4.766425184354514122e-01,4.008594517977524135e-04,3.789112405572221502e-04,1.161717269973586175e-04,1.736558079719543457e-01
-2.719249821136329737e-01,-4.443905357186436755e-01,-4.594839062205731128e-01,-2.978735981241670532e-03,-4.348671962228657997e-03,1.186705768477619785e-03,1.807286292314529419e-01
-2.741516002594590606e-01,-4.599588928106611019e-01,-4.616203190214081542e-01,-3.305220292802221477e-03,-1.897946234183655939e-03,-1.682637544926535384e-03,1.867830008268356323e-01
-2.709629393985966694e-01,-4.540424604188019742e-01,-4.581870685767903129e-01,-2.300659213234459207e-03,-1.425368707232960554e-03,-6.413668077182964203e-04,1.852492690086364746e-01
-2.507864727010152284e-01,-6.887642184415289082e-01,-7.964907128237096456e-01,-7.091916843312520702e-02,6.253318710755952081e-02,-2.149417294846433721e-02,5.280313491821289062e-01
-3.583457654765096478e-01,-8.144801882250342073e-01,-9.071808908514857883e-01,-1.303840287062952852e-01,4.454014860530890879e-02,-3.947967239378682991e-02,5.661832094192504883e-01
-2.739517408349911864e-01,-4.307737117825671258e-01,-4.532806203692796299e-01,-8.240440942561820178e-03,7.243362307896987137e-03,-1.310303210812336196e-03,1.702807545661926270e-01
-2.986749893455030724e-01,-4.703241616385134827e-01,-4.735842361124181776e-01,-8.773846219130248094e-04,-3.181064933225670618e-04,-7.376995475334407592e-04,1.733144521713256836e-01
-2.878800844898595224e-01,-4.702267651490857348e-01,-4.676691266070771569e-01,1.979020848209879675e-03,-2.275463173782340924e-04,-4.790885887908632513e-04,1.811161786317825317e-01
-2.470589326461035129e-01,-7.472435273596456096e-01,-8.951960348217864460e-01,-8.215730563928883273e-04,7.570749721834905965e-02,2.392407691744274228e-02,6.041457653045654297e-01
-4.281586127303348976e-01,-3.813180864072867049e-01,-5.673588270514433596e-01,9.337048176524979926e-02,4.904604863354718874e-02,1.645533330808245098e-01,3.777499496936798096e-01
-2.722075828000437570e-01,-4.531261132790591617e-01,-4.569917966808956233e-01,7.022432325008945864e-04,1.065989761919902213e-03,-6.942630990525103382e-05,1.828954219818115234e-01
-2.878690616405151781e-01,-4.315479144843734627e-01,-4.656856763141677957e-01,2.533128035937644729e-03,6.438139383987882131e-03,2.502518563540564057e-03,1.639398038387298584e-01
-3.851147369958534128e-01,-4.747544492713802189e-01,-6.036785032089844183e-01,1.163107111455313342e-01,5.853712528057340020e-02,1.306134103233771160e-01,3.718296885490417480e-01
-2.740473523712421144e-01,-4.436474981576896681e-01,-4.455857841400984731e-01,3.013617705511727283e-03,4.122972001196930497e-03,1.500583911259826706e-03,1.708265095949172974e-01
-2.738101418015851940e-01,-4.478957958133397144e-01,-4.450053590547469184e-01,3.324613711174498765e-03,1.466693345123692678e-03,8.375281054833985271e-04,1.727793514728546143e-01
-2.766351002303640838e-01,-4.464505954005886235e-01,-4.502473497283051018e-01,1.369251103447758321e-03,5.080118801882105642e-03,-3.802695628926870252e-04,1.719882190227508545e-01
-2.867827450640721421e-01,-4.674382475525079017e-01,-4.647752639204033032e-01,3.397286208639483090e-03,-7.278176595040617824e-04,5.942619015498884624e-04,1.794427335262298584e-01
-2.714065959172469733e-01,-4.568399198441427389e-01,-4.550788379580275045e-01,1.729150178982510281e-03,1.165033596043621791e-03,-9.427091530660595183e-04,1.846016347408294678e-01
-1.314670483748482388e-01,-5.422958232173271664e-01,-5.640786051612397545e-01,1.587296831185247212e-02,-3.413767496186642398e-03,-6.546984752850650360e-03,4.232294559478759766e-01
-3.790619636820472538e-01,-8.299417385149789883e-01,-6.753690492718809057e-01,4.203116656394014633e-02,1.509272595775608405e-01,3.202475789162113201e-02,4.839476346969604492e-01
-3.094901694881546650e-01,-5.339756295650029960e-01,-5.210549752400563950e-01,7.192241003370390164e-03,4.417153966077030057e-03,-2.721046873579284508e-04,2.188015282154083252e-01
-2.869486154448415149e-01,-4.692645809208204066e-01,-4.725641280490788798e-01,3.371730035961986293e-03,8.148887810214999099e-04,-1.626353046039633564e-03,1.841075569391250610e-01
-2.815074554879699043e-01,-4.417825657214616841e-01,-4.411532342692632835e-01,-3.750252124357450045e-03,1.477577689662252971e-03,-7.508682691646275656e-04,1.601189374923706055e-01
-2.782015569896664764e-01,-4.502977888266714857e-01,-4.480509220043515928e-01,-4.698187601784920009e-03,6.453890849955440606e-05,4.241575684391345061e-04,1.711790114641189575e-01
-2.712300538030472108e-01,-4.529003250968712813e-01,-4.600233845845109748e-01,1.493084691259033946e-03,1.285006731003551089e-03,-7.724894663826538605e-04,1.853707283735275269e-01
-2.076882772692969503e-01,-3.335111550217542131e-01,-4.707799560471763733e-01,1.368578545324868334e-01,7.432222142877252524e-02,4.088407050748599919e-02,3.601691126823425293e-01
-2.802834056494052373e-01,-4.342517319038753931e-01,-4.702317579165270489e-01,1.936302343880887469e-02,1.312527094060999058e-02,1.316344666678895964e-02,1.808369904756546021e-01
-2.599833967413434088e-01,-4.220707660534693262e-01,-4.611815045722431616e-01,3.604200848665208706e-02,4.713093568686175204e-03,5.086581360402538284e-03,1.954038441181182861e-01
-2.784528714787115056e-01,-4.507487910228071826e-01,-4.513347152244807092e-01,1.467127460937090941e-02,1.884264157984985935e-02,4.873308957978105503e-03,1.776775270700454712e-01
-2.658715285152699614e-01,-4.207965126324773042e-01,-4.421563430174252352e-01,7.785644838344482795e-03,6.109532951753439065e-03,1.166277712840260196e-03,1.675263345241546631e-01
-2.846364924715112932e-01,-4.216722114265727406e-01,-4.279602415798428039e-01,-1.165172739912735504e-02,-1.117204700103999367e-02,1.153311080179740891e-02,1.444326192140579224e-01
-2.798346915600208318e-01,-4.557119796566988512e-01,-4.416879111180967432e-01,-6.284151468134786984e-03,-7.868674422730453921e-03,4.928128908626027219e-03,1.704114377498626709e-01
-3.107691926876370858e-01,-4.357855437975053370e-01,-3.777729447611341551e-01,-2.372716534762175054e-03,-5.258655317726229107e-03,2.966861784538496472e-02,1.203434914350509644e-01
-4.098441230005190894e-01,-4.488080086407377767e-01,-3.374033079082338626e-01,-1.827165077620208564e-02,-2.035716986072698062e-02,2.218763003118188748e-01,3.994002044200897217e-01
-3.793505903237042176e-01,-4.098311153091412362e-01,-4.947850519708728578e-01,-8.185781503146628141e-03,-1.107378558214658397e-04,7.764596058538393575e-02,1.703626066446304321e-01
-3.020359917064857624e-01,-3.969826029495016617e-01,-4.579312368627479479e-01,-2.942543116915268420e-03,-4.841992692960052011e-03,5.405124635231165278e-03,1.367494761943817139e-01
-3.010944932137227803e-01,-3.536855128719069707e-01,-4.447401201310414165e-01,1.660872412652596858e-02,5.242554791089150748e-03,3.574037248306387565e-03,1.295906454324722290e-01
-2.696777393418341995e-01,-4.460353791820728109e-01,-4.586164336572429168e-01,-1.353334434946610113e-02,-7.458436937434749330e-03,2.361936002458067847e-03,1.849652379751205444e-01
-3.031312785505300700e-01,-4.265584153547293811e-01,-4.415465868426008966e-01,-2.369407329453663159e-03,-4.012982343737345019e-03,3.851228200651631104e-03,1.319791674613952637e-01
-2.640145450933453208e-01,-3.949668892751010407e-01,-3.898284273171745973e-01,3.088420642199586619e-02,-3.530832748556075873e-02,-4.670415113718863476e-02,1.721841990947723389e-01
-2.752434725292295936e-01,-4.442619605385595971e-01,-4.430642654869547670e-01,5.289531584408560701e-03,-1.332840956189354107e-03,-8.347282448406649624e-04,1.686938256025314331e-01
-2.624283404707499212e-01,-4.187234133861232332e-01,-4.381244469212285386e-01,1.290984541289160424e-02,-1.188920255912798499e-02,-6.018663904582941156e-03,1.699104458093643188e-01
-2.853302298145697913e-01,-4.437714432560764255e-01,-4.478471349982974248e-01,8.466089760915684187e-03,-1.047296878721229278e-02,-3.758922070779061909e-03,1.623343676328659058e-01
-2.847884718905167589e-01,-4.366784939193404935e-01,-4.331078212575668052e-01,7.617554617237172303e-03,-2.428507194495948748e-03,-2.118644464910694400e-03,1.508184969425201416e-01
-3.070437387631744230e-01,-5.145344026313621866e-01,-4.964863635655961671e-01,2.827617147971331693e-02,-5.293901046606810240e-02,-3.055804363223165246e-02,2.307399660348892212e-01
-3.025204050583135684e-01,-5.137436560189987400e-01,-3.762544435132187948e-01,-4.973403536894128486e-03,6.298488560789765323e-02,1.605652238796585534e-03,2.155478000640869141e-01
-2.727531386765962296e-01,-4.609927791763171467e-01,-4.552654417436395318e-01,1.281536160538437798e-04,-9.879446353726264052e-04,-1.856594472286167083e-04,1.854506283998489380e-01
-3.397205542005733991e-01,-3.298360740013528969e-01,-5.058114629068614088e-01,3.844084314588127466e-02,3.588988547171209371e-04,-1.256943510708273364e-02,1.850218027830123901e-01
-2.711189507870804261e-01,-4.482176989612733364e-01,-4.575296552552755580e-01,2.661392308868578555e-03,-5.519618162945201609e-04,-3.540372340376222071e-04,1.819954812526702881e-01
-2.717219136796086842e-01,-4.456155944799163326e-01,-4.550778894998394608e-01,1.215399555728681295e-02,1.096469958952690782e-02,3.254394313992677642e-03,1.811341643333435059e-01
-2.345393421038636794e-01,-5.067715608198752886e-01,-5.234810075267742890e-01,6.416392270389426056e-02,4.430558457904319736e-02,4.409732244182581334e-02,3.209550380706787109e-01
-2.749565517057905861e-01,-3.469669953459912359e-01,-3.341058811437032094e-01,4.591217818118252698e-03,-1.150142910008870520e-02,-6.361590082276281921e-02,1.304830014705657959e-01
-2.691642589736077396e-01,-4.565126394262883358e-01,-4.585894214238618316e-01,2.528642686312428979e-03,1.802921431302141164e-04,-4.748030855813468467e-04,1.884483098983764648e-01
-2.755529171848713488e-01,-4.302173566128850712e-01,-4.654282842651052410e-01,9.043560839880728300e-03,4.065616146914283993e-04,-1.740200400460738478e-03,1.756750345230102539e-01
-3.167600756987628552e-01,-4.199770025082421032e-01,-3.982210795918990076e-01,-4.299237075413688686e-02,-2.618421681086062491e-02,7.932478936864159613e-02,1.880441755056381226e-01
-3.053322248331162836e-01,-4.309183519721297984e-01,-4.199578291127351037e-01,7.399053864660405828e-03,2.777260754612120332e-03,4.122011034667789550e-03,1.214655041694641113e-01
-3.029207841363555365e-01,-3.927478929062750423e-01,-4.740661236558005864e-01,3.824029701211504716e-03,3.365256984841626608e-04,2.389347917588965366e-04,1.484268456697463989e-01
-2.831237621724314590e-01,-4.370680519056575064e-01,-4.252415338538391154e-01,7.147254481515427811e-03,1.658572450648090543e-03,2.272821528149432998e-03,1.489801555871963501e-01
-2.758328515191580399e-01,-4.469545538564571596e-01,-4.317055664968141304e-01,7.956465912544841146e-03,4.061590576738876614e-03,1.844345631454015000e-03,1.647887974977493286e-01
-2.892243443125457336e-01,-4.868587180102766365e-01,-4.789332742438274781e-01,7.510043305770451594e-03,4.063179179537781439e-03,-5.887752289458385649e-04,1.943594366312026978e-01
-2.746521423263332817e-01,-4.538818024040137677e-01,-4.286250795231646982e-01,6.114964053609521846e-03,7.532133295854942859e-03,1.706236979503286937e-03,1.688950210809707642e-01
-2.990191809573847781e-01,-4.520687650887439402e-01,-3.578889680243952931e-01,8.595862187481541697e-03,1.015765645874874487e-02,1.041108785308622435e-02,1.368802487850189209e-01
-4.530688356751380041e-01,-5.332896688574726429e-01,-4.897060751938473455e-01,7.634433282471873861e-02,6.201460370380877662e-02,2.206442431022733741e-01,4.241615831851959229e-01
-2.713430078479954211e-01,-4.545510592733347233e-01,-4.565762589268922422e-01,1.029606683111893625e-03,-1.801290169509296452e-03,6.359353669878906132e-04,1.842673420906066895e-01
-2.674996489400702782e-01,-4.543241511623099527e-01,-4.629020299154276152e-01,1.465283736513257884e-02,4.746091672370091052e-03,1.323813295936436671e-03,1.931229680776596069e-01
-2.716109172999067178e-01,-3.124981084217562932e-01,-4.208116172278205669e-01,3.634061008209611005e-02,-2.135488082277958027e-02,-3.556918707285173370e-02,1.641880869865417480e-01
-3.469137658541750491e-01,-3.618431373023550668e-01,-5.353306552645734628e-01,1.255831718164084898e-01,-1.285588470100624235e-02,-5.402419044314896862e-02,2.991252541542053223e-01
-3.037201124905085092e-01,-4.403103063013762419e-01,-4.270940281705693509e-01,4.888978279930259081e-03,-1.924399219570253720e-03,-2.157898168253557028e-03,1.308553516864776611e-01
-3.021377041667147045e-01,-4.328716841834855944e-01,-4.236988490907366289e-01,6.407349228945706694e-03,-1.597044827271064307e-03,-3.151199571798715075e-03,1.270311623811721802e-01
-2.737713028268611848e-01,-4.607506445904862580e-01,-4.641314393961490925e-01,8.685322265623031043e-03,-1.083260070931923265e-03,-1.572547145055195922e-04,1.893006712198257446e-01
-2.827466042105075683e-01,-4.549654228870475547e-01,-4.173926132254513477e-01,7.186048602564767615e-03,-2.224549420172416969e-03,-1.759880956823270262e-03,1.574145704507827759e-01
-2.692374723776133072e-01,-4.508735919970619510e-01,-4.545340918520043849e-01,9.982503106170811068e-04,-1.578002671268937795e-03,-4.962856608482134213e-06,1.835222542285919189e-01
-2.727472795608679723e-01,-4.536379913528874042e-01,-4.607825138216971039e-01,2.849908856268838341e-04,-1.413611165303126386e-03,-2.571350037769805971e-04,1.845841556787490845e-01
-2.943535220332529900e-01,-4.401357621873757675e-01,-4.363910636889596351e-01,6.897117117079701321e-03,-6.685618590768391614e-03,-8.656577850414891653e-03,1.456783711910247803e-01
-3.033543812478470270e-01,-4.131413956068475390e-01,-4.077992226235730988e-01,4.630042423447602948e-04,-2.177770215031855157e-04,-6.627764417718621376e-03,1.078322455286979675e-01
-2.955985194607118061e-01,-5.385262306322066150e-01,-5.455858661995440784e-01,1.070214075046267005e-01,-7.090998909596595012e-02,-1.310460084427109428e-01,4.021731913089752197e-01
-2.951764183671245489e-01,-4.095585915530665644e-01,-4.064336839097911769e-01,5.402512154136581909e-03,-5.336591673081071685e-03,-1.271554167195577435e-02,1.157310083508491516e-01
-3.093509232209200599e-01,-4.473723627032343275e-01,-4.139431184363434602e-01,5.976075212793555309e-03,-1.478153178816325741e-03,-4.316500505256121688e-03,1.253916770219802856e-01
-2.732810017183884832e-01,-4.613858172827502990e-01,-4.571988677691438130e-01,3.727078152466957017e-03,-9.325577339561455167e-03,1.707205915342585524e-04,1.868583112955093384e-01
-1.422638579502568945e-01,-3.939575728238888797e-01,-4.426708185780524607e-01,-8.495676245857591846e-02,-1.523211343260674061e-02,4.028034968299704956e-03,3.168299198150634766e-01
-3.967699077807904096e-01,-8.887338139304998830e-01,-6.603954666810288865e-01,-2.742381446426114464e-02,-2.017662127596212829e-01,2.189731920922377215e-02,5.546675920486450195e-01
-2.768856159025797625e-01,-4.635220674521636219e-01,-4.635508645201233957e-01,1.146356973039735876e-03,-3.048497211352502612e-03,5.543191939394718527e-04,1.867385506629943848e-01
-2.590149689809318478e-01,-4.549644680873409230e-01,-4.316083684105563867e-01,3.976974236575685565e-03,-1.856355444729068313e-02,5.775327779254190276e-04,1.882746964693069458e-01
-3.333230417489408959e-01,-8.498188834795517010e-01,-8.773028353868530527e-01,-1.004271072603344361e-01,-2.917442024830895625e-02,1.580527431313336409e-02,5.614964962005615234e-01
-3.536477253753724237e-01,-8.420370088015289856e-01,-8.785754686708371342e-01,8.275142965312745624e-02,-5.635831244566628234e-02,-1.980904755037931134e-02,5.375439524650573730e-01
-3.099237301878243755e-01,-4.740092677053802661e-01,-4.761458560484025937e-01,1.086760056539263705e-03,-1.761603396421460369e-03,1.249183953466889707e-03,1.652172654867172241e-01
-3.286497492688871258e-01,-5.200607430447506951e-01,-4.253130098711822571e-01,3.850137609487074009e-02,-5.299765960144254412e-02,-6.548470237177993203e-02,2.306894212961196899e-01
-2.901613688340973218e-01,-4.671869797697126847e-01,-4.268766929594621229e-01,-5.148196243598473706e-03,4.045939496900157438e-03,-2.611569979488348285e-03,1.611710786819458008e-01
-2.849711584747184334e-01,-4.236450868278998638e-01,-4.489430066305465927e-01,-2.580716109462579018e-03,-8.108906387528938553e-03,2.162667462177248791e-03,1.536550670862197876e-01
-3.201219121519945365e-01,-4.389684464729600166e-01,-4.118600976967388139e-01,-2.441750283700526523e-03,-4.684968772173138223e-03,9.521319031900380217e-03,1.095140501856803894e-01
-2.903592523991634367e-01,-4.435706884461463884e-01,-4.414263960443477464e-01,-3.925189261536880629e-03,-1.231962159008598897e-03,4.724943828619780216e-04,1.523195803165435791e-01
-2.771070144917635036e-01,-4.107323384990071435e-01,-1.620509444949979061e-01,-3.547916628497537611e-02,-6.852454112468162051e-02,9.531739879785640357e-02,3.026341199874877930e-01
-2.759363361845383888e-01,-4.463069910139750851e-01,-4.462513600519407153e-01,-2.594007140704788703e-03,-2.704092131929017144e-03,3.432200025087766442e-04,1.704674810171127319e-01
-2.758897893429013704e-01,-4.354148907153923553e-01,-4.404979675176776133e-01,-1.494406709067483971e-03,-3.789781047954905984e-03,8.895243997584195532e-04,1.622872054576873779e-01
-2.784788918652718048e-01,-4.353176810701380184e-01,-4.380258605557143525e-01,-4.900378961965047922e-03,-4.830580769053383593e-03,2.978500894366733261e-03,1.587423980236053467e-01
-2.860505312955625712e-01,-4.327360002282380491e-01,-4.314209522275239683e-01,-1.402498113535958916e-03,-8.575827545489957300e-04,-1.541571154054632809e-03,1.460845470428466797e-01
-2.713005684631106806e-01,-4.529953440231166972e-01,-4.524106576360824028e-01,-1.346471531837854698e-03,-9.834934088819773188e-04,-7.070311626775939440e-05,1.814261674880981445e-01
-3.068226414993975304e-01,-4.482285334300675217e-01,-3.209524435871629056e-01,-2.237652776160703114e-03,-1.022624442169635557e-02,3.009907714456314803e-02,1.457527130842208862e-01
-3.032402558236049761e-01,-4.477395274353179744e-01,-3.688803884916924680e-01,-1.052464224713905126e-02,-1.294769017402875450e-02,6.531544759340117932e-03,1.291004717350006104e-01
-4.166109840203796044e-01,-4.325034640664892627e-01,-5.029642959442962580e-01,1.879992289385189023e-03,3.070586413330746080e-03,-2.067761688942358900e-01,3.669402301311492920e-01
-3.077506446772786952e-01,-4.417265893893421724e-01,-3.932043114340914580e-01,-2.277095569782881714e-03,3.274643641452967824e-04,-7.186736495988688481e-03,1.182115525007247925e-01
-3.141049647486593988e-01,-4.489066743556306971e-01,-3.657306205583437109e-01,-9.053474123130683324e-03,-6.330292958287778507e-03,1.626432736519966421e-02,1.226261854171752930e-01
-3.347560364142128098e-01,-3.809473048298163689e-01,-4.759027544800856768e-01,-5.442234140328928819e-03,3.724958602864978860e-03,-1.528407040253840221e-02,1.279358118772506714e-01
-3.028892181053862709e-01,-4.131880622670937586e-01,-4.463212177387327340e-01,-2.358112920095541739e-03,8.149006261330622378e-03,-3.238526698190568546e-03,1.310173869132995605e-01
-2.974368889360185508e-01,-4.201782970946883466e-01,-4.281801329147457702e-01,-2.089345385101651353e-03,5.098204275581317592e-03,-1.974074012571215044e-03,1.273357868194580078e-01
-2.887465353668302037e-01,-4.227913657540387504e-01,-4.226597647425102688e-01,-1.489724961500851373e-03,5.401796718785812496e-03,-3.961555010509438222e-03,1.345052868127822876e-01
-3.016692128179509491e-01,-4.310640063197762051e-01,-4.009556744790849225e-01,-9.366135567919474728e-03,4.642826636282067904e-03,-9.204683587682501583e-03,1.197317093610763550e-01
-2.730830301414098882e-01,-4.304697323482706284e-01,-4.426807917696941597e-01,4.040725611440967521e-03,5.478674970732231794e-03,1.680092876766973260e-03,1.642834097146987915e-01
-2.774681229925896608e-01,-4.389100114097796990e-01,-4.523199781258271934e-01,4.835692350816346401e-03,8.824110944446274252e-03,-1.045244139402200581e-03,1.694557964801788330e-01
-2.724243841558169343e-01,-4.294116154086644044e-01,-4.492122934783510102e-01,8.575286972133047345e-03,5.669891642076903618e-03,4.508112975338226733e-03,1.688891053199768066e-01
-2.958169841078777673e-01,-4.555970893653871201e-01,-4.801484909815560975e-01,5.215602308241387014e-02,4.077486100745859876e-02,5.096946923179006272e-02,2.258261740207672119e-01
-4.516389813160863187e-01,-2.837828083462695661e-01,-6.903490640506637632e-01,4.176340535439988788e-02,-4.336184388623533264e-05,-3.659345446030112109e-02,3.667109906673431396e-01
-4.203148675460821604e-01,-3.037545568949046038e-01,-6.639036718876873966e-01,-6.865841363999283797e-02,-2.225893157537053163e-02,6.262328529283361922e-02,3.587588965892791748e-01
-3.222858292124568536e-01,-3.964220560921218883e-01,-4.829461749695622141e-01,2.633545396898622631e-02,-5.370116812946484084e-04,-4.801340686587136398e-03,1.467919200658798218e-01
-2.751113385816030821e-01,-3.864753676163206753e-01,-4.463967436392853871e-01,1.565956080668083616e-02,4.689295268567776100e-03,2.387535388090826494e-03,1.532460153102874756e-01
-2.935260618515458386e-01,-3.366135786272466679e-01,-4.510140181807570370e-01,1.792304789650172800e-02,-2.680090122075956972e-03,-2.185615720574328198e-03,1.444742530584335327e-01
-2.849879842192439838e-01,-4.530576867673241637e-01,-4.745566152846274477e-01,-1.096935280535425543e-02,4.923911535708663627e-03,-1.585073408192933658e-03,1.810088455677032471e-01
-3.141817995787720141e-01,-3.598139771674517817e-01,-4.799094732440543631e-01,-1.885625588518860182e-02,8.884997862836732131e-04,-6.954881390716425790e-03,1.523141413927078247e-01
-3.019413592974786176e-01,-3.938571880533369707e-01,-4.381791638978452808e-01,-6.370579282092941366e-03,9.831071977070388393e-03,-5.794777527343057330e-03,1.224715858697891235e-01
-3.108847758848672926e-01,-3.905151740890813739e-01,-4.364256768650089380e-01,2.304899305282047373e-04,8.364466978793443953e-04,-6.195458463755533149e-03,1.105534061789512634e-01
-2.778998978650385476e-01,-3.979350162602239838e-01,-4.179904428245644343e-01,-1.196881978536468161e-02,1.239517902807612919e-02,-2.034072335549998514e-02,1.391039937734603882e-01
-3.013915936324915723e-01,-4.185101178283690548e-01,-4.154631385895460882e-01,-5.568202822149927525e-03,7.944882316288676138e-03,-1.054741474301041509e-02,1.182594448328018188e-01
-2.655605777757820141e-01,-4.382135216151403778e-01,-4.491423731805921915e-01,-7.315129424721437783e-03,5.498676391194047726e-03,-1.291177066592795204e-03,1.790855079889297485e-01
-3.088086258995598743e-01,-4.262003559595207158e-01,-4.211978359273018668e-01,-2.367903752500684356e-03,8.647277326214671033e-04,-1.271826220173863072e-03,1.150760874152183533e-01
-3.052223627902486136e-01,-4.123744966764488207e-01,-4.159079437267556578e-01,-1.016869743522731283e-04,1.082012691848037011e-03,-4.497643626996348891e-03,1.092561706900596619e-01
-3.064841306786320607e-01,-4.199771786445333777e-01,-4.217349900556669473e-01,-9.401087048760718365e-04,8.143075647627629312e-04,-1.270095176272841974e-03,1.144235208630561829e-01
-2.802557228887899710e-01,-4.628714485041312554e-01,-4.845095334069206561e-01,1.212958717191457182e-02,2.462643024878416204e-03,-2.107486331942198847e-05,1.955191493034362793e-01
-2.913732634176360858e-01,-4.070033512821303323e-01,-4.534789908217290444e-01,1.068288497036961465e-02,1.061514929238868178e-02,2.449863951121441629e-03,1.469785869121551514e-01
-3.005172034261857084e-01,-3.336401210768948911e-01,-6.503049908533664603e-01,1.294352442313612128e-01,-5.537074068895814910e-02,-5.238424950778369088e-02,4.237371385097503662e-01
-3.117786364244325426e-01,-3.566002195432507182e-01,-4.680132287725780604e-01,1.136313106488658770e-02,2.714987430674783032e-03,6.649289144722082042e-04,1.408060491085052490e-01
-3.026989085623873477e-01,-4.027511089550081524e-01,-4.579720315841279699e-01,9.753083315571392867e-03,-8.173665707315829268e-03,-6.267021846596807638e-03,1.385221630334854126e-01
-2.518591903743974125e-01,-5.908797335798759987e-02,-4.123095875645860775e-01,1.739915293787496972e-02,-5.934983625060937483e-03,1.342328334610335544e-02,3.088522553443908691e-01
-2.697144082080066840e-01,-4.355396336758854403e-01,-4.476187988357123726e-01,1.474168123245623435e-02,-1.184636642325619972e-02,-7.322106645891468882e-03,1.757291704416275024e-01
-2.757500855953487484e-01,-4.296425903654005340e-01,-4.466101797658695305e-01,6.589385373236830885e-03,-9.949793168861065934e-03,-2.321175659636355061e-03,1.643940508365631104e-01
-2.830292550879681679e-01,-4.249141142153348705e-01,-4.646307808659082550e-01,4.130394160251406668e-03,-7.392982192540959070e-03,-2.451340422144780706e-03,1.660635322332382202e-01
-2.835623206306854271e-01,-4.704964542460348120e-01,-4.692424965927973202e-01,-1.858942145224329887e-03,-4.471619776604713291e-03,2.461898958901399814e-03,1.865477710962295532e-01
-2.746761244026696414e-01,-4.309750537865184583e-01,-4.456909715092904900e-01,6.575898254791616784e-03,-9.053936290095461817e-03,-2.083724343351557162e-03,1.653320044279098511e-01
-2.847529533964439086e-01,-4.400806419489948218e-01,-4.453293371034183767e-01,1.311074693108785823e-03,-6.651143546283081256e-03,-1.200256874066960543e-03,1.584667116403579712e-01
-2.789942945112046102e-01,-4.652365024123410464e-01,-4.633906693440872360e-01,2.518845963494071010e-03,2.411144127373138994e-03,-1.596260914161744086e-03,1.854451745748519897e-01
-2.562656408582866252e-01,-3.588283130363641438e-01,-4.966736243614777724e-01,9.979149748661533814e-02,-4.169161432659201916e-02,-3.762773794298956975e-02,2.880891561508178711e-01
-2.811314064250297062e-01,-4.697884080297722864e-01,-4.663781637835329175e-01,1.419869386652900922e-03,1.748271888746643146e-03,-1.604908412123637459e-03,1.870365589857101440e-01
-2.914427823176467536e-01,-5.036085084279060542e-01,-4.940235177701766123e-01,5.776255722730377906e-02,5.022071695443363487e-02,2.966436751275909611e-02,2.515718340873718262e-01
-2.743915244486399008e-01,-4.564892911565659461e-01,-4.525387970352386935e-01,3.989645072188539865e-03,2.211439101445769259e-03,-1.687702606827611723e-03,1.803518682718276978e-01
-4.403449180583294265e-01,-5.580235580107444360e-01,-3.996838130779678533e-01,2.349422206408427818e-02,3.342304763306910148e-02,2.241760791894408800e-01,4.195932745933532715e-01
-2.913968824138922220e-01,-4.413005269153189025e-01,-4.493504244070968268e-01,1.101867687278974828e-02,1.117511694144885000e-02,4.670822257850042354e-03,1.566746532917022705e-01
-3.166546790942502132e-01,-4.069933754408812110e-01,-4.196374315441760983e-01,1.341050196204611120e-02,5.827572937557523418e-03,4.228431614916625808e-02,1.243724077939987183e-01
-2.888727314190525086e-01,-4.145596712869467626e-01,-3.894017856430518898e-01,1.064350774998776457e-02,7.012892040846337334e-03,8.965304937431764487e-03,1.183073669672012329e-01
-2.631596000406909996e-01,-4.277845618517328585e-01,-4.538815325497373987e-01,5.284513774252184298e-02,4.926714460553733438e-02,3.082047464316908444e-02,2.249176055192947388e-01
-3.165041371096397604e-01,-4.255800005273706610e-01,-4.194493337990927162e-01,-4.915081712594876300e-03,-1.319624439477551662e-04,3.154441023866732391e-02,1.196833178400993347e-01
-2.771745524938956651e-01,-4.096895376661888744e-01,-4.322408664313659998e-01,8.480962292080618248e-03,1.065705686095339694e-02,4.890337626822352513e-03,1.472596973180770874e-01
-3.144999232464579797e-01,-4.499159761312246930e-01,-3.671074718545118132e-01,4.286886056005067072e-03,2.613552148677896272e-03,8.819845230161580535e-03,1.195414066314697266e-01
-2.744405705939739759e-01,-4.516576420092573430e-01,-4.394330386854155557e-01,5.666203755290096823e-03,9.875842694841709905e-04,1.194944552459807369e-03,1.717336624860763550e-01
-2.757964461559262448e-01,-4.537440002156098995e-01,-4.335891899271644978e-01,7.721068619329194034e-03,1.157584322089120175e-02,3.289199569503309124e-03,1.705823838710784912e-01
-2.831190204778464281e-01,-4.412076032363017042e-01,-4.076429496504314631e-01,1.175495802939201424e-02,8.556050264526795374e-03,4.543546885916225665e-03,1.466577053070068359e-01
-2.697603491762752270e-01,-4.438780498157303134e-01,-4.404292456981400150e-01,-4.127728972329955046e-03,-4.629436913134181777e-03,1.623696614324283711e-03,1.727764159440994263e-01
-4.019049387149171149e-01,-5.911118547898588371e-01,-1.972333297434059884e-01,7.316260227122090010e-03,4.375143213673817963e-03,1.552423221841607304e-01,4.346648752689361572e-01
-2.808802447133262326e-01,-4.435163591081102141e-01,-4.383777110626514983e-01,-6.301484131599490411e-03,-1.713730203601237980e-03,1.798338697618907973e-03,1.605578362941741943e-01
-2.812626664840101598e-01,-4.375602184039150133e-01,-4.413645860709694002e-01,-3.596920114557867944e-03,-3.386977046717322068e-03,9.466133600022481843e-04,1.584737449884414673e-01
-3.117507855803155481e-01,-4.355629385327475234e-01,-4.394017411548052365e-01,-6.159354976542675414e-03,-5.302678094534012468e-03,5.680428804801269417e-03,1.269426941871643066e-01
-2.719015973346974868e-01,-4.520870084802568467e-01,-4.509936899550693878e-01,5.641984653442401595e-04,3.885920665296483767e-04,7.120997111339584962e-05,1.796452105045318604e-01
-2.742260248991942873e-01,-4.551338949337464523e-01,-4.522319830933115292e-01,1.533909310226684803e-03,4.684655979269098020e-04,-2.795956980240948465e-04,1.794966608285903931e-01
-2.738790807090751844e-01,-4.576578556728778113e-01,-4.534776320384343862e-01,3.407415789609325851e-03,4.916650836164103075e-03,1.214861086631288103e-03,1.820320188999176025e-01
-2.771007148747756110e-01,-4.557256159181107269e-01,-4.443743938372264335e-01,5.397937731163861448e-03,1.192203200349377249e-03,1.219842181762261770e-03,1.735057234764099121e-01
-2.706152475761914866e-01,-4.550699700976533202e-01,-4.530097619778555851e-01,9.211858259712993151e-04,1.052880954789334796e-03,2.288232368569540951e-04,1.834497302770614624e-01
-2.710280235375735480e-01,-4.523147686724409700e-01,-4.531347815630378251e-01,8.849269388085089774e-04,1.264328292468153104e-03,4.803376361821261363e-05,1.817178130149841309e-01
-2.690667276364301364e-01,-4.534767881204956330e-01,-4.508240960418364307e-01,2.333447773317848337e-03,2.816995354197552887e-03,-9.110666292588804772e-06,1.832077056169509888e-01
-3.231303801516181573e-01,-4.626078984942653682e-01,-3.655751794031091850e-01,1.245609202819228031e-02,1.490891968036978793e-02,2.346287486744156811e-02,1.346077769994735718e-01
-2.953727906647741763e-01,-4.295257766241687980e-01,-4.055731566757043161e-01,2.290149384400721327e-02,1.682388833263806158e-02,2.348121492116422501e-02,1.394062489271163940e-01
-4.292766448759344766e-01,-6.862707634617690733e-01,-2.924014426668233302e-01,5.774038549977698366e-03,7.831074939958973524e-02,-3.082358998315889997e-02,3.759054839611053467e-01
-4.524653216343437756e-01,-6.503373333319848459e-01,-3.491579828523881934e-01,7.437252488874520825e-03,3.032436916309607863e-02,1.738025209639169621e-01,4.047393798828125000e-01
-3.064845508925576612e-01,-4.244980227984180288e-01,-2.930040465800249905e-01,-4.891204103242882684e-03,7.958660963996718601e-03,7.535036604788339365e-02,1.816441863775253296e-01
-2.964822540200162670e-01,-4.173040041183542770e-01,-3.565154167754583936e-01,-2.887177950220474239e-03,-1.818705779055504457e-03,1.648584280110175840e-02,1.086224839091300964e-01
-4.342481733657929110e-01,-5.274049127674289572e-01,-3.968779870028883994e-01,-8.722990281972336016e-03,1.509180995025978869e-03,2.187603017196718125e-01,3.966853916645050049e-01
-3.027978805754273361e-01,-4.674864156671745818e-01,-3.923235436144932864e-01,5.401332643594501486e-03,-2.001700786091054150e-03,-8.005283907781109154e-03,1.438231766223907471e-01
-3.049421371145627502e-01,-4.489853806252369628e-01,-3.226268436093384095e-01,-8.624241865817732335e-04,-7.608225606750054206e-04,-3.259650370819884568e-03,1.361972391605377197e-01
-3.799177098472124037e-01,-5.101014267881035513e-01,-3.963747715242882386e-01,9.429619578973416280e-03,-3.684822836422637672e-03,8.580999481868850642e-02,1.935813724994659424e-01
-2.759295977025262303e-01,-4.432677297096517810e-01,-4.330922918198508720e-01,7.805836703905112174e-03,5.229197399172793442e-03,2.518444741141202987e-03,1.633606553077697754e-01
-2.801524315594695613e-01,-3.980079012484037948e-01,-4.495883222277620161e-01,1.288952686385206985e-02,1.006733347799311333e-02,5.378792104968074458e-03,1.533582508563995361e-01
-2.683524318726289160e-01,-4.385715267193406874e-01,-4.465383888840923077e-01,5.006528908175370517e-03,5.233746111588312433e-03,2.062140904838368795e-03,1.748263537883758545e-01
-2.804116452715190166e-01,-3.953491302080007763e-01,-4.343380242089533994e-01,1.850849712752074966e-02,1.374037849241357793e-02,4.633926289452396964e-03,1.444664448499679565e-01
-2.876733928461311374e-01,-2.454732806027876690e-01,-4.465746571918118857e-01,4.650626913577046023e-02,1.259943247588059430e-02,4.049706618067958758e-02,2.135904580354690552e-01
-2.705790685390918049e-01,-4.523369625082975798e-01,-4.551676072544025287e-01,2.233403029827633543e-03,1.746439910774742104e-03,1.996514709068751157e-04,1.832557469606399536e-01
-2.762558899131384860e-01,-4.506703588599347832e-01,-4.478798410831236754e-01,2.791617450367562831e-03,1.746121157967947535e-03,-2.028418125387334537e-06,1.731300503015518188e-01
-2.736944810313806098e-01,-4.603661531888977310e-01,-4.597291839812752134e-01,1.505868524231619102e-03,2.422180858752375106e-03,-8.148415854717523102e-04,1.864248067140579224e-01
-2.707676276757635669e-01,-4.576443232387226723e-01,-4.555261384190016360e-01,3.460511820087911958e-03,3.550778084959784527e-03,1.290032401670516060e-03,1.860384047031402588e-01
-2.705123898241051372e-01,-4.519936027903400655e-01,-4.450573977139457016e-01,4.240971577357818302e-03,2.215285627593305013e-03,8.237111300162310457e-04,1.783128380775451660e-01
-2.822041851530708856e-01,-4.621359243276104145e-01,-4.495617027683577183e-01,7.578554255462973191e-03,1.123088079287366294e-02,2.607516808306507925e-03,1.756193041801452637e-01
-2.822583277133575153e-01,-4.902365988652513384e-01,-4.759000218197866894e-01,5.225191090903253364e-03,4.070540422270941400e-02,8.770215342086671098e-03,2.139211297035217285e-01
-3.051938257256252562e-01,-4.331774211375318262e-01,-4.867563688457600124e-01,-6.194806553513843711e-02,1.574753987442564784e-02,-3.441329145226380837e-02,2.047369033098220825e-01
-2.791513234317679615e-01,-4.772998825315061255e-01,-4.710757567041365390e-01,-1.267755057712230751e-02,5.763443898243183865e-03,-5.239148852472332203e-03,1.968056112527847290e-01
-2.952565083126458267e-01,-4.623278694136225275e-01,-4.287368183331977667e-01,-1.087675406293764704e-02,1.438523225145388156e-02,-4.998575243118927661e-03,1.564601212739944458e-01
-4.464257148426317157e-01,-5.657083428974652994e-01,-4.508273764717891652e-01,-4.664923358807999271e-02,7.507741395045999799e-02,-1.994022613218087159e-01,3.955309987068176270e-01
-3.015349931104676084e-01,-4.554380171373061392e-01,-4.001302594125235590e-01,-5.268866758887284264e-03,3.494225085961973325e-03,-4.635879353184369639e-03,1.357108801603317261e-01
-2.931385497705691345e-01,-4.459119035092576344e-01,-4.348397792114139793e-01,-9.360704867627344175e-03,8.827411032334971791e-03,-8.176678610293497754e-03,1.498932093381881714e-01
-3.218404462196450266e-01,-4.200411783220289741e-01,-4.408145702517179410e-01,-2.482251789365359090e-03,2.981970889017150714e-03,-1.534876158474379401e-02,1.134318932890892029e-01
-2.795356101826521611e-01,-4.486497964815398531e-01,-4.346618195203776347e-01,-7.363795082615779905e-03,4.912883918877924104e-03,-1.371302927665068918e-03,1.633108556270599365e-01
-3.117012050052846428e-01,-3.786217123951250429e-01,-5.002131167749667151e-01,-9.661279972772385261e-02,1.082680537827592215e-01,-1.510563075948865575e-01,3.987753987312316895e-01
-2.718629143101510826e-01,-4.570832949403162981e-01,-4.473673327188265048e-01,3.594849456346596583e-03,3.908847596337959932e-03,1.019506965278276249e-03,1.808013319969177246e-01
-2.747599413914676436e-01,-4.576064576048465837e-01,-4.546776759000619172e-01,3.320745864016052661e-03,2.630317785947366722e-03,-5.876585297670090325e-04,1.815510392189025879e-01
-2.696197266915252300e-01,-4.545045575977557650e-01,-4.504447804523784016e-01,1.091551140301539333e-03,6.758535924651571433e-04,6.118975440283928370e-05,1.829022914171218872e-01
-2.697045780469321530e-01,-4.539830546196091943e-01,-4.439813969189961851e-01,2.539322589395142174e-03,3.314589210061964514e-03,2.300078163198701620e-03,1.796765774488449097e-01
-2.747599948312895446e-01,-4.580200890205058384e-01,-4.563376552157756838e-01,6.536889057961636079e-03,6.837621714646247018e-03,-7.409529746184752427e-04,1.831635087728500366e-01
-2.718747093947559423e-01,-4.552870053082735957e-01,-4.492770315288328042e-01,3.439505163116027449e-03,3.982512213683722310e-03,1.078974611706395728e-03,1.807220280170440674e-01
-2.698862091873106550e-01,-4.587178037318530022e-01,-4.530691387362996703e-01,1.260882749315677277e-03,1.942247041742909070e-03,7.132736741794722850e-04,1.861189007759094238e-01
-2.049186294750659776e-01,-3.057070332241453858e-01,-1.546816935856770436e-01,-3.805496202089334035e-02,8.037814891667754980e-02,-1.359978827038509641e-01,3.113809525966644287e-01
-3.294762925348826421e-01,-2.135271194299998565e-01,-4.593367298918632491e-01,-3.389099747309541610e-02,3.127656692756693863e-02,-7.383277232901434839e-02,2.609587311744689941e-01
-2.523758881801065890e-01,-4.305976199083839662e-01,-1.876557524713820813e-01,-1.954441886454112362e-02,6.535511675647009966e-02,-4.457216807958743615e-02,2.596268057823181152e-01
-3.013120707940612486e-01,-4.177753262844975946e-01,-4.158432584564373813e-01,-5.859685260714770846e-03,4.792340297838902814e-03,-7.757767948852058171e-03,1.170250549912452698e-01
-2.250520704531867588e-01,-8.260608517262019168e-02,-3.033298164755177662e-01,-3.358541071251117116e-02,1.782034302882539931e-02,-1.261854956773567071e-01,2.994554936885833740e-01
-3.029389926821411394e-01,-4.051891923559899356e-01,-4.067895571970606694e-01,-8.629930318757649899e-04,-1.173156045311886039e-03,-1.372926133298515983e-02,1.057976484298706055e-01
-3.846406893295230556e-01,-2.440365540002405187e-01,-5.815145136206467669e-01,1.526739900488723392e-02,-8.152793065920812404e-03,-1.248022683794103721e-01,3.658354878425598145e-01
-2.705803365247805292e-01,-4.618939904561811804e-01,-4.589249044416812140e-01,-1.267144612956623605e-04,3.537272651337301094e-03,5.964550465165426870e-05,1.899455189704895020e-01
-2.996111163705670322e-01,-4.686537260070338662e-01,-3.780571073215766575e-01,-3.509460830860568550e-03,3.292971168896411619e-03,-2.059443904428032244e-03,1.468014568090438843e-01
-2.761867755609276331e-01,-4.597204647993019533e-01,-4.440025167209632473e-01,-7.814016988731761629e-04,2.181075657472527143e-03,-1.713635553616940567e-04,1.762472391128540039e-01
-2.753024217229085857e-01,-4.795676640835359050e-01,-4.548625032921115308e-01,3.864656446044284629e-05,2.059097501177069994e-02,-3.221742382894968431e-03,1.964467763900756836e-01
-2.844230640388947240e-01,-4.480899914328401734e-01,-4.226027877219102336e-01,-9.007975679562631524e-03,2.836611166334014871e-03,-3.136446107002502977e-03,1.534996032714843750e-01
-2.802856569102614714e-01,-4.463446708142329022e-01,-4.452249454150740138e-01,-5.837425835219930796e-03,6.792043716598764914e-03,-2.448747482115874383e-03,1.662814468145370483e-01
-2.743653465274746850e-01,-4.724258995607631961e-01,-4.664784116691847449e-01,-1.960243432505148764e-02,1.933037816688408517e-02,-5.218660307621056198e-03,2.010991126298904419e-01
-2.710655784844563931e-01,-4.551052822103293649e-01,-4.443753772246223366e-01,-6.339743901796944525e-03,7.047272469050250288e-03,-1.232893572032565943e-03,1.796806752681732178e-01
-3.038337173833313698e-01,-4.314006909453755867e-01,-4.948514478767707669e-01,2.286527600167515689e-02,-2.279502697142537799e-03,3.866441070101563418e-03,1.732698827981948853e-01
-2.783342416128643526e-01,-4.652325349078741401e-01,-4.638728348618310626e-01,2.520683212590014294e-03,1.808656438987428722e-03,-1.597626477561806934e-03,1.863202303647994995e-01
-2.676170501960069559e-01,-4.688839904723801633e-01,-4.681296948587505558e-01,-9.376915941957997269e-03,1.306756355219190063e-02,-2.098737523556442979e-04,2.028135359287261963e-01
-3.016393619731909670e-01,-4.762615155770306141e-01,-4.799831202058624235e-01,-1.788969040986666814e-03,-1.356741726171467209e-03,-1.218193983830743012e-03,1.765678226947784424e-01
-3.186749189732881460e-01,-4.461526086530129831e-01,-3.792085503326265705e-01,-6.415436308887327230e-03,-5.302985877105327248e-03,3.066942583556559604e-02,1.234012693166732788e-01
-3.078878401139585330e-01,-5.036072444165634598e-01,-5.185603524728830127e-01,-7.172750282336591912e-03,-2.345053625247044398e-03,-1.019402329284858910e-02,2.047898769378662109e-01
-2.965608834028312102e-01,-8.535826781862517754e-01,-7.832146527295653637e-01,-4.012022923849174749e-02,1.259827504013894539e-01,-1.925823021279252784e-02,5.740948915481567383e-01
-2.887759676569315315e-01,-4.684983804243172401e-01,-4.636806688309352831e-01,-3.907905459233344640e-03,8.577674294554325785e-03,-6.275093999997450765e-04,1.781157851219177246e-01
-2.917894673513958814e-01,-4.689497230667797334e-01,-4.684793977682988886e-01,-5.800695167127522351e-04,1.201696207121449693e-03,-4.232847083950497138e-04,1.769421696662902832e-01
-2.934734208157896429e-01,-6.801046399862609171e-01,-6.094585460286137124e-01,-1.957246350742180077e-02,1.322632419068455467e-01,3.476880172534126123e-02,4.294381737709045410e-01
-3.159759401807632484e-01,-4.617761110611863229e-01,-4.338225538683916360e-01,2.309516736146942709e-02,3.065038451242257933e-02,3.219066847371533646e-02,1.596579849720001221e-01
-3.182449317607637385e-01,-4.576626633813000167e-01,-3.782337761869460913e-01,4.247216293668246850e-02,1.180102045452279674e-01,1.335029039427165221e-01,3.396062552928924561e-01
-2.815819386680320502e-01,-4.479367075157359990e-01,-4.624063517765353848e-01,9.706585389172617956e-03,6.607946316418807781e-03,4.596944518155852370e-04,1.752274483442306519e-01
-3.284294283058034614e-01,-3.040171680637195339e-01,-4.435762225256874025e-01,7.925294146240347004e-02,2.811344691074491378e-02,1.017952949882130198e-01,2.626152336597442627e-01
-2.711841834428779796e-01,-4.534960468449950599e-01,-4.464614352455801294e-01,3.803809059141363257e-03,5.223172503447545689e-03,2.036226899303973659e-03,1.792827397584915161e-01
-3.071024396637743736e-01,-4.048208676739433187e-01,-4.191130180019486673e-01,-7.974434146111465671e-03,-6.322042912644846788e-03,2.057150141952979530e-02,1.128273159265518188e-01
-3.042163615214560912e-01,-4.673906144598382051e-01,-3.924347707013064457e-01,6.485205610059161137e-03,4.529772193551785328e-03,4.133222055832546683e-03,1.423106938600540161e-01
-2.623915815664051299e-01,-3.264436895636496083e-01,-4.107189734765685496e-01,1.123016901789465616e-01,4.481952935339252736e-02,9.030761328007819166e-02,2.914288640022277832e-01
-2.910291023299572122e-01,-4.059640322036604521e-01,-4.535853077113084497e-01,8.696398586044096213e-03,8.404794874855266509e-03,2.617087621268183745e-03,1.463233530521392822e-01
-2.939078255872317191e-01,-3.757245786610916016e-01,-4.289932556012211462e-01,-9.843029367272670277e-03,-9.720067363624705636e-03,1.303046129014862747e-02,1.223653405904769897e-01
-2.739722645970761317e-01,-4.396203462082653446e-01,-4.481272086061710569e-01,-1.878791159440656739e-03,-5.859885142388419205e-03,1.024740497677427160e-03,1.704040914773941040e-01
-2.880102708532676359e-01,-4.219993835644718638e-01,-4.348785753785535668e-01,-3.063275825616460467e-03,-8.723976613058848084e-03,2.009404107933171740e-03,1.418210715055465698e-01
-2.927748631053926909e-01,-4.233534334060545801e-01,-4.760069347359622283e-01,-2.511613878711236800e-02,-1.029292690337791326e-02,9.604920790734430489e-03,1.708380281925201416e-01
-2.930470674794415920e-01,-4.331211615827139649e-01,-4.308495992535558150e-01,-6.257381802337098897e-03,-7.225440256499031724e-03,2.720572255103743346e-03,1.400143355131149292e-01
-4.187765575754744396e-01,-5.063564217219509445e-01,-5.222741860681784365e-01,-7.888221073717249787e-02,-8.079398681383014036e-02,1.719146932617768853e-01,3.690960407257080078e-01
-3.625670767756854485e-01,-4.617185555030302035e-01,-4.789566566191059138e-01,3.638715776425022891e-02,-3.899716306802165910e-02,-8.030028858594069618e-02,1.992891728878021240e-01
-2.950565735262423717e-01,-4.345192015206376102e-01,-4.361566327751953409e-01,5.802616617751778574e-03,-3.498880516863160563e-03,4.798388755523870031e-04,1.407810151576995850e-01
-3.020031690022312865e-01,-4.316141875641774650e-01,-3.253523176907204828e-01,-2.598340258419875974e-03,5.216012826025032568e-04,-4.818494407914702266e-02,1.459600180387496948e-01
-3.091364600526548267e-01,-4.110512592079832439e-01,-4.826780002250706803e-01,3.357994844577377042e-02,-1.654743490762115507e-02,-2.499606069674720904e-02,1.699868887662887573e-01
-3.062549069634903920e-01,-3.741150837317869793e-01,-4.344092454276540227e-01,9.985730201243060364e-03,-7.096847002685094212e-03,-3.124609461179037734e-02,1.253441572189331055e-01
-2.986099831500041990e-01,-4.488554037514209116e-01,-4.352605681217532330e-01,8.704630690541958343e-03,-5.492750487142026607e-03,-8.172685907798491606e-03,1.457194089889526367e-01
-2.720812189127451708e-01,-4.572383135787316810e-01,-4.560202715030473586e-01,9.101891045164369615e-03,-8.965293563423428619e-03,-2.677755728871642382e-04,1.858735680580139160e-01
-2.538248592141035820e-01,-4.170783146438879485e-01,-4.428060448523741810e-01,2.321871391656035385e-02,-1.170493843763843571e-02,-6.623620954078102314e-03,1.835039705038070679e-01
-3.138125135259778320e-01,-5.279022703058561250e-01,-5.046299955040909335e-01,1.058066782184200472e-01,-1.236604830120192344e-01,-3.953217907035062872e-02,3.543204069137573242e-01
-2.961170364535037347e-01,-6.493855111171764616e-01,-5.664762441864190645e-01,1.055339167141565275e-02,-1.149406097009737365e-01,-5.756595061876745856e-02,3.902473449707031250e-01
-2.834267265843800065e-01,-4.637582061385642218e-01,-4.144817276164184383e-01,2.437861598303838265e-03,-4.802023772386635435e-03,-1.202440472507387316e-03,1.617184579372406006e-01
-2.701370098228665362e-01,-4.492615634319012674e-01,-4.564072236105821134e-01,-4.490946819352637171e-04,-1.027681333763139212e-03,-2.010450693563735737e-05,1.828124821186065674e-01
-2.086121277308035649e-01,-3.364272956557898819e-01,-4.304758823360087527e-01,-1.145471223302880481e-01,-5.167701477905879692e-02,4.177861635671201168e-02,2.996893823146820068e-01
-2.786284506389893334e-01,-4.528662842109911213e-01,-4.473371113698209056e-01,-5.367396269572112869e-03,-9.757429840004172095e-04,-5.864777147336763937e-04,1.718031316995620728e-01
-2.757519056719352490e-01,-4.622029316660581366e-01,-4.606577246477354670e-01,-2.439965514261128142e-03,-3.701607803086227715e-03,-3.674107087152485773e-04,1.858430504798889160e-01
-2.684556877574496014e-01,-4.460197365530406688e-01,-4.445972140526749938e-01,9.200223157686390416e-03,9.043786926449729272e-03,3.302924619062987989e-03,1.783548593521118164e-01
-2.754334139130102388e-01,-4.537514497151620141e-01,-4.550409724616417684e-01,2.012627703358767835e-03,3.335470872551472149e-03,6.749485639411725987e-04,1.790972501039505005e-01
-2.870998741545787714e-01,-4.560272068698970060e-01,-4.795518655386299400e-01,1.169969222969436014e-02,2.655776374053574890e-03,-1.126414392475088297e-03,1.830284893512725830e-01
-2.779773554835495153e-01,-4.603004259549771104e-01,-4.725710186368330401e-01,2.938270200936047086e-02,1.908348251631326181e-02,1.976952157943953625e-02,2.012077271938323975e-01
-2.782392999594211491e-01,-4.595016664881609314e-01,-4.587156358065518913e-01,5.175418945132446470e-03,5.869816145373109306e-03,1.398066321629323327e-03,1.813939660787582397e-01
-2.722808707375866666e-01,-4.605696766966420608e-01,-4.636193981599485703e-01,2.435060676262564353e-03,-2.816677062671315147e-04,4.129189020032884871e-04,1.898808628320693970e-01
-3.120972949243362993e-01,-3.627738637720233639e-01,-4.783677050062746239e-01,1.461673514854677086e-02,-2.768479221411848396e-03,5.098440878913687579e-03,1.500995457172393799e-01
-2.774684635173431113e-01,-4.472992699522190252e-01,-4.595210836814411781e-01,1.796562093928151744e-03,4.962168882786263668e-03,3.277428746078059720e-05,1.764966547489166260e-01
-2.812360108286049432e-01,-4.478994247272126139e-01,-4.523839828228474746e-01,5.287607446505203194e-03,5.473190631748937190e-03,2.516563579895864707e-03,1.695197969675064087e-01
-2.699169158853498285e-01,-4.474915463951205652e-01,-4.562295739057175559e-01,1.991379868518852909e-03,1.547117119404398892e-03,-5.196448637924142228e-07,1.821533143520355225e-01
-2.722501177964501418e-01,-4.488273368144470310e-01,-4.603614390136307466e-01,3.313845067707617449e-03,5.807741732548888898e-04,5.585345379188065736e-04,1.827131658792495728e-01
-2.707431951089115385e-01,-4.467903911565486164e-01,-4.547024109763877497e-01,-3.329204747670301209e-03,4.063681735562878379e-03,-2.615965162366574331e-04,1.803638041019439697e-01
-2.739718182867602603e-01,-4.374247671055601638e-01,-4.295818296054922936e-01,-7.653387044052011381e-03,3.573935158268591247e-03,-2.843365692446792221e-03,1.604204624891281128e-01
-2.822820764655086800e-01,-4.448180070037447975e-01,-4.451998382439720237e-01,-5.138024462056278371e-03,6.724753495638426982e-03,-2.127444845520954069e-03,1.634275913238525391e-01
-3.202855318332658019e-01,-4.379853531161205793e-01,-4.527799653345302988e-01,-1.083920146555713594e-02,1.049193549759766531e-02,-1.391666486390931087e-02,1.306796818971633911e-01
-3.534785305112421172e-01,-5.101426583818338134e-01,-2.829760992424092958e-01,-2.992925998911313834e-02,6.744535480490179702e-02,-8.389671236213905314e-02,2.793014943599700928e-01
-2.928511984671478552e-01,-4.298374643341891788e-01,-2.904284822141879330e-01,-1.332179752172383581e-02,2.999221831941117911e-02,-3.535761335837126623e-02,1.615068912506103516e-01
-3.059329182208189168e-01,-2.517185874628789510e-01,-4.719006811011918212e-01,-1.835120404068192601e-02,4.791927361829122732e-03,-5.136498830156505796e-02,2.201740145683288574e-01
-3.178502536916834598e-01,-4.367173601102083969e-01,-3.600705466225452844e-01,-8.750332309313721760e-03,1.251347019092476608e-02,-4.850998510057370067e-02,1.365740150213241577e-01
-2.016022793750016917e-01,-3.919683352360585626e-01,-3.011328160268227916e-01,3.887982910954079080e-02,1.036647614926416022e-01,6.214628559876576169e-02,2.748797535896301270e-01
-1.890701932674265784e-01,-4.338529334812445404e-01,-3.233353530934555131e-01,5.103767246395211248e-04,1.074906306045522453e-01,-1.190881685429481113e-02,2.831410765647888184e-01
-2.854567977465853890e-01,-4.647696119988352081e-01,-4.472216687703755023e-01,-6.250791428812187481e-03,9.377694373743136053e-03,-3.583431977748624889e-03,1.724355220794677734e-01
-3.107926729186651915e-01,-4.630104480114579091e-01,-4.715070253275565615e-01,-4.831423527479530855e-02,2.317288361120608056e-02,-4.448440947421629377e-02,1.977020651102066040e-01
-2.746407657451259698e-01,-4.631198553096509962e-01,-4.611773729983243975e-01,-6.630407932284843563e-04,3.825759292182930819e-03,1.282202439796706513e-03,1.876491010189056396e-01
-2.795417719835422976e-01,-4.684492670099961731e-01,-4.656523187678787701e-01,6.981460620674189875e-04,2.257585199922486439e-03,-2.402597056461333244e-03,1.876154839992523193e-01
-2.773237575841207558e-01,-4.669781718360451750e-01,-4.599527545088847313e-01,-4.038891486512912496e-04,1.108920375455418276e-03,-1.248050910640471564e-03,1.862648725509643555e-01
-2.693439441133023138e-01,-4.592335592924890464e-01,-4.461534215296986128e-01,6.543175272830084079e-03,1.297132809926500145e-02,1.067355814993132960e-03,1.854238361120223999e-01
-2.809402486671763732e-01,-4.691385997926183493e-01,-4.658736945887223535e-01,1.056696300950943357e-02,9.707652645027452232e-03,1.576529039691384419e-03,1.882551014423370361e-01
-3.215024454069792537e-01,-4.669908379147489352e-01,-4.373210479653223959e-01,1.201735378352602503e-02,1.087184185824160119e-02,1.409274307495176140e-02,1.382541656494140625e-01
-2.833940541189162166e-01,-4.727503400330269612e-01,-4.681963363717034921e-01,-1.096851800711566745e-03,-4.110265507328775877e-04,-2.045845635325998970e-03,1.871653944253921509e-01
-3.426433637360425388e-01,-5.883965795941010768e-01,-4.479362756057840844e-01,1.480805871985912125e-01,1.301024978311376423e-01,1.033035403660197277e-01,4.406626820564270020e-01
-3.479539492852460336e-01,-4.668812507733501316e-01,-5.673506247974245964e-01,1.190765745440619527e-01,9.702337843116624894e-02,1.658329877611550152e-01,4.352773725986480713e-01
-2.701235612303586331e-01,-4.612792664661061193e-01,-4.560462083102393427e-01,8.896852857733401898e-03,1.391860398092799322e-02,-2.392358367884638471e-04,1.907521337270736694e-01
-2.127008048784781447e-01,-4.219545753664544208e-01,-2.218133600907302994e-01,8.388175396777925938e-03,8.290071601803926382e-02,2.734294569464502597e-02,2.550194561481475830e-01
-2.762037962207745667e-01,-4.325034489035617935e-01,-4.337754506583771374e-01,1.604644573534570002e-03,2.509407805616824944e-03,1.712275271427125649e-03,1.570522934198379517e-01
-2.751699176019529181e-01,-4.403460844198976432e-01,-4.379918519273336974e-01,1.566493587962058346e-03,-7.559404083913342078e-05,-2.110361665105452318e-03,1.640749424695968628e-01
-2.892678173714904322e-01,-4.441064866712695069e-01,-4.438887810794704958e-01,1.690060386527168952e-03,2.380458497393346789e-03,5.370151557498817899e-06,1.548125296831130981e-01
-2.885349870184261700e-01,-4.476794962919138920e-01,-4.433464375586157469e-01,5.944610066583418811e-03,2.908656113288219866e-03,9.607783248511296342e-04,1.574494689702987671e-01
-2.828203809832986471e-01,-4.506783815980078822e-01,-4.464428105126157509e-01,8.228825265928748148e-03,7.670071500922102069e-03,2.240839582830033913e-03,1.669669747352600098e-01
-2.773195612009479172e-01,-4.567441330350235917e-01,-4.563440748642728639e-01,7.366951543475104384e-03,5.907186479801679324e-03,-4.515082285521658956e-04,1.799712926149368286e-01
-3.011447242618018327e-01,-4.343213873536097003e-01,-3.225984996196544774e-01,-5.724458680478546752e-03,-7.659777038220566894e-03,1.882833118653055512e-02,1.291394233703613281e-01
-2.805699179265846999e-01,-4.466316081253932091e-01,-4.493099733596457868e-01,1.547737302844738204e-03,2.810346189270838610e-03,-1.078015990418673166e-03,1.675195544958114624e-01
-2.727003352036967976e-01,-4.477123471276500677e-01,-4.581557369283291714e-01,3.445862171829616998e-03,-3.401865709642584723e-03,-6.444270847987906446e-04,1.806587129831314087e-01
-2.765152034808648351e-01,-4.471115065498918462e-01,-4.562856337386029804e-01,1.412554215944094747e-03,4.644980553497697270e-03,-2.613215814306389466e-04,1.755655258893966675e-01
-2.977293435962063417e-01,-3.886547408416350380e-01,-4.617865786782014981e-01,3.851586354688590723e-03,4.207542933905664161e-04,1.257711603496502236e-03,1.425307542085647583e-01
-2.416986243484938179e-01,-2.768978976836901640e-01,-4.782504668755334087e-01,1.532922948097736882e-01,2.011372044068432396e-02,-5.768397891199313976e-04,3.472456932067871094e-01
-2.877014297282458610e-01,-3.997634675848428798e-01,-4.565884009341875105e-01,1.689336758996275861e-02,-4.863218189770853427e-03,-4.506143628287872897e-03,1.521279662847518921e-01
-3.176717146164550476e-01,-3.807880863332616106e-01,-4.486515213620218545e-01,4.179647421128702099e-03,-1.149283927213546903e-03,1.756800205220458364e-02,1.177059486508369446e-01
-2.760803112783937197e-01,-4.449326390272326792e-01,-4.590718771892837724e-01,1.723549634405727388e-03,-2.675946298716383454e-03,-2.892144499536766257e-04,1.764344424009323120e-01
-3.047150315969284207e-01,-3.908402934286658303e-01,-5.169925342442903693e-01,4.073335763932608988e-02,7.242839220807329066e-03,1.354562005743036729e-02,1.997055113315582275e-01
-3.682930170109141588e-01,-5.429612634609357613e-01,-4.506874026342804207e-01,7.580132217710601472e-02,-5.378597557408799912e-02,-1.345969734035095122e-01,3.212032020092010498e-01
-3.195903106485326051e-01,-4.620674646253019047e-01,-3.582337275255841336e-01,-7.934941887696419019e-04,-3.178235203793644027e-03,7.465342514577699706e-03,1.284002959728240967e-01
-2.774342727609991344e-01,-4.599552841484476629e-01,-4.324484449136744013e-01,4.521035934252467560e-03,-4.366603680681454928e-03,-2.575493529005454339e-03,1.708461046218872070e-01
-2.994697428193950905e-01,-4.306602118839508719e-01,-3.531069469740941713e-01,1.645571839490951246e-02,-3.020971082920082679e-02,-4.868098990391778180e-02,1.539836525917053223e-01
-2.932880931150196879e-01,-4.691257354299298021e-01,-4.183916949674460484e-01,1.918473184500536343e-03,-2.315591381638432492e-02,-6.018174608930377742e-03,1.621732115745544434e-01
-2.985351954184616297e-01,-6.095881109699476941e-01,-5.603531694906396243e-01,1.469832182583370450e-01,9.317597384455143794e-02,5.675598470530279771e-02,4.294002056121826172e-01
-2.730689672377217825e-01,-4.398901058037675282e-01,-3.790166066759518282e-01,6.497188460073247823e-03,1.699352100911951172e-02,2.569582085862710114e-03,1.496418267488479614e-01
-2.790614483915611621e-01,-4.532907108938052931e-01,-3.848439634692227274e-01,4.571686687136438179e-03,1.766367903733101485e-02,1.869902926431455748e-03,1.553208678960800171e-01
-2.653160454241436650e-01,-4.580776291172345416e-01,-4.427673881205719253e-01,1.492347165974080604e-03,2.050144669901775990e-02,-1.747866121192546279e-03,1.889893710613250732e-01
-2.847127437487320112e-01,-4.720784651310776514e-01,-4.730999613318940256e-01,9.238213618876115613e-03,2.334866269517498275e-03,-2.160841401651711607e-03,1.886391937732696533e-01
-2.756704355007609797e-01,-4.629832513676337413e-01,-4.433579358446441687e-01,1.607424638203972184e-03,8.245623363854444939e-04,-1.201259520033337884e-03,1.783515959978103638e-01
-3.010135913332135926e-01,-4.442762854863452349e-01,-4.534948652217006271e-01,6.498668922772196307e-03,9.939448394402196699e-03,5.661385154406214058e-03,1.498302072286605835e-01
-3.043590023483162543e-01,-5.592479897624590413e-01,-5.178553647352654998e-01,7.272402564865049560e-03,2.706943940861351872e-02,-1.088073998308779211e-02,2.425764203071594238e-01
-3.176234082743306097e-01,-4.502204677311680281e-01,-3.348639742285477450e-01,7.422816538941208117e-03,1.833044679504965135e-02,7.435890709316690661e-02,1.826313734054565430e-01
-2.812057444497449432e-01,-4.637009810069709914e-01,-4.635803578505847122e-01,1.860805333597114440e-03,-2.577423442150958768e-03,1.591838270993193747e-03,1.825388520956039429e-01
-3.071031248025961613e-01,-5.546476898742880302e-01,-5.177075818343310765e-01,9.172087309925307241e-02,-8.375101647195257182e-02,-1.290520169716742049e-01,3.869659900665283203e-01
-1.927214615501003925e-01,-4.715268084766460754e-01,-4.887979345514152918e-01,6.640547498614642052e-02,-4.085301321948799601e-03,-2.465692601007461477e-04,3.100408315658569336e-01
-2.823237713808025573e-01,-4.677809699369928076e-01,-4.616550613086060628e-01,1.503380198991972113e-03,-2.893735686749806038e-03,7.655180956547219615e-04,1.825635880231857300e-01
-2.781079060304993411e-01,-4.644658798879607309e-01,-4.644999153350323207e-01,3.496290642536528746e-03,-1.152718072018810895e-03,5.700279550560541754e-04,1.864866465330123901e-01
-3.278901086882544114e-01,-9.705011076164811179e-01,-9.525282909365372364e-01,-6.351367488306622344e-02,-9.613940664329784225e-02,3.802292461867673445e-02,6.677498817443847656e-01
-2.724703958932591652e-01,-5.025236739107059591e-01,-4.798682516408537824e-01,-2.473102794237022617e-02,2.299667182903350482e-02,-8.898274734600322700e-03,2.277822941541671753e-01
-2.439860209169901206e-01,-3.908319795555931231e-01,-4.470223327238501687e-01,4.534871053715265610e-02,-8.193673906491370090e-03,-4.916061746793008724e-03,1.985342502593994141e-01
-3.106808923919538445e-01,-3.672102365869728269e-01,-4.390591569543101924e-01,-1.524015393691837686e-03,5.057383276369438983e-03,-1.544021469362554140e-02,1.149708926677703857e-01
-2.760162400486982914e-01,-4.519311421724638844e-01,-4.655808619663852066e-01,1.231677970695851075e-02,1.140301090199543829e-02,4.891540814733735115e-03,1.856085509061813354e-01
-2.764408081683927265e-01,-4.300819892448433657e-01,-4.479511695508537894e-01,8.947072282394849183e-03,7.784092860156304958e-03,3.795325723204423865e-03,1.647285670042037964e-01
-3.606613721840940534e-01,-3.947076782154182450e-01,-5.472078184424423730e-01,4.995311974124983651e-02,1.480363257543605877e-02,3.385298548919261213e-02,2.029506564140319824e-01
-3.500314009530433035e-01,-4.672339307308137069e-01,-5.909357486330228948e-01,5.932552120788320976e-02,5.710851841559000733e-03,1.544951186882422001e-02,2.343271076679229736e-01
-2.853248024773996638e-01,-4.241867452706566399e-01,-4.482954936531817758e-01,2.767821642267827634e-03,8.839151026153133431e-03,3.186090971193699176e-03,1.532954275608062744e-01
-3.540162953170861715e-01,-2.644633561616173689e-01,-5.165293513693656191e-01,7.058298455304219850e-03,-2.876840145330350484e-02,1.163349036826460126e-01,3.036733269691467285e-01
-3.678525742002708432e-01,-5.395329403240133326e-01,-5.179367025649361800e-01,4.751637728191516336e-02,5.082255224684791017e-02,6.918071911772701033e-02,2.347616404294967651e-01
-2.852043099790312897e-01,-4.053698803070164280e-01,-4.422480210221939601e-01,1.567320198496039915e-02,9.527735818997675951e-03,1.536846850129304151e-02,1.481522619724273682e-01
-2.904984630575580540e-01,-2.363762992564863719e-01,-4.706662140274524564e-01,3.298235542326699576e-02,9.539307130513660984e-03,6.280127472078052275e-02,2.459861785173416138e-01
-2.728512821478846773e-01,-4.567446336754320546e-01,-4.625683804259863030e-01,2.684676791437460696e-03,2.032556422287384781e-03,-7.952783496720747811e-04,1.869693696498870850e-01
-2.792900787677635166e-01,-4.629107266461228720e-01,-4.646787212010788926e-01,-2.376629577897295450e-03,-6.840927114289912072e-04,-3.894319877757337987e-04,1.845619529485702515e-01
-2.791841505908023713e-01,-4.338197433264243674e-01,-4.597837192983920684e-01,-1.204068224009492878e-02,3.181211871834664119e-04,9.264590119998194605e-04,1.704085171222686768e-01
-3.507958528329235826e-01,-6.417389405277927894e-01,-7.782779301890759838e-01,-2.135617889863233587e-01,-4.294607730359158160e-02,4.919259852543673983e-02,5.409570932388305664e-01
-2.666873380920518621e-01,-4.179751267355185096e-01,-4.471599407601684062e-01,-8.298133750183955826e-03,3.524471738550106429e-03,-1.427295354362418398e-03,1.685378551483154297e-01
-2.754074615099047496e-01,-4.611708623476469815e-01,-4.475815259783335054e-01,3.248282640504176078e-03,-3.595434715926678943e-04,6.265541678953888676e-04,1.794478446245193481e-01
-2.714744355329826719e-01,-4.570758352051570439e-01,-4.533516641014327941e-01,-1.606299343003487860e-03,-1.944633004605611330e-03,7.204370816744519110e-05,1.838195770978927612e-01
-2.822260356199995934e-01,-4.615104412505076081e-01,-4.438582419268202739e-01,-6.471856033567288495e-03,-8.142058811764107951e-03,-1.461127359827020555e-04,1.720881462097167969e-01
-2.985391858954409838e-01,-2.938179183479973089e-01,-4.484392433458456173e-01,-1.724821303804533260e-02,1.067426866144460633e-03,-5.780502198520217488e-03,1.555512696504592896e-01
-1.305301246238660950e-01,-3.827586169511400516e-01,-2.496409485133740114e-01,-5.940257247253950129e-02,-1.340042985783887475e-01,5.803444837224466801e-02,3.497497737407684326e-01
-3.244012620123900015e-01,-3.884965545143680421e-01,-4.496550516291326072e-01,4.936263279559357196e-03,-1.099262487120151229e-03,-3.533874841893826918e-02,1.248669177293777466e-01
-3.356493305254784620e-01,-5.380829894074711239e-01,-4.626908822543466249e-01,-2.277796731483994197e-02,-5.436675239359377992e-02,4.689853323686744152e-02,2.200536578893661499e-01
-2.950582792899053564e-01,-4.258317251192332287e-01,-4.700198373824546749e-01,2.416155562434019535e-02,-5.134117829669991237e-03,-3.699426781651858707e-03,1.634147912263870239e-01
-2.756045102929640667e-01,-4.467878201216756162e-01,-4.618177363143290970e-01,1.028481470717075921e-03,1.218391996093978416e-04,-4.632192546968015839e-05,1.791806817054748535e-01
-2.827248152528022418e-01,-4.252836868387402380e-01,-4.588452762632460602e-01,2.428695327352803964e-03,5.991550928176855688e-03,4.533200349365910042e-04,1.623573899269104004e-01
-2.756302271986649788e-01,-4.582875348952478722e-01,-4.652441241261776605e-01,2.212815926610149208e-03,4.564961369570052813e-04,8.194903486842421538e-04,1.862795948982238770e-01
-2.770228870685735867e-01,-4.648695686096696034e-01,-4.664024551122104567e-01,1.091166382589443991e-02,-6.089989538011065032e-03,3.877587468564234227e-04,1.898567378520965576e-01
-2.751364632063104665e-01,-4.575118696545113495e-01,-4.650186014112722699e-01,3.056374506234948215e-03,1.210411362569967561e-04,-2.545051905258219837e-04,1.863181293010711670e-01
-2.444484687891858021e-01,-3.468010363269308782e-01,-4.143479007029348682e-01,5.354760666985606404e-02,2.403840417808144822e-02,2.957278913516343810e-02,1.868460476398468018e-01
-2.981355497715165725e-01,-3.450359793703475786e-01,-4.481845048144053045e-01,-1.203567964628061114e-02,5.232231604897236849e-03,-2.481457509636465081e-02,1.415661275386810303e-01
-2.752438312939222143e-01,-4.624689693862799600e-01,-4.662928339745099349e-01,8.416958924184380492e-03,-5.323422541247760115e-04,3.433813163848296554e-04,1.897301673889160156e-01
-2.941614877266783279e-01,-4.093385587110853763e-01,-4.278133554755225720e-01,1.802933203022796110e-03,-7.879967863156121105e-03,-5.209417164244715091e-03,1.265400946140289307e-01
-3.467774109353159995e-01,-3.399366726784840975e-01,-5.032419746214613632e-01,2.362741688876281859e-02,-4.437865523490970121e-04,-3.281063482411439997e-02,1.746518164873123169e-01
-3.123123266226323080e-01,-4.376144494825004450e-01,-4.298759363437190673e-01,3.452906307094370103e-02,3.835887662053931446e-02,7.331546185630317958e-02,1.972493380308151245e-01
-2.980081430657602892e-01,-3.720360576226204863e-01,-4.545015457436126782e-01,4.092772324069512274e-03,-6.571856846067024652e-03,-5.600082360261609757e-03,1.365991979837417603e-01
-2.898883784203794001e-01,-3.670426892897166171e-01,-4.227441681587462696e-01,-1.171059835400171424e-02,1.134233062336961056e-02,-1.542545634393107344e-02,1.219190135598182678e-01
-2.887921942774080430e-01,-4.160796624219045281e-01,-4.443215273362324802e-01,7.042783645556569515e-03,-9.630392395467719108e-03,-4.826711730220390253e-03,1.452290117740631104e-01
-2.967186045547359763e-01,-4.544229613863250972e-01,-4.343764795590208116e-01,1.147811469595122306e-02,1.219715126810211672e-02,1.529582894693957452e-02,1.538003534078598022e-01
-2.853932105300919231e-01,-4.569101381382332794e-01,-4.213710130075101201e-01,-5.801399690516356386e-03,4.031992867694356338e-03,-1.836172675710202049e-03,1.573066413402557373e-01
-2.721199310206008359e-01,-4.606456742964675222e-01,-4.580360194780119243e-01,-4.997862130837075410e-05,3.421325580873448534e-03,-1.905004780612480327e-03,1.873573809862136841e-01
-2.786341941171813219e-01,-4.480368464617708879e-01,-3.958962285927666302e-01,7.579054458668852898e-03,1.274599817607915096e-02,3.314829578536665228e-03,1.525641381740570068e-01
-2.751900552675365375e-01,-4.459707424477469262e-01,-3.791213948398309275e-01,4.221558983650327244e-03,1.737144975918350140e-02,3.658826959940883732e-03,1.523720026016235352e-01
-2.820599425083859524e-01,-4.469005357133825074e-01,-4.498339953697142457e-01,-1.227468422519437195e-03,-2.197814694301730883e-03,-7.046139040769237687e-04,1.663883477449417114e-01
-3.741383019858968151e-01,-2.148985934815873522e-01,-5.427866434903552140e-01,7.899223256032157636e-02,-5.318835970885182202e-03,6.374301057818367033e-02,3.341388404369354248e-01
-3.052221373539594218e-01,-4.787785671839113188e-01,-4.791666134870155580e-01,8.458228680425915625e-04,-3.596255939688657098e-04,-1.072634189590094969e-03,1.737679988145828247e-01
-2.725155968463274236e-01,-4.489876886324791760e-01,-4.583757008593564164e-01,2.920292658894669841e-03,3.521188516188965018e-03,3.129371804091434645e-04,1.815222650766372681e-01
-2.710755865051744928e-01,-4.557383701032834411e-01,-4.603754151927674787e-01,1.891945730965628432e-03,5.797418962819981007e-04,4.851288359700280453e-04,1.870577186346054077e-01
-2.730368405885730820e-01,-4.307788264035997683e-01,-4.628393489265127392e-01,2.716491946395055077e-02,-1.396717706219456623e-03,1.800941452264578566e-03,1.822006702423095703e-01
-2.727731507753013429e-01,-4.516021742337773537e-01,-4.580376816426364739e-01,5.933699106595298305e-04,-1.547843379062376241e-03,3.054483327656997544e-04,1.821554750204086304e-01
-2.793668095309383981e-01,-4.660378812625700640e-01,-4.639434120055005439e-01,4.030158877299403961e-04,-7.621294157015460341e-03,1.839269118875551477e-03,1.861300319433212280e-01
-2.933579053654428170e-01,-4.937998761797183778e-01,-5.008508830810389778e-01,8.505148593647043551e-03,2.914641545045879890e-03,-9.761936392098043841e-03,2.053494602441787720e-01
-2.758697329709386969e-01,-4.657007742524873484e-01,-4.670221031163641068e-01,9.739883394006745160e-03,2.985620934436740252e-03,-2.210531510315442635e-03,1.913488805294036865e-01
-2.784206709084427467e-01,-4.458691620093773733e-01,-4.445618790905849216e-01,3.051306973327253154e-03,-1.013198771314791427e-03,4.125775855827329289e-04,1.668931543827056885e-01
-3.100505430414012831e-01,-5.500751446849306836e-01,-5.345830718394115610e-01,4.320568806207022994e-02,-3.686514004758103397e-02,-8.130821345946372125e-03,2.529999613761901855e-01
-3.149383883739292345e-01,-3.912982863579425596e-01,-4.359758457933016751e-01,-7.560889206167415062e-04,3.491375734954034167e-04,5.807434265682087648e-03,1.064976602792739868e-01
-2.732140448890966189e-01,-4.656473283592662549e-01,-4.254663879868578746e-01,-1.039260228082401890e-03,1.030216452410013216e-02,-6.833599872813678796e-05,1.767330914735794067e-01
-3.259926571781988636e-01,-4.244222688485395079e-01,-4.294670800103038699e-01,-4.456856090211297125e-03,5.612843946517851249e-03,3.692972749056935150e-02,1.202327534556388855e-01
-2.996399670038017993e-01,-3.573461547619256606e-01,-4.546143289856716674e-01,1.235401602125881827e-02,7.451537008489507972e-03,7.105623845649701453e-03,1.384918391704559326e-01
-2.918195019134510737e-01,-3.351211548228066883e-01,-4.428114739732198490e-01,2.452350350911753143e-02,6.856963503470652095e-03,1.977608630907762635e-02,1.457873433828353882e-01
-3.116663144727243040e-01,-4.192360817892670788e-01,-4.190025174797053498e-01,4.231510859426633117e-03,8.694328010047165656e-03,2.085624216047540780e-02,1.145932972431182861e-01
-2.699794749060895893e-01,-4.525030081318384689e-01,-4.521661580784286372e-01,-1.215574795553301052e-03,1.286656437926951817e-03,4.805623870518338048e-04,1.823830157518386841e-01
-2.739878130505910558e-01,-4.474771618312737842e-01,-4.523181846583462784e-01,-1.876366110117512736e-03,4.062594443405091391e-03,-3.295198406857275351e-04,1.761313676834106445e-01
-2.747435436057106273e-01,-4.401281008950901907e-01,-4.386848355749322081e-01,-4.087115614843110016e-04,2.639764074642754824e-03,1.770992392942859716e-04,1.647329330444335938e-01
-2.829135522113431778e-01,-4.407017245246535042e-01,-4.414532787661439861e-01,-2.534900314780043698e-03,3.393092660090675158e-03,-9.552026168137723065e-05,1.583354175090789795e-01
-2.848707689776199814e-01,-4.319666048590645180e-01,-4.290417068042263193e-01,-5.665455038065092541e-03,1.752783233950649814e-03,-4.248129847217519892e-03,1.462024152278900146e-01
-2.807375660293316422e-01,-4.439888819270726428e-01,-4.393843788964000296e-01,-5.923512090209225207e-03,3.284768309330572851e-03,-1.860162663215993899e-03,1.614574790000915527e-01
-2.995769993606730575e-01,-4.264861736649521173e-01,-4.789874757226086910e-01,-2.188646852000237716e-02,5.258393908464108722e-03,-1.160442692322634708e-02,1.656780391931533813e-01
-2.886364016564896828e-01,-4.097257452512117482e-01,-4.505489686510726344e-01,-1.086626700345500775e-02,1.055019695591457446e-02,-8.964243056139596655e-03,1.490021497011184692e-01
-2.689912626684469732e-01,-4.517386520415467288e-01,-4.403564035238131669e-01,-6.166679462188557823e-03,6.896637697464179893e-03,-2.288793903724297123e-03,1.780970990657806396e-01
-2.851187959104876657e-01,-4.221683096527541479e-01,-4.661150410300787250e-01,4.866994124768686189e-03,-1.641141235765523031e-03,-6.470770392298741489e-04,1.637594699859619141e-01
-2.782427654960816232e-01,-4.521355865267513430e-01,-4.308146644971377337e-01,8.459416802090717613e-03,-5.494044862366170671e-03,-2.029008892847834842e-03,1.652371883392333984e-01
-2.879108909813014594e-01,-4.347516782514347922e-01,-4.329220292843251605e-01,2.349836712431345453e-02,-2.082311421509977153e-02,-2.541473247797628940e-02,1.618392765522003174e-01
-2.796512904542173272e-01,-4.743300406319354012e-01,-4.716497270853708956e-01,3.767113416918689128e-03,-9.681510371253376074e-03,3.737393832831228772e-03,1.942958384752273560e-01
-2.928082699010641221e-01,-3.297148818870266340e-01,-4.570650507518792538e-01,3.369753700290553655e-02,7.010581803229985125e-05,-1.970476759415036583e-03,1.603073924779891968e-01
-3.332495170593736677e-01,-3.776745715678435089e-01,-5.044650633735782153e-01,1.193022521702786221e-01,-4.563919438735438566e-02,-1.681368033543301221e-01,3.967870175838470459e-01
-2.995188337303150150e-01,-3.692284961131037102e-01,-4.325986431144155930e-01,1.479626637715284604e-02,-8.721199417053739425e-03,-2.357104524721825856e-02,1.258748322725296021e-01
-2.732579490121005428e-01,-4.528872681361439945e-01,-4.511803875853643842e-01,-5.671592143592198501e-04,4.210608516632940979e-04,1.398205107505657554e-04,1.787863373756408691e-01
-2.726792255016075028e-01,-4.519838380158791580e-01,-4.501057282848439645e-01,-5.667637350890984997e-04,4.207670582668849202e-04,-1.459018391546920072e-04,1.783773452043533325e-01
-2.735040804437397499e-01,-4.504898169184023971e-01,-4.486875390371911076e-01,-1.257435801136766408e-03,2.411889687144849661e-04,5.453245358996137732e-04,1.761080175638198853e-01
-2.690548794805124322e-01,-4.493197454198107899e-01,-4.506627234492557310e-01,-1.281900762413457550e-03,9.278300852283670463e-04,-1.101980556889339510e-04,1.809609532356262207e-01
-3.014689459482068346e-01,-4.487652923918539205e-01,-4.529270210243362405e-01,-4.726584712545590060e-03,9.592076761263943971e-03,-7.016362565052500395e-03,1.510538756847381592e-01
-2.723004435252059929e-01,-4.509521110192014626e-01,-4.523345898311040281e-01,-4.602136582266639904e-04,7.948150688242922252e-04,8.554445675453501845e-06,1.793539524078369141e-01
-2.856425340807314806e-01,-4.547588158597676289e-01,-4.664521016151801369e-01,-1.048800883523629685e-02,8.584985518484916298e-03,-3.575061704944859468e-03,1.769294142723083496e-01
-2.732923992776095101e-01,-4.542473748261162125e-01,-4.513847141540833774e-01,-4.144843744260487059e-03,2.716132072535412147e-03,-2.318687883077573245e-04,1.797462552785873413e-01
-3.126702083989464365e-01,-4.258262971526317053e-01,-4.474384345531827734e-01,-7.958579600356625872e-03,-1.034667104502889207e-02,1.448523941784237573e-02,1.298367232084274292e-01
-2.446462111218282165e-01,-4.038318588634257078e-01,-2.057020481340711970e-01,-5.480821653985100406e-02,-9.123803256221063585e-02,1.093910732476087722e-01,3.208430409431457520e-01
-3.091128456064299312e-01,-5.015314570543759620e-01,-4.747624354332176111e-01,-4.156091837045753495e-02,-5.978446900073151882e-02,3.926999773973801483e-02,2.304810583591461182e-01
-3.403422550623970144e-01,-6.146221401852179911e-01,-2.764278057819268275e-01,6.021382283559257448e-02,-1.331528686152157193e-01,-8.622761067065763674e-02,4.280382394790649414e-01
-3.053150577859640169e-01,-4.705602786333274445e-01,-4.420347402653670432e-01,-1.310417911560037528e-02,-1.447502336871662847e-02,1.235758840502718461e-02,1.581386923789978027e-01
-4.329787262426392780e-01,-4.571929090221766301e-01,-5.376029441864266234e-01,-6.137671014055862129e-02,-3.546426548869795192e-02,1.888164769170846968e-01,3.619787096977233887e-01
-2.905020622895059246e-01,-4.594598634779062385e-01,-4.107020623514405777e-01,-1.517903372354334132e-02,-8.142712993472160307e-03,1.005402861544550490e-02,1.545296758413314819e-01
-2.719810486791762738e-01,-4.523490999043359717e-01,-4.595771818029644185e-01,-4.332750615094586605e-04,1.368489618898976632e-03,6.404327081926153601e-04,1.841086745262145996e-01
-2.703263407821864250e-01,-4.553891601524419630e-01,-4.577265592418138795e-01,-1.325900662941995652e-03,1.456229638277594697e-03,3.100039390178370045e-04,1.862745285034179688e-01
-2.710670295488602499e-01,-4.529646754682198351e-01,-4.577976058952059613e-01,-6.865147741984096389e-04,9.855013042810018258e-04,5.027778549632436352e-05,1.843733787536621094e-01
-2.729295865108836705e-01,-4.516622876689218580e-01,-4.574347430330641950e-01,-6.610213101059432290e-04,1.854337763277738495e-03,6.725099381626436622e-04,1.817234456539154053e-01
-2.748825063553260728e-01,-4.624193724821323292e-01,-4.570022123540266601e-01,-5.143552731019919097e-03,-4.657339535486543051e-03,-2.836755115404268222e-04,1.852786689996719360e-01
-2.697367242442499924e-01,-4.521564813180227738e-01,-4.571450260087919215e-01,-1.648585548012396684e-03,1.071670666226179737e-03,1.876092606668690159e-04,1.849961280822753906e-01
-2.679055261558330181e-01,-4.200113887895540743e-01,-4.504054530482763385e-01,-9.012625455958656051e-03,5.802532164178191877e-03,-1.908630464304177056e-03,1.704075336456298828e-01
-3.123500461909873294e-01,-4.400388509017267857e-01,-3.871610773229557378e-01,2.122589853714811330e-03,7.452603874314828137e-04,5.872541259655210746e-03,1.116567626595497131e-01
-3.517332713786806564e-01,-3.790584039439096053e-01,-5.147797642693068276e-01,7.256245281522229196e-02,6.988495695822126430e-02,1.646447948928772831e-01,3.669426739215850830e-01
-2.203819137827096042e-01,-2.508985195002828017e-01,-2.480161962637380257e-01,6.672512109434190763e-02,6.898839302518205985e-02,1.355530407792592817e-01,2.891546487808227539e-01
-2.962910643680017331e-01,-4.426357896872075148e-01,-3.427891591550110695e-01,-1.196293540654777641e-03,2.815236464878169854e-03,-7.250358414563817452e-03,1.302300840616226196e-01
-2.955819693961382333e-01,-4.219631285373720564e-01,-3.640111817670574346e-01,-5.749479316624310152e-03,1.899036860800007226e-03,-1.755791889988443655e-02,1.141990423202514648e-01
-2.965078769285699467e-01,-4.573585137038332360e-01,-5.240563930457747821e-01,7.776524736806164628e-02,1.666284481629147886e-03,2.091258147243307483e-02,2.459930330514907837e-01
-2.591057970275559286e-01,-3.897594329567826144e-01,-2.250449718763070928e-01,3.122550852664502871e-02,-7.474662740897922153e-02,-8.672498613546529567e-02,2.548148930072784424e-01
-3.509248335418123088e-01,-5.666069430826633502e-01,-2.531417116322784988e-01,4.892495527427814794e-02,-1.749817111073111858e-02,-1.015660335430691591e-01,3.409059643745422363e-01
-3.148185221227904895e-01,-4.565165726429516457e-01,-3.528615063499477289e-01,1.762311823407946990e-03,3.304603686289402618e-03,2.546857278396665036e-02,1.346217393875122070e-01
-2.744745474014744224e-01,-4.535584472846485582e-01,-1.416139932299946558e-01,1.810475936402770403e-03,-2.396533679838412645e-02,4.072574669213052667e-02,2.832397520542144775e-01
-2.561256767113780919e-01,-1.397137087694316770e-01,-4.291381442972752591e-01,-6.604860225717658351e-02,-1.158887142413462384e-02,2.150264898461426780e-02,2.801839411258697510e-01
-2.763598392227318845e-01,-4.682710037282421522e-01,-4.643304014741237440e-01,2.557590799782824813e-03,9.795281524378293692e-03,1.716765709876795238e-03,1.908022165298461914e-01
-3.218909193606717678e-01,-4.764982957140004305e-01,-3.919589743390610170e-01,-1.493173444906230329e-03,2.494637113030122658e-03,-1.794652659066448691e-02,1.377371698617935181e-01
-3.062253593654363781e-01,-4.642757854741458301e-01,-3.880916920868198172e-01,7.823865011681747092e-04,2.222101397414239302e-03,-5.742096050504986830e-03,1.373265832662582397e-01
-2.321379224939794095e-01,-3.775297131095983749e-01,-2.077324770621734040e-01,4.837742650471029554e-02,8.398440847396590470e-02,1.053370270751225052e-01,2.945363819599151611e-01
-4.552959019143681951e-01,-7.964681981934660371e-01,-5.137898246584355899e-01,5.518559838921389266e-02,1.439255840195351188e-01,7.235345971115916819e-02,4.322600066661834717e-01
-2.120185678715706401e-01,-4.399908885286245019e-01,-3.235727353961635466e-01,3.248207577881483815e-02,1.068868959879518410e-01,5.855767960402107758e-02,2.944675385951995850e-01
-3.030399154569327624e-01,-4.555331020652458873e-01,-4.256350636508446361e-01,2.077904987601446318e-02,3.401178378397248792e-02,2.991285384902787892e-02,1.644349843263626099e-01
-2.861555275705784385e-01,-4.646454014540189470e-01,-4.181126658576642119e-01,2.235583410493438257e-04,4.081323730059703211e-03,-1.021572197785610044e-03,1.605352312326431274e-01
-3.094805997557662502e-01,-4.522750921700923188e-01,-3.538486729843272616e-01,3.418775570010258811e-03,1.251895998077522370e-03,1.251004240722248910e-02,1.285789459943771362e-01
-3.364522126287546322e-01,-5.049729428620177707e-01,-2.284019750541879945e-01,1.100054690218483719e-02,-4.839275180147322060e-03,-3.662737545460790362e-02,2.504810988903045654e-01
-3.062060853795584014e-01,-4.316953984376127873e-01,-2.598591354036036138e-01,4.923022390458202391e-02,-6.615453672640830840e-02,-9.603569433635972263e-02,2.679185271263122559e-01
-2.899879884772947891e-01,-3.618073121862751540e-01,-2.639720786652308693e-01,-2.003623508016224783e-02,2.378306156464109547e-02,-1.451962876313862005e-01,2.717543542385101318e-01
-2.686267224458523950e-01,-4.061190543779184536e-01,-3.048518451402938978e-01,1.300770434727807970e-02,-2.942864331194021063e-02,-3.687377310093811061e-02,1.497347205877304077e-01
-3.311878065863672616e-01,-3.290766667432696302e-01,-5.030192587631177048e-01,-6.409494637573210328e-03,1.198782594575142739e-02,-1.926646354540752573e-02,1.776547878980636597e-01
-2.809555994960279413e-01,-4.206402604215490615e-01,-2.671279463382111308e-01,-2.423731180357815203e-03,-1.490310795436478909e-02,-2.322429794442810655e-02,1.547144353389739990e-01
-3.534751498205719877e-01,-4.509538175472857513e-01,-3.924755964244557305e-01,2.045174846539149147e-02,-5.347242313674591130e-02,-1.685215507388858058e-01,3.197697103023529053e-01
-3.948055071865625987e-01,-3.479348189700661731e-01,-7.968530631785540885e-01,1.053863974200018316e-01,2.202192730973340576e-02,1.669963332867338904e-02,4.672191739082336426e-01
-2.820832666912299058e-01,-4.700220329351969539e-01,-2.491089814101872246e-01,-2.431750657342233654e-02,7.882032954469166131e-02,-7.671967528673223624e-02,2.840336561203002930e-01
-2.958520033039405694e-01,-4.343429529463902483e-01,-4.431903129718028911e-01,-1.929313993916811215e-02,2.568406723799374763e-02,-1.766405537311666746e-02,1.565728038549423218e-01
-3.212231942503894766e-01,-4.233768013890664150e-01,-4.705830981237807409e-01,-1.610670929231965837e-02,1.571548236396946852e-02,-2.263496985558838964e-02,1.433259248733520508e-01
-2.777876417836309120e-01,-4.661884335740535956e-01,-4.638293593425594774e-01,-3.436426238852703045e-03,-3.851331699351106044e-03,-2.349332945840049982e-04,1.874461621046066284e-01
-2.717965927204957777e-01,-4.571320863598805628e-01,-4.547384306607052395e-01,-2.163623387759461194e-03,-2.530519099233403783e-03,5.685749834760208445e-05,1.842406243085861206e-01
-2.980434902215491344e-01,-4.715805732592754929e-01,-4.700922537649164235e-01,-2.280500091195897814e-04,-1.287085978155935034e-03,1.010505433836750896e-03,1.728214174509048462e-01
-2.719799266820593919e-01,-4.535096534010505387e-01,-4.530281742549472357e-01,-2.148187944574784028e-03,-2.183581717550623930e-03,-7.283892654669702057e-04,1.813714653253555298e-01
-2.733130252054712384e-01,-4.612964867401097013e-01,-4.574763394083876666e-01,-2.561907929268219652e-03,-2.295600890809539486e-03,9.038321675325976332e-04,1.862047314643859863e-01
-2.921130478105204986e-01,-4.658357500580228017e-01,-4.009044238091892254e-01,-4.227334941428391966e-03,-1.559180754227798386e-02,5.373015329125613131e-03,1.548713743686676025e-01
-2.290962107970625217e-01,-5.022996247352060628e-01,-5.336228240522226107e-01,4.212736409564756673e-02,-4.692992731886827529e-02,-1.740777134310847116e-02,3.114792704582214355e-01
-2.737202824134032930e-01,-4.658837904492795223e-01,-4.537090336791800849e-01,2.189358255053651999e-03,-5.904816325326629582e-03,1.300278564775344311e-03,1.867071092128753662e-01
-2.869696941403623858e-01,-4.557210510147275406e-01,-3.954078329018790861e-01,-3.137286203038356942e-03,-1.556065654441829947e-02,5.138473335126384281e-03,1.509036421775817871e-01
-2.626352753878718471e-01,-4.571298921138085558e-01,-4.475599583679216731e-01,1.778549376597940088e-02,-2.579188641475511218e-02,-1.072583363306314069e-02,1.983638256788253784e-01
-2.745579817095885611e-01,-4.298125059366016965e-01,-4.396482257377256619e-01,-6.999219038947694128e-03,-7.232121275806095186e-03,2.114806931025671813e-03,1.613847762346267700e-01
-3.000526092274345968e-01,-3.678695920179603784e-01,-4.189913349261389364e-01,-9.296864462892397152e-02,7.650480092394282283e-02,-8.014591580667970727e-02,2.709945738315582275e-01
-2.819811012153833341e-01,-4.176441579528000769e-01,-4.578695095199432630e-01,-2.533111200685109372e-03,7.177066317185328741e-04,-6.609264663288453787e-04,1.596926599740982056e-01
-2.461179304015830849e-01,-4.343255078631453880e-01,-2.806949643953277063e-01,-2.278443008910512046e-02,1.045630228641774712e-01,-4.904327130863540135e-02,2.677375674247741699e-01
-2.838479831718820345e-01,-4.428945641707945358e-01,-4.901943995873117021e-01,-3.191249527805486291e-02,1.117695972705393288e-02,-6.838107670185667765e-03,1.965356022119522095e-01
-2.452724000457746356e-01,-3.136084603915360591e-01,-3.553698204121305548e-01,-7.340159067342459653e-02,5.853912331391233209e-02,-9.435886975738734528e-02,2.498445361852645874e-01
-2.740505223804070578e-01,-3.922881672290301491e-01,-4.390019910246201196e-01,-3.480008371853657301e-02,2.594650729075646464e-02,-2.790483157827981786e-02,1.722628623247146606e-01
-2.641292712107159990e-01,-3.324861160508054692e-01,-4.361754167884038802e-01,-4.980026148180029255e-02,2.406790184579686229e-02,-4.180190412339734179e-02,1.921774893999099731e-01
-2.840929430795705035e-01,-4.652780711723159546e-01,-5.226813897262420072e-01,-7.549470763106845561e-02,2.181171968816788403e-02,-2.702977373397839889e-02,2.593091726303100586e-01
-2.673250933992195044e-01,-4.390049606239571633e-01,-4.475564195620370112e-01,-5.952633196176414232e-03,-6.961742529254273150e-03,2.975490194236450614e-03,1.768996268510818481e-01
-2.848865755587471349e-01,-4.406177091564340564e-01,-4.138681586006555113e-01,1.029652489184085251e-02,7.135064437239337608e-03,3.146786821939953540e-03,1.459536850452423096e-01
-2.839791730180752927e-01,-4.408543282005780162e-01,-4.219543313777675553e-01,1.321499742595642034e-02,2.161573708407433375e-02,1.732500718340226550e-02,1.575696021318435669e-01
-3.141554782089520104e-01,-3.692654406478327322e-01,-5.020173159129676099e-01,-3.266493544236349911e-02,-1.049396604894073728e-02,1.400304333374741139e-02,1.791528314352035522e-01
-2.957122159661230709e-01,-3.577018009645085428e-01,-3.496766912477585754e-01,8.769250279647000657e-02,8.358519333328907897e-02,1.296622347080657878e-01,3.128512501716613770e-01
-3.195515661814838371e-01,-4.265124571492465155e-01,-4.328642269228507033e-01,-1.382760626152146647e-03,7.040889003412109399e-04,2.505127854491485603e-02,1.185339242219924927e-01
-3.154882043741208397e-01,-4.371434546432208523e-01,-4.100229818214088939e-01,2.523290886637553389e-03,4.730725076880352639e-03,1.209335753981767049e-02,1.129653081297874451e-01
-2.926179452206798537e-01,-4.464264673855357080e-01,-3.407998473608233048e-01,3.174486544887771683e-02,7.147963437844205570e-02,4.216275098645764358e-02,2.055531293153762817e-01
-3.027331761315885106e-01,-5.032009010808315974e-01,-4.362006059677226988e-01,3.807926240421310310e-02,4.913042153433332809e-02,4.004011552225769655e-02,2.182797938585281372e-01
-3.463586638396163320e-01,-5.245429907747678477e-01,-3.836449366938693428e-01,7.213618765018849077e-02,6.432561426372608582e-02,1.773507896466057498e-01,3.858500123023986816e-01
-2.842822200406326383e-01,-4.709268829711785731e-01,-4.223173281933016998e-01,9.425554026488961248e-03,-3.431330179512469269e-02,-6.862570190540405630e-03,1.790709942579269409e-01
-2.666089622436644269e-01,-4.253389665737125069e-01,-2.950030834345174768e-01,-7.229925842460907526e-02,-1.051634070371674640e-01,1.026486564662255491e-01,3.193184137344360352e-01
-2.927301180005790204e-01,-4.744753393441261125e-01,-4.303150608121520393e-01,7.304441632873838464e-03,-4.064921332733186475e-03,-1.008065633866547187e-03,1.648278534412384033e-01
-2.700040678917651205e-01,-4.604840025490161137e-01,-4.575510965350547687e-01,4.027834812123524456e-04,-1.690287516724258603e-03,-1.797116728900568399e-04,1.890547573566436768e-01
-3.465040800290707934e-01,-5.762124536268740105e-01,-2.521681353477890353e-01,3.146193705270557833e-02,-9.429603997054063214e-02,1.276055555735159178e-02,3.368504941463470459e-01
-2.692098761861279610e-01,-4.549479734219290528e-01,-2.048362231773197539e-01,-6.076483729575863843e-03,-8.182351275223832821e-02,2.350567578726240475e-02,2.691706418991088867e-01
-3.261245082176377208e-01,-3.624928017825741478e-01,-4.765414393862552611e-01,-1.429458601366692325e-02,3.827675703814710940e-03,-4.641693899816168312e-03,1.385607868432998657e-01
-3.191407371290237438e-01,-5.382574225757550401e-01,-3.863927809865124186e-01,-1.071130205892127513e-01,-6.985477505212954463e-02,1.427551312484681978e-01,3.847007453441619873e-01
-2.095323019388153352e-01,-5.730282862318030190e-01,-3.208780939900878759e-01,-7.042217163494288168e-02,-1.720292104044922610e-01,5.638614124684260265e-02,4.661026298999786377e-01
-2.888816783636689034e-01,-4.236520397070591137e-01,-4.345203125005220879e-01,1.084017176693872478e-03,8.157645346126167485e-03,2.082235359567040627e-03,1.412871778011322021e-01
-3.049693355592620336e-01,-4.205263548268320939e-01,-4.236100897483042749e-01,3.663686483613996705e-03,3.714236305693879164e-03,6.610419623223289139e-03,1.180340126156806946e-01
-2.978110180736744939e-01,-4.209195435882012726e-01,-3.524374490706845831e-01,-3.560823394994191721e-03,-3.870271263357701746e-03,2.011000669485835807e-02,1.127430200576782227e-01
-2.981561782649881365e-01,-4.352047554793875284e-01,-4.333376743969484246e-01,2.793957851315577445e-02,3.069059346874496857e-02,2.350487648945885633e-02,1.592323929071426392e-01
-3.051645665665463913e-01,-4.115909238436349926e-01,-4.188271435782432439e-01,-9.357524651879228859e-04,1.382261398880853774e-03,-5.759801543540396009e-03,1.107110753655433655e-01
-3.080091609821595244e-01,-4.208221383567358753e-01,-4.118186802201779240e-01,2.305707094770298535e-03,-1.115204686377097368e-03,-5.666832996421473229e-03,1.091244369745254517e-01
-3.073357371553098183e-01,-4.213801872347227029e-01,-4.200474243056123713e-01,1.509111999678142396e-03,-3.743457495167014652e-04,-1.718786316804065328e-03,1.134549900889396667e-01
-3.060564451576519573e-01,-4.118003200758580951e-01,-4.178368203115634949e-01,4.952853197426811561e-04,-1.125979915190546219e-03,-5.706026309577187129e-03,1.093560457229614258e-01
-3.049395859409936849e-01,-4.245342901058767882e-01,-4.255890450968032312e-01,1.313235242892524940e-03,-2.019501987116744616e-03,-9.515597189725907065e-04,1.202092915773391724e-01
-3.009504894381711537e-01,-4.346959579565796150e-01,-3.616778041583186831e-01,-3.668631174888170240e-03,7.616035040237977179e-03,-2.499868644146701485e-02,1.246709451079368591e-01
-3.125723981941666563e-01,-4.314383081124933406e-01,-4.097567510287567494e-01,-3.873310753609365050e-03,9.608324199938522020e-04,-4.350914186212341550e-03,1.101206839084625244e-01
-3.076211357820822223e-01,-4.262887684516412645e-01,-4.220384940067723467e-01,6.251202225392421931e-04,-2.158324871261402364e-04,-2.059921737197994204e-03,1.166608035564422607e-01
-3.029628448203389723e-01,-3.869701430147559629e-01,-4.653496153823328263e-01,-2.589921777272344381e-03,3.579739268638360006e-03,-5.417403679480747164e-03,1.411794126033782959e-01
-3.025942865578575836e-01,-3.875497952511909316e-01,-4.164434864294507821e-01,3.654678291696967867e-04,-3.688425672153566263e-03,-1.026662559819687889e-02,1.042323708534240723e-01
-3.372242266391912713e-01,-5.216990239575274302e-01,-4.910052222625287399e-01,-4.459439294738097581e-02,5.190097883997846218e-02,-5.065969038682458653e-02,2.259583026170730591e-01
-3.239924300445008454e-01,-4.814195793771960941e-01,-5.088693774702683914e-01,-5.323280972216219709e-02,3.433538940237946396e-02,-4.360396252940584860e-02,2.181742638349533081e-01
-3.372042594716119779e-01,-4.017539004710601325e-01,-4.567653349663733375e-01,-1.694066199777133569e-03,-1.320445769170317451e-03,-2.889212365624918913e-02,1.151607036590576172e-01
-2.929914545681107652e-01,-4.155382490723520394e-01,-4.440549131031570340e-01,-8.936318305330778408e-03,8.709713108573402876e-03,-3.117224901102585381e-03,1.407900750637054443e-01
-2.797767408701769543e-01,-4.446823348302466061e-01,-4.624894642541061418e-01,1.012219556944432726e-02,1.490160243092400515e-03,3.056228406676300517e-03,1.754693835973739624e-01
-2.787208277557751135e-01,-4.643178526046951582e-01,-4.660806395199763585e-01,2.835741482080260389e-03,-1.473116949495490487e-03,-1.655699322230523357e-03,1.865888237953186035e-01
-1.835216690805527295e-01,-3.253914781224338526e-01,-3.915437257451469533e-01,9.553611475712860124e-02,-5.866697056549257522e-02,-6.555824087880327000e-02,2.906694114208221436e-01
-2.683203195023926568e-01,-4.498532016011092538e-01,-4.407614741170931549e-01,5.679261072250734593e-03,6.234240082361093040e-03,1.516426012498351501e-03,1.777826100587844849e-01
-3.123041595702829576e-01,-5.068509578759534673e-01,-4.046054606869488035e-01,1.091977436677535468e-01,8.787961511510108958e-02,1.157016945121082385e-01,3.570891022682189941e-01
-2.936941894421423171e-01,-4.388732961164140134e-01,-4.287512795868442250e-01,2.128855542113115146e-02,1.695912596093025401e-02,2.247038959964271776e-02,1.531245261430740356e-01
-2.665812113607937128e-01,-4.466615453543099079e-01,-4.471031170341430716e-01,2.116929085729607040e-03,2.321272924386214367e-03,1.159951646102888633e-03,1.803947985172271729e-01
-3.303383161589505956e-01,-4.684223123818253010e-01,-4.405168800893256575e-01,1.708057264959202820e-02,1.942659816210649468e-02,3.398613455584777177e-02,1.465100646018981934e-01
-2.906661984143631972e-01,-4.283523603054230633e-01,-4.213571746641934235e-01,5.908841383164736664e-03,7.493524065565113773e-03,6.972656879155996953e-03,1.358761489391326904e-01
-3.088056371237061781e-01,-3.454195686197326642e-01,-4.389571971581446852e-01,2.703915639024873779e-02,3.163768018709933738e-02,5.752353831617073449e-02,1.692267656326293945e-01
-2.744362466429390857e-01,-4.641223724455248445e-01,-5.913222313547707998e-01,-1.027326427037874162e-01,-9.844637808514571098e-02,7.964326104131458361e-02,3.950378298759460449e-01
-2.710326423482576907e-01,-4.594394883396981655e-01,-3.723136069940609083e-01,-3.268070260529071930e-02,-4.565750379919270019e-02,4.599977868483148130e-02,2.061038464307785034e-01
-3.161509592131379609e-01,-6.318376072070789329e-01,-5.581591927434850220e-01,-1.808779557494843288e-02,-1.385486510627212675e-01,6.247435804802443232e-02,3.900065422058105469e-01
-3.052115119074225724e-01,-4.226500191543374196e-01,-3.587429519200749928e-01,-5.297446827114927689e-03,-8.203162820845738556e-03,3.727930107021672906e-02,1.217623427510261536e-01
-3.178635332230922983e-01,-3.403559973021062501e-01,-4.637719185883784623e-01,-8.021648560797499730e-03,3.030872921332294738e-03,-9.910269608311015471e-03,1.379440724849700928e-01
-2.847236515921796052e-01,-4.936604832223023265e-01,-4.869743084720691284e-01,2.545568418684856973e-04,-1.075264151044562529e-02,1.144417880339472304e-04,2.065173238515853882e-01
-2.930691947189649760e-01,-4.395392209263461747e-01,-4.417344040389585835e-01,-5.086768140794961819e-03,-3.746237090823464986e-03,1.430572317136379404e-03,1.480056941509246826e-01
-2.805177093641422759e-01,-4.514780337674895172e-01,-4.570405338611991386e-01,-5.617635246047220088e-02,-6.060294948655847724e-02,4.898946664953235386e-02,2.406132668256759644e-01
-2.689923605617298152e-01,-4.517093108337724705e-01,-4.523077448813032087e-01,-2.043926820810071984e-03,-2.318708432181859798e-03,1.139585775705517865e-03,1.831058263778686523e-01
-2.870143647289229438e-01,-4.761669485559925086e-01,-4.851152372289217474e-01,-3.689738264262235057e-02,-1.073357817191185164e-02,9.752912178275459365e-03,2.055884301662445068e-01
-3.254493779331076864e-01,-5.673613281712929224e-01,-5.851836019633792629e-01,-1.246550734059109246e-02,-4.378131287924768612e-03,-1.436841566387314553e-03,2.523495852947235107e-01
-2.735875619969270200e-01,-4.562390841175845146e-01,-4.592267586768546961e-01,-3.054730575275546242e-03,-3.694265591228680992e-03,1.509164911210466361e-03,1.843691319227218628e-01
-2.742666730530183283e-01,-4.554591059019219568e-01,-4.575629698564904202e-01,-7.326731047307090926e-03,-6.372218989880194112e-03,1.633912648072012022e-03,1.830497086048126221e-01
-3.169186159010813908e-01,-3.476922284444121658e-01,-4.615064712551630866e-01,-1.653020258990604407e-03,5.802974934225737375e-03,-3.804615944713909872e-03,1.324983686208724976e-01
-2.706104189551914452e-01,-4.570691496156701894e-01,-4.513821314746706559e-01,1.677643710472855390e-03,-9.269858100622856376e-06,4.087446753214392338e-04,1.837056130170822144e-01
-2.729422882197830025e-01,-4.644212210841711652e-01,-4.582558965939353968e-01,2.342549510839574828e-03,-1.261796376739460039e-02,-8.159253320798229552e-04,1.897834539413452148e-01
-2.711031756444131080e-01,-4.554009860852160640e-01,-4.526982876903861142e-01,1.196422895447949450e-03,-5.310546163173894725e-04,1.298231135804433839e-04,1.829756200313568115e-01
-2.692243934115237658e-01,-4.588950589122041124e-01,-4.517170744041121844e-01,1.582471833663213123e-03,5.142435443795704636e-05,3.481660012592802372e-04,1.862066537141799927e-01
-3.008587335557446618e-01,-4.345569536646178843e-01,-4.483889130921646649e-01,4.610548719806087381e-02,-3.334665143626538292e-02,-7.471549724250439728e-02,2.153513580560684204e-01
-3.050364799485170697e-01,-4.285747931946735090e-01,-4.031776491226532477e-01,-6.462951835141709893e-03,-1.705855920137255713e-03,6.821749845258080758e-03,1.142053306102752686e-01
-2.843398894492084050e-01,-4.413668311070855776e-01,-4.288326656859826058e-01,-7.193575464931744809e-03,-1.413462365695015164e-03,2.395355675435235140e-03,1.517392992973327637e-01
-2.803161154025493595e-01,-4.579729829431154475e-01,-4.368213360469719309e-01,-8.752857181530267552e-03,-1.183805179439359478e-02,8.490338804806112864e-04,1.700118780136108398e-01
-2.926703564428249082e-01,-4.222442482902418193e-01,-3.969800327020993058e-01,-7.800343513592202134e-03,-3.103588281093643594e-03,7.413752443393432229e-03,1.205421760678291321e-01
-2.998477609992883375e-01,-4.222901400407148564e-01,-4.411645101746141662e-01,-1.237991550916867772e-02,-7.086495585454384571e-03,1.445277718251651231e-02,1.374645084142684937e-01
-2.857612648527130261e-01,-4.242160201359054805e-01,-4.321472999778418478e-01,-1.410643424694258546e-03,-6.662058650512470495e-03,1.336387006478380844e-03,1.430916637182235718e-01
-3.118716695105121506e-01,-5.785183172103263161e-01,-5.329375720583151566e-01,5.652419711046275351e-03,1.466776928883400111e-01,-5.661809339610351932e-02,3.678040206432342529e-01
-3.268414156835931506e-01,-4.970076312738695434e-01,-4.816499026479796886e-01,-4.220395681956319589e-02,5.082635488922045142e-02,-5.270912092014103795e-02,2.191056013107299805e-01
-2.857847265973768036e-01,-4.605227430518797349e-01,-4.511548534592475512e-01,-5.969954888689403723e-03,8.130568542800076931e-03,-2.861756215237518802e-03,1.712133586406707764e-01
-3.085859085974952953e-01,-5.422086236321794761e-01,-4.499350934610449881e-01,-2.439255879110633230e-03,7.315914175801370434e-02,-1.465246797508234274e-03,2.400372028350830078e-01
-3.060395701923268597e-01,-4.827180094853191772e-01,-4.346793130233032598e-01,-1.377971940676388403e-02,2.132886733247334535e-02,-8.465949915367117565e-03,1.648787558078765869e-01
-2.918845378943076274e-01,-4.537673465064343548e-01,-4.123272590670639670e-01,-1.129055104459381585e-02,1.423092887712890109e-02,-7.665716251390891980e-03,1.496033519506454468e-01
-2.976556231437195721e-01,-4.449184414524154363e-01,-4.169173168255426165e-01,-1.159034139521992329e-02,1.256468881192208259e-02,-2.761053384275258173e-03,1.387312859296798706e-01
-2.707637520429685973e-01,-4.517424435979419117e-01,-4.260066090272689454e-01,1.692990024002419529e-03,7.587087394985547913e-03,4.722865201221519834e-04,1.701174378395080566e-01
-2.776496503805462313e-01,-4.666740855815615374e-01,-4.634735298882307619e-01,5.705271733178596434e-03,1.019837130631087545e-02,-1.039908912526161817e-03,1.885428726673126221e-01
-2.649590335972863420e-01,-4.609493254762100922e-01,-4.510828594755281751e-01,2.704112275397727375e-02,2.402761436069180898e-02,4.237442823211522505e-03,2.013835161924362183e-01
-2.874643055559211180e-01,-4.693506760902566022e-01,-4.678219742238851619e-01,-4.207579408364119891e-04,-2.707180168358620451e-03,1.452789000829381822e-03,1.812064796686172485e-01
-2.730263104089796222e-01,-4.576041631451006064e-01,-4.456207899597811606e-01,2.292080036281440684e-03,4.436960785848245194e-03,-6.977427991982472965e-04,1.791005283594131470e-01
-2.816501120949318482e-01,-4.448064815253824356e-01,-4.210526778855690488e-01,9.263436952274804043e-03,2.317934052767249131e-03,5.189875158998063891e-03,1.538278758525848389e-01
-2.888743595552651366e-01,-4.539478557454136309e-01,-4.024914618573795511e-01,9.899262932199743431e-03,1.089119515491366631e-02,3.093903117842552834e-03,1.485984176397323608e-01
-2.945202406633457004e-01,-4.759589458423170161e-01,-4.744952519637892774e-01,1.512062538641810840e-03,-3.619999397479659042e-03,-5.651239961583370830e-04,1.808416545391082764e-01
-2.760861807559386039e-01,-4.662713190204563207e-01,-4.624275412881088676e-01,-2.569483174525345574e-03,-1.113035009374684428e-02,1.790474451178929248e-04,1.893295794725418091e-01
-2.781958627431895259e-01,-4.676167533635834928e-01,-4.651841034916413542e-01,-1.764706206632740649e-03,-3.129410490677913669e-03,-9.399853488535053888e-04,1.883262395858764648e-01
-2.718408412214495251e-01,-4.723074165274849801e-01,-4.631353972108663841e-01,3.890585580315727987e-03,-1.584631930618470713e-02,-2.015938800871689383e-03,1.980989873409271240e-01
-2.447335471282253150e-01,-5.496024923221962677e-01,-4.419704554808572827e-01,2.359388873100127376e-02,-1.117975644004677166e-01,3.297640897495151668e-03,3.330387175083160400e-01
-2.769464247935845558e-01,-4.628746367391270988e-01,-4.625770385483797265e-01,-3.693623112114363845e-03,-9.438220679948712121e-04,1.357307172882217961e-03,1.859117597341537476e-01
-2.773631050097419282e-01,-4.669279516172697986e-01,-4.630936292570559387e-01,-1.313459561865511910e-03,-1.129946682057400564e-02,7.057429084131623806e-04,1.887124329805374146e-01
-1.820733922948541417e-01,-4.910221034197673751e-01,-4.904645981852658876e-01,8.200549123917129715e-03,1.315336784177711547e-03,1.569525822294839967e-04,3.090054690837860107e-01
-2.718293440707808539e-01,-4.556182272168584069e-01,-4.545179055809097646e-01,-1.559230856534793170e-03,-2.200940550461594029e-03,6.410717622528825602e-05,1.833007782697677612e-01
-2.976321722870177711e-01,-5.179536746871935549e-01,-1.110612044168016732e-01,-3.947936713418035565e-02,-9.731755325156750402e-02,3.617103818601617726e-02,4.018319249153137207e-01
-2.868205354962041764e-01,-4.761679971929386745e-01,-4.809677541252636024e-01,-1.609188996170458083e-03,-4.992999160014255887e-03,1.926640014761415911e-03,1.920364946126937866e-01
-2.087420185575568077e-01,-2.110984212445523311e-01,-2.034013458793818285e-01,3.503000361183439271e-02,3.559887537741728697e-02,1.482101498241075455e-01,2.709770202636718750e-01
-3.529944733717389482e-01,-4.830173076742043659e-01,-4.910591553860260139e-01,4.279586116974606197e-02,5.255498806014493457e-02,6.353590298608501052e-02,2.095404565334320068e-01
-2.898981692677937705e-01,-4.013520319019526772e-01,-3.620288254451353716e-01,4.703739268638709552e-03,6.190521172626572803e-03,2.597201133114008728e-02,1.085842251777648926e-01
-2.969511320327388737e-01,-4.022348881931397946e-01,-2.371336969169844933e-01,3.718314396147859302e-02,7.430752626683062578e-02,1.109346129715321205e-01,2.803438007831573486e-01
-2.847500239191743665e-01,-4.692582620323937914e-01,-4.761668893715827466e-01,8.289637957688810940e-03,-2.567952999414815311e-03,-8.915372549300337388e-03,1.892884224653244019e-01
-2.695093847271911036e-01,-4.513873916175261125e-01,-4.542107758228088321e-01,-1.944667217287969919e-03,2.129759202760651750e-03,7.967129073135099796e-05,1.833741068840026855e-01
-2.661491906971000798e-01,-4.378805784920860589e-01,-4.519783685108569316e-01,-2.807303279452737915e-02,3.071789462112911942e-02,-2.069287183119248447e-02,1.964461505413055420e-01
-2.709966584631985920e-01,-4.597290911188979812e-01,-4.521795776003892375e-01,-2.307336213651958973e-04,4.202708451400316743e-03,-3.386738088843279959e-05,1.852167397737503052e-01
-2.809008506371378777e-01,-4.647815560894137943e-01,-4.765006932605842516e-01,-2.524647146277252813e-02,1.835324329556399514e-02,-2.731647592881793381e-03,1.976093053817749023e-01
-2.656678398689822918e-01,-4.621251568755240791e-01,-4.495340282716367430e-01,-1.209505416424364217e-02,-2.856024555952027186e-02,6.351022965640753561e-03,1.982103288173675537e-01
-3.554165913164312740e-01,-5.428589691173472120e-01,-3.636620884837707957e-01,-1.086648125419191653e-02,-4.573695107364150747e-02,4.918847936068771604e-02,2.180491834878921509e-01
-2.509752139871650467e-01,-4.423819532143802302e-01,-4.071331314358443421e-01,-2.120619963641419414e-02,-3.472099775649451631e-02,1.377027619587269276e-02,1.914856880903244019e-01
-2.751120725614121243e-01,-4.440170997296549182e-01,-4.480874407646250335e-01,2.878710495077627367e-03,3.616449622057127476e-03,1.169704211953283843e-03,1.711758673191070557e-01
-2.627085357238069241e-01,-4.694781546904403524e-01,-4.646376303402646180e-01,-2.438989079715609548e-02,3.910612273998714805e-02,-8.565479770179011687e-03,2.199290841817855835e-01
-2.861523135047902011e-01,-4.688930336009289879e-01,-4.725100661892455145e-01,-2.550545870428749026e-03,-9.513522092972665108e-04,1.351695031748949153e-03,1.846508681774139404e-01
-2.853339936257224818e-01,-4.410381415917910553e-01,-4.736636636464096606e-01,-1.244495371352972307e-02,-7.515010586670464135e-05,-2.798279812540217380e-04,1.756502687931060791e-01
-3.110280724900379434e-01,-4.291002628623329929e-01,-4.870711887433681331e-01,-1.296784967675194133e-01,-5.846815149573373477e-02,4.926458408901832758e-02,3.035334050655364990e-01
-2.708892058485491972e-01,-4.695428792657733719e-01,-4.645172789121794210e-01,1.502479003987774488e-02,-1.533921643292173419e-02,-2.324923171440352373e-03,1.997235864400863647e-01
-2.915011837555910312e-01,-4.684187907634158599e-01,-4.679977554860568767e-01,-9.277011206017287586e-04,2.496824517992304350e-03,-4.959805221038794763e-04,1.767697632312774658e-01
-3.532854497223928414e-01,-4.406455042095499541e-01,-6.777340790523334046e-01,-1.852386184428090887e-01,-6.569939200565139137e-02,9.456832716689070328e-02,4.767322242259979248e-01
-2.255340585416723831e-01,-5.018493118693607702e-01,-4.474222745297921633e-01,-3.143214309775480692e-02,-7.996452168981377229e-02,3.040704890560736590e-02,2.986537814140319824e-01
-2.815414778069202928e-01,-5.220751724937140459e-01,-4.989558435956217286e-01,-5.704137891136811661e-03,-5.412760435628723166e-02,-7.841630353479638396e-03,2.488000392913818359e-01
-2.288507457963156189e-01,-2.286389098544937826e-01,-2.965096384114563333e-01,4.948845888234580659e-02,-4.585509778041001877e-02,-1.173715267095171155e-01,2.440813779830932617e-01
-2.809349437408747985e-01,-4.441184737659604198e-01,-4.351498314281750379e-01,9.716571399213703997e-03,-8.215675232492654009e-03,-4.839503797594609490e-03,1.606292426586151123e-01
-3.464135014504084453e-01,-4.988110639797956880e-01,-4.674551280799145725e-01,1.018977473720769078e-01,-6.884055550170307958e-02,-1.310669556822468829e-01,3.410744965076446533e-01
-3.538474526902629091e-01,-4.077160413382253101e-01,-3.870575827826426840e-01,3.011753115431888353e-02,-6.520844254007850116e-02,-1.537348059145597357e-01,2.976517081260681152e-01
-3.106984403795000627e-01,-4.171510120919822429e-01,-4.541611066616310088e-01,1.176537189143478206e-02,-1.083248268677495726e-02,-1.927216093207456335e-02,1.361002027988433838e-01
-2.690861151842651733e-01,-3.842388784506233779e-01,-4.415968525551001167e-01,1.796606366698671672e-02,-1.230074302547663929e-02,-8.082219085448863125e-03,1.573952138423919678e-01
-3.131904125461739685e-01,-5.633141368469902766e-01,-5.344665505743695366e-01,1.669641006784074524e-02,-4.489258509854621160e-02,-1.689425787782077460e-03,2.511364221572875977e-01
-2.780044389788534076e-01,-4.484808997421077525e-01,-4.637348632135900317e-01,1.358325180946831981e-02,-9.594501377939162676e-03,-3.263274804178097847e-03,1.809888780117034912e-01
-3.277897183884570520e-01,-5.825505173030568473e-01,-5.453673684695141688e-01,2.230629197335782035e-02,-4.911713907370279797e-02,-1.524433241856524603e-02,2.573717236518859863e-01
-1.882151909114685717e-01,-4.388685993894044235e-01,-3.101302909126037455e-01,3.005993755234179221e-02,-1.059229302071315881e-01,-4.075885693378350494e-02,2.974653542041778564e-01
-3.139224974797830692e-01,-4.615908751262925991e-01,-3.428257098348814202e-01,-3.789232789182989808e-03,7.948866984800915473e-04,-2.083695024220680141e-03,1.357617378234863281e-01
-2.703632955363697854e-01,-4.549028887425522472e-01,-4.427958047263634844e-01,-4.903785046203165340e-03,-6.283828393412598488e-03,1.283688104484671626e-03,1.793397665023803711e-01
-2.827669291784755679e-01,-4.397708279469106363e-01,-4.103691317147190598e-01,-1.131404204304652626e-02,-1.046518372852264789e-02,5.103424359078583342e-03,1.472726017236709595e-01
-2.800812186200207776e-01,-4.767642237920630688e-01,-4.756044607959376558e-01,5.285001611244372066e-03,-1.085646644023002816e-02,-4.412786518355358233e-04,1.972191929817199707e-01
-3.081251266617742179e-01,-3.743697926472053239e-01,-4.001691325784814124e-01,-6.909296034142079455e-03,2.999867613977818702e-04,4.315165152857253911e-02,1.117707937955856323e-01
-2.754759722892921037e-01,-4.686758616299580571e-01,-4.738273106172705695e-01,2.717831230150775587e-03,-1.299224573639466522e-02,2.498971396769532165e-03,1.972188800573348999e-01
-3.075377467171433454e-01,-4.505127108501905120e-01,-3.359180903408946484e-01,-3.016205299565015256e-03,-4.940286264448745784e-04,1.852721088450191150e-02,1.350829452276229858e-01
-2.597036904452666439e-01,-1.821879414734904890e-01,-3.493463502674455379e-01,-2.571328929675131825e-02,-1.270514364712501017e-02,1.081927725182044719e-01,2.420289814472198486e-01
-2.949244670339099539e-01,-4.423537694510016327e-01,-3.424150867873056447e-01,-9.699104741837605292e-03,-1.938445415060497529e-02,2.176375893704373884e-02,1.407825350761413574e-01
-3.243688112286956526e-01,-4.656375280807406036e-01,-4.214919156827998670e-01,-1.054210432185854855e-02,-9.851706966855047418e-03,1.860345764894985252e-02,1.316515654325485229e-01
-2.771344850204883192e-01,-4.219432890653023183e-01,-4.662758684004884580e-01,2.727114819214939562e-02,-3.122229446054690816e-03,-1.035467529921119123e-02,1.787085980176925659e-01
-2.793615584868742729e-01,-4.731224183986385001e-01,-4.836691128151493491e-01,1.621684924629365060e-02,-5.554262496303117441e-03,-3.965749590040813267e-03,2.015607357025146484e-01
-2.822943949340019354e-01,-3.906077304363028690e-01,-4.546774713444626803e-01,1.386678430578747005e-02,-6.445884403528889806e-03,-1.673416710042585761e-03,1.532521843910217285e-01
-2.848708590447215361e-01,-4.692764716452801910e-01,-4.702907376263091299e-01,-7.118766444465806124e-05,1.586592731026708085e-03,1.418082052483390660e-03,1.849516034126281738e-01
-2.695584555047201292e-01,-4.172435162582552315e-01,-4.581333861829770537e-01,7.755101738248268428e-03,-3.385417998719441723e-03,-2.213005867067100070e-03,1.724853068590164185e-01
-2.592588397022003166e-01,-4.066014464285601093e-01,-4.401325102093781583e-01,2.395679818788272464e-02,7.549889796660164652e-03,5.456646301288253786e-03,1.725017130374908447e-01
-2.858762573319760802e-01,-4.907627654667073847e-01,-5.118754172629296217e-01,-1.771125418074204552e-02,1.152292430974180201e-02,6.851874797359601074e-03,2.196136713027954102e-01
-2.712180407319533804e-01,-4.630207343295155153e-01,-4.608189069208922795e-01,9.333324634916602414e-04,1.901884983029445905e-02,1.532647144938975364e-03,1.935603618621826172e-01
-2.692431102123441500e-01,-4.581662106773685128e-01,-4.388149490763172400e-01,5.424795337050908502e-03,8.507892173663400906e-03,3.137193023307665619e-03,1.809571087360382080e-01
-2.865517925901538421e-01,-4.991945550333691251e-01,-4.880675885985246709e-01,4.456233052247448971e-03,1.755059330282583360e-02,3.937946017017696608e-03,2.097733318805694580e-01
-2.801732058261359182e-01,-4.824494948504451375e-01,-4.263487657613033166e-01,8.637394204770179607e-03,2.344367478276739025e-02,8.476043563125666702e-03,1.865564286708831787e-01
-2.707883082803498875e-01,-4.617596764279566779e-01,-4.463294949808406242e-01,-4.447797521673489858e-03,5.516584734100135438e-03,-6.217474815168619415e-04,1.841554641723632812e-01
-2.711025669074721423e-01,-4.611624300755762795e-01,-4.579870449142434130e-01,1.390103598896057484e-03,2.024765105786827633e-03,4.110463956609040318e-04,1.885415762662887573e-01
-3.145037677400108200e-01,-3.654063907051350868e-01,-4.321397579014830126e-01,2.335223760018110065e-03,3.795896338328872723e-03,6.582518925325266113e-02,1.532963663339614868e-01
-2.716165588300665235e-01,-4.612179760327309030e-01,-4.561163471311435180e-01,-6.103516820004933766e-04,2.037702345724863411e-03,1.294493584224642210e-04,1.871391832828521729e-01
-2.704920608146308414e-01,-4.589110932853970315e-01,-4.552368069039642862e-01,-1.593408412801420584e-03,2.633811087825828432e-03,2.570396580274137300e-04,1.866857111454010010e-01
-2.711769747564206634e-01,-4.559501857653495693e-01,-4.478262213474898945e-01,-2.699997452902385287e-03,2.742496210742928400e-03,-4.124019508417758233e-04,1.809723526239395142e-01
-3.073268036155278882e-01,-5.345195535486758631e-01,-5.364371528560716307e-01,-1.163778084374913514e-02,1.292192305213853663e-02,3.561839149779655496e-03,2.302198708057403564e-01
-3.013998154348410674e-01,-4.177767254006438669e-01,-3.907705228145015308e-01,3.624193513346447328e-03,-1.330938485832667325e-03,-9.204568835740315272e-03,1.069060936570167542e-01
-3.123713489682842237e-01,-4.655568552116483572e-01,-4.193234250554706000e-01,6.757128639276490517e-03,-1.258130338063532562e-02,-3.983601757276605815e-03,1.384936422109603882e-01
-2.758610950210258483e-01,-4.503054266808401707e-01,-3.876942776803503632e-01,2.777340875873605518e-03,-1.739821922023697398e-02,-3.521089933773463316e-03,1.561961919069290161e-01
-3.007432881960172555e-01,-3.714180925230717301e-01,-4.502184035472778234e-01,-1.035556493785052927e-02,8.736307748477367338e-03,-7.854518413212243505e-03,1.323229968547821045e-01
-2.887080489634299973e-01,-3.772348574099275154e-01,-4.355217093818183893e-01,3.464980401364406437e-03,-1.067113926377112783e-02,-1.839913968700477437e-02,1.333698779344558716e-01
-3.286104884072749144e-01,-3.436602184571413421e-01,-4.247475228189596663e-01,-2.465441763363685618e-02,-1.517588782009631973e-02,5.327452566834629116e-02,1.380251944065093994e-01
-3.244614932515547112e-01,-4.404965616356908420e-01,-4.235866917598202219e-01,1.584664493226173830e-03,-3.130643846309944228e-03,-1.762860935632658971e-02,1.129477024078369141e-01
-3.947063749425157031e-01,-5.861261360502334483e-01,-3.418551589318803430e-01,-1.078257470702974168e-02,4.127459743758844085e-02,-1.766806157094013841e-01,3.855635225772857666e-01
-2.894533357610035162e-01,-4.365974232432986435e-01,-1.859746573673627945e-01,2.649883634569527146e-03,-8.197154182522146601e-03,-7.927751581407879722e-02,2.581916153430938721e-01
-3.494137528310223839e-01,-5.434774551953350796e-01,-3.933750663190422325e-01,1.251381401496509845e-02,-5.755281660699562013e-02,-4.168099875571886631e-02,2.160571813583374023e-01
-2.917398542511786541e-01,-4.379833047412622915e-01,-3.487522991607862055e-01,9.769469449207398085e-03,-2.120401073522136526e-02,-7.284865356334124277e-03,1.345148086547851562e-01
-2.770908916973944258e-01,-4.507558000133341514e-01,-1.347502744874941871e-01,-1.106409848505071451e-02,2.374056616538171641e-02,-4.911087740889372166e-02,2.905746698379516602e-01
-3.010981769704061395e-01,-5.027022877071350981e-01,-2.714967827590331062e-01,5.936921862400097727e-02,1.083795791608584969e-01,3.905169085064908591e-02,3.128511309623718262e-01
-3.184441951986255459e-01,-4.707554426835960371e-01,-3.714742091472726937e-01,-2.081139798337742347e-03,1.334115137869457644e-02,1.523400703113112712e-03,1.359696537256240845e-01
-2.656565270017991476e-01,-4.555817172917663305e-01,-4.336859683349002514e-01,2.554361723117219100e-03,1.007173081445432439e-02,1.217343135364879533e-03,1.808888763189315796e-01
-2.659794613641076610e-01,-4.592030744864833980e-01,-4.312838089926352425e-01,2.538113113429955360e-03,9.620260263818094376e-03,1.727929459782933199e-04,1.817065030336380005e-01
-3.004605813972724970e-01,-4.601944325442784978e-01,-3.900822176491828830e-01,4.109464796604464856e-03,4.766203773225725741e-03,5.169774241614664284e-03,1.393927037715911865e-01
-2.959809010280234909e-01,-4.444214140390304046e-01,-2.865094181650716387e-01,3.398455560345995177e-03,1.235213403391210996e-02,3.200794641761373072e-02,1.646090745925903320e-01
-2.889231198323455874e-01,-4.224935057743731681e-01,-3.041311356616887007e-01,1.232537725627480714e-02,-1.420391251663747322e-02,-4.388180459641857767e-02,1.512574851512908936e-01
-2.655280492064986397e-01,-3.116822935839650976e-01,-2.316013284549045814e-01,3.403148066636006719e-02,-4.458946551094395555e-02,-1.223071156085374506e-01,2.432350218296051025e-01
-1.898630218966197158e-01,-2.472206464661422798e-01,-2.452787637584267766e-01,-7.669864196787781752e-02,7.900130975374675124e-02,-1.475775132755478003e-01,3.238692879676818848e-01
-3.813336263322192887e-01,-5.292055259956005564e-01,-3.170069772525314633e-01,-4.971530007179694038e-02,9.648493936825439099e-02,-2.125842406897408832e-01,4.543513655662536621e-01
-2.837784249198339603e-01,-4.341431854625205644e-01,-4.104345434900947831e-01,9.901412644746591246e-03,-7.812185412172029282e-03,-2.438234087786368947e-03,1.417806595563888550e-01
-3.048895248759286858e-01,-4.310070355109358320e-01,-4.166139481599416827e-01,5.080585616318729000e-03,-2.357940814433497415e-03,-1.968183773402685296e-03,1.200137734413146973e-01
-2.910888002028139132e-01,-4.135650574881357677e-01,-3.891570314691876198e-01,5.309666055354614334e-03,-2.643763622122536575e-03,-8.620622326652841588e-03,1.137333437800407410e-01
-2.758871682777402357e-01,-4.637585061488757043e-01,-3.681080840516611219e-01,4.259520807503879708e-02,-8.944531882038903037e-02,-7.260910771675940789e-02,2.678346037864685059e-01
-2.743001702519806129e-01,-4.480884575457143582e-01,-4.524816685885966749e-01,2.495374463630762110e-03,-3.504748868205770970e-03,-1.218986489652391666e-05,1.761836856603622437e-01
-3.054342906891914788e-01,-4.254419053662287231e-01,-4.260928671295333148e-01,3.052389432439788809e-03,-3.539470161652925276e-03,-7.002453513454891948e-03,1.212147250771522522e-01
-2.592015128204140373e-01,-1.736516240008428025e-01,-3.750749003928594005e-01,-4.818393186038293780e-02,-2.067462873316107397e-02,9.105823118975232833e-02,2.525481879711151123e-01
-2.782369152852069427e-01,-4.335950053491078315e-01,-4.311110647647258820e-01,1.644429972349275085e-03,-3.253231002928372913e-03,-2.606220429236995578e-03,1.543264240026473999e-01
-2.927591054107383517e-01,-4.300028310876122806e-01,-4.335819779540022734e-01,1.533264576318119424e-03,-4.417109727701291379e-03,-1.976540534892034465e-03,1.393455117940902710e-01
-3.114612852089974626e-01,-4.359359677671294508e-01,-4.331199977071524820e-01,5.175805955004234016e-03,-5.107090568753584921e-03,-4.863819017970246079e-03,1.240199357271194458e-01
-2.781965705168477077e-01,-4.647632086855118527e-01,-4.449560847247721052e-01,-1.721790740843031785e-04,-1.576652712983339904e-03,1.854758280967947880e-03,1.775442212820053101e-01
-2.644886323464800126e-01,-4.508972011335248276e-01,-4.380896073997795348e-01,5.654834526731213409e-03,-1.106655946132376576e-02,-2.984522511533598335e-03,1.816997677087783813e-01
-2.846216442385439693e-01,-4.755844597491811765e-01,-4.381669952969249882e-01,5.699755166736601882e-03,-9.818990279049000583e-03,-2.579571963979768092e-03,1.764318048954010010e-01
-2.749846421185540013e-01,-4.595185848756812574e-01,-4.631741919819224451e-01,-8.799476595400952368e-04,1.309957124856205718e-03,1.657257637900614200e-04,1.864088922739028931e-01
-2.718533993447330710e-01,-4.543628406900376282e-01,-4.511026738285265902e-01,3.965111413182328091e-03,-5.198397450933616402e-03,-9.355350504743368753e-04,1.812627315521240234e-01
-2.705462206455316876e-01,-4.582108841651642006e-01,-4.434237224326048055e-01,4.678335730817640391e-03,-4.514189891562789790e-03,-1.050815588976211417e-03,1.810849606990814209e-01
-2.730914054124140566e-01,-4.597456289581713373e-01,-4.539667864280836906e-01,8.754090048651703938e-04,-1.113523031665564211e-04,3.652600854795697754e-04,1.838403791189193726e-01
-2.726667943772234093e-01,-4.617765064097002492e-01,-4.586819674144520520e-01,6.939026422866494690e-04,-1.393289789399524727e-03,8.087134779617432569e-05,1.876010149717330933e-01
-2.753346746214846985e-01,-4.523063936023838938e-01,-4.318791480777479097e-01,6.120593749026652895e-03,-5.586495112931642686e-03,-2.313094199971934758e-03,1.683546304702758789e-01
-2.725691781178786188e-01,-4.577328152274834361e-01,-4.488511883863182672e-01,2.716435265678744746e-03,-2.964678414882235009e-03,-3.211686745684460631e-04,1.810213178396224976e-01
-2.721411759011064246e-01,-4.574187297979892541e-01,-4.533023532788102994e-01,9.338941845471537091e-04,-2.618179463211862523e-04,5.491919222393595401e-05,1.832617670297622681e-01
-2.724916404475926646e-01,-4.560694704773490260e-01,-4.514934697806734509e-01,1.703161668332143662e-03,-1.753194857187073403e-04,9.453752797352398896e-04,1.813647747039794922e-01
-2.903917667150969217e-01,-4.454745584777509149e-01,-3.512237296252005980e-01,5.288874811913815525e-03,-3.485068782763301679e-03,-1.312628912719792339e-02,1.376751959323883057e-01
-2.496556291856706356e-01,-4.535394538982655543e-01,-4.126288050132229657e-01,7.997534617809077054e-03,-4.311034696116539805e-02,-1.471926426655462616e-03,2.016808390617370605e-01
-2.702452651168051334e-01,-5.201662668892180763e-01,-3.593180546989506730e-01,3.600232069525616946e-02,-8.786015835067313706e-02,-5.718505404698826650e-02,2.915311753749847412e-01
-2.821074718041227114e-01,-4.482196411298012828e-01,-3.981902693523827197e-01,-1.055686590042385041e-02,1.423619534225684970e-02,-3.641611744301290633e-03,1.508901566267013550e-01
-3.107865571914625313e-01,-4.494604101038821020e-01,-3.663136788058029558e-01,-2.619800439621832247e-03,1.297985152756177697e-03,-7.564905418459776619e-03,1.216999068856239319e-01
-2.774835003117561705e-01,-4.408002218665901251e-01,-3.898306863117071419e-01,-1.054813478078554627e-02,1.395475711259110477e-02,-6.162418239750414202e-03,1.482497453689575195e-01
-2.848623039028204129e-01,-4.405301875259448607e-01,-4.102707754773745608e-01,-1.084328696249440074e-02,8.046981245437451538e-03,-3.390346844799049103e-03,1.449799239635467529e-01
-3.058681532080131937e-01,-4.625595225300545010e-01,-3.624269448908464808e-01,4.864550916334015214e-03,1.600843170602669202e-02,3.999234437535143481e-03,1.406292617321014404e-01
-3.180274953075260536e-01,-4.435968926208126439e-01,-3.967720843858262847e-01,7.311638581771632900e-04,-5.994732679642444332e-04,-5.593304854977871818e-03,1.103494912385940552e-01
-3.060041328420509132e-01,-4.841883225218751030e-01,-4.391032018598727826e-01,-6.130675171689557897e-03,1.871990357405021316e-02,-9.132328783157820165e-03,1.648122519254684448e-01
-2.970445139977442306e-01,-4.308464317773412766e-01,-4.089415025661248260e-01,-6.424760914037943270e-03,2.479623852523012498e-03,-4.159858465321002868e-03,1.250841617584228516e-01
-2.974283971666502047e-01,-4.059200693903927126e-01,-3.876066933155459249e-01,-1.003780533121671065e-02,1.171292646253160527e-02,-2.702349489109692401e-02,1.141211315989494324e-01
-3.183278650414161914e-01,-2.259279443083380967e-01,-4.184371075502739123e-01,2.393543376023319139e-02,1.311769944352797479e-02,8.975249493974941928e-02,2.328329086303710938e-01
-2.750522379865575351e-01,-4.546052150570032979e-01,-4.614850983474869106e-01,2.928322076055376103e-03,3.538682839845065480e-03,5.931274301906361941e-04,1.832655370235443115e-01
-2.777651812977066648e-01,-4.474354864925307318e-01,-4.530926464531178643e-01,1.519148235952629943e-03,5.378651922231561001e-03,-3.775389208242538861e-04,1.728409975767135620e-01
-2.537447292345337835e-01,-5.072282712128508564e-01,-3.237085320404928246e-01,-2.593895851109128542e-02,-1.699935262287229354e-01,8.818723165544843645e-02,4.042981863021850586e-01
-2.807537784796429459e-01,-4.766329489890392401e-01,-4.657591918075271176e-01,1.934233586622340810e-03,-9.185044788358832923e-03,8.170781079394731682e-04,1.913720667362213135e-01
-2.581234079049651298e-01,-4.386512239327257090e-01,-4.500567409162734567e-01,-2.213769884976619917e-02,-2.004871024601367208e-02,1.452611401849113193e-02,1.951627582311630249e-01
-2.715353205203095421e-01,-4.807173034661966771e-01,-3.160791618259778391e-01,-9.598507945855110426e-03,-1.136483732087679999e-01,2.005301277307545982e-02,2.768647968769073486e-01
-2.715513029275495871e-01,-4.592793604812626107e-01,-4.538639037101829254e-01,6.315002850847835879e-04,-1.423682239518317622e-03,-1.620381756886821043e-05,1.850994229316711426e-01
-3.252204532835528128e-01,-4.593110239409878837e-01,-3.689476704009668206e-01,-4.185358641731067725e-03,-2.398461722283792570e-04,8.159796433032840898e-03,1.195048689842224121e-01
-2.708371833685641050e-01,-4.567541744699786244e-01,-4.551533517432585496e-01,-1.652677847042818230e-03,1.177807506209126382e-03,4.428851244582819634e-04,1.851567327976226807e-01
-2.707574395032208425e-01,-4.539905949139645402e-01,-4.581290079773319146e-01,-1.908490422218281487e-03,1.749853770742606672e-03,5.049359138695115080e-04,1.853933334350585938e-01
-2.710028371921748835e-01,-4.572459057212802658e-01,-4.524569996940636107e-01,1.398041166840142653e-03,2.188216012892484595e-03,-5.812793999112608745e-04,1.839531362056732178e-01
-2.837887844186540720e-01,-4.627114059765760068e-01,-4.524301872706827932e-01,7.336534361879419250e-03,8.639316778589643461e-03,2.362198597007302350e-03,1.751616150140762329e-01
-2.733082289628303019e-01,-4.605897778309133717e-01,-4.593330857456470739e-01,2.043694162186623052e-03,2.437752688677608491e-03,-1.732713180690771031e-03,1.867617964744567871e-01
-2.733323230403751358e-01,-4.690563136727795568e-01,-4.615253886070684874e-01,-4.827191774989071822e-03,6.594077139162623537e-03,4.384628308839137322e-04,1.925916373729705811e-01
-2.823261951114653390e-01,-4.669703126900729417e-01,-4.653722897628081445e-01,1.252193969313717585e-03,1.979514831094197295e-03,-1.397379512104304951e-03,1.839109957218170166e-01
-2.795154304054340288e-01,-4.700771047860270446e-01,-4.678255338098607496e-01,-3.516822030324003793e-04,5.474891871799144119e-03,-5.721662089088333308e-05,1.896841078996658325e-01
-2.713824027998693600e-01,-4.635698958605784514e-01,-4.598660025593442335e-01,1.199707116954721323e-04,3.509711684461732945e-03,1.126631889730414271e-04,1.904598176479339600e-01
-2.751977555542755027e-01,-4.608368422387075225e-01,-4.549546525531914520e-01,2.954359262461755606e-03,5.635274947410217998e-03,5.130390616691582429e-04,1.831031143665313721e-01
-3.176542583797195007e-01,-4.800608343905485298e-01,-3.920969158967980150e-01,3.078305353931759525e-02,1.180455903017039315e-01,8.975045341400374188e-02,2.977249324321746826e-01
-2.982595675154290360e-01,-4.676070367744380452e-01,-3.974264582288126180e-01,1.342000006682084233e-03,1.262562766568604486e-02,-3.238257643616442613e-04,1.490064114332199097e-01
-2.618957745654554303e-01,-4.814775366839216808e-01,-4.473047711525248715e-01,1.118072073374345825e-02,2.926425886758386372e-02,1.085406288462717819e-02,2.125508487224578857e-01
-3.227790833749268895e-01,-5.130270597084648498e-01,-4.401540638812360129e-01,-5.434625018672781249e-02,7.557610254368188341e-02,-7.580246862484452119e-02,2.662229537963867188e-01
-1.556055296643545360e-01,-4.609934586685798807e-01,-4.129854195759991020e-01,2.752840107140982692e-02,7.708516798789043223e-02,1.169975151340205306e-02,3.184587061405181885e-01
-2.750918582270536761e-01,-4.617437477872327056e-01,-4.600658504204090393e-01,-1.767597029968826124e-03,2.356904433307441954e-03,6.620005621874862790e-04,1.858922094106674194e-01
-2.824219397909158435e-01,-4.247975518410924134e-01,-4.394532930309945074e-01,-2.256883086428233820e-03,-8.871115974275291249e-03,5.712469623953505583e-03,1.513984650373458862e-01
-3.443831075030797106e-01,-4.938133354557677213e-01,-5.157421738460059579e-01,-6.329425555523163216e-02,-3.723200495787321040e-02,5.792225842067574848e-02,2.287558019161224365e-01
-2.755489320544458609e-01,-4.562585352926354365e-01,-4.686408195585863301e-01,-2.295831059141911074e-02,-2.525586748387196202e-03,-9.869549672319867344e-04,1.914423853158950806e-01
-2.863583390200326040e-01,-4.226542865333927645e-01,-4.296204716885453911e-01,-1.254848752905663237e-02,-1.362005407047415032e-02,1.460285906592116191e-02,1.457505375146865845e-01
-3.484800445275348935e-01,-4.941687919932774564e-01,-5.207950682254911534e-01,-4.997344290507806791e-02,-4.002216894090938198e-02,6.633299641873741104e-02,2.265190333127975464e-01
-2.929525089680174998e-01,-4.681010840421251928e-01,-5.726731748916567000e-01,1.451697245706181638e-01,-9.095602303721117554e-02,-1.910738914143331191e-02,3.860893845558166504e-01
-2.727063039913731890e-01,-4.547724627196563230e-01,-4.592546526776231097e-01,1.939544234026926170e-03,-1.959139493390771748e-03,1.297170172856521031e-03,1.844236403703689575e-01
-2.754653732648145725e-01,-4.608936412904424129e-01,-4.625429038910903734e-01,4.576691676655187530e-03,-2.125592214637893763e-03,-2.547786067410739335e-04,1.864638626575469971e-01
-2.467860310631843912e-01,-4.226402798340928024e-01,-4.515743602597264150e-01,2.757499373432099887e-02,1.387638695517883110e-02,8.699891336264644129e-03,1.998398005962371826e-01
-3.087909364372995458e-01,-4.839239362772870812e-01,-4.845288580214567320e-01,-1.667753741282583177e-03,-8.639972447402489292e-04,1.542931718159903497e-03,1.754867583513259888e-01
-2.674610470436556975e-01,-4.769891830474672911e-01,-4.574331742505078902e-01,-2.871223591139508875e-03,-1.940572992498492202e-02,5.421506815822892296e-03,2.035426199436187744e-01
-2.839189914722020647e-01,-3.834449386536052939e-01,-4.235303224167626945e-01,1.330768823237641132e-02,1.468324642749844339e-02,2.129015665390651332e-02,1.343118697404861450e-01
-2.832115375953875303e-01,-3.954734103988625793e-01,-4.546777503223048411e-01,1.339692665900716999e-02,-5.464116924579920202e-03,-5.030666059280588728e-03,1.531606912612915039e-01
-2.666874277183286512e-01,-4.381720814488108129e-01,-4.468586856713560596e-01,-5.850110159449545960e-03,6.002060361671412471e-03,-3.213946025729702734e-03,1.766742616891860962e-01
-2.790920583237448960e-01,-3.873550785505927019e-01,-4.523390372026933060e-01,2.014489639272304747e-02,-4.575138939968814884e-03,-1.433538615820821463e-03,1.557740867137908936e-01
-3.659006579373432211e-01,-5.404378093819994788e-01,-3.623941160764321268e-01,4.278836569688014048e-03,3.007475936596491674e-03,-5.427374596069042822e-02,2.000162899494171143e-01
-3.190123582779907374e-01,-3.331036087979983296e-01,-3.359678567754965095e-01,6.435911344869429951e-02,-2.774576758354404052e-02,-1.556272375646156891e-01,2.960446178913116455e-01
-2.962212233509572412e-01,-4.283656197540531840e-01,-4.195372276707764470e-01,9.572345832806710211e-03,-7.647712341227619164e-03,-8.061208602527122208e-03,1.304559707641601562e-01
-3.379904178648290847e-01,-3.772281794563088209e-01,-4.525720966191457695e-01,1.009172431568831213e-01,-1.280304221826090438e-01,-1.147519291700826866e-01,3.597289025783538818e-01
-2.687324703582434360e-01,-4.499333025794434171e-01,-4.402547035306471623e-01,-5.489324756073172239e-03,5.572363661591164981e-03,-1.737202990016054353e-03,1.771052032709121704e-01
-2.926954889550844596e-01,-4.367020561548645152e-01,-4.280312704328750328e-01,7.684301813968038956e-03,-1.011609828387532951e-03,-2.174771607119361551e-03,1.405660957098007202e-01
-2.677465916415233127e-01,-4.381027546518413973e-01,-3.726541041097720663e-01,1.776014857607851726e-03,-1.731777189016930549e-02,-1.531406213335005607e-03,1.518926620483398438e-01
-3.723073160744888033e-01,-6.328887681181885050e-01,-2.674388464543460686e-01,2.337520917785919014e-02,4.308501947050998732e-02,-7.766301351277772602e-02,3.626701831817626953e-01
-2.978875312096028183e-01,-4.308148793429021350e-01,-4.208777623116164990e-01,-7.826720497688377173e-03,9.190895842986627692e-03,-1.495879945300265107e-02,1.324990540742874146e-01
-2.745520730030280854e-01,-4.479119169912073040e-01,-4.465959767764366428e-01,-1.459937413717008262e-02,1.719195999019837787e-02,-3.817641444317103599e-03,1.771921962499618530e-01
-2.757363465421559523e-01,-4.543420446312586014e-01,-4.583126683335017049e-01,-3.986120097781407218e-03,4.326753268089013685e-03,-2.069938416806507014e-04,1.809112876653671265e-01
-2.865280825043695079e-01,-4.212886934266601990e-01,-4.347518183084452814e-01,-3.195813271341638867e-03,7.947738106214904258e-03,-1.992463189387908007e-03,1.427866518497467041e-01
-2.784443644982196320e-01,-4.675397534144253298e-01,-4.677940178411414962e-01,-1.304006580515076029e-03,1.675119932056937143e-03,8.995766486698885496e-04,1.892647892236709595e-01
-2.740509129319834147e-01,-4.615219472869505624e-01,-4.639856045418174757e-01,-2.995875272877126551e-03,1.681172657696266897e-03,9.066051692577625342e-04,1.888152360916137695e-01
-2.696893909170006154e-01,-1.740917977629155011e-01,-4.041559075700503767e-01,-5.529024732533208142e-02,1.637499930852177182e-02,-7.976388236323912750e-02,2.629393637180328369e-01
-2.720711864148198655e-01,-4.468586183551114255e-01,-4.541324225447781471e-01,-2.729197256440344700e-03,4.339043320569497056e-03,-4.095475618506124902e-04,1.787575334310531616e-01
-2.758105938579249461e-01,-4.284227847400588485e-01,-4.537556331029016787e-01,-6.704126839152801422e-03,-6.317480346333663455e-03,1.799082084078439548e-03,1.675189882516860962e-01
-2.851677956604542485e-01,-4.221131321363196243e-01,-4.515401767618776319e-01,-2.373467439317925986e-03,-7.125879915752439918e-03,2.200991465986189104e-03,1.543814837932586670e-01
-2.801257568079840166e-01,-4.659382182803705197e-01,-4.689565987539313641e-01,2.737376574501564942e-03,-1.585793939499993590e-04,1.458285320142508126e-03,1.874171048402786255e-01
-2.867628530218456762e-01,-4.804569905873468105e-01,-4.887463420302007866e-01,1.958334125322254080e-02,-6.478809809785958211e-03,-3.859648255929612384e-03,2.012780904769897461e-01
-2.728317949361738215e-01,-4.592238248721306482e-01,-4.629173645685022986e-01,1.650444006920538187e-03,-3.685947498685530226e-04,1.506334158526381924e-03,1.883068382740020752e-01
-3.301650419612177645e-01,-5.737550824949388950e-01,-5.748667804983889074e-01,1.044263542776607476e-02,5.329762504221446755e-03,8.501666156732342119e-03,2.454329729080200195e-01
-2.707612079603099464e-01,-4.478102805289805866e-01,-4.603826145247114088e-01,1.243385767464609548e-02,6.227937767460647346e-03,5.203667127257203401e-03,1.854501515626907349e-01
-1.917157249156113963e-01,-3.036432557795674114e-01,-3.857100818513400919e-01,9.608569392131259546e-02,-7.005216656386160923e-02,-9.690514780489473123e-02,3.147052526473999023e-01
-2.708169245004388714e-01,-4.525775778730150023e-01,-4.495903596722131135e-01,1.228013387048469251e-03,-1.027948951157514178e-03,-2.305845565155000649e-04,1.803073883056640625e-01
-2.691932388068178361e-01,-4.424080489896707880e-01,-4.418874820026782446e-01,4.346543187491047448e-03,-4.461009081404659210e-03,-1.832053712554233002e-03,1.733202785253524780e-01
-2.727287897719119503e-01,-4.567725654889813192e-01,-4.532142648327847634e-01,9.872992384484101814e-04,-5.347984132853857977e-04,3.276908025656266967e-04,1.823019385337829590e-01
-2.728139778813721827e-01,-4.538803179978294633e-01,-4.514145792425701131e-01,9.216434863813391604e-04,-3.378400052581579543e-04,9.216665202256392269e-05,1.798542588949203491e-01
-2.750995484326339557e-01,-4.644628083009153530e-01,-4.592817855840956587e-01,6.814705903749848290e-03,-9.806705002852031741e-03,-3.355867211029130593e-03,1.880580037832260132e-01
-2.927788585573334323e-01,-4.290510411275804126e-01,-4.271223561843852101e-01,7.013383764034919303e-03,-6.427571425026083751e-03,-4.415093702801882805e-03,1.365319937467575073e-01
-2.913524666431834831e-01,-4.277767434661228774e-01,-4.402323047145421664e-01,1.036401393850192899e-02,-1.064546616117839802e-02,-1.049146642443209328e-02,1.464868336915969849e-01
-3.356303180454873747e-01,-4.555114567568337436e-01,-4.765506426765667713e-01,2.291514980126132042e-02,-2.574685447280317466e-02,-6.031368150316542692e-02,1.783635914325714111e-01
-3.058162653039853129e-01,-4.314814856071110816e-01,-4.187017038958392723e-01,5.150744867594501952e-03,-5.540760710931374143e-03,-1.533020122801600875e-02,1.233929991722106934e-01
-2.714829639348301238e-01,-4.519934061836828332e-01,-4.473019649582395951e-01,-4.133668243903843367e-03,1.911417657163191593e-03,-5.440309024201283499e-04,1.783880144357681274e-01
-3.046477528437336324e-01,-4.282102573009622937e-01,-4.186659310510088550e-01,5.053778909115913716e-03,-2.376731534719853014e-03,-3.642426244117771394e-03,1.196362674236297607e-01
-2.760076883634022260e-01,-4.626836053403527438e-01,-4.621904666012532359e-01,-1.957128395698283421e-03,1.914905176202345415e-03,6.077225488950584132e-04,1.864931136369705200e-01
-2.819723596103269614e-01,-4.445236217077123131e-01,-4.618377579977824832e-01,-9.814493372834102655e-03,-3.137879669913399595e-03,1.846070348066613511e-03,1.728174239397048950e-01
-2.699634355262274243e-01,-4.456509591147686522e-01,-4.556683951103837060e-01,-4.315524233149495639e-03,3.011955096128034540e-03,-7.151136931379752071e-05,1.811339110136032104e-01
-2.700106851614448300e-01,-4.519079072676462916e-01,-4.566836633760572584e-01,-1.533073996794808184e-03,1.263388029741951361e-03,-9.942805151115010622e-05,1.843636929988861084e-01
-2.720584193034364384e-01,-4.506953830067330080e-01,-4.517641575492051809e-01,-4.600794790618648955e-04,7.945834250648955727e-04,-1.108522620035105909e-04,1.791809052228927612e-01
-2.742802523917350355e-01,-4.547979792487655271e-01,-4.617837599015515715e-01,-4.337988262649422264e-03,3.029758648634653384e-03,-5.828122239548770393e-04,1.843407750129699707e-01
-2.707407898465098439e-01,-4.513551973646766635e-01,-4.544653758676371891e-01,-6.342681584051780867e-04,1.453530309105039060e-03,2.659592696761020663e-05,1.822101175785064697e-01
-2.722692160645532322e-01,-4.493380578422618843e-01,-4.518111251469416612e-01,-7.066534089051364339e-04,2.074650206378122422e-03,6.886752086940845039e-04,1.783626228570938110e-01
-2.715871056626389390e-01,-4.487832119304652756e-01,-4.584586934207818265e-01,-4.178682094897980502e-03,3.037627162909426609e-03,-9.956025444868695992e-04,1.824543029069900513e-01
-2.703969103555537989e-01,-4.472463865218634926e-01,-4.513480055520409095e-01,-2.836463287741099615e-03,4.656145048540691854e-03,-1.036069544056833795e-03,1.791935414075851440e-01
-2.690153141252282776e-01,-4.504877426041234978e-01,-4.485290902923244616e-01,-7.452173106527883823e-04,1.586823630751374318e-03,-1.952653720384321337e-05,1.805266141891479492e-01
-2.738865237770244931e-01,-4.537556060177760364e-01,-4.585512834722515474e-01,-3.416045826780615691e-03,4.075373988200214556e-03,-1.880342781245427199e-04,1.825470328330993652e-01
-2.706582269563422294e-01,-4.536844808029808496e-01,-4.575832542487616728e-01,-1.704693590550976356e-03,1.800032541623272945e-03,9.363950531691526697e-05,1.850563436746597290e-01
-2.880538935605448936e-01,-4.706375036852978866e-01,-4.722651712804019075e-01,4.487098383451578777e-04,7.485714182054266277e-04,-2.507371963819854431e-04,1.834096014499664307e-01
-1.872428484444640384e-01,-5.732173819935568737e-01,-5.753697744735244424e-01,5.986438289921818499e-03,2.774570878518710371e-02,1.584298788447526668e-02,3.911287784576416016e-01
-2.614772274786487660e-01,-4.215890790839275093e-01,-4.478516790632542377e-01,-1.038697049207376738e-01,-5.977938096889518632e-02,8.286638991043365765e-02,3.069502711296081543e-01
-1.961076915609395455e-01,-6.324027591697251038e-01,-6.141360665083006598e-01,-1.093458441999891062e-01,-3.235072277541983093e-02,-3.439983347334544389e-02,4.746332168579101562e-01
-2.851739729479072505e-01,-4.746760593870533729e-01,-4.718943508250105778e-01,2.373510526969077866e-03,4.628765625739576436e-03,4.523364263166710850e-03,1.885051727294921875e-01
-2.490604915551667409e-01,-3.192709656452407674e-01,-4.672815254035700971e-01,-9.305359670526486271e-02,2.370973871063951702e-02,-6.663348292234803905e-02,2.796640098094940186e-01
-2.974439622518363913e-01,-4.910044116378489143e-01,-5.000835811726475066e-01,-5.516326410790328184e-03,-2.765058181387646582e-03,2.306023449595377348e-03,1.985840499401092529e-01
-2.895895980531733582e-01,-4.521355091774615920e-01,-4.755727826384333889e-01,-1.123083398840310845e-02,-7.519551602093903567e-03,4.403448062537706695e-03,1.771618127822875977e-01
-2.772287952271069722e-01,-4.601252730422953352e-01,-4.796827479002816474e-01,-1.444269813824601741e-02,4.571289236588485863e-03,1.307194656819858723e-03,1.952029764652252197e-01
-2.737512626737924060e-01,-4.578051489435589483e-01,-4.632722055855940657e-01,-6.811960840157280268e-03,-4.148241097668625352e-03,-8.938450878260658554e-04,1.873637735843658447e-01
-3.278626516619154163e-01,-4.831385724748002986e-01,-5.641607796104044503e-01,-7.589042748942359529e-02,1.052881084287201653e-02,-2.919986364719204253e-02,2.518422901630401611e-01
-2.824463139280234958e-01,-4.456566965286109516e-01,-4.417754955321603894e-01,-4.077665259913786089e-03,3.730289888771901041e-03,-1.012911615710646767e-04,1.615886688232421875e-01
-2.650516375558643611e-01,-4.913153056969781773e-01,-5.353149265455375838e-01,-4.133514637884689452e-02,1.693491387588501665e-02,-1.132098138058573733e-02,2.635476887226104736e-01
-1.737811542166554091e-01,-3.479409449323985215e-01,-2.395643469493645705e-01,-5.570683066947575840e-02,-1.003368537805928440e-01,1.141062534227830910e-01,3.190222382545471191e-01
-2.988505524550142955e-01,-4.342815912233436437e-01,-3.690446255177545209e-01,-9.808602868572647432e-03,-1.327061190459886790e-02,1.076627629136064045e-02,1.221761405467987061e-01
-3.090680873074952983e-01,-4.315594945798714721e-01,-3.076696148614618820e-01,-7.898894061265011868e-02,-1.362310378777108477e-01,1.235541450733914359e-01,3.679248988628387451e-01
-3.175210694722380711e-01,-5.559965051224728949e-01,-3.651738516512906818e-01,2.081425231595327580e-02,-1.985882740379868450e-01,-4.470329436150607960e-02,4.163941144943237305e-01
-2.757752008610774297e-01,-4.507975517115214714e-01,-4.505355618830205744e-01,1.734221852275572582e-03,1.914238601758783175e-03,-2.012263167876578878e-04,1.749490648508071899e-01
-2.814189745857729741e-01,-4.792211554273084761e-01,-4.487738068519253609e-01,-2.392771529878308726e-02,-7.751478697308322729e-02,3.168917279252463082e-02,2.382982075214385986e-01
-2.712153415982858640e-01,-4.431332504456403365e-01,-4.240917568463403731e-01,-1.261978813148902957e-02,-1.393680556646672251e-02,7.709939416650467454e-03,1.669837832450866699e-01
-3.004794948104383412e-01,-4.479012606654619311e-01,-4.162531074201046843e-01,-6.961814351550760054e-03,-6.683006759980365113e-03,5.966698016028071545e-03,1.358504593372344971e-01
-3.137638716819540763e-01,-3.320692981009982780e-01,-3.187246873301894379e-01,-5.422104038242910734e-02,-3.015459780582400648e-02,1.485001691748326635e-01,2.792372703552246094e-01
-3.189377144919467444e-01,-4.452642374684981363e-01,-3.996789119901451581e-01,-4.605284801984252732e-03,-4.884702910915058108e-03,1.783963095307700922e-03,1.114564090967178345e-01
-2.946240716693557249e-01,-3.934011251007238363e-01,-4.400433288368218454e-01,-2.018028079776777034e-03,-8.944220729062766009e-03,3.342373474345492618e-03,1.297124177217483521e-01
-3.035455100534110162e-01,-4.437738194799207281e-01,-3.824358783384506633e-01,9.078353451999606957e-03,1.022916863795631480e-02,1.442694017574538794e-02,1.265328973531723022e-01
-3.058141888312682632e-01,-4.292646088848374730e-01,-3.710612060656082178e-01,-3.652879247605576168e-03,-4.471597579660426653e-04,1.522167903389107235e-02,1.103545948863029480e-01
-3.141746742292620409e-01,-4.375536421933618469e-01,-4.648357261448368694e-01,-1.114537870471143596e-02,-1.284436760247684162e-02,1.861656160049505668e-02,1.457396298646926880e-01
-2.705803895201661646e-01,-4.521557291564480829e-01,-4.516425369845141202e-01,-8.641153181519468235e-03,7.744317768341109180e-03,-3.684960794902836408e-03,1.825413703918457031e-01
-3.239004143957036064e-01,-4.891696145752393310e-01,-3.952272998975114304e-01,3.567996585058859360e-02,6.700334182374288738e-02,5.746213438206430879e-02,2.186470031738281250e-01
-2.847406333244579257e-01,-4.373379605392230252e-01,-4.005953464779600792e-01,1.318146977442494379e-02,-1.609738130089894553e-02,-5.308778951777555315e-03,1.428716927766799927e-01
-2.662387573057805046e-01,-4.390895689396256962e-01,-4.495581798354550407e-01,8.104470665933918155e-03,-4.567472098560367705e-03,-1.270358584231119289e-03,1.790557950735092163e-01
-3.022625786052807184e-01,-4.399554373842953225e-01,-3.937019571882890423e-01,-8.253570563449337538e-03,2.806768551385660504e-03,-5.759432079052041915e-03,1.227087825536727905e-01
-3.054854562758849701e-01,-4.166698873519701363e-01,-4.329178505258520215e-01,3.589370282586708521e-03,-5.334981610857504261e-03,-2.597828276966990951e-03,1.207343265414237976e-01
-2.741112683756812274e-01,-4.352056114492939276e-01,-4.413488079114526452e-01,1.156790523874418920e-02,-1.054063096820946274e-02,-4.630618212861355686e-03,1.666668951511383057e-01
-2.391671628515943115e-01,-3.180755728995387499e-01,-1.910187817465943128e-01,2.076129877377904526e-02,-4.237965004049509821e-02,-1.231205344106916649e-01,2.539710998535156250e-01
-3.056419125195247166e-01,-4.372333598792928488e-01,-3.644640601736262586e-01,1.162136047080237523e-03,-1.371399663530103400e-03,-1.645666017564755348e-02,1.177200973033905029e-01
-3.079245960966587314e-01,-4.915767503291689766e-01,-4.267551177925245076e-01,-1.193142792880233158e-02,-4.796952704991309935e-02,6.165492175764574617e-02,2.115646898746490479e-01
-2.784245612741940712e-01,-3.771965472549416165e-01,-2.450044415683020893e-01,-4.184908238841670430e-02,-5.749854485216310263e-02,1.127439631896280658e-01,2.597684860229492188e-01
-2.862299277318525736e-01,-4.510680701410574867e-01,-4.041385573294479783e-01,-9.431426090444531771e-03,-1.221378630723941351e-02,3.637664068747646553e-03,1.496405750513076782e-01
-2.720450933916304104e-01,-4.606284627226966411e-01,-4.580161587296125436e-01,4.877758653496509019e-04,-1.341055656633175202e-03,-9.845352930696894597e-06,1.873071938753128052e-01
-2.772305196005885319e-01,-4.643408348789863083e-01,-4.600362119928649851e-01,-2.910549960078384537e-03,-8.423842650889235700e-03,7.464424509768130154e-04,1.856430172920227051e-01
-2.727587375925915048e-01,-4.594187632607786842e-01,-4.526936487905297568e-01,-1.446041888709262771e-03,-2.208891767397232176e-04,-6.372373402219166363e-04,1.834107935428619385e-01
-2.731934197254082264e-01,-4.606882928501855323e-01,-4.542050600266959171e-01,1.148962872324777986e-04,-1.819649400598844088e-04,-1.170910690667411442e-04,1.843392699956893921e-01
-2.726139649437167023e-01,-4.600569459181285681e-01,-4.553278807798646910e-01,-3.403750574231235678e-04,-8.732054139613552651e-04,1.032860463820983575e-04,1.851309537887573242e-01
-2.658767369681558357e-01,-4.523770540564694964e-01,-4.122268346689011431e-01,-2.902766282922177206e-03,-1.078142700658763116e-02,1.611352425831798023e-04,1.711153239011764526e-01
-2.707239596464354192e-01,-4.593257142899529466e-01,-4.482605927380445276e-01,-1.971573386420036496e-03,-3.888843215749477212e-03,2.584285015776629753e-04,1.834758520126342773e-01
-2.752428821241315604e-01,-4.496354055420356821e-01,-4.310781217359481166e-01,6.761506432530837996e-03,-3.992649481523542418e-03,-1.085199777521147742e-03,1.664613634347915649e-01
-2.883329059564172514e-01,-4.611362832152959279e-01,-4.047472886099980349e-01,-1.099038664962546062e-02,-1.459035664211554180e-02,2.761818548796265461e-03,1.559499949216842651e-01
-2.755215828128058098e-01,-4.529941619966569299e-01,-4.561743328033032174e-01,-4.114486147605390248e-03,-4.788962518987203813e-03,9.507466797458510041e-05,1.794175058603286743e-01
-2.893387931720692308e-01,-4.550187012879809978e-01,-4.541824617381696183e-01,-7.152686940801466359e-03,5.550426319810306507e-03,-3.648175612583620143e-03,1.661259084939956665e-01
-2.686561726406099249e-01,-4.496814056073586974e-01,-4.402017896275606246e-01,-5.543036872734762380e-03,6.449259653888911488e-03,-6.597688105069236504e-04,1.770937889814376831e-01
-2.724535337894191112e-01,-3.794357164419831507e-01,-4.273889969660039645e-01,-1.522840942051995050e-02,1.178564325026207511e-02,-1.769075300272876516e-02,1.446587592363357544e-01
-2.719383097133383220e-01,-4.495494177496445198e-01,-4.502037231725715127e-01,-1.023345795734606619e-03,9.247176003735863795e-04,-3.530328367018844573e-04,1.779562532901763916e-01
-2.950235438261735732e-01,-4.356033481637469618e-01,-4.305882752862220664e-01,-5.074845220278418473e-03,5.515819701325939961e-03,-6.014111714476830933e-03,1.391397118568420410e-01
-2.927385345653633619e-01,-4.154180223888151446e-01,-4.607903168630870239e-01,-1.745376693287714609e-02,8.728936071928178331e-03,-6.927024371101533559e-03,1.547953039407730103e-01
-2.781222147733613537e-01,-4.440827312002409988e-01,-4.461397549864098977e-01,-6.328899560724427636e-04,3.491544499356963836e-03,4.473671102213341226e-04,1.671133786439895630e-01
-3.081087194919736039e-01,-4.215159970509803622e-01,-4.211314596453227255e-01,-5.685151765066444925e-04,-2.443715965593955004e-03,1.943347060763275054e-03,1.133488565683364868e-01
-3.086691627681737993e-01,-4.363956717626716886e-01,-4.448377773918876787e-01,-1.220320419006123633e-02,1.788461616571168644e-02,-1.955192960381357814e-02,1.414806693792343140e-01
-3.761808084045541456e-01,-5.761160419358244411e-01,-4.371987163636684715e-01,7.442315583472640383e-02,-9.689471012758592294e-02,-1.564711784616539536e-01,3.869489729404449463e-01
-3.480262949023183450e-01,-4.661601475164694475e-01,-3.932948262458594857e-01,1.660508295181239991e-02,-3.529444793745694503e-02,-8.417925726835701061e-02,1.909969151020050049e-01
-2.513591583269564333e-01,-3.059285407915286470e-01,-3.178513278547351883e-01,8.017253373392230209e-02,-8.977360134425006744e-02,-1.335029012571322671e-01,3.173333704471588135e-01
-2.885089818405106032e-01,-4.480656181824005935e-01,-4.410591483343896391e-01,1.160167430791892752e-02,-8.206413615762967600e-03,-6.392356892506580006e-03,1.584862768650054932e-01
-2.856538084587869064e-01,-4.343640495655999301e-01,-3.114815508020991053e-01,3.566419022942342310e-02,-9.741278403345024484e-02,-9.261905640972213638e-02,2.774155437946319580e-01
-3.633916899316551596e-01,-4.950318869366711061e-01,-3.728196201513053754e-01,5.359861566181035181e-02,-1.222987015052078019e-01,-8.664933509409535051e-02,3.036290705204010010e-01
-3.066043944931062248e-01,-3.609085036495200405e-01,-4.670661516261731538e-01,2.681807568284305665e-02,-6.358288240727551742e-03,-2.211944519714426766e-02,1.540451198816299438e-01
-2.714277811856465328e-01,-4.206740411976817584e-01,-4.425674721124941424e-01,1.557140319064081492e-02,-1.225531274330670869e-02,-9.309547017803870839e-03,1.657083779573440552e-01
-2.760223570533352766e-01,-4.266657632337426675e-01,-4.499492355870466920e-01,4.820982511673815862e-03,-9.279320371142180113e-03,-3.550541780720978258e-03,1.646478623151779175e-01
-2.761703271832737783e-01,-4.450146417996801995e-01,-4.592846678423000983e-01,1.225424387253293800e-03,-3.662315451095082483e-03,-2.905350050301618026e-04,1.765402108430862427e-01
-2.714429371814004455e-01,-4.475696217703558633e-01,-4.538308518683173975e-01,4.550062678555859622e-03,-5.383691330853783950e-03,-1.848187375458653367e-03,1.797828972339630127e-01
-2.820314810511288517e-01,-4.788729792976746391e-01,-4.787243755654327915e-01,5.809705065654263353e-03,-1.139464008686727307e-02,-4.388547849700819709e-03,1.981562376022338867e-01
-2.777069693601968425e-01,-4.591346488775586154e-01,-4.654860350600287244e-01,9.935455942986233524e-03,-5.214341406953509027e-03,6.610902797571435860e-04,1.857085824012756348e-01
-2.727048521390023073e-01,-4.507977423391414940e-01,-4.619671957311107802e-01,1.160550785801961991e-02,2.424150579467238865e-03,2.047947610894645682e-03,1.851089149713516235e-01
-2.533294383402995842e-01,-3.995887359060399380e-01,-4.412554533540491430e-01,2.575034333610589851e-02,5.670589784740314582e-03,3.869753147678729136e-03,1.770668625831604004e-01
-2.779541411751429436e-01,-4.664733655988694272e-01,-4.640671102194115494e-01,1.232860396269922160e-03,-3.122659523161653173e-03,3.283983234370710532e-04,1.874187737703323364e-01
-2.710971091588945114e-01,-4.539032064064901784e-01,-4.581118064692099590e-01,3.323202752289034813e-03,-1.470794229912267487e-03,-2.604811304751361361e-04,1.850539445877075195e-01
-2.827648061305930716e-01,-4.686220362936077133e-01,-4.661966633856370334e-01,1.510867395675685515e-03,-6.818874936509973029e-04,2.134757856150714707e-03,1.847158223390579224e-01
-3.213712582450785615e-01,-3.908043813241011133e-01,-4.984300977486529338e-01,3.666095790090823092e-02,-2.342235958495064718e-02,-6.190405615982993298e-02,2.026111483573913574e-01
-2.755330954636745489e-01,-3.553364537969270764e-01,-4.582705036333043491e-01,4.380550037548258668e-02,-4.109103435407161732e-04,8.795271408144401427e-04,1.758922189474105835e-01
-3.063512929768822945e-01,-3.619711473352435482e-01,-4.577245968370783347e-01,1.265035333464116160e-02,-1.642686583005536615e-03,-8.887214737499772241e-03,1.353263556957244873e-01
-3.638098827701464755e-01,-2.552664129973865603e-01,-5.496366788236625167e-01,1.556807829880526954e-02,2.089053098839603953e-02,-7.934252402686439720e-02,2.956444025039672852e-01
-3.337423275553363378e-01,-3.012945773803515914e-01,-6.328187518846138948e-01,1.030611440336946377e-01,2.027791576686132496e-02,6.334304914390370689e-02,3.812339603900909424e-01
-2.902535635216537679e-01,-4.072894760847936557e-01,-4.525622454700571895e-01,-8.865678888903060634e-03,-1.017896997514766526e-02,3.624447049012669616e-03,1.470768898725509644e-01
-2.703733842775379870e-01,-2.281607563583712139e-01,-4.075163861130268739e-01,-9.641234840961843133e-02,-4.113178846481149037e-02,8.375662282859192009e-02,2.835247516632080078e-01
-3.039681569755536272e-01,-3.549432894428893870e-01,-4.507655554658249741e-01,-1.358788655312674794e-02,5.938859794265551224e-03,-4.777169714402484599e-03,1.318828612565994263e-01
-2.850556744937288722e-01,-4.211360378887968881e-01,-4.614457930116329654e-01,-2.578253465773883406e-03,-6.565355766328451366e-03,1.777530692657081036e-03,1.605828106403350830e-01
-2.763451779013553766e-01,-4.544854387957999453e-01,-4.650720227429313569e-01,-3.012726862069939164e-03,-4.423200865220504145e-03,1.659683012535202382e-03,1.839187592267990112e-01
-3.164756629604809079e-01,-3.768457136977998445e-01,-4.428626126994755774e-01,1.539120837438426662e-02,1.551841180653189224e-03,2.845998326757475869e-02,1.230285391211509705e-01
-2.834226467039173691e-01,-2.679291676512427500e-01,-4.200500982640017478e-01,-5.372132826510155404e-03,-1.600817379019615861e-03,3.511946218664298985e-02,1.575383692979812622e-01
-3.575974493889506056e-01,-3.320879142952968266e-01,-5.334602894122625338e-01,-1.164484057183882461e-02,-6.454859300578742742e-03,-1.220430330078272826e-02,1.924663335084915161e-01
-2.910268609960866559e-01,-3.126638094340118412e-01,-4.895136582725327923e-01,-5.033167686705569688e-02,-1.121533069648945370e-02,5.591201783624791428e-03,2.089054435491561890e-01
-2.777643073444382438e-01,-4.685483384311183719e-01,-4.659420587870871655e-01,2.328084406263839640e-03,2.771266447745972337e-03,-2.112761178608191931e-03,1.896333098411560059e-01
-3.091961068194724604e-01,-3.809995239880460960e-01,-4.582213815667804391e-01,1.304961968759469314e-02,-9.662108067513911977e-03,-1.221870145713721371e-02,1.338005065917968750e-01
-3.687606343433934564e-01,-2.543947499151585356e-01,-6.112920177795945209e-01,7.089707766726099925e-02,-2.490324676381395260e-03,-1.154010958696874561e-01,3.933044373989105225e-01
-2.720620469865911439e-01,-1.697197309300759183e-01,-3.891754187022430367e-01,6.129649344073715561e-02,-3.745611633002813440e-02,-1.471780761969109785e-01,3.415259420871734619e-01
-3.204340060685494929e-01,-3.470157449644968861e-01,-4.753632365973488594e-01,1.430358200067778467e-02,-6.348440319050434842e-03,-2.217540950682927656e-02,1.510009914636611938e-01
-3.198714199837037198e-01,-3.730630546633155742e-01,-4.599213717699893733e-01,1.748360458951089130e-02,-5.879098477359906948e-03,-3.613985515578891500e-02,1.411837190389633179e-01
-3.098639467593300445e-01,-2.391784103415869334e-01,-4.394673559368319493e-01,1.263772413305341152e-03,-5.267957727594522153e-03,-1.316476227856388723e-02,1.776585280895233154e-01
-3.177376695389325656e-01,-3.511469968470984915e-01,-4.533173112871725641e-01,1.552243838391244041e-03,5.547427209047652193e-03,-6.568037700410929436e-03,1.232775971293449402e-01
-4.295326276374541452e-01,-3.929524771823607598e-01,-7.330103113874700815e-01,1.126233215224778372e-01,-3.391098234578525383e-02,-7.823087604240921977e-02,4.054629206657409668e-01
-3.130484031520480714e-01,-3.159872220460238634e-01,-4.199642387342958361e-01,1.402165605668512574e-02,1.191883108090779084e-03,-7.319077420585524962e-02,1.667038649320602417e-01
-3.178291136968779407e-01,-3.674950032262305766e-01,-4.698666652372182062e-01,1.189277758583864517e-02,7.959361114590687717e-04,4.027211237686324774e-03,1.360364258289337158e-01
-3.643933967104994176e-01,-7.062709995703853050e-01,-7.373756592143496658e-01,1.162066154663710382e-01,-8.895351297336595575e-02,-5.911442606749466727e-02,4.507942497730255127e-01
-2.718680640160116013e-01,-4.546075164550891778e-01,-4.503279984957366255e-01,-1.374365307854285905e-03,6.819006814080591419e-05,1.221028292035721702e-04,1.806535571813583374e-01
-2.738921936853387362e-01,-4.565665461882974507e-01,-4.517555868711040090e-01,-2.053691061732827033e-03,6.829128304801322376e-05,1.222834024096225458e-04,1.803522557020187378e-01
-2.699364017790426562e-01,-4.546117306327354113e-01,-4.520112446722832633e-01,-2.070851923625757329e-03,2.061905848462513083e-03,3.322401502140657180e-04,1.834596544504165649e-01
-2.745684416854935472e-01,-4.500167065826237711e-01,-4.500773295874079816e-01,-1.829111652680699219e-03,3.213725253702960535e-05,2.308399695626131283e-04,1.755076497793197632e-01
-2.718876789276194472e-01,-4.515805245770357912e-01,-4.498971676848546597e-01,-1.668139109618615307e-03,-3.157241988550835783e-04,4.968003118398129107e-04,1.788833439350128174e-01
-2.767844436383162243e-01,-4.605010181992087448e-01,-4.575577837269871329e-01,-5.735249989225296718e-03,6.344425745241195902e-03,4.517695017530191015e-04,1.828654408454895020e-01
-2.815003286563609874e-01,-4.186525663674114939e-01,-4.398276218408203597e-01,-2.665518040583978246e-02,1.741302033089955556e-02,-2.418082500499392842e-02,1.641907393932342529e-01
-2.515069097409389220e-01,-4.807310000266692418e-01,-4.062261206560048299e-01,9.027667364690537821e-03,5.301695356475311094e-02,1.483704481812137248e-03,2.229346036911010742e-01
-2.799208177314619350e-01,-4.947063947714827603e-01,-4.809268214877144287e-01,1.093300088683186316e-02,-4.674873024889860534e-02,1.057769053040024353e-02,2.249747812747955322e-01
-2.800151624165770348e-01,-6.020516069934311876e-01,-7.335156086530260078e-01,5.651171999188489559e-02,-3.972458380762104724e-02,-2.774200721598530164e-03,4.215025305747985840e-01
-2.746699011195096185e-01,-4.509204947837708866e-01,-4.507371999297972165e-01,2.092364126066351138e-03,-2.403555711380948000e-03,5.208917384544915633e-04,1.762477755546569824e-01
-2.821505893280031319e-01,-4.656954534221787734e-01,-4.677138197244927742e-01,1.782724442707587457e-03,-1.585967131198081888e-03,1.282379958138008544e-03,1.846219599246978760e-01
-2.727360001738076134e-01,-4.601368806248239407e-01,-4.599057365232299688e-01,2.536402488656087917e-03,-2.623798267459164727e-03,9.110731547854692552e-04,1.873986870050430298e-01
-2.695032844557097573e-01,-4.562913866823291031e-01,-4.504652198594348844e-01,1.618151418196590386e-03,-1.734663742259703791e-03,2.332475064578344223e-05,1.839901208877563477e-01
-2.719457217289686923e-01,-4.553694311144858009e-01,-4.503085119633837841e-01,3.772336606847462304e-03,-5.071478826969640259e-03,-8.924830091057384205e-04,1.812838017940521240e-01
-3.119818976716739467e-01,-5.474609839288284707e-01,-4.949620263798816255e-01,1.567620874840310735e-02,-6.960889541253083290e-02,-1.507079534894676699e-02,2.485939413309097290e-01
-2.836697476674083784e-01,-5.218672496514756842e-01,-5.208051496784367185e-01,2.878212526877362704e-03,-2.301192676974600504e-02,3.590878378538516109e-03,2.411189973354339600e-01
-2.745828500935105776e-01,-4.551818124035242885e-01,-4.328288542321419019e-01,4.007958314239909968e-03,-2.665721417129343455e-03,-1.179654718520523711e-03,1.707407534122467041e-01
-2.848140351898024725e-01,-4.488238861737088303e-01,-4.222767488045613971e-01,7.628515215803862402e-03,-2.541654428044562430e-03,-4.027659113404640986e-03,1.532730162143707275e-01
-2.758286333388391132e-01,-4.461211378650978276e-01,-4.297159590963541276e-01,7.578522889420627288e-03,-5.362829603246773227e-03,-2.402267554040173579e-03,1.635569632053375244e-01
-2.672146733849787292e-01,-4.455356446835820883e-01,-4.293542525520770980e-01,2.106610549518122058e-02,-2.258919425593552618e-02,-1.147015344879473431e-02,1.800876855850219727e-01
-4.430910436307110012e-01,-7.054982258654143301e-01,-2.878917289016237335e-01,-8.326684619160218750e-03,2.750185687059887585e-02,8.670476144183165285e-03,3.692862987518310547e-01
-3.066254784255509902e-01,-4.593428731887009842e-01,-3.478232655237166737e-01,-2.108208021240920188e-04,-9.747156946759074768e-05,1.962157272526245133e-04,1.368521749973297119e-01
-3.046367745093564450e-01,-4.528392679848264324e-01,-3.806481004798593637e-01,-1.034416255810133821e-02,9.197412806041253136e-03,-7.822575070216433377e-03,1.312821060419082642e-01
-3.263797080707896980e-01,-4.905782366802786121e-01,-3.716451139803829129e-01,9.277257211238476055e-04,2.051482198176362345e-03,-7.158371674003854643e-03,1.474670618772506714e-01
-3.046741512650533723e-01,-5.306525147161906819e-01,-5.435754841213803479e-01,3.460005778373818203e-02,-3.806033510087440674e-02,-1.955538126053140563e-02,2.514717280864715576e-01
-2.797327310784616383e-01,-4.665554581604515749e-01,-4.690584577420466861e-01,4.189994081658205208e-03,-2.120765765929413685e-04,-4.326938761364730357e-05,1.882270425558090210e-01
-2.826728396424013079e-01,-5.855271761653724205e-01,-1.871062807492288871e-01,-9.533529719595639157e-04,-1.220801308752193642e-01,-5.665118382610474096e-02,4.291129708290100098e-01
-2.776136655062171887e-01,-4.448015462518989938e-01,-3.975604586775686178e-01,-5.836457453387176517e-03,-1.560542790403585947e-03,1.408804276011854997e-02,1.516254842281341553e-01
-2.825445572898301339e-01,-4.492414744148541805e-01,-4.481870121626937431e-01,5.659565392488284143e-03,-4.405733683578086715e-03,-2.094420072000879700e-03,1.666753739118576050e-01
-2.546685111686720071e-01,-3.743023766161006072e-01,-3.706707839576930397e-01,6.156617335709366201e-02,-7.453959620107246387e-02,-8.449458183114416654e-02,2.516915202140808105e-01
-2.186217447245935586e-01,-4.401467451722838597e-01,-4.292296874129407080e-01,6.198914887035725935e-02,-6.100848492296093856e-02,-4.666741702718289753e-02,2.756840884685516357e-01
-3.394590903637291768e-01,-3.589411190610004576e-01,-4.852923243427782474e-01,6.562595612860470766e-03,-6.448162377613219677e-03,-2.426015476381168309e-02,1.443099379539489746e-01
-2.985226606787114156e-01,-4.325436600041129287e-01,-4.607241863533398929e-01,1.289875699792080582e-02,-1.228560382063433043e-02,-1.056520427257495211e-02,1.543352305889129639e-01
-3.265779131368453658e-01,-4.411710785881727270e-01,-4.258007759522621782e-01,-1.012659984676460062e-04,-6.859931575420120725e-04,-1.770332317830746252e-02,1.120186299085617065e-01
-3.020017160540429124e-01,-3.884470412127019601e-01,-4.581446009708218803e-01,2.748723231124182952e-03,-5.340304142609249641e-03,-4.625579191215262696e-03,1.361175328493118286e-01
-2.999031052993898494e-01,-4.023088084612501114e-01,-4.216220670434289164e-01,5.632114234419174741e-03,-1.185934724676846429e-02,-1.483413178264747501e-02,1.183848232030868530e-01
-3.085796065408236144e-01,-4.194818823900321458e-01,-4.396465781071496326e-01,7.163377162965183301e-03,-5.591373639771464281e-03,-1.584259445980999714e-02,1.262653470039367676e-01
-3.165614118776786667e-01,-3.908146144557820278e-01,-4.497770461377119666e-01,7.044465472745047724e-03,-4.898523827938127025e-03,-1.522757368242716979e-02,1.195188388228416443e-01
-2.714207271070476768e-01,-4.518279946699181315e-01,-4.556518287868438488e-01,1.904951418537149162e-03,-1.160100215967467497e-03,1.008952328008942516e-03,1.823985427618026733e-01
-2.800580678970498449e-01,-4.470767556903573192e-01,-4.377643456460079685e-01,5.868916472632871272e-03,-2.104660602523345837e-03,9.927103409820079024e-05,1.629210412502288818e-01
-3.710171629458853260e-01,-5.356766747462516909e-01,-4.634220910745395217e-01,-3.771395046355337927e-02,-5.461288497276397397e-02,6.233625711833810229e-02,2.128573060035705566e-01
-3.005557096946339102e-01,-3.981766854863476035e-01,-4.246839891506648534e-01,-5.505402633133141786e-03,-7.561426375423192098e-03,7.474764535290805666e-03,1.151096448302268982e-01
-2.792434653033429304e-01,-4.112638370368900120e-01,-4.041497135102425919e-01,2.355356961575976946e-02,2.530693705912947372e-02,3.020314209911673445e-02,1.512055099010467529e-01
-2.612478379512769844e-01,-4.500254423971304929e-01,-4.321665531032446994e-01,-2.285006807521309039e-02,-2.871512431167533644e-02,1.384344171311784923e-02,1.928718239068984985e-01
-2.955176290056742983e-01,-4.253876175799022885e-01,-4.153957827319334495e-01,-4.189725953791161549e-03,-1.993455271635522982e-03,2.893589249114533486e-03,1.255313158035278320e-01
-2.744680859096272907e-01,-4.452458457087312693e-01,-4.447665412993139222e-01,-3.117695089593757081e-03,-1.595159923096468261e-03,4.164587025204510764e-04,1.706479787826538086e-01
-2.850473944526955017e-01,-4.675093722418671160e-01,-4.710270828551220701e-01,1.909400666340937405e-03,2.460297030682242841e-04,-2.320077492353830482e-04,1.842766255140304565e-01
-2.786916296440755669e-01,-4.102170372937751219e-01,-4.368103177021057659e-01,8.239798244113352363e-03,1.104539475989249446e-02,3.974476045889233609e-03,1.487309783697128296e-01
-3.020972616944165301e-01,-4.087882388028119540e-01,-4.532679817977418035e-01,2.610265963706070742e-03,6.472842474783305038e-03,1.053006429564463595e-02,1.363296657800674438e-01
-3.037730507983433248e-01,-4.179185466800954818e-01,-4.235498955055220782e-01,2.141922132751284888e-03,5.570747409410883692e-03,6.845658989919439080e-03,1.181149929761886597e-01
-2.884134009602958293e-01,-3.088472389044255029e-01,-4.426592975547022357e-01,-2.312283716128794506e-02,-6.217849192876719056e-03,1.793417334757034173e-02,1.540856510400772095e-01
-2.740251221446988183e-01,-4.270005164273974474e-01,-4.591658905498003374e-01,7.345006025899583103e-03,2.383525318395910818e-03,-4.613209051709062547e-04,1.718607693910598755e-01
-3.269028701478692289e-01,-3.420095911910931985e-01,-4.510460724001271737e-01,1.501567789738069390e-02,2.080336137859739587e-02,6.835948496087689008e-02,1.725055426359176636e-01
-2.753410781739717428e-01,-4.341320993652114102e-01,-4.514838041804289381e-01,1.054167656192555799e-02,1.024329220570742785e-02,8.437466240825457903e-03,1.706830263137817383e-01
-2.917023455068654680e-01,-4.127898051092513398e-01,-4.529675563636311741e-01,1.090599853492862925e-02,7.551681895876368941e-03,7.613778754222890605e-03,1.477946639060974121e-01
-2.766856266428751598e-01,-4.631793988353131164e-01,-4.616865889330405426e-01,8.702386791199646920e-03,1.028856920871960498e-02,2.628255539739400765e-04,1.872130334377288818e-01
-2.913454770746993217e-01,-3.981370036546724167e-01,-3.498389703648659976e-01,2.021207004157244205e-02,3.325020558917172325e-02,6.057946991381930185e-02,1.553423255681991577e-01
-2.813322104244319055e-01,-4.566983022295817429e-01,-3.785530588103470651e-01,-1.028231381467099512e-02,1.916409227683712330e-02,-7.838193882804172022e-03,1.573505550622940063e-01
-3.216170080081922067e-01,-4.567691985980659175e-01,-3.781721168975065717e-01,1.751583199162072817e-03,-2.417675489406890654e-03,-7.749246982109335262e-03,1.184396073222160339e-01
-3.012258753174471559e-01,-4.628055460270518728e-01,-3.905819818132738042e-01,-5.068323603518841251e-03,3.384605084816784838e-03,-7.408800958938975209e-03,1.411753296852111816e-01
-3.295648202627098899e-01,-5.312544435765019779e-01,-4.013637705703116954e-01,7.587728140218842794e-03,4.334367269227962921e-02,2.091464337989668021e-02,1.961471438407897949e-01
-3.180985373136649974e-01,-2.498957306472208428e-01,-4.515271155383093205e-01,-1.381734911332827475e-03,1.045729745382762733e-02,-1.543704413023178068e-03,1.785943806171417236e-01
-3.279080008105708099e-01,-3.511173822301182357e-01,-4.908726265573537528e-01,1.030863953227810405e-03,7.180967741579813088e-04,-1.928276586269845098e-04,1.527045667171478271e-01
-2.982773306809521907e-01,-4.730133464435070656e-01,-4.723671874856636976e-01,7.855241621139146414e-04,-2.161152272486710122e-04,1.734532084591565524e-03,1.744454205036163330e-01
-2.676350075967522946e-01,-4.447729819883529667e-01,-4.261964201525096363e-01,1.038731670212642878e-02,1.562568263319551523e-02,7.436603308308179297e-03,1.722045838832855225e-01
-2.748071463216916754e-01,-4.680165801475215104e-01,-4.620460516759442027e-01,6.185720474653121081e-03,1.155777233773811093e-02,-1.871695839502546515e-03,1.916716396808624268e-01
-2.943837802316520147e-01,-4.736592980038807910e-01,-4.702618538656281877e-01,6.118989753204151310e-05,4.214177565422130796e-05,2.257465541834426559e-04,1.776016503572463989e-01
-2.875040784328911636e-01,-4.747133647855839578e-01,-4.698953231467321578e-01,-1.168047126543484641e-03,2.293580539946553538e-03,-1.846621736370008052e-03,1.849287748336791992e-01
-3.204712603340273969e-01,-5.645472827466763155e-01,-3.933996444485841626e-01,-2.578919009095465096e-03,1.179474842680869884e-01,6.910325800173304500e-02,3.212042152881622314e-01
-2.685491580820537072e-01,-4.529482420203930215e-01,-4.541576800544797066e-01,2.562339969617881495e-03,1.989338104843159545e-03,1.251923108531268879e-03,1.851047724485397339e-01
-2.710373176458088507e-01,-4.459819644872012878e-01,-4.567334081432946613e-01,3.790091028054086431e-02,-3.525599374547703363e-02,-4.181597396530412764e-02,2.142107635736465454e-01
-3.047571984908689080e-01,-4.355458100564290058e-01,-4.935670639894783607e-01,2.546492758829142083e-02,-6.692738815406487282e-03,-3.867551013107864942e-03,1.737391352653503418e-01
-2.718582609623831914e-01,-4.453887467268987654e-01,-4.505555880048541240e-01,4.680361582127619616e-03,-5.887333184341183613e-03,-2.964233740538623190e-03,1.767263114452362061e-01
-3.687152455460995792e-01,-6.199159498657222933e-01,-2.385550597778195725e-01,-5.812076497817809245e-02,-5.812254328345847071e-02,1.133501168786486407e-01,4.141899347305297852e-01
-3.484384236377497390e-01,-4.965755865115181744e-01,-2.099603515832607625e-01,-1.622881213611034046e-02,-7.769589075038922654e-02,6.098307517567386898e-02,3.028059303760528564e-01
-3.423863497937521538e-01,-5.977214098312390034e-01,-5.438937495831211999e-01,-3.387047975953405565e-02,-9.092871750122605290e-02,3.239145735293485085e-03,2.874482870101928711e-01
-3.363552767305565405e-01,-5.002315787923635737e-01,-3.654294839520845217e-01,-2.123543480184763785e-03,-9.603929743890857532e-03,-4.071884413749388490e-03,1.525652408599853516e-01
-2.731790658884767353e-01,-4.646849390589345430e-01,-4.268122730356020966e-01,-3.304470741296643317e-03,-8.256685408799273665e-03,2.545508556015988171e-03,1.763879656791687012e-01
-3.282991845345111792e-01,-5.117721336928273690e-01,-3.441452785611849308e-01,-6.765761983002688273e-02,-4.818685460553848859e-02,1.625991672952841194e-01,3.619670271873474121e-01
-2.830201684677470242e-01,-4.698191208141805908e-01,-4.744275191738334674e-01,-1.010609963839622510e-02,2.935250878465545457e-03,1.721643996342343179e-03,1.900449097156524658e-01
-2.768360411039734181e-01,-4.865301667014588216e-01,-3.800437649150748554e-01,-1.753809080025407058e-02,-6.303154846746818196e-02,3.806303876384453666e-02,2.239854335784912109e-01
-2.736941822077620379e-01,-4.594779463600333069e-01,-4.607956718069270430e-01,-2.612622952198578440e-03,-1.748203001768568188e-03,-3.982807615505445649e-04,1.865268796682357788e-01
-2.845996436664718909e-01,-4.989326763548991295e-01,-5.168344199936822925e-01,-4.256571252097659380e-02,-3.095692833757253057e-02,2.546879151398331875e-02,2.456675618886947632e-01
-2.710635706679161427e-01,-4.572804870728982563e-01,-4.598224724231079752e-01,-2.128186052449081329e-03,-2.599321670622013031e-04,-8.465861489068848443e-04,1.875433325767517090e-01
-2.412788607317054579e-01,-4.618018460734327202e-01,-4.807495962573499759e-01,-5.401048838852578332e-02,5.027755547475624281e-02,-4.218733846048734748e-02,2.735727131366729736e-01
-2.890791847115187774e-01,-4.722944821666398285e-01,-4.739741666210578463e-01,-3.833717538556823644e-03,-6.704115403794044066e-04,-7.660952822458944652e-04,1.841890662908554077e-01
-2.827605843304085709e-01,-4.647190963162398103e-01,-4.659822383413346203e-01,-1.067987553467475415e-04,7.494217981752991902e-04,1.525274203646505766e-03,1.826171725988388062e-01
-2.708221342716621294e-01,-4.462140369958155217e-01,-4.610911470330231188e-01,-1.226724406220857516e-02,8.182080632377890933e-03,-4.126961595218732980e-03,1.851927787065505981e-01
-2.966004600456220164e-01,-4.295114386193136791e-01,-4.087984548806470331e-01,7.165460689947092746e-03,-2.425857846233347732e-03,-5.855966513900827050e-03,1.249637380242347717e-01
-2.846681908337894695e-01,-4.467613186128178149e-01,-4.053387874891689058e-01,1.293995857901146865e-02,-1.217357875579280942e-02,-4.862581987698081677e-03,1.493102461099624634e-01
-3.023490607146356868e-01,-4.460553833263245505e-01,-3.914592924707711030e-01,7.882173232062477872e-03,-3.294202999860017678e-03,-9.241271080357675929e-03,1.275209039449691772e-01
-2.883708370600555071e-01,-4.290610141181195880e-01,-4.277644409253222313e-01,7.705696248477394636e-03,-6.328111334163855420e-03,-5.557481087936507434e-03,1.414352059364318848e-01
-2.764725362332055014e-01,-4.287609158921886765e-01,-4.375834938175486299e-01,5.602733734174756078e-03,-9.329889065120075195e-03,-6.600215845688438103e-03,1.584271639585494995e-01
-3.035378005522569311e-01,-4.389812777930502952e-01,-3.973812217518854495e-01,6.600604951641163808e-03,-5.784791690985614278e-03,-4.931844647603450364e-03,1.214294359087944031e-01
-2.901999265472444134e-01,-3.730463195941998711e-01,-4.312019071343836663e-01,1.114429332640746312e-02,-1.097354638035045148e-02,-1.106043632296568532e-02,1.271393746137619019e-01
-3.154836657454744842e-01,-4.092999397855927590e-01,-2.504322967766284824e-01,4.650533886163642910e-02,-1.420806182390767503e-01,-1.514084504683370080e-01,3.936477601528167725e-01
-2.853973336700383889e-01,-4.263513269657241977e-01,-3.762143677894118077e-01,3.825192274955649396e-02,-5.021388727442376021e-02,-6.135922566904552372e-02,1.963759958744049072e-01
-3.667164178844055655e-01,-5.638686585338285040e-01,-3.037288423304309593e-01,8.020377662036445171e-03,5.733740354999633179e-03,-1.402206073685932364e-01,3.384252488613128662e-01
-2.922547983469729882e-01,-4.105997900521347610e-01,-3.874756447794049374e-01,1.004809232906826548e-02,-9.176000692926861851e-03,-2.449953744368477127e-02,1.189949885010719299e-01
-3.122514369411094060e-01,-4.553333811454258195e-01,-4.067537020872118436e-01,8.793758696587725479e-03,-9.707615839920233358e-03,-2.055703769212618298e-02,1.329061090946197510e-01
-2.420005809398450281e-01,-6.808029894717193553e-02,-4.011668108973423519e-01,-1.321312820607926063e-02,-8.989360347654892617e-05,-2.534964220760032097e-02,2.927729189395904541e-01
-3.063065828346639985e-01,-4.644324040458879255e-01,-3.705297297760672404e-01,-1.321843378008170228e-02,-3.487957371727501421e-02,2.246781651423198495e-02,1.570394635200500488e-01
-2.845380938207763277e-01,-4.490538885484837706e-01,-4.221331659335054165e-01,-8.620250177211094197e-03,-3.042085391256415649e-03,5.615038707620760745e-03,1.539693623781204224e-01
-2.694822531067311844e-01,-4.727185536720609482e-01,-4.676459992987719860e-01,-2.609241415037455089e-02,-3.783036046910490113e-02,7.339162026270521985e-03,2.163266986608505249e-01
-2.984652166719253819e-01,-4.500947117562806299e-01,-3.487282009368641300e-01,-1.150532024696193124e-02,-1.786296199797706222e-02,8.527206609776020324e-03,1.395314782857894897e-01
-3.282408259318421173e-01,-4.235877637782316518e-01,-4.449402680830118473e-01,-4.944979077413143992e-03,-8.026210495904890704e-03,1.860437870466610105e-02,1.135246753692626953e-01
-2.770075488348920922e-01,-4.609583309524671879e-01,-4.677296562232450272e-01,3.958339559995020795e-02,-2.340383796992781887e-02,-7.108679340011206382e-03,2.040212899446487427e-01
-2.867365482423510636e-01,-4.713051960362997228e-01,-4.737435701519959186e-01,3.644719764651526382e-03,1.321852271161086303e-04,1.912170966235885719e-03,1.859366893768310547e-01
-2.994017854105612830e-01,-5.331309710938355595e-01,-5.385156197567562142e-01,4.104385088482553900e-02,-1.598976488385322678e-02,-2.458324414819977426e-03,2.485071718692779541e-01
-2.757674122302906650e-01,-4.631022663656388372e-01,-4.638255944192777314e-01,1.086069652145455963e-02,-6.068637363245070297e-03,1.556046744160925754e-03,1.889497041702270508e-01
-2.774606493965834364e-01,-4.610832861484074341e-01,-4.624220069029910674e-01,2.624275718793192200e-03,-2.207554413506991695e-03,1.139647539729849064e-03,1.844018995761871338e-01
-2.779760687336675362e-01,-4.637273542672476490e-01,-4.626612182249228433e-01,2.671071690546294314e-03,-1.716366757614885526e-03,6.285039748157671526e-04,1.853053420782089233e-01
-2.726040993718152339e-01,-4.671434498691816040e-01,-4.637327150262827713e-01,9.056429564695192905e-03,-1.412986096949236069e-02,-1.085295068181424925e-02,1.959388852119445801e-01
-3.089797697845312330e-01,-5.305654392690624110e-01,-5.363169145000966642e-01,3.727248517114872123e-02,-3.146281730425821294e-02,-2.410521668349077315e-02,2.434920072555541992e-01
-2.757465739249842507e-01,-4.627301450196953381e-01,-4.632342062534020588e-01,7.433413429018593047e-03,-8.884247163398327485e-03,1.041277646015260341e-03,1.883166730403900146e-01
-2.905629532582731933e-01,-4.003672878468624852e-01,-4.529690376598259904e-01,-1.204287000585545914e-02,8.845443008133380830e-03,-1.768756308662963912e-03,1.458733677864074707e-01
-3.043579087881171374e-01,-3.634732436040146730e-01,-4.526664750719596730e-01,-9.485297653367604984e-03,5.969938335723647821e-03,-3.451487395391606653e-03,1.309019327163696289e-01
-3.138280972421628734e-01,-4.062797734174194986e-01,-5.323347375215954358e-01,-5.997018794544926867e-02,7.441811579212355594e-03,-2.616508100143450158e-02,2.215861082077026367e-01
-2.705867151570648388e-01,-4.215083998773230256e-01,-4.481827388791082556e-01,-7.583241732310757287e-03,8.565284727969127085e-03,-4.233834365413329491e-03,1.672154217958450317e-01
-2.884000151204515472e-01,-4.761804413783222167e-01,-4.534605888215297309e-01,-8.479406610585696683e-03,9.464361340625004893e-03,-5.608571802196011570e-03,1.791371703147888184e-01
-2.698403259779091901e-01,-4.525068769834431071e-01,-4.563810204746622246e-01,-1.916009116319144839e-03,2.068489458609976562e-03,-2.386884070314982439e-04,1.846991479396820068e-01
-2.927630023031527751e-01,-4.092757849369431100e-01,-4.634670458024953144e-01,-2.503804472896678165e-02,3.740808308422182305e-03,-2.933541720160152012e-03,1.573988646268844604e-01
-2.866940028034306587e-01,-4.232584358054140017e-01,-4.540467859148770158e-01,-3.719361495359950563e-03,8.724618226968895024e-03,-4.174022065642315690e-03,1.553205847740173340e-01
-3.214453939774958302e-01,-5.354055126782919505e-01,-5.414339496256675988e-01,-3.834887047296365453e-02,3.519420222399077119e-02,-2.766360737298554501e-02,2.398515194654464722e-01
-2.841674374219863575e-01,-4.709265726951773479e-01,-4.673274520131298626e-01,3.456750770252183837e-03,1.132863477367163606e-03,-8.832897435974301509e-04,1.850994229316711426e-01
-3.019463020721571689e-01,-4.427164698529155173e-01,-3.984824600580890164e-01,8.465737816159890627e-03,-2.346358647324958604e-03,-5.608960193152440731e-03,1.259839832782745361e-01
-2.358779722320575867e-01,-3.164135842960390521e-01,-1.743380151214395657e-01,2.387078466591212311e-02,-4.450588047517348850e-02,-1.172431655469145101e-01,2.532171905040740967e-01
-3.095862114736375736e-01,-3.648256320379331674e-01,-4.371607741727972507e-01,1.731936365186793241e-03,-3.980034448088578744e-03,-1.661335444941384673e-02,1.147346869111061096e-01
-3.037191327645488714e-01,-3.884900522646671517e-01,-4.156616071487716502e-01,1.256276107613748172e-03,5.677860326917535212e-04,-1.049072833204404975e-02,1.027795076370239258e-01
-3.116379021056627230e-01,-3.684658202028251450e-01,-4.656369418675996297e-01,-8.755692159819621762e-03,5.031764587513044493e-03,-3.597734734366322528e-03,1.361559629440307617e-01
-2.834106271872998128e-01,-4.216585720187078778e-01,-4.613787906998072508e-01,-3.288533840058099639e-03,5.748551853501255096e-03,-6.465783482354348207e-04,1.622167229652404785e-01
-2.734336874982717935e-01,-4.178256002298695315e-01,-4.767680184189324044e-01,-2.587900078866550019e-02,1.179989577649218080e-02,-7.658234361066659085e-03,1.882468312978744507e-01
-2.960499582496440851e-01,-3.594347269125338640e-01,-4.611266873129474808e-01,-5.465801366140201484e-02,-6.674369871040712957e-03,7.255019412072336894e-03,1.733742952346801758e-01
-3.036417940605879995e-01,-3.217869498159455777e-01,-4.486662475054170596e-01,-2.145845995344185242e-02,2.243928137469030498e-02,-2.793530649592201875e-02,1.547997146844863892e-01
-3.301698000425997703e-01,-2.981559496412593546e-01,-5.148572441425244284e-01,3.798696723592213335e-03,1.294117569045106532e-02,-3.779154238522736999e-03,2.040476799011230469e-01
-2.977702269048010386e-01,-3.982103141103645605e-01,-4.994621468219586635e-01,-6.642462948264313272e-02,1.605494299422311963e-02,-3.269813391379230300e-02,2.184659391641616821e-01
-2.349792994187276662e-01,-3.200643190532302396e-01,-2.146089502463489618e-01,4.165305549493240195e-02,5.815381037494829486e-02,1.249216829424755343e-01,2.674966156482696533e-01
-2.945059757555272828e-01,-4.363259513470119089e-01,-3.917079728166587005e-01,8.797252917467393921e-03,3.868735365897357434e-03,8.491178809052936025e-03,1.275512725114822388e-01
-3.071219408022772823e-01,-4.276155977710968115e-01,-4.291518298465230030e-01,1.066885739386417772e-02,3.708998884556533732e-03,1.270459404372452708e-02,1.247924342751502991e-01
-2.757167822270356616e-01,-4.507385293190167563e-01,-4.287511507915494069e-01,8.877177941787791834e-03,5.183409984219449797e-03,3.240113008827062106e-03,1.661815196275711060e-01
-3.030488448868479678e-01,-4.478340361546841453e-01,-3.838152131094455521e-01,-2.201818810492596999e-03,-1.007203477194217912e-02,9.472010949474364908e-03,1.279852390289306641e-01
-3.140555423660737477e-01,-5.060582817383454390e-01,-1.377178600658279239e-01,-3.984579864049523495e-02,-4.523457937223296366e-02,1.498637051057520320e-01,4.243775606155395508e-01
-3.207695893610492677e-01,-4.109690052582954944e-01,-2.418078182365563378e-01,2.685276890407011299e-02,-4.876503921381309531e-02,1.126223460691821721e-01,2.623773515224456787e-01
-2.780315752884269243e-01,-4.481074453882890607e-01,-4.627616510647195591e-01,1.211866903987425742e-03,3.327576075224640811e-03,-6.696059438174848701e-05,1.779621094465255737e-01
-2.909522872748830924e-01,-4.167224852820869407e-01,-3.487385129225623048e-01,2.248122215444773100e-03,6.161450619569842652e-04,2.015861989408159957e-02,1.145644634962081909e-01
-2.958116753383442932e-01,-4.333527881560003125e-01,-3.645225353882127761e-01,1.026872132638214502e-02,1.479959090347784251e-02,2.562133248261517712e-02,1.308852732181549072e-01
-3.523528789521254145e-01,-5.147179604179910051e-01,-3.790034995078349067e-01,-5.078565211172470645e-02,-3.354034459311533434e-02,1.745440278762249720e-01,3.539135754108428955e-01
-2.387446192248605659e-01,-2.646561923571238983e-01,-2.715923938354744549e-01,-4.176209104324775379e-02,-4.143038669237655153e-02,1.388910863188332068e-01,2.629697620868682861e-01
-3.373342004133860761e-01,-2.678389201583044610e-01,-4.703652876596089438e-01,-7.016097529751993966e-02,-1.971053545307742058e-02,7.913254105551704998e-02,2.578584551811218262e-01
-3.408934512501597403e-01,-3.761212608266259472e-01,-4.418708008524315778e-01,-3.765860855481091563e-02,3.241031280962755612e-02,-8.392624327756814662e-02,1.908320039510726929e-01
-2.641954479020397484e-01,-1.752215964683385974e-01,-3.432942023860495184e-01,-1.159732941421166494e-02,2.578292111798079298e-03,-1.267649375637174558e-01,2.642766833305358887e-01
-3.330330529872933543e-01,-2.697396853575494413e-01,-4.336720413471278901e-01,-4.635670564701039470e-02,1.568864757752306410e-02,-1.273379785343314585e-01,2.762863636016845703e-01
-3.463955000863417899e-01,-4.063472192958411111e-01,-5.353856918802030185e-01,-1.547977979397203718e-01,1.850765658606329245e-02,-6.053498824101857800e-02,3.344986438751220703e-01
-2.777677573653453691e-01,-3.840081830163321053e-01,-4.440939870762531383e-01,-1.556408522078415839e-02,-6.564655514988222175e-03,3.465287302012683580e-03,1.489056944847106934e-01
-2.677900922150869834e-01,-4.445872368575540801e-01,-4.551849816518854785e-01,-6.555687422215808469e-03,-3.971456770742108969e-03,1.821067453250644697e-03,1.828370541334152222e-01
-2.646432236336810351e-01,-4.358079372476710844e-01,-5.049441066794013722e-01,-4.597099344875966304e-02,-2.338193324410363025e-02,1.070224434012238997e-02,2.328832298517227173e-01
-2.967748680956586727e-01,-3.534194485706839695e-01,-4.465748704638886069e-01,-1.608022422979098892e-02,-1.363414449402671966e-02,1.134491481918063933e-02,1.374147087335586548e-01
-2.916649016228736735e-01,-3.638173387673921400e-01,-3.947763940794340454e-01,5.769860194691014098e-03,5.887213046582887369e-03,4.063233275409193490e-02,1.164260283112525940e-01
-3.579885389731501943e-01,-4.613782316691756313e-01,-3.245131304132393146e-01,-2.364583420858969165e-02,-7.819484440596884134e-02,1.759332934487574940e-01,3.579794466495513916e-01
-2.995410200668163769e-01,-4.479165687463617651e-01,-3.977553794395477516e-01,-8.276548801697872909e-03,-3.814942501154035357e-03,5.266721856187392067e-03,1.319891512393951416e-01
-3.053755206243504716e-01,-4.277573530740351182e-01,-3.931290304329595475e-01,-2.957823785681018124e-03,9.710757482285586016e-04,8.839277914619636523e-03,1.104627996683120728e-01
-3.366757095425099156e-01,-4.674978333527370911e-01,-2.865398389133029244e-01,-3.019119545707862158e-04,1.219425861722075316e-02,6.462913275906839727e-02,1.978991180658340454e-01
-2.727194848908787161e-01,-4.605581038333315114e-01,-4.553012943322393702e-01,-3.964193371949358328e-04,9.827604174034068173e-04,2.470467690508576703e-04,1.852757483720779419e-01
-2.721035040228673707e-01,-4.554908697359431047e-01,-4.492697341662780230e-01,-3.282561469806639150e-03,3.750937077231637079e-03,-1.023886589234749428e-03,1.805725097656250000e-01
-2.809013840975152498e-01,-4.673393174954573182e-01,-4.679557310784267510e-01,-1.761571020079865475e-03,5.230555712404913286e-03,-2.343050663863079693e-03,1.870354562997817993e-01
-2.718594300151249699e-01,-4.603897960804889111e-01,-4.532607880259189037e-01,1.028176236475010339e-04,1.496231025928389203e-03,6.211750513952172528e-04,1.850902289152145386e-01
-2.738944747495860033e-01,-4.622429115490638840e-01,-4.563560910958743833e-01,5.776021235108229785e-05,7.187746884351010673e-04,5.461624238737772166e-04,1.854817271232604980e-01
-2.730573531290423905e-01,-4.592764304908406037e-01,-4.548749531222360254e-01,6.751523777202256922e-04,3.958569309559444808e-05,-8.321481992537887366e-05,1.840616017580032349e-01
-2.657085748049728413e-01,-4.553420920417652340e-01,-4.448295786768159399e-01,-5.834273171962947417e-03,1.278852706808267584e-02,-2.564515656557968867e-03,1.862534433603286743e-01
-2.723131688927863392e-01,-4.603154147415509101e-01,-4.541413886790869325e-01,-4.297170816299604739e-04,8.958600162408285111e-04,4.497450269076006435e-05,1.850005388259887695e-01
-2.774555323574194876e-01,-4.678310454024536824e-01,-4.572387496456520872e-01,-1.228198448716928421e-03,4.834790500717253518e-03,-2.148108483437430577e-04,1.855082362890243530e-01
-3.109969357403108425e-01,-5.434051680515158411e-01,-5.402191510368976601e-01,-4.284291799506886878e-03,7.078215760923195661e-03,-1.340462813073140446e-03,2.312877923250198364e-01
-2.719803903396924571e-01,-4.546637402942975692e-01,-4.484290348569316964e-01,-3.411803204188127488e-03,2.308767023414267251e-03,-3.242583486671383585e-05,1.797888129949569702e-01
-3.197225603397873539e-01,-5.412995668060898158e-01,-4.827105468304271896e-01,1.369089975147244967e-02,5.932483772934323690e-02,4.377956566445045938e-02,2.375239878892898560e-01
-2.843504085814101967e-01,-4.839135421583368180e-01,-5.081399863674463946e-01,-1.028065236579302731e-02,7.516997434039898729e-03,-1.641675702791293903e-03,2.138732075691223145e-01
-3.036380640098524375e-01,-4.928207186338953161e-01,-5.119922677345459805e-01,-5.367457422891120516e-02,3.693149768199434357e-02,-3.685298095771889770e-02,2.378942221403121948e-01
-2.739918985724463796e-01,-4.597737090934009840e-01,-4.610507589612989898e-01,-2.830780680535268951e-03,2.009694006887512933e-03,4.467164480009539851e-04,1.865221709012985229e-01
-2.769437058441330812e-01,-4.637187105913855301e-01,-4.629052691033757605e-01,-2.402460453107146780e-03,1.827749555190772302e-03,4.254091478502410755e-04,1.864444017410278320e-01
-2.792233980206768607e-01,-4.691879442548654300e-01,-4.646073579889365979e-01,-1.546949490837557385e-03,-3.559253036637596672e-03,-1.089722378549666873e-03,1.878459751605987549e-01
-2.844928976878924320e-01,-4.785295260570147091e-01,-4.691785699548041144e-01,9.882982200275088839e-04,-3.902761787207885934e-03,-8.442447185901662829e-04,1.896681040525436401e-01
-2.806004742849291800e-01,-4.644467698416754331e-01,-4.646345678979163507e-01,1.767556192364940371e-03,-7.090398543620570794e-04,4.613545957911124374e-04,1.839715838432312012e-01
-2.801355576687718507e-01,-4.689587962884895767e-01,-4.659855469068068246e-01,1.452225595228749016e-03,-3.578506668219167026e-03,1.143849000957589861e-03,1.874841451644897461e-01
-2.723143565170944580e-01,-4.642974726728779644e-01,-4.600252016005748068e-01,1.409067171267208056e-03,-2.253435711229744183e-03,1.276118172101965188e-03,1.899516880512237549e-01
-2.697855716863304942e-01,-4.602160012348288642e-01,-4.549319668922759963e-01,-1.923794067043540145e-03,-1.090481217998866444e-02,1.759205315479123741e-03,1.888453364372253418e-01
-2.727432567855339052e-01,-4.618641212407238461e-01,-4.592427962164705724e-01,-1.869779634276864120e-03,-2.918213254782854333e-03,-1.293595123321760170e-03,1.879331916570663452e-01
-2.623174796413665355e-01,-4.427867803606766461e-01,-4.513631726325276761e-01,1.283259794029472690e-02,7.587197396228319637e-03,5.241052586700850613e-03,1.869214475154876709e-01
-2.807735035034881754e-01,-4.675423289469711752e-01,-4.706765566245906252e-01,4.061853392330743232e-03,5.160793432385504462e-04,7.015559917369271464e-04,1.884928792715072632e-01
-3.174392992198884489e-01,-4.057800863349011466e-01,-4.605046318585937493e-01,-1.872752831041357008e-02,1.136746000647774479e-02,-4.482462724048506819e-02,1.519896090030670166e-01
-2.801454596339170711e-01,-4.522028656230153154e-01,-4.296443656016949997e-01,-1.270830667740235898e-02,-1.763878984075743436e-02,1.259759695172953109e-02,1.677058786153793335e-01
-2.920001716386575463e-01,-4.368468847201741334e-01,-4.275606388639165423e-01,-7.643430946104820024e-03,-7.875007593556702544e-04,2.378834152430351571e-03,1.411234438419342041e-01
-2.867133477477679659e-01,-4.315125262280417040e-01,-4.257455015321402469e-01,-1.407187963190260037e-02,-5.703591506931815144e-03,2.441311027231630841e-03,1.444801986217498779e-01
-2.876790215311937349e-01,-4.275579451141145459e-01,-4.341610693128854503e-01,-1.161408641619605074e-02,-1.113695674585319165e-02,9.644790457547736118e-03,1.469325572252273560e-01
-2.812504223508692780e-01,-4.403184519627436622e-01,-3.992247464538972168e-01,-1.046495840139750368e-02,-1.185290692617908120e-02,3.449267949204041107e-03,1.457406878471374512e-01
-2.856665223260961284e-01,-4.537896619675890197e-01,-4.327662137106929041e-01,-7.241549725070127105e-03,-2.114819427154229943e-03,3.724142047953134683e-03,1.593273133039474487e-01
-2.886006092531548939e-01,-5.005478034570653989e-01,-4.732152067676150264e-01,-2.944950442055474168e-02,-2.680716342895820420e-02,2.734473796651015406e-02,2.165098488330841064e-01
-2.754555253104931101e-01,-4.415258944072480984e-01,-4.512368982135587792e-01,-1.303019071015843909e-03,-5.461928917965713434e-03,3.580750486716967486e-05,1.714088022708892822e-01
-2.754964025839414798e-01,-4.512935413386500172e-01,-4.508143977003113423e-01,1.535443368053334784e-07,-7.943065522885937044e-04,-1.323146385781297674e-04,1.755636036396026611e-01
-2.714856972999184492e-01,-4.462410281569600956e-01,-4.475030280864075727e-01,1.550291194315239112e-03,-7.942592936305141764e-04,-1.358405697218252183e-04,1.754158437252044678e-01
-2.755667902045809692e-01,-4.510682876409310982e-01,-4.512806643855677979e-01,9.334386143864254999e-04,-3.051280770285915366e-07,-2.237117320331218908e-04,1.756156533956527710e-01
-2.727223539144933429e-01,-4.513621717081419127e-01,-4.506708883035239754e-01,4.248171740354460160e-04,-7.284800313892862353e-04,4.002710197452782784e-04,1.783025115728378296e-01
-2.758172052769056748e-01,-4.471857235897370164e-01,-4.457647202235219819e-01,2.438137756897374147e-03,-8.473990811610805510e-04,-7.926179424911222737e-04,1.707265228033065796e-01
-2.721325831394270089e-01,-4.479447298432966962e-01,-4.450731519778567402e-01,2.120472658459546852e-03,-2.128123126890320294e-03,3.346305101514542696e-04,1.744726598262786865e-01
-3.312127232676468913e-01,-5.372526307460142592e-01,-4.510144152015342911e-01,2.058744398651132443e-02,5.934563546792791244e-02,3.485501402090849382e-02,2.181807011365890503e-01
-2.252515377507977035e-01,-4.816207952627690747e-01,-2.545498026727719965e-01,2.172436989613446903e-02,1.321089984827058805e-01,1.551630972602129760e-02,3.369998335838317871e-01
-2.923467647990043994e-01,-5.478331486643004400e-01,-4.154616669804093720e-01,1.031190918001067929e-02,1.479772665030330836e-01,8.441017717116380825e-02,3.692728579044342041e-01
-1.879982688978485694e-01,-4.001970557612605228e-01,-2.246466229102604684e-01,1.747071260342162105e-02,1.226465464544166800e-01,3.038239251620786230e-02,2.956453263759613037e-01
-2.911943555917903548e-01,-4.699059547815037097e-01,-4.220253741832057370e-01,5.786322526811748515e-04,4.923848697149003223e-03,-1.114926192879756462e-03,1.604712903499603271e-01
-4.262797641428535678e-01,-6.823767654626367030e-01,-3.209693058192169546e-01,1.094510131417796885e-02,7.320900096957215497e-02,6.138296954231999003e-02,3.624739050865173340e-01
-3.077701524642464381e-01,-4.318869163040636172e-01,-3.570782652733417439e-01,8.460530597992062946e-03,4.442273939608025121e-03,1.537921351895246182e-02,1.126933991909027100e-01
-3.374842183832416076e-01,-4.707574110654577093e-01,-2.621014426992671620e-01,1.745981722361058044e-02,5.203224664660014570e-02,8.787360558170434488e-02,2.563059031963348389e-01
-3.162253155849104047e-01,-4.091790762352543465e-01,-3.332996338633866240e-01,4.012211681388709247e-03,-1.682662262403023662e-02,1.001340743039117048e-01,1.957626342773437500e-01
-3.735557844150417806e-01,-4.664946636893382848e-01,-4.252785338939293891e-01,-1.384205463636429927e-02,-2.965145233727805793e-02,9.651367678545411111e-02,1.940693855285644531e-01
-3.125362307056191447e-01,-4.444554786324034779e-01,-3.605663177225742477e-01,-7.601522168066087402e-03,-8.625874141249375432e-03,2.506239830517998160e-02,1.251176297664642334e-01
-3.193397654808039499e-01,-3.770282709618028028e-01,-4.465295277876536462e-01,2.435361892215167235e-03,-9.140785873423003640e-04,-1.451584941297104185e-02,1.132265031337738037e-01
-2.577892082123555695e-01,-2.850231486371269107e-01,-2.271460484587082829e-01,1.584911274437288825e-02,2.328311760209342621e-02,1.596697373418516086e-01,2.852689921855926514e-01
-3.921954803090019204e-01,-5.195346036620506203e-01,-3.878304482972995126e-01,8.060363580573810457e-03,-1.858474527142056631e-02,1.831339504124415984e-01,3.444348573684692383e-01
-2.478851641345494183e-01,-2.681323060223271826e-01,-2.657670857922938557e-01,-3.605537717204722326e-02,-3.355775095394025742e-02,1.683282569368065029e-01,3.043833076953887939e-01
-3.411253790139233133e-01,-5.214768923648769317e-01,-3.181057330732877664e-01,5.840991267819956728e-02,6.505137357313550694e-02,1.412848955780786342e-01,3.464428782463073730e-01
-3.171202090317675193e-01,-4.059099902344029398e-01,-3.183030230140302397e-01,-1.500815032225567489e-02,-1.886029049985823991e-02,8.307034801386943557e-02,1.738531440496444702e-01
-2.890164972811351540e-01,-3.115234263941143444e-01,-3.997723089387495987e-01,1.196335112001280297e-04,-3.209411536943235221e-03,-5.795055384841463902e-02,1.427808851003646851e-01
-2.715295536197187554e-01,-4.565188664549603703e-01,-4.508223408120550779e-01,-1.019858704889576185e-03,2.095489045952948770e-04,-1.175581006543701892e-04,1.822168827056884766e-01
-2.719358322530358585e-01,-4.577015707705476277e-01,-4.529458959563484322e-01,-1.153473488938244621e-03,6.793771420075944830e-04,-6.915176103300560526e-05,1.834488362073898315e-01
-2.749497425658025129e-01,-4.600430616603596312e-01,-4.533210211075052731e-01,-2.205768259557620067e-03,3.527061063538522055e-04,-1.859190710795374309e-07,1.818666756153106689e-01
-2.758026333841815392e-01,-4.621284883995102621e-01,-4.558995167219138667e-01,-3.253163200088135618e-03,4.215750794975112528e-03,-5.210355776011709817e-04,1.835248917341232300e-01
-2.766208406402094200e-01,-4.630126648050655880e-01,-4.460071032715918204e-01,-2.987840986607273597e-03,8.451539646096883126e-04,-1.825011025694012483e-04,1.785789132118225098e-01
-2.767215527413340315e-01,-4.550975815621912668e-01,-4.302539096815903297e-01,-6.400942907607657176e-03,4.107898741040306827e-03,-1.986847748580141803e-03,1.678960472345352173e-01
-2.677060862067858760e-01,-4.490319818890545767e-01,-4.494746862876313753e-01,-1.533412595017794424e-03,1.532551801972108999e-03,-3.942021922884164902e-04,1.815877705812454224e-01
-2.800173087018618112e-01,-3.901435139929618767e-01,-4.454511445471196485e-01,2.073051627240545675e-02,-1.427797000241694779e-02,-6.558756743644700293e-03,1.526677161455154419e-01
-3.489388739902603565e-01,-2.699651967524408502e-01,-5.084666212198392099e-01,-2.831368419728745242e-02,3.957402530004015123e-02,-1.131922250174629829e-01,2.997084856033325195e-01
-2.564757502978944892e-01,-1.782696531874373436e-01,-4.043745993277225725e-01,5.399916594503833406e-02,-8.379956419201479989e-03,-4.519745738878667984e-02,2.337598949670791626e-01
-3.146853946979966121e-01,-4.606121057479939385e-01,-5.339926277677483624e-01,6.652563064436686768e-02,-1.598323195854630882e-02,-1.397801224132190663e-02,2.280723750591278076e-01
-3.215878935185216281e-01,-4.553108480197161634e-01,-5.325975935872878653e-01,5.854184052155638612e-02,-2.779162669720806889e-02,-4.815080633083992923e-02,2.318278402090072632e-01
-3.443185871047784175e-01,-3.564929601557607075e-01,-4.828346266487013039e-01,1.051809208621745512e-01,-1.668814771745440531e-02,-8.012402624295980602e-02,2.663319408893585205e-01
-3.322234148031050216e-01,-5.048535548835012543e-01,-4.967375712821736622e-01,4.595069402459712321e-02,-4.201770289605413072e-02,-5.042631386669109428e-02,2.184611409902572632e-01
-2.709563047881843878e-01,-4.540083979296879457e-01,-4.578556625285813975e-01,-1.046315028557104300e-03,1.073833892308555119e-03,2.014857571167824623e-04,1.850242763757705688e-01
-3.094948835778695839e-01,-3.545215634646192160e-01,-4.678587492825980743e-01,-1.485719157350877395e-02,5.499885342319687717e-03,-4.693069411151547937e-03,1.442045271396636963e-01
-2.717787228037533143e-01,-4.517584694289922820e-01,-4.570342471191026767e-01,-6.239863409745355924e-04,1.361487480429808550e-03,3.549836122996397688e-04,1.826942414045333862e-01
-2.706822440200395974e-01,-4.477829651792115118e-01,-4.565381560318172438e-01,-3.009871741214694123e-03,8.984099207818859291e-04,6.217523037612523366e-05,1.817181408405303955e-01
-2.731621139589368585e-01,-4.483126562667286708e-01,-4.497037478333741345e-01,-2.679446316941338450e-04,1.193941485501326220e-03,3.012411356895802294e-04,1.758637577295303345e-01
-2.719269744814408196e-01,-4.526510400732747241e-01,-4.589293006913658934e-01,-3.077901991884292657e-04,6.379534059201711965e-04,1.587380504535051268e-04,1.839478611946105957e-01
-2.736072597774757975e-01,-4.587103892413517681e-01,-4.623235824839613817e-01,-2.507738040036055441e-03,8.435088683195169582e-04,1.615814391334963814e-04,1.869922876358032227e-01
-2.891149729016828651e-01,-4.102266685905525678e-01,-2.792705761457142111e-01,3.900924161089463355e-02,5.107589924677299886e-02,9.246742503803778712e-02,2.323775142431259155e-01
-3.973264802409806062e-01,-5.646289978303942192e-01,-3.430710181399475589e-01,1.536302451109410484e-03,4.781914363845590071e-02,1.683213699684771303e-01,3.631448745727539062e-01
-3.614533420132551855e-01,-6.612593234744307269e-01,-3.155043374206158435e-01,1.151017676623818618e-02,8.785467235198070324e-02,5.048530759578186838e-02,3.700943291187286377e-01
-3.173580225623909845e-01,-4.596490361486015308e-01,-2.547299590382402501e-01,1.213504937989002587e-02,2.724873283368733218e-02,1.055594667255912722e-01,2.630172669887542725e-01
-3.135339876053913621e-01,-4.418126842694669043e-01,-3.912264606454925464e-01,1.322646163173136699e-03,7.879561047638308433e-03,3.195081933857264744e-02,1.256158053874969482e-01
-3.108542560416586165e-01,-3.954100630697944263e-01,-4.248444806154995090e-01,1.521451709259987600e-02,1.945344075797237129e-02,2.434729601029465840e-02,1.187983453273773193e-01
-3.130664054089264958e-01,-4.206028086894579854e-01,-4.094178192736434019e-01,2.149107368195554268e-03,-9.401764309767905725e-03,-4.158006790562235322e-02,1.263017356395721436e-01
-2.881545097689033885e-01,-4.641185609076091678e-01,-4.208297072913141368e-01,6.651124396335766518e-04,-4.037016697738773051e-03,-8.354105834869752882e-04,1.589726507663726807e-01
-3.226653387025129605e-01,-5.941504888166306841e-01,-5.000479729166211751e-01,1.066155248892524700e-02,-6.134577499357720537e-02,-7.144394295136617494e-03,2.622900605201721191e-01
-2.564088553444013874e-01,-4.472038384410498280e-01,-3.198364540931788458e-01,8.197977133980797332e-03,-6.321995954291345643e-02,-1.228071349582160639e-02,2.024067044258117676e-01
-3.014520146121280053e-01,-4.679979414391566284e-01,-3.849705465401419002e-01,3.410110932827498890e-03,-6.188110912644143556e-03,-8.840614975142431324e-04,1.447595506906509399e-01
-2.876086718804147790e-01,-4.789551766327909688e-01,-3.868796903049291358e-01,2.773985968429465779e-02,-3.980832231145137873e-02,-5.069640612527774592e-02,2.055384218692779541e-01
-2.930901061051974787e-01,-4.834724016517705780e-01,-4.033742497067752120e-01,4.025661515623994019e-02,-4.356566787327060403e-02,-3.406424028327120074e-02,2.035894542932510376e-01
-2.718495041553228297e-01,-4.631169296797819634e-01,-4.587425906239945284e-01,2.659001811718433601e-03,-1.337686426649272071e-02,-1.705359383257382252e-03,1.906107366085052490e-01
-2.966884971761655221e-01,-4.683119645130597863e-01,-3.881305288173181323e-01,-2.088827828570847048e-02,4.068517981652370469e-02,-2.095884779338554743e-02,1.723812371492385864e-01
-3.396743426302453184e-01,-3.217415088164810588e-01,-3.215355379220861121e-01,9.585805825021215601e-03,-3.508563770449667739e-03,-1.592905946469831691e-01,2.770530581474304199e-01
-3.782736315458777865e-01,-5.120801872243336827e-01,-3.858887990517461675e-01,-3.468924222279481245e-02,4.904634002943127763e-02,-1.981177501657666595e-01,3.814732134342193604e-01
-2.872484276459782437e-01,-4.407922841280637050e-01,-3.454334167276212342e-01,-8.174956754261310243e-03,1.681558696895670696e-02,-9.056226723167824788e-03,1.390039175748825073e-01
-3.222882457847967008e-01,-4.279890691834187799e-01,-4.366307784740965370e-01,3.465580112043354418e-03,-6.017651985099181644e-03,-1.978475487730773502e-02,1.161023527383804321e-01
-3.140560889936115374e-01,-4.760390579819671064e-01,-1.456970585448880973e-01,-2.119571692404357069e-02,3.326973246452327032e-02,-4.028827698089138681e-02,3.023117184638977051e-01
-3.597040954422195957e-01,-5.262927845305479524e-01,-3.448968026707235346e-01,1.251274064713914702e-03,-4.096232912165189734e-03,-4.745490211872713943e-02,1.929992586374282837e-01
-2.285336504763181564e-01,-2.271189995229189740e-01,-2.383470460153918613e-01,-4.948421071575064695e-02,4.373391885483379066e-02,-1.648988515008154021e-01,3.078491687774658203e-01
-2.970967040469599807e-01,-4.123996186212313120e-01,-3.903122121834693425e-01,-6.284717186285202102e-03,3.726584459140385233e-03,-1.074870856678286114e-02,1.083634272217750549e-01
-3.063185210952636961e-01,-4.376744476952236784e-01,-6.371681631231385090e-01,1.656761701702410272e-01,2.818329405830147585e-02,7.050202219279926019e-02,4.276646971702575684e-01
-2.589309577389715677e-01,-2.646768624748886967e-01,-4.177383463173681699e-01,8.928748711456932496e-02,3.465335396403960294e-02,7.618075441962393612e-02,2.631922662258148193e-01
-2.759675156439650445e-01,-3.742605919104832202e-01,-4.524554728565446937e-01,9.226476001358395462e-02,9.192721883734801536e-02,9.914247765624575881e-02,3.222419619560241699e-01
-1.916255084891501925e-01,-3.297483258816301110e-01,-4.085613150214960632e-01,1.221314344009605674e-01,7.345897680624133286e-02,6.332311056859785126e-02,3.303659260272979736e-01
-2.741524324248640898e-01,-4.608407989932432058e-01,-4.640030728155328243e-01,1.980784279597383197e-03,1.967417711021002009e-03,-1.990411863812160780e-03,1.883830577135086060e-01
-2.868587773963515719e-01,-5.016785067301161583e-01,-5.359482973287755803e-01,3.731836373668982049e-02,3.550549539934111376e-03,1.542264386131845383e-02,2.441580146551132202e-01
-2.683181130346400378e-01,-4.531272616119600971e-01,-4.512931654293910189e-01,2.519026631869195152e-03,-2.547146408459284323e-03,-1.228523304977948089e-03,1.840159147977828979e-01
-2.703590441158278956e-01,-4.468208815320893201e-01,-4.551899323086544547e-01,9.916600525437172312e-03,-8.108631448103397962e-03,-1.461831807194674407e-03,1.821656227111816406e-01
-2.703526818557109301e-01,-4.589709707478946132e-01,-4.586900521819559096e-01,6.184248867402039563e-04,-2.501331732364994037e-03,5.797192658256376764e-04,1.885334849357604980e-01
-2.740811126904825756e-01,-4.597330631811037405e-01,-4.592017274890030087e-01,2.832749087623529817e-03,-1.770926208070918925e-03,1.233510660033549028e-03,1.854894459247589111e-01
-2.735797566685839177e-01,-4.577393971192124100e-01,-4.595135056634956916e-01,1.063966702337033323e-03,-1.954309889803774059e-03,-4.557666322519787717e-04,1.850948929786682129e-01
-2.695149645411960004e-01,-4.547771667027879494e-01,-4.548629733964389965e-01,2.179296873562304795e-03,-2.486604184798927360e-03,-5.731117082828281759e-04,1.853962540626525879e-01
-2.701111285519426919e-01,-4.554032404573855608e-01,-4.522945506423921569e-01,1.238546115795498498e-03,-1.023108121647899006e-03,-2.364978646250652522e-05,1.837785542011260986e-01
-2.707757458574014953e-01,-4.463115550879006022e-01,-4.530977237667226376e-01,3.571841290191128584e-03,-3.747579059256509870e-03,-5.751477604665122725e-04,1.792525798082351685e-01
-2.788332268101783029e-01,-4.685966206731288497e-01,-4.662455922932730590e-01,4.013539002653894623e-05,-3.493556143929246217e-03,1.392447001003776380e-04,1.886960864067077637e-01
-2.851109343421626141e-01,-4.735453663525537316e-01,-4.496860930300625170e-01,-4.110539067283365371e-03,-1.236738652071214285e-02,3.690553303486889328e-03,1.792520582675933838e-01
-3.081007868548464312e-01,-5.629246567614030194e-01,-5.344394195991881702e-01,-2.211137952964117859e-02,-4.510670543888300327e-02,2.634061715168769732e-02,2.610363364219665527e-01
-2.642183646149300902e-01,-4.266535027606999098e-01,-4.188249364411499309e-01,-1.782564878305851336e-02,-1.799751457432988491e-02,1.780139481755805414e-02,1.674827933311462402e-01
-2.681348373720570111e-01,-4.165807532022477999e-01,-4.505699708718949870e-01,2.002833773589211136e-02,-8.993296332188975561e-03,-3.201072612836863840e-03,1.723769158124923706e-01
-2.735116791879717568e-01,-4.279690124714400357e-01,-4.568338905046074316e-01,7.489533331258071795e-03,-6.902318178184594852e-03,-2.068716265227631048e-04,1.716390848159790039e-01
-2.864900520045194909e-01,-4.279050412016215388e-01,-4.611379818012689702e-01,2.377340063676015337e-03,-5.771930777125236327e-03,3.278591510457894891e-04,1.609953045845031738e-01
-2.820857062569100404e-01,-3.973820784047811250e-01,-4.496766731940796680e-01,9.804561349304394269e-03,-8.743490487937303005e-03,-2.224954655585358477e-03,1.502995043992996216e-01
-3.069864883173295533e-01,-4.365138179209357427e-01,-3.727541359808684285e-01,3.079434266406943631e-03,1.406355258985883278e-03,1.135511640875582970e-02,1.140403598546981812e-01
-3.063232732584292295e-01,-4.304406616489137027e-01,-3.642067448490416970e-01,-6.362204839110262820e-03,-1.776742023739525528e-03,1.662125671439329544e-02,1.119418516755104065e-01
-3.037934672160219063e-01,-4.237009086770476274e-01,-3.598252475883942370e-01,4.576869817478321917e-03,3.889766964448722070e-03,1.644190890182777379e-02,1.082495748996734619e-01
-2.980769035993049987e-01,-4.435749658096309611e-01,-3.972946365521176637e-01,9.165734763873788910e-03,3.118079768288656815e-03,8.024511889632173281e-03,1.305842101573944092e-01
-3.059732114596525054e-01,-4.270831311271020558e-01,-3.569234725746854853e-01,1.319894112208482538e-02,2.726926634742666417e-02,5.808057241360270462e-02,1.548111587762832642e-01
-3.202246977145735696e-01,-4.047957784763991373e-01,-2.420836942680842652e-01,2.953101304384106104e-02,1.913626597857681633e-02,1.432929183212530988e-01,2.918564081192016602e-01
-3.395405185181125107e-01,-4.746455123442251400e-01,-3.191908864385449851e-01,7.743812626686437210e-03,4.316923041073563241e-03,3.461611285782397601e-02,1.588944196701049805e-01
-3.001006818671971277e-01,-3.913965521819312010e-01,-4.453486969661877293e-01,-1.981353679880852505e-03,9.049429784888186890e-03,-4.440118178387350741e-03,1.284055113792419434e-01
-3.105088631545365185e-01,-4.063885149035942890e-01,-4.867858629495394607e-01,-5.103737433519993892e-03,-2.596803097154638893e-03,-8.377910697441624116e-03,1.538637429475784302e-01
-2.752576625755996931e-01,-3.637513061620698540e-01,-4.524234270567981664e-01,-1.967550335552556776e-02,-7.991511974802963797e-03,4.004718965368790976e-03,1.579299569129943848e-01
-3.004024233717143000e-01,-2.636331144715469699e-01,-4.546459161704806129e-01,4.821018551536966970e-03,3.728684018384441877e-03,5.775097164199719663e-03,1.761418581008911133e-01
-4.271051802199855585e-01,-3.649458837693009272e-01,-5.981726528582748115e-01,-4.835257222193754117e-02,2.211286402932869516e-02,-1.659662466185055085e-01,3.672553896903991699e-01
-2.823992289640280262e-01,-4.617668564644162310e-01,-4.691745963560235988e-01,1.282334674877461415e-03,2.002973147877919668e-04,1.510638839977735282e-04,1.831978410482406616e-01
-3.267525067007829298e-01,-7.117713694174707673e-01,-8.473517768019578345e-01,9.691807641274165219e-02,1.228410863924893001e-02,5.232229687423821385e-02,5.056357383728027344e-01
-2.986213232829635356e-01,-5.644872306423214248e-01,-7.782924510348905311e-01,1.537033504346213553e-01,-4.013310096090072498e-02,4.926601931718236488e-02,5.061901211738586426e-01
-3.720500975551992995e-01,-7.987143139690369154e-01,-8.574900362837755141e-01,1.478877550414923470e-01,-6.111159554277154071e-02,-1.274567159458422222e-02,5.365426540374755859e-01
-2.957947866765636702e-01,-5.255587762773383798e-01,-5.216085401942660571e-01,6.796851248197981199e-02,1.094101089821691991e-01,1.158330412309364343e-01,3.767256736755371094e-01
-3.470958191181555685e-01,-5.493268492725500440e-01,-3.600202326062765246e-01,-8.647747541840243579e-03,-5.199925305848887569e-02,-3.330428224536493751e-04,2.163034081459045410e-01
-2.691706792827351369e-01,-4.493458469657677368e-01,-4.436580278028283697e-01,3.404022201918224366e-03,-2.159275444267474801e-03,-3.384899940750980395e-04,1.775379776954650879e-01
-2.747997699984845443e-01,-4.466556715693755786e-01,-4.395168447758262542e-01,6.863423769283496720e-03,-2.651521678621817594e-03,-1.267545336656606151e-03,1.688958108425140381e-01
-2.676279076347434782e-01,-4.552427708576957111e-01,-4.390271316426197501e-01,3.081668535416625179e-03,-8.537698570998036862e-03,-8.067070301653656884e-04,1.807459741830825806e-01
-2.624358590621918008e-01,-4.515660655412792601e-01,-4.026509936011756219e-01,5.458442996930506878e-03,-2.455753684362108058e-02,-6.185409252715245651e-03,1.758549958467483521e-01
-2.844806739076674029e-01,-4.658216332540761062e-01,-4.706766363336723491e-01,9.989551647143359026e-03,-5.117427923108872241e-03,-2.906182469577427933e-03,1.849102526903152466e-01
-2.878113443306516417e-01,-4.521484736272680660e-01,-4.062719723426008178e-01,1.083637260142878735e-02,-1.001367487552145760e-02,-3.508327149719989331e-03,1.492050886154174805e-01
-3.040645866112337004e-01,-5.390424129977434697e-01,-5.472621056203349488e-01,-6.054913352343331036e-03,1.220889057302697832e-02,7.624456071635065876e-03,2.407179772853851318e-01
-3.113142165826203178e-01,-5.969984766222566908e-01,-4.062972520596951909e-01,9.569775668417035419e-02,-1.106758191274571507e-01,-4.299916965613563569e-02,3.650623261928558350e-01
-2.809832549974005111e-01,-4.665678967198764182e-01,-4.645990347114745678e-01,1.620412175960355555e-03,-3.834693447255680104e-03,-1.405919365595463674e-03,1.847648918628692627e-01
-2.784101494012155009e-01,-4.626820520950901128e-01,-4.604041877536486083e-01,2.151459106950138079e-03,-3.113530925400123488e-03,-4.445917852817114963e-04,1.832624822854995728e-01
-3.021973493826009549e-01,-4.795542534615619967e-01,-4.791992073436249222e-01,-2.272748581386674859e-04,5.570887406083640950e-04,2.705550389841486058e-04,1.771833300590515137e-01
-2.855520209729619507e-01,-4.782385345826594691e-01,-4.479647991337433188e-01,3.282094722854799612e-03,-1.296902402318873826e-02,-2.837369483875894823e-03,1.810312271118164062e-01
-2.996441118301160778e-01,-4.144481543235374876e-01,-3.653849404372225274e-01,-3.197919831368179183e-03,-3.797297323842917151e-03,2.072289051835177198e-02,1.063802838325500488e-01
-3.122729997699436044e-01,-4.216710614060424911e-01,-4.163362448929684434e-01,7.054667015682599459e-04,-2.752332000465171650e-04,4.564824451662544483e-03,1.071308106184005737e-01
-2.928129929968821266e-01,-3.277476529666523697e-01,-4.202897439128880919e-01,-1.206882463615160071e-02,-9.099428596134495617e-03,4.971826691035189510e-02,1.453219950199127197e-01
-3.011076168856887114e-01,-3.542708719395188388e-01,-3.740532622860008871e-01,-1.109806660712172634e-02,-1.461792853838603246e-02,7.701534326520623197e-02,1.519013196229934692e-01
-3.078383877428407800e-01,-4.357634750981152494e-01,-3.850544980353981517e-01,2.896981222931279635e-03,1.232413172299499666e-03,6.831633649650204441e-03,1.123344376683235168e-01
-2.685780328967583563e-01,-4.376160458693479915e-01,-4.367680032272172608e-01,-6.564580706237326847e-03,-6.687533860352333492e-03,3.851575174873701768e-03,1.695263236761093140e-01
-3.071017534974088692e-01,-4.309689532116753319e-01,-4.016977972828552068e-01,-3.304260190988440610e-03,-2.580868948440588270e-03,5.212019958014521039e-03,1.127314493060112000e-01
-3.221645943769238518e-01,-4.339346968994064468e-01,-4.285259657851469006e-01,-2.241637946312737689e-03,2.196151821404706650e-04,2.855248350277470384e-02,1.199092492461204529e-01
-2.729256579126215221e-01,-4.519106292031938032e-01,-4.521874104144775197e-01,5.396599668265409776e-04,1.160119076539409180e-03,-2.417392585145889782e-04,1.791377216577529907e-01
-2.800471147854892706e-01,-4.489213550734577063e-01,-4.452715201208520268e-01,3.256686829292786524e-04,1.727922493979428984e-03,1.594570409271472413e-03,1.671297997236251831e-01
-2.817636559977942379e-01,-4.344716404509281760e-01,-4.365570372131457044e-01,3.691648283883253341e-03,3.984614821894526433e-03,2.182710159889177451e-03,1.540952473878860474e-01
-2.746932763671896538e-01,-4.395135715449182690e-01,-4.397863503576200372e-01,2.847256287174371788e-03,1.564517330561391055e-03,7.264051832534861248e-04,1.650575995445251465e-01
-2.786821079506314192e-01,-4.474870931389813844e-01,-4.522247850408284142e-01,1.542405680040670858e-03,4.515699322769851400e-03,-5.993999807782137692e-04,1.714255064725875854e-01
-2.796305997454587855e-01,-4.381376268055255374e-01,-4.429792389733795410e-01,2.323182459977148843e-03,4.805617597445601547e-03,9.713523325026244800e-04,1.612564772367477417e-01
-2.704820359390772699e-01,-4.482203538799682807e-01,-4.480434450400407886e-01,1.261384165586092740e-03,1.171991979788191817e-03,2.526020664935194494e-04,1.776755005121231079e-01
-2.716442661270794812e-01,-4.487795997006310822e-01,-4.488691734340408690e-01,4.519892430922020470e-04,1.680357941610531895e-03,1.448773770957573730e-05,1.772057712078094482e-01
-2.696169786526384504e-01,-4.497660707704290717e-01,-4.484730519270902493e-01,1.720987765401547041e-03,1.523022684253695115e-03,6.617474641529470531e-04,1.795538663864135742e-01
-2.849775101422910017e-01,-3.901109123377624055e-01,-4.599975818865776334e-01,-1.629562889574651813e-02,-3.799503335684648129e-03,1.722956114812520916e-03,1.553494781255722046e-01
-2.936789244338118832e-01,-4.751226191726335979e-01,-4.727098324440472954e-01,-2.834235472981627441e-03,2.853380377809627312e-03,-3.578808981792730177e-03,1.804904341697692871e-01
-2.996741830074271529e-01,-3.515175394242011642e-01,-4.643349194798258583e-01,-1.648313418665706478e-02,1.910926151127945519e-03,-4.630176588476762607e-04,1.486304402351379395e-01
-3.081940226334997091e-01,-4.041763618989627771e-01,-4.816896298940983590e-01,-5.120086060389490538e-03,-2.311475567777198097e-05,5.247437884300741769e-03,1.510697752237319946e-01
-2.825498394904755739e-01,-3.905228357537000594e-01,-4.611038046384490219e-01,-1.788813134682772088e-02,8.540183625731608691e-03,8.624154844286313799e-04,1.595044583082199097e-01
-2.590049102543007242e-01,-3.473190646782559066e-01,-4.503293545690429389e-01,-4.946363828188111295e-02,-2.218676323993809367e-03,-7.314967380423681616e-03,1.871443986892700195e-01
-2.766215723522151837e-01,-3.834543063288189946e-01,-4.521308068072227848e-01,-1.449916479706029465e-02,4.641296225443440442e-03,-1.067441241929375107e-03,1.554519683122634888e-01
-2.927716382609151791e-01,-4.439219199754836365e-01,-4.757355295765084979e-01,-1.696581449046832141e-02,2.235232725494224783e-03,-3.201653653618573812e-04,1.718893945217132568e-01
-2.975257243454351164e-01,-5.005648409915621766e-01,-5.180225349889435726e-01,-1.028093804211628326e-01,8.261804557153742956e-02,-1.378038784164609398e-01,3.927219212055206299e-01
-2.119061616412268312e-01,-4.447855125769540896e-01,-3.033619435542709852e-01,-1.242604795649000261e-02,1.066728695964599127e-01,-1.727312261034082141e-02,2.771180272102355957e-01
-2.293399123620988578e-01,-4.505573879045960406e-01,-4.351898840976828886e-01,-4.750031559018758759e-02,5.284671718894884407e-02,-4.328405297089981535e-02,2.579563260078430176e-01
-2.739705208348299781e-01,-4.760188772535010049e-01,-4.706508410992455982e-01,-4.922102292491309199e-03,1.040085984984955546e-02,5.546191523220625474e-03,2.006420940160751343e-01
-2.718171499160535465e-01,-4.629481749639859922e-01,-4.606391039860855963e-01,1.999173702746151124e-03,1.733438000041030366e-02,-2.480520714303236732e-03,1.924238950014114380e-01
-2.619331744085560132e-01,-4.505210311136536583e-01,-4.319960098109581481e-01,2.522360127428339115e-03,1.858330518830974068e-02,2.838964421930501958e-04,1.829489171504974365e-01
-2.901979738731952918e-01,-4.689190578254828212e-01,-4.749123852704961735e-01,-4.494058540155818288e-04,-3.016986187237274009e-03,1.506975601418480363e-03,1.818873435258865356e-01
-2.910035667034114315e-01,-4.782734835597742817e-01,-3.345020081358016095e-01,-1.875865034363102465e-02,5.942634684466081840e-02,-5.822401591494434647e-02,2.250254005193710327e-01
-3.002027182386984849e-01,-4.743651044017109797e-01,-4.720507929864041774e-01,5.716946433557830139e-04,1.552505063059726959e-03,-1.436789607899267331e-03,1.730584651231765747e-01
-2.923457940088971529e-01,-5.150878572410694245e-01,-4.887476797906655790e-01,5.501806064095705016e-03,1.017191437850164040e-02,-3.338831657184249298e-03,2.118382006883621216e-01
-2.935468805038637941e-01,-5.346847854660327082e-01,-4.998283942499191501e-01,-2.930866100106280323e-03,1.318987404208980634e-02,5.799823687991776977e-05,2.269470393657684326e-01
-2.665868366363001174e-01,-4.652960242811374769e-01,-4.581786668241113469e-01,1.215688783942527572e-02,1.184473331282597658e-02,2.449089667766165494e-03,1.974942237138748169e-01
-3.186989262360624409e-01,-5.805368720794081838e-01,-5.711034201216428352e-01,2.449953317894276381e-03,-3.721876079573795820e-02,4.294325467262293840e-03,2.653433680534362793e-01
-2.931499462537301426e-01,-4.868785832233456512e-01,-4.949490414125566895e-01,-8.636617772714256375e-03,5.896113083718111138e-03,9.424278208320683529e-04,1.987212300300598145e-01
-3.088206339690864333e-01,-4.866465473284113386e-01,-4.846002082868656191e-01,-4.580140748393513733e-04,-4.389966391247825941e-04,-3.628717750415997190e-03,1.769267171621322632e-01
-2.627255176069136500e-01,-4.101703110332414193e-01,-3.732355441474553004e-01,-3.207154715887631374e-02,-3.900571403793948178e-02,4.587175984079819302e-02,1.778230816125869751e-01
-2.332312422707113475e-01,-4.316771349372247046e-01,-3.556119296942688024e-01,6.546423778356273704e-02,-9.410215797187143627e-02,-6.569062936838346300e-02,2.871236503124237061e-01
-3.685399230364742595e-01,-5.305191735647484252e-01,-3.694855020177952865e-01,-1.367860021297324057e-02,-1.483246815219549722e-02,6.918868948886364167e-02,2.041263133287429810e-01
-2.981823504628722254e-01,-4.345344039942151682e-01,-3.736610143491692626e-01,1.103856948466719161e-02,9.533570047643772499e-03,1.356686249477532732e-02,1.232381314039230347e-01
-3.049186012087472530e-01,-4.506679818825168327e-01,-3.888300514601933378e-01,-2.621586242413097810e-03,-1.301642232855230660e-02,1.470458509580074326e-02,1.312689781188964844e-01
-2.350193286798669123e-01,-4.332714068031030541e-01,-4.209216463474557135e-01,2.065625015050509897e-02,3.160643038238998559e-02,1.865837253366291540e-02,2.057410627603530884e-01
-2.957836439652595240e-01,-4.375503094839566232e-01,-3.868613697014859909e-01,-8.011168751402134025e-03,-3.151892893326809983e-03,6.083355029436068526e-03,1.257557719945907593e-01
-2.998324170611632034e-01,-4.455638043773157420e-01,-3.674826567827578216e-01,-4.909245673157862366e-03,-1.259434323032916983e-02,2.830719335755983550e-03,1.285597980022430420e-01
-2.770967454646597328e-01,-3.747703394537206245e-01,-4.580547802111538669e-01,2.120611153050192682e-02,-3.452134932984005956e-03,-4.304816653895675825e-03,1.614049673080444336e-01
-3.119926014037673334e-01,-3.486771388291364238e-01,-4.972194920468522850e-01,3.379400646545777098e-02,-5.652342121779461818e-04,-6.378637921842812523e-03,1.800247728824615479e-01
-2.871247196536865776e-01,-3.578436905341678131e-01,-4.653871492641826757e-01,4.407853425633720401e-02,3.474067528132668194e-03,-8.203802659990376859e-04,1.733179390430450439e-01
-2.899148573263093942e-01,-4.274641256332677997e-01,-5.318636526846832746e-01,8.209793622480111852e-02,-2.237968738257995870e-03,3.418733765313159822e-03,2.538689374923706055e-01
-2.754578995313110013e-01,-4.321400544154235246e-01,-4.727321296183628618e-01,3.028314057772204734e-02,-2.157932418401685773e-02,-2.090912202773881345e-02,1.949791014194488525e-01
-3.587111312443078126e-01,-4.307215284741678363e-01,-6.023559251504068124e-01,8.815017712887952828e-02,7.197324134089123221e-03,-3.861015674026088695e-02,2.737559676170349121e-01
-2.873098363680583467e-01,-4.119941206746848827e-01,-4.583940216878719665e-01,1.968808938138091533e-02,4.333152919294936886e-03,7.452939720143706391e-03,1.577031761407852173e-01
-3.137968931117157134e-01,-2.954664325222416954e-01,-5.371054492695176430e-01,1.077155711148525541e-01,4.931840305250918127e-02,2.613028596053758659e-02,3.137663006782531738e-01
-2.666462878931917801e-01,-2.306404243968384060e-01,-4.382220184313838085e-01,7.903610666727985123e-02,2.690664515751713462e-02,5.606569735112384295e-02,2.593347132205963135e-01
-2.716764046581284786e-01,-2.416975265705171849e-01,-4.921633000214234999e-01,6.866354748866845825e-02,6.450955522659671156e-03,-4.081552345070303678e-02,2.745719850063323975e-01
-3.247809354225822953e-01,-4.218068241880127967e-01,-4.395305420163420629e-01,6.321442644363205621e-04,2.624278081855812347e-03,1.831831061729936871e-02,1.116975992918014526e-01
-3.017225788910070650e-01,-3.906626622224901868e-01,-4.185631828447693437e-01,-6.875135903994123582e-04,-3.149094809920540208e-03,9.585615353129534749e-03,1.071311011910438538e-01
-2.958764835500453660e-01,-4.266415072025145916e-01,-4.338529494245098594e-01,-1.029588609644473823e-02,-1.385383147630214057e-02,1.309286295243130595e-02,1.396516114473342896e-01
-3.172687085164271892e-01,-4.136157423931387522e-01,-5.558427298215999901e-01,-6.826848585752394449e-02,8.465019390082799237e-04,-2.469870076099106061e-03,2.391999661922454834e-01
-3.067611052737820865e-01,-5.439872952604969392e-01,-5.669053898810891834e-01,3.965928078345019869e-02,4.816409134173117723e-03,5.997272420236576113e-03,2.591029703617095947e-01
-3.004237099522806820e-01,-4.006865835972603929e-01,-3.988423625695175501e-01,1.157852899882057203e-04,-2.536348990656847255e-04,1.777693325309614991e-02,1.040164828300476074e-01
-3.077422748224198923e-01,-4.157257663968185191e-01,-4.310903809076112037e-01,-2.326265935766746746e-03,-5.210155297944532062e-03,3.122905295133582976e-03,1.169724762439727783e-01
-3.105454722621067698e-01,-4.212638761152215916e-01,-4.243324653047548245e-01,3.557319377598257108e-03,7.843667416818420187e-04,8.259814292803608488e-03,1.133676022291183472e-01
-3.058893298125756610e-01,-3.956156455016464624e-01,-4.210532641834192624e-01,3.020121065329778656e-03,3.786496293138497723e-03,1.075712456640333554e-02,1.067606285214424133e-01
-3.132176787056820677e-01,-4.185732561036174526e-01,-4.332454866420940576e-01,1.975892639385249533e-03,3.516074245297305147e-03,3.047207901849725668e-03,1.137432679533958435e-01
-3.019243085349046507e-01,-4.275131573423581188e-01,-4.006977520278165450e-01,-5.019034724610252352e-03,-3.798021720003580577e-03,5.817267000509673998e-03,1.155174374580383301e-01
-2.704805673841447211e-01,-4.508984996586579697e-01,-4.543107246047138337e-01,-4.046326665540683808e-04,6.655940352407462316e-04,3.729584117385905447e-04,1.821541637182235718e-01
-2.740505512836606816e-01,-4.554759785994983434e-01,-4.592741800302103106e-01,-7.522201418209224257e-03,6.110251904455613406e-03,6.908402206209763143e-04,1.841246634721755981e-01
-2.711279501147905169e-01,-4.527487145942928892e-01,-4.546846533733921447e-01,-4.816295856165594969e-04,6.963386503537556714e-04,5.287815167502786805e-05,1.826023459434509277e-01
-2.733172051374431200e-01,-4.498055345650922576e-01,-4.506856326221275189e-01,-3.262812717549238911e-04,9.287559375273322102e-04,-1.956374169403928259e-04,1.769385635852813721e-01
-2.710376203763429359e-01,-4.512434441141224828e-01,-4.550122273436045806e-01,-3.250850117799864596e-04,1.665526703613114676e-03,7.006945171348458743e-04,1.821472197771072388e-01
-2.723295148005463462e-01,-4.531061927347712626e-01,-4.504289751119277541e-01,-6.310074540355520463e-03,6.745858822977774012e-03,-2.777944089476138811e-03,1.802290678024291992e-01
-2.709092790268293194e-01,-4.559424517412877798e-01,-4.574509731146060298e-01,-2.715265574513225748e-03,2.367239484934593498e-03,1.434028360050500380e-04,1.858969330787658691e-01
-2.755097319988350502e-01,-4.332767983446280669e-01,-4.466142237272041071e-01,-4.439269961936167033e-03,7.861001840140297015e-03,-1.291775789835728720e-03,1.655960530042648315e-01
-3.026362694242790141e-01,-4.808389399677422404e-01,-4.774767099109279989e-01,1.419991705995202625e-03,6.509460906585239938e-04,-2.223595266147199200e-04,1.765667200088500977e-01
-3.029544259944463858e-01,-4.802063740874972786e-01,-4.752788770674667429e-01,1.838592995457227720e-03,1.541774287130992689e-03,-1.015241535151639859e-03,1.748985052108764648e-01
-2.810596595406362752e-01,-4.675440751649780902e-01,-4.657470787468226958e-01,-1.627574329923433963e-03,1.089256823233731219e-03,7.868867782642995643e-04,1.856284439563751221e-01
-2.989800993170047549e-01,-4.760080359566838948e-01,-4.717192387009266907e-01,4.370391276107618160e-04,1.219419108962837466e-03,1.816377405854665943e-03,1.749656498432159424e-01
-2.621956772475816377e-01,-4.661066837489074022e-01,-4.674894880647228468e-01,-1.498710139658805847e-02,3.462951969061004321e-03,1.938742584394187365e-03,2.063605338335037231e-01
-2.784723022426393579e-01,-4.664811123623222588e-01,-4.619213983726421779e-01,-2.135613708750462580e-03,3.004718066473515466e-03,-7.395827458090824822e-05,1.858806610107421875e-01
-3.049547038060628212e-01,-4.747296036850437995e-01,-4.767461874448821746e-01,-1.309319325533193695e-03,-2.096887853488628266e-03,-4.310108229526618084e-04,1.708474159240722656e-01
-2.943104698378192774e-01,-4.712964026782744953e-01,-4.747075726574880861e-01,-2.706138149028983024e-03,5.523804443230124448e-05,7.347170826538558389e-04,1.787819415330886841e-01
-2.904771618786312626e-01,-4.733455389791927370e-01,-4.744115362631958766e-01,1.619853377462781826e-03,-2.128590434376586175e-05,1.628205992504060411e-04,1.834253817796707153e-01
-1.410251329913755902e-01,-4.821490177687294820e-01,-4.821828151679310448e-01,-2.382281414335966560e-02,5.269608709909357619e-02,-9.387919906677580015e-03,3.559138178825378418e-01
-3.057544018601666136e-01,-4.214484982781219191e-01,-4.148074494768938525e-01,2.245772300766592667e-03,-7.155673882069507044e-04,-5.060027730840202520e-03,1.129352748394012451e-01
-3.140807397407159307e-01,-3.950817636679948563e-01,-4.370208784388464607e-01,-1.472681961203278365e-04,-2.806922109154769748e-03,-5.994988552241646215e-03,1.088516786694526672e-01
-3.059468090647605720e-01,-3.810519283654859590e-01,-4.418341908285723929e-01,3.357958969892555021e-03,-6.500540169449381574e-03,-9.549023025427212652e-03,1.197266504168510437e-01
-3.010521577815654659e-01,-4.124871939226760209e-01,-4.109011592115302536e-01,4.491018145351556579e-03,-3.567789632660309587e-03,-1.203012286069692419e-02,1.130327805876731873e-01
-3.143869925087917072e-01,-3.569177987582747291e-01,-4.492706865065548283e-01,7.212556956819013085e-03,-2.632478804023734038e-03,-4.886066426136035853e-03,1.204750686883926392e-01
-3.206943570403672505e-01,-3.851628300791158921e-01,-4.193541950782537220e-01,-8.398646244054664128e-04,6.286271635263537480e-03,-3.212349752539515185e-02,1.036625429987907410e-01
-2.736649059860573052e-01,-4.612338485908059615e-01,-4.581474596372058783e-01,3.596099623131800887e-04,3.794522403896480865e-04,2.471506278533522794e-04,1.860476434230804443e-01
-2.716311570827030786e-01,-4.577964292068238406e-01,-4.472717219646157871e-01,4.188116159039728843e-03,-3.839609739299372927e-03,-6.377244876099750701e-04,1.814028918743133545e-01
-2.691997862267881958e-01,-4.513933039063470209e-01,-4.460509128550536051e-01,4.574940575406949081e-03,-2.840873265696408721e-03,-4.618868199385794374e-04,1.798257827758789062e-01
-2.775906604945763134e-01,-4.415181202208524613e-01,-4.377713348290906414e-01,8.084813511747437551e-03,-7.072425341160260004e-03,-5.797272685464143795e-03,1.634595543146133423e-01
-3.083257467018838960e-01,-4.256755106377060338e-01,-4.280294444027006318e-01,2.003708329520810256e-03,1.560252918532827309e-03,1.387148593705513511e-03,1.186501681804656982e-01
-2.979360023671184243e-01,-4.153600928287279337e-01,-4.342991200274567976e-01,3.211777210922157639e-03,6.453059516267646394e-03,5.119208311924192296e-03,1.288623064756393433e-01
-3.072463921819569288e-01,-4.186752791562388110e-01,-4.343070797789017612e-01,1.650023084677118210e-03,5.922295308645495610e-03,4.642166520143133079e-03,1.207502484321594238e-01
-2.916549176830222634e-01,-3.698853710538062556e-01,-3.538869031138348609e-01,-1.702838857523901201e-03,-1.159499128033572276e-03,7.249369501014754635e-02,1.445791423320770264e-01
-2.956918857068578377e-01,-4.365909843470223151e-01,-4.314265435414528227e-01,5.007844514843022392e-03,2.030839713560146295e-03,7.649470063160942199e-04,1.387116611003875732e-01
-2.997435106466127541e-01,-4.330764696607726782e-01,-4.259756823948321336e-01,6.125191681158414060e-04,9.874798548720647214e-04,2.677766090632340435e-03,1.300265043973922729e-01
-2.877501310849276961e-01,-4.325844713290112886e-01,-4.441683745644635084e-01,2.148264434618822258e-03,6.846889861376102490e-03,1.894003362714802210e-03,1.515063196420669556e-01
-2.876153705403385885e-01,-4.369856530386442284e-01,-4.381409439426137697e-01,1.877138565009769857e-03,4.004741917455484010e-03,9.348009271387296756e-04,1.501555442810058594e-01
-2.945994487690185570e-01,-4.474833881018384085e-01,-4.396632584129535615e-01,8.808710723469259304e-03,9.092818983123383825e-03,7.325797707581107633e-03,1.512643396854400635e-01
-3.052734485414794197e-01,-7.076615236813116327e-01,-4.727230113327804406e-01,3.784960641636313239e-02,1.239195415525119887e-01,3.207151747737999048e-02,4.195563197135925293e-01
-3.118912192777203995e-01,-4.303832379098890271e-01,-4.345013441077444361e-01,-6.933781158717599799e-03,5.527385977194655166e-03,-1.648547675814022312e-02,1.248858720064163208e-01
-3.625841302617615058e-01,-4.412689528749713097e-01,-4.741574142534565328e-01,-2.630975566096988710e-02,1.757362832956973001e-02,-8.095880645515503293e-02,1.803520619869232178e-01
-3.001460537416359986e-01,-3.859421944077214284e-01,-4.139768675710445156e-01,1.391877014768525781e-04,2.217418761746782485e-03,-1.189883571158684671e-02,1.048415154218673706e-01
-2.901525665996232961e-01,-3.850204393324090923e-01,-4.086736019899595007e-01,-4.549896233586817745e-03,5.972870970803393319e-03,-1.202172654120768971e-02,1.113822534680366516e-01
-3.803526920554419766e-01,-4.365611410946070858e-01,-4.787794961442500830e-01,1.068010476463782284e-02,-2.022440121700998933e-02,-9.167451502424554810e-02,1.846529990434646606e-01
-3.173366963352249326e-01,-3.322696844180049180e-01,-4.688789802200445389e-01,-6.908183182111896775e-03,-1.626082030231862851e-03,-2.482299583298666623e-02,1.514091193675994873e-01
-2.746674347935827987e-01,-4.521237964797053532e-01,-4.531566600364979602e-01,6.040332871710777382e-04,-8.552149206923409172e-04,9.157033007843746184e-05,1.779843568801879883e-01
-2.723917245859456271e-01,-4.520257763740269663e-01,-4.524442653002124226e-01,9.575493515057280109e-05,-1.054226862107931388e-03,3.751629504399810688e-04,1.798541843891143799e-01
-2.732883912227138667e-01,-4.502488408991841551e-01,-4.503209846224971447e-01,3.939444473504246833e-04,-1.062622747711164514e-03,7.721129750952348452e-04,1.770124733448028564e-01
-2.728220766358370186e-01,-4.491758341371120955e-01,-4.491209359737844964e-01,9.585489331310109761e-04,-2.172780583882588570e-04,5.063812472854414479e-04,1.763367205858230591e-01
-2.856057392483499768e-01,-4.249640752327643600e-01,-4.523656119497904138e-01,1.931017863356017470e-03,-8.758991047418861198e-03,-3.313071424756801678e-03,1.557706594467163086e-01
-2.728368479888893527e-01,-4.537422432860495070e-01,-4.546596941326766506e-01,5.690982058257625532e-04,-1.402593546726037211e-03,7.832125557035434383e-04,1.813898831605911255e-01
-2.722997650686513338e-01,-4.509691569353216356e-01,-4.499148893180857089e-01,1.113464339194962472e-03,-1.269208504271568698e-03,2.237560349624776867e-04,1.781690269708633423e-01
-2.937237001103266687e-01,-4.241259141474887362e-01,-4.285265987857158620e-01,4.873302798836255320e-03,-4.280722855473003026e-03,-3.278457938563959870e-03,1.332532465457916260e-01
-3.055772553482462017e-01,-5.130937158242210305e-01,-5.717355004242543615e-01,3.798656077451986746e-02,-8.829792313917110124e-04,-1.261004606340673448e-02,2.519511580467224121e-01
-2.818902870361857937e-01,-4.696307497685245913e-01,-4.646174269427143511e-01,-1.896448148544621279e-03,-2.249484354489520149e-03,-1.775875111241491009e-04,1.853549927473068237e-01
-2.810087231685735043e-01,-4.822683523564397223e-01,-4.804061837503281751e-01,-1.478941197903339605e-04,-1.025896148667166871e-02,-1.584380885562557345e-03,2.011404037475585938e-01
-2.860653774501387137e-01,-4.751149972991297044e-01,-4.760609803312515487e-01,-1.205743067447395331e-03,-1.417796916295437125e-03,-1.274261164509470339e-03,1.895646452903747559e-01
-2.918605048514490985e-01,-5.191740471378846200e-01,-4.954068510415706728e-01,1.434730887978052059e-02,-2.556833489895069065e-03,-6.695785178079819225e-03,2.181865423917770386e-01
-2.954477856134793967e-01,-4.474371910749964654e-01,-4.375934638860840553e-01,-1.178073307256794974e-02,-1.542917826879444156e-02,6.840990140040002082e-03,1.515667140483856201e-01
-2.970333723887113031e-01,-4.308457661550940121e-01,-4.335083241189255365e-01,-6.446643519537283151e-03,-7.528871885762337089e-03,4.714650501349688244e-03,1.364937424659729004e-01
-2.740461070635316077e-01,-4.514591205129827589e-01,-4.644977622936756756e-01,4.205645847273861357e-03,-3.493232590199665377e-03,1.340107916283681628e-04,1.845218986272811890e-01
-2.768020675811447839e-01,-4.450801418024720735e-01,-4.629144398686652062e-01,1.631022201542116313e-03,-2.704832187803241604e-03,4.940709595104202188e-04,1.779532432556152344e-01
-2.752182018350481929e-01,-4.274130511841442992e-01,-4.550914761595229452e-01,1.104602334537360328e-02,-4.499485006445647084e-03,-6.670559908400310652e-04,1.690266132354736328e-01
-2.743571657642551731e-01,-3.778120851142470205e-01,-4.514299940613575868e-01,1.896761154729398671e-02,-3.380844726666921551e-03,-3.404996028699347130e-03,1.577562540769577026e-01
-2.675268672385837654e-01,-4.381017070373071087e-01,-4.526333973107211639e-01,7.235692335041617011e-03,-5.465848333091981662e-03,-5.841977559169124999e-03,1.792617291212081909e-01
-2.841042454443808429e-01,-3.909215798437234435e-01,-4.708175384219274173e-01,1.833042615489450383e-02,-1.598691324131660705e-03,4.302525161361380607e-04,1.653596609830856323e-01
-2.651561231882835212e-01,-4.732140038704495399e-01,-4.749569268436648062e-01,3.892350718629192935e-02,2.009240611218161832e-02,9.799572315351268853e-03,2.229306548833847046e-01
-2.893594544198360707e-01,-4.009162516128779719e-01,-4.800323557813780395e-01,2.012605703822604314e-02,-5.616472905909174022e-03,-1.094059722118188513e-02,1.708774864673614502e-01
-2.815233240255514136e-01,-4.171732438198409443e-01,-4.435432194247578286e-01,4.499315508375550249e-03,-9.166857272014045446e-03,-6.845280444791796738e-03,1.520748585462570190e-01
-2.911135365151394927e-01,-4.434613318723034103e-01,-4.380114762023485375e-01,-3.684625320737021977e-03,8.832869398207005918e-04,4.569080124838675741e-04,1.498431712388992310e-01
-2.863521407773493843e-01,-4.316085551609316617e-01,-4.317764314372098955e-01,-8.337063155276724881e-04,8.082991598271825834e-04,1.218075616358713954e-03,1.453696489334106445e-01
-2.934043375739803783e-01,-4.315416520879435947e-01,-4.311562713892628795e-01,-2.070293911538845775e-04,2.969304267650757327e-03,-8.094680337374144828e-04,1.380484551191329956e-01
-3.029231702852502872e-01,-4.796301904012119643e-01,-4.811673588039540594e-01,4.567100021042494627e-06,4.226908149033603199e-04,-1.882910751582081736e-03,1.775120645761489868e-01
-2.920537530914337210e-01,-4.198670201575039340e-01,-4.366751618101849530e-01,-7.714042400495156084e-03,8.249219890284511386e-03,-8.237333774148956206e-03,1.391160637140274048e-01
-2.842078085751816863e-01,-4.378791217866602192e-01,-4.274238626557344545e-01,-8.379998464541882006e-03,2.823804320918784673e-03,-5.370329292513774562e-04,1.495091021060943604e-01
-3.112741627675988942e-01,-4.286954086594215729e-01,-4.144997791809560961e-01,-1.860822564551500207e-03,-6.732353821102457317e-06,-2.525170681844146441e-03,1.111391633749008179e-01
-2.731788918197348148e-01,-4.587740936679642334e-01,-4.553294878426504821e-01,-1.260384309073185258e-03,1.975325079264875477e-03,-4.233475587758656631e-04,1.839433312416076660e-01
-2.750563123181776759e-01,-4.643566911006591358e-01,-4.624192833085646326e-01,3.272704508031776781e-03,9.561048646148533059e-03,-1.145518405872422225e-04,1.891508549451828003e-01
-2.735834973126515801e-01,-4.575470418847497611e-01,-4.234105203240126625e-01,5.286680949823134405e-03,9.942713741655210061e-03,3.671704216826025911e-03,1.707304269075393677e-01
-2.775394584791778807e-01,-4.586999187699931646e-01,-4.579719031400050211e-01,7.285224605055409287e-03,6.864133386416996184e-03,6.882787206132844971e-04,1.816308051347732544e-01
-2.633599014093623847e-01,-3.900103644547363024e-01,-3.813582616131356295e-01,6.443688745205250479e-02,6.455872283628359687e-02,8.915689126486538163e-02,2.526382505893707275e-01
-2.931848153011153979e-01,-4.449968123707966350e-01,-4.216571953261858408e-01,9.028242624627610610e-03,5.489973588904769122e-03,3.157469532912846651e-03,1.428749114274978638e-01
-2.749788788204162726e-01,-4.481291458837386443e-01,-3.834451002681913967e-01,8.323645460166362656e-03,1.396119656250468036e-02,5.352778768738123381e-03,1.544135063886642456e-01
-2.024037821390447245e-01,-4.252491150584249979e-01,-3.190534769883358046e-01,6.181639317776112252e-02,1.100455776178878714e-01,5.650564419974118957e-02,3.076441287994384766e-01
-2.710184983356293542e-01,-4.788256762564619406e-01,-4.465596936779179793e-01,2.792713002155153279e-03,1.917198518812223210e-02,3.646730271716274851e-03,1.966870725154876709e-01
-2.800449838754410781e-01,-4.685963173996053333e-01,-4.429967099449454992e-01,1.475875007345623649e-03,1.464009033449037260e-02,5.653449988285665822e-04,1.789709329605102539e-01
-2.669877123588435541e-01,-4.529286570064509077e-01,-4.117319867293159907e-01,8.697486681797907127e-03,2.277220884788259264e-02,6.566095720856578513e-03,1.747084856033325195e-01
-2.567298151706863818e-01,-4.496384781908054351e-01,-4.309703714940759656e-01,6.293138186521534533e-03,1.853860491393395996e-02,1.964091178832063581e-03,1.874098032712936401e-01
-2.981372940986582454e-01,-4.740738611123248569e-01,-4.361054125072502119e-01,9.216814104789231368e-03,1.760706186677294879e-02,1.301109282497638249e-02,1.655535548925399780e-01
-2.381513574509126485e-01,-3.903777500691615332e-01,-2.613014280044493876e-01,3.287516277444580554e-02,8.783754299250941255e-02,6.796721342090147888e-02,2.458292245864868164e-01
-2.773909931461122080e-01,-4.396160011708025173e-01,-4.473146899833343459e-01,3.037673760569406783e-03,-6.484578350018102566e-03,-1.734115928296429846e-04,1.666705310344696045e-01
-2.701469502813558798e-01,-4.532014030274891803e-01,-4.464049160620405243e-01,3.767637722342308260e-03,-4.188392120325527303e-03,-1.151426085363870368e-03,1.800283044576644897e-01
-2.834714454107709614e-01,-4.511642214327776235e-01,-4.451898711263891917e-01,5.897201163621757121e-03,-3.998860294166025654e-03,-2.698279547707068977e-03,1.653143912553787231e-01
-2.701967739850857919e-01,-4.546295483483471789e-01,-4.520263527035794371e-01,1.297154545776516227e-03,-7.474606167818636767e-04,2.533303608547004659e-04,1.831639409065246582e-01
-2.673324713480971226e-01,-4.509576953199243565e-01,-4.472177813115376099e-01,1.370330758556914446e-03,-1.162381189217763944e-03,-1.386801846650649768e-03,1.818266361951828003e-01
-2.739816257066135519e-01,-4.509070062844066085e-01,-4.368278182379747854e-01,5.203296659195884993e-03,-1.899808764167337490e-03,-2.171123603517855979e-03,1.706342250108718872e-01
-2.775364423137395287e-01,-4.492806010186876642e-01,-4.290636503788063938e-01,8.953877609881043947e-03,-6.831141219277721624e-03,-3.350222913538349490e-03,1.638499945402145386e-01
-2.833139310392969179e-01,-4.366592437872248711e-01,-4.243029941489462886e-01,8.675727334709790531e-03,-2.138101253681013152e-03,-3.542384361461227253e-03,1.484919339418411255e-01
-2.739135238331393274e-01,-4.509035652257900040e-01,-4.549502272669491698e-01,4.886251655507492346e-04,1.796737309708154812e-03,-1.877778070240254346e-04,1.790770143270492554e-01
-2.995146962594904538e-01,-5.270891502559986730e-01,-5.318172560574476737e-01,-3.472147119751444605e-02,2.999096868270282115e-02,-2.607909715323588479e-02,2.474751621484756470e-01
-2.863365514012049529e-01,-4.177202106473644760e-01,-4.206624011115956963e-01,1.131619456480787399e-02,8.893015027172291101e-03,1.307023882693686585e-02,1.370795369148254395e-01
-2.731508118482162684e-01,-4.570699366010216869e-01,-4.601175107094611638e-01,7.005363500025411395e-03,5.581025114933299731e-03,-7.594937726681672691e-04,1.861140429973602295e-01
-2.799002476422167152e-01,-4.460002350238517765e-01,-4.476796960796380342e-01,1.978951333909382843e-03,3.541864560427511726e-03,-9.747343956570643985e-04,1.671024113893508911e-01
-2.704942590301603333e-01,-4.494598876762108119e-01,-4.519102377170733931e-01,9.626498128396226419e-04,1.125012351837723339e-03,2.845973048921572970e-04,1.802222281694412231e-01
-2.719932489302510636e-01,-4.500479535864163605e-01,-4.543004648868183004e-01,3.613253152313859848e-04,1.367610314471731864e-03,-2.119711959953262314e-04,1.802356243133544922e-01
-2.616838807954120494e-01,-4.465008038958087067e-01,-4.293860296138362065e-01,3.227846976554790952e-03,1.013400987556029378e-02,4.341119348020912490e-04,1.778398901224136353e-01
-3.227758704669128620e-01,-4.654277234178434419e-01,-4.799030738996031276e-01,2.837612974842960295e-02,4.273421288949271618e-02,4.973280443755989655e-02,1.947776526212692261e-01
-2.709828513968939312e-01,-4.572228615658553430e-01,-4.539350638941364036e-01,1.198335584136805574e-03,8.952921319655562189e-04,8.779380143536783573e-05,1.846363097429275513e-01
-2.774766242012429163e-01,-4.641023243367897178e-01,-4.597526891631359969e-01,-3.766957427662438913e-03,-8.457469479628188305e-03,-1.391117599793513111e-05,1.851849704980850220e-01
-2.655537128544984693e-01,-4.659015514351124154e-01,-4.463520266383085300e-01,3.613806749778913224e-03,-1.979636548958732881e-02,-2.805624778758720756e-03,1.945333331823348999e-01
-3.068882034931096348e-01,-5.303687147275483182e-01,-4.581772861313737621e-01,1.494635831773080681e-02,-6.850218668152252555e-02,-2.599361017838443602e-02,2.362130284309387207e-01
-3.390532898154600128e-01,-6.353293149438665743e-01,-4.196933140581210475e-01,-1.834054930668239589e-02,-1.518188732435377386e-01,-2.954698168049278012e-02,3.783724308013916016e-01
-2.770441433850865942e-01,-4.528846159688308948e-01,-4.498993789332129678e-01,4.021762191171996542e-03,2.098856841414387456e-03,-5.340023453659580553e-04,1.745464205741882324e-01
-2.698230303192226676e-01,-4.504057732695525562e-01,-4.487075060426833351e-01,1.281689260507255009e-03,1.110841533799049883e-03,8.116408571753155107e-04,1.797691285610198975e-01
-2.713179846332981482e-01,-4.549248342723797855e-01,-4.513345658424152140e-01,2.026340495385619417e-03,1.339888744181865724e-04,-7.437735709215532879e-04,1.818768829107284546e-01
-2.705421957164866886e-01,-4.529621424772913851e-01,-4.503359006492951844e-01,1.417617962712798725e-03,1.235953242554651849e-03,2.614946274438843116e-04,1.811509579420089722e-01
-2.701649458901220768e-01,-4.505583052947129130e-01,-4.449913648158491108e-01,3.620539727724733647e-03,1.763359658711346253e-03,5.950730473892327285e-04,1.778151541948318481e-01
-2.727884419602026322e-01,-4.250656721686000283e-01,-4.244372031228489939e-01,7.111257234303469156e-03,7.284612673539238477e-03,5.362204351720805014e-03,1.532651782035827637e-01
-2.786959515465572412e-01,-4.501913519975355715e-01,-3.646110584882335526e-01,-3.189931372592074831e-03,2.351643826114826336e-02,-2.675335681260480360e-03,1.541723012924194336e-01
-2.918405003667617903e-01,-4.464129133503523805e-01,-3.512150290860359680e-01,-7.493501627311759464e-03,2.389425646927085395e-02,-2.246794840497225512e-02,1.470917761325836182e-01
-2.994746227733225963e-01,-4.394455290382686119e-01,-3.036198002556409481e-01,6.596658259656667730e-05,7.031864753493136458e-03,-2.508702499702859801e-02,1.451387703418731689e-01
-3.100060994760361344e-01,-4.734318151632248561e-01,-3.853017814524384299e-01,-9.890086895883779677e-03,2.162852266116346844e-02,-1.162607758514096028e-02,1.489109545946121216e-01
-2.671689697032784139e-01,-4.669954556056823969e-01,-4.681115710135153596e-01,-8.657485535725543274e-03,1.276797787758397924e-02,4.056562426869119581e-03,2.022824436426162720e-01
-3.082361433445571786e-01,-3.856704700324924961e-01,-4.715958907491873409e-01,1.473319395741408931e-02,1.125340905685231346e-02,2.862984737192506707e-02,1.533719450235366821e-01
-2.732029166966168932e-01,-3.787792303533947802e-01,-4.445545052188631385e-01,2.091028916651797853e-02,-4.750363296610491878e-03,-4.145969793258852051e-03,1.544281095266342163e-01
-3.034864248595380842e-01,-3.801570324072016116e-01,-4.730014356236972861e-01,4.695786015265050913e-03,-1.274433983523594544e-03,-1.722669988829130905e-04,1.472685188055038452e-01
-2.841886619520703761e-01,-3.423674528311204668e-01,-4.407437605110041678e-01,1.015737243002246340e-02,1.394098708949007871e-02,1.703869461186205414e-02,1.433513313531875610e-01
-2.772673750534672688e-01,-2.258847834758394291e-01,-4.204754350230965887e-01,5.185252141494915701e-02,2.326853649016317332e-02,7.487302337652924911e-02,2.387788891792297363e-01
-3.023845975797215258e-01,-3.885940616799276048e-01,-4.528493735229869310e-01,5.165812952252913336e-03,1.219383316482632214e-02,8.758909072524372411e-03,1.336282640695571899e-01
-2.765565602965127656e-01,-3.872875480997929332e-01,-4.485039243815476251e-01,1.740632251844064296e-02,4.192382938617565322e-03,2.204011562871973067e-03,1.541544348001480103e-01
-2.742361060746047463e-01,-4.574496500159117018e-01,-4.614460493747201131e-01,-7.897419592291692395e-03,2.406488544547297909e-03,-4.771147865462783575e-04,1.857970207929611206e-01
-2.784111094784792462e-01,-3.896763174996916712e-01,-4.545876188831836084e-01,-1.439868483642167164e-02,7.043097804534976733e-03,-5.965334811448410289e-03,1.571411192417144775e-01
-2.691271205874997685e-01,-4.416703278564262924e-01,-4.554089162402017443e-01,-5.455980021027972797e-03,3.987881899315280643e-03,-2.413376267273098681e-03,1.802356541156768799e-01
-3.871642927781244747e-01,-6.432186658220481190e-01,-7.909965092108319773e-01,-1.703638615316847849e-01,5.493318630634729666e-02,-5.968880754782899395e-02,4.817198812961578369e-01
-2.863736590872216770e-01,-4.281623344350062310e-01,-4.669115083860390647e-01,-1.872884154465757900e-02,2.069254348863685741e-03,1.209772565593699063e-03,1.678370237350463867e-01
-2.763127671337859970e-01,-4.550201968740146263e-01,-4.682761762336765110e-01,-9.984689812099319800e-03,-1.555547414943743651e-03,-1.751558377582571827e-03,1.865383386611938477e-01
-2.663633322544156634e-01,-4.365504207778523327e-01,-4.547579687713032004e-01,-7.443388742914430929e-03,-5.724891226126395567e-03,2.890348839193179840e-03,1.807856410741806030e-01
-2.688991340968071020e-01,-4.195272167757801429e-01,-4.530207895557187836e-01,-9.861401581082127402e-03,-4.242541075744797434e-03,4.037003643121321117e-04,1.708857566118240356e-01
-3.054381812779537464e-01,-4.393278831056814937e-01,-3.758563511557391768e-01,-1.322581121785303820e-02,1.870894417981318336e-02,-5.900479553153618190e-02,1.596134155988693237e-01
-3.391363658246220325e-01,-4.757041237679883738e-01,-4.017801695523314232e-01,1.199064166597301612e-02,-1.022273764923375960e-02,-3.144220971146776539e-02,1.331561207771301270e-01
-2.929487463329227825e-01,-4.733954324538964809e-01,-4.713093822225499774e-01,-8.434851721456949891e-04,5.288433916362082505e-04,4.586687248608180907e-04,1.794227957725524902e-01
-1.646094261113610624e-01,-3.303198440326995389e-01,-2.435545709017979399e-01,-7.410605165450824539e-02,1.121125904603583467e-01,-9.198769802648841531e-02,3.165095150470733643e-01
-3.261417966587131789e-01,-5.463307767113055879e-01,-4.931491812938473274e-01,-2.262183775135588951e-02,5.995047618928076028e-02,-3.232622322557716921e-02,2.346355468034744263e-01
-2.995274180184406831e-01,-4.765389172226714432e-01,-4.570186779186469761e-01,-1.745526109786885854e-02,2.361317184960266130e-02,-8.278256252983529420e-03,1.762135028839111328e-01
-3.618998538830238698e-01,-3.767817048983021500e-01,-4.156795897009854523e-01,-1.603050865209583106e-02,5.240323693299067664e-02,-1.616050075247437712e-01,2.994514107704162598e-01
-3.230245884555799085e-01,-4.611706371731466025e-01,-2.839775441174049453e-01,-1.216166338672189894e-02,4.035493267090037306e-02,-1.166482324906692875e-01,2.686129212379455566e-01
-3.339293717599525202e-01,-5.535567052571508384e-01,-2.766910050686565148e-01,-6.440256911437529375e-02,9.608388072094635468e-02,-1.493949448431269589e-01,4.137383997440338135e-01
-2.671598305606647239e-01,-4.696842570022824459e-01,-4.448421126260041492e-01,-8.914210996461965561e-03,-3.149401571707555192e-02,1.008368624449729493e-03,1.995474696159362793e-01
-2.384017392661973989e-01,-3.157383805000179566e-01,-3.349070838100840497e-01,-6.339114744203667995e-02,5.284003429055776635e-02,-1.112371009740425465e-01,2.557018399238586426e-01
-2.879878345172600107e-01,-3.816451078019654219e-01,-4.038691364353104718e-01,-1.271336438691709168e-02,1.217241517552626433e-02,-2.950736178223196948e-02,1.220183596014976501e-01
-3.384741022936497701e-01,-3.725095727776201460e-01,-2.241213539752852091e-01,-4.137398908465510228e-02,3.929034240057935334e-02,-1.607873609450664598e-01,3.247327506542205811e-01
-2.925483279838537731e-01,-4.344627921343664489e-01,-4.178662710254492652e-01,-1.100494552073068635e-02,1.215020930047625708e-02,-1.336528972821959121e-02,1.392909735441207886e-01
-3.580415734987985044e-01,-4.356354977771270121e-01,-4.860641782985609116e-01,-2.082008363714844129e-02,2.132233329509514858e-02,-7.488156148398671108e-02,1.787817776203155518e-01
-2.678277284118074086e-01,-4.832566476608348705e-01,-2.964522094051690315e-01,-1.295157035961228172e-02,-1.213358736814462574e-01,5.423038481752801704e-02,3.074990212917327881e-01
-2.051194210371121707e-01,-4.470142104441900965e-01,-4.303887385164022472e-01,6.915349357001153441e-02,-6.475328731579049757e-02,-2.977486140928945965e-02,2.904360294342041016e-01
-2.717861530968064820e-01,-4.590701075152547883e-01,-4.590647396511280398e-01,8.722457646977196943e-03,-8.482748579852601722e-03,6.341842332524949945e-04,1.884664297103881836e-01
-2.760530523656538615e-01,-4.626390549695856835e-01,-4.551979087836531268e-01,9.451963005880161667e-03,-1.245140338375029521e-02,-3.806484218991087153e-03,1.850888729095458984e-01
-2.765094784652734616e-01,-4.452481374806225300e-01,-4.143700856389577192e-01,2.500900630678364045e-02,-5.532721507970018993e-02,-2.623848808749877637e-02,1.932379305362701416e-01
-2.711507643240139709e-01,-4.596684057471449592e-01,-4.514133755109560608e-01,-4.493401369856499326e-04,2.514494228195259928e-03,5.913781208343589458e-04,1.845845282077789307e-01
-2.865947934146770848e-01,-6.026913445698008909e-01,-5.397370053315745375e-01,9.698757273754965436e-02,-6.331686727263544090e-02,-7.416087147070349328e-02,3.751359581947326660e-01
-2.329400761238946127e-01,-4.480160508034541911e-01,-3.233850083545944942e-01,2.052920549364359304e-02,-8.590704369495770487e-02,-5.832610179523129573e-02,2.619076967239379883e-01
-3.085233885904795081e-01,-6.586453036464651190e-01,-4.150716391630663860e-01,2.534660147098415257e-03,-1.098968765615250254e-01,-6.389784950076167480e-02,3.809633255004882812e-01
-2.782704407928096590e-01,-4.732199494620057956e-01,-4.780266353330281381e-01,3.490249974718175920e-03,-1.208339025145870396e-02,1.166269546207762122e-03,1.986054629087448120e-01
-3.097368877314980451e-01,-4.229444974757728959e-01,-4.208642505405363332e-01,-9.683624945312197495e-04,-2.810464879322284947e-04,-9.892411717079532731e-04,1.122086271643638611e-01
-3.094450206316323726e-01,-4.227503189064015232e-01,-4.148301706112038634e-01,-2.323986273886126993e-03,1.439191295711527460e-04,-3.466297936962068824e-03,1.097986102104187012e-01
-3.004602495140902829e-01,-4.166205222734841174e-01,-3.866841795574261775e-01,1.621789706885982474e-03,-1.143780742247724495e-03,-9.782655640784067644e-03,1.058815196156501770e-01
-2.796200132144880390e-01,-4.420103607662090317e-01,-4.413485711406688883e-01,5.061315109635503191e-03,-4.128272370535867285e-03,-4.421681678643183538e-03,1.626352518796920776e-01
-3.144442215630856019e-01,-4.341062994737305281e-01,-4.238915651329195344e-01,2.869191445697155500e-03,-3.068553615581767757e-03,-2.604428348483226428e-03,1.152142807841300964e-01
-3.121576201865888800e-01,-4.135006280694290548e-01,-4.283052402130174130e-01,-2.751976533082468846e-04,-7.013000791332593773e-04,-2.603096948677421398e-03,1.095990762114524841e-01
-3.044710030541137313e-01,-4.237915674151723211e-01,-4.195942766973234095e-01,-3.385254804360548087e-03,3.593676062906028118e-03,-5.848322400169044151e-03,1.180250942707061768e-01
-2.852805433138081437e-01,-3.514850474140638892e-01,-3.403631141439886210e-01,-8.488531417000181462e-03,1.291434019169823005e-02,-6.441563763337863902e-02,1.301347017288208008e-01
-3.047796422713272557e-01,-4.243534927117775801e-01,-4.257719691302084830e-01,4.546270010489259026e-04,-9.788344675635538873e-04,-9.534382025680874411e-04,1.203152164816856384e-01
-3.070371188712661126e-01,-4.207635798988063613e-01,-4.250947426117659966e-01,1.076474833405696160e-04,2.383495003137650311e-04,-2.045341025074371398e-03,1.160077154636383057e-01
-2.389711115811151976e-01,-4.635698337848345174e-01,-4.088392592405550863e-01,-4.125529419909615414e-02,-6.076919600320954129e-02,3.097476168429769486e-02,2.453784793615341187e-01
-2.795254643300043029e-01,-4.639811329266866347e-01,-4.621757757160850910e-01,-2.706466653945752403e-03,-1.984332843652413230e-03,3.956501580787236355e-05,1.836516708135604858e-01
-2.753469765669426250e-01,-4.568193850198241646e-01,-4.600841976052340021e-01,-7.358144507437570751e-03,-5.768090069689254390e-03,1.020718696494507570e-03,1.838497519493103027e-01
-2.974426597901784763e-01,-4.781151329421152729e-01,-4.750795691996732573e-01,3.645203006185050373e-04,1.196072003698658197e-03,-5.836043606512818878e-04,1.791899204254150391e-01
-2.868292833334605829e-01,-4.764565078151467570e-01,-4.634136889689747796e-01,-7.405570665627976773e-04,-1.811046720810677172e-03,2.430262027210384861e-03,1.835334599018096924e-01
-2.897527316221331084e-01,-4.730096652044089578e-01,-4.765646711208169073e-01,9.986413665556683958e-04,-3.337081103043806549e-03,7.978306438221990276e-04,1.851635277271270752e-01
-3.005112319724637659e-01,-4.795545448279702749e-01,-4.787805033087618733e-01,1.181146063807703449e-04,-7.857693155011944699e-04,-1.043564307158946144e-03,1.786720007658004761e-01
-2.854611066442187539e-01,-4.679248007955512101e-01,-4.661799865057573156e-01,1.376392552921839869e-04,-1.061004633378603412e-03,1.444707277988827423e-03,1.816242635250091553e-01
-2.827245486605494684e-01,-4.667078485761204654e-01,-4.657092883936487238e-01,7.534410013295585185e-04,1.018178056636374418e-03,-2.286812613262256344e-04,1.834996044635772705e-01
-2.871752778773487003e-01,-4.780666374217869552e-01,-4.743732627330429219e-01,1.749377637941020025e-02,-2.746302382533954978e-03,-5.914179459268099773e-04,1.915460526943206787e-01
-1.674489834403054267e-01,-3.715985562988010638e-01,-4.630825648689792517e-01,1.169623776753057204e-01,-3.197022427148692864e-02,-1.302259480434374284e-02,3.366577327251434326e-01
-3.043201242912738635e-01,-4.228187650232612116e-01,-4.200887545226487108e-01,4.146701216777255034e-03,-1.310614772189781395e-03,-2.148277484670705999e-03,1.174583435058593750e-01
-3.041430773617364025e-01,-4.164956022692763438e-01,-4.120676869896193195e-01,8.591519970303469018e-04,-4.527211412050825704e-04,-5.389313196030475449e-03,1.106127128005027771e-01
-2.974250629799951584e-01,-3.840350396274274658e-01,-4.102038839292512784e-01,2.048407364337510004e-04,-1.155954216800705479e-03,-9.689399767288177021e-03,1.036260947585105896e-01
-2.987413838595683879e-01,-4.098966401944614812e-01,-4.163151596651872843e-01,6.474891269093690886e-04,-2.655525621720108715e-03,-5.752167679201281893e-03,1.150296330451965332e-01
-3.099149927369941326e-01,-4.218603893867174381e-01,-4.214894866348295466e-01,-2.299423406429681126e-04,9.810178800843504920e-04,-6.603799583699740058e-03,1.123577505350112915e-01
-3.160166323818915934e-01,-4.262437693150790130e-01,-4.280062936057500989e-01,-7.681376283585121490e-04,-1.298839396485916781e-03,-7.448483438292084584e-03,1.118958294391632080e-01
-3.044875968181461334e-01,-4.161749432632580459e-01,-4.111626212808043301e-01,-3.983984490277222342e-04,-9.849779668906375948e-04,-4.769302639872176515e-03,1.095947027206420898e-01
-2.944567377256246399e-01,-4.036227782696579780e-01,-3.717191087973276131e-01,7.466705494536574582e-03,7.092013671293599143e-03,3.241103429662569452e-02,1.136742755770683289e-01
-3.109749448548314033e-01,-4.379267469685426684e-01,-4.321941318506440921e-01,7.528663337823260360e-03,4.231421170588707190e-03,6.816472225779695790e-03,1.256383955478668213e-01
-3.424599547051802029e-01,-4.563391712540552647e-01,-4.645575055896287719e-01,1.957772932074437755e-02,1.885692911397323507e-02,3.560574144807299168e-02,1.413924843072891235e-01
-3.108943941660507471e-01,-4.230970042164993727e-01,-4.266211452089014866e-01,6.378405374720871055e-04,2.599065586374842141e-03,7.573469142308959529e-04,1.141072735190391541e-01
-3.050999955508539307e-01,-4.180992883733845589e-01,-4.184778077138702757e-01,6.632077145634984001e-04,2.609431107505495446e-04,6.830876221083430041e-04,1.132019385695457458e-01
-3.154591054520847759e-01,-4.312541809212960264e-01,-4.169303966816326756e-01,-4.172605438457429754e-05,9.736528648121337243e-05,3.129978171238062198e-03,1.094736084342002869e-01
-3.050785359285260179e-01,-4.237084839935091329e-01,-3.934057749796882053e-01,2.717443652907850990e-03,6.396577802391375861e-04,9.969326886020589071e-03,1.082499548792839050e-01
-3.298790653014273544e-01,-4.887699778109219073e-01,-5.267773604326193571e-01,-4.971814900922402747e-02,-3.900535740692193803e-02,4.409860092179643948e-02,2.248197197914123535e-01
-3.678328791304882328e-01,-3.714256421491111682e-01,-4.925742045961514215e-01,-3.323945353289059490e-02,-5.107950331023412664e-03,1.778276744541721910e-01,3.367284536361694336e-01
-2.680610328539591025e-01,-4.438216793413808370e-01,-4.382313127040056155e-01,6.112995434475855874e-03,5.320464641090406899e-03,2.939911329237180401e-03,1.736762672662734985e-01
-2.820745089901469105e-01,-4.505405729827404171e-01,-4.431140146285655890e-01,9.210486952097007504e-03,8.324480886874006946e-03,3.063387810269319837e-03,1.663592159748077393e-01
-3.008000100427997148e-01,-4.501668874493808259e-01,-4.425217602062646027e-01,9.270482949733416939e-03,8.125720474122554923e-03,7.472165571923736031e-03,1.478187739849090576e-01
-2.732113053251525314e-01,-4.311153140493665936e-01,-4.474832278368187088e-01,4.951394289241541763e-03,7.593317416810000178e-03,1.795536924301945449e-03,1.674584746360778809e-01
-2.735569052939468837e-01,-4.512703551922706002e-01,-4.510334825472609999e-01,2.121491450000019541e-03,2.660652361152714401e-03,2.878577217516650310e-04,1.776936054229736328e-01
-2.746442159620886003e-01,-4.493713838543110795e-01,-4.479255419641673952e-01,1.607528733966192289e-03,9.098013439959670321e-04,-1.176954167461934531e-04,1.740382760763168335e-01
-2.708415338534519989e-01,-4.464617837038367676e-01,-4.521655068801763155e-01,2.714675961204289067e-03,3.516398905608143170e-03,5.182545542478837015e-04,1.787084341049194336e-01
-2.781149641585912158e-01,-4.515779637374631172e-01,-4.450094301093366345e-01,5.691720495117156414e-03,8.959913221274742792e-04,-8.432127305434626140e-04,1.705722361803054810e-01
-2.984717768264595894e-01,-3.744433615573085072e-01,-4.059837847067665484e-01,-3.803523631061901580e-03,7.132056100879595809e-03,-3.186542972290776904e-02,1.113771572709083557e-01
-2.920825674546172479e-01,-3.691164637294462314e-01,-4.294183733449564722e-01,-1.091644633776774412e-02,9.695463639678214562e-03,-1.975224389297810385e-02,1.265930384397506714e-01
-3.521004030471958091e-01,-5.082071634438025676e-01,-5.103154748446372402e-01,-5.453811607850628934e-02,5.425965934584434797e-02,-7.718562552395114018e-02,2.456243038177490234e-01
-3.177007596510713627e-01,-3.458147243414726457e-01,-4.772713352693105371e-01,1.407438578654954470e-03,7.854871214570226853e-04,-2.688565173135457759e-03,1.476363092660903931e-01
-2.857742995920458107e-01,-4.305428639852537653e-01,-4.407540866957450620e-01,-2.414860079036059825e-03,8.322051613577864312e-03,-1.355406673018739669e-03,1.509014517068862915e-01
-2.746780121934001562e-01,-4.597444083493988920e-01,-4.636097030033731747e-01,-9.322235638156315882e-03,-7.719681453395926211e-04,3.221701867539599937e-04,1.877302825450897217e-01
-2.912808911784954824e-01,-4.689336582453221824e-01,-4.683120517600338761e-01,-2.646900914988165412e-04,2.193545781027084890e-03,1.425784081704122453e-03,1.774012595415115356e-01
-3.068850117095929808e-01,-3.559920584607271232e-01,-4.640668070653629629e-01,1.246391158332410369e-02,-2.744893095081179027e-03,-2.282272919772356055e-03,1.410785615444183350e-01
-3.206615480643798533e-01,-3.537772295090220731e-01,-4.672681435526480076e-01,-1.969292430914237543e-03,5.033745433822549124e-03,-6.959645128872008965e-03,1.340452283620834351e-01
-3.146839726094505241e-01,-3.586864893511895191e-01,-4.636701566462919089e-01,-1.598329039962036527e-02,-1.455065426427113199e-03,1.081474267417104106e-03,1.354754418134689331e-01
-3.118664143821171519e-01,-3.592040224393499015e-01,-4.774266408313267429e-01,-2.123483763403748170e-02,5.603108256458834077e-03,-1.452373551141487862e-02,1.545754522085189819e-01
-2.933198160844184277e-01,-3.437636203334845098e-01,-4.505382904606501371e-01,-1.635363449019014426e-02,1.300196368733514904e-04,-3.105497506444939836e-03,1.419958919286727905e-01
-3.463632596712706846e-01,-2.679006447583667239e-01,-4.793873516594399087e-01,-8.004059425265085126e-02,-9.619503032236860485e-03,-1.247519957900697085e-01,3.169786930084228516e-01
-2.697991517351379653e-01,-1.535352086242558478e-01,-4.385071164398635091e-01,-4.428628089372640964e-02,-7.841921255681181049e-03,4.396672900019645697e-02,2.710385024547576904e-01
-3.663856129305168574e-01,-4.035342374006583022e-01,-5.046628798810567362e-01,-1.046561830639125140e-01,-4.002032948575385413e-02,1.710959971868303287e-01,3.752985000610351562e-01
-3.012688357717213106e-01,-4.374066279269357427e-01,-4.244172017611925196e-01,-1.394183719833758280e-02,-1.036934689614555337e-02,1.483328231863197642e-02,1.360134035348892212e-01
-2.236096787779223716e-01,-1.663924629241148312e-01,-4.170260222681400064e-01,-1.034402421260363913e-01,1.918922396610294595e-02,-3.378959098375591830e-02,2.972877025604248047e-01
-3.052118815988515421e-01,-4.401443566735770418e-01,-4.635219023833571095e-01,-1.555735753701184727e-02,-9.733199621153106051e-03,1.331332464635348080e-02,1.531329751014709473e-01
-1.963061670412285242e-01,-2.581296214420381041e-01,-2.438727442380912436e-01,-6.700809269930048384e-02,-6.439662390680370163e-02,1.351411174890595202e-01,2.895589470863342285e-01
-3.113934419199652637e-01,-4.346907686082414068e-01,-3.623918652095584059e-01,9.084373803102650108e-03,2.073767747324847810e-02,3.633456165366328455e-02,1.304355561733245850e-01
-3.079684574201020375e-01,-4.411683562315849016e-01,-3.467028285470625248e-01,-4.008474224392290924e-02,-6.324007807769697898e-02,9.842379899172977453e-02,2.448737770318984985e-01
-2.963996587531240179e-01,-3.768946786566019780e-01,-4.532181252975226449e-01,-3.401380050009420938e-03,-6.848297589088439205e-03,9.593594844281565226e-03,1.374768763780593872e-01
-3.086113586761854988e-01,-4.389885864265914428e-01,-3.676235722225729141e-01,-2.036883541888944869e-04,8.300664320218025189e-04,-2.509031490870524198e-02,1.211510524153709412e-01
-3.067049212927465685e-01,-4.540728950805322239e-01,-4.157733509522518189e-01,4.545023388768134470e-03,-1.076741350577430957e-02,-7.476260521328324457e-03,1.346013247966766357e-01
-3.158038145281601983e-01,-4.868260105677512661e-01,-3.099212119939452892e-01,1.335758324590530927e-02,-1.591990351327870340e-02,-5.319171113519781391e-02,2.001822441816329956e-01
-2.942523383981083263e-01,-4.724728817098272637e-01,-4.764466808754805327e-01,-3.651348978076212476e-04,8.126479306422476189e-04,-3.599078579545312803e-04,1.802479773759841919e-01
-3.155896983179454218e-01,-5.539359713522613582e-01,-3.661789965115137546e-01,-5.071495688489038173e-02,1.623257256784232661e-01,-2.368051004407501631e-02,3.684531152248382568e-01
-3.004694811027557311e-01,-4.413703602774137758e-01,-3.043235590925744694e-01,-1.535865651409848616e-04,6.832620658724634054e-03,-2.600995959126767287e-02,1.466101855039596558e-01
-3.338270197812189810e-01,-4.403110511210499567e-01,-4.448056020767724994e-01,4.143770170286904114e-02,-3.852570307880000267e-02,-6.642854190328607855e-02,1.862252354621887207e-01
-2.643058518568028870e-01,-3.391339520975890642e-01,-2.123861646602315523e-01,2.353537159354337181e-03,-4.016614040771379276e-03,-1.281515960478650518e-01,2.480190694332122803e-01
-3.465038005045718017e-01,-5.250174474673801051e-01,-2.423806358437020081e-01,9.867890886386506549e-03,-6.427268467115643258e-02,-1.207414307022669636e-01,3.430986702442169189e-01
-2.987286736010485444e-01,-3.970645705409695525e-01,-2.434205970500143146e-01,3.676729701851873255e-02,-3.144508762274711433e-02,-1.513119384696764436e-01,3.063910901546478271e-01
-2.968248579100613571e-01,-3.997220752022958012e-01,-3.900342589564617657e-01,-2.477649644771936707e-02,3.068848586550428081e-02,-6.879770626449013826e-02,1.689709722995758057e-01
-2.705335869574216900e-01,-3.705812568862518197e-01,-3.572792073823902181e-01,-3.937018969696706727e-02,3.498420622548271963e-02,-7.187070947712081992e-02,1.807582825422286987e-01
-3.001719950843175777e-01,-5.714524474755592331e-01,-7.013625373258896012e-01,-1.260083295525481206e-01,2.199869175835278065e-02,-1.016841337612497953e-01,4.536704719066619873e-01
-2.865849209649315998e-01,-4.515589104247518248e-01,-4.478759927025889875e-01,-7.424774578888098352e-03,5.234387372687819041e-03,-2.699122967845115229e-03,1.639872789382934570e-01
-2.348130542991532788e-01,-4.047423910831916549e-01,-4.318445577077583142e-01,-3.563965211795781102e-02,2.598181832309963066e-02,-2.067995361607274235e-02,2.033092677593231201e-01
-2.696195643274678644e-01,-4.251970875343995537e-01,-4.506831600665204274e-01,7.706396766896381374e-03,5.201007534299149741e-03,2.080904117868073114e-03,1.705616414546966553e-01
-3.289980195014431952e-01,-3.933492423517446213e-01,-6.643278037185733620e-01,-1.127495819035069791e-01,2.225875881270939979e-02,-4.812244002690459904e-02,3.762702941894531250e-01
-2.720216644750051982e-01,-4.527369663845187131e-01,-4.589962132435052578e-01,-1.238536532657681828e-02,6.926032675928258178e-03,-7.253541175017320583e-03,1.859846264123916626e-01
-2.718894024664221254e-01,-4.479403032556903419e-01,-4.547444033365597438e-01,2.570517317755926633e-03,3.380347572803692625e-03,1.129791474350189904e-04,1.797003746032714844e-01
-2.874801715532563362e-01,-4.701606527620129095e-01,-4.706196535776429601e-01,1.124599350917362224e-03,-6.621547431371876133e-04,1.346866090295025203e-04,1.829245239496231079e-01
-2.438084189404765012e-01,-3.946536127854499698e-01,-4.741574604637208701e-01,-9.451964510922657159e-02,4.537535158371933802e-02,-3.582849908593133126e-02,2.791014313697814941e-01
-3.319852941152648396e-01,-5.088831719443558388e-01,-3.917694487606473985e-01,-1.010665151932946433e-02,5.702929166887583251e-02,-2.556559588527097804e-02,1.905664354562759399e-01
-3.180949029527012639e-01,-4.629694086766293348e-01,-4.137930972241751770e-01,-1.148057255282547429e-02,1.622962806364704538e-02,-1.832905937066655472e-02,1.359264999628067017e-01
-3.641706160356683597e-01,-4.985692926320486329e-01,-3.703178504946017524e-01,-3.348728229571901888e-02,1.087616917604768835e-01,-1.676073232412089997e-01,3.747035861015319824e-01
-2.172858759925493655e-01,-1.978170408301120342e-01,-3.562750672853735034e-01,-7.145635209129644339e-02,3.415043922933001797e-02,-1.051345652039906292e-01,2.727262377738952637e-01
-3.212645475401130213e-01,-3.518271510704492622e-01,-4.593702334533725229e-01,-1.182189829089396321e-01,4.484526818370273421e-02,-9.597944013840925548e-02,3.022962510585784912e-01
-2.727474602860532893e-01,-4.624590166955701021e-01,-4.569765846421968147e-01,-2.043593119078577906e-04,1.289401195801839067e-03,7.933850373254381716e-04,1.870493292808532715e-01
-2.757975279397132939e-01,-4.617681490840951364e-01,-4.558659515452109789e-01,3.594008924496979937e-03,4.972161596655720606e-03,7.674298171875965904e-04,1.834038048982620239e-01
-2.722364428415670612e-01,-4.604349802692059845e-01,-4.553935167383290072e-01,1.355878314693127491e-03,2.274838219414888549e-03,4.141443737034766087e-04,1.857871413230895996e-01
-2.715875582561853019e-01,-4.599634067589590258e-01,-4.556318399533518804e-01,6.712372178862351883e-04,2.700688250518875743e-03,-9.489345210587021720e-04,1.863174587488174438e-01
-2.689963256405999981e-01,-4.583768609848397624e-01,-4.502831349923959725e-01,1.002300310077509915e-03,2.180852464292842505e-03,3.100569183134413626e-04,1.855135411024093628e-01
-2.743152594352235019e-01,-4.649805757887645608e-01,-4.588782208002109009e-01,-4.357945427332006482e-04,3.573524494500322432e-03,5.479940060410102740e-05,1.877921223640441895e-01
-2.682786987470504037e-01,-4.199772074823749368e-01,-4.486763569867666668e-01,8.460403571157596933e-03,1.704096276293333694e-03,-2.834844252352685724e-04,1.685627102851867676e-01
-3.052916821190866936e-01,-4.824197567947412502e-01,-4.826550563615369382e-01,1.121306753079200427e-03,-1.712525239850335888e-03,2.452662530298599722e-03,1.773321926593780518e-01
-2.596650394705838361e-01,-4.552143837027750051e-01,-4.745818992150287463e-01,-2.973270515492892202e-02,-7.683028947530557221e-03,-1.869350483760069204e-04,2.126763910055160522e-01
-2.845399440000558888e-01,-5.049710701969375437e-01,-4.847805811294521039e-01,-1.098801668660604608e-02,1.484991613778305179e-02,7.109609331880204983e-03,2.138278186321258545e-01
-2.802462354136020517e-01,-4.771666835185636169e-01,-4.760952478957086731e-01,-6.631485347306479046e-03,9.952471255936453515e-03,9.400961791571166249e-04,1.974830627441406250e-01
-3.029791483089872006e-01,-4.767723647309565771e-01,-4.768609670460425276e-01,1.160268980190607173e-03,-1.604351741395953915e-03,5.408368137459554359e-04,1.738738864660263062e-01
-2.986612382782694031e-01,-4.770792736668410527e-01,-4.744822508325965971e-01,5.481869535075899278e-04,-3.877759545964595302e-04,1.278864890290257964e-03,1.771514713764190674e-01
-2.535957797899392463e-01,-4.067681682288636913e-01,-3.849322551788372793e-01,-4.850486623316706963e-02,5.100411812680719081e-02,-4.567223586672076313e-02,2.042405754327774048e-01
-2.750727093521098121e-01,-4.617903765385789616e-01,-4.611301689393966785e-01,-9.750089045167205024e-03,9.088162242201948057e-03,4.034841168398084596e-04,1.878140419721603394e-01
-2.730436088769621628e-01,-4.514036863037101388e-01,-4.565356290233734682e-01,5.535555628708810436e-04,1.647704277140079384e-03,-5.981624419840080508e-04,1.810086369514465332e-01
-3.010604605037323633e-01,-4.779566793645338429e-01,-4.759398634529284355e-01,-1.136325079663046654e-03,1.536504095734510982e-03,1.090502806929384642e-04,1.759277284145355225e-01
-3.034118314485082513e-01,-4.736974292138297904e-01,-4.753848111526208231e-01,-1.397750652813832626e-03,3.598898268706493802e-04,-1.032150197968482661e-03,1.711631268262863159e-01
-3.085957494135225798e-01,-4.816909890926053817e-01,-4.797592418158210248e-01,7.103026514065434015e-04,8.980495310088209464e-04,-1.608827955695700052e-03,1.721714735031127930e-01
-3.035853852540318365e-01,-4.821530551581114099e-01,-4.790938229357050160e-01,4.934479033431314436e-03,-3.717182671308309153e-03,-5.558457050680089837e-04,1.773835271596908569e-01
-3.079307507201494154e-01,-4.891647074872357837e-01,-4.900139362946267507e-01,8.549853922295560724e-04,1.050801036406384713e-03,4.965946479556799381e-04,1.816772520542144775e-01
-2.041878878225017457e-01,-5.237181640461385790e-01,-5.545639581688550646e-01,-5.168959302848110532e-02,-6.340944740184309425e-02,1.629550264171705787e-02,3.657616376876831055e-01
-3.008936662509795745e-01,-4.772926344517105512e-01,-4.757080211357744282e-01,-9.679221618808238705e-05,5.271944333667348938e-04,-3.296679186763154127e-05,1.756144911050796509e-01
-2.932876283084523417e-01,-4.909229864213294769e-01,-4.829133737459087583e-01,7.159512423690552949e-03,-1.271905814160185924e-03,2.455782070216799059e-03,1.942102611064910889e-01
-2.783594340658815947e-01,-4.385064198094192900e-01,-4.416227258526545518e-01,-8.876168497081109166e-03,1.007216804760282386e-02,-6.818569610331915234e-03,1.638170331716537476e-01
-2.747362388872816030e-01,-4.493530887155243736e-01,-4.482161573652102549e-01,-1.643888498297388628e-03,1.535754110135097291e-03,7.037454780047211781e-04,1.740990430116653442e-01
-2.701473961352747755e-01,-4.417398746076717231e-01,-4.477019297428053157e-01,-5.095666337370166089e-03,5.030807003894807207e-03,-1.309363250615198969e-03,1.751043647527694702e-01
-2.734064722258988667e-01,-4.493172882446655469e-01,-4.502162383076607211e-01,-2.192749648709087175e-04,1.629605835734463520e-03,5.979241818293754528e-04,1.763880401849746704e-01
-2.722753421389785267e-01,-4.486155021748152727e-01,-4.450693126302829872e-01,-3.090964064400684736e-03,1.084187434444334368e-03,-1.098422266973738629e-03,1.746965944766998291e-01
-2.705698655854787971e-01,-4.510600616123076612e-01,-4.467167112780369709e-01,-3.424405537386519555e-03,2.482269778299249323e-03,-4.501781545551976045e-04,1.785102635622024536e-01
-2.985959704642011658e-01,-4.323181322439733631e-01,-4.583415725738193558e-01,9.992489184359697879e-03,-1.253849096629516997e-02,-1.046126032831827535e-02,1.521126329898834229e-01
-3.058391298407330816e-01,-3.797970828820556033e-01,-4.472366196793475801e-01,1.594133413006253164e-02,-1.658385299689437223e-02,-3.625359370011722177e-02,1.433037966489791870e-01
-2.701694169511195120e-01,-4.511305210975286029e-01,-4.452452215044319650e-01,6.051666225016165239e-03,-8.866016489795331898e-03,-4.137266660237597787e-03,1.792026311159133911e-01
-3.826510100490840283e-01,-4.940522741023060660e-01,-4.160255355837572666e-01,2.292797681537914710e-03,-2.072355467180160560e-02,-6.647401681919767880e-02,1.560983359813690186e-01
-2.808407340830039733e-01,-2.151276203405431131e-01,-3.915395319660847084e-01,-2.634051151910249411e-02,1.994651398948528789e-02,-1.119900588574920808e-01,2.544546723365783691e-01
-2.937364732771022280e-01,-3.709532137572446597e-01,-3.940914517445553988e-01,1.072520495024569280e-03,-3.399874555469550343e-03,-3.422289609348320993e-02,1.087943464517593384e-01
-3.367596188648944722e-01,-4.455729253319264949e-01,-4.335581949782107425e-01,8.799244201864522830e-03,-1.630787114545470193e-02,-3.536410555412837498e-02,1.243354603648185730e-01
-3.210586375258800418e-01,-4.400030753297147212e-01,-3.683147987281730762e-01,2.314625358048118774e-03,2.347807700989957419e-03,-2.868918740071007070e-02,1.151602566242218018e-01
-3.158657383781662831e-01,-3.871447572866281717e-01,-4.482471005616168735e-01,5.600295616911536321e-04,-4.997768279321255017e-03,-8.613282299634431732e-03,1.160514950752258301e-01
-3.073430581927021898e-01,-3.924165987378224751e-01,-4.196695482966677493e-01,-3.679910504615058718e-04,-1.059229495151187703e-03,-9.546702632026607058e-03,1.028393208980560303e-01
-3.203835345695831838e-01,-2.650736952805256008e-01,-3.862393490830343112e-01,5.121243206808850923e-02,-9.113162676609014648e-03,-1.156242142857952376e-01,2.434395402669906616e-01
-3.167918496305777154e-01,-3.911965497621338050e-01,-4.461157645380491310e-01,2.065164110500339757e-03,-5.413462990615666715e-03,-2.933204530519195607e-02,1.237749755382537842e-01
-2.704145818356507580e-01,-4.377329676617200960e-01,-3.682859508828170703e-01,3.416549409046505063e-03,1.555502076430611939e-02,-2.586524862976809138e-03,1.482549607753753662e-01
-3.030391018687810800e-01,-4.543855094777353720e-01,-3.624076994558200759e-01,7.214209030476525022e-03,1.443920216273460871e-02,2.022682567207190543e-02,1.394780278205871582e-01
-3.033103910865522224e-01,-4.551819399725828830e-01,-3.495163286423049187e-01,1.108115676641798376e-03,-8.121255092103145607e-04,-7.259328378359552678e-03,1.354486793279647827e-01
-3.928674350693469597e-01,-5.903991633418750329e-01,-2.644976470637070420e-01,2.561755662708009584e-02,-1.673972411811473771e-02,1.552944714968825524e-01,3.949851095676422119e-01
-3.209786103126941459e-01,-4.494578533039567669e-01,-3.889750673143352322e-01,1.929059081652228277e-03,5.397531361650090634e-03,2.704587055479237487e-02,1.211911812424659729e-01
-2.847062373512309064e-01,-4.424511730961662170e-01,-4.051390852368211837e-01,1.040542538611929739e-02,1.154870930339698017e-02,7.103916334275225605e-03,1.458293497562408447e-01
-3.451721002329631860e-01,-4.875695828030202628e-01,-3.025426853132870963e-01,7.175473437248496011e-03,2.996248893407319445e-03,9.836493478961375048e-02,2.395266294479370117e-01
-3.213941421157088252e-01,-5.132485391337019420e-01,-4.238296545550947481e-01,2.416507217412892233e-02,3.750377643705696262e-02,4.148942019005671250e-02,1.969365626573562622e-01
-2.795123872849557545e-01,-4.360399156267675824e-01,-1.886765004098833742e-01,-2.053975701661982234e-02,4.947340694116517806e-02,-4.642088090897163177e-02,2.490853965282440186e-01
-2.761613104752779768e-01,-4.502809342185631336e-01,-4.829713563184824254e-01,2.439840248383235224e-02,1.468556707222650436e-03,-9.546094685227404092e-03,1.978485584259033203e-01
-2.815586125887171720e-01,-4.728310543619970163e-01,-4.805575750199135854e-01,3.861279312163211960e-03,-1.066288347815333611e-02,1.644748758035138045e-03,1.962565928697586060e-01
-2.327509251476291841e-01,-4.205179274709334725e-01,-3.701096460198363136e-01,6.388657392930224832e-02,-8.648370761342707991e-02,-7.813117423254446747e-02,2.851817905902862549e-01
-2.699978457698204437e-01,-4.664140914652959991e-01,-4.402489547444820572e-01,3.431863633465704645e-03,-1.326438756903300376e-02,-5.953839455330464138e-03,1.865320503711700439e-01
-2.860598591878025232e-01,-4.702165509640173768e-01,-4.710916949491762984e-01,1.023495904648210800e-06,4.868101526729613055e-04,6.923792456388768802e-04,1.846016347408294678e-01
-2.816864808489882299e-01,-4.632302632744521032e-01,-4.588425513827201208e-01,8.287039290701756888e-04,-2.556991420271941158e-03,-3.244669063214386680e-04,1.794514656066894531e-01
-2.734163272287119528e-01,-4.526974358500530649e-01,-4.601917661083874123e-01,6.810090081336758056e-04,1.552865134156693845e-03,-4.939577337395652549e-04,1.831688582897186279e-01
-3.009274409566394248e-01,-4.088255541945946536e-01,-4.152425447225502886e-01,1.094779401998965083e-02,-9.810393829367292443e-03,-3.377433031418302506e-02,1.282418519258499146e-01
-3.196178830923218639e-01,-5.595942594464020647e-01,-5.628630007024911786e-01,4.033583373064741212e-02,-3.849907529595275602e-02,-1.746042429061051005e-02,2.619653344154357910e-01
-2.726014287754247034e-01,-4.591952744988674340e-01,-4.573675501275386024e-01,2.034879207456511459e-03,-1.618934289762119288e-03,1.270195371951800527e-03,1.857543736696243286e-01
-2.727996198804123473e-01,-4.628910483106757900e-01,-4.568012792113796960e-01,7.776192232846025143e-04,-6.506477917448200620e-04,7.955159593105344410e-05,1.871291697025299072e-01
-2.802214528327294230e-01,-4.667676231519953256e-01,-4.645122260686080917e-01,5.343997113932542724e-04,-2.676099999809727122e-03,2.395331353748041657e-04,1.854894608259201050e-01
-3.006135500655811033e-01,-5.057778932564603869e-01,-4.359534789594632920e-01,4.541279506425725636e-03,-3.090421324055734817e-02,9.718698257872934385e-03,1.893483996391296387e-01
-2.872172999536236060e-01,-4.456958031396763276e-01,-4.478143726517878620e-01,5.733162591965914635e-03,-5.568344246947255424e-03,9.834994983076864386e-04,1.601568013429641724e-01
-2.755826900668335577e-01,-4.484338562068236889e-01,-4.496160910341590045e-01,1.104370186511198114e-03,-1.319722491655986492e-03,4.035351965898977401e-04,1.734723150730133057e-01
-2.809854057481617207e-01,-4.498369384405634941e-01,-4.487277824971245832e-01,3.901115500116244671e-04,-1.347108257388605727e-03,-6.851392124370277951e-04,1.683214157819747925e-01
-2.767114941857203858e-01,-4.418145754410338077e-01,-4.359297651250789718e-01,5.038867683930773819e-03,-2.341141038520557546e-03,-6.413407316232319503e-04,1.625297069549560547e-01
-2.818385092582757490e-01,-4.472945129042638079e-01,-4.477541652360859104e-01,3.946421617181853671e-03,-3.453689431327712934e-03,-2.015432731670634397e-03,1.659718155860900879e-01
-2.761582820862990562e-01,-4.545263420022848666e-01,-4.513347550279380727e-01,3.436793636247242878e-03,-1.635936792566738095e-03,9.329326394968783355e-04,1.769241392612457275e-01
-2.728411903440185471e-01,-4.522423970778348123e-01,-4.508886961871009236e-01,1.233502746302169405e-03,-1.867477465280145286e-04,3.027702643351813509e-04,1.787420362234115601e-01
-2.745456049054308956e-01,-4.525213682808414406e-01,-4.523179235381112329e-01,2.087121995129494808e-03,-2.149148381595943243e-03,7.952440259374757639e-04,1.779551208019256592e-01
-2.876096977841746671e-01,-4.273347418975228518e-01,-4.622041435297150058e-01,-2.373809086246725202e-03,-4.557736752846538314e-03,6.335298362626184780e-04,1.602857410907745361e-01
-3.002728626933166556e-01,-4.289566600430789745e-01,-3.922738632604952369e-01,-7.660735474517369956e-03,-8.953047083947333895e-03,1.973743523789522891e-02,1.215314641594886780e-01
-2.741817064260178016e-01,-4.131419888010727237e-01,-4.738838001648606468e-01,-4.370711734186901593e-02,-9.453487374046248837e-03,6.008633225866163649e-03,1.937719732522964478e-01
-2.727786195240418099e-01,-3.738660488287744998e-01,-4.231874055703181980e-01,-1.419547422660770962e-02,-1.077307565126766654e-02,1.570167263321491438e-02,1.390301138162612915e-01
-2.721447664100974939e-01,-1.985728648248673289e-01,-4.846116954325974113e-01,-1.574259786487810786e-01,6.209522530004537959e-03,2.235032206111012016e-03,3.750547766685485840e-01
-2.118426105838343010e-01,-3.781042566727137455e-01,-4.180909316478744753e-01,-8.797973319771139333e-02,-6.243549089257301177e-02,5.173722280412240693e-02,2.807778716087341309e-01
-3.018377225816440967e-01,-4.342244727341192378e-01,-4.282111512260722286e-01,-3.629157880074852013e-03,1.093670931867159971e-03,-3.343672674152509865e-04,1.296524703502655029e-01
-2.959420734459328184e-01,-4.228618651545137941e-01,-4.218859989054133952e-01,-7.050070658768936831e-04,1.127254717919179677e-03,2.486154054432818572e-04,1.264563798904418945e-01
-3.055169754706011376e-01,-4.235613336485254399e-01,-4.246368334609001427e-01,-1.692809091554970833e-03,2.217170410515520527e-03,-9.632490741125419561e-04,1.186958774924278259e-01
-2.889072878797767086e-01,-4.239492266599103054e-01,-4.394251652723394352e-01,-4.434476990228942810e-03,9.287713711073107906e-03,-1.008116475259225944e-03,1.445218324661254883e-01
-2.982905701097272044e-01,-4.126796657280595304e-01,-4.313241843755655780e-01,-2.084359181845842242e-03,7.241136928208642340e-03,-6.092325460335996749e-03,1.258844584226608276e-01
-2.719956559094444670e-01,-4.512939564483032795e-01,-4.567358316781915395e-01,3.683296492098341967e-04,1.099400173997514690e-03,-1.374107201512761239e-04,1.820914745330810547e-01
-3.026725550410552246e-01,-4.166430613074251776e-01,-4.246280892385986827e-01,-2.607576865748258577e-03,4.729472235404063619e-03,-5.629650033086073743e-03,1.189355924725532532e-01
-3.128344620049066105e-01,-4.136405529271636183e-01,-4.315749850926010600e-01,1.553121289548935365e-04,8.539570592393118571e-05,-3.105517015358983095e-03,1.109974682331085205e-01
-2.703049997238424762e-01,-4.247110573669971578e-01,-4.434604437518159248e-01,-6.635064181084485493e-03,7.662653006487918882e-03,-2.279383546954208330e-03,1.655644774436950684e-01
-2.822930288019313005e-01,-4.328723360466376624e-01,-4.663851156207507453e-01,-2.524656335710628863e-02,7.777255426632195129e-03,-1.276778903439700422e-02,1.772744655609130859e-01
-2.695124752008412616e-01,-4.451284193490296359e-01,-4.515752779486658097e-01,-3.520183144256100200e-03,4.225964954700555179e-03,-6.965113299823026856e-04,1.791839897632598877e-01
-2.685002354022810733e-01,-4.489496574820621699e-01,-4.501781861647179972e-01,-1.441387437943712681e-03,1.104621123586631889e-03,-2.524283477241061986e-04,1.810946613550186157e-01
-2.756515590187863518e-01,-4.532535342313033788e-01,-4.557793177708736598e-01,-1.955725575149242640e-03,3.880205541945876916e-03,-2.347806691309548531e-04,1.790369600057601929e-01
-2.755411473703855973e-01,-4.655738242806936600e-01,-4.091098909068316969e-01,-1.248695984177119675e-02,6.821271426102148983e-02,-2.977441437657431505e-03,2.074220180511474609e-01
-2.719312754255374109e-01,-4.426426075004538663e-01,-4.420825641104139114e-01,-3.037378813540073715e-03,3.697891457793036143e-03,-9.343805445949669502e-04,1.706411093473434448e-01
-2.970306058568434882e-01,-4.244831104990211545e-01,-4.197174837345434839e-01,-4.737761117818078266e-03,1.871914209167980809e-03,-2.490240282877281830e-03,1.255225688219070435e-01
-2.681117805048864322e-01,-4.482081919432159833e-01,-4.470948004661661757e-01,-4.727005482215871561e-04,1.447091255018246930e-03,-4.142422452951376047e-04,1.795631051063537598e-01
-2.748552872276441295e-01,-4.526622489983256337e-01,-4.536567714993928191e-01,-2.400337038743795282e-03,3.429851775710160856e-03,1.566520138215376275e-04,1.784538775682449341e-01
-3.500120587452961729e-01,-3.974151619192244911e-01,-4.669650666344810075e-01,-5.067004296666324271e-03,1.285842987550352319e-02,7.420983609122867863e-02,1.657572537660598755e-01
-2.931522214805032944e-01,-3.701385593925783923e-01,-4.271835814623811678e-01,8.975333526491191191e-03,8.255157298733882196e-03,1.421257044358200002e-02,1.209331303834915161e-01
-3.126482107193931381e-01,-3.947834906561356605e-01,-4.165256203406250690e-01,-1.614377215883324584e-02,-6.907180460216283228e-03,3.822031115195592688e-02,1.196331381797790527e-01
-3.124806541895689405e-01,-3.941874696482195461e-01,-4.256491644017913467e-01,-6.909763053839496202e-04,-2.611239329595594952e-05,1.013857414562047143e-02,1.026951000094413757e-01
-3.169674271535944388e-01,-4.030604257870628038e-01,-4.475259854297311546e-01,3.868163966559227604e-03,5.806615538850985747e-03,5.687438596840238211e-03,1.160191521048545837e-01
-3.147973065664298464e-01,-3.473872938453085313e-01,-4.614765049273511499e-01,-7.469706521477045575e-04,-2.713828727813818922e-03,1.063389278850477605e-02,1.347576677799224854e-01
-3.073122758943784283e-01,-4.744476514879328310e-01,-3.971237998818289983e-01,-3.371268758928461489e-03,-2.690491281928908754e-02,1.476269597685988047e-02,1.544318348169326782e-01
-2.731456845728366667e-01,-4.569681180690853828e-01,-4.580115887398962804e-01,-4.980498947095075846e-03,-8.738066628211851525e-03,-4.487369781228621457e-04,1.851693093776702881e-01
-2.779616476470663788e-01,-4.658958211211068345e-01,-4.602953231166800885e-01,-1.828589622933880841e-04,-8.235825721744971517e-03,-2.445793910555156374e-04,1.857467591762542725e-01
-2.808268889145140723e-01,-4.558709463671918316e-01,-3.968930615241909043e-01,-6.432361927039059388e-03,-1.445366214262924255e-03,-1.812977503217801534e-03,1.547105014324188232e-01
-3.026924043368139916e-01,-4.782765427123185642e-01,-4.453925010238078963e-01,-8.752226440504273786e-03,-1.287280609325451575e-02,2.642884203208446456e-03,1.639668196439743042e-01
-2.843168836097110797e-01,-4.740979984889662768e-01,-4.709717148903954653e-01,-1.064314185183822719e-03,-1.251042510476195338e-03,-1.685098351121116014e-03,1.882815659046173096e-01
-2.995975224646006962e-01,-5.227974771802810228e-01,-3.755971460248278548e-01,2.141524595007268314e-02,-7.838600860796895997e-02,-2.132759758878798387e-02,2.445497661828994751e-01
-2.729454005967249519e-01,-4.600738654298889840e-01,-4.605901993441172682e-01,-2.741985362183731092e-03,3.180451122644085363e-03,1.013436090286591292e-03,1.875364780426025391e-01
-2.927280387292054975e-01,-4.765162280572352027e-01,-4.832398410165170688e-01,-9.353742750937251360e-04,-1.650146426464739512e-03,-2.150008553043173884e-03,1.873064041137695312e-01
-2.772938708993590851e-01,-4.649884597036000322e-01,-4.650356884865867180e-01,6.528653445003121251e-05,5.569534818889602078e-03,-2.273454509721055568e-03,1.880071908235549927e-01
-2.726208860359101704e-01,-4.610067831005131844e-01,-4.570301222806142372e-01,-1.546336584048095845e-03,1.759891768286138240e-03,1.977367597298084476e-04,1.864738464355468750e-01
-2.700831820111535553e-01,-4.742163084792155869e-01,-4.915641085653950082e-01,-3.724463248780000152e-02,6.035060271541404456e-04,-1.177145976999571103e-02,2.238097935914993286e-01
-2.902485470521896094e-01,-4.517404589502929668e-01,-4.179244155587080733e-01,-1.260084214303544906e-02,1.531654290410247761e-02,-1.364457345581402033e-02,1.532997041940689087e-01
-3.275106757118760870e-01,-4.332502191780206457e-01,-6.781018663106439526e-01,1.952869496904846847e-01,3.186360642174210916e-02,-4.338007796339971717e-02,4.691759049892425537e-01
-2.878214868108487368e-01,-4.843988059195694085e-01,-5.556645974266747334e-01,8.808170934763616400e-02,-1.009343031154879763e-02,1.163670646332825610e-02,2.858631312847137451e-01
-4.154009568512598283e-01,-4.637958681074497158e-01,-6.491893377827537837e-01,1.524561646540869286e-01,-7.690809224093154983e-02,-1.478941115283198549e-01,4.458431601524353027e-01
-3.598881803484137443e-01,-3.271523353413493540e-01,-6.908290953770291898e-01,1.510850496610045834e-01,-3.538076751004821940e-02,4.109763491741118963e-03,4.401287436485290527e-01
-2.357921250575469585e-01,-2.993441733494183743e-01,-4.860955624245512641e-01,1.430320660782021247e-01,1.596271929194264735e-02,1.431606233855823272e-02,3.369527757167816162e-01
-1.610049471099462837e-01,-3.527957296066143722e-01,-4.732558071946957323e-01,1.260418804661001813e-01,-2.754544759967887668e-02,-1.026672166426255937e-02,3.530575037002563477e-01
-2.792883541327644270e-01,-3.824906567492469822e-01,-5.295538614146930723e-01,7.235048085085429848e-02,-4.977468065544896417e-03,-2.504265849180329490e-02,2.551765441894531250e-01
-2.727956635665896856e-01,-4.688917548950641834e-01,-4.689425968727904404e-01,-2.358196074425438805e-03,-1.221579019972885219e-02,1.869580865758375173e-03,1.973283886909484863e-01
-2.725391064404263375e-01,-4.604780410990325090e-01,-4.602852246519431034e-01,-1.003769675952659313e-02,-1.373344284859622649e-02,1.882083701638472689e-03,1.901671886444091797e-01
-2.766282240884191945e-01,-4.564789520939084300e-01,-4.304117704143612388e-01,6.807495365558796120e-03,7.966697380611726179e-03,9.832705726422845665e-04,1.693219244480133057e-01
-2.733265127121741744e-01,-4.591066259296249230e-01,-4.422759121733990662e-01,2.226386039312751308e-03,3.385886910879519116e-04,-5.959531921991496938e-04,1.780084073543548584e-01
-2.782160530328753323e-01,-4.605251460954921106e-01,-4.433283201290947884e-01,5.334297677672181388e-03,1.052074372809244044e-03,-2.596766336216591812e-04,1.746026575565338135e-01
-2.954788820181693532e-01,-3.788843089805842279e-01,-5.086624712690454020e-01,6.294669038436544184e-02,-6.000865593897976996e-03,-1.523550057545658074e-02,2.175184786319732666e-01
-2.870659036733513858e-01,-2.585861973213411380e-01,-4.324818135539032493e-01,2.649975850782907393e-03,-3.041278429914908051e-03,-9.395744092943891443e-03,1.625175029039382935e-01
-3.425667975934485465e-01,-3.344875009598857751e-01,-5.503587412257776590e-01,-2.840973639018194805e-03,7.405435632603436791e-03,1.636446706433878490e-02,2.142748236656188965e-01
-2.692424816217531824e-01,-2.451464915778338027e-01,-4.458404194668428855e-01,8.742407194984558316e-02,-1.912485053576126054e-02,-3.149850405593185299e-02,2.510485947132110596e-01
-3.107206538709254007e-01,-3.688349610561866831e-01,-4.630266357579045366e-01,9.727469531703348757e-03,-2.428619484165287206e-03,-2.352035071221553197e-02,1.403011530637741089e-01
-3.312243937206177380e-01,-3.805796159095224951e-01,-5.135953111754636424e-01,2.362453569070538384e-02,-5.056099652278998706e-03,-3.509541974206716042e-02,1.792770028114318848e-01
-2.637195532462401348e-01,-4.465230698203120907e-01,-3.986488518925434543e-01,-8.298610777330081914e-03,-2.728908291697841604e-02,8.732488653940717604e-03,1.721247881650924683e-01
-3.087501438822828348e-01,-1.279461985368545440e-01,-4.602357061370031532e-01,5.126358464443386831e-02,-6.626898984673113870e-03,4.419393058193115884e-03,3.018299639225006104e-01
-2.807792051368791508e-01,-2.311595636060062575e-01,-4.273915158249325108e-01,4.700074244664171480e-02,-1.637742877989606036e-02,-7.843885655431584447e-02,2.390020042657852173e-01
-2.026447888805213704e-01,-3.174927577877580953e-01,-2.428478676454416119e-01,-7.767162825803550219e-02,-9.386724593339684786e-02,1.123043585017287904e-01,3.042330145835876465e-01
-2.477493303284487303e-01,-5.663246614489965136e-01,-4.888406619186573265e-01,-7.384670450861104130e-02,-1.662942126250229469e-01,1.542514538820592869e-02,4.276033639907836914e-01
-2.758088590792431294e-01,-4.575397493661912396e-01,-4.533760912733803550e-01,-1.914077963755054720e-02,-1.039226606481471506e-02,9.857058543634044170e-03,1.843946278095245361e-01
-2.701066184856255048e-01,-4.485069112404171943e-01,-4.565117764397931266e-01,-1.116215356336014083e-02,-7.326046296912242309e-03,4.785710924047225333e-03,1.841801106929779053e-01
-2.942210232364902978e-01,-5.006362782948089452e-01,-5.252137505080358704e-01,-4.782964443051520437e-02,-2.807153751350452420e-02,2.176319655697383712e-02,2.427600473165512085e-01
-2.799392858542107954e-01,-4.663016328728012971e-01,-4.707328079964723799e-01,-6.156321167402318759e-03,-5.469484482274405458e-03,-3.087852485661723382e-03,1.892311125993728638e-01
-3.278348920889818663e-01,-5.805717528266991501e-01,-5.765775911435521150e-01,-2.065470794694587026e-02,-1.180229573197162304e-02,-1.089482483980465377e-02,2.548258900642395020e-01
-2.770723263690942906e-01,-4.484667235373325234e-01,-4.477921937383741446e-01,2.319088372013448657e-03,-2.293154624380283092e-03,-1.133287263881275738e-03,1.711626350879669189e-01
-2.850634130113873788e-01,-4.309052359320056924e-01,-4.329302933114591023e-01,3.810629152301200136e-03,-1.076908744085948357e-03,-1.788268888935445845e-03,1.470575183629989624e-01
-2.907162966584149744e-01,-4.396615041479521313e-01,-4.429614365712051804e-01,1.172398864536678851e-03,-7.789703595716396386e-04,-2.067449798427259053e-03,1.506845802068710327e-01
-2.869272591504501424e-01,-4.436649193340045927e-01,-4.433915791971709819e-01,1.254504008991228587e-03,-3.092398891371592531e-03,2.321962786949205052e-05,1.567078083753585815e-01
-2.876283760503560161e-01,-4.378679924919103295e-01,-4.345019053365370421e-01,4.331286082680448589e-03,-1.585521762716865903e-03,-6.090873764944682153e-04,1.488035172224044800e-01
-2.782494478692683626e-01,-4.428011660676842154e-01,-4.359745494652616515e-01,5.709805169154402379e-03,-1.950630603347103687e-03,-7.830690867668391088e-04,1.615908443927764893e-01
-3.042710195988169719e-01,-4.252121955970237233e-01,-4.233206312470104704e-01,1.707046302220264046e-03,2.779764548091194390e-04,-7.097581822993917315e-04,1.200502514839172363e-01
-2.908570010083121882e-01,-4.260035378656725769e-01,-4.238267523048210861e-01,6.237459409725734129e-03,-5.652720685396383712e-03,-5.339726541610729724e-03,1.351786106824874878e-01
-2.835432507222122034e-01,-4.121497049398128998e-01,-4.307700328798683698e-01,6.540823892830591006e-03,-9.677243652926497894e-03,-5.677413408217960381e-03,1.406663656234741211e-01
-2.839154075539674360e-01,-4.268370860230454311e-01,-4.380581688194979950e-01,1.965835145540864495e-03,-8.083564964949141105e-03,-2.855202961468209129e-03,1.496273279190063477e-01
-2.835557012154685252e-01,-4.414736445757346806e-01,-4.413944374197888432e-01,1.586502440296814901e-03,-3.198189482103841810e-03,-2.171954024002286136e-04,1.579998433589935303e-01
-2.875611512956580129e-01,-4.249721777587034954e-01,-4.214164600185084097e-01,5.169500747472311093e-03,-1.627124717707166893e-03,-3.061507824359063854e-03,1.360958218574523926e-01
-2.818645628375161527e-01,-4.436113137166812215e-01,-4.380746053463137057e-01,6.183577454397887370e-03,-8.707983838094322110e-03,-2.996097580151821631e-03,1.602068990468978882e-01
-2.536924727435310722e-01,-4.439823250254605336e-01,-4.185646393168327428e-01,2.560595190896538392e-02,-3.641460314364654283e-02,-1.597966337077424623e-02,1.968010962009429932e-01
-2.759924266165642570e-01,-4.285902088642989938e-01,-4.361587906106236256e-01,4.185749519695033428e-03,-9.579512759078933487e-03,-4.422177214295200734e-03,1.577493101358413696e-01
-2.909694146680732452e-01,-4.427225550392072106e-01,-4.385351692071793317e-01,6.540036063755893950e-04,-1.114717401332845741e-03,-1.489471857022782409e-03,1.497423350811004639e-01
-3.301646344807915856e-01,-4.833471191607660034e-01,-3.557086141108551369e-01,-6.748673147502624219e-04,-6.555492389722485623e-03,7.617150161253464407e-04,1.426061242818832397e-01
-3.120676285283460749e-01,-4.683419393152122856e-01,-3.830995734781300621e-01,-1.483478162679517480e-02,-3.762761749122603416e-02,1.507430913332750803e-02,1.547777652740478516e-01
-2.995083279956939903e-01,-4.526400801091020609e-01,-3.480420270861491749e-01,-1.158441451045105069e-02,-1.568660123191606762e-02,2.594119844690287446e-02,1.467393785715103149e-01
-3.220122022504559589e-01,-4.666805852530718779e-01,-3.470358591902330536e-01,-7.922800820955710338e-04,-6.497687129648739915e-03,1.880739171568577249e-03,1.344401240348815918e-01
-2.957304044840749491e-01,-4.484091385994901646e-01,-3.318064769351293242e-01,-6.081152123656124661e-03,-2.686374215647083230e-02,1.279527447897242003e-03,1.462363302707672119e-01
-2.976138827248738239e-01,-4.395878004518333770e-01,-3.106605390076109252e-01,-3.535447186611696520e-04,-3.068535757598013242e-03,3.658758843815295564e-02,1.500636637210845947e-01
-2.845575288553747750e-01,-4.794795554991410635e-01,-4.904390176249558420e-01,-1.005505797165996522e-02,-7.216148090698977328e-03,2.000081274468506424e-03,2.017981112003326416e-01
-2.708011070624387062e-01,-4.607358439175937570e-01,-4.524706935555817267e-01,-9.041091503980377194e-04,3.559943730940586144e-03,1.200952656463275155e-03,1.860604137182235718e-01
-2.791516357383416747e-01,-4.494227280136751101e-01,-4.477392594782575452e-01,-2.265226014418506711e-03,1.180250643175137591e-03,7.525171385344588256e-04,1.694983839988708496e-01
-2.769860578352431602e-01,-4.445667806683833434e-01,-4.398280552542463973e-01,-1.010312291718759581e-03,3.961581515067649491e-04,1.731152302881478486e-03,1.653002053499221802e-01
-2.825306446534475713e-01,-4.413225188563695278e-01,-4.402244514037091938e-01,-9.887645321088340405e-04,3.018772986383908008e-03,-4.653331666003320119e-04,1.583433747291564941e-01
-2.681600192182073683e-01,-4.477450368138818915e-01,-4.477225647274385989e-01,-1.290745108987959326e-03,6.286430384809336275e-04,-4.379592130165286504e-04,1.795925945043563843e-01
-2.748419669807339871e-01,-4.614645286012276637e-01,-4.549041030476113634e-01,-1.781525828588087631e-03,4.115646078464632943e-03,-1.847774213411448180e-04,1.835950314998626709e-01
-2.746996145375439902e-01,-4.489422387189440089e-01,-4.486568519326626925e-01,-1.348361539106294289e-03,1.799726689220548662e-03,6.846224191208445491e-04,1.741477102041244507e-01
-3.135923155952057839e-01,-4.187173085670738981e-01,-3.210553335535550890e-01,-1.578470066208696385e-02,2.036691293078078321e-02,-6.887206636589300601e-02,1.629245132207870483e-01
-3.127042975158974558e-01,-4.480699578706615616e-01,-3.162387092163627123e-01,2.383493199799352133e-02,-2.482248386012821800e-02,-4.690737274920490224e-02,1.673666685819625854e-01
-3.183734484414747490e-01,-4.447957838034289346e-01,-3.732512382117852967e-01,2.355008819657142521e-03,3.137713148314407938e-03,-1.662974990512642789e-02,1.137199178338050842e-01
-3.405834510798060322e-01,-4.740557514053493349e-01,-4.308327572929666061e-01,2.126987361831491480e-02,-1.872139574227882700e-02,-3.157542836809329456e-02,1.389738321304321289e-01
-3.159971920380625909e-01,-4.715659329360499807e-01,-3.974864621954231070e-01,1.072666451911370028e-02,-2.390836130727052450e-02,-1.507819389311819934e-02,1.445925980806350708e-01
-3.251183641280737113e-01,-3.452471971628023883e-01,-3.518891400852632856e-01,-2.347954158282575168e-03,-1.869957718872497163e-02,-1.797184291561637060e-01,3.139182627201080322e-01
-2.722485363568949990e-01,-4.007470237854124928e-01,-2.025322971758525270e-01,1.218378669395610812e-02,-3.149882925573636860e-02,-1.016245304968112495e-01,2.544310092926025391e-01
-2.746949267244823689e-01,-4.630945817132683384e-01,-4.588652708766133848e-01,-5.818062153106786510e-03,-7.934853208426491736e-03,-6.464143459902401420e-04,1.871021240949630737e-01
-2.761263684643711080e-01,-4.574683633913296799e-01,-4.453297797259962443e-01,-3.504318252497449029e-04,-1.654250843283270591e-03,2.554063856950995162e-04,1.756126433610916138e-01
-2.664500498718583854e-01,-4.511213253260374367e-01,-4.375288786315069123e-01,3.331201645244626607e-03,-8.917228380650930181e-03,-6.328213474599841699e-04,1.790283322334289551e-01
-2.838398953489192911e-01,-4.706332723283832009e-01,-4.696619864323109961e-01,-1.318317695568755644e-03,-1.472820134172125352e-03,1.200804066550203185e-05,1.863410919904708862e-01
-2.728129078646467365e-01,-4.526370427552385278e-01,-4.615217004519130972e-01,-3.041257685119844439e-03,-6.077572843284451218e-04,1.039340829673021346e-04,1.845053434371948242e-01
-2.803744975109463966e-01,-4.681912517727486733e-01,-4.691215509834952835e-01,-3.298937702810560233e-03,-9.980809322974761293e-04,-2.527375527708688487e-03,1.884291023015975952e-01
-2.699505328315709995e-01,-4.518178541841902374e-01,-4.588697713430921477e-01,-5.403366250320231282e-03,-1.756689269688788742e-03,-6.446260514308612289e-04,1.857580691576004028e-01
-2.714212428552489342e-01,-4.552231372396334241e-01,-4.598487588362002998e-01,-6.231743316909108422e-04,-2.597523530765489847e-04,-3.457628215016938199e-04,1.861624419689178467e-01
-2.867877463836991381e-01,-4.561797681051394937e-01,-4.786441508030282455e-01,-1.087038271936772646e-02,1.477498763037181882e-03,-4.483421025373412051e-04,1.826615482568740845e-01
-2.692603117007324465e-01,-4.224185641903098754e-01,-4.559571332735153915e-01,-8.059981774280987332e-03,2.562929619849443289e-03,-7.866219021090765018e-04,1.730186343193054199e-01
-3.013159645078831161e-01,-3.873330905543800884e-01,-4.169779227727516413e-01,1.013087996435310754e-03,3.350363497673475646e-03,1.065345770008628914e-02,1.058535203337669373e-01
-3.139216672834538868e-01,-3.911563855053044048e-01,-4.500680785008281393e-01,5.674768244912270325e-03,8.399367256926843980e-03,3.010098093614673939e-02,1.304311305284500122e-01
-2.989296878523340917e-01,-3.543339077311565277e-01,-4.193486937139084825e-01,-5.546796213408028848e-05,-8.945926065645531857e-04,1.636259400377439860e-02,1.081862151622772217e-01
-2.998999103981035974e-01,-3.685460416593516753e-01,-4.263926261036469212e-01,4.605126568021001079e-03,6.161721846588487893e-03,1.644258046365477260e-02,1.140967160463333130e-01
-2.629278618329077277e-01,-4.524642695559117911e-01,-4.604113445662271764e-01,2.445297348821828462e-02,-3.413870447264290980e-03,-2.177278245169899078e-03,1.983343064785003662e-01
-2.881336793501713123e-01,-4.712594976870724262e-01,-4.721965944771790991e-01,5.452428572455800043e-04,1.483301216292695201e-04,9.616948711788082631e-04,1.836063265800476074e-01
-3.012537041845605446e-01,-4.716229116256182019e-01,-5.171693086601828471e-01,3.420998470587005569e-02,-1.636001880863803548e-02,-3.635943346116830843e-02,2.171169966459274292e-01
-1.799481188957910427e-01,-2.612609068793134703e-01,-4.346787937828775483e-01,1.409590392583399410e-01,-6.427372243771035248e-03,3.534706097242659110e-03,3.325002193450927734e-01
-3.852599737833729554e-01,-4.190745837471731572e-01,-6.333378970113781037e-01,1.560862853579879639e-01,-2.185661687851115156e-02,-9.442587704266157400e-02,3.944211900234222412e-01
-3.507132578832002912e-01,-2.894753712722208383e-01,-5.495117163712935904e-01,1.170111692829669398e-01,-1.013916331531832275e-03,-3.934356990363255258e-02,3.180669248104095459e-01
-2.807495835589093325e-01,-4.497565174546792610e-01,-4.612702484214730170e-01,2.099972077706714971e-02,-9.293368961770607367e-03,-7.146826251454823330e-03,1.799363940954208374e-01
-2.584748404172522163e-01,-3.532344255857270965e-01,-5.294979720588837147e-01,1.157362292149757138e-01,-4.944714300583705202e-02,-7.630189087035388340e-02,3.489075899124145508e-01
-2.798439973180827378e-01,-4.539991929877923993e-01,-4.726488305487858699e-01,-2.821260048692854350e-02,-8.831321616652071035e-03,5.294219514718888353e-03,1.913940608501434326e-01
-2.415050884457589087e-01,-4.245172082164219152e-01,-4.732371784284509220e-01,-1.258887935696875182e-01,-6.161035126470649353e-02,6.563949488024789503e-02,3.415267467498779297e-01
-3.112292942654580896e-01,-5.254673491792752893e-01,-5.082670630403390843e-01,3.548858584342336892e-03,-2.969949566913018205e-03,-6.762739690887560086e-03,2.066646665334701538e-01
-3.023742852167305983e-01,-4.762288825183562113e-01,-4.721408074090171492e-01,-2.118958730135672567e-04,-1.317886393180941031e-03,-5.784700622088614170e-04,1.718655079603195190e-01
-2.918554249131125600e-01,-4.724450874863325156e-01,-4.653752489352306898e-01,-9.959659910594733344e-04,-4.507320411341976529e-03,2.848921883565810713e-03,1.774095296859741211e-01
-2.666700358536097104e-01,-4.560561600971290153e-01,-4.706469639884805489e-01,-1.800237809674997205e-02,1.381132720033874037e-02,-2.569744300887261395e-03,2.010164558887481689e-01
-2.986014702557337475e-01,-4.770785808666738737e-01,-4.786651610339179297e-01,2.640649850238208085e-04,2.239354868226792314e-04,-1.395082937990739730e-03,1.792929470539093018e-01
-2.878644097199526408e-01,-4.691093300074786754e-01,-4.722566741192122386e-01,-3.464566112019051240e-03,8.813049315855011408e-05,-1.649022488001426366e-03,1.829597204923629761e-01
-2.893605360199342225e-01,-4.907781254383183356e-01,-4.830583099866442298e-01,9.299526229551973583e-03,-1.013600099817422648e-02,1.816653433209950439e-03,1.991263329982757568e-01
-2.857956351878476742e-01,-4.856398417851540139e-01,-4.989245506445534883e-01,1.818632896151911593e-02,-2.827880342133581165e-02,-1.223274394953818497e-02,2.158918231725692749e-01
-2.799099965995955341e-01,-4.665810582645183446e-01,-4.640711850325458521e-01,7.224621821659022586e-04,-2.466292051002828400e-03,8.941284149924691015e-04,1.854887455701828003e-01
-2.972279295996145820e-01,-4.802660272114815943e-01,-4.756224009630964922e-01,1.153810951089874514e-03,7.819658728270395109e-04,-1.485379295572342639e-04,1.807773262262344360e-01
-2.940667432462289455e-01,-4.747802903752265657e-01,-4.719583778774091298e-01,1.419321784240428700e-04,1.225617001443004379e-03,-1.002092350904548257e-03,1.793403774499893188e-01
-3.034042099610617660e-01,-4.989221276337059696e-01,-4.959820190449117372e-01,-5.827273273621667860e-03,-1.506181939024302946e-02,-4.609143042102834681e-04,1.960717737674713135e-01
-2.726363819014613887e-01,-4.706950339755571200e-01,-4.689778542823994645e-01,1.675421322992471165e-02,-1.170969947066373765e-02,-1.421240729634139222e-02,2.018650919198989868e-01
-3.476984023412682534e-01,-4.541761066172577133e-01,-5.149242150330861634e-01,5.005578056785436186e-02,4.293843345894284014e-02,5.017175328030033105e-02,2.051722109317779541e-01
-3.367121294913802410e-01,-2.970054520511791196e-01,-4.452661052106617889e-01,-2.445991417783179717e-02,-3.722251816510148414e-02,1.679411437086343328e-01,3.289908766746520996e-01
-2.957102762944482932e-01,-2.001706142400333233e-01,-4.328578315445567593e-01,2.206977355072614101e-04,1.039828405398601427e-03,7.264105927783411076e-02,2.384824305772781372e-01
-3.036951462799783452e-01,-3.541296944745387920e-01,-4.289230523439939158e-01,1.003870853254508998e-02,2.331657014227623854e-03,2.021793051508747469e-02,1.159947887063026428e-01
-2.778317539770200906e-01,-2.944892429949477197e-01,-3.792516227918985572e-01,-8.966260272581809757e-03,-6.349002978215476795e-03,6.150945701299860569e-02,1.434796601533889771e-01
-3.395080521127166184e-01,-2.555235697400699557e-01,-4.882183961946255923e-01,-2.135928220873571995e-02,2.836426789759073294e-02,9.186651517404105516e-02,2.660040259361267090e-01
-3.269819932925729367e-01,-3.811059449969438351e-01,-4.481142219744953525e-01,1.281431748123146482e-02,8.156410349645312058e-03,3.573710367160298079e-02,1.247793510556221008e-01
-2.890240754414844515e-01,-5.627711881623864709e-01,-2.401097421601543491e-01,-2.039062971262925808e-02,-1.121155161993657029e-01,-6.299933189615837537e-03,3.602725565433502197e-01
-2.697871678230309711e-01,-4.657909418150393277e-01,-4.443860799754087432e-01,9.402689087875445301e-04,-1.286676745804405005e-02,2.447261007421783294e-03,1.876099556684494019e-01
-2.556264456855700806e-01,-4.490627823924417950e-01,-3.571236934159793264e-01,1.435041294400943648e-02,-5.172404285625573084e-02,-4.757968702880707029e-02,2.086179852485656738e-01
-3.074522461045755550e-01,-4.961650377978780724e-01,-3.229266960252222818e-01,4.393757740367761067e-02,-1.072378071555991491e-01,-6.110473766248895183e-02,2.905589342117309570e-01
-3.860039696624532612e-01,-5.818436205345407508e-01,-4.038425181061846003e-01,2.830345454363693974e-02,-1.359610502669640342e-01,-8.256771414845226476e-02,3.368822336196899414e-01
-2.737779674878019209e-01,-4.562406715679349078e-01,-4.630363368231811272e-01,3.172725280465243198e-04,3.951895035799430316e-05,3.048437709511453257e-04,1.859552711248397827e-01
-2.706745432622560954e-01,-4.513855470116168167e-01,-4.590541980910949893e-01,5.089201420181961935e-03,-2.310356028327926331e-03,6.814656391565002093e-04,1.849221289157867432e-01
-2.843089965648224471e-01,-4.512477523361750342e-01,-4.699740682955078075e-01,8.807337156405666348e-03,-6.877746557869358901e-03,-1.240396318575726076e-03,1.781140267848968506e-01
-2.744462637000690819e-01,-4.622449626650559917e-01,-4.629215171730706180e-01,8.592059875516148276e-03,-3.417039480883507681e-03,8.091569939249988394e-04,1.888235360383987427e-01
-2.725499837726360064e-01,-4.532221742694872435e-01,-4.584069183281322402e-01,1.787060588502249140e-03,-8.409231747614231457e-04,7.599418631126997305e-06,1.833514720201492310e-01
-2.705189101330010004e-01,-4.551556276033959514e-01,-4.589245305597846047e-01,2.815231017414121430e-03,4.134132147141217069e-04,-1.270756018596868892e-03,1.866277903318405151e-01
-2.723271226003452505e-01,-4.542671482071664601e-01,-4.593334452698339954e-01,3.339841114734634956e-04,-8.548527064406928567e-04,5.035382762309458752e-04,1.845342516899108887e-01
-2.726722177764281940e-01,-4.504617874840252667e-01,-4.528219948088724744e-01,1.634191854393182404e-03,-3.904118941643182523e-03,-5.150673634785684447e-04,1.791336238384246826e-01
-2.720585154507679793e-01,-4.558737760843705189e-01,-4.598528981909595914e-01,1.719857996151931650e-04,-2.590723986443352637e-04,6.341772382188921864e-04,1.858408004045486450e-01
-3.018789660146522502e-01,-3.861005666134711412e-01,-4.615295542990597299e-01,-3.961139035098607854e-03,3.842293396068981962e-03,-6.062021303326027392e-03,1.390581429004669189e-01
-2.714923695091985834e-01,-4.278438058478306050e-01,-4.354074422439704883e-01,-3.905754312107061112e-03,6.967394994750230122e-03,-2.169629285743616010e-03,1.609070748090744019e-01
-2.940278038877654487e-01,-4.032669327373549772e-01,-4.742992123867550980e-01,-1.627103651555242281e-02,1.127863817019366180e-02,-5.253797665981663201e-03,1.612356901168823242e-01
-2.868136518508616062e-01,-4.238533698943314776e-01,-4.626142202612183452e-01,-2.798357908846308122e-03,4.983407098878773686e-03,-1.740392708140934674e-03,1.603157669305801392e-01
-3.408705175297974677e-01,-3.400185720824573377e-01,-4.490786225108359675e-01,-3.525774786774180276e-03,1.658385640433215902e-02,-5.223424694999431045e-02,1.443936377763748169e-01
-3.441532617431309893e-01,-4.792792234571318644e-01,-5.726187182474115067e-01,-6.509676438286389477e-02,1.926824712548316429e-02,-3.052767639414410983e-02,2.370785772800445557e-01
-2.840665645895488201e-01,-4.268274323239065193e-01,-4.492285137022400399e-01,-2.785833166728435457e-03,9.391487971078544411e-03,-2.684824302743187441e-03,1.561729162931442261e-01
-3.521491574416781845e-01,-2.178118247247655126e-01,-6.088296787475037108e-01,-7.497601530528380520e-02,-2.753385454102592889e-02,-1.825384504033777597e-02,3.722248673439025879e-01
-3.555102903554833715e-01,-3.786530812734790752e-01,-4.843510010469906368e-01,-3.201437596400847491e-02,2.807646941687453809e-02,-7.364367720481856949e-02,1.893768310546875000e-01
-2.750248845227817318e-01,-4.504886979045608641e-01,-4.501061812810439045e-01,6.603083230204263463e-04,3.427778084378365638e-07,3.550216466525431052e-04,1.752776801586151123e-01
-2.748020660074110277e-01,-4.507148504432165192e-01,-4.491196947190556621e-01,2.440683954641959612e-07,6.668871642333523003e-04,2.506278249614702952e-04,1.751250028610229492e-01
-2.710552445806681532e-01,-4.474614250269715598e-01,-4.457183379972636805e-01,3.286167462772449153e-04,1.426375183000465601e-03,1.551340722186292522e-05,1.755594313144683838e-01
-2.727407798762364610e-01,-4.486336900799809957e-01,-4.471394668207445133e-01,1.655208716922564093e-03,7.806827769667498262e-04,9.923518596340363308e-05,1.751793473958969116e-01
-2.712963149919760952e-01,-4.486607089049200470e-01,-4.486487487583187272e-01,1.248562702532448384e-03,6.953611201139452917e-04,1.050142977889368686e-04,1.773757785558700562e-01
-2.736221863554613720e-01,-4.507961293865523356e-01,-4.499864271582437736e-01,2.508054366559200540e-03,2.874991076581291140e-03,-1.972249244406220280e-04,1.768942922353744507e-01
-2.724045030798813993e-01,-4.536758897628104803e-01,-4.496001131147114305e-01,-1.725597020748171348e-03,-3.158893842029753939e-04,-4.822448168612068764e-04,1.792959421873092651e-01
-2.480482704964735996e-01,-4.476324601547407855e-01,-4.217184644084428502e-01,-1.792468933393354330e-03,-2.539862207833409879e-02,4.268257847310289984e-04,1.930772215127944946e-01
-2.700377412523872755e-01,-4.522593376839678103e-01,-4.451465645265822446e-01,-3.384420544467003564e-03,-3.339466189549770547e-03,1.623576179862134573e-03,1.789830327033996582e-01
-2.733221022729481198e-01,-4.466572201172498424e-01,-4.247279516020348589e-01,-9.360275500901403187e-03,-5.270820148463162616e-03,4.856452205922725737e-03,1.647476553916931152e-01
-2.763302343889491031e-01,-4.472099298313876314e-01,-4.327566343392442727e-01,-7.892501653358773017e-03,-3.715529052591100712e-03,1.695638502971675123e-03,1.648511737585067749e-01
-2.781812233941095003e-01,-4.408460760275860757e-01,-4.314367239138031107e-01,-7.265510464245585748e-03,-2.504351956141777011e-03,3.373605595848550194e-03,1.588368415832519531e-01
-2.833817504164520829e-01,-4.105967438580918616e-01,-3.924581121776585246e-01,-1.613583101410532086e-02,-1.483040140549601697e-02,2.353594666435725527e-02,1.315594911575317383e-01
-2.739936435553476657e-01,-4.569347938980483081e-01,-4.525944721783208280e-01,-3.086860768389845106e-03,-2.896720570625273359e-03,-1.883064695601558499e-04,1.809589564800262451e-01
-2.786499325236226898e-01,-4.645181317892173034e-01,-4.690590728486567218e-01,-3.936321384077142924e-03,8.895781956025593229e-05,-8.141548995251489049e-04,1.883085817098617554e-01
-2.792736329189821065e-01,-5.063470600757031814e-01,-5.157369731007226399e-01,-4.627978684435855167e-02,6.085910789892542798e-03,-3.215162844400548756e-03,2.456629723310470581e-01
-2.826724118652796380e-01,-4.750931629606340856e-01,-4.901210192410795918e-01,-1.278066130987266270e-02,1.602218133511161850e-03,8.239809276744381166e-04,2.016011625528335571e-01
-2.929505964815143360e-01,-4.148992877364963694e-01,-4.657590819720410780e-01,-2.324099762032642846e-02,-3.233586062814083895e-03,3.052273956686652953e-03,1.591861695051193237e-01
-2.659974078514112938e-01,-4.556790696362844617e-01,-4.440789968390787545e-01,-1.073505235755288154e-02,1.355334698087601493e-02,-5.365379876027272406e-03,1.868061572313308716e-01
-2.726411773528553129e-01,-4.568254226052430034e-01,-4.585997200106378124e-01,-1.111567560788816710e-02,8.330744414142547682e-03,-3.715015019980625775e-04,1.866362094879150391e-01
-2.696233641039015305e-01,-4.567684548215291684e-01,-4.392458767231298689e-01,-5.817732261749392932e-03,8.252139549719457803e-03,-3.788241649420810882e-03,1.799998432397842407e-01
-2.956925274933996373e-01,-2.979949299864080858e-01,-3.049817771108456754e-01,-6.896595543630405778e-02,6.198036289637276486e-02,-1.555123458461081520e-01,3.137133717536926270e-01
-2.588577291380466106e-01,-1.929644297283429066e-01,-3.376504671772200261e-01,-7.838984343307627348e-03,-4.428521452976774513e-03,-1.308959140748693073e-01,2.595891654491424561e-01
-2.767967128794909248e-01,-5.177042684850838850e-01,-4.593798987035966896e-01,8.734076318674165521e-03,5.326206981410576413e-02,-8.290321262451591511e-03,2.373457103967666626e-01
-2.065856430449477532e-01,-4.698623861910005695e-01,-3.277662048146611773e-01,-1.549807335779211127e-02,1.160960432248439034e-01,-4.767794507016924650e-03,3.054815828800201416e-01
-3.605450279941332381e-01,-5.192006829737363383e-01,-3.723487562557327712e-01,-1.091179688145377594e-02,2.866101885227490681e-02,-3.665106290716755449e-02,1.740393042564392090e-01
-2.097225230180402855e-01,-4.154464194820560730e-01,-3.137087305887903410e-01,-5.158337773868242743e-02,9.544502261645948504e-02,-5.705840941797005877e-02,2.771674394607543945e-01
-3.003164826247322061e-01,-5.422098214565060914e-01,-5.345562576886599970e-01,2.000425376839865856e-03,2.253531041527126119e-02,5.610980938851149388e-03,2.415565997362136841e-01
-2.932691127964609512e-01,-5.200212825862557953e-01,-5.310591771910582182e-01,-3.797920335259811347e-02,-2.034207161421403703e-02,4.844544783459305351e-03,2.442955523729324341e-01
-3.019062948367938759e-01,-4.784287195486324196e-01,-4.785686426369149538e-01,-4.541076615524883894e-04,7.192002467456234981e-05,-1.109869369574003001e-03,1.766046881675720215e-01
-2.504735985527006825e-01,-4.566414861612799192e-01,-4.507435170050724804e-01,-1.145803438959925973e-02,-2.016365501422216766e-02,4.225407027610017172e-03,2.073430866003036499e-01
-2.705906542382963131e-01,-4.543500600494675967e-01,-4.765894648222260832e-01,-2.290152647522314053e-02,-2.219970969129729521e-02,1.199668872234205090e-02,2.045299261808395386e-01
-1.970256348675696878e-01,-3.795879452588809544e-01,-4.146710065139969092e-01,-7.870905465053407157e-02,-5.429561937268581606e-02,4.797019184340995529e-02,2.744038403034210205e-01
-2.332470762079320026e-01,-6.104058663532064832e-01,-6.623438605329052820e-01,-2.841043302160735362e-02,-7.283990988887106832e-02,-4.118139271012252745e-02,4.335450530052185059e-01
-2.927157156221245060e-01,-6.395430709433955752e-01,-5.579312031508526504e-01,-1.121525940032204599e-01,-6.094210159799670623e-02,5.291962367326796812e-02,3.948700726032257080e-01
-3.004940343662882429e-01,-4.293099637327534301e-01,-3.038296803922423406e-01,9.959934749617549606e-04,-1.570481582403442404e-03,4.399965883808767270e-02,1.483012884855270386e-01
-3.591735116257590565e-01,-5.326905374782049396e-01,-3.766373286673211362e-01,-1.834634756232869646e-02,-4.923479004620649746e-02,6.402257649258570604e-02,2.190011441707611084e-01
-3.196086682267318957e-01,-4.562481142688945002e-01,-3.660437740169610321e-01,4.579330417049930560e-03,3.935871284375377054e-03,8.242923908365805408e-03,1.216343343257904053e-01
-3.156849713306096872e-01,-4.531164921802782186e-01,-3.869899448456590174e-01,-3.169186272658898983e-03,-2.888882613186637485e-03,1.199954538121965862e-02,1.210760399699211121e-01
-3.072849444474197167e-01,-4.372420068497108736e-01,-3.728977840392199150e-01,6.566125474286685360e-03,1.345244523114039713e-03,1.448506111161996547e-02,1.158932819962501526e-01
-2.712228039266996182e-01,-4.544463886997229252e-01,-4.509608437337098708e-01,1.898795791894496588e-03,2.107824375284062890e-04,-8.226263997350029321e-04,1.815416663885116577e-01
-2.739473753728171590e-01,-4.549370467554962882e-01,-4.509082312416748950e-01,1.653121994462276000e-03,8.168784542429173090e-04,-3.612204066187315113e-04,1.790388524532318115e-01
-2.719462220727871804e-01,-4.551966709691747659e-01,-4.517034716549457873e-01,1.453664759237280595e-03,1.119837560823230783e-03,-5.148022384447981624e-04,1.815590709447860718e-01
-2.770627383482516248e-01,-4.640723571736197761e-01,-4.637227858090789412e-01,7.455348691077606478e-04,1.344314649961098496e-03,-1.005616073757545836e-03,1.868621706962585449e-01
-2.696133076610600088e-01,-4.472120908695033092e-01,-4.436082549655868679e-01,3.904634614174994425e-03,3.018465050981479578e-03,2.649560201543685735e-04,1.760328412055969238e-01
-2.696554548636467263e-01,-4.531554322736722762e-01,-4.495114373857635459e-01,1.467809003219076305e-03,1.269567885761235066e-03,-1.410938545750977215e-03,1.817529052495956421e-01
-2.713346676378630695e-01,-4.565994151522878020e-01,-4.548791320224188084e-01,2.041112887949152448e-03,3.021564398517989896e-03,-2.300717092261626482e-04,1.845191717147827148e-01
-2.710916929033657108e-01,-4.537724536095764649e-01,-4.605215824650338297e-01,-1.046657687654232918e-03,-7.488089233046896524e-04,2.097578680388912251e-05,1.861604601144790649e-01
-2.721680108836218026e-01,-4.576015563692870658e-01,-4.619424880413171008e-01,-1.729216137070874616e-03,-7.110437018879879048e-04,-8.436085398586135736e-04,1.876753121614456177e-01
-2.466305205918939425e-01,-2.416327390625031268e-01,-4.234703630845429445e-01,-9.546289019963191680e-02,3.203291084346165940e-02,-4.864991827464298924e-02,2.640063762664794922e-01
-2.690595442036284868e-01,-4.494108260174932701e-01,-4.545432818194550806e-01,-1.673888139174608365e-03,-1.555696724494085893e-03,4.515612286748006210e-04,1.830159872770309448e-01
-2.800912380288628212e-01,-4.408475070525814110e-01,-4.464565770744994833e-01,-8.258628035870459877e-03,-6.940095033320299069e-03,5.285440489239567018e-03,1.649504452943801880e-01
-2.716513324222887271e-01,-4.544809328308806462e-01,-4.609150311644533149e-01,-8.089930264966678540e-04,-5.383729530679267315e-04,-2.951154262223266208e-04,1.861383914947509766e-01
-2.805150440052319727e-01,-4.471797000514968756e-01,-4.643749510584994633e-01,-1.179404584886077981e-02,-3.515076520388240103e-03,3.868638620052520811e-03,1.773073375225067139e-01
-2.834511532527418387e-01,-4.710936559331023732e-01,-4.717158246367867958e-01,1.313872369057932652e-03,-2.337720193378370337e-05,-1.816948440963658904e-03,1.879944801330566406e-01
-2.741206683406410827e-01,-4.166211803295585825e-01,-4.597762563676724423e-01,-1.930488061929136814e-02,-1.148736963528978507e-02,1.474967398909380646e-02,1.745993942022323608e-01
-2.749078119087159933e-01,-4.270019203680737174e-01,-4.577474678798528762e-01,-6.353040337316669291e-03,-2.502800831684835487e-03,1.106995624456019386e-03,1.699931621551513672e-01
-2.719923820997391939e-01,-4.247301221924656978e-01,-4.505331706305780726e-01,-6.607657757200047742e-03,-3.020241124568862935e-03,1.995302299935499193e-03,1.676484644412994385e-01
-2.752803416105279455e-01,-4.609031963889709260e-01,-4.665487967657951929e-01,-2.562109419464954005e-03,-1.036231960579705926e-04,-1.132496183887424582e-03,1.885715872049331665e-01
-2.716429458505319472e-01,-4.238776968270113743e-01,-4.585142305968928356e-01,-8.903732426304626288e-03,5.110456323377875025e-03,-8.553913626781373559e-04,1.731079667806625366e-01
-2.775340174902126700e-01,-4.652544609721073199e-01,-4.774317409418736835e-01,-1.347083953492719116e-02,7.128205610396805454e-03,5.541859946738887264e-04,1.958849728107452393e-01
-2.884331486158923097e-01,-3.977673049487173706e-01,-4.531813279854638998e-01,-1.011833334286654784e-02,6.455835059453021545e-03,-2.448880588106642879e-03,1.467429101467132568e-01
-3.600368915359953847e-01,-3.571370792586851528e-01,-5.519873308660281364e-01,-3.389534443898517546e-02,-2.105153676322772812e-04,-1.506061441894793271e-03,2.021475285291671753e-01
-2.717801913935084523e-01,-4.544382995906770528e-01,-4.479040865128781634e-01,3.445018158264066994e-03,1.626219468478613036e-03,-3.543142773099626952e-04,1.796025335788726807e-01
-3.519769650316020293e-01,-2.390566173656001325e-01,-5.766379783259835135e-01,-4.712778608274841019e-02,-3.517440686986087091e-03,8.133710908895143421e-02,3.393224775791168213e-01
-2.877502703002444151e-01,-4.644333291602438796e-01,-4.542024447657789787e-01,8.898863277105300423e-03,7.509095831308116448e-03,3.968293522782682069e-03,1.731124520301818848e-01
-2.757790722931678373e-01,-4.592330295490074654e-01,-4.564666527546972774e-01,3.413829081260770851e-03,2.527695803072279625e-03,-1.064574781034713239e-04,1.822351962327957153e-01
-1.165639905890001882e-01,-1.448054988853014757e-01,-3.976477685337151957e-01,-1.567286900460552745e-01,2.290659450307161742e-04,3.022452273955541537e-03,3.815581798553466797e-01
-2.851093409354982233e-01,-4.260437732695810942e-01,-4.508999481603874759e-01,-2.838890567510336197e-03,-8.721690346534130209e-03,3.261290681358863883e-03,1.557810157537460327e-01
-3.073557823822926083e-01,-4.193574116234403681e-01,-4.196845769788398739e-01,3.254389538371575837e-04,-1.160855486785598319e-04,5.047166010673551735e-04,1.121705695986747742e-01
-3.024270705550593519e-01,-3.782040506793447054e-01,-4.748251769950926904e-01,-3.830731328848512637e-03,1.031871759051785145e-03,-2.417773444602346923e-03,1.498806327581405640e-01
-3.133161304067191288e-01,-3.556331666914396283e-01,-4.682899648872739240e-01,-1.350779961330245312e-02,-2.694898314199835679e-03,3.270572910214638706e-03,1.408930271863937378e-01
-3.427572178119516755e-01,-4.495710579076878655e-01,-4.718396600031786181e-01,-6.031715699467209146e-02,-4.335766024988635392e-02,6.939482957207435132e-02,2.128021270036697388e-01
-2.894464284502873408e-01,-4.286326016323301902e-01,-4.706625105889888916e-01,-4.193862691093199618e-03,-2.418740217320737313e-03,2.195155528354586060e-04,1.644984781742095947e-01
-2.760961365542869972e-01,-4.629943182407978974e-01,-4.657241398721903014e-01,-1.148740498579921970e-02,-1.773737318201788543e-03,-3.855293023260406276e-04,1.893524378538131714e-01
-3.019333633019049001e-01,-5.352763978683161561e-01,-5.730748593600747398e-01,-4.536592480738944194e-02,8.038479325166814982e-04,-1.029696969130857896e-03,2.662273943424224854e-01
-2.930390251904499976e-01,-5.306374878514487081e-01,-5.540642982076777745e-01,-3.869655706005448170e-02,-1.198851387852067213e-02,8.332912371978794600e-03,2.601917982101440430e-01
-3.013989601071263014e-01,-5.127496357459739862e-01,-5.416050648173453830e-01,-1.386610099343411721e-02,-1.287789140701902334e-02,-5.420511386317468719e-03,2.297016084194183350e-01
-3.539005959652157807e-01,-7.497088315908095879e-01,-8.127283890934898780e-01,-1.902100677875224188e-01,7.984645157889122546e-02,-4.574931864384038094e-02,5.652647614479064941e-01
-2.480026103165524354e-01,-5.197059936083201492e-01,-6.630200151455436508e-01,-9.520984172958799063e-02,-4.967793410120714681e-02,8.671792273555490108e-03,4.100299775600433350e-01
-2.801477944378982232e-01,-3.581331977614034545e-01,-4.921148958643656868e-01,-6.124111250344612539e-02,5.485863832366071578e-03,1.645429138044801967e-02,2.159522473812103271e-01
-2.676433333493373201e-01,-5.279381574727370907e-01,-6.157069641106935887e-01,-1.589808138668849513e-01,6.781160263097861518e-02,1.623716652225371329e-02,4.344115555286407471e-01
-2.757861260835455797e-01,-4.474556941969493051e-01,-4.472351663906686259e-01,1.661706996016607072e-03,-4.921022568549904145e-04,-2.226450453744790157e-04,1.715860962867736816e-01
-2.719173311389998515e-01,-4.453843351655237259e-01,-4.483288072058710938e-01,1.426173987438575765e-03,-2.476531533656860153e-03,-4.985015792149306195e-04,1.750299632549285889e-01
-2.982078427114370212e-01,-4.135900547330275123e-01,-4.020143173239372758e-01,1.006584658588725520e-02,-7.243350924226401970e-03,-2.099145342355150309e-02,1.178757995367050171e-01
-2.726877768913763544e-01,-4.524616275585757741e-01,-4.540849351272761014e-01,6.605149639263580702e-04,-1.404842574234350504e-03,7.892305211874939101e-04,1.806161701679229736e-01
-3.002814481484168962e-01,-3.754240552648465123e-01,-4.392276610083719612e-01,9.805844007861365397e-03,-1.066053474462874164e-02,-1.168725481871698245e-02,1.247030943632125854e-01
-2.747548537612253816e-01,-4.449601791324773736e-01,-4.455965118544862325e-01,9.909657431782300119e-04,-2.413604029424103528e-03,-7.979579873267564480e-04,1.705898493528366089e-01
-2.726941486578567386e-01,-4.475908651184117848e-01,-4.491148580361064013e-01,1.101388596495456347e-03,-2.151875454371182748e-03,-8.681370265177788034e-04,1.757199913263320923e-01
-3.149766047615717990e-01,-4.183571713644766432e-01,-4.609030823936602905e-01,-9.790032654318261626e-03,8.546337787850032813e-03,-1.087983199829568697e-02,1.332587003707885742e-01
-3.054689258120924511e-01,-3.960266625900087933e-01,-4.258941089834181182e-01,-1.021050837825645359e-03,2.665939785192580642e-03,-8.490962781366927226e-03,1.097188889980316162e-01
-2.883102729088624638e-01,-4.290696446026339705e-01,-4.700366570374956976e-01,3.319943336502159149e-03,-3.257252350089210637e-03,-1.518985448389099761e-03,1.653172820806503296e-01
-3.017003988786913227e-01,-4.303281514496178906e-01,-4.328274496961984075e-01,1.636992269636080438e-02,-1.375458056469165344e-02,-2.930674595235481864e-02,1.442947238683700562e-01
-3.141381029847649109e-01,-3.435797169984639576e-01,-4.552978526062121389e-01,4.809027763493189250e-03,-5.517844180016444507e-03,-1.131229386082311869e-02,1.310783624649047852e-01
-3.143456567970813187e-01,-3.950116547701841285e-01,-4.370572827152170992e-01,-5.152740636273936371e-04,9.245178957645072996e-04,-6.590736391469254399e-03,1.086285635828971863e-01
-3.114549734922432145e-01,-4.142759400748128318e-01,-4.482127132692819149e-01,-7.457826078275371293e-03,5.497831564476364855e-03,-1.145778062525496660e-02,1.259549409151077271e-01
-3.042282716987367852e-01,-4.170941835054313152e-01,-4.460498292151727773e-01,-1.551159694500588203e-03,8.503283147152684504e-03,-5.269723778506409974e-03,1.309683024883270264e-01
-3.179723239846850014e-01,-4.178126209425321314e-01,-3.985869163793277492e-01,-4.623191681886141755e-03,1.216410361429747823e-02,-2.753301090062284726e-02,1.058320850133895874e-01
-3.079127994373662691e-01,-3.689287145480306118e-01,-4.380098208807827187e-01,-5.313341343342052776e-04,3.952986445533082129e-03,-1.578397956450677472e-02,1.162123754620552063e-01
-3.435584269952077774e-01,-5.128897488802797167e-01,-5.327995543273470469e-01,-6.608621584732016219e-02,4.389710953458555304e-02,-4.684071509974572362e-02,2.406367361545562744e-01
-3.524517916817543339e-01,-4.223462049205131685e-01,-5.271037467443192570e-01,-4.575285994262351386e-02,2.502147533330604384e-02,-6.323909106506281352e-02,2.081755995750427246e-01
-3.096836349883385631e-01,-3.979164724245423668e-01,-4.468503835982367001e-01,-1.704213057555061320e-02,1.107581440281013574e-02,-1.783631035012618604e-02,1.291931271553039551e-01
-2.840012272799190551e-01,-4.385694493070037003e-01,-4.513028365028421418e-01,-8.691829283512536239e-03,1.135823103083822248e-02,-4.057708282709213826e-03,1.633545756340026855e-01
-2.959920968916255335e-01,-4.013849989044960820e-01,-4.709211828077125572e-01,-3.030367078275989640e-02,1.229308277631563709e-02,-1.506788969348775951e-02,1.648059040307998657e-01
-2.856681516511286878e-01,-4.586563514653152485e-01,-4.468333749316550363e-01,-8.632558992138175680e-03,7.742304762453289073e-03,-4.990566259464211500e-03,1.688122451305389404e-01
-2.759579247223293841e-01,-4.578815983743841356e-01,-4.768648730293141291e-01,1.221791472699019707e-02,2.762369668772461651e-03,2.181832871081285964e-03,1.933781206607818604e-01
-2.395667102904034118e-01,-2.947317313404189121e-01,-4.183828609896785289e-01,-8.603003248621872434e-02,4.792731072043782126e-02,-7.800138303165474185e-02,2.692605257034301758e-01
-2.338967486476824509e-01,-2.297186785806670517e-01,-2.391452901849350221e-01,-4.854829108552344979e-02,4.457979094091623490e-02,-1.655830009560366467e-01,3.087928295135498047e-01
-2.965339091993627885e-01,-4.801682835241638525e-01,-4.817348592291872955e-01,3.434402083784668033e-04,-2.176174527045852177e-04,9.939854269857479382e-04,1.844320297241210938e-01
-2.844431643544469424e-01,-4.691825514419413756e-01,-4.662493997550881120e-01,2.676880860158215459e-03,-3.470519917681291777e-04,1.036571961191003330e-03,1.833588182926177979e-01
-2.803240086613177917e-01,-4.615043563729275267e-01,-4.638425003036050764e-01,2.348232870765148798e-03,2.568658293525761128e-03,6.378579331725897942e-04,1.824636012315750122e-01
-2.926738010156243464e-01,-4.843079233692736407e-01,-4.850157104073039571e-01,1.427016112577075401e-03,1.973645148673823469e-04,-2.455834944883465362e-03,1.920523196458816528e-01
-2.715832118716147159e-01,-4.690117157930597247e-01,-4.687471307357802819e-01,1.148289173722091307e-02,1.809710313410683872e-03,-7.068654146914894699e-04,1.983248442411422729e-01
-2.848420467636445519e-01,-4.722989603191933838e-01,-4.735352210860781508e-01,1.670882597107331731e-03,-2.964985902241091360e-04,1.870164566197957123e-03,1.881289482116699219e-01
-2.766754645003270952e-01,-4.591267489653451106e-01,-4.722388283377386697e-01,1.240232911098994653e-02,-8.718801191850374110e-03,-9.696752530452141736e-03,1.918965876102447510e-01
-2.708389701756571122e-01,-4.643655461333104362e-01,-4.623810980419952865e-01,1.286770024876511369e-02,-1.302243770558974764e-02,-1.069448060790210292e-03,1.951444298028945923e-01
-1.679173448159438642e-01,-4.308047821533865784e-01,-4.637193443524660896e-01,7.860872955633772807e-02,-5.410072620186789222e-04,4.235418193823117620e-03,3.121517002582550049e-01
-3.156797857398346285e-01,-5.996817022619495008e-01,-5.964620823939092986e-01,1.500324391899611198e-01,-1.895043944883239434e-02,-8.160770326961939991e-02,4.102914631366729736e-01
-3.079056059898541697e-01,-5.366759633004637431e-01,-5.269013908503097365e-01,1.504084606111788514e-03,-1.348469077788672782e-02,-3.806719726425111111e-03,2.253687083721160889e-01
-2.970138986417677485e-01,-6.374392505313830615e-01,-5.682669504195154708e-01,9.185734718178741043e-02,6.178686545278768566e-02,1.357837042003029633e-02,3.666681051254272461e-01
-2.756267906147914504e-01,-4.724936846404693691e-01,-4.707748497408100752e-01,-1.370870614972335456e-02,9.723807947575656072e-03,-5.422250612646512501e-03,1.983854621648788452e-01
-2.692688010222173967e-01,-4.669104581251446451e-01,-4.680026250029162282e-01,-1.215522764729686303e-02,3.971832452905967731e-03,5.554922809513369430e-04,1.994261145591735840e-01
-2.858877551878166723e-01,-4.688795998777730012e-01,-4.721591637704298239e-01,-7.264698826045460755e-04,-1.032843788535279909e-03,1.256646571691373538e-04,1.846665441989898682e-01
-2.826570093027114261e-01,-4.664117220382442697e-01,-4.704271348676831166e-01,-4.966100589544455773e-04,-8.489636900458647373e-04,1.656061620598455559e-03,1.858249157667160034e-01
-2.733052089444357735e-01,-4.582946974785864769e-01,-4.592719296160047704e-01,-1.096214510146627935e-02,8.444779129534290760e-03,-7.316213403371910539e-04,1.870264708995819092e-01
-2.777608586097157772e-01,-4.632352296891379950e-01,-4.657678904147294352e-01,-2.560896096019119744e-03,8.073302788842609372e-04,1.675464074360754523e-03,1.868340224027633667e-01
-2.750694032260853072e-01,-4.594005291592068718e-01,-4.654462486242674224e-01,-1.347607277362454330e-02,4.796566384971777917e-03,1.329157038704156715e-03,1.890715807676315308e-01
-2.734472219909161450e-01,-4.625510134413185481e-01,-4.582613842019466754e-01,2.065374432755696162e-04,4.628586910763946537e-03,3.874488514409081888e-03,1.872882694005966187e-01
-2.766783860040061827e-01,-4.663835452277436677e-01,-4.631564935856080645e-01,-1.422048593575463496e-03,3.146591193874007358e-03,-1.102459001489153388e-04,1.882075369358062744e-01
-2.739661491412416772e-01,-4.574943094961043122e-01,-4.490229385484993396e-01,2.136931512071355271e-03,2.575919094717403924e-03,9.032582958829563644e-04,1.795429438352584839e-01
-2.671346792800999292e-01,-4.220865467932525816e-01,-4.502553193425589684e-01,9.282250047413334246e-03,-2.886211710537024255e-03,-1.477223658931341947e-03,1.716344505548477173e-01
-2.644773430249793833e-01,-4.516977125974052654e-01,-4.169636141752454117e-01,-1.470131601907565195e-03,1.022916502127921290e-02,-5.805006398433887370e-04,1.734254807233810425e-01
-2.762627294259233368e-01,-4.739431024703914530e-01,-4.759086527034719349e-01,-5.331660921053190533e-03,1.019703400940577369e-02,1.955044840228194712e-03,1.996963471174240112e-01
-2.698174275267177236e-01,-4.581106899462272786e-01,-4.515524480307813726e-01,-3.682256708547720350e-04,2.215599500288175424e-03,2.999770448791371272e-04,1.851429045200347900e-01
-2.712949847288630423e-01,-4.598764002646731353e-01,-4.538187401029214474e-01,-7.639529685804882005e-04,1.928764842362662608e-03,-4.259862203705363777e-04,1.856629699468612671e-01
-2.598262185150915782e-01,-4.438547597650326360e-01,-4.122416031060835984e-01,-3.060231500366842640e-03,9.868417892514032286e-03,2.022364735503681958e-04,1.713725328445434570e-01
-2.795179115989112062e-01,-3.861753438283047624e-01,-4.511532826810856767e-01,-1.649024244475149475e-02,2.125672087357243726e-03,-1.959834154848658777e-03,1.528698205947875977e-01
-2.873987296528230928e-01,-4.266876367333167219e-01,-4.696737452784489619e-01,-3.891638103287706294e-03,3.927772681392795867e-03,-1.793402676824326332e-03,1.653422415256500244e-01
-3.027228987810546279e-01,-4.533894409899402733e-01,-5.708423415517431820e-01,-8.146928606842508691e-02,9.545754172137767626e-03,4.367138151422033342e-03,2.728261947631835938e-01
-2.959836231143810892e-01,-4.088881784806606134e-01,-4.821514450961093545e-01,-6.208803963946092630e-02,1.372854954243829875e-02,-3.124148420609742030e-02,2.035804092884063721e-01
-2.207239295911751775e-01,-3.838628668174671743e-01,-4.294230499209602536e-01,-4.864438436909461483e-02,-1.308958823144027069e-02,1.173206816418364412e-02,2.101153135299682617e-01
-2.751704748535659384e-01,-4.235562706750819473e-01,-4.580955456514191892e-01,-6.913462794756008827e-03,9.306122459919007181e-04,-5.652373273921644948e-04,1.687702238559722900e-01
-2.784034071666675048e-01,-4.289728518912870880e-01,-4.673467141772170708e-01,-6.446233694800046488e-03,-2.495160135043714665e-03,-3.288683684958196426e-04,1.733935028314590454e-01
-2.738100569404336992e-01,-4.571669079682464387e-01,-4.632398955357712733e-01,-2.207251602475588000e-03,-5.538540081115384591e-04,-4.801938884549160434e-04,1.865110397338867188e-01
-3.039209349803620452e-01,-4.318660799508016179e-01,-4.635792493071326237e-01,-2.381560613340007182e-02,-2.121369887996158929e-02,2.285949832799543877e-02,1.614079177379608154e-01
-3.039645485861683927e-01,-4.295221477905387664e-01,-4.944347476527877761e-01,-2.404026796795482451e-02,-4.692158828932598003e-03,4.642410452890063585e-03,1.731852591037750244e-01
-3.026045508017617403e-01,-3.291609932832030294e-01,-4.356631171407052139e-01,4.638150363453036329e-02,1.744194083452844241e-02,4.818557186725787311e-02,1.709040850400924683e-01
-2.865691003397684011e-01,-4.161859139537842922e-01,-4.613049216127889651e-01,2.058881744825693041e-02,6.007246320584286488e-03,4.997559542250494015e-03,1.616765707731246948e-01
-2.978870469689051670e-01,-4.724534001986973597e-01,-5.164494679338935690e-01,6.166307870768215210e-02,4.310302241018129643e-02,4.046883019416555594e-02,2.489640414714813232e-01
-2.841556688110018491e-01,-3.975959907954257355e-01,-4.497341349560544099e-01,1.861974938136079852e-02,7.899467737055966901e-03,7.130104124563274581e-03,1.512662023305892944e-01
-2.772465999194821396e-01,-3.524665604262252061e-01,-4.606747688513402883e-01,6.025303134892327772e-02,2.858308208264196846e-04,-2.162979314408754183e-02,1.944262087345123291e-01
-2.852487929818641743e-01,-3.968184937609774976e-01,-4.575340705487013770e-01,1.492366584207762033e-02,7.671863965956701899e-03,6.542742652782149344e-03,1.545358896255493164e-01
-2.659064037904121935e-01,-4.190076382704046587e-01,-6.138764611470413080e-01,1.337471257472490072e-01,2.915948131533081106e-02,8.396872386763756801e-02,4.106293320655822754e-01
-2.979499607488082513e-01,-3.852116114982531148e-01,-4.415123470345472256e-01,8.658621024641596081e-03,1.332180025539609833e-02,1.671910301517683453e-02,1.315035223960876465e-01
-3.319609745810216950e-01,-4.607614118347125864e-01,-4.035004211824861353e-01,7.840030739282048342e-03,1.205657808999319874e-02,2.761190541346582317e-02,1.241002306342124939e-01
-2.841182914732645615e-01,-4.806757430548924681e-01,-4.114287295184377857e-01,1.085749669909098943e-02,7.217747480329822496e-02,1.452858870488137055e-02,2.154869437217712402e-01
-3.009697838531515957e-01,-4.974724863127514829e-01,-4.419991727476168530e-01,-1.554131656659777684e-02,3.969082517004644123e-02,-1.586771302013049306e-02,1.923433840274810791e-01
-2.522278621555493761e-01,-4.493236927846762097e-01,-1.792858401510255550e-01,3.392319539790913333e-03,9.256907835510978788e-02,-9.289688011070692045e-03,2.907651960849761963e-01
-3.444998021765711682e-01,-4.803554987585715863e-01,-4.009433464370799061e-01,3.180788870909244392e-02,4.626327134659091039e-02,5.644350107067379330e-02,1.816264539957046509e-01
-2.785400420866712690e-01,-4.389031060616127577e-01,-3.034517803091129617e-01,4.588099267584720004e-03,2.829108833266955059e-02,7.042895412892758583e-03,1.579718291759490967e-01
-2.784422075539799146e-01,-3.848945382894188860e-01,-4.526785348172793766e-01,1.598180931031187302e-02,2.199513113869264441e-03,1.451700379544353624e-03,1.546920239925384521e-01
-3.066513173047479279e-01,-4.445315866778743463e-01,-3.328270440154335041e-01,2.422195183209601387e-03,2.863953128513827429e-03,1.549838089519103672e-02,1.298068910837173462e-01
-3.430406053927387289e-01,-3.363393892400076690e-01,-5.107817980423161597e-01,6.507545777452727886e-02,-1.687816267053889735e-02,-6.991597764863041742e-02,2.398538738489151001e-01
-3.170528408844461854e-01,-3.628405137989325624e-01,-4.631062120014775019e-01,7.129816704789035051e-03,-2.536618230219063030e-03,-9.426906463709095949e-03,1.310689151287078857e-01
-2.710598559933427576e-01,-2.665807395411850522e-01,-4.695816393275381584e-01,1.097859673148668530e-01,-2.360054398328340075e-02,-4.872560980141661668e-02,2.920146286487579346e-01
-3.339033742656422055e-01,-3.511160803739356018e-01,-4.931903321895884096e-01,-2.986055838419945712e-04,3.861551259510738487e-04,-3.587667969955911709e-03,1.515459716320037842e-01
-2.890379421248115976e-01,-2.553081214710395397e-01,-4.366539361034119104e-01,3.174807020274673843e-04,6.024159547727802851e-04,6.064815797949967696e-03,1.673887073993682861e-01
-2.607727806540550697e-01,-2.752010607154989352e-01,-4.387537240230606761e-01,7.318655194762083149e-02,-1.381721331184641594e-03,1.236971856822029724e-02,2.141284793615341187e-01
-3.288527405075808985e-01,-3.567678104806508155e-01,-4.879375329779186421e-01,9.546338535230957195e-06,-3.471268040499737688e-03,-1.030946507025046199e-02,1.483285725116729736e-01
-3.250697659051301480e-01,-3.496441497414333743e-01,-4.715612946744662803e-01,-3.487694073955605913e-03,-6.665904577571430192e-03,-7.108480475321291361e-03,1.370588093996047974e-01
-3.002793013575068559e-01,-4.233162317645164929e-01,-4.865584160185710272e-01,-2.506254636108454573e-02,-2.759120001500807180e-03,5.646523653586648858e-04,1.697850823402404785e-01
-3.499593148289609768e-01,-2.710715468429713004e-01,-5.094467903647059703e-01,-9.117236892056792066e-03,5.372804140810070322e-03,4.045939250287227708e-03,2.112492024898529053e-01
-3.079349516487577820e-01,-4.413061376187494833e-01,-5.034103844740798195e-01,2.596897117208735520e-02,-2.331558977939795618e-03,-1.163344636317189878e-03,1.788050830364227295e-01
-3.307510583984252794e-01,-4.596269409627967706e-01,-2.979744400535042637e-01,2.436909480008967160e-03,3.589283088188352424e-03,2.095849384757337772e-02,1.525832712650299072e-01
-2.763703245238454120e-01,-4.433199054010066309e-01,-4.619487051764774033e-01,1.019007531190151312e-02,-2.609950781885144074e-03,-2.628084861116976919e-03,1.779941916465759277e-01
-3.082884499667149503e-01,-4.737144090610068137e-01,-3.923182733881636630e-01,-1.115919279655896903e-03,1.590175610415694215e-03,-3.843006214243788014e-03,1.434631347656250000e-01
-3.114218121280313278e-01,-4.635563474464733935e-01,-3.349058327339016206e-01,-5.610436036224414206e-04,3.075622190411837851e-03,1.321542838647929517e-03,1.419797390699386597e-01
-3.192323885692734398e-01,-3.412081588753527184e-01,-4.671377347602591601e-01,3.732506711871561391e-04,-6.464258368114428983e-04,2.600603239678337883e-03,1.383132487535476685e-01
-3.153099820460578129e-01,-3.567988565808570822e-01,-4.791088390159088939e-01,-1.573101020887864715e-02,-1.775640598756955246e-03,2.901897538963760844e-03,1.501088887453079224e-01
-2.895128026327747905e-01,-3.276363230788699732e-01,-4.499844863843368015e-01,-1.988987261409851104e-02,7.069787024542672701e-03,-1.187895298419661995e-02,1.511519551277160645e-01
-2.878333742751464919e-01,-4.313300150044053760e-01,-4.698239057878217384e-01,2.477286127048510585e-03,4.945747749132346771e-03,1.778350416869863221e-03,1.664274334907531738e-01
-3.341597686602125195e-01,-3.523132234002066543e-01,-4.926171965042397405e-01,4.474127360194577342e-04,1.031387503253295112e-04,6.015126014543010873e-04,1.502114236354827881e-01
-3.054575752810348432e-01,-2.903820425131077854e-01,-4.583739571170376004e-01,-4.280801211931549444e-03,-1.755361954224925409e-04,-4.976376042592811459e-03,1.613857150077819824e-01
-2.621096014770988858e-01,-3.337531946235795521e-01,-4.359208704500568410e-01,-4.756253455196041147e-02,1.453732036410864716e-02,-2.048487538361979179e-02,1.776799708604812622e-01
-2.887641204563797803e-01,-3.944431573870983976e-01,-4.773771453537560827e-01,-1.450939726763926518e-02,4.126143001235299816e-04,1.270702479736923870e-03,1.656726002693176270e-01
-3.575878029923571511e-01,-3.540021001249697985e-01,-5.449506297552724199e-01,-3.834315067298926100e-02,2.253069224976247172e-03,-4.380958899384168603e-03,2.006811201572418213e-01
-2.936013336065170232e-01,-1.202151786669536371e-01,-4.512236460114789072e-01,3.053824435027211945e-02,-6.506663631162899926e-03,2.184277605020918181e-02,2.942671477794647217e-01
-2.727096461026325969e-01,-4.518023419142414565e-01,-4.503798799090058536e-01,1.767915660517036360e-03,3.025545248311947970e-04,-8.038977830807398240e-04,1.784182041883468628e-01
-2.716387086498809333e-01,-4.519123146998624274e-01,-4.498449725323545034e-01,2.943144308574586858e-03,1.935452010831297930e-03,1.768860756566263334e-03,1.793788522481918335e-01
-2.724531768798652553e-01,-4.495774958579680791e-01,-4.498346185656528218e-01,4.191274854055286928e-04,2.830905085430062643e-04,2.783417722564677753e-05,1.772551983594894409e-01
-2.748171441242891477e-01,-4.524485588953480186e-01,-4.512688073469461880e-01,8.697513151707805205e-04,5.838733710276618801e-04,-1.557110177849472079e-04,1.770539879798889160e-01
-3.723347343983605118e-01,-4.221874342643394673e-01,-4.788568106286933412e-01,-2.609928651635599894e-02,-1.636118013790233486e-02,7.726751869682818574e-02,1.711117327213287354e-01
-2.328788218945763433e-01,-2.015363532508892275e-01,-2.369164328852957357e-01,-6.289312690580537227e-03,-1.348768204788455480e-02,1.577586820622395858e-01,2.765014171600341797e-01
-3.858574901062530316e-01,-4.431611925480193892e-01,-4.879587669164957564e-01,2.360249802925845630e-03,-6.142824193103629295e-03,9.092696911056369347e-02,1.810819208621978760e-01
-2.742253966683749211e-01,-3.490296754500720189e-01,-2.366428955715028926e-01,9.029725274521029771e-03,2.440502391641091381e-02,1.342092952732212852e-01,2.566851973533630371e-01
-3.188956738734216034e-01,-4.508574235492600057e-01,-3.607492922853483552e-01,-3.633942949609209332e-04,-1.118511789380457859e-02,7.273731139484525265e-02,1.728884577751159668e-01
-2.464731746344528962e-01,-6.951604679323176716e-01,-5.959837889247669995e-01,-7.033281774932810537e-02,-3.210602744802614449e-03,4.531222833856100168e-02,4.332292973995208740e-01
-3.229113826864309367e-01,-5.520750790690269749e-01,-4.089265500899579298e-01,1.167325391986577532e-02,-8.847245703157584351e-02,-2.505596330683355910e-02,2.568606138229370117e-01
-3.069895276472905388e-01,-5.404397452110878408e-01,-5.414403664258724547e-01,6.166648961363438994e-04,-5.323005961889950080e-03,3.398325033678217035e-05,2.341361790895462036e-01
-2.800765646700676959e-01,-4.863943710293442413e-01,-4.666787215675547440e-01,1.674113449047307661e-03,1.638162846011933724e-02,2.799738936931111654e-03,1.993114501237869263e-01
-3.252032634870701822e-01,-5.423384398358669367e-01,-4.088919305886306033e-01,9.350085550925802541e-03,-7.512758974713203142e-02,-3.427875675893582441e-02,2.381166964769363403e-01
-2.822288224841057458e-01,-5.195341659578088800e-01,-5.108637025205142734e-01,-7.001353903569960263e-03,-1.655505271141585744e-02,-1.403702698282122130e-02,2.364145368337631226e-01
-2.425205270090821652e-01,-5.615004585618912358e-01,-4.398863087683541617e-01,-1.435538357717672069e-02,7.156388822964855623e-02,-5.469176583073198303e-03,3.062970042228698730e-01
-3.092197376180790269e-01,-4.843921211832585283e-01,-4.857783144476693904e-01,7.039175125957423040e-04,-1.684111847120189822e-03,2.457372544284089789e-03,1.759494841098785400e-01
-3.440836717045820947e-01,-2.423039750013938065e-01,-6.057386314496551183e-01,5.006967745852650142e-02,2.130117908140673894e-02,5.846365698025429020e-02,3.529726862907409668e-01
-2.606086686354883164e-01,-1.392380502288276534e-01,-4.456428780535730549e-01,4.858844848122047949e-02,1.252088294342158792e-02,2.022774149161970722e-02,2.832075357437133789e-01
-2.843698665220334432e-01,-4.065165843887059705e-01,-4.605275217012231304e-01,2.172243957000561526e-02,9.922244122258233254e-03,1.375534544566532451e-02,1.634406149387359619e-01
-2.478076868160383195e-01,-2.552782039829875060e-01,-4.315806460437290881e-01,8.397153665846093795e-02,2.642581301961514223e-02,5.626580484592504094e-02,2.553460001945495605e-01
-2.918464702388536280e-01,-4.608931736816279656e-01,-3.977920054331212651e-01,6.517363506184808454e-03,-1.325161030416663333e-02,-4.203941114578732888e-03,1.503288596868515015e-01
-2.835081140909029851e-01,-3.964547041843877184e-01,-4.645303414058831737e-01,1.524054365795495837e-02,9.868806068935464040e-03,3.850948414824183121e-03,1.615971177816390991e-01
-3.196340235140416319e-01,-3.668229820319657275e-01,-4.573644778720514226e-01,-1.244326308198171870e-03,4.322348270117640223e-03,6.232263445851030613e-03,1.219603866338729858e-01
-3.028392228841760847e-01,-3.978507854782440400e-01,-4.719166219851306798e-01,3.184387501253958374e-03,5.301557069033395464e-03,4.276511790353882368e-03,1.473759263753890991e-01
-3.048744663739741401e-01,-3.610531046036423719e-01,-4.626892258315784545e-01,1.101849593352562801e-02,5.406644483550319957e-03,3.852674884701296973e-03,1.403287798166275024e-01
-2.478551119320737683e-01,-4.099419969725869306e-01,-4.253108316896330177e-01,-3.213823740012615449e-02,-2.551610458143070345e-02,2.787766949031630567e-02,1.907426416873931885e-01
-2.752472304884736043e-01,-4.562489802524203331e-01,-4.651019613394845598e-01,-5.369339352943171967e-03,-5.269148214617045897e-03,-2.250307668651466229e-03,1.860843598842620850e-01
-2.489476608586982664e-01,-3.778175087085854922e-01,-3.605173013767306034e-01,-3.207566992693573066e-02,-3.751407033557386389e-02,4.602681266764978296e-02,1.683482229709625244e-01
-3.218749191941818744e-01,-4.574400222522692627e-01,-4.676613915032936664e-01,-9.538096506901300176e-02,-5.095572070802321246e-02,1.619735643173450534e-01,3.655904531478881836e-01
-2.413989926575439982e-01,-3.822324499978025369e-01,-4.371856484092540018e-01,-8.071785690137082969e-02,-4.862544264405652128e-02,5.332453171347754234e-02,2.564431726932525635e-01
-3.029014531952028966e-01,-5.780380416539987465e-01,-5.112481521254785832e-01,-9.575652446556534581e-02,-7.999621645448717899e-02,1.259574184896996019e-01,3.950780034065246582e-01
-2.852643294399302420e-01,-4.874094001357789363e-01,-3.093048245196051704e-01,-9.852039983038463067e-03,-8.809332927483751186e-02,5.083871691075941140e-02,2.605899572372436523e-01
-3.055963803573858439e-01,-4.837967559817613616e-01,-3.921961764985207877e-01,1.277190157885529573e-02,-1.601615896210533893e-02,-2.795048484668033115e-02,1.656061261892318726e-01
-2.488296380988358480e-01,-3.416275502786483842e-01,-1.501615887688089179e-01,3.392423647409491955e-02,-6.729941481585680063e-02,-1.310094233989939905e-01,3.098929226398468018e-01
-2.969659388764073205e-01,-4.575369258256834493e-01,-3.843499470057200607e-01,4.994761307793949522e-03,-2.406628651130306856e-02,-1.674662052794905973e-02,1.484635323286056519e-01
-2.801011048211777821e-01,-4.561264750714897342e-01,-3.698708090188477793e-01,2.100964671320013424e-02,-6.467342118212744684e-02,-4.879790470326512974e-02,2.103750556707382202e-01
-2.854690775941607916e-01,-4.707408481649066889e-01,-4.725626655997653414e-01,-2.053392343218008072e-03,-2.347976276628344679e-03,-1.711016822681298618e-03,1.862913072109222412e-01
-2.834564372699671653e-01,-4.828247735309989519e-01,-4.765025379305248276e-01,-7.495981449922810465e-03,-1.097518577042118316e-03,-2.364489894771989575e-03,1.967643350362777710e-01
-2.967252642606538204e-01,-4.834477451785149094e-01,-4.817070757943877624e-01,-7.303067415195803845e-03,3.766794756899601113e-03,4.207745978199240941e-03,1.865448504686355591e-01
-3.219632438154911291e-01,-4.692635919079706230e-01,-3.349831300841429327e-01,-1.786005944824178154e-02,3.707358023137526104e-02,-2.452108372137460496e-02,1.638084948062896729e-01
-3.363705079273952014e-01,-5.324899072785418408e-01,-3.535504750366952331e-01,-9.279366515808750576e-03,4.667747668838009151e-02,-1.685186885748765281e-02,2.074494659900665283e-01
-2.716698699663378513e-01,-4.547158041053803723e-01,-4.227419404174833084e-01,2.215565479738135462e-04,7.942800761473474414e-03,1.197265056669663628e-03,1.699092984199523926e-01
-3.079916127141167914e-01,-5.347335922188062307e-01,-4.779262115117849929e-01,-1.856404937619922368e-02,6.786247156991430385e-02,-2.547785972686993777e-02,2.419825792312622070e-01
-2.970000403819776924e-01,-4.498980752614022416e-01,-4.128647836760367396e-01,-1.105086780856589200e-02,1.068959184584987454e-02,-4.644926478968891201e-03,1.409285217523574829e-01
-3.189983905462479008e-01,-5.886116905649489972e-01,-3.862913683268510701e-01,2.501135327230432151e-02,1.151705114922938894e-01,-1.727938402143617408e-02,3.188130557537078857e-01
-3.379160748699786554e-01,-6.184191979436204356e-01,-3.113132486254924780e-01,-4.593050228551175118e-02,9.762653653386763053e-02,-3.209810349854672583e-03,3.490049540996551514e-01
-2.276485476972570088e-01,-4.703067823107101031e-01,-3.315098051017176251e-01,-1.280393864831334133e-02,1.061187777167537788e-01,-3.088076964845972577e-02,2.856635451316833496e-01
-2.613028926669115903e-01,-4.115556018066579003e-01,-2.033000695574265770e-01,-3.124392080673637356e-02,7.328960596468848954e-02,-5.674089037861069357e-02,2.517071962356567383e-01
-2.785273364715934452e-01,-4.445702425391340751e-01,-4.356465069039387461e-01,8.150932774931769417e-03,6.826859925770942771e-03,4.637673993602807812e-03,1.630086302757263184e-01
-2.711000834303818330e-01,-4.438479312255402265e-01,-4.498521978676500166e-01,5.244202301454606828e-03,5.818212092153720108e-03,2.461025368107550015e-03,1.764010339975357056e-01
-2.714491554118802497e-01,-4.458566534938380177e-01,-4.476039356514119882e-01,1.754772596750784784e-03,2.611695462899684544e-03,5.242380444475117562e-04,1.753747165203094482e-01
-2.734300737115267221e-01,-4.565346014174992972e-01,-4.570980940884720178e-01,6.518882055123439816e-03,5.476923926665120367e-03,1.016797099754207772e-03,1.839873492717742920e-01
-2.725908882707016034e-01,-4.505379992012294998e-01,-4.497509761822975904e-01,4.072752803249920801e-04,9.009232612006504983e-04,-1.243337026914745509e-04,1.775632947683334351e-01
-2.712156474628018565e-01,-4.458652448898556830e-01,-4.470493702244888734e-01,1.735206372971806856e-03,2.768189536615841065e-03,5.915205296226252714e-04,1.753389984369277954e-01
-2.702462016170695258e-01,-4.505849353465851692e-01,-4.512196142329688575e-01,1.541242711530777616e-03,1.939855452771853308e-03,8.312903424578777477e-04,1.807136088609695435e-01
-2.699908260495650358e-01,-4.582133322352410221e-01,-4.551989842648458406e-01,3.788016282812455698e-03,3.111490611072127536e-03,9.004117028509412346e-04,1.869330257177352905e-01
-2.867511487302044637e-01,-4.777778119306811955e-01,-4.723085709292548229e-01,2.747305816091696624e-03,6.655505230621618301e-04,-2.542124948570221709e-03,1.884666681289672852e-01
-2.884171387388207997e-01,-4.598537447825187807e-01,-4.753219192095908818e-01,9.473162118663188899e-03,6.943951729800308149e-03,4.150222043124102665e-03,1.809616982936859131e-01
-1.496914060287156401e-01,-1.753108346311538779e-01,-3.994165727996479287e-01,1.413763459417385071e-01,-4.838653391693343610e-03,-4.213998394066244095e-03,3.416233658790588379e-01
-2.732400926308205524e-01,-4.992713241220613218e-01,-6.130774340915179366e-01,1.896707337388394699e-01,1.197135511674742546e-02,-5.431357420117254725e-02,4.549400806427001953e-01
-2.904123872249133598e-01,-4.252004907064586003e-01,-4.353522021326201030e-01,-1.074737005945881375e-02,1.118668095019798719e-02,-1.110763202138198569e-02,1.439836919307708740e-01
-2.957640184169394448e-01,-4.417978376354555481e-01,-4.440063645922790458e-01,-6.569249028904181227e-03,6.475998519480571577e-03,-3.626575886307962290e-03,1.481486111879348755e-01
-2.871627959986926548e-01,-4.238924798484967060e-01,-4.341249213907503179e-01,-3.995132497954087883e-03,6.397399364741476399e-03,-3.611929695987857458e-03,1.428586393594741821e-01
-2.755722053323261811e-01,-4.313157298674288320e-01,-4.341452341304396501e-01,-5.362986009869208891e-03,2.644443682133687436e-03,-3.241901649764082106e-03,1.576182842254638672e-01
-2.852599829158131151e-01,-4.423482614921985800e-01,-4.281320957252598980e-01,-7.733376904759478414e-03,1.786362895543546978e-03,-9.187354946857330829e-04,1.511196643114089966e-01
-2.800334712144078031e-01,-4.438350124295049604e-01,-4.339079007868689164e-01,-7.372051255574189541e-03,4.085853755786551800e-03,-2.615542764403306925e-03,1.598031967878341675e-01
-2.938457632207531200e-01,-4.272582503820254174e-01,-4.267623624163817131e-01,-5.880560198026228182e-03,5.419642981400217725e-03,-6.802257791799225066e-03,1.344010829925537109e-01
-2.957896687481542664e-01,-4.198919073035806693e-01,-3.920743568980089577e-01,-1.258735255949590751e-02,7.188177126541728940e-03,-1.016481365214958257e-02,1.168899759650230408e-01
-2.782021333228618110e-01,-4.343606091402807956e-01,-4.472889351610030984e-01,-4.191598798504472985e-03,-7.848627586799760206e-03,2.241011094589756818e-03,1.637805104255676270e-01
-2.719827727709708265e-01,-4.550893138570414331e-01,-4.518671318886290367e-01,-1.207849096093218440e-03,-6.075844749385983122e-04,-1.213637527854087393e-04,1.815321296453475952e-01
-2.751169862939862876e-01,-4.294833674531786105e-01,-4.590279929703666717e-01,-7.616444094272064973e-03,-5.238481748408670667e-03,9.029764350539446881e-04,1.718178242444992065e-01
-3.095075687765680983e-01,-3.685456544213438490e-01,-4.396979343445413524e-01,-1.116583254575863500e-02,-4.000065067956014644e-03,2.528386843480056115e-02,1.228360235691070557e-01
-2.805087200608356035e-01,-4.811219911372110469e-01,-4.892745584232935929e-01,-1.493532600720875667e-02,9.919872288177242203e-03,-6.271920288037986964e-03,2.074369192123413086e-01
-2.723948400549286442e-01,-4.482489895077365061e-01,-4.530707775156915806e-01,-4.327039342060816710e-03,-5.520119505875388868e-03,3.006362187198481271e-04,1.787280589342117310e-01
-2.754295953999279511e-01,-4.581739144911134987e-01,-4.582904490739233005e-01,-2.715541691887766399e-03,-4.744410364326276733e-03,-1.098180348138829348e-04,1.830477565526962280e-01
-2.700402191865646229e-01,-4.525948603994330299e-01,-4.585178761392905700e-01,-1.460813155459862690e-03,-9.516373233818928475e-04,3.347017683530981256e-04,1.856125146150588989e-01
-2.732210306390678856e-01,-4.286109641115639080e-01,-4.532729339146245318e-01,-8.364051556160843892e-03,-5.894517024842160606e-03,1.766320354620646909e-03,1.700292080640792847e-01
-3.159652983546565319e-01,-4.607887056028900363e-01,-3.470454992998592281e-01,-4.793397384874686722e-04,7.344534423308596294e-03,2.942242891059106136e-02,1.421204060316085815e-01
-3.189962151453455963e-01,-4.827836237933708086e-01,-3.169559374073049329e-01,-3.721688049066342475e-03,-1.018461544402598888e-02,4.363104553796218893e-02,1.822865456342697144e-01
-3.083406860101378655e-01,-4.549776899165682287e-01,-3.376913567210760303e-01,-3.648981460015423249e-03,-8.778496530771968042e-04,1.839785119280911221e-02,1.382666975259780884e-01
-3.152017322948817979e-01,-4.505243646438744642e-01,-3.680330761819234908e-01,-2.853301820388203913e-03,-8.117311985804992643e-04,8.422082887710249932e-03,1.191355735063552856e-01
-3.237754834388654190e-01,-4.675148359065551817e-01,-3.620347358947029748e-01,-4.597375841641856802e-03,-8.686486554531365478e-03,1.212578854284717712e-02,1.317432671785354614e-01
-3.023806387128273876e-01,-4.675509180051318214e-01,-3.671215108849221753e-01,1.216944980019510521e-02,-1.579926327680057294e-02,-3.125559432323650813e-03,1.483299583196640015e-01
-2.866274750872462862e-01,-4.647286890059755815e-01,-4.164237187388159511e-01,1.087581040310291874e-02,-3.464535797751399498e-02,-1.007440508913446872e-02,1.723672598600387573e-01
-3.577018611339979892e-01,-5.372865884431773376e-01,-3.732718870221757856e-01,1.052283858749224026e-02,-4.067612969031944581e-02,-3.732236903667168065e-02,1.979183405637741089e-01
-2.903612697928777964e-01,-4.600646086786205347e-01,-3.930863760054037481e-01,5.370643151461114082e-03,-1.355446723970417378e-02,-1.096964056920887026e-03,1.502005010843276978e-01
