sxx,syy,szz,sxy,sxz,syz,smises
7.533340218528164489e-02,7.533340218528164489e-02,-6.306668043705606630e-01,-4.913990722396502041e-52,-2.260435732302455093e-52,-2.260435732302455093e-52,7.060002088546752930e-01
