sxx,syy,szz,sxy,sxz,syz,smises
1.296051112127668799e-03,1.296051112127668799e-03,-2.592102224255337598e-03,3.888153336383031768e-03,4.860191670478788278e-02,4.860191670478788278e-02,1.193035989999771118e-01
