sxx,syy,szz,sxy,sxz,syz,smises
-4.438114889532378537e-01,-3.805255266120912139e-01,-3.759784357606649752e-01,1.762380634315663169e-03,-4.898132827965861373e-04,4.927356657903045334e-02,1.077369302511215210e-01
-4.764209558343309725e-01,-3.844268434256181144e-01,-4.207261075070539147e-01,3.352730368044457270e-03,8.216659207978798535e-03,4.978417520164224452e-02,1.187976822257041931e-01
-4.774450219890739588e-01,-3.351318484448913559e-01,-3.559268262877051114e-01,2.986618734159961555e-02,1.193418244199516941e-02,8.183709369787113552e-02,2.022899985313415527e-01
-4.739664159790129561e-01,-3.739648393777181834e-01,-4.009470858118718284e-01,-5.536454443220538944e-03,-1.474381408872328658e-02,6.029640451425558045e-02,1.402895450592041016e-01
-4.726877514418995618e-01,-4.066484462846950976e-01,-3.943727633342868910e-01,-1.083825637018191387e-02,-7.840359011740153858e-03,4.771046278582422029e-02,1.126420944929122925e-01
-4.163373448095517015e-01,-4.227382348526612654e-01,-4.710401179500438018e-01,2.854779224340518382e-02,1.116540659052262137e-02,1.502192935630960319e-02,7.860738784074783325e-02
-3.661576580257857594e-01,-3.203703933394882464e-01,-4.388407362459905703e-01,5.811447400297372473e-02,1.851957745538623454e-02,2.514805145717621468e-02,1.541600972414016724e-01
-3.841140704844803189e-01,-3.754202652563366494e-01,-4.390493599899897292e-01,6.356076906463306586e-02,2.045559376684349603e-02,4.083005602423683128e-02,1.481470614671707153e-01
-3.997777144752833189e-01,-3.975432747353356833e-01,-4.458562306043291623e-01,2.645403663065754377e-02,1.161207224331388572e-02,5.528067695337513486e-03,6.947539001703262329e-02
-3.957306982567716513e-01,-3.737685555536823245e-01,-4.397809406774635943e-01,3.787224622933044182e-02,1.933853874813565993e-02,1.170057634711196663e-02,9.605085104703903198e-02
-3.439644012973722687e-01,-3.721339792079261244e-01,-4.243764808857877213e-01,4.727204047822335803e-02,2.404559624474612162e-02,2.002879803568566666e-02,1.209810748696327209e-01
-3.958462161669659696e-01,-4.150416156929528366e-01,-4.601291483362457413e-01,6.183187874201900858e-02,5.343453414877690627e-02,2.861760202500185021e-02,1.604961603879928589e-01
-4.197978803428789596e-01,-4.309198693525595480e-01,-4.950281080778000664e-01,6.577037629098636540e-02,2.022564031520841105e-02,2.141042559705363599e-02,1.432698518037796021e-01
-4.026205100323322905e-01,-4.094763359813531900e-01,-4.635586466748983780e-01,3.759057039383812554e-02,3.624418546883333234e-03,6.582155693574448865e-03,8.804097771644592285e-02
-4.148104160181040334e-01,-4.045372786390821762e-01,-4.553095556139707401e-01,2.543977155727254053e-02,8.587067149939559343e-03,5.089032430745909705e-03,6.634926050901412964e-02
-3.982949549813006862e-01,-4.206905611819721225e-01,-4.361096674120640837e-01,-1.668955222210237108e-02,1.277748623467328017e-02,-6.113311137830710132e-03,5.022117123007774353e-02
-4.379595901799267499e-01,-4.320505174604937215e-01,-4.529616548488855643e-01,-1.340230362708702203e-02,3.515886882042329551e-03,-9.689142456533742648e-03,3.473061323165893555e-02
-4.362791540314038818e-01,-4.208514865165845498e-01,-4.560240295817629130e-01,-1.819129936949274995e-02,1.021376107977781285e-02,-1.045579370737997893e-02,5.065761506557464600e-02
-4.188875385574757915e-01,-4.200651253215552661e-01,-4.392202873902111837e-01,-8.772656521561277010e-03,7.753281160700759012e-03,-4.477777816726425698e-03,2.936382032930850983e-02
-4.460091056834207812e-01,-4.327783063951864406e-01,-4.594070164584128091e-01,-1.103113796298571189e-02,5.029208900243335896e-03,-9.488024787339855923e-03,3.525376319885253906e-02
-4.405679299128741899e-01,-4.268715144044002430e-01,-4.492194013238361427e-01,-1.075904360336050851e-02,5.024073837256130305e-03,-6.163678397891046191e-03,3.029689192771911621e-02
-4.266425851604717101e-01,-4.117196655714012721e-01,-4.424536663677572368e-01,-1.805855588933477640e-02,1.244899700295090499e-02,-1.315618652871212817e-02,5.168320611119270325e-02
-4.211342434849323357e-01,-4.081178930657147208e-01,-4.321982074709928012e-01,-1.798176428265383167e-02,1.488263962727312886e-02,-1.061466449225435121e-02,4.907517507672309875e-02
-4.623047033629082980e-01,-4.189535012262266545e-01,-4.356679352651189885e-01,-3.845134749964312058e-03,-4.560863400397120911e-03,-1.144480578531223945e-02,4.397520422935485840e-02
-4.610225787202226755e-01,-4.328358135517159644e-01,-4.386262707229143243e-01,-2.296797244242468859e-03,2.096015069470168017e-03,-1.338480510333269445e-02,3.508950769901275635e-02
-4.713276979827416002e-01,-4.374163774501558244e-01,-4.402183201456038031e-01,-1.128838650266977307e-02,1.244764368989355850e-02,-2.746509582620705950e-02,6.459814310073852539e-02
-4.984901608942985951e-01,-4.447592389628303722e-01,-4.603544964053618016e-01,-1.121768481742041641e-02,-9.931863638446081569e-03,-3.940844712643430670e-02,8.732003718614578247e-02
-4.581237413817871862e-01,-3.748716478051211110e-01,-4.273931168970438454e-01,1.905330275849455258e-03,1.367269053807101953e-03,7.176469132471123037e-03,7.408034801483154297e-02
-4.888205490868804404e-01,-3.917899869448265848e-01,-4.218164707586041229e-01,-8.027575063279921569e-03,9.792778620372977682e-05,-6.831658964251406674e-02,1.469620913267135620e-01
-4.541499466893356707e-01,-4.087108149827853310e-01,-4.132939663134118091e-01,4.857364152170526479e-04,-2.431043621050622307e-03,8.696064763418817622e-03,4.607350379228591919e-02
-4.721464698631098189e-01,-4.214292429374141835e-01,-4.371875872429519805e-01,-1.834166823234498200e-02,6.833367761253665053e-03,-4.745221986001595116e-02,9.962839633226394653e-02
-4.507650199423945403e-01,-3.978934718791419800e-01,-4.278821733650025605e-01,4.162527313245571910e-03,-5.059952700200422322e-03,-3.268235524566752426e-02,7.377243041992187500e-02
-4.395600359809102020e-01,-4.657148574033435628e-01,-4.298749931546249625e-01,1.122526929525794652e-03,-1.731559994063650368e-02,-9.029548646732435055e-03,4.668033495545387268e-02
-4.158698960244552323e-01,-4.429775556929965719e-01,-4.199708890796529648e-01,7.299534146243158092e-03,-8.720364427159786255e-03,-3.327615450645024682e-03,3.258340060710906982e-02
-4.268116164560292192e-01,-4.462629545653484797e-01,-4.132315143866716056e-01,3.040339154808954693e-03,-7.519604899175961164e-03,-9.538399858503018381e-04,3.204713389277458191e-02
-4.322896430388643574e-01,-4.491749815300459803e-01,-4.158960377525282026e-01,5.161805573332631583e-03,-7.582790753191863756e-03,-5.751890273354714903e-04,3.292564302682876587e-02
-4.531183011367474478e-01,-4.694106586765208200e-01,-4.233631736727374584e-01,3.656201251026194605e-03,-1.914970406203420072e-02,-9.821284529373574060e-03,5.536424368619918823e-02
-4.370277044613957163e-01,-4.358479003639771365e-01,-4.340403237215704757e-01,-3.907647285035056634e-04,-1.995035185445903029e-03,-7.228742196454855879e-04,4.556104075163602829e-03
-4.571608728673940414e-01,-4.685531533774170976e-01,-4.315669997212022158e-01,4.297775052012399802e-03,-1.594881287167638356e-02,-8.257266273145529717e-03,4.581983014941215515e-02
-4.345270916220881907e-01,-4.303869869839007656e-01,-4.394804236168514122e-01,-5.652288129567416795e-03,-6.576042927818064390e-03,7.773286621763342980e-03,2.165717817842960358e-02
-4.408797375837640864e-01,-4.186027230518989395e-01,-4.301078616724905435e-01,-1.472586760457248421e-02,-1.678880153448190915e-02,1.499316970529809834e-02,5.042681843042373657e-02
-4.475536866967690375e-01,-4.046778000075581527e-01,-3.994283358693775932e-01,2.091281660090948437e-03,3.259598749034003386e-04,5.669816532709238098e-03,4.691325500607490540e-02
-4.334535901696681126e-01,-4.503332281573289575e-01,-4.255375518716357774e-01,3.179132950105061778e-03,-3.096732155560691542e-03,-2.887361430390472140e-03,2.377616800367832184e-02
-4.416460835677826768e-01,-4.382713946332234545e-01,-4.205186308064866041e-01,-1.409542787075051401e-02,-1.309909143583203733e-02,1.009832132578851460e-02,4.246397688984870911e-02
-4.548883716394385157e-01,-4.531473024405211492e-01,-4.421987049005844383e-01,-1.298174404365749768e-02,-1.964175396451938588e-02,1.760680951450876303e-02,5.229662731289863586e-02
-4.646723809237768843e-01,-3.587477753472753106e-01,-4.741248430502465472e-01,1.643151950154089769e-02,-3.383654174536754452e-04,1.502126834842774233e-02,1.174643039703369141e-01
-4.532410048025306004e-01,-3.701712730098004056e-01,-4.722586187967090510e-01,1.072496007034674619e-02,2.574345103706797509e-03,1.294718292757835593e-02,9.853873401880264282e-02
-4.263101145731311159e-01,-3.623827798918310417e-01,-4.634442475429613184e-01,1.927809467653973652e-02,3.886005042072405557e-03,9.023284438605028504e-03,9.614588320255279541e-02
-4.581906729965655178e-01,-3.281959440946482509e-01,-4.668447527964461052e-01,3.697215522199863436e-02,6.818313904471225888e-04,9.585728196556588671e-03,1.499212533235549927e-01
-4.455433287378019469e-01,-3.505949972335242193e-01,-4.607278761956704605e-01,7.593563530477252625e-03,-1.845527602355458933e-03,4.785367128502839885e-03,1.045916229486465454e-01
-4.333712607138930917e-01,-4.444227939559564078e-01,-4.268419863912111256e-01,1.733257082497525288e-03,-1.014838463995012879e-03,-3.834340975704095852e-04,1.579460687935352325e-02
-4.212217698549008960e-01,-3.242750552714857570e-01,-4.513786321011221125e-01,3.466528188140084732e-02,-2.779816692443402913e-04,3.303185311325054427e-03,1.298834830522537231e-01
-4.366279640791573269e-01,-3.238130414904713539e-01,-4.588828154809234672e-01,3.534732946408229715e-02,-4.895510269232947187e-03,6.204221720884356764e-03,1.402456462383270264e-01
-4.536686761471896978e-01,-3.673691935899427441e-01,-4.749319634104375298e-01,1.092026338304814652e-02,-7.249038863413647185e-04,-1.196367623218771341e-03,1.004906222224235535e-01
-4.143492980554482341e-01,-4.211452984794953336e-01,-4.501949779590282419e-01,-1.701467526622400805e-02,-1.303554715749058110e-02,9.020313457810057514e-03,5.205634608864784241e-02
-3.964398068089447502e-01,-4.076437927184806687e-01,-4.537969428718233722e-01,-2.959752159563044591e-02,-1.319500477344310099e-02,6.952097631592248084e-03,7.789801806211471558e-02
-4.084687276246191101e-01,-4.171670039960041487e-01,-4.378948161536173611e-01,-1.513574180779377575e-02,-1.135401627327897560e-02,1.760521952124753306e-02,5.185983702540397644e-02
-4.713423198752335064e-01,-4.386461575477615948e-01,-4.903623591472765497e-01,-4.559690123735404138e-02,-2.669811944352908431e-02,9.678550596424827235e-03,1.034857854247093201e-01
-4.355071337221133043e-01,-3.966907717044538262e-01,-4.436114014095219327e-01,-3.705542535370931478e-02,-1.726411206345037849e-02,2.219937995251220972e-02,9.153614938259124756e-02
-4.525566699758648559e-01,-4.424283843056686094e-01,-4.762325431471420289e-01,-2.529769059815586973e-02,-1.532739440505829706e-02,5.604812563166873193e-03,6.018200144171714783e-02
-3.969156524625104820e-01,-4.550004123371665377e-01,-4.240902143002648894e-01,-4.146046716848050123e-03,7.860865628868715649e-03,-5.559093265567584610e-03,5.351193994283676147e-02
-4.292883773531315228e-01,-4.096896919672266546e-01,-4.363547339452600871e-01,6.137863123691923370e-03,-7.623338293712854721e-03,-4.129979351885736463e-03,3.018392436206340790e-02
-3.848198826304162767e-01,-3.562739461987784462e-01,-4.217942677723908740e-01,3.215589476208828568e-02,-2.717431516376345082e-03,-1.535748242765128503e-03,7.980399578809738159e-02
-4.517734053828083574e-01,-4.469713615316885935e-01,-4.604932368975179213e-01,2.118114578030254672e-02,-1.737449357265872726e-02,-2.215229101236544651e-02,6.216656789183616638e-02
-4.014289686345510200e-01,-3.987650215744871773e-01,-4.316404129040220528e-01,2.066094850815137704e-02,-7.387715913587481267e-03,-6.372253842905763015e-03,5.066049844026565552e-02
-3.770575246054827523e-01,-4.428975199400292384e-01,-4.024184940269108224e-01,2.270078086367940604e-03,1.206142447136818001e-02,2.210402732891888003e-03,6.143996119499206543e-02
-4.382079528914921696e-01,-4.167540569579178955e-01,-4.485624734127193203e-01,9.728718820401221698e-03,-3.235136380860472501e-03,-6.464816416694589389e-03,3.507640585303306580e-02
-4.376555769040647581e-01,-4.440190240488816054e-01,-4.632920046791720869e-01,1.764765299019702832e-02,-7.997858356034290642e-03,-1.984794061647993796e-02,5.331624671816825867e-02
-4.309435433785223646e-01,-4.093314800949949817e-01,-4.470590162896762032e-01,1.320019594446891417e-02,-7.919452378837871231e-03,-1.253594569576634704e-02,4.751228168606758118e-02
-4.308139647834371977e-01,-4.388899102941414276e-01,-4.449457025571246227e-01,-4.133906052325545323e-07,-1.018066623738408125e-03,1.530637229056559800e-03,1.268612220883369446e-02
-4.350349136035061015e-01,-4.339696537332782267e-01,-4.470763030286163953e-01,-8.755409942763405992e-03,-5.614980612150548452e-03,6.239596808002214647e-03,2.450123243033885956e-02
-4.359183557219430960e-01,-4.361599050565664881e-01,-4.488062458399416088e-01,-5.475409142181829336e-03,-5.006041862153646355e-03,4.813662547078201986e-03,1.994188316166400909e-02
-4.361019764224988160e-01,-4.429619436714044012e-01,-4.478740107610832411e-01,-6.510469845937011911e-03,-6.875446851919083356e-03,5.427644577021342731e-03,2.149967662990093231e-02
-4.117043246571958082e-01,-4.242448186293522050e-01,-4.303243854791033440e-01,-4.756508455336676787e-03,-3.529365926647138815e-03,8.529520899022568700e-03,2.437142655253410339e-02
-4.186803241456152902e-01,-4.111815994630996229e-01,-4.332498393744670939e-01,-1.546140451497252620e-02,-9.263706475365887302e-03,9.755057941949859396e-03,4.047038033604621887e-02
-4.533060089479959975e-01,-3.640952519192416914e-01,-3.831780887639409383e-01,-3.275585451505724083e-02,-2.752531448222344732e-02,6.419234870936749160e-02,1.564418673515319824e-01
-4.334322754859494253e-01,-4.491344729806903691e-01,-4.278840477855061497e-01,-2.681087261058398823e-03,-8.169640501330190400e-04,5.397265321094199238e-04,1.972060091793537140e-02
-5.903840744964314879e-01,-3.047232070182867014e-01,-4.032317797938922421e-01,2.974769079687793194e-02,7.811204653410052171e-03,1.488216982832426261e-01,3.639334142208099365e-01
-4.705633383168443262e-01,-4.241459653615606840e-01,-4.478342032700271536e-01,-2.249670278506663360e-02,-2.774731265281073916e-02,3.331547897713824785e-02,9.366945922374725342e-02
-4.790982902825030032e-01,-4.072939126604447346e-01,-3.899144476590580277e-01,-9.025813653615821774e-03,-3.271689608763716887e-03,4.894935634851266953e-02,1.190397515892982483e-01
-4.582809096496350265e-01,-4.147943071105468782e-01,-4.356455523540690988e-01,-9.421126088716756317e-03,-1.518294479609507905e-02,3.508617740183123113e-02,7.791063189506530762e-02
-4.492064789787061363e-01,-4.014077843080822716e-01,-4.040276451944150304e-01,-1.857669010015570782e-03,-7.753942722394169436e-03,3.895582515522805905e-02,8.312487602233886719e-02
-4.303049216444041480e-01,-4.390857031548252576e-01,-4.460227277091576292e-01,-1.913078541476933301e-03,-1.429314280364903274e-03,2.394405336992053786e-04,1.426244527101516724e-02
-4.509261399028391404e-01,-4.297450168867933962e-01,-4.287821421700243607e-01,-4.270648576192463686e-03,4.845808063840955152e-03,-5.406210082274211584e-03,2.613051980733871460e-02
-4.522910013258445439e-01,-4.304651156075826601e-01,-4.332003795843299421e-01,-2.167331596958176673e-03,1.202590258484512566e-03,-4.202322916963754582e-03,2.226119115948677063e-02
-4.543404004222890702e-01,-4.202688939994808637e-01,-4.208501919591178808e-01,-4.716576200934803620e-03,4.621428949843921739e-03,-1.037415033455775168e-02,3.993844985961914062e-02
-4.195834979386677821e-01,-4.135429417870704061e-01,-4.666166903873503746e-01,3.003380393493096032e-02,1.030349745811225820e-02,1.831983753533853246e-02,8.101937919855117798e-02
-4.176622056392645388e-01,-4.033013187676522948e-01,-4.510313749357654500e-01,4.307644201343524548e-02,3.346123996544606016e-02,2.763789291352853131e-02,1.140886098146438599e-01
-4.282231174545110264e-01,-4.394034337693918935e-01,-4.548733889467974634e-01,-1.691176052122249840e-03,-9.181316810245856649e-04,1.903149900606610368e-03,2.364853210747241974e-02
-4.396879757003046008e-01,-4.363826597697723630e-01,-4.296898167830807691e-01,5.073498023250183099e-04,-8.355925085787209309e-04,-1.361649912001609466e-05,8.983798325061798096e-03
-4.388044123556708587e-01,-4.819794164017361937e-01,-4.409820671682009863e-01,3.763212234177187865e-02,5.491830872541994535e-02,3.766419701604974829e-02,1.390221863985061646e-01
-3.664258790393601362e-01,-3.905558279459561688e-01,-3.799177784162337534e-01,3.926752093347458950e-02,4.259866248734178046e-02,3.876345252889573656e-02,1.225409954786300659e-01
-3.978883067429596077e-01,-4.005934853949403296e-01,-3.938861669093963735e-01,2.314699795084525571e-02,2.763825759868598214e-02,2.033416930424790381e-02,7.192751765251159668e-02
-4.077375678204251952e-01,-4.254650852604782707e-01,-4.062664391573307943e-01,2.740698810225841719e-02,2.976191251607103114e-02,2.893310173525863449e-02,8.811710774898529053e-02
-4.450350390255757294e-01,-4.097254999554204025e-01,-4.614289965736950716e-01,-4.434272092390434232e-03,3.920921322189557974e-03,-8.462144860188786522e-04,4.692170023918151855e-02
-3.987772784036653917e-01,-4.053050649850229448e-01,-4.438559427187014905e-01,4.645505576545306582e-03,2.354962038495363088e-03,1.736783159188121442e-03,4.325347393751144409e-02
-3.720585222247744239e-01,-4.195199703347113895e-01,-3.981807712948233213e-01,2.060230295140942289e-02,2.378762137974307217e-02,2.209260332960797865e-02,7.829640805721282959e-02
-3.725860256885430433e-01,-4.253711373881699509e-01,-3.821903166123914453e-01,2.432244000300793491e-02,4.187863839761567925e-02,2.400963194439870510e-02,1.055326387286186218e-01
-4.395263170197301617e-01,-4.412783971439895314e-01,-4.195992822042369230e-01,2.384441246054765789e-02,2.631846382489365019e-02,2.740191659064341798e-02,8.044449985027313232e-02
-3.898896662880477204e-01,-4.129015710514287729e-01,-3.978187357200277385e-01,2.260370078492949381e-02,3.021017140373931723e-02,2.834455991545621265e-02,8.420773595571517944e-02
-4.188006371732682087e-01,-4.565499535797878372e-01,-4.159445330154561415e-01,1.693401795265084622e-02,2.932462784832899627e-02,1.472997380735235722e-02,7.504655420780181885e-02
-4.083895226559677294e-01,-4.051245229807099446e-01,-4.137240281281988619e-01,2.492646107112327439e-02,2.341791659182293137e-02,2.280184850071927463e-02,7.159252464771270752e-02
-4.147305741849399152e-01,-4.138034639807594561e-01,-4.395222021071356067e-01,2.812747923364159255e-02,2.291906323805047857e-02,2.486367693921217106e-02,8.026450872421264648e-02
-3.738907491231454605e-01,-3.579319960981255377e-01,-3.994066343566947119e-01,4.496924346414019752e-02,3.720977512280094351e-02,3.569381614558508192e-02,1.239172741770744324e-01
-4.203100169557339449e-01,-4.084093846101526926e-01,-4.001787433731092691e-01,1.852025550912481458e-02,2.125943361461402059e-02,2.240145868068192658e-02,6.478954106569290161e-02
-5.076677204282048494e-01,-4.044510651401163615e-01,-3.963152398899768003e-01,-4.968937654076783714e-03,-8.735248597837981521e-03,5.867677193329000340e-02,1.489681154489517212e-01
-4.734700731906682503e-01,-3.718659958700518686e-01,-2.721252570657072267e-01,-2.770341455914986442e-02,-1.513094480080427219e-02,1.434629199166051750e-01,3.084473609924316406e-01
-4.989456291389493536e-01,-4.617590591410620782e-01,-4.076987285315492593e-01,-2.262705747429532774e-02,-2.405236058024196044e-02,4.463508277542095615e-02,1.247559636831283569e-01
-4.986401237431680733e-01,-3.843910448529533896e-01,-3.621781674448530386e-01,-1.443010448238246472e-02,-6.867778058868731668e-03,1.227993480397986253e-01,2.491772174835205078e-01
-4.313539197150335069e-01,-3.752057410865758946e-01,-3.565739201570158889e-01,-1.904323512538854540e-02,-1.894661403334008815e-02,5.513397312505496223e-02,1.258174329996109009e-01
-4.818268086115399806e-01,-4.413148282228842589e-01,-4.334768958747601264e-01,-1.490485442896283610e-02,-1.309021454523870073e-02,3.236693283800438914e-02,7.964649796485900879e-02
-4.663044248902373234e-01,-4.425406393837408303e-01,-3.883513418662798422e-01,-1.495647695216072333e-02,-1.681824585674315115e-02,4.530020475318645434e-02,1.116463840007781982e-01
-4.244770465071693866e-01,-3.909261916961140892e-01,-3.737301639076939797e-01,-3.300517205545895616e-02,-3.907651794156893205e-02,4.611539821163082586e-02,1.273857951164245605e-01
-4.229343201061687707e-01,-4.090711351970341414e-01,-4.200287396992514743e-01,-1.345400049836162175e-02,-1.431650164427569413e-02,1.507507673750176948e-02,4.472181200981140137e-02
-4.865737255649318360e-01,-4.526843378992563838e-01,-4.791615702401665344e-01,-2.865234766985626930e-02,-2.061809116483605958e-02,1.695533106407661611e-02,7.451761513948440552e-02
-4.430750265575519875e-01,-4.401169213997687679e-01,-4.519770738808611688e-01,-1.990931069053789720e-02,-9.447783345806247748e-03,1.487639841503093224e-02,4.727764427661895752e-02
-4.012213965770800028e-01,-4.002248072740310914e-01,-4.250528328635808650e-01,-3.840757326714310665e-02,-2.842829693316193188e-02,2.367768887776090445e-02,9.552229195833206177e-02
-4.391130987530216800e-01,-3.707700703842644052e-01,-3.516053904880989123e-01,3.235413629023773090e-03,6.260137170595489811e-03,5.149822954933856028e-02,1.202206388115882874e-01
-4.361387674498348743e-01,-3.692211849118494649e-01,-3.622889490148832325e-01,-1.532359271705404508e-02,-1.361871464894554191e-02,5.562275438341178491e-02,1.246291473507881165e-01
-5.974493817573083287e-01,-4.221153823815076978e-01,-3.792783455886991617e-01,-8.874595803727756971e-03,-8.001823927230419797e-02,1.452940622713143892e-01,3.505195379257202148e-01
-4.891621277772254528e-01,-4.050930875205256410e-01,-4.284045784082654573e-01,7.839107525337037433e-03,5.724505108498788471e-03,5.190429039807402389e-02,1.183895468711853027e-01
-5.366455694306886404e-01,-4.650671852417527785e-01,-4.230981177333553722e-01,-1.578121013257069091e-03,1.829216722694995689e-02,8.329556361808963805e-02,1.780861616134643555e-01
-4.643674423535977258e-01,-3.541671293007233046e-01,-3.652886525997646183e-01,1.752179305348260802e-02,1.349854508706483519e-02,7.005036495560443277e-02,1.650182902812957764e-01
-4.355712015053549990e-01,-4.167181370645932081e-01,-3.902909346201829388e-01,1.649115484652279029e-02,1.304475584422182428e-02,1.956029423571727099e-02,6.345278024673461914e-02
-4.338247213163864968e-01,-3.908725088462558506e-01,-4.136738246866871749e-01,1.313343140475105655e-02,1.091015064251549087e-02,1.632155281110383993e-02,5.530967563390731812e-02
-4.406121577015676971e-01,-4.197617078016782632e-01,-3.953163225361348010e-01,1.635250874011454081e-02,2.671940759477422697e-02,3.410051555409627372e-02,8.930030465126037598e-02
-4.436755821710814396e-01,-4.405373176614759134e-01,-4.376599477205001532e-01,1.487428435687358774e-02,1.356686976843340074e-02,1.670929426243266541e-02,4.561438784003257751e-02
-4.231294192807354970e-01,-3.992868385974053802e-01,-4.162456185741768566e-01,1.230630252868381187e-02,1.320173625563021876e-02,1.247922193316469697e-02,4.354438558220863342e-02
-4.305605567996865224e-01,-3.798716942519045348e-01,-4.102873942211843761e-01,1.858083872605523559e-02,1.672348246816890774e-02,1.932407101503870114e-02,7.034035027027130127e-02
-4.080628790221605406e-01,-4.426548364947021641e-01,-4.083206664789703622e-01,4.161133625513156915e-03,6.789698385597213275e-03,4.899407679774771783e-03,3.807900100946426392e-02
-4.098929967331850777e-01,-4.069140290563672546e-01,-3.877466867267237438e-01,1.826662024177851812e-02,1.739417538171806124e-02,1.659056631529745238e-02,5.628304556012153625e-02
-1.880116714153326762e-01,-4.097171317502940058e-01,-4.346390173722836647e-01,-3.043500388969309564e-02,1.969546308716979555e-02,-1.508579551904579673e-02,2.447959929704666138e-01
-3.941416161121223949e-01,-3.798099526436909956e-01,-3.982566731002208371e-01,3.134132690203361021e-02,2.593185405639155186e-02,2.883264954188899040e-02,8.797437697649002075e-02
-4.427652021181913700e-01,-3.972946534487741821e-01,-3.549652200355556952e-01,4.558032141587171904e-02,4.051113561572085298e-02,7.895186917843952101e-02,1.887867599725723267e-01
-4.734763659991347295e-01,-4.270889723792446468e-01,-4.191156913372228732e-01,3.338800586050645614e-02,4.603347099464724645e-02,7.133778636664725448e-02,1.659939140081405640e-01
-4.963443866109445990e-01,-4.411230385298506307e-01,-4.268991049064210785e-01,1.703833614426159687e-02,1.348415076941622548e-02,4.001100853157937148e-02,1.012729331851005554e-01
-4.519957965030468872e-01,-3.790566500729606325e-01,-4.025844438317196516e-01,2.107738153644908921e-02,9.133034912336104177e-03,4.310661944698754300e-02,1.063725799322128296e-01
-4.335648850343148397e-01,-3.754880528572361320e-01,-3.938352317868202279e-01,1.975742510598942417e-02,1.872240131575306568e-02,2.840973628970040049e-02,8.536968380212783813e-02
-3.113706607322673237e-01,-4.785350318283648208e-01,-4.571835753787366619e-01,-5.576287412426651768e-02,-8.035076011503348992e-02,6.523374981925814282e-03,2.316365689039230347e-01
-4.158647994496398326e-01,-3.727107703787092552e-01,-3.973253448403379906e-01,1.868515553958158618e-02,2.309486870688584256e-02,2.393888017130325549e-02,7.597804814577102661e-02
-4.081774308493027470e-01,-3.713853742642600486e-01,-3.990767693028171581e-01,3.476686456460693908e-02,3.536731420217316402e-02,4.129563758428644871e-02,1.166035160422325134e-01
-4.448606868044677753e-01,-4.026178138301267362e-01,-3.866423624587845276e-01,2.276453564444453487e-02,3.150251690150035477e-02,4.487839737584566058e-02,1.152763366699218750e-01
-4.411192869038201292e-01,-4.652330041511487657e-01,-4.363244050998906776e-01,9.572703878477015205e-03,-1.744694424717472062e-02,-2.870844190523743483e-03,4.396484419703483582e-02
-4.198865808873742944e-01,-4.446364065139510324e-01,-4.039383054621994984e-01,7.913884558548653012e-03,-2.235128236432440407e-02,-8.271618501655829403e-03,5.615608394145965576e-02
-4.453360423165207971e-01,-4.689628657009675128e-01,-4.420051611411835446e-01,1.096154623077797048e-02,-3.551160317578035130e-02,-3.909213816160704916e-03,6.955252587795257568e-02
-4.257027272650220628e-01,-4.370165081691814168e-01,-4.235292156059660140e-01,-7.558855732040127041e-03,1.107326325389136439e-02,-9.317844324329834296e-03,3.093612007796764374e-02
-4.219075553001460643e-01,-4.437143391138985149e-01,-3.787960430368252362e-01,-9.272616464182648066e-03,2.195166846565525798e-02,-1.367928984617402394e-02,7.442581653594970703e-02
-4.479397137931651063e-01,-4.487405156998480749e-01,-4.422151256269645780e-01,-1.613075529025469884e-02,1.565884638572804036e-02,-1.375751611867932420e-02,4.606524109840393066e-02
-4.290336328034003999e-01,-4.424090666415345652e-01,-4.144003825069418334e-01,-1.506970779815593880e-02,2.632613779347657904e-02,-1.814601870134375378e-02,6.585650146007537842e-02
-3.995164324190363381e-01,-4.081517903548731452e-01,-3.872295920800170044e-01,-2.444949396747689296e-02,3.698166263479022581e-02,-3.639242808651644429e-02,1.010006293654441833e-01
-4.302278801499411220e-01,-4.353700166371267111e-01,-4.200646229333574455e-01,-1.085406671760749849e-02,1.109188679524701279e-02,-1.294494117464456938e-02,3.751307725906372070e-02
-4.364719328586334490e-01,-4.368268146110219630e-01,-4.363161036125467462e-01,-9.998291572128953017e-03,9.315944009404780388e-03,-1.579495815259016403e-02,3.617880120873451233e-02
-4.585670655032144660e-01,-4.691960027936203370e-01,-4.298373514035209175e-01,-1.355853441048614910e-02,2.267112374363147373e-02,-2.206640173715386163e-02,6.926728039979934692e-02
-4.233325491863271228e-01,-4.257924505469278809e-01,-4.116213827823304583e-01,-8.819260901641333417e-03,1.240494092258824857e-02,-1.013327657613218372e-02,3.427895158529281616e-02
-4.060961195465358498e-01,-4.503740993122012926e-01,-3.654411990472897775e-01,2.566924197525973991e-02,3.486656706758231583e-02,1.543138184651264740e-02,1.084049120545387268e-01
-3.880414892396037985e-01,-4.161319756750270216e-01,-3.605623271308161515e-01,2.234310695769661445e-02,3.054287919792492839e-02,2.077300834353693060e-02,8.892065286636352539e-02
-4.448028945019849578e-01,-4.690115255095380076e-01,-3.776209750445251867e-01,4.743062919689857403e-03,3.318070448028653807e-02,1.411725176210762607e-02,1.034123227000236511e-01
-4.447107582300002249e-01,-4.882797117234348727e-01,-4.173742937413953968e-01,2.155301398808424918e-02,4.965050129703953152e-02,2.834641149899588472e-02,1.226222962141036987e-01
-4.108676808303071137e-01,-4.257051833127244445e-01,-3.826413326661715075e-01,1.147071117558812886e-02,1.713189175010391280e-02,1.490767981119143180e-02,5.811746791005134583e-02
-4.571688406086648060e-01,-3.431736562224330100e-01,-4.201437974464751757e-01,-3.373751252125995349e-03,-8.273327855982039614e-04,5.054411827433603899e-02,1.335866898298263550e-01
-4.710046703250423961e-01,-3.395428749273766145e-01,-4.612129383262448257e-01,1.635993343073147881e-03,5.503061339223145250e-06,2.300680713139878139e-02,1.329917758703231812e-01
-4.373603968123148666e-01,-3.443610777472454476e-01,-4.038238467849982194e-01,5.348450805181411381e-03,5.912406962073205215e-03,2.118531856819689738e-02,9.050877392292022705e-02
-4.831862376335752662e-01,-3.909881850165310979e-01,-4.533089641235897860e-01,1.679173323043988211e-02,8.882975905787727361e-03,2.942932466167880873e-02,1.015843003988265991e-01
-4.639322351448245674e-01,-3.780429144118924722e-01,-4.385020712193844483e-01,1.304189773247733941e-02,1.065332762122568394e-03,3.389236041377720332e-02,9.899112582206726074e-02
-3.904203021898123849e-01,-3.919550682376288231e-01,-3.669168765326473736e-01,3.551131218154952862e-02,3.890983059734567928e-02,4.124574460125717684e-02,1.184042170643806458e-01
-3.910179863976313008e-01,-4.119703757642216857e-01,-4.375878902874906218e-01,3.717507759356560026e-02,1.888118869090952764e-02,2.608328266990178265e-02,9.427872300148010254e-02
-3.683359936594246542e-01,-3.903592959165781417e-01,-4.331740056674299177e-01,2.717557039797927412e-02,1.319024177941863565e-02,1.301147503221074080e-02,8.066240698099136353e-02
-4.226685651134178823e-01,-4.283543074788242477e-01,-4.645371591811648382e-01,3.319592389441274743e-02,2.400098224387108362e-02,1.584141487091090747e-02,8.563967049121856689e-02
-3.912163710218006241e-01,-4.289270376660499484e-01,-4.145797659163219517e-01,1.312853693395940081e-02,1.722327284744439371e-02,1.600743130728365937e-02,5.711922422051429749e-02
-3.769326130539723541e-01,-4.331446685251432727e-01,-4.277253724470548857e-01,2.314793427364062600e-02,2.377892671612052977e-02,1.661139637470929187e-02,8.376241475343704224e-02
-3.595313776627100943e-01,-4.228378295674206089e-01,-4.230690691343701459e-01,2.920927337120471368e-02,3.301491399492670342e-02,2.592038334604261293e-02,1.089380383491516113e-01
-4.703362846098170791e-01,-4.555018926798541923e-01,-4.452293948575863358e-01,1.324331571733157464e-02,-2.594856921323224555e-02,-2.758366871148897059e-02,7.284700870513916016e-02
-4.763331348873445781e-01,-4.637369481611136046e-01,-4.617648307695741972e-01,1.174406666708448232e-02,-2.153754477893009972e-02,-2.289920928644978773e-02,5.971501022577285767e-02
-4.460410052909067891e-01,-4.478247872082703473e-01,-4.390434465087342253e-01,7.641161834390074008e-03,-1.259570442700167631e-02,-2.401330449615516824e-02,4.945364966988563538e-02
-4.315660701198804627e-01,-4.051160591479145423e-01,-4.233947114033333459e-01,1.356663108100798071e-02,-1.471619871855279517e-02,-1.973957909040805619e-02,5.404677987098693848e-02
-4.993005542951876596e-01,-4.347190151214724851e-01,-4.646041267035609934e-01,2.829414835734600855e-02,-5.140228607613808037e-02,-3.813199264499643470e-02,1.335075944662094116e-01
-4.681727557096027614e-01,-4.196716141546632528e-01,-4.569574668289569375e-01,9.350028555063514060e-03,-7.009093811203364124e-03,-1.167409559776151629e-02,5.246612057089805603e-02
-4.292041336327057643e-01,-4.340208810682515406e-01,-4.353646240397411882e-01,-7.055486234618548250e-03,6.594433199985159748e-03,-6.972115955568846356e-03,2.138012275099754333e-02
-4.469818899620418562e-01,-4.420509096910045788e-01,-4.428636228157366572e-01,-7.502753993118878827e-03,4.102139332261655995e-03,-7.911722159673251556e-03,2.069082483649253845e-02
-4.014477306700847681e-01,-4.161917427343542752e-01,-4.132621687444589798e-01,-1.011466863514239554e-02,1.608594308364376391e-02,-9.175968064333375057e-03,3.896873071789741516e-02
-4.561664716217901372e-01,-4.449169377941453174e-01,-4.408417785628860330e-01,-1.486154426880185488e-02,1.364333980268693687e-02,-9.898212152329326219e-03,4.127886891365051270e-02
-4.252990192265999614e-01,-4.092274679706134344e-01,-4.208090613333869134e-01,-7.008558405903091322e-03,6.899519266207845489e-03,-1.176185520428357952e-02,3.019084967672824860e-02
-4.287390458035904017e-01,-4.228133891205120287e-01,-4.356279595704081742e-01,-5.475451531201087560e-03,6.223768080659916428e-03,-4.878166171098991498e-03,2.002320997416973114e-02
-4.471075352821033411e-01,-4.230476351819196790e-01,-4.290315807665834313e-01,-1.201117582350333737e-02,-9.806599801037086533e-03,1.565601635265451846e-02,4.390169680118560791e-02
-4.381064066861238837e-01,-3.909521395307652969e-01,-3.727359509993876663e-01,-7.881968960603473115e-03,-8.974468395427617068e-03,2.997290545260350089e-02,8.085449784994125366e-02
-4.623858030289700327e-01,-4.274766750360796119e-01,-4.175270789178091024e-01,-2.517465507004793598e-03,-6.071153271947077844e-03,1.438734297270828112e-02,4.914824292063713074e-02
-4.414526381211568151e-01,-4.139381564288821536e-01,-4.132831132110913464e-01,-7.108346332725259432e-03,-4.318691221334181388e-03,1.558818232533162700e-02,4.137647151947021484e-02
-4.566625217784615609e-01,-4.252714543651857082e-01,-4.290791655554119233e-01,-7.578771182137382205e-03,-7.457370911821232726e-03,1.789225211701198776e-02,4.668959230184555054e-02
-4.611963393300927416e-01,-4.133999162078132450e-01,-4.175583168033126791e-01,-7.908000927253282936e-03,-1.245807472562847178e-02,3.249038476917597701e-02,7.696186751127243042e-02
-4.315989675319445440e-01,-4.133090527686183457e-01,-4.180998772899512383e-01,-1.181374386070634455e-02,-1.075576582093814085e-02,1.295896799470482551e-02,3.923527523875236511e-02
-3.756307956163618123e-01,-3.967410052836548573e-01,-4.879191670680505521e-01,7.226232758361912645e-02,1.510478209951819466e-02,3.972141208916273730e-02,1.782337129116058350e-01
-4.471733972067228891e-01,-4.595292380125680087e-01,-3.672662544026314979e-01,-7.399238983368879204e-03,7.128819984762641004e-03,-8.825785020936872949e-03,8.986394107341766357e-02
-3.826227816225458711e-01,-4.218158986929029797e-01,-4.502114754143713982e-01,3.708405291125946301e-02,1.337124325338698988e-02,1.775120089062630011e-02,9.519814699888229370e-02
-3.639600165036352974e-01,-3.425671635428637063e-01,-4.228052906237577679e-01,6.181361397445624822e-02,2.948997553448986716e-02,3.346885520120247010e-02,1.503712981939315796e-01
-3.133254728974608216e-01,-3.445368188050661473e-01,-3.899696194610473010e-01,6.866640511642668754e-02,4.199824348332568263e-02,3.534403387485053616e-02,1.662548929452896118e-01
-3.869836751047101009e-01,-4.141574173983331164e-01,-4.479692141878212630e-01,4.582248751311250590e-02,2.988345372481646806e-02,2.393330210676954117e-02,1.161766573786735535e-01
-3.919644470197763408e-01,-4.300757869149186563e-01,-4.745337931842978918e-01,4.006969234892827220e-02,1.541171461521633791e-02,1.491387655525779586e-02,1.063951030373573303e-01
-4.216927470040654491e-01,-4.298610513836668701e-01,-4.780296574887468730e-01,4.104838827827184816e-02,1.674219593938374925e-02,1.701675738626786880e-02,9.769808501005172729e-02
-4.139592246843732948e-01,-4.550896476071918384e-01,-3.914004030795655842e-01,-6.652004977233353690e-03,1.949307268294655712e-02,-4.478909430985244557e-03,6.679322570562362671e-02
-4.058965808127893427e-01,-4.449663142354927103e-01,-3.898633993771835615e-01,-2.900832875554415968e-04,1.202556270109117476e-02,2.284732282012830445e-03,5.347592011094093323e-02
-4.009078189257191949e-01,-4.578886197505884215e-01,-3.804236849634438089e-01,8.837605956545493968e-03,5.055458104242746553e-02,1.721052805732460611e-02,1.167211532592773438e-01
-4.013988451386735212e-01,-4.471214441567348818e-01,-3.822073739367261025e-01,9.600412968289957771e-03,3.245516702200329506e-02,1.171107099356561224e-02,8.476035296916961670e-02
-4.094173717708372573e-01,-4.615497701831019484e-01,-4.206223428739217507e-01,-4.304861924165304609e-04,1.408615537451559513e-02,-3.127591799646238426e-03,5.370621010661125183e-02
-4.118089885438720454e-01,-4.622276850754201694e-01,-4.225139306577030407e-01,4.503693452277795529e-03,1.872317709017900025e-02,5.544429247514954737e-03,5.763380602002143860e-02
-3.957634928524205731e-01,-4.458351148047629553e-01,-3.937488469165114635e-01,5.085529868323539898e-03,1.422638311213343838e-02,2.636103600147276810e-03,5.759954452514648438e-02
-4.128715741802983508e-01,-3.985819425255087700e-01,-4.128676694110241518e-01,1.654479706107031068e-03,6.548836712711801622e-03,1.919916110056351863e-03,1.876352168619632721e-02
-3.719008980319016833e-01,-4.419253599919227837e-01,-3.936590001560386076e-01,-4.985140333288325641e-03,3.575647781496803929e-02,-5.757071923708230454e-03,8.867245912551879883e-02
-4.115289949694339589e-01,-4.681640166859440400e-01,-4.375199455024296746e-01,4.241068348008860734e-04,2.009656836681313757e-02,-2.733264719477454616e-03,6.037901341915130615e-02
-3.558648057860689384e-01,-4.250926318694303041e-01,-3.689930466969814082e-01,5.473746066389412017e-03,3.696050696566749449e-02,6.806924133831120452e-03,9.155942499637603760e-02
-4.844657605285225266e-01,-3.843766002131562831e-01,-4.440217047012545160e-01,-1.636025786394621623e-02,-1.061631702510389304e-02,7.192030027906172462e-02,1.557698100805282593e-01
-4.509794703313790842e-01,-4.354882670414152446e-01,-3.940795332517686989e-01,-4.234812803545884990e-02,2.952148482543843350e-02,-4.380643086276309744e-02,1.278584748506546021e-01
-4.298244375096569314e-01,-4.479686425492607760e-01,-4.431753419386547099e-01,-3.841114841965817539e-02,2.619568701992505688e-02,-4.040123639325515770e-02,1.079207509756088257e-01
-4.196428752737687562e-01,-3.838092643843787899e-01,-4.153735206355910203e-01,-2.812890284236265609e-02,1.855724933066865701e-02,-3.227962414633187699e-02,8.764719963073730469e-02
-4.570631012080380029e-01,-4.834446640509528215e-01,-4.663445719922542643e-01,-1.578855753402741771e-02,2.579419025223399567e-02,-4.824630911247992926e-02,1.013126298785209656e-01
-4.548181649084810374e-01,-4.443004877636217431e-01,-4.338313375065062649e-01,-1.314026751701351768e-02,1.103826256721348459e-02,-2.159990318957400596e-02,5.112272500991821289e-02
-4.639240072529797199e-01,-4.574570885417363897e-01,-4.607309791140825617e-01,-1.525786196258783166e-02,1.502706103870120845e-02,-1.789479059207835926e-02,4.866089671850204468e-02
-4.601446048708178194e-01,-4.435611730702074262e-01,-4.551541748396353282e-01,-1.638856377000365988e-02,1.335210833193189658e-02,-1.886125958552710077e-02,5.123464763164520264e-02
-4.277553312884655456e-01,-4.395162353016259238e-01,-4.350247248332325678e-01,-6.743675879198733104e-04,-5.246717939338198288e-04,2.972993235080353025e-04,1.039825100451707840e-02
-4.060208074441286064e-01,-4.209656376350597307e-01,-4.087138225698365157e-01,-3.374584375885862630e-02,3.130777452364017638e-02,-3.146409656595144239e-02,9.755612909793853760e-02
-4.344790506727663759e-01,-4.282728439306884294e-01,-4.410050604941310737e-01,-1.160249389071972038e-02,1.176567812682297390e-02,-1.910792161307993398e-02,4.512308537960052490e-02
-4.404807725045418176e-01,-4.447458129329789345e-01,-4.483046459014594642e-01,-1.245939522440160825e-02,1.345185520631720331e-02,-1.796336716522613924e-02,4.497386887669563293e-02
-4.314118485242677825e-01,-4.442985778037297773e-01,-4.414472530659129257e-01,-4.620139367276980200e-03,-8.927268447723202618e-03,7.045023912532824562e-03,2.427912876009941101e-02
-4.211744986654211709e-01,-4.212993464973731061e-01,-4.287121210874945687e-01,-5.914770724915511917e-03,-5.955896488843841728e-03,6.848031314797584784e-03,2.019773609936237335e-02
-4.272836763639659141e-01,-4.327756022463494778e-01,-4.337206975787271657e-01,-3.218327168160974722e-03,-3.036418666989553362e-03,3.602947845266159591e-03,1.157242245972156525e-02
-4.174350897288034989e-01,-4.480265840628664953e-01,-4.549300162230222599e-01,-3.790735359289487856e-03,-2.560106415729815083e-03,1.512688639074153719e-03,3.555727005004882812e-02
-4.251668249609746320e-01,-4.471304319011256689e-01,-4.202103263211587891e-01,-1.697504496578209829e-02,2.313098493430340227e-02,-2.176044212342856735e-02,6.712647527456283569e-02
-4.825831231492169193e-01,-3.896919775617997961e-01,-4.523528379730072935e-01,-4.082785154462623481e-03,1.542180499739669117e-03,3.274704271869238043e-02,1.000437811017036438e-01
-4.618529100115144059e-01,-3.702122272729503338e-01,-4.499715785136985668e-01,1.409680214608233229e-01,1.096226462495531462e-01,1.404263508834518448e-01,4.028353989124298096e-01
-4.085754780244872375e-01,-4.275067685612675694e-01,-4.193142169424489141e-01,-1.315616521390495543e-02,1.569832191703738472e-02,-9.442046861956366471e-03,4.238441586494445801e-02
-4.172344346298369477e-01,-4.411432856848123141e-01,-4.288521111581264367e-01,-1.196430469154093892e-03,2.501749998038240753e-03,-4.727574664424711443e-03,2.278066612780094147e-02
-4.160660178919408092e-01,-4.382925745303389298e-01,-4.319732088440541018e-01,-2.061596227173659399e-03,4.049408882724029289e-03,-6.910349738346532010e-03,2.446832507848739624e-02
-4.208108082414657725e-01,-4.534747749604403078e-01,-4.144447552942389645e-01,-1.687069359872291931e-03,-1.453947182007807662e-02,4.670349294583077513e-04,4.425814747810363770e-02
-3.143835101899182249e-01,-4.451982531033088497e-01,-3.491484957636228348e-01,6.204567115493353838e-03,-8.953629800108890702e-02,-2.266128351383647418e-02,1.986948996782302856e-01
-5.116755511201276363e-01,-2.983624846341195180e-01,-4.727047532237145799e-01,8.544996430361813042e-03,-1.334713655617868373e-02,7.478254668770168735e-03,1.990715116262435913e-01
-4.405699395950986030e-01,-4.598231297887784841e-01,-4.115201348378558222e-01,9.668709631522504370e-04,-1.475033636866452010e-02,1.822764614889636108e-03,4.938995093107223511e-02
-3.780976807641012738e-01,-5.068990072675502168e-01,-4.160518753715662932e-01,2.737718240315470050e-02,-1.350210790513417525e-01,-1.402216494762780451e-02,2.658424675464630127e-01
-4.515300317603626601e-01,-5.068167196235792149e-01,-3.553890262109403175e-01,-1.691549447179960253e-02,-7.329477066150219544e-02,-3.024404618156141533e-02,1.932198405265808105e-01
-4.528279186833571446e-01,-4.656889777911451533e-01,-4.142757069966422900e-01,6.608341415626610600e-03,-2.439991038658575681e-02,1.927589168074107318e-03,6.384141743183135986e-02
-3.858802120174177341e-01,-4.304401684541686035e-01,-4.825345444899805658e-01,8.109767309580863393e-02,-1.007102469307949444e-02,1.387920666834144062e-03,1.645031571388244629e-01
-4.203790836377308548e-01,-4.481141734950072619e-01,-4.073763589424390652e-01,1.065010848718944345e-02,-2.573359330295143382e-02,-1.453727128571655029e-02,6.526762247085571289e-02
-4.621805593431094761e-01,-4.043335095073458119e-01,-4.178350929591098661e-01,7.399717904199171366e-03,5.456021483473610240e-03,2.050940350340663826e-02,6.529185175895690918e-02
-4.741768456989894909e-01,-4.591005196454364112e-01,-3.955774275286059738e-01,-9.672118667214572169e-03,-5.935072097675261546e-03,2.784624404587985116e-02,8.906592428684234619e-02
-4.408673288217812569e-01,-4.279424830114094691e-01,-4.036578672028964254e-01,-1.011704119439199058e-02,-8.632426815552632707e-03,5.202556778958857160e-03,4.101815447211265564e-02
-4.538462894396383951e-01,-4.309493914183625818e-01,-3.884010682289366079e-01,-5.672799764462944407e-03,-5.358751049520197977e-03,5.844061904174745713e-03,5.994999781250953674e-02
-4.567159144799680659e-01,-4.383301264667163188e-01,-3.839850199074573145e-01,-1.045674695427477839e-02,-3.748327467326070285e-03,2.513194988539312058e-02,8.096685260534286499e-02
-4.515636898754632478e-01,-4.242552318517984755e-01,-3.660202502067987362e-01,-1.606749233487906464e-02,-1.546466923514596206e-02,4.050904195416912823e-02,1.101920157670974731e-01
-4.657388534924207790e-01,-3.935806889392158836e-01,-4.395239898092916930e-01,-2.034178970107674948e-03,-4.451531176745023889e-03,6.263716910652334692e-03,6.474541127681732178e-02
-4.620134102585878311e-01,-4.473801774651258722e-01,-3.858190074657371071e-01,-4.509638875977052021e-03,-5.565081810197717443e-03,1.404284883324977314e-02,7.516830414533615112e-02
-4.433980911807637870e-01,-4.298715175065141447e-01,-3.513195286705589893e-01,-4.407109223406637140e-03,-4.125390644458827062e-03,1.780684304175512642e-02,9.206789731979370117e-02
-4.513426262162167357e-01,-4.347979245422901595e-01,-3.663059293660020921e-01,-2.796122373336406338e-03,1.967125396271869608e-03,1.976659508759654599e-02,8.547092229127883911e-02
-4.189569277814771953e-01,-4.002884776378775045e-01,-4.547517402024964239e-01,4.931989933218533170e-03,1.020058511150443055e-03,1.930626822448079215e-03,4.883943498134613037e-02
-4.047626251812556641e-01,-3.981634689285040718e-01,-4.489978283999927489e-01,6.426647866372573251e-03,2.397368447732934910e-03,1.319732894942224821e-03,4.938207939267158508e-02
-4.492068524686527731e-01,-4.067040776474128982e-01,-4.007002250940708277e-01,7.732931425577309033e-04,1.134042407755222201e-03,3.466495778677055120e-03,4.625380411744117737e-02
-3.860397591400258621e-01,-3.641265273846510664e-01,-4.423161614746472514e-01,3.694016336533090250e-02,9.263023450755119431e-04,7.073211838625877114e-04,9.475348889827728271e-02
-4.111310720101047922e-01,-3.833773422049469026e-01,-4.486985933866054488e-01,1.150650401817003392e-02,-4.700623065974105321e-04,4.444573288877353735e-03,6.067414209246635437e-02
-4.131575454727550167e-01,-3.903068508881495924e-01,-4.370001380593709350e-01,2.114527895677021166e-02,1.852162085510486791e-02,1.464401119239609923e-02,6.818580627441406250e-02
-4.129632940878110725e-01,-4.131741201002354091e-01,-4.566060578459870123e-01,9.017139004839729716e-03,2.350759042476441643e-03,5.204571677847607972e-04,4.644191637635231018e-02
-4.085421227500171115e-01,-3.924177912426594639e-01,-4.345884422408901049e-01,1.814746311190709033e-02,1.362577891414604343e-02,1.278681862137104677e-02,5.825692415237426758e-02
-3.662418074132648416e-01,-3.879930398225625021e-01,-4.449053654701821126e-01,3.691173006961273595e-02,7.119459887101126788e-03,4.558040116910263770e-03,9.618657082319259644e-02
-4.072185465269482774e-01,-4.229843733884683377e-01,-4.447853735273746834e-01,-2.865205340782112434e-02,2.436452953519988723e-02,-1.025758317846743248e-02,7.501280307769775391e-02
-4.312255986035287703e-01,-4.429718465673167516e-01,-4.824316564319753864e-01,-3.257006513879912718e-02,1.692749608806978778e-02,-1.649488931744701875e-02,8.376662433147430420e-02
-4.093558916852695351e-01,-4.645058476219238175e-01,-4.796218437467156259e-01,-5.736126522449616627e-02,3.039881891392228266e-02,-4.388328494234832594e-02,1.500802934169769287e-01
-4.248470054957521613e-01,-4.270943862852891737e-01,-4.507646105343457998e-01,1.634246722784673395e-02,-1.755643949928977973e-02,-1.417814712289090090e-02,5.429088696837425232e-02
-3.880459933279302720e-01,-4.152585405624289461e-01,-4.274989283805100126e-01,2.657338128839314972e-02,-2.131047920637820642e-02,-2.376287807763068083e-02,7.998942583799362183e-02
-3.884609845605522804e-01,-4.401525977758792285e-01,-4.321481910378076607e-01,4.707265964555792936e-02,-1.456447350134486805e-02,-1.920848985975686513e-02,1.035041436553001404e-01
-4.543988744077699371e-01,-4.383187689149963262e-01,-4.020853926578499271e-01,-1.444822854812746965e-03,1.308756568064959984e-03,-4.568835657778275681e-03,4.720262438058853149e-02
-4.182145837111997388e-01,-4.305711234611735438e-01,-4.626591655828464766e-01,3.028838038855962214e-02,-8.593271437673325949e-03,-1.175387925426301175e-02,7.047677040100097656e-02
-3.940306385087825047e-01,-4.008026646880950561e-01,-4.940084144992769599e-01,5.387291091311921520e-02,-2.726366498827475365e-02,-3.080839753222159444e-02,1.521467417478561401e-01
-3.166999609961131390e-01,-3.737919520571082455e-01,-4.355479679178896335e-01,5.912516736253996263e-02,-4.741287230223493326e-03,-2.288094228513547993e-03,1.454976797103881836e-01
-4.008026797207128178e-01,-4.575791052943110060e-01,-4.957578428837318696e-01,3.190299487557973074e-02,-1.295545132277061383e-02,-1.068423665358447273e-02,1.036736443638801575e-01
-4.531942073637145185e-01,-4.010069406483868226e-01,-3.990397919979502550e-01,-3.641679180830874243e-03,3.403782161431177181e-03,2.561975704366303494e-02,6.981188058853149414e-02
-4.375444626076644417e-01,-3.539971238755371674e-01,-3.966086726943159335e-01,-1.465909299545823307e-03,-4.345793917314222550e-03,3.270060544524815149e-02,9.223292768001556396e-02
-4.409295707866984770e-01,-3.665988092544855137e-01,-3.946215980505061172e-01,2.802282083261302056e-03,-7.384415877855071697e-04,3.222089326627215061e-02,8.583202213048934937e-02
-4.745540527829238409e-01,-4.371031642751687651e-01,-3.845011710171540309e-01,2.984694843426529982e-04,6.720275198340270803e-03,5.697567883942799422e-02,1.265463083982467651e-01
-4.585402248212742116e-01,-3.925881801255504677e-01,-3.918126460820062773e-01,8.267113066841171032e-03,1.959582067588504228e-02,4.595385501476502432e-02,1.099714338779449463e-01
-4.612591128404386343e-01,-4.148907405460461884e-01,-4.087123326449341731e-01,4.344976280563219752e-03,2.678765659002432971e-03,2.337639919948589565e-02,6.474730372428894043e-02
-4.190258352942126119e-01,-4.360712005791787527e-01,-4.352205033090094100e-01,-2.197107888430691221e-03,-2.526576411642465336e-03,4.465116076572660415e-03,1.924089714884757996e-02
-4.626023149212586949e-01,-4.079768488113272862e-01,-4.259520581836779840e-01,1.372505016190232090e-03,-1.696523153329280390e-03,2.038261612141639353e-02,5.988141894340515137e-02
-4.475206432326830353e-01,-3.843056228714122891e-01,-3.927905611293469601e-01,1.311489756922173781e-02,1.232295377406814572e-02,2.798725296792889741e-02,8.278395980596542358e-02
-4.807769824161497452e-01,-4.149753819374550901e-01,-4.209746526231184505e-01,-1.893599993547918187e-04,-5.492398198799743926e-03,3.109051033123527361e-02,8.343588560819625854e-02
-4.765232015549371591e-01,-4.790538325762651595e-01,-4.014265472488290909e-01,-1.996776591792234420e-02,-3.239369440454055449e-02,4.194255424824339801e-02,1.243289038538932800e-01
-4.685330702802134040e-01,-4.498484732576332745e-01,-3.882352578642104812e-01,-1.900680940081697634e-02,-2.353382300763114804e-02,2.620139458833446386e-02,1.005055159330368042e-01
-4.496641623211788952e-01,-4.235619674198382034e-01,-3.604709897937878327e-01,-1.484558608110708028e-02,-1.498433174142496487e-02,3.581143740578007773e-02,1.071949228644371033e-01
-4.695830543307938365e-01,-4.233845029701495122e-01,-3.125626261293495967e-01,-8.438236779494579995e-03,-1.295897414440221572e-02,6.604626876678769409e-02,1.825906634330749512e-01
-4.670476104625952973e-01,-4.237841933913011894e-01,-3.134342519497104185e-01,-9.608818763993408341e-03,-1.613176404450886517e-02,7.004564925141655574e-02,1.860102564096450806e-01
-5.004201318955903144e-01,-4.178636763428955070e-01,-3.621015549698447522e-01,-2.496242752523597855e-02,-3.903598347892133641e-02,7.121330864466329791e-02,1.902190893888473511e-01
-4.083663536910483449e-01,-4.526424495515470325e-01,-4.300340838624055473e-01,2.506121708532319447e-04,-8.094275062494951656e-03,6.868534881398513127e-04,4.084919020533561707e-02
-4.008922176646089741e-01,-4.782880701732245554e-01,-4.639065349400223193e-01,-9.757611606063136328e-04,-1.234880109181916465e-02,-2.510456429964354804e-03,7.458630949258804321e-02
-4.117718315130090012e-01,-4.890382227725753594e-01,-4.716226120363200547e-01,1.342688547193030164e-02,-2.868921199242765660e-02,-9.944148315910621757e-04,8.911105245351791382e-02
-4.148977213642557893e-01,-4.894792568805187427e-01,-4.414063800622382017e-01,-9.771738699936005287e-03,-3.064580252216413461e-02,-1.458561491935641240e-03,8.601392805576324463e-02
-4.331816833785955279e-01,-4.676940529348695974e-01,-4.452987102186757862e-01,-2.961207900131799381e-03,-1.479993285626625583e-02,-1.262770113094730060e-03,4.009916260838508606e-02
-4.475740485286973658e-01,-4.137909514748120410e-01,-3.922554991660949786e-01,-9.072225871343816278e-03,-1.007325064361835540e-02,2.556902814930371234e-02,6.960790604352951050e-02
-4.586412437648013096e-01,-3.429640573851873708e-01,-4.752953018296353083e-01,4.353204130314732717e-02,1.488716881762676067e-02,2.632207741729726547e-02,1.549632847309112549e-01
-4.250335927502004729e-01,-2.876713833118549335e-01,-4.494343842684427326e-01,6.487572060238441796e-02,3.086853836595125633e-02,3.719216436985564589e-02,2.060351222753524780e-01
-4.486936844968467675e-01,-3.351343413725764164e-01,-4.692862464221597696e-01,3.969054857210542464e-02,1.461650789128135682e-02,2.560357243437781996e-02,1.516305655241012573e-01
-4.812914945071099515e-01,-3.196519139105308271e-01,-5.066837113945534821e-01,5.710786605776337066e-02,1.115511533164705027e-02,3.232957797445246140e-02,2.101650387048721313e-01
-4.633693954437505536e-01,-4.634576808779470869e-01,-4.401976177874336038e-01,-4.635887395236817921e-02,1.965771143631771592e-02,-2.358974013133460085e-02,9.907130897045135498e-02
-4.569117962295780599e-01,-3.950516331208626108e-01,-4.343727525938900214e-01,-1.822985416017411028e-02,7.706839463849864819e-03,-3.079886420311035364e-02,8.343439549207687378e-02
-4.096623591553607002e-01,-3.610547574689856876e-01,-4.074503979036767642e-01,-2.755864559606720915e-02,1.747325299666752096e-02,-3.455315565404831063e-02,9.505901485681533813e-02
-4.617620097911500632e-01,-4.186127745146251411e-01,-4.267895792538148880e-01,-6.239371491029090284e-03,1.217884055077116980e-02,-1.795306197214102673e-02,5.571887269616127014e-02
-4.277470654853707810e-01,-4.415866796955066897e-01,-3.782732392140067956e-01,-1.019683148109659654e-02,2.223032728122140145e-02,-1.162709661609960358e-02,7.432328164577484131e-02
-4.514637091520054546e-01,-4.758679228638832415e-01,-3.728104654027981635e-01,-3.739643865253015897e-03,7.073530353272872162e-02,-2.138662792449031597e-02,1.585116237401962280e-01
-4.195278158501404286e-01,-4.371568973346261489e-01,-3.945492386073171098e-01,-2.184986498205311947e-02,3.664786542156545091e-02,-3.303724810061075406e-02,1.005529239773750305e-01
-4.355393064064194131e-01,-5.028925080068528120e-01,-3.880307668444880620e-01,-2.648439414463346284e-02,4.931940380027642623e-02,-4.765729729715682123e-02,1.618904024362564087e-01
-4.478705231413110943e-01,-4.823500282261866112e-01,-3.784667299188693712e-01,-1.791366466718410586e-02,3.691455807446702986e-02,-2.907557624003401578e-02,1.264343708753585815e-01
-4.440321114108317091e-01,-4.125355534083350317e-01,-3.854182697891550546e-01,-4.908367690497569998e-03,1.190639071118733579e-03,1.375618686252681570e-02,5.679532140493392944e-02
-4.366104501743535149e-01,-4.361882446853682094e-01,-3.775074012916339594e-01,-1.881823723263201936e-02,2.328561557949684890e-02,-3.333613889922830420e-02,9.742344170808792114e-02
-4.498846077827474699e-01,-3.961412960072984157e-01,-4.031013934271716614e-01,-6.419038511695333577e-05,8.411632195247945249e-04,1.624415316213788027e-02,5.793514102697372437e-02
-4.543208904960955863e-01,-4.091174322071629565e-01,-4.125898481684492358e-01,6.949552743804714714e-05,-2.569331216349676674e-03,8.990405848876809047e-03,4.648382589221000671e-02
-4.495867021059621327e-01,-4.059184575344637058e-01,-4.083812512246944859e-01,-1.548172135221547504e-03,-7.928439753200572458e-04,5.515944044629247402e-03,4.365533590316772461e-02
-4.555804512492084846e-01,-4.086534119622309280e-01,-4.228129560679119714e-01,-9.672947436100050051e-04,-2.074271661194268535e-03,4.473445120966748276e-03,4.259018972516059875e-02
-4.346349057874747124e-01,-3.885789740783537893e-01,-4.000225077562495901e-01,-1.592287066632138565e-02,-1.051284854361856334e-02,3.021884970267557993e-02,7.454375177621841431e-02
-4.515104969666379198e-01,-4.096404049367653455e-01,-4.303890822206374867e-01,-4.282388639097307013e-03,-6.295079271009420933e-03,1.219055673436940899e-02,4.398400709033012390e-02
-4.437126018622024048e-01,-4.203672909866799645e-01,-3.982302520008428326e-01,-5.445082217909124299e-03,-9.084932716014549941e-04,8.078583706410125131e-03,4.288427904248237610e-02
-4.336337191466129726e-01,-3.902888801654276207e-01,-3.704797085882937657e-01,-5.040875797456651278e-03,-4.346583432772373710e-03,3.274769036046906029e-02,8.049812167882919312e-02
-4.846952276782672819e-01,-4.003147845457775134e-01,-4.327216870105444202e-01,-9.548967209177767340e-03,-1.236421576848266077e-02,4.476604869094921724e-02,1.103626936674118042e-01
-4.481146829857921010e-01,-3.715258137015766682e-01,-3.947738665315272955e-01,1.022013564129526080e-03,8.817738304097926623e-04,2.913825015077507047e-02,8.472522348165512085e-02
-4.297818869925351670e-01,-4.303128795549020502e-01,-4.296029838802805645e-01,-3.325786278924638658e-04,-3.007682769274446573e-04,-2.944627521195206901e-04,1.127958763390779495e-03
-4.564983101672783206e-01,-3.960354651848193019e-01,-4.268103837323844463e-01,-3.487046484453839180e-03,-1.183345691780913166e-02,3.942888864832579110e-02,8.867127448320388794e-02
-5.318337225940211743e-01,-3.265194277560204417e-01,-5.207129518896036480e-01,2.639559334400406326e-03,-1.563376165415728339e-02,1.247047313105026020e-02,2.030149251222610474e-01
-4.904535081144357211e-01,-3.726951514386768749e-01,-4.888201125328399121e-01,-6.066312338675274377e-03,-2.289651852913226777e-03,5.366796718500264560e-03,1.178553700447082520e-01
-4.942458005907779395e-01,-3.756249353493152920e-01,-4.868531995712972460e-01,-8.370653537118020668e-03,-6.554406173660361733e-03,3.315609646679158642e-04,1.165678203105926514e-01
-5.511941455263901224e-01,-3.400263273912070838e-01,-5.360427107291271254e-01,8.521640546253215001e-03,-1.034883912139465158e-02,9.832448091046514654e-03,2.060366421937942505e-01
-4.697594035067091389e-01,-3.460346119501178652e-01,-4.707536841350193346e-01,1.269521885261528813e-03,3.615519124034315026e-04,2.631272152869724296e-04,1.242467910051345825e-01
-4.657261146007698471e-01,-3.314378622885446601e-01,-4.673519067652858183e-01,1.248438293624223698e-02,3.003752934814685020e-03,-3.297593212316234611e-03,1.370458751916885376e-01
-4.285538907865417690e-01,-4.378251415832780102e-01,-4.389632076299248564e-01,-1.825328086597670309e-04,-3.544578502221043884e-04,4.418808509067637824e-05,9.913895279169082642e-03
-4.166039305663314374e-01,-3.665911481362155167e-01,-4.320619893468059525e-01,5.080302184331572657e-02,2.289727680858193518e-02,3.951370639625336606e-02,1.323367953300476074e-01
-4.352066552871862726e-01,-3.485718380312958775e-01,-4.376245618416162442e-01,6.072259005911079255e-02,5.065215102962782739e-02,6.093385781018991615e-02,1.939544677734375000e-01
-4.146096328838723699e-01,-2.493898375783002441e-01,-3.826448686737644600e-01,4.399260612703465023e-02,2.626509013847868126e-02,6.065799406278979400e-02,2.048216462135314941e-01
-4.414845466004183039e-01,-3.795549254764932212e-01,-4.340756853892890899e-01,4.352644481960332018e-02,2.534068524429096761e-02,4.338396349505640320e-02,1.291818469762802124e-01
-4.405228847361769007e-01,-4.293478446281454031e-01,-4.454369115345094277e-01,-9.239334325689767778e-04,4.120538988143947721e-03,-6.848477500481770343e-04,1.608875952661037445e-02
-4.018714187116873560e-01,-3.169776885334771865e-01,-3.709756193288644699e-01,5.317723276732541637e-02,3.832023486778261823e-02,6.551828138108055366e-02,1.769331693649291992e-01
-4.122189201797125668e-01,-2.786311190561273077e-01,-4.415325771993947601e-01,6.100293740135956377e-02,3.045657852647965999e-02,3.675036379329579134e-02,2.015430182218551636e-01
-4.712080451626037836e-01,-3.506144720569053796e-01,-4.487330713037345764e-01,2.308287296705582858e-02,8.231012083450450767e-03,3.708979359317174374e-02,1.351527273654937744e-01
-4.699398690569683845e-01,-3.614410286878829703e-01,-4.555769897996808093e-01,-1.922032875669560034e-02,-1.584588723178817667e-03,5.439129627639541220e-02,1.428669691085815430e-01
-4.222430691411214188e-01,-3.306134184875067494e-01,-3.975954599061787276e-01,-2.301735341579732794e-02,-1.617007516847109722e-02,4.940584716473087057e-02,1.282250732183456421e-01
-4.067537812931784624e-01,-2.194946782048012857e-01,-3.900234111466315823e-01,-4.172374043457136722e-02,-2.607389280884012117e-02,8.762208694563972111e-02,2.500160038471221924e-01
-5.423884014920028473e-01,-4.386258861039978862e-01,-5.253045868673694718e-01,-5.958737338113965359e-02,-3.077602073964363222e-02,4.423199236237114473e-02,1.692593246698379517e-01
-4.237647215827693437e-01,-4.295073456934470624e-01,-3.770851175318967186e-01,1.150633851501484638e-02,-2.739183019830436841e-02,-2.475254487729192446e-02,8.346386253833770752e-02
-4.223985718746525175e-01,-3.877227936538892306e-01,-4.011184386164181603e-01,2.567145780772423988e-02,-2.657956510264960701e-02,-3.797744715472922694e-02,9.664729237556457520e-02
-4.432226502176753180e-01,-4.572566145841266971e-01,-4.283168930941946839e-01,1.077948608881907668e-02,-1.038122626395854980e-02,-1.143108095737917218e-02,4.113673418760299683e-02
-4.539718644827221983e-01,-4.012880491709339137e-01,-4.158076349427337615e-01,8.881695800066768693e-04,5.402944191768478503e-03,2.342479157802510818e-03,4.824789240956306458e-02
-5.088375704477249295e-01,-3.220173626379739251e-01,-4.693868930310225451e-01,3.299576705345484955e-03,5.486888113286405959e-03,4.464943880951915967e-02,1.875943988561630249e-01
-5.129592476598223705e-01,-3.246540572463296748e-01,-4.826884604995472783e-01,1.244397784666441756e-02,1.059228721519082927e-02,3.897518656924126024e-02,1.898245513439178467e-01
-4.938630683009888056e-01,-3.510222988916706366e-01,-4.508797244342809818e-01,4.781426007384368543e-02,1.962501366842412526e-02,6.048622441008617845e-02,1.873527765274047852e-01
-4.609149505017690607e-01,-3.421409588147409919e-01,-4.327040547114899827e-01,4.172259052035505456e-02,1.306043750086372315e-02,6.328432913661304060e-02,1.711758226156234741e-01
-4.228389749217720261e-01,-2.628160270963826872e-01,-3.787206906709141285e-01,2.272337020611598160e-02,6.675755982495090723e-03,7.958394357343398506e-02,2.029221355915069580e-01
-4.654104762307478826e-01,-3.162386042843397527e-01,-4.523198187899278300e-01,1.336371293287836465e-02,2.811186284006426256e-03,3.135051799436230913e-02,1.548511981964111328e-01
-5.215875149352684481e-01,-3.088145847256431598e-01,-4.804167046065304092e-01,2.334803675153656125e-02,-1.561045084724072647e-03,7.825507571132997442e-02,2.412915080785751343e-01
-4.533637916571707227e-01,-4.513038907650866460e-01,-3.179314198088277754e-01,-2.567424474425801170e-02,-4.871880244534968624e-02,5.356462406796511089e-02,1.891368925571441650e-01
-5.229468303279471986e-01,-3.394095828720000152e-01,-5.103762605365779192e-01,2.792973122354700313e-02,9.425666362405379223e-03,6.052221753088654621e-02,2.124437093734741211e-01
-4.291121019004723314e-01,-4.232146885501894551e-01,-4.295708046828146109e-01,-3.032006618153390738e-03,3.062131571619209486e-03,-2.389754800178553202e-03,1.051365677267313004e-02
-4.094841253228456157e-01,-4.376574806111045435e-01,-3.802030700001643448e-01,-1.295140826646855661e-02,2.557190827234675709e-02,-1.393503998830482316e-02,7.432095706462860107e-02
-4.279240080150649161e-01,-4.399747995153493463e-01,-4.237232479228181248e-01,-6.042008081471242700e-03,5.578525077105021997e-03,-5.621287702563144799e-03,2.260894700884819031e-02
-4.577448687352222989e-01,-4.483034282914255542e-01,-4.491439786482779306e-01,-9.564792888286446915e-03,1.352480552933161238e-02,-1.611355422564456769e-02,4.103739932179450989e-02
-4.275361254524582821e-01,-4.383896097277336090e-01,-4.305450973281765292e-01,-1.011723412297573128e-02,1.879759653970075259e-02,-1.084403140571506621e-02,4.259222373366355896e-02
-4.092808212249950950e-01,-4.406001082569522831e-01,-4.245606415200701700e-01,-9.284455574222449589e-03,1.254190124549998779e-02,-6.540004745086281171e-03,3.993286564946174622e-02
-4.351241311038365200e-01,-4.341585181319750353e-01,-4.266235918572492958e-01,-6.475622059980495719e-03,7.794083053846897688e-03,-4.952741471185411956e-03,2.113330364227294922e-02
-4.363947032265993453e-01,-3.907681529499200113e-01,-4.341895315975323189e-01,-2.068295852036270213e-02,1.495190262960932777e-02,-2.290411465116075004e-02,7.425536215305328369e-02
-3.779489147670378468e-01,-4.148089483814352274e-01,-3.982013189073640436e-01,1.973309852277914389e-02,2.830218681988314403e-02,2.462997779793993716e-02,8.008403331041336060e-02
-4.378460409674144183e-01,-4.398643324746261407e-01,-4.593955082743110263e-01,-4.587952580817835496e-02,1.726931030953075472e-02,-3.165735178553478329e-02,1.031552404165267944e-01
-4.582486356104086278e-01,-4.473404761830676035e-01,-3.616157783375623103e-01,-2.759821338967244873e-03,-2.041871710233659869e-03,7.547390489782590528e-03,9.278500825166702271e-02
-4.495178828224911660e-01,-4.517141931791394671e-01,-4.225975208924571125e-01,-1.671121344942045478e-02,2.250133397086849854e-02,-1.769679607102641467e-02,6.391329318284988403e-02
-4.473117099560759979e-01,-4.436577379137275345e-01,-4.412584595302773693e-01,-1.373417636034732214e-02,9.999210222773502466e-03,-2.539480151340157629e-02,5.318268761038780212e-02
-4.497147372511369756e-01,-4.171768612182256697e-01,-3.909767300346240759e-01,-7.267448223930133254e-03,-3.323453190992497509e-03,1.039750575641397098e-02,5.579932406544685364e-02
-4.305805423891505002e-01,-4.124923275231417441e-01,-4.183697369165036983e-01,-1.158115763340851478e-02,1.190575262711685012e-02,-1.643921043230903503e-02,4.351745545864105225e-02
-4.433729509955282033e-01,-4.246426474190149736e-01,-4.430084019078652235e-01,-1.194422167618126862e-02,1.045191860409018687e-02,-1.760546018519674322e-02,4.505226761102676392e-02
-4.369143259689304837e-01,-4.209777768598153558e-01,-4.495897014323507745e-01,-1.479936654797251762e-02,1.273543031381059454e-02,-1.030713530503210226e-02,4.559592902660369873e-02
-4.331368972570472375e-01,-2.089141571571991041e-01,-4.171391175346088609e-01,-3.827297591466322785e-02,-1.027055268778284160e-02,6.634811769057051556e-02,2.546798586845397949e-01
-4.753510580081438675e-01,-3.202134098864587441e-01,-4.906106553094434775e-01,-4.860243235680213394e-03,-5.127350449837731437e-03,1.027767003421370916e-02,1.647255569696426392e-01
-5.795297535926237087e-01,-3.853814261863811041e-01,-5.396954091519079455e-01,-3.173877225154317361e-02,-1.176118803318189875e-02,2.205615258237229870e-02,1.909005641937255859e-01
-4.682764173714221156e-01,-2.056862986242439795e-01,-4.617638814834575944e-01,-1.303252467623442802e-02,-1.722107585918744230e-02,1.323166679329248509e-02,2.630785405635833740e-01
-4.880432308474254577e-01,-2.177625622668667438e-01,-6.137134007808612290e-01,2.765474117209914054e-02,-2.395030897130331644e-03,6.144704685933990995e-02,3.693909049034118652e-01
-5.736938730170251244e-01,-2.066276990205985764e-01,-6.231446513958334155e-01,3.037927278246878304e-02,-4.238712249446530134e-02,8.773244518849626639e-02,4.319540560245513916e-01
-4.056259961999869046e-01,-1.274628738014359497e-01,-4.187888980151925344e-01,7.155590483810991831e-02,-1.266832527834844783e-02,1.485411434660693052e-02,3.125916719436645508e-01
-4.134162008889651907e-01,-1.032525274968486284e-01,-4.174512311277315812e-01,9.536021366515171072e-03,-1.815796146343876677e-02,2.113831654709167186e-04,3.142155110836029053e-01
-5.142509618584343301e-01,-2.981782853754102458e-01,-4.977228231011274207e-01,1.790903632395127523e-02,3.196533790362808287e-03,3.031358488785911368e-02,2.171149402856826782e-01
-4.396387012865037858e-01,-2.645591877976782302e-01,-4.391142926103798749e-01,2.066248719851736249e-02,-2.903104135589194921e-03,6.866905493611353585e-03,1.789101958274841309e-01
-4.187745675874886553e-01,-2.473855356923576609e-01,-4.223263050940690433e-01,3.250706842309920158e-02,1.452729654814483929e-03,1.776261538132282991e-02,1.847120374441146851e-01
-3.909210933482293870e-01,-3.214933989843261064e-01,-3.351790489494261838e-01,4.519706660775926754e-02,4.076250188272573932e-02,6.859828513655819027e-02,1.711361557245254517e-01
-4.481800723586006896e-01,-4.143401976887092775e-01,-4.494494683161537329e-01,3.864279049480623396e-02,2.584402484601311042e-02,3.550610186447113875e-02,1.070293933153152466e-01
-4.494454134909834364e-01,-3.932403632481710765e-01,-4.162909321022719156e-01,3.611725679103651443e-02,1.508808549635702427e-02,3.738736275013733457e-02,1.057569980621337891e-01
-4.073193958955321770e-01,-3.969143574449053302e-01,-4.107924871919796939e-01,7.925264088940842111e-03,9.331766020061945180e-03,1.064106428624304185e-02,3.075445629656314850e-02
-4.176967817068480415e-01,-4.178230955904554955e-01,-4.183696966960879782e-01,2.189934784315953828e-02,1.952681583836366960e-02,2.168577758713501058e-02,6.319680809974670410e-02
-4.192960490469142543e-01,-4.053151362374686761e-01,-4.170803764311977746e-01,1.121907909060842166e-02,1.093233233175759309e-02,1.031434554567497129e-02,3.499580174684524536e-02
-3.600322504378517530e-01,-4.058324284352555211e-01,-4.113762073987021761e-01,6.026727363851307195e-02,-8.273850743622686299e-02,-5.985542371925119121e-02,2.111012190580368042e-01
-4.246668012005978543e-01,-4.351698923381489004e-01,-5.033395607979225250e-01,6.761241188494433729e-02,-3.190631388625622678e-02,-3.181181127118882374e-02,1.589897423982620239e-01
-4.551813478892609011e-01,-4.746460653360174975e-01,-4.851136871572093723e-01,4.101366962237666669e-02,-6.186888809997208305e-02,-4.871100482578732266e-02,1.560132205486297607e-01
-4.313690346249285379e-01,-4.372044264994170426e-01,-3.103178749530637881e-01,-2.028917016394149800e-02,-6.123295827740789232e-02,4.450111522354459337e-02,1.838973611593246460e-01
-4.547906633831576562e-01,-4.603123840857512583e-01,-4.795202640976237163e-01,4.660350028664503319e-02,-6.056922574579750446e-02,-4.632613301149977880e-02,1.564141213893890381e-01
-4.621034035851948607e-01,-4.607105854975942494e-01,-4.103260030927601276e-01,2.201811422694338258e-02,4.030678915447478278e-02,4.076316423240840259e-02,1.179997175931930542e-01
-3.316679393542967258e-01,-4.173105086181192469e-01,-3.406996531911670179e-01,3.620066407177923579e-02,7.082169230864100717e-02,3.426380274799894349e-02,1.707142293453216553e-01
-3.708603197198975243e-01,-4.395286714601455702e-01,-3.936726248326070654e-01,3.617240500604247677e-02,6.892780837691531159e-02,3.495787766044086003e-02,1.597306430339813232e-01
-4.457409516218412415e-01,-4.335943688628920434e-01,-4.165921317042033944e-01,4.030673084326732471e-03,-3.067001253122971990e-03,-4.890343700329882748e-03,2.813964150846004486e-02
-3.883839407820262046e-01,-3.808218090151578861e-01,-3.304070626448519787e-01,3.969299416221361981e-02,5.837974852138572840e-02,6.150620161746032238e-02,1.711148768663406372e-01
-3.306868516348929754e-01,-3.908497420059531824e-01,-3.045294331667160459e-01,4.324496234143776485e-02,8.364884497826119425e-02,4.949696281645580426e-02,1.995723098516464233e-01
-4.064934778586342112e-01,-4.546909748310467569e-01,-4.173470417447653347e-01,5.307424346580016244e-02,8.483588641265370212e-02,5.302106939463564067e-02,2.009810805320739746e-01
-4.574673404943280786e-01,-4.384689615427869169e-01,-3.837070331722395311e-01,-2.070252769531436259e-03,-6.083964007417125806e-03,2.764370225366179212e-02,8.256281912326812744e-02
-4.166984722629648585e-01,-4.378606176314576715e-01,-3.867685635555794810e-01,1.762510185337314364e-02,4.670756329670896351e-02,3.711671003627545207e-02,1.165619567036628723e-01
-4.284085334358927466e-01,-4.423874312776674977e-01,-4.392120882571413643e-01,-7.654200273363787662e-04,-1.108008975827363962e-03,5.326140106608604798e-04,1.293817162513732910e-02
-4.216294815763233506e-01,-4.345896093093994383e-01,-3.445437285938501848e-01,5.895806276688066866e-02,6.762228994642933977e-02,6.625715572803017595e-02,2.107741236686706543e-01
-3.977090212370237299e-01,-4.803347208495776788e-01,-4.763963342420354796e-01,-1.123284383480406719e-02,1.869496443830610116e-02,-7.709157229099302365e-03,9.012454748153686523e-02
-3.928388368140670051e-01,-4.474945703898497995e-01,-4.710728205380962930e-01,-1.296539843470104550e-02,7.008346748661852497e-03,-3.672005325164336316e-03,7.432345300912857056e-02
-3.956944837325435116e-01,-4.496704027027350614e-01,-4.635792612269855617e-01,-1.911768777270429417e-02,2.191022044616941847e-02,-9.115373356383951395e-03,8.150767534971237183e-02
-4.129124008900191267e-01,-4.914428750864201501e-01,-4.942185529613134509e-01,-1.377712982807391233e-02,6.854925239945492722e-03,-6.741024752960247945e-03,8.508488535881042480e-02
-4.803567681737141992e-01,-3.664015205997994129e-01,-4.823249264121704516e-01,6.039097945979875204e-02,9.279003177054368640e-03,3.448857639714150713e-02,1.672777682542800903e-01
-4.579128009176043901e-01,-4.025022033110265962e-01,-4.367043736654956376e-01,3.757192738285784067e-02,2.927962197270997033e-02,4.521837266416024737e-02,1.236361637711524963e-01
-4.611527189335435373e-01,-3.218384664609379997e-01,-4.592693399390223030e-01,3.193947599131029269e-02,6.714801203308406845e-03,3.157749808700415634e-02,1.591750532388687134e-01
-4.083451824657366447e-01,-4.471634860893155539e-01,-4.076083774094412804e-01,-1.116854480623809005e-03,3.845351055814074173e-03,-6.349181719353061241e-03,4.129217565059661865e-02
-4.517901490806534581e-01,-3.388300098516279224e-01,-4.621934177002734456e-01,3.081808616538126225e-02,3.170149939766262349e-03,2.624363351287007165e-02,1.378004848957061768e-01
-4.428098517539326706e-01,-3.785209700781668740e-01,-4.281540343538570159e-01,2.075271631157278238e-02,2.555793661483340279e-02,3.776906037595514215e-02,1.045791730284690857e-01
-4.875066154160976328e-01,-3.840548965924064362e-01,-4.559082971785407001e-01,8.473491852781499592e-03,1.205257883357921042e-02,3.374225182799416717e-02,1.117972433567047119e-01
-3.999210274111927310e-01,-4.401473541483903462e-01,-3.896506809596660958e-01,-8.754713211158038008e-03,1.824967793295384499e-02,-5.033398541458400377e-03,5.866743624210357666e-02
-4.244969807516218996e-01,-4.320301408507192797e-01,-4.270288906876721358e-01,-2.735941431510772407e-03,3.892437846173401640e-03,-3.522912369025535829e-03,1.221588533371686935e-02
-4.305447301552490225e-01,-4.415938678592362110e-01,-4.609683726523134406e-01,-1.661624332495184250e-02,9.974241833654708209e-04,-4.477568342975799150e-03,4.003692790865898132e-02
-3.861325454493552134e-01,-4.098088775452624066e-01,-4.568038240661057015e-01,-3.278259424676291389e-02,-2.276102114002777875e-04,-6.181626533961615336e-03,8.497440814971923828e-02
-3.666070832988561068e-01,-4.457670322085099390e-01,-4.921834370173241990e-01,-4.515169725980788112e-02,1.393812831538168316e-03,-2.397356948794800158e-02,1.412131488323211670e-01
-3.948185334621924225e-01,-4.310501982183811420e-01,-4.661231207759027328e-01,-3.426005893547186959e-02,6.959522480677750962e-04,-7.012957052288248602e-03,8.650922775268554688e-02
-4.424849884255667165e-01,-4.432728226420762363e-01,-4.678818808033761711e-01,-1.988364580119479641e-02,9.024161188261525454e-03,-4.922284809914277866e-03,4.613767936825752258e-02
-3.362409298311694328e-01,-2.855469436042620823e-01,-4.107038661789766398e-01,-8.782348279880312913e-02,-1.248013783344372775e-02,1.140179054632682425e-02,1.894349157810211182e-01
-4.295370085016119166e-01,-5.527984728703668749e-01,-5.526855981354604763e-01,-8.971489877763803855e-02,-5.454438486773830266e-03,-2.630520378506746512e-02,2.036932110786437988e-01
-4.667890277673011346e-01,-5.005977156981424869e-01,-5.431562377783057949e-01,-7.268626677030860794e-02,2.470780390313389360e-03,-1.953816196254873003e-02,1.463096588850021362e-01
-3.874735862346415649e-01,-4.002818708364298539e-01,-4.356651697559794645e-01,-4.596544941814293544e-02,1.280888451935071129e-02,-1.380383003548121650e-02,9.628882259130477905e-02
-3.966011039554683815e-01,-4.510950191081381511e-01,-3.977290148367438882e-01,3.030312577307476413e-02,4.746990272879030720e-02,2.742814216712351205e-02,1.211664825677871704e-01
-4.320590139242436734e-01,-4.320522693673576886e-01,-3.666545433198062920e-01,2.401185465327489513e-02,2.679839283323670954e-02,2.798577209061587495e-02,1.025235727429389954e-01
-3.917540108804429266e-01,-4.268530838809819761e-01,-3.717029504600976586e-01,1.081798377152186179e-02,1.381552780889806417e-02,8.871859273231769843e-03,5.914039164781570435e-02
-4.013860041047286331e-01,-4.562126286445157275e-01,-3.969541946009262356e-01,9.025783341179493408e-03,1.612200971180042727e-02,5.763928798334639475e-03,6.627519428730010986e-02
-4.231241792967391224e-01,-4.498843228686962847e-01,-3.933672784033915848e-01,1.327859278358278425e-02,1.802241386285338351e-02,1.196860426060364704e-02,6.581037491559982300e-02
-4.374246245248429865e-01,-4.289656069110689973e-01,-3.791383108836942073e-01,1.515549744626891633e-02,2.018479377026631202e-02,2.245599879387952594e-02,7.999978214502334595e-02
-4.545961516568317040e-01,-4.905254504922464953e-01,-3.919441679022290792e-01,1.183062776145063326e-02,3.312150094229997926e-02,1.485706285601610943e-02,1.088136807084083557e-01
-3.933686246016631638e-01,-4.299455322210192776e-01,-3.577983651458415681e-01,1.822296214767791384e-02,3.109487641896459958e-02,1.561077342825852553e-02,9.236966818571090698e-02
-4.200690698435669557e-01,-4.055994714679436175e-01,-4.013446857833334880e-01,1.980776013394973042e-02,2.591339201058883226e-02,2.669931837758035206e-02,7.496100664138793945e-02
-4.183884229812368516e-01,-4.411074771072000522e-01,-3.850258738820118709e-01,1.480901435275979762e-02,2.154855814116164031e-02,1.983701201307986120e-02,7.495760917663574219e-02
-3.527415767777260514e-01,-4.478009366798380020e-01,-4.605031858628747532e-01,9.452254289857993722e-03,5.568512123048271513e-03,1.673982371743962510e-03,1.038005948066711426e-01
-4.073523911740424830e-01,-4.210904106287772786e-01,-4.341606177049883164e-01,1.514605123206193109e-03,2.561488613072189589e-03,5.677440542460875442e-03,2.573690004646778107e-02
-4.265868701110543393e-01,-4.571606189003423748e-01,-4.169822437987506514e-01,-5.265406186539477694e-03,6.527096341053118499e-03,-4.130975212444661093e-03,3.978479281067848206e-02
-4.376694132447750962e-01,-4.441074064033181390e-01,-4.105746261681809117e-01,2.055026253696434768e-02,2.823978426358310714e-02,2.382782418313388051e-02,7.945252209901809692e-02
-4.397009752711444897e-01,-4.459275650567666172e-01,-4.041362673624569468e-01,8.160538644110986936e-03,1.225476012399774779e-02,9.069286404474458455e-03,4.921526461839675903e-02
-4.258435463521124120e-01,-4.325760567235617526e-01,-3.828367109269318891e-01,1.896177521600616797e-02,2.681052150386170271e-02,2.423546561586791340e-02,8.474426716566085815e-02
-4.158430933326754952e-01,-4.207516948980511984e-01,-4.176497205967054094e-01,1.463435352451180303e-02,1.698836978165397041e-02,1.406860200644588152e-02,4.604969173669815063e-02
-4.193457639656686942e-01,-3.926639136553521370e-01,-4.142548348903137279e-01,3.821174497007032850e-02,3.825192780744739868e-02,5.527649560783136351e-02,1.361562311649322510e-01
-4.005751224383355402e-01,-4.008417003752399177e-01,-4.367412079930588775e-01,3.480666977450534022e-02,2.482085961618938144e-02,2.143564613533883306e-02,9.033058583736419678e-02
-4.142813881425498335e-01,-3.905681334582762898e-01,-4.196088171796645283e-01,3.264612669425359659e-02,3.439532665892649360e-02,3.064682503254252330e-02,1.013959497213363647e-01
-3.153723067041939720e-01,-3.305472637986711093e-01,-4.108432199098902560e-01,1.031910571171425345e-01,4.100243032530803688e-02,5.701599161830547824e-02,2.337465733289718628e-01
-3.973291226503556928e-01,-3.842529873493124581e-01,-4.198593938055479868e-01,3.802322355662377668e-02,2.556089911110871402e-02,3.221885107404477699e-02,1.019055694341659546e-01
-4.054598900173738141e-01,-3.803203233010319928e-01,-4.270437116730618210e-01,3.358223530803319118e-02,2.062691921222987654e-02,2.916250623618295984e-02,9.408257901668548584e-02
-4.419950232658746980e-01,-4.058792193008067817e-01,-4.426564313231836079e-01,4.092868148643905718e-02,2.462061865379689199e-02,3.276364703700624520e-02,1.067381873726844788e-01
-4.078546405300738642e-01,-3.791041371259307735e-01,-4.403861878840637512e-01,6.299193320097690174e-02,3.344606324432105454e-02,3.464490054179455297e-02,1.472442448139190674e-01
-3.402676388812490016e-01,-3.885179874698538871e-01,-4.213480373392382017e-01,7.451572244710594206e-02,5.825274701741774142e-02,5.788578133287788224e-02,2.046464979648590088e-01
-3.222303424355130175e-01,-4.436956269898854055e-01,-3.741722688365491378e-01,1.751723476603424257e-02,6.980724326578256755e-02,7.945894642335547819e-03,1.639260947704315186e-01
-3.696474058010892350e-01,-5.040619114876683238e-01,-4.104528102486647567e-01,-2.229922007305112149e-04,7.510096978477114049e-02,1.023168555348403196e-02,1.774321794509887695e-01
-4.044443333245388850e-01,-4.985643431700008121e-01,-4.421032240387579582e-01,-7.308331077490502021e-04,4.152102594204007402e-02,-2.319933286771533104e-04,1.091149076819419861e-01
-3.799146116160909692e-01,-4.475080260931252329e-01,-4.166153787651584728e-01,-5.028167531290340768e-03,4.009867868583254918e-02,-8.009567428019351287e-03,9.234232455492019653e-02
-3.287998370343138688e-01,-4.339867058073519912e-01,-3.524762011380607185e-01,-7.823779043478685385e-03,7.591017802872533637e-02,-1.083675747623502432e-02,1.641871184110641479e-01
-4.193687600415832994e-01,-4.806086973320491951e-01,-4.410059096053746686e-01,-1.652939454138393355e-02,3.859375716041204413e-02,-1.008640047093517338e-02,9.212351590394973755e-02
-4.153020908483346929e-01,-4.488957580115531809e-01,-3.998996136859528927e-01,6.097791994401458937e-04,3.477771856184844971e-03,-1.357048494068735815e-03,4.388760030269622803e-02
-4.019634529600762951e-01,-4.416176366879077664e-01,-3.589351980657524699e-01,-2.715071863227166721e-03,3.194815788807014306e-02,-6.785294837397289188e-04,9.064041823148727417e-02
-4.041553169683094193e-01,-4.487696956646449742e-01,-3.861840119033376761e-01,-8.022941752358171490e-05,2.677641815523173693e-02,-1.570533869045755756e-03,7.261913269758224487e-02
-4.303799959964512145e-01,-4.314244520992499554e-01,-4.384594312229248558e-01,-6.487475463949053146e-04,1.398583620350926995e-03,-3.277718219191884906e-03,9.863599203526973724e-03
-4.301317724789130437e-01,-4.280904356862840765e-01,-4.372871704856799435e-01,-1.043388720824984899e-03,1.983670708723407096e-03,-2.149119143625003066e-03,9.944863617420196533e-03
-4.372843982245975258e-01,-4.295483842440557254e-01,-4.350711691873311304e-01,-8.561645991609134537e-04,1.100677417312146203e-03,-4.500813760791666854e-04,7.352820597589015961e-03
-4.337219215144902384e-01,-4.276743793657490356e-01,-4.332963178098104828e-01,-1.713216714715147136e-03,1.859613404296251837e-03,-1.188663360259486698e-03,7.589376065880060196e-03
-4.348491275735797412e-01,-4.320345801931828045e-01,-4.349395581447787484e-01,-6.462016363613677910e-04,6.707879970893027791e-04,-1.781992745670367287e-03,4.507046658545732498e-03
-4.140825987426833277e-01,-3.959783390562410244e-01,-4.502420806039153511e-01,4.779421244315847778e-03,4.075585097310059808e-03,-2.049913048648942780e-04,4.907543957233428955e-02
-4.756246893455279290e-01,-4.361282737408532229e-01,-4.244164298675736635e-01,-1.206049936497432043e-02,-1.469180130286111378e-02,3.307160204802973846e-02,8.077633380889892578e-02
-4.489501263023075728e-01,-4.393888803001505527e-01,-4.280605262695807434e-01,-7.428892785816161581e-03,-8.635962954398763644e-03,9.701458737766713650e-03,3.161838278174400330e-02
-4.114636149050735492e-01,-4.538763701393135896e-01,-4.022337204259001098e-01,1.432003429323383320e-03,5.666303527582358147e-03,-6.471496874961419048e-04,4.877732321619987488e-02
-4.391384856717261975e-01,-4.122120766937985570e-01,-4.253031387983017830e-01,-1.073524565091287832e-02,-1.033693312618367763e-02,1.417896961502563766e-02,4.258326813578605652e-02
-4.422255912188176596e-01,-4.270205325004419183e-01,-4.210277259991446752e-01,-9.497113598133851212e-03,-8.019136841922980610e-03,7.853539716329871814e-03,3.172960504889488220e-02
-4.532222704259268875e-01,-4.359689710019811204e-01,-4.441170493436189526e-01,-9.634843484550256396e-03,-9.076111212980551152e-03,7.094874289208622474e-03,3.000193275511264801e-02
-4.818394905352195723e-01,-5.142940460017970672e-01,-3.067722081239478982e-01,-8.769155010703955783e-03,3.656721523045397548e-02,-2.637627609078156340e-02,2.090762704610824585e-01
-4.828547328202273947e-01,-5.400148094028417445e-01,-3.565876627605579219e-01,-1.452193509903090644e-02,3.649881543316522980e-02,1.935760599590638118e-03,1.762625128030776978e-01
-4.589056298734406902e-01,-5.361747494101219980e-01,-3.656494592983421943e-01,-1.542515531773506338e-02,5.658113995931896706e-02,-5.279466635935947151e-03,1.796517521142959595e-01
-3.278180173282813081e-01,-3.972803127972308057e-01,-1.251874384963328202e-01,9.460406883775467068e-03,1.294457343926474213e-01,4.356958747174475427e-02,3.408685326576232910e-01
-4.335891459993830299e-01,-4.777134804218873265e-01,-2.525713222946970316e-01,-1.524061282183990403e-02,6.827666060088502520e-02,-4.991375384306636492e-02,2.546719014644622803e-01
-4.323602606882051003e-01,-4.627744486171614380e-01,-3.682367122149982075e-01,-1.220363654917170325e-02,4.555470558716735036e-02,-1.892896060775372050e-02,1.213858053088188171e-01
-4.441900384522209366e-01,-3.543877245673981435e-01,-4.142904225292450837e-01,6.708717559278279396e-02,2.830878191389289353e-02,7.076098024122255692e-02,1.928755193948745728e-01
-4.860418794116410091e-01,-4.288427100763330668e-01,-4.369203585427390846e-01,2.255381846334934132e-02,1.999694228929592768e-02,3.990356189902552475e-02,1.018700078129768372e-01
-4.572473173108863032e-01,-4.050804909890773908e-01,-4.099574759039290028e-01,1.408685670129875001e-02,1.088605139905935923e-02,4.470499542770883100e-02,9.714521467685699463e-02
-4.872651326807835304e-01,-4.171704378267767077e-01,-4.245912584081116270e-01,1.162828666399995554e-02,8.464248333769892538e-03,4.530980739715514960e-02,1.059608086943626404e-01
-4.193636574387618055e-01,-4.310034234107110174e-01,-4.072285724334440693e-01,2.768653830779811004e-02,2.748016750310359330e-02,2.139727914448249363e-02,7.976613938808441162e-02
-4.333473436754481378e-01,-3.985469077006583705e-01,-3.723421389610448440e-01,5.399015803628057913e-02,4.309190943350407754e-02,6.850683417133907049e-02,1.766488254070281982e-01
-4.523804770385337903e-01,-4.103377121606954780e-01,-4.021487174170329526e-01,9.371403009631302204e-04,-4.351930386335380518e-04,7.004370585638622880e-03,4.826311394572257996e-02
-4.622377309410908297e-01,-4.208227502792161179e-01,-4.075088691273597297e-01,-1.489630428673628312e-03,4.438597752703153133e-03,2.019891344190549026e-02,6.110321730375289917e-02
-4.511310187617451062e-01,-4.174878432678562068e-01,-3.931093955721039479e-01,-1.115534318606559161e-03,-3.863800439937342332e-03,5.252705629893698706e-03,5.174585059285163879e-02
-4.511060001994920410e-01,-4.537775822743123078e-01,-4.335945663377003823e-01,6.595122827891392731e-03,-8.560930703931129981e-03,-1.426354516219723381e-02,3.634931519627571106e-02
-4.377987851709235767e-01,-4.255819650924860253e-01,-4.166657814340812283e-01,6.422986416783362483e-03,-8.394954047877552228e-03,-1.248240863182960986e-02,3.376829996705055237e-02
-4.505921196992113686e-01,-4.429542282433252542e-01,-4.328173874965603463e-01,3.760627127063523659e-03,-6.145890452166633336e-03,-6.458625205404681068e-03,2.279037982225418091e-02
-4.305573546159520149e-01,-4.299392325560590922e-01,-4.327784791783022555e-01,-5.733693759295202254e-05,-1.416460380898414183e-03,-7.275914689313597600e-04,3.782262094318866730e-03
-4.559595663661666909e-01,-4.563513549221282495e-01,-4.377797975066821667e-01,4.622038532806506568e-03,-6.180833327823273896e-03,-6.939136112127692810e-03,2.570861205458641052e-02
-3.882670437294100108e-01,-4.278339433539201653e-01,-4.122998081135730297e-01,2.548805219953129836e-03,4.185082806212663160e-03,8.702333698961893169e-03,3.861913084983825684e-02
-3.823447814532978661e-01,-4.285982135663644055e-01,-4.237613808209497179e-01,4.875073072460890319e-03,4.548813646430398434e-03,1.091573803760118554e-02,4.929390549659729004e-02
-3.775422041368377557e-01,-4.000496238285063955e-01,-4.207204875933235888e-01,2.136048869404426689e-02,1.420867423361481079e-02,1.594573648946824226e-02,6.431474536657333374e-02
-4.040816850304409513e-01,-4.162904488129520186e-01,-4.216362039520784588e-01,1.256754058492194279e-02,9.148380349995859778e-03,1.049869707835503034e-02,3.603431582450866699e-02
-3.343988243974734820e-01,-4.940210429872301523e-01,-5.402720701736314357e-01,7.750839659093401723e-02,1.665085247879269370e-03,-2.207860319616343492e-02,2.334405034780502319e-01
-3.792133745285896085e-01,-4.303487898527038058e-01,-4.315189974886661783e-01,4.961764693687055298e-03,4.482702628776573210e-03,1.111930930315543214e-02,5.640121921896934509e-02
-3.827496857751926385e-01,-4.105184314528645961e-01,-4.256255892654856599e-01,6.512068445965995232e-03,4.489859353728239966e-03,9.756936026458782121e-03,4.349859058856964111e-02
-4.686601303957566578e-01,-4.576877271901140243e-01,-4.126687677980275248e-01,2.757122211980560927e-02,3.259672066866185075e-02,4.937960151715789503e-02,1.241944357752799988e-01
-4.674792894228629869e-01,-4.130634936601060847e-01,-3.716437423661893558e-01,1.636403666167538656e-02,1.512436762857529565e-02,3.509250757416870758e-02,1.100663468241691589e-01
-5.041866632984086660e-01,-4.635775033193928474e-01,-3.629214814987114512e-01,1.929413525605193705e-02,5.087521450280495933e-02,7.076480583914003530e-02,1.994314938783645630e-01
-4.861267653697440294e-01,-4.394704518960971806e-01,-3.824282752823145448e-01,1.289485406708827317e-02,4.147086365555716775e-02,8.381604258011025876e-02,1.866164952516555786e-01
-4.219691421768600459e-01,-4.088312772605831591e-01,-3.519051186723774483e-01,1.740301079704803869e-02,2.863607233466920060e-02,3.838051908325648687e-02,1.093112081289291382e-01
-3.904745810526927818e-01,-4.608380967586825361e-01,-3.710471539873398394e-01,1.310113768467875521e-02,5.806018259533544945e-02,2.648002481467440217e-02,1.393803507089614868e-01
-4.422292169985738153e-01,-4.873911362994639007e-01,-3.820338353248746155e-01,2.215839356246786240e-02,6.256327492362843967e-02,2.796470208129258478e-02,1.547358036041259766e-01
-4.195757554535424760e-01,-4.531972397084617077e-01,-3.976427269584461577e-01,3.605880416315009052e-02,4.720329772077271058e-02,2.389926619988174197e-02,1.210271641612052917e-01
-3.736813302572998818e-01,-4.588920246550365900e-01,-4.009615728340675256e-01,2.740655977359555961e-02,7.879236232534292395e-02,4.256373658043750841e-02,1.788675189018249512e-01
-3.838816112240718281e-01,-4.623666350050892881e-01,-4.033889910199068840e-01,2.141494864532944922e-02,4.207835661670812633e-02,1.590690239075344056e-02,1.116066873073577881e-01
-4.068468368738347718e-01,-4.458762772246548378e-01,-3.878905066605868313e-01,1.784476771565756195e-02,4.295719439177735771e-02,2.397150540458942505e-02,1.041040942072868347e-01
-4.107868368618293742e-01,-3.444055788740778001e-01,-4.628825903953140419e-01,5.741307330232291173e-02,-5.803030069319051187e-03,5.687146493387642936e-03,1.437548547983169556e-01
-4.451205898478882150e-01,-3.799585844366906162e-01,-4.743098983972914851e-01,3.546013981999997233e-02,8.046665363852473912e-03,1.222539478605013698e-02,1.068411394953727722e-01
-3.813255177146227526e-01,-3.685071089487303997e-01,-4.610355543415967094e-01,6.376334920586543276e-02,3.756978550250323831e-03,1.118269525462195751e-03,1.406525820493698120e-01
-3.948020588533924791e-01,-4.442638356311655046e-01,-3.920047842291790041e-01,6.230683419446526872e-03,1.449112495681131006e-02,6.966416070867057463e-03,5.903122574090957642e-02
-4.044492778109752829e-01,-4.117158276051988697e-01,-4.682347649657301325e-01,4.335306634666070968e-02,6.699394444546594857e-03,6.506904032211280504e-03,9.776513278484344482e-02
-4.307129170558375852e-01,-4.299953395790888644e-01,-3.685554698731627332e-01,-1.721495617586913177e-02,-2.762205831377764070e-02,2.550877309398692783e-02,9.460207074880599976e-02
-4.481211625418771716e-01,-4.544386880895202041e-01,-4.514355744507809742e-01,-7.735909034664596728e-03,-1.152401268736006658e-02,6.323937480570181700e-03,2.697916887700557709e-02
-4.510850334472559231e-01,-4.700132193583265172e-01,-3.939593600973126941e-01,-1.715678996905768347e-02,-3.888145397498390249e-02,4.375188045884641913e-02,1.259521842002868652e-01
-4.992718415043580493e-01,-3.566668388360186848e-01,-4.046106078038074760e-01,-2.851664694347997436e-02,-2.731921686710184205e-02,8.924766543122192308e-02,2.106462121009826660e-01
-4.351576861014296305e-01,-4.359749535466759807e-01,-4.382335304624645489e-01,-4.497622857548750491e-03,4.956578581736446887e-03,-5.263858437079689014e-03,1.500428002327680588e-02
-4.333881001954763001e-01,-4.290543749372623950e-01,-4.301091295998541453e-01,-6.154550898167264472e-03,5.157989192552099242e-03,-4.055427569156997043e-03,1.606586948037147522e-02
-4.323562171199288318e-01,-4.199677913297367171e-01,-4.259004375566436962e-01,-4.496094528772787667e-03,4.727649391420131984e-03,-5.890444339058903238e-03,1.862691156566143036e-02
-4.292065748962113347e-01,-4.258597799730945987e-01,-4.281817175578812029e-01,-2.220966473747838267e-03,4.886910772066786757e-03,-2.708034962940282855e-03,1.082891970872879028e-02
-4.206420500355007586e-01,-4.335362913067115076e-01,-4.315904103053959107e-01,-7.932320744942909091e-03,9.103018008901347588e-03,-9.329245057643216488e-03,2.904172241687774658e-02
-4.304032400101261979e-01,-4.266766094051868685e-01,-4.184868829541842361e-01,-4.051654504221625409e-03,7.725315103086702329e-03,-1.248246874735845337e-03,1.855917647480964661e-02
-4.314837454500830005e-01,-4.298423927834044145e-01,-4.267558303512872242e-01,-3.745742583804729207e-03,2.396154256323478234e-03,-2.347487688354505005e-03,9.650677442550659180e-03
-4.340126621608070834e-01,-4.350891670133645861e-01,-4.214945744383243875e-01,-8.546289491285205542e-03,9.939729235772330057e-03,-6.542457973588861227e-03,2.855276316404342651e-02
-4.821129521356629644e-01,-4.867220919442655225e-01,-3.260223137845573160e-01,2.287609594453088226e-03,-5.720249406416644949e-02,-5.720066376366893940e-02,2.115485668182373047e-01
-5.719406219293294846e-01,-5.752050877287548936e-01,-3.706180509166341341e-01,-1.919400818889684113e-02,6.411095476767750614e-03,-1.691956717703297156e-02,2.080528736114501953e-01
-4.311712575078258114e-01,-4.097288853278443499e-01,-1.696112384052711475e-01,-7.060987061585475774e-03,2.421662432148016103e-02,-4.317015694992187153e-02,2.660166323184967041e-01
-5.206951714599554748e-01,-4.941307850254842426e-01,-3.326695046530742661e-01,-6.075731967731842591e-03,2.819084507926746582e-03,-2.464927226069270685e-02,1.817192286252975464e-01
-4.378256186281327955e-01,-4.460163014465010067e-01,-4.347669474562655401e-01,-7.040366498415145252e-03,-7.497375679969044311e-03,3.153724309001976894e-03,2.118172496557235718e-02
-4.022800102263796584e-01,-4.426747348014264394e-01,-3.785933579106925406e-01,1.063646179668958002e-03,1.472212730560687466e-02,1.681792096763682666e-03,6.173904240131378174e-02
-4.351814365073516377e-01,-4.520114596618113878e-01,-4.448338516123670483e-01,-5.361594232411106761e-03,-9.138769583098383525e-03,7.307903504273913567e-03,2.666413597762584686e-02
-4.225254022000487497e-01,-4.394688141272247717e-01,-4.206764810418853195e-01,-5.327799750202872296e-03,-6.590523300902503476e-03,6.698365592970671224e-03,2.592084929347038269e-02
-4.416958291676982840e-01,-4.463211888729565757e-01,-4.447960188072559440e-01,-2.001260043691656734e-02,-2.115683848673482678e-02,8.545204601853585019e-03,5.272641777992248535e-02
-4.523153390236878124e-01,-4.605925485389119056e-01,-4.529623354321535289e-01,-1.312237927136385846e-02,-1.892797043253915609e-02,1.173160723949093903e-02,4.547375068068504333e-02
-4.223350567521664822e-01,-4.350882187085133301e-01,-4.271974482185531552e-01,-4.269868595775308875e-03,-4.451914783496725356e-03,4.961885946352463488e-03,1.767173036932945251e-02
-3.625074278905205394e-01,-3.676418683820090738e-01,-3.361256690469534014e-01,5.832306139816814672e-02,7.203905524716655573e-02,6.804242302993644687e-02,2.012976557016372681e-01
-4.361085545159492649e-01,-3.857061943907225676e-01,-3.589460882689605725e-01,3.434915295150840764e-02,3.927928713160658281e-02,5.610506716086430257e-02,1.490529775619506836e-01
-4.299956101326450897e-01,-3.898828733210557562e-01,-3.464936968299778819e-01,5.451262096248087052e-02,7.968483356222347269e-02,8.022252381539060617e-02,2.291352599859237671e-01
-3.889241969244591202e-01,-3.594772842800519341e-01,-3.586303957818209875e-01,3.827407264362647776e-02,3.378871913909287095e-02,4.489259025670930964e-02,1.214848011732101440e-01
-4.375366202921430747e-01,-4.161217908146294109e-01,-4.119730240105082264e-01,2.284617452340456656e-02,2.220387778000796480e-02,2.904103465788010485e-02,7.835609465837478638e-02
-4.403786559342823259e-01,-4.763029615326883071e-01,-4.218136877417977826e-01,-2.354284001648827233e-03,1.993968300810755601e-02,1.292588022847671785e-03,5.930059403181076050e-02
-3.855485669575859364e-01,-3.953704731179007448e-01,-3.553428998249532622e-01,3.150607731939387285e-02,4.296015580591783234e-02,3.788106522874762350e-02,1.188489720225334167e-01
-3.627532265094694508e-01,-5.180582506776199025e-01,-6.458298706513647680e-01,1.720250735607967429e-01,5.307402520307702432e-02,2.261710637619498282e-02,3.988130390644073486e-01
-4.283275662142447815e-01,-3.850161575365607103e-01,-3.465284134170929509e-01,6.041030770302091395e-03,1.135314999935025868e-02,3.395310942147342775e-02,9.475625306367874146e-02
-4.411571375236619241e-01,-4.041220977621158839e-01,-3.790572898493195231e-01,1.692137012774716856e-02,1.689331239702509743e-02,2.535318288640203005e-02,8.106551319360733032e-02
-4.550313601147013554e-01,-4.254665404558098385e-01,-4.074115980367931100e-01,1.027053323679942044e-02,1.129524037603989867e-02,1.586614527275847369e-02,5.646461993455886841e-02
-4.736494250582462540e-01,-4.031956713400473014e-01,-4.124632646308598605e-01,1.267041566964556033e-02,1.209865931412662000e-02,4.896651089136797030e-02,1.118507534265518188e-01
-4.318815646825991950e-01,-3.726735959553944544e-01,-3.807843263107881793e-01,1.671476083603223861e-02,1.623041193112050723e-02,2.987160039240331980e-02,8.600298315286636353e-02
-4.322866191743783282e-01,-4.613260611550683010e-01,-3.803361571336789648e-01,2.409521401223403865e-03,6.614177225210600766e-03,5.259996586549634456e-04,7.211270183324813843e-02
-4.387666136943230710e-01,-3.911059402126656481e-01,-3.931357321905225577e-01,8.962458371051520642e-03,1.007008186539500548e-02,1.595966856529233008e-02,5.906139314174652100e-02
-4.532430628100835857e-01,-3.995477269370007467e-01,-4.147158892135526798e-01,4.260689908258079653e-03,6.599845876944101554e-03,1.802584082493084716e-02,5.881096795201301575e-02
-4.058051437584177523e-01,-4.088045956176489248e-01,-4.500936895937462379e-01,1.733024813017560719e-03,-2.228825162896026345e-04,4.021142782156543645e-04,4.297993704676628113e-02
-4.517059832584731649e-01,-4.089999267633591673e-01,-4.069035187673576970e-01,1.987913170462771942e-03,6.299709604573820168e-04,7.425761407380835136e-03,4.578431323170661926e-02
-4.449728341845591295e-01,-3.998891275950733348e-01,-3.967297998129148406e-01,2.860546542855412367e-03,7.808887811338167907e-04,6.522047969888700170e-03,4.836264252662658691e-02
-4.506551882760118644e-01,-4.144581579829353934e-01,-3.984229705837281088e-01,2.837446781674629083e-03,9.996465868438335952e-04,5.171026055610667554e-03,4.748839884996414185e-02
-4.337729389743205100e-01,-3.879031131030648005e-01,-3.682412238669721671e-01,-7.552644639658287126e-03,-3.917956869335690456e-03,3.076153282631984009e-02,8.030263334512710571e-02
-3.865756253436178902e-01,-4.192606641661296152e-01,-4.508657202220286986e-01,1.321788615437104013e-02,4.785956994751151307e-03,9.128537952186327117e-03,6.279369443655014038e-02
-4.497846672365465315e-01,-4.175705502684515791e-01,-3.872496275042421332e-01,7.678582545743289358e-05,1.568945517963445113e-03,1.646603184696452185e-02,6.127529963850975037e-02
-4.614408030485469547e-01,-4.251454643232035480e-01,-3.967557797521915064e-01,-1.103080001790600860e-03,-1.648502759418541113e-03,1.567889349654948833e-02,6.247419491410255432e-02
-4.375237783341526243e-01,-4.382133589741951663e-01,-4.403011317600027397e-01,3.146350058434613933e-03,-7.834811688095086671e-03,-9.462157316826065936e-03,2.210707217454910278e-02
-4.272518673274582901e-01,-4.368056464175938958e-01,-4.227032496214307433e-01,4.627663183160830862e-03,-3.861295203097842195e-03,-4.044019068526930917e-03,1.770474389195442200e-02
-4.263675752830377030e-01,-4.247476264649371891e-01,-4.123897928977567906e-01,8.262197059320052980e-03,-1.006510180877364345e-02,-1.115557908563672741e-02,3.251785039901733398e-02
-4.526891537197806903e-01,-4.536642268209488127e-01,-4.504203150556574942e-01,1.133044562756628168e-02,-1.874391037923628378e-02,-1.774747981577238717e-02,4.891185089945793152e-02
-4.319215681405862983e-01,-4.331996455519481204e-01,-4.302529269583886262e-01,1.706702585682060708e-02,-1.290457025105530217e-02,-1.265475856156450009e-02,4.313250631093978882e-02
-4.125456839696231004e-01,-4.069114430423060869e-01,-4.517736639354025252e-01,2.608957671731953771e-03,-2.093319374446260409e-04,2.291312158881698752e-04,4.257120937108993530e-02
-4.423857222147899448e-01,-4.290653004696963202e-01,-4.352386410671396089e-01,-2.264838021481128429e-03,2.738013632138069399e-03,-2.609812197654562405e-03,1.384284161031246185e-02
-4.363255640926017032e-01,-4.360581433264577589e-01,-4.370802796133425039e-01,-3.466042291687141362e-03,3.093077199993397343e-03,-4.502462744343964547e-03,1.124282740056514740e-02
-3.969328504923391177e-01,-3.764232611699852016e-01,-3.966113976599111579e-01,1.935751193412929214e-02,1.901832459125658500e-02,1.741011642800602624e-02,5.943669006228446960e-02
-4.339338036398331377e-01,-4.271664139151156170e-01,-4.329294580628760825e-01,-1.526884336630506727e-03,1.195752208258259825e-03,-1.323706466576905164e-03,7.519951555877923965e-03
-4.348826929457634272e-01,-4.318811113031064131e-01,-4.322197179043510973e-01,-1.847778465042916943e-03,4.192248514441170850e-04,-1.091098078996913376e-03,4.738077521324157715e-03
-4.570532886528252403e-01,-4.211648868002792478e-01,-4.058967604408510454e-01,5.060548155031093648e-03,-1.888073074129045011e-03,-2.532836847812922759e-02,6.388381868600845337e-02
-4.531875958551973005e-01,-4.370771939881046286e-01,-4.286434673581368537e-01,6.850084013054228045e-03,-3.982670735711641569e-03,-1.313928345636090900e-02,3.424648568034172058e-02
-4.597306618099723519e-01,-4.271458070426046305e-01,-4.259957883273505219e-01,4.261367540292405496e-04,-5.481353852175115636e-03,-1.187647996523291845e-02,4.017961397767066956e-02
-4.642372993400090686e-01,-4.236519836104933323e-01,-4.407825501385865263e-01,8.438330598585426848e-03,-4.653471584018054573e-03,-1.224918350944836053e-02,4.443065077066421509e-02
-4.715932131090289636e-01,-4.403601942794015955e-01,-4.470265372468289478e-01,6.119368160923108798e-05,-6.225479822218578721e-03,-1.633399590421532807e-02,4.157416149973869324e-02
-4.490463783097763395e-01,-4.247305510999855871e-01,-4.314965523053956309e-01,6.183368685912700620e-03,-6.041655214440024707e-03,-8.190221351556019672e-03,2.996603772044181824e-02
-4.218843994817229048e-01,-4.798397158449300148e-01,-4.126291283574457514e-01,2.107278364203743481e-02,4.569345864557865927e-02,2.571684331444294702e-02,1.164508536458015442e-01
-4.576014300933807788e-01,-4.318204537312581581e-01,-4.278495694906574998e-01,1.015712902447467010e-03,4.421486638480872419e-04,-3.650117991230496586e-03,2.874807082116603851e-02
-4.502565167311092242e-01,-4.210369720602373245e-01,-4.174230778439674272e-01,8.670850103237451919e-04,-1.421001187611245628e-03,-1.129664846829603504e-02,3.692688047885894775e-02
-4.524246955927335168e-01,-4.304153327423815845e-01,-4.288442276534560338e-01,1.489163037964884870e-03,-1.562997607362531577e-03,-4.462018569034806141e-03,2.439610660076141357e-02
-4.080879874738709834e-01,-3.699874541803460648e-01,-4.391133857447965805e-01,-3.376015323706333532e-02,-7.462126034426452489e-03,5.138768431147034028e-03,8.521634340286254883e-02
-4.391409754856703263e-01,-4.017871046252444733e-01,-4.510823716585464216e-01,-1.665700901906244299e-02,-7.887626737931649826e-03,8.013673477824207955e-03,5.652994662523269653e-02
-4.499639355586054767e-01,-3.938583686625605207e-01,-4.721793440992965163e-01,-9.668125548705271827e-03,-1.250343952801582104e-03,4.738382287418523194e-03,7.238944619894027710e-02
-4.538016170485221212e-01,-3.950515461595354161e-01,-4.620101835869918072e-01,-8.780436043310401242e-03,-4.671717322129623901e-03,-5.046752692753853249e-03,6.613907963037490845e-02
-4.361221790571926382e-01,-4.187178166749762620e-01,-4.579108468437582680e-01,-5.503431518211776043e-03,2.659329411866220481e-04,1.156765906368404078e-03,3.538312390446662903e-02
-4.497491501222208865e-01,-4.319591741683880270e-01,-4.702271214460677085e-01,-1.159751179584763217e-02,4.472442271810382446e-03,1.759360273685904195e-03,3.966023400425910950e-02
-4.336349550174175560e-01,-4.140368987265019562e-01,-4.516171726016237065e-01,-4.149352071905211201e-03,-7.328986478710722762e-04,3.807078084241546445e-04,3.337001800537109375e-02
-4.113454663506697084e-01,-4.063284381911768661e-01,-4.180960073106426145e-01,7.922495784730382989e-03,8.708585760662038155e-03,7.481231362029473753e-03,2.623605728149414062e-02
-4.666150836078004627e-01,-3.940644668045706345e-01,-4.612173319079354572e-01,-2.486767853306920753e-02,-1.522964050579540297e-02,1.854511283104490899e-02,9.210815280675888062e-02
-4.609258259217290377e-01,-4.275942402704581147e-01,-4.735925675291085546e-01,-1.728432106837591090e-02,-8.230091565896879846e-03,9.522366621575722306e-03,5.536349490284919739e-02
-4.803688997064426425e-01,-3.817542435132725842e-01,-4.372334599257468035e-01,-4.870288661837089000e-02,-1.300531765834028568e-02,5.847303939113531607e-02,1.587839573621749878e-01
-4.287032585544323648e-01,-4.035126624396679351e-01,-4.318894497334870852e-01,-1.667600171865383368e-02,-1.068835275874033784e-02,1.219242386566839198e-02,4.845549911260604858e-02
-4.065328838444478010e-01,-3.992199555394571608e-01,-4.263650260037977202e-01,-3.840824172858455648e-02,-2.787823679367825228e-02,2.303193662052321899e-02,9.455369412899017334e-02
-4.539352735793848459e-01,-4.488887283508174453e-01,-4.745623376543545713e-01,-2.628377679103498579e-02,-1.611376452451534005e-02,1.054379906197216304e-02,6.115574389696121216e-02
-4.062358073798626457e-01,-4.298282253368539418e-01,-4.576916256721452192e-01,-1.547863205570458242e-02,6.586736597151414407e-03,-7.269150439835422688e-03,5.475196242332458496e-02
-4.352060162951595368e-01,-4.824724567026591471e-01,-4.896293480891764638e-01,-3.413393975600235997e-02,2.441321026095193830e-02,-2.267816512759358513e-02,9.721063822507858276e-02
-4.381591975627265878e-01,-4.836498178771708734e-01,-4.846955039119846265e-01,-3.184773326757465300e-02,2.526398576567650406e-02,-2.409464778807732244e-02,9.390077739953994751e-02
-4.040765828292069428e-01,-4.767544129526152252e-01,-4.863433078175292690e-01,-2.071251370490020255e-02,1.622556033938453435e-02,-1.714621196337186293e-02,9.502485394477844238e-02
-4.420760049320326401e-01,-4.404906914722634959e-01,-4.479408644285248764e-01,-2.929463224385642911e-02,3.333528166296192974e-02,-3.211527743976348021e-02,9.512428939342498779e-02
-4.576950453315855594e-01,-4.481554738910557001e-01,-4.801580049037185716e-01,-3.581402290051756421e-02,9.553677514502055546e-03,-2.449552533478900618e-02,8.204704523086547852e-02
-4.025775519769537181e-01,-4.189478883911255669e-01,-4.590376761373816117e-01,-4.692109052828330462e-02,2.112325070331613763e-02,-3.170196548064788122e-02,1.161458045244216919e-01
-4.171967792392307084e-01,-4.318544428183227479e-01,-4.423037249954289152e-01,-1.066503812653890777e-02,-9.093454369506849544e-03,8.914303746623192248e-03,3.612330183386802673e-02
-4.383651272078600836e-01,-4.333099771196479710e-01,-4.186791968636012773e-01,-1.256410001377017589e-02,-1.218381673913241856e-02,1.072907482633715832e-02,3.972178325057029724e-02
-3.780192198522318581e-01,-3.845353055255693042e-01,-4.042239257996028678e-01,4.235925408483892651e-02,3.353297678396937459e-02,3.794692073645198477e-02,1.167672947049140930e-01
-4.298594064750536625e-01,-3.616444069316733234e-01,-4.277072380036692767e-01,3.440836307020100904e-02,2.269883191485423668e-02,2.834560714691034336e-02,1.096314042806625366e-01
-4.420173641739697512e-01,-3.876226642141457068e-01,-4.706424868322882094e-01,3.438486053937771236e-02,1.524167475634636074e-02,1.963370518678356907e-02,1.036125719547271729e-01
-3.863220371674835896e-01,-3.622475569019373287e-01,-4.276410919252260912e-01,3.033748587401335559e-02,1.690208962803574008e-02,1.798816261496451532e-02,8.871545642614364624e-02
-3.902166200957393749e-01,-4.378742821066745616e-01,-4.025818899699564746e-01,7.439555427782059381e-03,1.771130101768912668e-02,6.354252604735669864e-03,5.534522607922554016e-02
-4.026410042672795009e-01,-4.434461221221385752e-01,-4.029913616292092327e-01,-4.372177644009333369e-03,1.463541670598147645e-02,-5.650177345110129860e-03,4.946303367614746094e-02
-4.269475656998386048e-01,-4.809120046574443808e-01,-3.584117508694544263e-01,1.120541360776636589e-02,9.172908518539037159e-02,6.430299944145542561e-03,1.924869418144226074e-01
-4.273508144697373279e-01,-4.653654990283804249e-01,-4.271330190137192506e-01,-9.170730880905451216e-03,1.649695060430104998e-02,-9.965960432825571660e-03,5.310517176985740662e-02
-3.965711425917077815e-01,-4.351591760579514023e-01,-3.757144589124548073e-01,-1.534614917330879777e-02,3.810434276777326795e-02,-1.635280625306036878e-02,9.270077943801879883e-02
-4.113127933684201931e-01,-4.548834696122908139e-01,-4.184422271732962106e-01,-4.664328967245629648e-03,1.352211948996215850e-02,-1.032583106272884702e-02,5.071762949228286743e-02
-4.242981672065048726e-01,-4.558850010514466922e-01,-4.019597001573715356e-01,1.981566526319645995e-03,2.332416411206031381e-02,-3.873380232881472839e-03,6.237928941845893860e-02
-4.281034493041074862e-01,-4.476431964079559678e-01,-4.207286727043066388e-01,-1.048753367422620812e-02,1.568710858637951955e-02,-1.266682798474340343e-02,4.615037515759468079e-02
-3.816474668457343622e-01,-4.664168903174770175e-01,-3.976465128006103078e-01,-7.019828198669532740e-03,3.830693715396282090e-02,-1.849583711711866275e-04,1.031299903988838196e-01
-3.750812555036115437e-01,-4.283020469184110612e-01,-4.503505389601444864e-01,6.281184335470127791e-03,5.365914656867794806e-03,7.252693189166800440e-03,6.967474520206451416e-02
-4.692240347157566882e-01,-4.743081831064812071e-01,-4.315831194407225291e-01,-1.781992979728037885e-02,1.263216499487048936e-02,-1.616962187169781670e-02,6.204670295119285583e-02
-4.102717795169918968e-01,-4.046633291578278779e-01,-4.354053250436429323e-01,5.777426027008597184e-03,4.774431145705339274e-03,3.953463612910641453e-03,3.192994371056556702e-02
-4.575121528105546842e-01,-4.756841742011142515e-01,-4.114177182199292848e-01,-5.863669166224181294e-03,2.361582950220463342e-02,-1.114926030585771353e-02,7.376812398433685303e-02
-3.915892037131838421e-01,-4.575046663160842741e-01,-7.315358278195016606e-01,2.294184281165630168e-01,-6.133721536705780131e-02,-5.832016403849252933e-02,5.262031555175781250e-01
-4.322035924932979833e-01,-4.369554782510584601e-01,-3.858535717905380302e-01,-3.577120011869457800e-02,5.191485070132269980e-02,-2.421239791718241344e-02,1.267835497856140137e-01
-4.835929618338657976e-01,-5.401956489870964884e-01,-4.350126507082631711e-01,-1.596259492086804163e-02,5.484016315237199429e-02,-2.577333270674731988e-02,1.417505741119384766e-01
-4.723635816633708906e-01,-4.341662870418553921e-01,-4.722904712958116979e-01,-2.154024715482695529e-02,-2.121900953647815752e-02,4.007000770307779514e-02,9.495129436254501343e-02
-4.275780633754228677e-01,-3.722954332585061143e-01,-3.475464627974248488e-01,-1.535439065503623086e-02,-1.769935975739752795e-02,5.636159482077142402e-02,1.273335367441177368e-01
-4.812039232637334574e-01,-3.745563695334075405e-01,-4.535960000788658020e-01,-3.276248157914062736e-02,-2.198791515200041943e-02,3.127011941773089054e-02,1.295977979898452759e-01
-4.438875174806067303e-01,-3.846010574787680492e-01,-4.143187634798037311e-01,-7.253113276614259544e-03,-7.363467127911533204e-03,2.107761297288401545e-02,6.549390405416488647e-02
-5.097165282330897718e-01,-3.856394768939644391e-01,-4.842937887584524703e-01,-3.802304574857530428e-02,-2.990283948741629880e-02,6.404240613924032377e-02,1.794746071100234985e-01
-3.515153457775109236e-01,-4.387070817288489244e-01,-4.555718538696267306e-01,7.333907829753666396e-02,6.772793555953841860e-02,4.546544989013689281e-02,2.132034003734588623e-01
-4.485866676283537524e-01,-3.921091799324761262e-01,-4.397607885717515486e-01,-2.155540999542130548e-02,-1.760372764356312944e-02,2.492244471134384340e-02,8.340326696634292603e-02
-3.370131632548474254e-01,-4.157205025699208800e-01,-4.484730700782131319e-01,5.354545013926349795e-02,2.666332097330353576e-02,1.456042504618056468e-02,1.456557810306549072e-01
-3.508460587971036770e-01,-4.230211447804991809e-01,-4.503084369407022169e-01,7.596371359322137695e-02,4.249978787143088993e-02,1.851080890749393429e-02,1.779927164316177368e-01
-2.934636940604229416e-01,-4.087383484759651298e-01,-4.474417390835030428e-01,8.504654161952185376e-02,1.417830504681838466e-02,7.797217060666954483e-03,2.042839229106903076e-01
-4.536396163010141813e-01,-4.105705332416571540e-01,-4.275617627532275478e-01,-9.525975022274707146e-03,7.356668090157876191e-03,-1.992213333388787380e-02,5.511006712913513184e-02
-4.509903757963864002e-01,-4.344852797927693522e-01,-3.949722716588093263e-01,-1.061107318634410199e-02,1.500214801580102876e-02,-3.512168132170477575e-02,8.484949916601181030e-02
-4.649872328358344853e-01,-4.320344478755329676e-01,-4.396495531505904553e-01,-5.250376518801159326e-03,3.138496301165202319e-03,-1.438674607273249598e-02,4.032520577311515808e-02
-4.536707218857723434e-01,-4.302226952900177204e-01,-4.319507678810043938e-01,-4.053567114347492520e-03,3.495448932172719615e-03,-4.843208375654133556e-03,2.585720457136631012e-02
-4.512472052532489064e-01,-4.374667617844872902e-01,-4.465338666619789176e-01,-5.043457983621141456e-03,4.545284527380084177e-03,-8.186599216766060963e-03,2.205705642700195312e-02
-4.530034660997566132e-01,-4.314596496752247656e-01,-4.050245235676661615e-01,-1.074782798527423866e-02,1.066324895330028090e-02,-1.808462177255488676e-02,5.832056328654289246e-02
-4.553995387799630312e-01,-4.372399121910165443e-01,-4.290796131603324404e-01,-1.865260312118248876e-03,7.081096180974574134e-03,-8.809371210095900614e-03,3.063052333891391754e-02
-4.535891385555647637e-01,-4.448851742194539494e-01,-4.443620003340321145e-01,-8.824316167109901021e-03,8.151846935907338526e-03,-2.132660316313362073e-02,4.333614930510520935e-02
-4.323644123941344786e-01,-4.224846459167498902e-01,-4.045139926334377911e-01,-8.664328011128187568e-03,7.946219484226139246e-03,-1.487540734691063238e-02,4.094596579670906067e-02
-3.588435769187453550e-01,-4.237158948479481380e-01,-4.426925327137214428e-01,1.275500414666476227e-02,7.557310187322028791e-03,9.110505975935743322e-03,8.190239220857620239e-02
-2.979169959995723316e-01,-4.337547841944998095e-01,-4.277526328921166243e-01,3.384240199249868158e-02,2.885123864843553571e-02,4.948402293741140101e-03,1.538804024457931519e-01
-3.107394110030318735e-01,-3.498797662232800421e-01,-4.006930975369983328e-01,6.667955848882405057e-02,3.838169717413681542e-02,3.158951541107431205e-02,1.638733148574829102e-01
-3.722691929647850007e-01,-3.868257006211057170e-01,-4.320777452119068385e-01,2.779840376896536291e-02,1.579117614762485383e-02,1.562397102734732965e-02,8.195739239454269409e-02
-3.588018199979556289e-01,-4.239921099272248028e-01,-4.181176029317871801e-01,5.644915092202230228e-02,5.662210311505846971e-02,3.341928182473248576e-02,1.625717580318450928e-01
-3.817364237692623119e-01,-4.614428225960093832e-01,-4.578513584005459158e-01,2.400394943701957343e-02,3.040031894391273179e-02,1.372995478228970952e-02,1.055764555931091309e-01
-3.996515280022727157e-01,-4.184132929965864722e-01,-4.322376007861022940e-01,6.484425743216172024e-03,-1.380843738095551346e-03,-4.308422648315639140e-03,3.146481886506080627e-02
-4.140433928383072670e-01,-4.389452617276610180e-01,-4.257376948865089217e-01,3.484555164952757040e-03,-6.726747712973190838e-03,-6.708767654151781383e-03,2.780011296272277832e-02
-4.354728845190235509e-01,-4.274742308054730322e-01,-4.096379796924136119e-01,-1.187020573618987121e-02,1.364842784512707539e-02,-1.459384447849316688e-02,4.631696641445159912e-02
-4.653873883585239457e-01,-4.313758763690797582e-01,-4.424791184044658543e-01,-9.659969466586773362e-04,5.915481019174048845e-03,-1.172283587401809664e-02,3.771577402949333191e-02
-4.652112431438042428e-01,-4.360186947633661880e-01,-4.135590118800613890e-01,-1.675456378857419215e-02,4.366550839015306308e-03,-2.942836486160759282e-02,7.422755658626556396e-02
-4.524254209741052080e-01,-4.296437874158179349e-01,-4.319113534658411968e-01,-6.863513399711917116e-03,4.524837047900234430e-03,-6.293385814839107077e-03,2.817892469465732574e-02
-4.599518773450581577e-01,-4.435224935000951496e-01,-4.406627935806988194e-01,-7.387527507516102564e-03,4.503287169010514700e-03,-9.294982803297574536e-03,2.844013459980487823e-02
-4.495901401997007829e-01,-4.125690760569419302e-01,-4.200250979763483494e-01,-9.085279613277239680e-03,1.047826731474436890e-02,-1.691832085277173228e-02,5.085095390677452087e-02
-4.586223372504638629e-01,-4.359063267226878091e-01,-4.444973768985363005e-01,-6.431623432330383326e-03,5.959741925505463236e-03,-7.358441100309478025e-03,2.806709334254264832e-02
-4.323016052504242701e-01,-4.415399988185430002e-01,-4.240541072377186360e-01,-9.196154657540017013e-03,-1.336672471615072896e-02,7.685698555519041714e-03,3.459029272198677063e-02
-4.478314079322031072e-01,-4.555785451093041782e-01,-4.234864119049139841e-01,-1.837352763642426806e-02,-1.807652472791113074e-02,9.018170164714801526e-03,5.548265576362609863e-02
-3.961412324464185786e-01,-3.844209792738015330e-01,-4.388468088886846030e-01,2.957086985164375514e-02,-8.603688991834800015e-03,-9.867793327208992243e-03,7.482746988534927368e-02
-4.310172055177200479e-01,-4.315634551962664323e-01,-4.945992245039086410e-01,4.355589790234051101e-02,-3.957072360875165534e-03,-5.785097967846349401e-03,9.923187643289566040e-02
-4.221127469146176425e-01,-4.393345194248420849e-01,-4.665207675562147993e-01,1.092575872841906881e-02,-6.798860245527510969e-03,-9.207600769735655236e-03,4.748691245913505554e-02
-2.954077623675995801e-01,-3.639903935066040597e-01,-5.550414414333140201e-01,1.761969395226633817e-01,3.801218623439876765e-02,-6.138510309296470180e-03,3.897316753864288330e-01
-2.687586721135363232e-01,-3.911661627409585562e-01,-4.095179402842615279e-01,7.962380779018489452e-02,-7.215257187566223585e-02,-4.314285669056302369e-02,2.403924465179443359e-01
-3.651822783251982285e-01,-4.698529806361185224e-01,-4.785814620857319346e-01,1.423170002259762645e-01,-3.097053818826764685e-02,-2.665062468119962572e-02,2.787766754627227783e-01
-4.759571066214342561e-01,-4.194072425240533697e-01,-5.502598303947959790e-01,7.620668146030058765e-02,-1.694780913302694828e-02,-2.896305205574579295e-02,1.836334019899368286e-01
-2.969637809354896962e-01,-1.935531308330860623e-01,-4.094024438959703582e-01,1.386688954748615810e-01,1.656890579998598206e-02,9.489500948799967084e-03,3.061772286891937256e-01
-3.018725309666740464e-01,-2.215995356171407416e-01,-4.312913394490567320e-01,1.365316030579752926e-01,2.326106713270701884e-02,2.096225549744684322e-02,3.040492236614227295e-01
-4.013479236174077869e-01,-4.876022162821065931e-01,-5.880327695817414435e-01,8.300628593501797881e-02,-2.754980582681992515e-02,-1.890767394847606142e-02,2.240720242261886597e-01
-4.537050723755279291e-01,-4.006646262607359565e-01,-5.056681891327694522e-01,7.413341578591342573e-02,-1.846482347269622765e-02,-2.357645400353237247e-02,1.656722277402877808e-01
-4.505828062953650681e-01,-4.331547143866221750e-01,-4.245958138850623453e-01,3.320208720254878149e-03,-1.417638135597828249e-03,-3.424523123882459042e-03,2.450389787554740906e-02
-4.648388726192200782e-01,-4.400209673763625373e-01,-4.271228996110685294e-01,1.803102211738005388e-03,-6.047930741322874587e-03,-1.065922566971783808e-02,3.953143954277038574e-02
-4.457314595555211256e-01,-4.396546926401450062e-01,-4.235829399125544126e-01,5.743448399951359314e-03,-1.825605998643505890e-03,-3.267959965063405459e-03,2.310609072446823120e-02
-4.528138634902984516e-01,-4.350671125362466363e-01,-4.359460566583479579e-01,4.773363496715304390e-03,-5.013213955805094664e-03,-6.563270588116809114e-03,2.393956668674945831e-02
-4.339488871991407093e-01,-4.059840473430610941e-01,-4.183531544132836899e-01,1.005046160332589457e-02,-6.766300776807652323e-03,-1.074328456185559555e-02,3.709131106734275818e-02
-4.407179733244076525e-01,-3.915807106002687221e-01,-4.134788703514465369e-01,1.434028454934626468e-02,-1.275569269434124325e-02,-2.440034732059363082e-02,6.862338632345199585e-02
-4.544307640554096084e-01,-4.346391559501194823e-01,-4.314225604151043503e-01,2.261507924227640874e-03,-2.515500763513481113e-03,-3.190486486645180506e-03,2.303432114422321320e-02
-4.583065277261098580e-01,-4.496213789693786489e-01,-4.396748357375741545e-01,4.168554361402103219e-03,-6.172956042170506079e-03,-6.208509605110654368e-03,2.329884655773639679e-02
-4.673570259096683222e-01,-4.457244406190308816e-01,-4.354596977762753562e-01,4.630573819764590218e-03,-4.430248587311604209e-03,-1.030680206930168624e-02,3.517506271600723267e-02
-4.498916366662445432e-01,-4.251750791591203948e-01,-4.010726950166985105e-01,6.470705237109336712e-03,-5.501623943589368723e-03,-1.875824389512038837e-02,5.531356111168861389e-02
-4.605060183425171427e-01,-4.307027807361444305e-01,-4.283167219401926573e-01,2.082573262269596989e-03,-8.866106083863880584e-04,-9.721532798156247435e-03,3.555183112621307373e-02
-4.428487813319192945e-01,-3.943553583729907386e-01,-4.097393030178012041e-01,3.830241211388513210e-04,-2.063099420267236039e-03,-3.152816602435099674e-02,6.955244392156600952e-02
-4.584431854771177650e-01,-4.110419257021109551e-01,-4.540396746376393344e-01,-1.045258125780257341e-02,3.350574663876107993e-03,-2.324563435576522050e-02,6.356150656938552856e-02
-4.265129214566813487e-01,-4.087895932164760660e-01,-4.572710749460792146e-01,1.928592760521660732e-02,-1.840399449819793334e-03,-3.176952668337013584e-03,5.442057177424430847e-02
-4.647714034960877538e-01,-3.663203898442628503e-01,-4.713408363619365771e-01,2.065373183852086780e-04,-4.297412767148307139e-04,-1.160365904622116112e-02,1.038611754775047302e-01
-4.910131842522975631e-01,-3.995621823368852854e-01,-4.716617420879830602e-01,-2.905115716673108139e-02,5.846331723228200168e-03,-1.564576393862075407e-02,1.016704142093658447e-01
-4.144098359386451658e-01,-3.996120349062891597e-01,-4.161497801922712236e-01,1.424943578336713458e-02,-1.133400859779735981e-02,-1.243784580081414536e-02,4.130820930004119873e-02
-4.719196948434362660e-01,-4.119192489601237184e-01,-4.713686146553757172e-01,-1.115702715717382769e-02,7.146730133086992391e-03,-6.357210206867313501e-03,6.492456793785095215e-02
-4.583926506039560644e-01,-4.048658765013494198e-01,-4.533590387852465819e-01,-4.785439745380475930e-03,1.127674617992942578e-03,-1.092949052197354776e-02,5.524398013949394226e-02
-4.705402253452363737e-01,-4.234030052245821296e-01,-4.677649758484298537e-01,-1.144510793557716559e-02,3.190523459387492253e-03,-3.558807603013241973e-03,5.059947818517684937e-02
-4.668455234823570832e-01,-4.243860888876014870e-01,-4.663336015558857683e-01,-1.604115984561545714e-03,1.227423690288233313e-03,-1.716997548950914554e-02,5.174933001399040222e-02
-4.315837269927224606e-01,-3.988638620614378127e-01,-3.983023411161315530e-01,7.211104321663486943e-03,8.112869901526157529e-03,1.144190225816076913e-02,4.284256324172019958e-02
-4.568954481088290942e-01,-4.200677095896536151e-01,-4.158508155384834648e-01,4.316982590276378581e-03,4.824433001361949115e-03,7.943479061927546242e-03,4.294641315937042236e-02
-3.991516810091120249e-01,-3.805509691903946612e-01,-4.392085051190607881e-01,2.878244052674666653e-02,-6.597665235175959389e-03,-7.631267131070187427e-03,7.406891137361526489e-02
-4.552088360398432454e-01,-3.835485607485035198e-01,-4.292168343812494680e-01,-7.430921626525953784e-04,-1.711298082770933973e-03,9.141896721617073437e-03,6.487950682640075684e-02
-4.310745793585558094e-01,-4.208424113437061465e-01,-4.490003048464247248e-01,1.408648170352140225e-02,-4.344902524349010704e-03,-4.425941040405483723e-03,3.633368015289306641e-02
-4.240024225102675404e-01,-4.197443334002403659e-01,-4.387899117571444352e-01,8.789621652164963592e-03,-8.104629510578501700e-03,-7.699770565158711375e-03,3.010738082230091095e-02
-4.128122646021353814e-01,-4.001232152484276439e-01,-4.449820219641037466e-01,2.312176975445049548e-02,-1.650292998160674679e-02,-1.775240778542848050e-02,7.050135731697082520e-02
-4.345356552192981558e-01,-4.446579560803604614e-01,-4.511896442682309383e-01,7.543596384798315242e-03,-8.451341552644505914e-03,-9.621895789927155038e-03,2.956307306885719299e-02
-4.155138334944166179e-01,-4.298298456184671545e-01,-4.399874081759747035e-01,1.360527478030042203e-02,-1.043686604309637146e-02,-1.201601980237188699e-02,4.205697774887084961e-02
-4.413194093109479854e-01,-3.596586936135344748e-01,-3.931401486456633232e-01,1.054459740514378414e-02,8.555175256159695818e-03,3.514087446937223108e-02,9.650462120771408081e-02
-4.484179049605786505e-01,-3.925763826041783200e-01,-3.956109132133533435e-01,7.614826726730553226e-03,1.693586808588028961e-03,1.946773801352385397e-02,6.540314108133316040e-02
-4.640174943997799062e-01,-4.235755193225385629e-01,-4.079937414653534988e-01,2.196913091170085361e-03,3.923709691610554468e-03,2.221831528951326296e-02,6.364062428474426270e-02
-4.215928054193371910e-01,-3.890868804966127192e-01,-3.483011992752164110e-01,1.865233211364746707e-02,2.373678976654957501e-02,3.484664609327636081e-02,1.020920351147651672e-01
-4.525082543039273819e-01,-4.076561151759428014e-01,-4.020192355002047968e-01,-2.479381108273374240e-02,-2.242816385256458586e-02,3.785787034786168570e-02,9.974586218595504761e-02
-4.330173990465901457e-01,-3.647371528370248472e-01,-2.948127935052895499e-01,2.237916973654333758e-03,3.873418286371369326e-03,7.164266210684963609e-02,1.725807338953018188e-01
-4.554875514106945245e-01,-3.747532198132649817e-01,-4.117870469520799603e-01,3.310835175620177942e-03,3.826148563144444840e-03,4.970253732746197223e-02,1.112989932298660278e-01
-4.609951459442796495e-01,-4.375000816461004916e-01,-3.755425959527984858e-01,-1.497756850504996726e-02,-1.795093235116757349e-02,5.822498284034167970e-02,1.328780651092529297e-01
-4.733832422164322429e-01,-4.023621237650718552e-01,-3.693927147006692002e-01,4.990545964426115234e-03,-8.202917699597848510e-04,8.331107534122626779e-02,1.713809967041015625e-01
-4.347181794615835315e-01,-2.808165888767534812e-01,-1.990981032330289280e-01,4.340858588073795779e-03,1.367570666851350425e-02,1.626315235512269808e-01,3.505778908729553223e-01
-3.900012109129631366e-01,-2.416767047299015481e-01,-1.856776734263086703e-01,4.554615298744865010e-02,6.174283638484159148e-02,1.665743357067981101e-01,3.665283024311065674e-01
-4.789038112143403358e-01,-3.606918655773762028e-01,-2.768513152888526507e-01,7.779679014327450792e-02,8.676324504730936749e-02,1.455859274604939524e-01,3.677507936954498291e-01
-4.707956081911094937e-01,-2.986038276557534954e-01,-3.344655033129938504e-01,4.451728365389356207e-02,3.993989734910649569e-02,1.850476583266543185e-01,3.717792928218841553e-01
-4.147859008957192617e-01,-2.002876169165627163e-01,-2.750874726314724850e-01,3.736327203683020848e-02,3.607341032119103924e-02,1.564642981103007424e-01,3.421918153762817383e-01
-4.415467372502195897e-01,-4.445717208708725998e-01,-4.688828379567109295e-01,-1.628636157474408139e-02,1.730255451543783688e-03,-5.537491255822991551e-03,3.962866589426994324e-02
-4.271684838851603772e-01,-4.256420891832156106e-01,-4.624393498220963350e-01,-1.160750595392090988e-02,-2.107816416718458934e-04,2.395196456110338778e-03,4.149394854903221130e-02
-4.201207801803484299e-01,-4.168545925612454073e-01,-4.491548141129507177e-01,-1.086290158961603254e-02,6.654442064524802814e-04,1.348363532076515435e-03,3.618375584483146667e-02
-3.883098963381996782e-01,-4.086604875981790230e-01,-4.441869738674694701e-01,-2.804005525519143519e-02,-1.848485274126091373e-03,2.289947215345965962e-03,6.916631758213043213e-02
-4.033634676012916587e-01,-4.174223450441832961e-01,-4.153748263413540309e-01,1.335429729431882387e-02,-1.240714144994434220e-02,-1.261536686730475344e-02,4.058724269270896912e-02
-3.880773199151749120e-01,-4.407525375395767719e-01,-4.142696878397832405e-01,1.401321238674682092e-03,-2.779555231914344546e-02,-3.429625883425196226e-03,6.663322448730468750e-02
-4.321291004722830342e-01,-4.592349924146913454e-01,-4.437244156841496645e-01,1.426040175206184360e-03,-1.322932326380242378e-02,4.012483723692669008e-03,3.367974609136581421e-02
-4.663578368710212252e-01,-5.148911291583879724e-01,-4.627649816369918678e-01,-1.679873204693516390e-03,-4.127059089045084783e-02,-6.453838016406553135e-03,8.823814243078231812e-02
-4.443914730295929205e-01,-4.716693489327281053e-01,-4.333960390136084029e-01,2.052617268487137540e-03,-1.191362513116087096e-02,-1.575558247992571914e-03,4.013482853770256042e-02
-4.424017963637544848e-01,-4.594258136953439098e-01,-4.287959171995897600e-01,2.061699690821329565e-03,-1.126993950843659283e-02,-1.580042208006218838e-03,3.328422829508781433e-02
-4.733738143277328447e-01,-3.807705948345834757e-01,-4.097756605392747775e-01,6.305396105833773173e-04,6.367131111788485419e-03,3.627278893185434394e-02,1.039261594414710999e-01
-4.466893546295254147e-01,-4.034415134954337789e-01,-3.747453508535797395e-01,-1.654416849586251960e-03,-7.840109201451127968e-04,2.958187222435091149e-02,8.105682581663131714e-02
-4.050044284361450364e-01,-3.777866434262314721e-01,-3.632051743571371172e-01,-2.760893398044888050e-02,-3.920144020067409946e-02,4.584894786251308973e-02,1.206387132406234741e-01
-4.417679629167849398e-01,-4.082086625638285393e-01,-3.322255369567705952e-01,-1.117299650205205632e-03,-1.798010242811984120e-03,4.461013568832370574e-02,1.242305859923362732e-01
-4.446570644345974599e-01,-4.129959202829384113e-01,-4.069325832327876924e-01,-7.697457398985530809e-03,-6.325658938343209185e-03,1.458890638935037530e-02,4.655606672167778015e-02
-4.989612299874378598e-01,-4.289505340045035031e-01,-3.723594488747890563e-01,4.584572245114500177e-03,4.126589249899552392e-03,7.072730730182162640e-02,1.648854911327362061e-01
-4.970562207412657640e-01,-3.752151270947912121e-01,-3.900613203361423809e-01,-4.932629370310967661e-03,-9.853965198069409084e-03,8.546937086899404623e-02,1.885102689266204834e-01
-4.490753370107166687e-01,-4.095014514229418645e-01,-3.363612479385220677e-01,2.222794846684723793e-04,1.377715858602697029e-03,4.564993575993541580e-02,1.267580986022949219e-01
-4.471855792465734836e-01,-4.436715715380171732e-01,-4.716941612412048901e-01,-3.997972346024667584e-02,6.661459307959546536e-03,-1.051271216801159814e-02,7.719425857067108154e-02
-4.391599660491921076e-01,-4.310618938755285678e-01,-4.569103228577037767e-01,-9.831873806138610380e-03,3.517530228603089199e-03,-3.956674945532609976e-03,2.997465059161186218e-02
-4.506258647347838875e-01,-4.043019662991619301e-01,-4.561453492347647964e-01,-2.492637312543729763e-02,-4.708785341898772694e-04,-9.880294549503077992e-03,6.774622201919555664e-02
-4.589229713155068002e-01,-4.265857688384199764e-01,-4.659480004037030443e-01,-1.454575894462296903e-02,4.528027463929800399e-03,-1.227192151836812954e-02,4.970173165202140808e-02
-4.266315126454648388e-01,-4.081341583003756934e-01,-4.448156077963447697e-01,-7.038049256393001663e-03,3.912582396104573139e-03,-2.199653012013249101e-03,3.490291908383369446e-02
-4.631555275785214087e-01,-4.065218313155871677e-01,-4.762948477260240399e-01,-1.256439567665036845e-02,3.850670563718824814e-04,-4.312432950395558200e-04,6.781401485204696655e-02
-4.425305367263072109e-01,-4.034333084816931203e-01,-4.471882343029359164e-01,-7.049597476594209738e-03,7.316822527114511497e-03,-4.832226399766956747e-03,4.595802351832389832e-02
-4.482417956157742078e-01,-4.162657104498526661e-01,-4.635078051828743217e-01,-4.479051932423976957e-03,9.477000386273728896e-04,-3.643940846548398681e-03,4.296956211328506470e-02
-4.854300642774195262e-01,-4.875512141646030639e-01,-3.657703831646369474e-01,1.841785828609773324e-03,4.500140068241447779e-03,-2.259257973581525053e-02,1.271965354681015015e-01
-4.374183789499776487e-01,-4.535070970491386633e-01,-2.094693572306266516e-01,6.579703973642052513e-03,8.391929229989177064e-02,1.830936773094776066e-02,2.795530855655670166e-01
-5.292704122377227538e-01,-6.508673719890918363e-01,-2.942500220061821103e-01,-5.533952958406595374e-02,8.675293465774794321e-02,-3.021713983113906432e-02,3.648328483104705811e-01
-3.757956811989856538e-01,-3.869828202000095696e-01,-1.694816790071784207e-01,-2.453956890668202231e-02,6.985157657895539607e-02,-5.179757325686028258e-02,2.636132538318634033e-01
-4.889837711130387565e-01,-4.943559886926929825e-01,-3.813729905505157114e-01,-2.274092198173955845e-02,1.098555114445484530e-02,-4.405882554160669290e-02,1.411526948213577271e-01
-5.836210221995820069e-01,-5.491056512565328784e-01,-2.467320090530416843e-01,-2.186932113475032954e-02,1.047448553033685226e-01,2.259469329393399423e-02,3.727445304393768311e-01
-4.024092634570169413e-01,-4.360082656085917940e-01,-4.213316950779783521e-01,6.714330415179607832e-03,1.351972256526312241e-02,8.431860799706092369e-03,4.180981591343879700e-02
-4.208108042237742596e-01,-4.309326199874866647e-01,-4.189875336503292580e-01,3.841875595720788909e-03,2.775826891713019731e-03,4.828123078459506390e-03,1.617276296019554138e-02
-4.012582751413625859e-01,-4.017945933339509557e-01,-3.961182847323050926e-01,7.707870126618454783e-03,1.064112045595565388e-02,9.486260996171192242e-03,2.858960255980491638e-02
-4.128103422745861839e-01,-4.048717348420453610e-01,-4.259736367276650282e-01,1.303794378454353406e-02,1.535671114872562415e-02,1.038636163703140179e-02,4.338053986430168152e-02
-4.110378893333286321e-01,-4.124228787263149454e-01,-4.088415490734822466e-01,4.237010625468250365e-03,4.374113442413033077e-03,4.192504397685450218e-03,1.318221073597669601e-02
-4.101480001922410690e-01,-4.089269501472458379e-01,-4.181735890679794676e-01,9.164386122962822276e-03,1.030292561327337750e-02,9.722739417432924372e-03,3.049105405807495117e-02
-4.725562523020916395e-01,-5.007429979013852117e-01,-3.448511755016026026e-01,1.586608073253551257e-02,7.616925387889014742e-02,5.715556649757392443e-02,2.205978482961654663e-01
-3.809411188569086781e-01,-4.082042083122974230e-01,-4.451133133361796501e-01,9.748066366589248216e-03,1.074052291890085923e-03,4.416437809525282040e-04,5.831753090023994446e-02
-4.220697078246922196e-01,-4.470456429584996894e-01,-2.085831771552386915e-01,1.851717593622057706e-02,9.240250822006086662e-02,4.137308115629283189e-02,2.886361777782440186e-01
-3.872790618774534788e-01,-4.625906350397862021e-01,-3.385341747549536207e-01,4.228518544069606588e-02,1.090773353987252725e-01,5.255377930681966875e-02,2.471079826354980469e-01
-3.819580539102057082e-01,-4.462909611881478167e-01,-2.419057991874734581e-01,2.481026563927891601e-02,1.122265035071357830e-01,3.194058047222111257e-02,2.746906280517578125e-01
-4.745214226782897282e-01,-4.278409818800912312e-01,-4.453073144465255484e-01,4.383416720593084556e-03,-2.058602598584240509e-02,-4.472914440202652858e-02,9.486772865056991577e-02
-4.530255310441752004e-01,-4.167825490835186386e-01,-4.291471442799556502e-01,7.192740493311839713e-03,-9.114169353236683049e-03,-1.181321143929472614e-02,4.291123151779174805e-02
-4.576396275917015144e-01,-4.199611996301675365e-01,-4.381834351722099230e-01,1.161190026945293011e-02,-1.418801540049349601e-02,-1.326213800278015949e-02,5.100185796618461609e-02
-4.567808476602917556e-01,-4.265773788240704856e-01,-4.569673832578642902e-01,8.499430263391286738e-03,-1.353476661003226098e-02,-1.832610401579650231e-02,5.188205093145370483e-02
-4.159994767126907744e-01,-4.270206193437452447e-01,-4.227749446384507781e-01,-9.605571755553618182e-03,-1.148094420213590511e-02,1.061287850349646941e-02,3.320897370576858521e-02
-4.170188435189212672e-01,-4.322173607167694720e-01,-4.133567686562166221e-01,-7.324150565249496272e-03,-9.716365697497326634e-03,8.456625843291640243e-03,3.096385300159454346e-02
-4.439112206581622422e-01,-4.675033305602904754e-01,-4.405194865935500581e-01,-4.653853411785341398e-02,-4.592750490205369657e-02,1.507844712173548977e-02,1.189777329564094543e-01
-4.316393652882002940e-01,-4.384798585171503227e-01,-3.974159752088102793e-01,-2.240935819385172709e-02,-3.448137076648102178e-02,3.878173154680671780e-02,1.050601676106452942e-01
-4.381054360782722923e-01,-4.324792514063848792e-01,-4.329807037215043231e-01,-9.810093787811278651e-03,6.868371647980381009e-03,-1.247513127212610505e-02,3.043366968631744385e-02
-4.334437261996009205e-01,-4.338938107339269656e-01,-4.501528305422261567e-01,-1.970160999520361583e-02,9.158220885710300144e-03,-6.805324352747129865e-03,4.274216666817665100e-02
-3.984677490759145346e-01,-4.237600101936967456e-01,-4.202021565389323365e-01,-3.547497464409619938e-02,2.261858267290503197e-02,-2.692112498331218282e-02,8.970414847135543823e-02
-4.274293185383848948e-01,-4.468461458001617426e-01,-4.883627159913250249e-01,-3.960191280562557620e-02,2.463477573636190313e-02,-2.996710784161393110e-02,1.101199015974998474e-01
-4.268560128006843035e-01,-4.369332270279412400e-01,-4.774953835430267302e-01,-5.727998663386436873e-02,2.585370129454361756e-03,-2.352432368149963773e-02,1.169564723968505859e-01
-3.835951998440813582e-01,-4.360699841667107224e-01,-4.382192131763971710e-01,-1.903284496132978676e-02,1.706127831879297729e-02,-6.103418531291236043e-03,7.030481100082397461e-02
-4.346968636436188693e-01,-4.427416647910269454e-01,-4.603540384795474227e-01,-2.259740067664932697e-02,8.050570154961534872e-03,-1.147547787492547017e-02,5.136170610785484314e-02
-4.674394128095209489e-01,-4.677055293615129394e-01,-4.818962177774392397e-01,-5.533421134048199796e-02,1.349629421949440425e-02,-3.607316357211562408e-02,1.176482737064361572e-01
-4.249131626933363437e-01,-3.976646545354408646e-01,-4.554494241209111616e-01,-2.942364390083444109e-02,9.507929471208941908e-04,-1.044322639216267029e-02,7.371675223112106323e-02
-4.176580958588399506e-01,-4.272365179173168159e-01,-4.527573758573331109e-01,-1.131115567568658636e-02,6.124186061083008656e-03,-6.898748001828197869e-03,4.033152386546134949e-02
-4.270473201586227341e-01,-4.155878494185029082e-01,-4.415761556159532586e-01,-1.467543971594344188e-02,9.652032222755749236e-03,-1.059254713034020121e-02,4.208439588546752930e-02
-4.853727492835112067e-01,-4.469587775216458114e-01,-4.676350039611771869e-01,-3.076328746676959894e-02,1.514505339630540896e-02,-4.224279753636230039e-02,9.994749724864959717e-02
-4.456229831338236469e-01,-4.066442821414926190e-01,-4.471498640400374813e-01,-1.238879692871207652e-02,1.884285760005963151e-02,-2.827432971028031455e-02,7.419640570878982544e-02
-2.878568487479546967e-01,-4.308311319474621981e-01,-4.411812157224822006e-01,3.389433898810378931e-02,1.412085663826181427e-02,-7.359068384152382073e-04,1.614771336317062378e-01
-4.461122883125748229e-01,-4.443844387661733952e-01,-4.452071549744134882e-01,6.823268519508225889e-03,-7.821626692452655905e-03,-9.207965599861709163e-03,2.407914400100708008e-02
-4.078234475945453630e-01,-4.326614156864294625e-01,-4.210325240884147946e-01,1.351842154060060343e-02,-1.400812468944405073e-02,-1.449469982008728952e-02,4.722851514816284180e-02
-4.319068396294146184e-01,-4.500986590019144806e-01,-4.295422201003802343e-01,4.297748184207748554e-03,-4.314432597484558346e-03,-6.233238050886754332e-03,2.464477904140949249e-02
-4.276787817491608523e-01,-4.276840112403260119e-01,-4.499356451010942948e-01,-2.833149796599391135e-03,8.409459013100958457e-04,-1.200951846768541584e-03,2.292989753186702728e-02
-4.254828924460406503e-01,-4.500221261977023213e-01,-4.246432233076765095e-01,4.740720288668764590e-03,-1.152634294217840145e-02,-4.940348681145838305e-03,3.409835696220397949e-02
-4.573290888250725050e-01,-4.829543168717735924e-01,-4.570124340710964850e-01,5.366740719746625199e-03,-2.069252902249059389e-02,-1.347778084188775045e-02,5.080124735832214355e-02
-4.198271364793719207e-01,-3.741159927775123406e-01,-4.250662116480059538e-01,2.451800075876320317e-02,1.832586232510933361e-02,2.498207990631806305e-02,8.390269428491592407e-02
-4.329628241680711920e-01,-3.878448676472792123e-01,-4.135747744055888742e-01,1.729566831671651081e-02,1.567726064307312442e-02,1.811564533154419454e-02,6.446748971939086914e-02
-4.197044506528038177e-01,-4.299858557796698566e-01,-4.241365431619426585e-01,7.648109886497406022e-03,8.775799191510539124e-03,1.005362732512648030e-02,2.809864096343517303e-02
-4.222026123407707221e-01,-4.136101214815933735e-01,-4.006600742886644584e-01,1.220976558304689985e-02,1.097967072954839259e-02,1.211122768261919599e-02,4.002184420824050903e-02
-4.139912768187449799e-01,-4.508472592152272806e-01,-4.069100397336249952e-01,-8.185524298627507066e-05,1.739546441235951656e-03,-2.796329412628205434e-04,4.097348079085350037e-02
-4.130366062643543446e-01,-4.247777021465450886e-01,-3.908364212428911966e-01,1.208698685029354659e-02,6.719107979824941873e-03,5.213001448027265554e-03,3.932692855596542358e-02
-4.246607038818765445e-01,-4.211775957279059734e-01,-4.005493826605188712e-01,1.440316767090022744e-02,1.275438318175425682e-02,1.199581380684808761e-02,4.529437795281410217e-02
-3.987905638072202774e-01,-4.171822059080851353e-01,-4.143997498974603122e-01,1.208924984652046640e-02,1.551302147575047384e-02,1.603962610903680863e-02,4.719153419137001038e-02
-4.285037254191172984e-01,-4.156968222078198383e-01,-3.908578969224460464e-01,1.406494049967613874e-02,1.325385610602047848e-02,1.705227869292658474e-02,5.560486391186714172e-02
-4.233625692318976341e-01,-4.092642336123143987e-01,-3.832389693793997743e-01,9.469323296236150170e-03,6.368961928449135522e-03,6.054203491193906918e-03,4.175698384642601013e-02
-4.051697509275177800e-01,-4.141984116911262004e-01,-3.882633061391034257e-01,1.631634077721587708e-02,1.920573005830588167e-02,1.745999143688486965e-02,5.779091641306877136e-02
-4.491302532656443192e-01,-4.177222474898785731e-01,-4.187352135794948915e-01,-1.431369238804005477e-03,9.149280049857184006e-04,-1.193630294684095566e-02,3.730626404285430908e-02
-4.651628799121182989e-01,-4.335749846601740232e-01,-4.487009857792205736e-01,-3.478588075015520177e-03,1.765362613785328907e-03,-1.431765272590612877e-02,3.754236549139022827e-02
-4.680352577442181694e-01,-4.019804628725812679e-01,-4.280871580220650396e-01,-1.321120485616740677e-02,6.660538859987830650e-03,-2.832899428420398644e-02,7.990378886461257935e-02
-4.775672625900482804e-01,-4.544188439620806541e-01,-4.440858883182293160e-01,-6.224056960225354471e-03,-3.864171417081463996e-03,-4.062465567381799009e-02,7.742035388946533203e-02
-4.761577650355954816e-01,-4.389704433944781048e-01,-4.542302145030995830e-01,-3.639345673009484073e-03,1.761552378449458400e-03,-1.438531050801580141e-02,4.145048558712005615e-02
-3.597541979108200838e-01,-5.268444409217380997e-01,-4.668062082154655901e-01,-6.352549211182393490e-03,5.057045217396249209e-02,-2.485444387837969227e-02,1.764605939388275146e-01
-3.961611244580616198e-01,-4.824383224987372487e-01,-4.474018991449809080e-01,1.272384250914785665e-02,3.184159084695609848e-02,9.045109307004101790e-03,9.706313908100128174e-02
-4.566149784080705265e-01,-4.169729243227978110e-01,-4.310335057368783751e-01,1.032723930618717305e-02,-1.151560954763536718e-02,-1.818005082905042522e-02,5.404746159911155701e-02
-4.043491926984835727e-01,-5.247761737878759991e-01,-4.706656226667641496e-01,2.889310518222189608e-02,8.428507807718575717e-02,1.933576608985343795e-02,1.893468052148818970e-01
-4.095681683675314599e-01,-4.479996014234793322e-01,-4.045294255706254893e-01,1.085423666203610147e-03,2.422575519293129927e-03,-1.562545317994749384e-04,4.143940657377243042e-02
-4.566325623003351097e-01,-4.346150812892661808e-01,-4.260756640743305068e-01,4.666343407129955496e-03,-1.972926683230303777e-02,-1.454030756668328768e-02,5.111775919795036316e-02
-4.547033355344237138e-01,-4.711897999045535079e-01,-4.499582629920135246e-01,1.531754038985650226e-02,-2.573810327655593963e-02,-2.432688126680072893e-02,6.956414878368377686e-02
-4.653713633126269622e-01,-4.208303053215284861e-01,-4.356388426148066761e-01,7.615820790214533273e-03,-1.958342387620656128e-02,-3.055317183570682368e-02,7.529032975435256958e-02
-4.304616972192893409e-01,-4.125008820221612860e-01,-4.341918522106320566e-01,2.369346576361170201e-02,-1.519582829972205944e-02,-1.080158725023743632e-02,5.595002323389053345e-02
-3.520398022334900734e-01,-4.906395050400729763e-01,-4.337833971364441488e-01,3.548946795626658351e-02,6.429071054531197704e-02,9.286197477333396275e-03,1.760663241147994995e-01
-4.473145256582959362e-01,-4.677112551865094114e-01,-4.592155001196046027e-01,2.352816551362656855e-02,-4.179982607243361292e-02,-4.927984130370890309e-02,1.204276829957962036e-01
-4.301885528630791655e-01,-4.347693892995073695e-01,-4.554564178271078845e-01,2.284531103892379483e-02,-1.626055061728793466e-02,-1.477809919844796406e-02,5.964745581150054932e-02
-4.391689469112770028e-01,-4.429464438829016637e-01,-4.519841613764293276e-01,1.724586817818577963e-02,-1.118059440288634437e-02,-1.227039594280681170e-02,4.300063475966453552e-02
-4.193980674923665775e-01,-3.716309274290055531e-01,-4.192625300611961259e-01,2.827716446905365055e-02,-2.518170193731990997e-02,-3.324903454143660758e-02,9.946299344301223755e-02
-4.649788084827750079e-01,-3.953657385780717792e-01,-4.427632314823050641e-01,3.538327579740598722e-02,-2.585756044706657639e-02,-3.489282263172422544e-02,1.149230748414993286e-01
-4.253617463872212401e-01,-4.100425177906699137e-01,-4.389895231267180176e-01,1.487573956987804820e-02,-1.220512943502697831e-02,-1.288862938933161076e-02,4.731036722660064697e-02
-4.416558034447510273e-01,-4.119947192539296643e-01,-4.269912061789668534e-01,8.117215858210022686e-03,-9.274587706825133948e-03,-1.381608883212494601e-02,4.108816012740135193e-02
-4.237569254323954038e-01,-4.121942540709352398e-01,-4.367372117750374927e-01,1.493377107550424195e-02,-1.071017038920023777e-02,-1.206687003623357554e-02,4.361506551504135132e-02
-2.206297450273567162e-01,-3.975351265432086612e-01,-3.178275409144372121e-01,6.897068791645309671e-02,1.344190645519517391e-01,4.375763284793156294e-02,3.126797378063201904e-01
-4.679270187162152816e-01,-4.342450712669750912e-01,-4.613404771029299689e-01,1.227598153206881613e-02,-1.455057429379522788e-02,-1.890256294308732127e-02,5.581385269761085510e-02
-4.051106710990750037e-01,-4.304852263177948446e-01,-4.173420025809498335e-01,1.405579167145839387e-02,-1.304892992375601517e-02,-1.351029469163047420e-02,4.619754105806350708e-02
-4.238459667960890465e-01,-4.212153215818753016e-01,-4.266185114189481320e-01,1.344674648305557198e-02,-1.202003962740231559e-02,-1.390810360983362956e-02,3.972525522112846375e-02
-4.037460865498672669e-01,-4.071071209854471573e-01,-4.460794886562914341e-01,1.970735768856275456e-03,2.140131191336113597e-03,9.773472690343075735e-04,4.110215231776237488e-02
-4.502181306763586299e-01,-4.533659688960779977e-01,-4.242450518676368909e-01,6.228979305986503436e-03,-1.577600137072191627e-02,-7.521967542345690989e-03,4.241527989506721497e-02
-4.587739734860436513e-01,-4.700271176545172680e-01,-4.539196607566722275e-01,1.080814796958964701e-02,-2.018726598675234934e-02,-1.865968411749941921e-02,5.312627181410789490e-02
-4.972789387577169484e-01,-4.878343235964052726e-01,-7.618071523250331545e-01,1.908457621500787016e-01,-2.743163005050004016e-02,-1.616702326607827658e-02,4.299658834934234619e-01
-4.440386911558502625e-01,-4.327146664524603170e-01,-4.405416064906952922e-01,4.823521760969401960e-03,-6.505927292227083568e-03,-5.854091934432206594e-03,2.001133747398853302e-02
-4.572696210813640416e-01,-4.660835474877994544e-01,-4.377627373050035353e-01,8.845325465228405515e-03,-1.375800263986190833e-02,-1.244320398810351905e-02,4.355689883232116699e-02
-4.773518839377327017e-01,-4.562262188922850958e-01,-4.602016764190599574e-01,1.075136919639637506e-02,-1.465241958308295678e-02,-2.054685507666957275e-02,5.133701860904693604e-02
-4.331025803838199351e-01,-3.791076096652068461e-01,-4.143249965150597736e-01,2.860781068438385255e-02,1.571244428603068774e-02,3.381082448724132689e-02,9.423130005598068237e-02
-4.362110324059677025e-01,-4.340429040487073786e-01,-3.940661016693559615e-01,8.836976044102872255e-03,1.629148252209776382e-02,1.669523296457289460e-02,5.963410437107086182e-02
-4.423638105453420732e-01,-4.710160303779633573e-01,-3.498061777481659695e-01,3.018960589711415163e-02,4.828371091714369484e-02,3.345149557713973654e-02,1.585088074207305908e-01
-4.032922892958007988e-01,-4.404089586133266288e-01,-3.250209196790742050e-01,2.071488467858104837e-02,5.360739523920762112e-02,2.883344061547453083e-02,1.510361135005950928e-01
-4.212513108903889192e-01,-4.035749711264484674e-01,-4.311439792532430482e-01,1.162877906306899328e-02,1.203422415895765915e-02,1.007179278884082728e-02,4.158918559551239014e-02
-3.969483181745400158e-01,-4.176051056796116767e-01,-4.119285577887412120e-01,9.328424791791928988e-03,6.058278470343320121e-03,5.973215824651836869e-03,2.863339893519878387e-02
-4.373526788315181268e-01,-4.278984405302447835e-01,-4.294914035393284646e-01,-2.273514354278924690e-03,-3.654393038208445660e-03,3.490092008418264110e-03,1.299894228577613831e-02
-4.114136614699365202e-01,-3.730468932459070075e-01,-4.018933410980964349e-01,1.934648359887699773e-02,1.580039308713612756e-02,1.977582770396578427e-02,6.513407826423645020e-02
-4.252662860210654761e-01,-3.984329368561548845e-01,-4.054910083944511245e-01,1.141079841528582287e-02,1.270426250577429313e-02,1.145515521262917800e-02,4.299917444586753845e-02
-4.088560364784417644e-01,-4.261683618879219537e-01,-3.882593486791532378e-01,3.545782836759135692e-02,4.078357773579655010e-02,4.915083284759935722e-02,1.307272166013717651e-01
-3.853826991757270393e-01,-3.872332740861590961e-01,-4.342338070754787061e-01,2.158625705910093007e-02,8.202753172512174812e-03,8.093468171080886800e-03,6.399781256914138794e-02
-4.017367373838966471e-01,-3.938924395891942321e-01,-4.542871764752510755e-01,4.917371694947378358e-02,1.460242224199985103e-02,1.783369669538996741e-02,1.099239736795425415e-01
-4.598220906217874160e-01,-3.259453335730656542e-01,-4.600497671947706979e-01,3.709551366052445120e-02,9.963317360586494004e-03,3.166735127179167580e-02,1.593361794948577881e-01
-4.398198486291071130e-01,-3.822083177987632419e-01,-4.840999205101313985e-01,3.616289396330949618e-02,1.044369249101608985e-02,1.327095869371345237e-02,1.122928634285926819e-01
-4.323394787049745780e-01,-3.507068504589586078e-01,-4.475166291021089870e-01,3.836727765757574904e-02,1.106180761984465293e-02,2.260592323227502906e-02,1.202060729265213013e-01
-3.320676464034231778e-01,-4.224800177365387599e-01,-4.530708928849199735e-01,1.045342421137617078e-01,9.798414364944897648e-02,4.537756361722510706e-02,2.822025120258331299e-01
-3.951623117200127044e-01,-4.539272099449039866e-01,-4.884933210655803548e-01,5.236408929288315084e-02,3.297474177123043554e-02,2.110461315910661106e-02,1.396553367376327515e-01
-3.410801566528094408e-01,-3.357083213982751113e-01,-4.496811254419945114e-01,7.936990604133148386e-02,1.004020679499646046e-02,1.002153103444197203e-02,1.786305457353591919e-01
-4.367800668166398337e-01,-4.375491097304616273e-01,-4.429961243488595435e-01,2.759518158385976944e-02,3.514581558604525091e-02,2.949261501406184871e-02,9.291964769363403320e-02
-3.455700369231968772e-01,-4.106378466984746956e-01,-4.329807669063060471e-01,9.650705624178659847e-02,4.976769406017597652e-02,4.376259603234954748e-02,2.174939811229705811e-01
-4.600488365515101319e-01,-4.471578330040758553e-01,-4.813232624992559994e-01,7.946862196193404948e-02,6.409580544179900585e-02,6.288845197841685941e-02,2.098297029733657837e-01
-4.131105474739807937e-01,-4.353867530329148527e-01,-4.118971989926765720e-01,2.583608230865422697e-02,2.955502875571773200e-02,2.513716181401896496e-02,8.392478525638580322e-02
-3.985491678489584411e-01,-4.404880612918564697e-01,-4.117197546616563342e-01,1.654606843391860996e-03,1.400984794916390608e-03,7.260953361943965796e-03,3.939849138259887695e-02
-3.750617561834814206e-01,-4.286639969584775112e-01,-3.979043367425593725e-01,3.168763257696003647e-03,1.071207883800137824e-02,1.072751896586097813e-02,5.376037955284118652e-02
-3.715136033204171628e-01,-4.412212272491449205e-01,-3.982742830983201365e-01,2.619550056596083292e-03,1.664402532111483590e-02,5.495089934418065369e-03,6.820636242628097534e-02
-4.064017173800048566e-01,-4.412682801716560910e-01,-4.033808754779461547e-01,7.345507850964222950e-03,9.014060736167327573e-03,6.726415129194245925e-03,4.326074942946434021e-02
-4.098542794922602761e-01,-4.472485626030784922e-01,-4.087417601414115031e-01,3.462713261616246537e-03,6.439728969772012292e-03,4.993736813096183620e-03,4.094344377517700195e-02
-4.320710887719403370e-01,-4.344825545875694583e-01,-4.263801066317513544e-01,4.460258683452329384e-03,-3.336356594555824236e-03,-4.256149795431225097e-03,1.411899551749229431e-02
-4.332211411663929312e-01,-4.325323297047192206e-01,-4.249837839881569490e-01,5.232527359671682900e-03,-3.730193284958926384e-03,-3.385369169670353773e-03,1.486330199986696243e-02
-4.416107580332609417e-01,-4.383139377815568061e-01,-4.286693217002867096e-01,2.902622268935592647e-03,-1.278371442727714666e-03,-2.445290377657114052e-03,1.355731859803199768e-02
-4.359164128870706145e-01,-4.369653747022925194e-01,-4.268465479903064685e-01,2.058843954290839797e-03,-4.983662115103617207e-04,-1.513493542476354505e-03,1.064003352075815201e-02
-4.381288237805098795e-01,-4.373126847832323749e-01,-4.304610757267623433e-01,1.683517103157312379e-03,-1.670835497054288642e-03,-2.267005998041380331e-03,9.246524423360824585e-03
-4.842433172181173640e-01,-4.045447732388412487e-01,-3.847510814376474686e-01,-1.962319498580272770e-02,-5.907421699700627672e-03,6.009394536461994812e-02,1.428808122873306274e-01
-5.376241388023034196e-01,-4.068914392830585980e-01,-4.425261772364666446e-01,-1.602077165982534329e-02,4.717493079545540847e-03,7.829076365071699350e-02,1.814589202404022217e-01
-4.474431023168216059e-01,-3.919670026287012665e-01,-4.169650421499387360e-01,-9.723018628674051991e-03,-7.800549971510896408e-03,2.307575601748311500e-02,6.617654114961624146e-02
-4.744285836693962755e-01,-4.370333723751223531e-01,-3.685993338514994000e-01,2.293561717785334853e-02,3.304807414418721445e-02,8.645496516242925922e-02,1.895224601030349731e-01
-4.682605769258418871e-01,-4.381926001437785323e-01,-3.816795371452264551e-01,4.046398128762197614e-03,6.440929104440611293e-03,3.618615653002492383e-02,9.949338436126708984e-02
-4.592430059849837432e-01,-3.529857365730362795e-01,-3.932031503407024120e-01,3.746573931020145531e-03,1.634934392434169922e-02,8.096152650974051956e-02,1.707131415605545044e-01
-3.981863043583946382e-01,-3.978403348935072859e-01,-3.808928515621815558e-01,2.387795131604100035e-02,2.432638357030221868e-02,3.033277556828775992e-02,8.086545020341873169e-02
-4.256582014329861607e-01,-3.474967793490253420e-01,-3.766755900212579999e-01,1.304971432715537442e-02,1.055397175542170662e-02,3.460390382260952052e-02,9.548449516296386719e-02
-4.542292002549472851e-01,-4.490115484037927041e-01,-4.070033860701267603e-01,4.654326856421833920e-03,-3.363289732345117918e-03,-8.219603973371767541e-03,4.809056594967842102e-02
-4.702426385721774071e-01,-4.615299208845138335e-01,-3.879057744301490085e-01,1.419148248724843436e-02,2.707903538709547850e-02,2.827158349123066669e-02,1.064882948994636536e-01
-3.581085768976937644e-01,-3.798247474498712695e-01,-3.696540806980616045e-01,5.194694154448432216e-02,5.582841317018703148e-02,4.797085979575897025e-02,1.571740061044692993e-01
-4.642765823427823513e-01,-4.770105328108424914e-01,-4.176530398063915683e-01,-5.381914922774542987e-04,-2.157880362681015296e-02,4.573768554297778549e-04,6.578784435987472534e-02
-4.293428298602252058e-01,-4.386943992309538798e-01,-4.407434770362078646e-01,2.905981474513003653e-36,-7.779211445384700543e-04,2.256096805155709110e-04,1.061983220279216766e-02
-1.921220257070905546e-01,-4.286299861753963270e-01,-4.122157716202685118e-01,6.621834727419918798e-02,7.587686981651596552e-02,1.878763373622646324e-02,2.894974648952484131e-01
-4.572385859769556027e-01,-4.799719176774048246e-01,-3.986684523202926878e-01,-2.133635091697988484e-02,-2.293585820766825059e-02,1.283971114687831525e-02,9.336601942777633667e-02
-4.386659300152895291e-01,-4.541261222250694285e-01,-3.945478762821081897e-01,-2.705707132014448756e-03,-5.515083758935820056e-03,-1.894893332370189021e-03,5.469439178705215454e-02
-4.431730851909506663e-01,-4.535791008123560841e-01,-3.827542227500845828e-01,-3.196895509586700039e-03,-9.991429762893777253e-03,1.753550817088228445e-03,6.875183433294296265e-02
-2.896126661885968234e-01,-4.829731588606461234e-01,-4.952836922859861768e-01,3.068411143039340150e-02,-1.752666473028173522e-02,-1.764025336807253236e-02,2.111867219209671021e-01
-4.311073435261738585e-01,-4.566490370993389059e-01,-4.132345451754245724e-01,-5.855303453656727705e-03,-5.882562345462631626e-03,3.624104784805273673e-03,4.091926664113998413e-02
-3.977828720587697764e-01,-4.128179980884068567e-01,-1.375740181169748111e-01,-1.161791806430673320e-02,-6.360380147848826438e-02,8.798738138647498389e-03,2.908959984779357910e-01
-4.241684635755573196e-01,-4.235831466510427412e-01,-4.305896914720231394e-01,1.474439447758394035e-02,-1.102718163566074501e-02,-1.184638260718664377e-02,3.851404041051864624e-02
-4.380677827647054268e-01,-4.367192224874508200e-01,-4.345846355779175441e-01,5.381248071967777158e-03,-4.957030663380420331e-03,-4.132406583567283832e-03,1.486855745315551758e-02
-4.396255151106160386e-01,-4.322725674719465339e-01,-4.435339465868638475e-01,5.594421212589597431e-03,-5.193756513499285521e-03,-8.349096848628599979e-03,2.195496298372745514e-02
-4.126850459796611026e-01,-4.517300861613515184e-01,-4.303820829164939910e-01,-4.711936236636460329e-03,1.322301284122843167e-02,-7.483838695042168386e-03,4.365653917193412781e-02
-4.294175200603205789e-01,-4.405288402212608201e-01,-4.415786254370140940e-01,2.195283080420812501e-03,-4.036039128370485195e-03,-7.187166415709871949e-03,1.882871985435485840e-02
-4.373828614295816042e-01,-4.312269081148971117e-01,-4.381397904278581112e-01,-8.663059901978246297e-03,-7.847349358974983410e-03,6.225989372171451992e-03,2.386012673377990723e-02
-4.246416634496253395e-01,-4.461265625642669153e-01,-4.364745566195896709e-01,-9.753589942798191956e-03,-1.246000622757314005e-02,1.181488454090271097e-02,3.895275294780731201e-02
-4.313423222522468348e-01,-4.584155021685770159e-01,-4.375344019645833749e-01,-4.771062376018889162e-03,-1.167653948847739709e-02,2.362524798407752145e-04,3.288070857524871826e-02
-4.345834296314499690e-01,-4.696133504946142234e-01,-4.409845932659574030e-01,-1.961863793416366349e-03,-1.503583911070440968e-02,2.662453219356581031e-03,4.189128801226615906e-02
-4.240304047316901248e-01,-4.530168828458347452e-01,-4.291517168025830165e-01,-3.931912730367138377e-03,-8.516959386151099973e-03,2.172167531198197429e-03,3.156177327036857605e-02
-4.431194542020127636e-01,-4.684872856825901821e-01,-4.288504474893464757e-01,-5.214683071152853913e-03,-1.206078040176516812e-02,7.582391674988133920e-03,4.358381778001785278e-02
-4.319771857707678242e-01,-4.419488246552283894e-01,-4.178718295390727033e-01,-1.317511485706812993e-02,-1.158493823617320721e-02,1.184946023726704198e-02,4.223340749740600586e-02
-4.417894851104619547e-01,-3.371806023252483242e-01,-4.039791821932421367e-01,-1.695305407790721058e-02,-1.552515865368658647e-02,5.276205059801016700e-02,1.354775130748748779e-01
-4.794165482282440882e-01,-4.437681353423330588e-01,-3.902581691650525708e-01,-1.260752606219165111e-03,-4.631877357806033781e-04,3.007863355991263754e-02,9.360157698392868042e-02
-4.594057384348832485e-01,-3.629613647196317516e-01,-3.928578275329436820e-01,2.276856115300503539e-02,3.926158121590335448e-02,7.798322477004125675e-02,1.781453341245651245e-01
-4.635949404239199101e-01,-2.842591181925134269e-01,-3.442849992207754339e-01,-2.265134151550564010e-02,-1.611444404282657422e-02,1.161458000876242069e-01,2.603602707386016846e-01
-4.492040260569978849e-01,-3.416493887754404324e-01,-3.795582628902135491e-01,1.456527383000136289e-02,1.367700301872731665e-02,8.116406548337094795e-02,1.728821694850921631e-01
-5.118618228251100577e-01,-3.713925799711829123e-01,-4.688060154166097115e-01,-3.104708497565961383e-03,-7.708043268600020190e-03,3.868083470849768835e-02,1.422433704137802124e-01
-4.116651403041731716e-01,-4.519727598886357778e-01,-3.130335935475868636e-01,2.020261765761888206e-02,6.079786275632854259e-02,2.182027177332193646e-02,1.705005615949630737e-01
-4.063720194229807903e-01,-4.288507592627323062e-01,-3.609414552886586747e-01,1.744156013059193142e-02,3.579596747123377221e-02,2.237736058332557426e-02,9.924398362636566162e-02
-3.506613183679029300e-01,-4.288169775608342560e-01,-3.414689217897092233e-01,2.542873544549219961e-02,8.479943779295151529e-02,3.697258409957403930e-02,1.858086585998535156e-01
-4.182725433011176830e-01,-4.662741952769856590e-01,-3.662803195662052702e-01,3.536391622871853241e-02,9.134363266213729737e-02,3.726855208934428537e-02,2.011285573244094849e-01
-4.265506871329077798e-01,-4.378145616404934826e-01,-4.266083654440028794e-01,4.914167065837227698e-03,-3.832478622462603436e-03,-2.587768179341914856e-03,1.621199958026409149e-02
-4.291549735071264471e-01,-4.415823914763691294e-01,-4.423777261627858115e-01,5.738689069106578909e-03,-5.714254848416872555e-03,-6.645427246629517781e-03,2.223056741058826447e-02
-4.264722363854062670e-01,-4.435300850995113064e-01,-4.326439214627094687e-01,-9.380741354837438028e-04,-6.617876079914663612e-04,1.677461818819353133e-03,1.536813937127590179e-02
-4.231680713349040834e-01,-4.270901322805606970e-01,-4.455096878430886420e-01,5.336031457168693287e-03,-4.572464585806602054e-03,-3.001335455242894537e-03,2.453714050352573395e-02
-4.168008766450612690e-01,-4.072843270345947730e-01,-4.338549774040698637e-01,1.627512438073644430e-02,-9.666255338582670914e-03,-8.398202529581155415e-03,4.278131946921348572e-02
-4.405253740018821307e-01,-4.311160250902084101e-01,-4.486550567320971017e-01,5.953984523553557985e-03,-7.593631830699359986e-03,-8.186965621503162344e-03,2.667473256587982178e-02
-4.255688874179665016e-01,-4.355238820922686660e-01,-4.410871089715570070e-01,8.452294790891415679e-03,-5.759347881988503663e-03,-4.033483921125916895e-03,2.341098897159099579e-02
-4.173689004262721713e-01,-4.209617858043960270e-01,-4.312552482264938591e-01,5.916106769907292402e-03,-4.414570836225475622e-03,-3.494605957627408381e-03,1.886665076017379761e-02
-4.394959269407014424e-01,-4.647021411172965188e-01,-4.283865886019483371e-01,-1.594941805008128974e-02,1.468675855160219909e-02,-1.908527510114841133e-02,5.951296165585517883e-02
-4.501801217294732482e-01,-4.532166357486795971e-01,-4.012681740215529036e-01,-7.337822787504870263e-03,-1.200699796154229386e-02,5.131325381036980562e-03,5.677276849746704102e-02
-4.150166603446301949e-01,-4.513349534998953305e-01,-3.901320394829098648e-01,-3.453233247679284631e-03,1.848992979276715617e-02,-7.740974612612045369e-04,6.249187514185905457e-02
-4.679145846954892440e-01,-4.802076866536006960e-01,-4.120417410105123301e-01,-8.632307633704504324e-03,-5.018643003682358820e-03,-2.710024648798995978e-03,6.542850285768508911e-02
-4.279251858557996946e-01,-4.909474868659806090e-01,-4.604540785366129096e-01,-2.709891778163773732e-02,3.404519505369914267e-02,-2.061080082357635845e-02,9.967240691184997559e-02
-4.764022009314925477e-01,-4.480582524519514109e-01,-3.716635766390480322e-01,-4.254293296629058259e-03,2.770811699156465555e-03,1.784594777524813741e-02,9.918475151062011719e-02
-3.725361369206102169e-01,-5.174716821233511510e-01,-4.965399536524909840e-01,-3.344144312312793271e-02,5.151235303593526549e-02,-2.062143524817614329e-02,1.760738044977188110e-01
-3.259575274466490202e-01,-4.430761360088307788e-01,-4.302002619266469541e-01,-2.537756769647551633e-02,3.027906589725237393e-02,-8.285213991137036632e-03,1.313887983560562134e-01
-3.328682470545228367e-01,-4.668402361645551668e-01,-4.001361565756760275e-01,-2.776191628995654942e-02,7.190497795127083480e-02,-1.260215740338214811e-02,1.782162785530090332e-01
-7.322173169168892937e-01,-6.850951143635761742e-01,-3.098162859386593970e-01,-4.632942675415399614e-02,1.951220279320799167e-02,7.249529993406136907e-02,4.290533661842346191e-01
-4.062977286345579864e-01,-4.722509057155995227e-01,-5.160483159400993669e-01,5.789223332650433179e-02,-4.901999520432632346e-02,-3.185161699741471952e-02,1.716496497392654419e-01
-3.973368683471052987e-01,-4.443252569070796909e-01,-4.121861235286165548e-01,1.457412414023930188e-02,-3.762002146601189922e-02,-1.783885242116395320e-02,8.699628710746765137e-02
-4.475374612663649554e-01,-4.778009601340907908e-01,-4.692641075409079710e-01,1.116979716720967013e-02,-5.724027252645561004e-02,-2.425494553683468779e-02,1.126896142959594727e-01
-4.404556432314286063e-01,-4.740604936397262992e-01,-4.254542473286356263e-01,2.808464337551583312e-02,-4.535454315392443286e-02,-1.738308311849115495e-02,1.063123121857643127e-01
-3.750662165706041273e-01,-4.133066397688499038e-01,-4.249399794764182614e-01,4.002077340485014206e-02,-1.379512516005454437e-02,-1.245966466982737116e-02,8.879280090332031250e-02
-4.616201456773080802e-01,-4.153759462750258313e-01,-4.540869132685695364e-01,-6.269949647977753060e-02,-6.056632571295592765e-02,3.036513345604314323e-02,1.655643433332443237e-01
-4.111478258219644633e-01,-4.151776216395738350e-01,-4.061638082570206421e-01,-2.686694813911321561e-02,-3.056011634086064008e-02,2.506965439724524389e-02,8.314979076385498047e-02
-3.961338253111934549e-01,-3.388031530154581583e-01,-3.615728520155486181e-01,-4.541876673129108255e-02,-3.928862825102516498e-02,5.230350010482676115e-02,1.467181444168090820e-01
-4.081832244231515805e-01,-4.413337041948837136e-01,-4.419531819076757961e-01,-2.421506822264484979e-02,-2.710568544529595378e-02,9.147955487407726308e-03,7.303555309772491455e-02
-4.010190867529465075e-01,-4.380680526989097490e-01,-4.267464344238678930e-01,-2.339904914422288873e-02,-2.429362248126013327e-02,1.076601765439426199e-02,6.958562135696411133e-02
-4.495593147374127296e-01,-4.801440005132376343e-01,-4.412013008100697520e-01,-3.807340500186382620e-02,-3.248134880356200183e-02,2.369674364667953906e-02,1.022711098194122314e-01
-4.212574472466998898e-01,-4.411304674802865589e-01,-4.217845779243609705e-01,-1.986893154273651832e-02,-2.955241127007694410e-02,1.830466711526139087e-02,7.207135111093521118e-02
-4.582727907885875696e-01,-4.019950191186028032e-01,-3.730677596297884979e-01,6.121811414716268884e-02,6.538413057658258587e-02,9.153902273640704412e-02,2.341758757829666138e-01
-4.676108266135451386e-01,-4.056432272336848999e-01,-4.087969689071558332e-01,6.621394921514926063e-03,1.611710531595882470e-02,3.485453118988270788e-02,9.060809016227722168e-02
-5.026164781100530554e-01,-3.978165598352920718e-01,-3.256605822254767801e-01,1.104150065452069035e-02,9.904513588558339424e-03,9.210668438106614508e-02,2.232989370822906494e-01
-4.928396164604522123e-01,-4.509974831704254838e-01,-3.855227716094913881e-01,6.930986196898485455e-03,1.514177379005223097e-02,3.793856613015551132e-02,1.180137470364570618e-01
-4.553423567237255831e-01,-4.552231311793055180e-01,-3.741852081061316504e-01,1.974569533537754926e-02,3.128925084232801745e-02,2.421667330217446359e-02,1.115477085113525391e-01
-4.416148425382425691e-01,-4.123951049107153488e-01,-3.799846632184458173e-01,1.572079965204562640e-02,1.521237082099788189e-02,2.567473216786213264e-02,7.914865016937255859e-02
-4.344108212414757864e-01,-4.187398918654218205e-01,-3.989543255816323519e-01,9.521832887089312636e-03,9.055646340713057255e-03,1.432649729626862475e-02,4.561645165085792542e-02
-4.413489097843184550e-01,-4.029521971305473071e-01,-4.206797014076381624e-01,9.235740134442846708e-03,8.563307149278236510e-03,1.615975280628933336e-02,4.865382239222526550e-02
-4.218007838786302921e-01,-4.192926623420267784e-01,-4.128922336314882480e-01,3.818564900827228770e-02,5.382099977660548956e-02,4.001482703710338568e-02,1.339081823825836182e-01
-4.365732388437257860e-01,-3.812358463349124205e-01,-4.178084888825899790e-01,4.082204589667025318e-02,2.773702780855482816e-02,4.294270858528020929e-02,1.233512312173843384e-01
-4.443511987799377283e-01,-3.782200044484657075e-01,-4.120991315246124165e-01,2.409886473950689084e-02,1.415679145316862085e-02,4.437315257429952364e-02,1.073829755187034607e-01
-4.266218392734829057e-01,-3.872825157791865980e-01,-4.089517787480195232e-01,1.345560885559395244e-02,1.557118961973171303e-02,2.097795579105702496e-02,6.128176674246788025e-02
-4.386073251039280252e-01,-4.395795241392582153e-01,-4.275417853441008109e-01,-5.655509259883024359e-03,-3.752120679109370582e-03,7.081428761993723182e-03,2.056158334016799927e-02
-4.393464215231446257e-01,-4.154731383624625241e-01,-4.344235096299127741e-01,-2.978069201425888844e-03,-8.344956524434347239e-03,3.488988890361611420e-03,2.736207842826843262e-02
-4.350258493993656717e-01,-4.123205881217237301e-01,-4.247705163079971702e-01,-3.797717502725134458e-03,-6.784547947192258802e-03,3.183672138072521102e-03,2.448706328868865967e-02
-4.424966957787541677e-01,-4.174566188433818104e-01,-4.215581809581753214e-01,-2.574073771980372061e-03,-5.019605012121015029e-03,4.952601272515646386e-03,2.664913609623908997e-02
-4.474051058167482497e-01,-4.151220921067306224e-01,-4.136215309980077470e-01,-3.421452381335903566e-03,-5.471817526702829268e-03,6.109676599024324584e-03,3.646660223603248596e-02
-4.092750077615970872e-01,-4.079521304122569747e-01,-4.499259804094316584e-01,2.074790958196002719e-02,-6.855751567509787633e-03,-8.220113712154530905e-03,5.782015249133110046e-02
-4.405444190269741656e-01,-4.273947287065338330e-01,-4.266227771783022149e-01,-6.622171984893771186e-03,-6.797041614882808058e-03,4.951237271656744668e-03,2.296441234648227692e-02
-4.447842829504185524e-01,-4.289184991131904101e-01,-4.507775817742000202e-01,-1.007851245960643231e-02,5.791691098888288036e-03,-6.140314736531615226e-03,3.002002276480197906e-02
-4.341144163960681257e-01,-4.257955328526874528e-01,-4.482336902598226258e-01,-1.623589296538354787e-03,3.973566843000486681e-03,-1.828988993502456660e-03,2.124442905187606812e-02
-4.366022401341229098e-01,-4.191713135654086542e-01,-4.464805061831468858e-01,-4.738163606859122079e-03,4.234763334255293478e-03,-3.135435698112733639e-03,2.691185288131237030e-02
-4.323906653349011697e-01,-4.254803020611310216e-01,-4.430565036852059380e-01,-9.919268198193792289e-04,3.185530445987301562e-03,-1.643600440049019845e-03,1.663480885326862335e-02
-4.354584537327099714e-01,-4.288048350205570514e-01,-4.459385489874325148e-01,-2.445748964428910190e-03,2.926844250326355191e-03,-2.362371158382912950e-03,1.685883477330207825e-02
-4.477557725022358603e-01,-4.307118043901259075e-01,-4.174719982425031395e-01,-4.736315472813284674e-03,-3.999107870746504423e-03,1.421146725440650647e-02,3.758486732840538025e-02
-4.390888998105461627e-01,-4.258046101532237393e-01,-4.389981365819413672e-01,-1.313673896516279844e-03,4.392482504093323144e-03,-1.077389843051735621e-03,1.555043738335371017e-02
-4.465587710180812797e-01,-4.339620957052091610e-01,-4.457922787264275710e-01,-7.096672005968600663e-03,4.966815141133120240e-03,-4.795877561636050640e-03,2.106432616710662842e-02
-4.323672845019899125e-01,-4.180341312194429393e-01,-4.245056141473650402e-01,-2.651663622391717615e-02,2.494323459126117706e-02,-2.735626175667204077e-02,7.984703034162521362e-02
-5.085939138064536902e-01,-4.665263927473117245e-01,-4.596315834868288652e-01,-3.342368301198909986e-02,6.672800016268389846e-03,-5.325410472499326336e-02,1.187445521354675293e-01
-4.506771123106742549e-01,-4.244501682130230602e-01,-4.293647422098070265e-01,-3.116005713116465434e-03,2.362544863059254548e-03,-6.233460282615307588e-03,2.730481326580047607e-02
-4.770692234336953441e-01,-4.494973690447759407e-01,-4.402817397889191575e-01,-4.572927895956282324e-03,1.689029560407279053e-03,-1.279900567416668300e-02,4.076719284057617188e-02
-4.474591523481167843e-01,-4.119654621522678695e-01,-4.217924575707430734e-01,3.895076126575511928e-04,8.498655085138797629e-04,-8.686628555262337903e-03,3.516489639878273010e-02
-4.715945081130251682e-01,-3.886707434213466095e-01,-4.193104256868704915e-01,-6.863414276044707898e-03,-5.642147161129091974e-03,-6.399761051331911976e-02,1.334102153778076172e-01
-4.280636626602097872e-01,-4.112909995871205093e-01,-4.119094229746806946e-01,-2.169336903400290520e-02,2.264912265326638613e-02,-3.259852514850876404e-02,8.006296306848526001e-02
-4.667935791695501657e-01,-4.249616482263477990e-01,-4.084804629168005685e-01,-9.046954664406761659e-03,2.733396505044701722e-03,-2.539892170270507607e-02,7.010172307491302490e-02
-4.506763944967922542e-01,-4.232184978958519750e-01,-4.542556155153230080e-01,-1.194684720748109136e-02,7.786324422097667432e-03,-1.551936048257936303e-02,4.687897488474845886e-02
-4.171511533879601052e-01,-4.263182509230352690e-01,-4.218229346685661296e-01,-2.550300723260465197e-02,2.661265790130662445e-02,-2.134906461861030974e-02,7.420440018177032471e-02
-4.388550324389763335e-01,-4.471748611457477263e-01,-4.703555815952070729e-01,-2.477997568807073850e-02,8.035805677513368356e-03,-1.553421468019816794e-02,5.965923517942428589e-02
-4.233685174425421138e-01,-3.749281698398218010e-01,-4.467916271078667956e-01,-3.250483204406666438e-02,1.619736267046521447e-02,-2.473687723283213291e-02,9.910715371370315552e-02
-4.084981471073824144e-01,-4.262265634250161916e-01,-4.439732860146056725e-01,-6.176281154498913274e-03,2.745989080256649745e-03,-4.711566767663331705e-03,3.387508541345596313e-02
-4.122755829186836030e-01,-4.080162983527572673e-01,-4.422987461662245545e-01,5.224894484992958880e-03,-4.273056035235074310e-03,-1.812687920855518466e-03,3.455346822738647461e-02
-4.266356133992931232e-01,-4.252598653129274209e-01,-4.447853443316822641e-01,-4.180512676133813811e-03,4.473268647552117692e-03,-3.629921029557552949e-03,2.254471741616725922e-02
-4.669523188169425465e-01,-4.636425024166891951e-01,-5.034004333141464116e-01,-3.836114792137055446e-02,1.205687736600147275e-02,-1.839564664719718287e-02,8.559260517358779907e-02
-4.214520951008279837e-01,-3.955714327674576536e-01,-4.476068904070251708e-01,-2.265557527816880121e-02,4.834308176363225074e-03,-5.281301062057127196e-03,6.102785095572471619e-02
-4.381380429077006422e-01,-4.318550293679239149e-01,-4.539767694709512802e-01,-2.154264230390765325e-02,1.319709172725245030e-02,-1.072369210405589059e-02,5.147421732544898987e-02
-4.164879376624159857e-01,-4.562339633746337331e-01,-4.363394658559042738e-01,-4.042744187954052954e-04,-7.184322752800524972e-03,6.084555953549752351e-03,3.809474408626556396e-02
-4.491517011964605288e-01,-4.330752174101785701e-01,-4.699756798383309953e-01,-1.223511005906540751e-02,6.013711307834524941e-04,-6.456787481071332149e-04,3.844863176345825195e-02
-4.750712951505192683e-01,-4.598511124108070058e-01,-4.057905562910012476e-01,-4.199780033171729215e-04,6.180434937472833144e-03,-1.522118412722003704e-02,6.918948888778686523e-02
-4.668558840445530267e-01,-4.655274056813698547e-01,-3.612232755190142863e-01,-5.275899212914007298e-03,-1.587166031807245954e-03,-1.131623754923894928e-02,1.072143465280532837e-01
-4.301594439742476017e-01,-4.401324806881515284e-01,-3.166404973661751665e-01,-9.819163454509949318e-03,2.879752760169700804e-02,-1.917870092785915748e-02,1.341594159603118896e-01
-4.732043079450108936e-01,-4.688753793206411613e-01,-3.703448958946781167e-01,-6.092925925606407396e-03,8.607567385223805975e-03,-6.968691693527292834e-03,1.031157448887825012e-01
-4.808680556422658681e-01,-4.668259007440555552e-01,-4.062224092911708162e-01,-3.955403839259357020e-03,1.053665468670204539e-02,-4.311923544584660845e-03,7.181048393249511719e-02
-4.603857388837351849e-01,-3.536351270954150583e-01,-4.247088659034887193e-01,1.253868909735203659e-02,1.601757344405961743e-03,3.578940740227010142e-02,1.148129031062126160e-01
-4.491132132662064569e-01,-3.945031899913838958e-01,-3.918697081782747671e-01,5.065843493519811384e-03,5.529121593295193912e-03,3.356374349431949511e-02,8.173910528421401978e-02
-4.347529289321763191e-01,-4.341673894935622058e-01,-4.215960531680729151e-01,-5.674913447505291683e-03,-3.556216071442967926e-03,3.693217470264741151e-03,1.847202889621257782e-02
-4.362972180387129639e-01,-4.309406971932583374e-01,-3.909383522270181710e-01,1.463514763035417277e-02,2.063461309089654333e-02,1.624063929375431717e-02,6.748594343662261963e-02
-3.903721509858747440e-01,-3.281273779335081575e-01,-4.006378560448707327e-01,5.799270824912957506e-02,3.600065593215484583e-02,5.760343477052477096e-02,1.689699739217758179e-01
-4.461960064578682217e-01,-3.882425962345223969e-01,-4.427297489523169816e-01,2.413757679887640339e-02,1.754849182273038322e-02,2.494587102555319985e-02,8.779713511466979980e-02
-3.458241059223829406e-01,-4.389427779620871384e-01,-3.870910070850338003e-01,-4.902815880207737204e-02,7.181267971201189815e-02,-2.824791510621438295e-02,1.777853220701217651e-01
-3.561594829508177851e-01,-4.152365274005593854e-01,-4.293169276897280673e-01,-2.233913428375494323e-02,1.912496093092121499e-02,-1.144946345322838538e-02,8.664789050817489624e-02
-3.446099538779081595e-01,-4.080204897876846259e-01,-3.697787896880177505e-01,-4.287928898286799684e-02,6.445571977298389377e-02,-3.322399652620517535e-02,1.560430079698562622e-01
-4.138868422997205587e-01,-4.215051438158132213e-01,-4.339268620320736458e-01,-1.295461514203886250e-02,1.131382181916162737e-02,-1.043494298674979906e-02,3.900138288736343384e-02
-3.661331565208578165e-01,-5.324603745762568341e-01,-5.335543645507916377e-01,-7.776977782094500295e-03,2.258471740213163770e-02,-1.695121712452557841e-02,1.744178384542465210e-01
-3.379095600605549476e-01,-5.221129628598700778e-01,-5.119725268156167797e-01,2.003853837903557533e-02,4.020925349471825977e-02,-1.275015848430225904e-02,1.967447549104690552e-01
-3.381627463437305581e-01,-5.185847622124921674e-01,-5.193514683506826879e-01,2.345376161947898205e-02,3.983293059200854191e-02,-5.947930526048925484e-03,1.980085372924804688e-01
-2.499806196328739905e-01,-4.974174329587731647e-01,-4.752862657460558138e-01,1.026668624390909487e-02,5.067768131542972621e-02,-1.895398881207746924e-02,2.556117177009582520e-01
-3.918288270280803620e-01,-5.576705257514608105e-01,-5.286901341613501337e-01,-2.267624529290929863e-02,2.785453512642652174e-02,-1.473609388240506961e-02,1.675078868865966797e-01
-2.783040901776861475e-01,-6.258196243277480697e-01,-5.169947422863827580e-01,3.450658424715428996e-02,7.109282722311076330e-02,5.959310493281314014e-03,3.370946347713470459e-01
-4.200690004654478171e-01,-4.013100938330020906e-01,-4.413843525894753372e-01,1.489063989971917308e-02,8.396901318336511683e-03,8.541714621909847135e-03,4.797596856951713562e-02
-3.979820952017886215e-01,-4.140504014168975844e-01,-4.337928118176383463e-01,1.462995702937950476e-02,9.358599325837001909e-03,8.539509209519203017e-03,4.570346698164939880e-02
-3.962015342953967845e-01,-3.680215010503683493e-01,-4.140827910758032027e-01,2.309539166186502443e-02,2.553925997217388819e-02,2.300262016149996411e-02,8.223176002502441406e-02
-4.269536447495964615e-01,-4.096500083339085774e-01,-4.599985827722429255e-01,1.791056369436681839e-02,8.323138587697547636e-03,8.392902123587724084e-03,5.783331766724586487e-02
-4.133838704801204300e-01,-3.843161680527963364e-01,-4.246929255656280988e-01,1.712527669748257694e-02,1.564351234616939007e-02,1.387049849499665498e-02,5.909915640950202942e-02
-4.006818516724858781e-01,-4.650664480149342972e-01,-4.082741989897415436e-01,-4.161753555088025698e-03,2.632391262666321577e-02,-5.482270515585409461e-03,7.704000174999237061e-02
-3.530763758956863008e-01,-4.703319328577560410e-01,-3.625518462914677498e-01,1.442452681386634759e-02,9.496438204659836402e-02,1.292078605762099312e-02,2.022556364536285400e-01
-3.472358960542677453e-01,-5.058361015209187350e-01,-4.080270733004142114e-01,2.892282147657207828e-02,1.527155046447635778e-01,-4.890252132715520311e-03,3.029117286205291748e-01
-4.281047465213907444e-01,-4.318623086753000662e-01,-4.402906320547743668e-01,-1.859985388504104735e-03,-3.003387523649476368e-03,1.220691581664889742e-03,1.259903796017169952e-02
-4.130066904539286265e-01,-4.590346335178677184e-01,-4.329745079252494966e-01,-3.166331816920227304e-04,1.925239997083896815e-02,-5.837897669197540142e-03,5.303504690527915955e-02
-4.453339438385864879e-01,-4.329978149556591993e-01,-4.173651273228087266e-01,-1.260273433949880492e-02,1.076274921573668053e-02,-1.489592812225798944e-02,4.559683054685592651e-02
-4.325843505587299020e-01,-4.317906287724910808e-01,-4.322616339645852235e-01,-1.332460623033997725e-02,1.131769763829943223e-02,-1.282889759467859166e-02,3.756495937705039978e-02
-4.412725202441626915e-01,-4.359804348692594145e-01,-4.086827295775188329e-01,-3.871187127951846579e-02,5.527581132749435910e-02,-3.191576397719918246e-02,1.327989250421524048e-01
-4.566802928538106765e-01,-4.333055664596937584e-01,-4.540819047186773760e-01,-2.152180917688225475e-02,3.663739256893400187e-02,-3.018408063894838234e-02,9.296283870935440063e-02
-4.439875314861785327e-01,-4.405640967531191943e-01,-4.516470637261209009e-01,-1.412180584994750417e-02,1.551783301290289400e-02,-1.301135983152031626e-02,4.387690126895904541e-02
-4.122459598651613821e-01,-4.437244673161462871e-01,-3.840911464599319758e-01,-2.049517855355359464e-02,3.667195466939120879e-02,-1.729623463862581950e-02,9.413816779851913452e-02
-4.927037794811255922e-01,-6.871042426217004451e-01,-4.877264887246568481e-01,-3.084138037115678049e-02,1.589423580837556749e-01,-2.902080830696974340e-02,3.463410437107086182e-01
-4.657030893416817530e-01,-4.247752072579666360e-01,-4.082798594735043141e-01,-1.249875882486627988e-02,-1.400343775913896055e-02,2.304060135238399087e-02,7.260758429765701294e-02
-4.534692630049589890e-01,-4.163292817804437052e-01,-4.110787429985801045e-01,-7.867120512984548952e-03,-4.223338167585619952e-03,1.130277440541026940e-02,4.716347903013229370e-02
-4.482584579316618578e-01,-3.973096407087406967e-01,-4.243440681446754015e-01,-1.724024810762273506e-03,-7.085740548530244758e-03,1.045020821128254430e-02,4.936021193861961365e-02
-4.430283505841993152e-01,-4.153084401019986327e-01,-3.723574452828318782e-01,-7.018412246261666355e-03,-3.796597335457541165e-03,2.468922025095162537e-02,7.631165534257888794e-02
-4.326044727642937571e-01,-4.434614587509027595e-01,-4.393270320395666895e-01,-3.099685992696600730e-03,-3.007986287860836550e-03,2.702939927709599368e-03,1.296016853302717209e-02
-4.481552781113917749e-01,-4.602929733664509748e-01,-3.970393403132940202e-01,1.937408200490828205e-03,-1.155447462049001214e-02,-8.778571741479736104e-04,6.160099431872367859e-02
-4.811228575689338038e-01,-4.630086278299315738e-01,-4.051453111536279517e-01,-1.977529392004423806e-02,-3.781409570616799110e-02,5.188114960228974726e-02,1.351380944252014160e-01
-4.901507505849269641e-01,-4.547638825153886843e-01,-4.058412056866184670e-01,-1.554577093018496940e-02,-3.006134878759610454e-02,5.654435471500486587e-02,1.356640607118606567e-01
-4.774549257789393319e-01,-4.308793463389780642e-01,-4.139839162965542885e-01,-3.087145508213581455e-02,-3.547396937241222709e-02,4.768207088434051749e-02,1.292158663272857666e-01
-3.500099747041107712e-01,-3.565425184571315298e-01,-4.331419110631453129e-01,6.277681527334018352e-02,1.702329474908352222e-02,2.036284579102487849e-02,1.426416188478469849e-01
-4.438645456881401552e-01,-4.205197679715451664e-01,-3.532632890504842083e-01,6.535245915077062158e-03,5.153418267043721225e-03,2.029997234606661580e-02,8.990310132503509521e-02
-3.898876146618226457e-01,-4.358915188055980106e-01,-4.726188950504520703e-01,3.267553941372317028e-02,-1.228320323167600425e-02,-1.050867162871972106e-02,9.561308473348617554e-02
-3.697247884964428577e-01,-3.978892244523859478e-01,-4.462052905108605527e-01,3.414757747253063802e-02,-9.728564001344320797e-03,-6.761096921520009032e-04,9.095025807619094849e-02
-3.792890994173396813e-01,-4.435048537107136313e-01,-4.743199467409766612e-01,6.779033620048688369e-02,-1.133609969935259025e-02,-1.978332230311571904e-02,1.496606022119522095e-01
-3.502132037411705978e-01,-3.846928108937052726e-01,-4.298725160906758380e-01,3.252348958282945401e-02,9.365113787168338755e-03,8.469210029724545327e-03,9.186652302742004395e-02
-3.855649796577675925e-01,-4.525077812603957028e-01,-4.896465210743209950e-01,3.000306400555325173e-02,5.268876932087371290e-03,-1.109322394186962411e-03,1.055193021893501282e-01
-3.318522925218368447e-01,-4.228330778694919800e-01,-4.635640065179213454e-01,5.232905886855588468e-02,8.306370463289410727e-03,6.527554102123975591e-03,1.489699631929397583e-01
-3.591152000026961999e-01,-4.294978447819808309e-01,-3.224424527649756289e-01,-4.290497954772600278e-03,7.729387763804557165e-02,-5.749408620905637791e-04,1.638870984315872192e-01
-4.432215833666284799e-01,-4.574703469743639506e-01,-4.105713380426137538e-01,-1.930265891872402773e-02,3.374937422640802293e-02,-2.062213739343085953e-02,8.686165511608123779e-02
-4.719633703767149302e-01,-4.467336764158063023e-01,-4.335510790778930867e-01,-3.191785246411489585e-02,1.693795297710051426e-02,-3.700752806417884067e-02,9.575235098600387573e-02
-4.827097995034012046e-01,-4.467383384909872635e-01,-4.318636708595124385e-01,-3.785520557086388682e-02,2.763203305680503666e-02,-4.089078404636690284e-02,1.168591976165771484e-01
-4.281401825929933014e-01,-4.401030521154837838e-01,-4.353624452644365150e-01,-4.888092771251808643e-04,-6.609709237993307695e-05,7.665806896587666142e-04,1.055297069251537323e-02
-2.830415518008111975e-01,-4.158621392115267601e-01,-4.304665775069581035e-01,4.715853858676705146e-02,3.525734008042542139e-02,1.042646300917521307e-02,1.747041046619415283e-01
-3.272891361969872404e-01,-4.724682907578422464e-01,-4.752501825186872808e-01,6.456736222255593516e-02,2.894165766622311398e-02,2.091744989489804918e-02,1.944759786128997803e-01
-3.724436879591742078e-01,-4.704741810419535986e-01,-4.882532391032106678e-01,3.756227824179608071e-02,1.904912829181913680e-02,1.302468302453477743e-02,1.322848051786422729e-01
-3.711982664445299118e-01,-4.606801593437552245e-01,-4.379450592753777460e-01,2.939447860789581868e-02,3.368839191049772391e-02,1.620148925963535783e-02,1.152120158076286316e-01
-3.334845144949548090e-01,-3.997052079212320974e-01,-4.371631786793072072e-01,7.419870121352153958e-02,6.601441736651070258e-02,4.462628301628390748e-02,2.093641310930252075e-01
-3.391247331369242057e-01,-4.115003938438948072e-01,-4.295657116187276414e-01,3.994433913526360125e-02,2.529716703969434044e-02,1.617617488918151464e-02,1.198481470346450806e-01
-3.529696748707727982e-01,-4.292826100776183096e-01,-4.602182281832273847e-01,4.315843962790948118e-02,2.337706005608856941e-02,2.250049125272989350e-02,1.337448805570602417e-01
-4.149428350809735155e-01,-4.447239940674893033e-01,-4.491998683012889404e-01,-1.068227540403066458e-02,-1.260817153113667766e-02,7.924444726116223678e-03,4.525338858366012573e-02
-4.371825053742077749e-01,-4.520004071655310263e-01,-4.473526323899478796e-01,-4.865808562875781687e-03,-6.439596573877329026e-03,5.712375711122924006e-03,2.157843671739101410e-02
-4.280192037655484172e-01,-4.344268409617387805e-01,-4.367299304333205900e-01,-4.539208579514539092e-03,-3.441797908834377459e-03,5.360701715311960540e-03,1.564231142401695251e-02
-4.338184681476333626e-01,-4.322258623231740038e-01,-4.415087301537506947e-01,-5.770710082336399926e-03,-5.878227262052759458e-03,3.685565679984798525e-03,1.783923245966434479e-02
-4.396191169217961714e-01,-4.472546976010016162e-01,-4.365409038754946014e-01,-6.625815114048614479e-03,-5.882796195759287285e-03,3.994929967209390198e-03,1.935680769383907318e-02
-4.286981322146704021e-01,-4.159013588211790124e-01,-4.411985811833988302e-01,-1.110477621133750328e-02,-1.086157506083017775e-02,1.141193234494134422e-02,3.993181884288787842e-02
-4.213796211764494481e-01,-4.469222135561308762e-01,-4.353911785759620456e-01,-6.928857221456015056e-03,-9.054666607707668319e-03,5.918961865502725406e-03,3.139979019761085510e-02
-4.313065935859143329e-01,-4.603652434331677035e-01,-4.739400392329488620e-01,1.884578477358666432e-02,-1.464165798696073426e-02,-1.088891768815263353e-02,5.905485898256301880e-02
-4.116374873401792422e-01,-4.124618470167634721e-01,-4.500700587345373704e-01,1.000193594404428371e-02,-9.483001712730039501e-03,-5.662259531197932211e-03,4.595804214477539062e-02
-3.863528384378151492e-01,-4.006794869569769157e-01,-4.311828906342871637e-01,6.363752336465700044e-02,-3.955269115732282237e-02,-2.696418922335260329e-02,1.435143649578094482e-01
-4.533869641205423018e-01,-3.890828957418438483e-01,-4.670609430760409020e-01,2.793272609456867381e-02,-1.825522301869575079e-02,-1.728248527477434238e-02,9.714838117361068726e-02
-3.536380750946713225e-01,-3.825995674873525765e-01,-4.358554403546778810e-01,3.699327608026008185e-02,3.393498074047785699e-03,3.648383151853546065e-03,9.693973511457443237e-02
-4.264084059679000838e-01,-3.739591019314914000e-01,-4.573041192171102831e-01,3.571814695647090865e-02,6.283361516265417897e-03,7.000574567934685251e-03,9.705027937889099121e-02
-4.345446134935930793e-01,-3.599611512451488249e-01,-5.160793102115649456e-01,6.212620905738269056e-02,1.622642594088475471e-02,5.434276877777640541e-03,1.753545552492141724e-01
-3.529446398107759508e-01,-3.454254505466523018e-01,-4.378316070459575826e-01,7.021229450127451643e-02,-2.140029227877279002e-03,-3.831086022668699857e-03,1.508233547210693359e-01
-4.467333804847644640e-01,-3.957868830321611964e-01,-4.874688649085500702e-01,3.611257882107599820e-02,-5.039496366104346571e-03,-3.324057097497990637e-03,1.017445251345634460e-01
-3.791550019136877836e-01,-3.692099399201617116e-01,-5.142256364548999370e-01,8.154627741941940233e-02,-2.994097835486409474e-04,8.357848952922476357e-03,1.996133327484130859e-01
-4.685623604767849004e-01,-4.617724187673752367e-01,-3.813349259223899335e-01,-1.941883893672510276e-03,-7.760174099653133727e-03,-1.065319141672785123e-02,8.714874833822250366e-02
-4.279355274607525295e-01,-4.410229508380061891e-01,-4.386187517568203575e-01,7.141774241304157684e-05,-1.327779304242387862e-03,3.476922438838445529e-03,1.368091069161891937e-02
-4.670734070893843293e-01,-4.691373777079698715e-01,-3.653145844272988607e-01,-5.891125336881334121e-03,3.967107899343447035e-03,-1.057811030218422897e-02,1.051483005285263062e-01
-4.352658665215105027e-01,-4.299167027775872008e-01,-3.014449420103184063e-01,4.161316660671653643e-03,-1.469328428715562483e-02,-7.075063746543025674e-03,1.344270110130310059e-01
-4.451632229521509387e-01,-4.353103294018296210e-01,-3.550976388384753935e-01,1.603895099524865493e-03,7.836783662409065043e-03,-2.118053244496282198e-02,9.412380307912826538e-02
-4.594945146729625951e-01,-4.533807177514377340e-01,-3.762696195842718527e-01,8.046834265944711670e-04,8.833453574125718979e-03,-2.005842044204484125e-03,8.187212049961090088e-02
-4.062594182014016009e-01,-4.437484681382523055e-01,-4.056058536738332276e-01,-9.320301258573124303e-03,-2.463210590940334219e-02,1.058038655607643902e-02,6.202432885766029358e-02
-4.292703050455771718e-01,-4.637704329462295494e-01,-4.297027589037866746e-01,-1.998714483127743934e-03,-1.742609310846355078e-02,-6.191254975589093219e-03,4.704797267913818359e-02
-4.244986641488113221e-01,-4.472877495693342587e-01,-4.080223402390009690e-01,-3.433280467494793996e-04,-9.137899851067884244e-03,1.138131610322802838e-03,3.769662231206893921e-02
-4.415883178460636160e-01,-4.590761409133562454e-01,-4.334271051875614456e-01,-3.623089063564839066e-03,-1.063891359266358992e-02,4.970994612368905864e-03,3.111628629267215729e-02
-4.366507470471215346e-01,-4.594296136234121697e-01,-4.246470130696317069e-01,-1.248835695258991574e-02,-2.898767226703234667e-02,1.774316638532491205e-02,6.978245079517364502e-02
-4.205897884647697982e-01,-4.480086774060624277e-01,-4.222942474641643851e-01,-4.450529278945760531e-03,-8.400045908190699809e-03,4.690637946965663975e-03,3.232764080166816711e-02
-4.239867451151344002e-01,-4.226310530605230653e-01,-4.227794366386349312e-01,-1.462930698093490439e-02,-1.678811479531171560e-02,1.519548407525361626e-02,4.671123251318931580e-02
-4.285689252592319587e-01,-5.043486282597431369e-01,-4.494299510792069130e-01,-7.922516565241255818e-03,-4.746377905785419821e-02,-5.469464360942814102e-03,1.078581362962722778e-01
-4.232033696725617800e-01,-4.510857975449216739e-01,-4.203752539856648318e-01,-4.563137650424270528e-04,-1.180579262650849337e-02,1.067452804076840902e-03,3.586719930171966553e-02
-4.294522541859723264e-01,-4.615840056448693995e-01,-4.297441022953661371e-01,-7.473390320860141519e-04,-1.246663691344935924e-02,5.651140979538653124e-03,3.983578458428382874e-02
-4.282076688646163642e-01,-4.189445676175308497e-01,-4.151390962731685286e-01,3.500771555028185048e-03,4.190572917688948316e-03,3.425106829159610573e-03,1.613009907305240631e-02
-4.187339855710671133e-01,-4.177416826344471090e-01,-4.147332792463345741e-01,1.614540309224901790e-03,1.863708043973718274e-03,2.387621971761515801e-03,6.954355631023645401e-03
-4.094523269518337005e-01,-4.141776122257774806e-01,-3.915766570584666706e-01,8.337968552245791920e-03,3.994582136565059602e-03,4.763794090566086763e-03,2.740167826414108276e-02
-7.573118162645900986e-01,-7.577254126021177871e-01,-3.997815133490672523e-01,-8.891974369817903789e-02,-1.279652446193469406e-01,3.278628717048320818e-02,4.517147839069366455e-01
-4.293373668422209577e-01,-4.331937961064774023e-01,-4.472577378494038136e-01,-5.034516778415282050e-03,-3.097399047798893128e-03,2.585052922913751508e-03,1.979321427643299103e-02
-4.139526701029453970e-01,-4.130106437004052999e-01,-4.113785614098928178e-01,3.123308121624283982e-03,2.982306012435649405e-03,3.447563160260075452e-03,9.833272546529769897e-03
-4.134749693821072047e-01,-4.201018916024898409e-01,-4.024132742819449549e-01,4.326505863969339234e-03,2.597211819915082754e-03,3.314576441834860866e-03,1.867977343499660492e-02
-4.158851676882299175e-01,-4.484105934715441610e-01,-4.309163517869563642e-01,-1.819638977181778795e-03,4.160470308192210781e-03,-2.969068929992783792e-03,2.971955761313438416e-02
-4.150939602996123190e-01,-4.192472491644599342e-01,-4.003146861699960479e-01,5.693825843506950500e-03,1.571536817632284040e-03,2.178046429749006235e-03,2.039507590234279633e-02
-4.890049381624460012e-01,-5.251553102853609989e-01,-4.570895075277591202e-01,1.156963012070822208e-02,-4.960451779850137688e-02,-2.666045277629171262e-02,1.157364770770072937e-01
-4.317352413544983114e-01,-4.391545328536918813e-01,-4.299209186959658258e-01,-3.495277487704754812e-03,-9.564199935882969437e-04,4.956136702947295516e-04,1.057972852140665054e-02
-4.832104321796888424e-01,-5.224673065794780413e-01,-4.938652114908080870e-01,-1.112732193991584559e-02,-6.455835682382084217e-02,-3.744051770405269070e-02,1.353385597467422485e-01
-4.587869452338370624e-01,-4.848759728329342655e-01,-4.201940940162660065e-01,-7.429475819283314639e-05,-3.275208730942116842e-02,-2.930937513661624732e-03,8.012977242469787598e-02
-4.333044003649327847e-01,-4.473006782319692287e-01,-4.303892414321776605e-01,4.645542016160054966e-03,-2.592525207704606156e-03,-5.074221445586026696e-03,2.018279582262039185e-02
-4.258181903787504607e-01,-4.402008803559747108e-01,-4.106639174026943118e-01,7.157411084802536329e-03,-1.186473556461824924e-02,-7.169311686212986000e-03,3.721117600798606873e-02
-4.456356197467047919e-01,-4.556826990522426790e-01,-4.354142733475212523e-01,5.738357989569047718e-03,-4.886610311799218821e-03,-5.323548411834531750e-03,2.373937703669071198e-02
-4.322658798402204128e-01,-4.479751800815316432e-01,-4.348619053854732575e-01,6.000111066355258774e-03,-7.273125170474524330e-03,-6.572191045198218229e-03,2.467832714319229126e-02
-4.017660508350793802e-01,-4.022315795120075532e-01,-4.354403296030583959e-01,4.189475880642931638e-03,5.502530431327009967e-03,5.117834805889355174e-03,3.661369532346725464e-02
-4.463186312356445806e-01,-4.584754170442282839e-01,-4.351405278460394599e-01,4.927859697927806405e-03,-1.055219895964508783e-02,-3.968363940466120704e-03,2.937293052673339844e-02
-4.279845771645005570e-01,-4.393171625798434898e-01,-4.368061105771164354e-01,-9.595456536227703987e-04,-6.071405311887020104e-04,2.014170786567719834e-03,1.105960458517074585e-02
-4.269821320597688152e-01,-4.349235727102583882e-01,-4.348760019684174694e-01,-4.616987590466936327e-04,-5.669619273803879183e-04,2.458504719792997152e-03,9.078960865736007690e-03
-4.282970192149133104e-01,-4.412970269497698550e-01,-4.371449570379284388e-01,-7.491013432360455523e-04,-1.225545814542700410e-03,2.688737186811637411e-03,1.265465188771486282e-02
-4.306155379422421658e-01,-4.426572180410220381e-01,-4.356424460868901782e-01,-2.502475228828621515e-03,-1.811954034791201772e-03,2.822147129543423408e-03,1.273851096630096436e-02
-2.333339286452423555e-01,-2.916633759011672544e-01,-3.930731632704891343e-01,1.500758331491666431e-01,8.341714066327141075e-02,7.264318549950973813e-02,3.519603312015533447e-01
-2.950217909902955737e-01,-4.008722632803761732e-01,-4.364376449221050169e-01,6.243885377329869840e-02,2.753967503294185368e-02,1.813875196505896487e-02,1.766125857830047607e-01
-3.182437609721924243e-01,-3.851073742153358070e-01,-4.454071142151126983e-01,5.654732099698910747e-02,8.445782363179816718e-03,7.000039273329011769e-03,1.486352980136871338e-01
-2.685404552807574285e-01,-4.292159155733800135e-01,-5.014051202800960949e-01,8.951955736594630064e-02,-5.658109825145806425e-03,-1.285708086152615413e-02,2.593455910682678223e-01
-2.857788471647911277e-01,-4.636988937166505176e-01,-5.680048531153638613e-01,1.614280130634120070e-01,4.283741644228982598e-02,-2.694151193997667421e-02,3.833445906639099121e-01
-2.702303087644515878e-01,-3.876107888631417087e-01,-4.212667437228448386e-01,1.609667558498206752e-01,8.962473929412642648e-02,3.732722592478159712e-02,3.533696234226226807e-01
-4.289731517808847427e-01,-4.389300880899466017e-01,-4.350767003141013944e-01,-7.217417948569500351e-04,-2.162702049686588952e-04,4.059551457180797453e-04,8.821490220725536346e-03
-4.364888674047893713e-01,-4.197524485656352056e-01,-4.618264084084904852e-01,-9.512440966027305503e-03,1.046582895809288838e-03,3.520097908733761227e-03,4.071949422359466553e-02
-4.575932125949256357e-01,-4.198002837680336330e-01,-4.657149178500959441e-01,-1.461266056821262406e-02,-7.581256340158580749e-03,1.343283193429523070e-02,5.617427825927734375e-02
-4.140218272948172351e-01,-3.551837567551689445e-01,-4.221829414443411532e-01,-2.790398741066647814e-02,-1.371950331955926368e-02,2.532405742503721080e-02,9.398511797189712524e-02
-4.431986932117360500e-01,-3.884526387308239181e-01,-4.493466754129896712e-01,-1.685575850910708481e-02,-9.318712265142959500e-03,3.069345648862409457e-04,6.696755439043045044e-02
-4.662927086551938993e-01,-4.357017379816376379e-01,-4.858538855046030669e-01,-3.974249957368216485e-02,-1.166143763305196304e-03,4.318770563815395834e-03,8.194679021835327148e-02
-4.356774749618460008e-01,-4.262035741422176005e-01,-4.606176788446275094e-01,-4.561400730299082495e-02,-1.391047481790609608e-02,3.169262776127916570e-02,1.038447618484497070e-01
-4.252862570792733110e-01,-4.234138659241679647e-01,-4.564668172930847478e-01,-1.959758576815067224e-02,-8.771805370955940151e-03,8.301099848554701482e-03,5.122372508049011230e-02
-4.737663249571295032e-01,-4.571439658814627216e-01,-5.046779000969522366e-01,-5.354554777842480268e-02,-2.816809537144743247e-02,2.060981304542959525e-02,1.183285564184188843e-01
-4.735494561590992690e-01,-4.282439344657388847e-01,-5.065588215505330005e-01,-5.373228279943805669e-02,-1.399736835155350294e-02,2.218617583532731235e-03,1.179056242108345032e-01
-4.177638361081982832e-01,-3.511040498973803103e-01,-4.341278412976425916e-01,-2.832570971534083965e-02,-1.381978052336072307e-02,1.635629201757720849e-02,9.790153056383132935e-02
-3.520579844979614403e-01,-4.934995723786593236e-01,-4.415157931439324668e-01,3.270173602399550211e-02,5.787310045035137102e-02,5.438068997835470396e-03,1.694112867116928101e-01
-3.785208288853192382e-01,-4.538257096002512037e-01,-4.258653901656470064e-01,3.672555311001436066e-03,7.970446411387990468e-03,2.620630641012532645e-03,6.781376153230667114e-02
-4.072350433731765085e-01,-4.473907048991186963e-01,-4.037878785004830884e-01,7.832392827967378773e-04,3.143757403375721775e-03,3.009063023983451698e-04,4.236206784844398499e-02
-3.840164636545930210e-01,-4.933778796330147709e-01,-4.504322193544333386e-01,2.929636320977404163e-03,3.463337484783340914e-02,-2.798233440713678889e-03,1.129393726587295532e-01
-4.001828134675487481e-01,-5.443206886601102967e-01,-4.734630761496709250e-01,5.462253216459778734e-04,8.255813897094821385e-02,-7.736780249903557876e-04,1.898248940706253052e-01
-3.037585654638171873e-01,-4.002561275807490770e-01,-3.992788362002882563e-01,5.147931293053983198e-02,5.029432479417551144e-02,2.999934904824396939e-02,1.657022237777709961e-01
-4.193437151137520691e-01,-6.280634063332809491e-01,-4.491273028811236800e-01,4.602565105206522789e-02,1.710828553644444250e-01,4.601160216797090668e-02,3.724900782108306885e-01
-4.413495184492122747e-01,-4.596176604643246177e-01,-3.650353354797568617e-01,-1.273482749514120299e-03,1.221077172172292495e-02,1.940177559288145922e-03,8.952745050191879272e-02
-4.439350360977580845e-01,-4.870358135312747305e-01,-3.869808823590995539e-01,-1.753677554510059324e-03,3.338641551762398796e-02,3.959790327502598316e-03,1.046730428934097290e-01
-4.151742019722530763e-01,-4.701829996445877624e-01,-4.239681190447698866e-01,9.346986416598123890e-03,2.226181794270619754e-02,9.317361581217716016e-03,6.803573668003082275e-02
-3.931396670336625432e-01,-4.461282331695441972e-01,-4.117512320984199059e-01,1.560076237575242809e-02,2.812261777856741793e-02,1.912515892136239931e-02,7.980031520128250122e-02
-5.404755459306017640e-01,-4.323877042454748465e-01,-3.876464966605280837e-01,8.186626485448369669e-03,1.607638739073600012e-02,1.071309406591225838e-01,2.322245985269546509e-01
-4.372970805159362429e-01,-4.435632238406349015e-01,-4.322843915070241905e-01,-9.045845982125553034e-03,-1.707748930358981079e-02,1.813853695910087535e-02,4.693852737545967102e-02
-4.213565620142445955e-01,-4.173614231371686745e-01,-2.926691746776352021e-01,8.519114408330334329e-03,3.810411116549018706e-02,4.176940330012417907e-02,1.608409881591796875e-01
-4.593008720715297533e-01,-4.370630430484843676e-01,-3.759216457401468037e-01,5.687881100165797198e-03,8.037263389325713381e-03,3.482308258702807718e-02,9.757680445909500122e-02
-4.057253696643699503e-01,-4.513212917209886710e-01,-4.115558723037905375e-01,3.017318009900583128e-04,2.052468276678745453e-03,3.644280042444803381e-04,4.313287883996963501e-02
-5.381588510724011343e-01,-4.601089415861643883e-01,-3.500588797073153069e-01,-6.363372369699817586e-03,2.325531380618412641e-04,6.641113607236426297e-02,2.003625631332397461e-01
-4.873359297403992985e-01,-4.360852811154923847e-01,-3.234891131558783606e-01,-5.440989582869602652e-03,1.437501810815944130e-02,6.098926092654349124e-02,1.815019547939300537e-01
-3.775422649410502540e-01,-4.184301091837772102e-01,-3.518626359647825108e-01,4.658252820914510206e-02,7.750838971676930755e-02,5.692918266704302677e-02,1.940012574195861816e-01
-4.029446900968535750e-01,-4.150058555457371567e-01,-3.960463053706920755e-01,6.540997720816031646e-02,6.798422653413241368e-02,8.583151051311596613e-02,2.215363830327987671e-01
-4.468947893189846865e-01,-4.373659150439039300e-01,-4.462555048167398675e-01,4.600221647798742597e-02,4.373583139141447307e-02,4.599719862239970425e-02,1.360860913991928101e-01
-3.764726303253657091e-01,-4.429868847437196666e-01,-4.373097886114423738e-01,6.469741356340891203e-02,5.334814700779414581e-02,4.403787799475944453e-02,1.760457605123519897e-01
-3.890251574224037334e-01,-3.724913191791721645e-01,-4.159921158035886912e-01,7.438097263072281085e-02,6.844501535496747002e-02,6.046874270403132523e-02,2.075273692607879639e-01
-4.117249462078187427e-01,-4.469977297675990502e-01,-3.784061231548323523e-01,6.360019819718011960e-03,1.053472974497204201e-02,2.976103545168121926e-03,6.332790851593017578e-02
-3.781308061476644777e-01,-4.441471967719909930e-01,-4.004488647238870214e-01,4.245698233491242840e-02,6.442276225836895964e-02,4.137516775234199862e-02,1.624108254909515381e-01
-3.802782502328800329e-01,-4.556910742915865065e-01,-3.993045022183528414e-01,1.306115763357701409e-02,3.201594509137827699e-02,1.730357487171180902e-02,9.539053589105606079e-02
-3.891037773591566884e-01,-4.442425542771927249e-01,-3.890274933821193937e-01,3.808019722799277623e-03,1.819122152413286259e-02,-1.283890437106073330e-03,6.391952931880950928e-02
-5.223454115749962545e-01,-5.166483958079357564e-01,-4.011215215356915276e-01,-2.040852153216775669e-02,8.997631708681588097e-03,-3.542378491513988037e-02,1.389028578996658325e-01
-4.833629944419334801e-01,-4.668447318430484771e-01,-2.760824062776388033e-01,4.524545639143915353e-03,1.573942299432977768e-02,1.557645238101315957e-02,2.033387869596481323e-01
-4.272277551002953699e-01,-4.281342780888111599e-01,-1.535036367237261334e-01,4.647025221163710550e-03,5.172173275118600172e-02,7.337887333398816769e-02,3.153052926063537598e-01
-5.778715453757972131e-01,-6.154950660624550762e-01,-2.400717333921424390e-01,-3.901725595037460609e-02,5.036816581141698862e-02,7.027825151725648756e-02,3.939904272556304932e-01
-4.710901766048250505e-01,-4.688115842559401614e-01,-2.959432201229057480e-01,-6.451437152674791833e-04,5.246152605625459264e-02,1.567129870180332396e-02,1.981847882270812988e-01
-4.363813257262361134e-01,-4.459259078901749995e-01,-4.611703726160527039e-01,9.155449154398941081e-03,-3.618567040073974138e-03,-6.460772826314857727e-03,2.974841743707656860e-02
-3.604730230723472983e-01,-3.923051475689836032e-01,-4.387409862751922018e-01,3.371690543886111252e-02,-4.334429463311933843e-03,-5.070369940857753820e-04,9.008520841598510742e-02
-3.267633983804190678e-01,-4.724745913161958466e-01,-5.032948928409122225e-01,2.889678958808035783e-02,1.878630801447490244e-03,-1.197183422302095478e-02,1.720992177724838257e-01
-3.507136778675752353e-01,-3.859800664136016635e-01,-4.624983847430016448e-01,1.015151875826035416e-01,4.969295631318998256e-03,1.242860133416189353e-02,2.031029015779495239e-01
-3.742478372804420306e-01,-3.498762443447108184e-01,-4.352293903163215738e-01,4.147014837687718058e-02,6.263162659781362426e-03,9.573075062859842665e-03,1.065404862165451050e-01
-3.981133020202599626e-01,-4.172353655997003141e-01,-4.377921272665450947e-01,1.927218543845387808e-02,-7.489782001910499920e-03,-9.335600017168918519e-03,5.220463126897811890e-02
-4.803427165722610193e-01,-4.231857516549566434e-01,-4.409278705510895624e-01,-1.415170691272150949e-02,6.393309012730541245e-03,-3.495544414701688696e-02,8.340683579444885254e-02
-4.173197496136932250e-01,-4.312725318760314841e-01,-4.775245299048683223e-01,1.663403746176877335e-02,-3.293562525750809520e-03,7.529516129227684692e-05,6.198310106992721558e-02
-4.604691724384440410e-01,-3.639752924090881026e-01,-4.478889903288087448e-01,-7.522962787539192071e-03,-9.223141757359705137e-03,9.705397949052766218e-03,9.467305243015289307e-02
-5.145380237637710019e-01,-4.026365429359015091e-01,-4.881053143830367258e-01,-4.279307387076893010e-02,-1.990828871869797234e-02,2.255417220028779063e-02,1.359102725982666016e-01
-4.421138865307737142e-01,-4.241564210983867489e-01,-4.208922545398335324e-01,-2.939063688121148609e-03,-2.676336935527351846e-03,1.578053353966171529e-03,2.113326452672481537e-02
-4.722418824663781600e-01,-3.856698202614012860e-01,-4.829862834486854384e-01,-3.602560443698256398e-02,-1.268711814925659563e-02,2.291682777966052784e-02,1.203839406371116638e-01
-4.256267886987786797e-01,-4.575275804179251837e-01,-4.497161475567358346e-01,-2.286991014503779451e-02,-2.096633776685313463e-02,7.539153642375925717e-03,6.235274672508239746e-02
-4.673368313035345945e-01,-2.844069256154416747e-01,-3.476116219085675918e-01,-3.571556092229382501e-02,-3.115698690756361217e-02,1.174137446240637039e-01,2.720169126987457275e-01
-4.662765409260539728e-01,-4.103975339624879037e-01,-4.502633755049363917e-01,-8.403953154632730696e-03,-7.304121030893518003e-03,1.924981166253036252e-02,6.298952549695968628e-02
-4.598806406360327337e-01,-3.856928131398819071e-01,-4.412686588414064803e-01,-1.764900005322693824e-02,-5.224650784527517557e-03,2.958583005970198687e-02,9.006538242101669312e-02
-3.898143045226356018e-01,-4.359484476102687411e-01,-3.866666081264632515e-01,6.701273395194509708e-03,1.524999452725172081e-02,4.962791851532314530e-03,5.647813156247138977e-02
-4.430062526089486585e-01,-3.230067044652155106e-01,-4.290074999248137955e-01,-1.825520738052802475e-02,-7.429528990084728092e-03,3.525498862719054355e-02,1.334545165300369263e-01
-4.194125946719954312e-01,-4.407773607603173160e-01,-4.037825440247780895e-01,7.744324449909809407e-03,1.272703643505487987e-02,8.522617590278799490e-03,4.380005970597267151e-02
-4.730938531542832615e-01,-3.812148380181071827e-01,-4.451180478941988983e-01,-5.835157081989270945e-03,-1.095543078602727143e-02,3.327845865014125021e-02,1.021694093942642212e-01
-4.520489279306703634e-01,-4.509310809400886022e-01,-3.156516044439848789e-01,5.277944262207264273e-03,9.550279074841218352e-03,1.537903620857435094e-02,1.397130787372589111e-01
-4.524520456309370497e-01,-4.564027889783267011e-01,-3.331912438774294327e-01,3.731249999296702528e-03,1.559517313339693623e-02,1.123929949774962050e-02,1.259375959634780884e-01
-4.803027435112454668e-01,-5.184733005466133360e-01,-3.375220851641819730e-01,-7.143338713617670109e-03,2.460113158295579305e-02,3.505093784350920422e-02,1.815151721239089966e-01
-5.103676720532134281e-01,-5.245093698990025421e-01,-3.522043529114362026e-01,-7.565825877233199256e-03,4.007465684478096063e-02,2.219217824475647888e-02,1.841723620891571045e-01
-4.552949629251552000e-01,-4.311794849075873404e-01,-1.724247393867420208e-01,-5.076096188127479300e-03,1.429080961962585043e-02,6.531319332743391881e-02,2.954030930995941162e-01
-4.771351789862394166e-01,-4.632564228488422753e-01,-3.323718685245833915e-01,-9.623979647707608205e-04,-4.356837989772118121e-03,9.091287126029492377e-03,1.394545882940292358e-01
-3.332995894324159991e-01,-5.977766760622493791e-01,-5.441437967023633471e-01,9.416491598128526319e-02,1.361414480453337073e-01,4.468648522622178931e-02,3.831907808780670166e-01
-5.035693169132198221e-01,-5.183854796804608922e-01,-3.378333423503918076e-01,-7.152267732294450035e-05,-3.942466252378176890e-03,9.788444500281510974e-03,1.745783090591430664e-01
-4.302945811292632206e-01,-4.093795482756699133e-01,-4.208883456320065553e-01,2.043301217266115660e-02,1.620981105501041394e-02,2.403743390194874874e-02,6.405760347843170166e-02
-4.229874961107497611e-01,-4.515973937836999519e-01,-4.123723366938475410e-01,-2.678404428256478138e-03,3.438024328927109102e-03,3.913247444215319138e-05,3.594290837645530701e-02
-4.793408581428649784e-01,-4.862487330051110668e-01,-3.950640903409461391e-01,1.234351881026655301e-02,3.543079636731813475e-02,3.231361959470964440e-02,1.228335723280906677e-01
-3.835758453722734052e-01,-4.489667788137038373e-01,-4.078592042494667558e-01,3.029518667178732194e-02,4.446883267865949646e-02,3.894936067848440986e-02,1.285096406936645508e-01
-3.606950131835255369e-01,-3.396466216334317889e-01,-3.510817193318591101e-01,6.685449949789043500e-02,6.324684336502055249e-02,7.130174625344566641e-02,2.024697065353393555e-01
-4.532379553793716154e-01,-3.959695397379451309e-01,-3.641762357683615559e-01,5.767613380074379514e-02,7.010911226455944500e-02,8.890717078381477068e-02,2.335597723722457886e-01
-3.596361191343218078e-01,-5.107326975430349636e-01,-4.550737575916065647e-01,-1.363461407251461040e-02,3.290272295543487935e-02,-2.122604272812725346e-02,1.505832970142364502e-01
-3.820949662554063986e-01,-4.413664656919062401e-01,-3.474415041415999661e-01,8.979836574391608650e-03,4.383577363038254626e-02,1.773184621814223247e-02,1.171231344342231750e-01
-3.863335328790839518e-01,-4.286871337622817357e-01,-3.541604507061551499e-01,1.648675105907506516e-02,3.046859697512677850e-02,1.891982531138162657e-02,9.415893256664276123e-02
-3.608158899769790540e-01,-4.253121341544049971e-01,-3.643747400242817180e-01,9.463844034634152219e-03,3.693929546546361603e-02,1.080907586084479087e-02,9.303566068410873413e-02
-4.593593188773990033e-01,-3.747238943749324758e-01,-4.742381300668969124e-01,-9.528493679768859984e-03,-1.261622491859635273e-03,1.246774346122886401e-02,9.688805043697357178e-02
-4.630097307041819432e-01,-3.523834740286438949e-01,-4.202457027602565787e-01,-9.548431638739477562e-03,-1.082814848665344942e-02,4.645079038313988662e-02,1.281967163085937500e-01
-4.737246562687490448e-01,-4.183958989411742380e-01,-5.056756903281466320e-01,-3.491124398718679217e-02,-1.260662458234081303e-02,2.029888641130216109e-02,1.059209629893302917e-01
-3.830158666352527219e-01,-4.556046553942917909e-01,-4.345373571535412482e-01,1.846738771992068040e-02,2.951705247721609152e-02,7.891204776120399472e-03,8.948424458503723145e-02
-5.281630957774098301e-01,-5.400856425925476545e-01,-3.626327904424713200e-01,1.023424309607944092e-03,3.545432586786867457e-02,3.062845019836860430e-02,1.900117099285125732e-01
-4.475924695255380503e-01,-4.583397434562623274e-01,-4.079347377517993922e-01,6.287898713773879510e-03,-6.172062144400339637e-03,-3.454428494449283439e-03,4.881748929619789124e-02
-3.940979625056685309e-01,-1.613458987672388156e-01,-3.514524483502096119e-01,-4.534894116857762086e-02,-3.691595448524393613e-02,9.594558883736306609e-02,2.897256314754486084e-01
-4.737485119515043031e-01,-3.808896647393045787e-01,-4.840244435527043532e-01,-2.202498000439492148e-02,-1.201149614352072827e-02,1.221272386065195420e-02,1.096273288130760193e-01
-4.950246236316476756e-01,-3.511974548942423668e-01,-4.915845824253333163e-01,-2.673393194949367710e-02,-2.762568828246981384e-02,2.325716910499039947e-02,1.620482951402664185e-01
-4.386224846765894858e-01,-3.570045369468403118e-01,-4.369094797356087301e-01,-9.583501998312742715e-03,-5.444881171659980874e-03,1.211328204166428786e-02,8.561120182275772095e-02
-5.096501494945271382e-01,-3.176009898683486155e-01,-4.912695792213798152e-01,-2.132638594749387394e-03,-1.404517541630578370e-03,3.716454142562160279e-02,1.945608556270599365e-01
-4.527823603212987602e-01,-4.328530368258465821e-01,-3.793935954972747493e-01,-7.678693947620838026e-03,-4.006096480666266994e-03,1.199575747233474349e-02,7.054947316646575928e-02
-4.397305297891597742e-01,-4.277290419940592558e-01,-4.714928605002680628e-01,-3.465763075002988025e-02,1.243644003952336851e-03,-7.901958042864453899e-03,7.300338149070739746e-02
-4.269057579521815526e-01,-4.326660475321543187e-01,-4.466064078168849871e-01,-1.172687458850331030e-02,9.434695733172213800e-03,-6.301143216114718504e-03,3.326451033353805542e-02
-4.457480317301018569e-01,-4.393813899344180540e-01,-4.385747373685235373e-01,-7.329664716010258520e-03,3.518031048009034704e-03,-6.496846243869211848e-03,1.926782540977001190e-02
-3.809271497093401071e-01,-4.382436078799314960e-01,-4.250323098796990884e-01,-1.800583391191198923e-02,2.253902641396671874e-02,-1.411966175093875772e-02,7.613959163427352905e-02
-4.317813084114747180e-01,-4.258706328388226492e-01,-4.369084175949869975e-01,-3.576258616653001359e-03,4.093904892011031652e-03,-3.404753101350714226e-03,1.466131303459405899e-02
-4.272483774274813406e-01,-4.318628056900403744e-01,-4.323598139287940234e-01,-6.781557682709892648e-03,6.127986858790529338e-03,-7.650644479879824961e-03,2.121451683342456818e-02
-4.346130117780824254e-01,-4.176304397761005371e-01,-4.377841322088609211e-01,-9.588568678635899650e-03,9.510366697363072802e-03,-6.867599836071680043e-03,3.226410597562789917e-02
-4.358807338234909068e-01,-4.371324388804177508e-01,-4.430602135669979846e-01,-6.118653457543008628e-03,6.198478890627109709e-03,-5.868720477665212085e-03,1.936563849449157715e-02
-3.893270105399242453e-01,-4.473560601003711557e-01,-4.611560352130162355e-01,-3.812916641394736850e-02,2.328624711281465989e-02,-1.973682820816442460e-02,1.073102280497550964e-01
-4.311265550342425201e-01,-4.283956552654235583e-01,-4.483333228348192478e-01,5.130900693204053275e-04,6.979981370002069901e-04,-4.282697620180539650e-04,1.879686862230300903e-02
-4.331247189476418180e-01,-4.266993503152951561e-01,-4.398785463937549545e-01,-3.484196351773168922e-03,3.596416502195475592e-03,-3.961323871036094915e-03,1.589317992329597473e-02
-4.418318828826980904e-01,-4.354365840381455577e-01,-4.545665209659559558e-01,-9.036005850491987332e-03,4.478942172569237191e-03,-5.513032927138681108e-03,2.609260939061641693e-02
-4.285304597122913117e-01,-4.488921890333968379e-01,-4.195289347646135591e-01,-6.535951425702932020e-03,1.054220975387985988e-02,-2.388512134298739851e-03,3.402351588010787964e-02
-4.495920997160605115e-01,-4.118320931933868723e-01,-4.165257421151417061e-01,-5.850118060162131913e-05,-2.382110463861435157e-03,2.142435421505453196e-03,3.607519716024398804e-02
-3.774003351184420096e-01,-4.284615236798621218e-01,-4.240900085525861618e-01,-1.833807399622039078e-02,2.223722388104957398e-02,-1.357383079667158314e-02,7.381208986043930054e-02
-4.300114630734162557e-01,-4.265080603550323590e-01,-4.456814241331174542e-01,-6.068881678334091950e-03,5.655835688942065405e-03,-4.213965258383241957e-03,2.392596192657947540e-02
-3.693384495542448853e-01,-4.951616788982077799e-01,-4.170908514237410269e-01,-1.003671686313671076e-02,7.721180106003791566e-02,-3.086760180783011329e-02,1.820687651634216309e-01
-4.122695521090929960e-01,-4.550622592391748156e-01,-4.837721421267440758e-01,-3.622076148980002408e-02,3.361712956045894568e-02,-1.977713409608177278e-02,1.112817004323005676e-01
-4.271779129312842649e-01,-4.482266986779478990e-01,-4.631350082179380157e-01,-1.269230176719373521e-02,4.681310180472852966e-03,-6.974918690856526590e-03,4.091560840606689453e-02
-3.935504184305899655e-01,-4.635883927303131591e-01,-4.382926574254093488e-01,-1.675002787409617111e-02,2.271869004195109856e-02,-1.299666991735680920e-02,8.167237788438796997e-02
-3.662751703529656955e-01,-5.050250696555564911e-01,-4.960169674988411659e-01,-2.162899817568820354e-02,2.527565925063321103e-02,-3.190782482221150157e-02,1.563878208398818970e-01
-4.012117476435332342e-01,-5.155751726501652810e-01,-4.937630762395531225e-01,-4.626274426352443986e-02,3.373614569693031418e-02,-4.144594279167615469e-02,1.613959670066833496e-01
-3.755868270394736030e-01,-4.322718729741178434e-01,-4.578451768157719703e-01,-5.335015539683913427e-02,2.884114695569050396e-02,-4.407362117088887803e-03,1.280985474586486816e-01
-3.162723096456012128e-01,-4.078294087506494359e-01,-3.281741008775059254e-01,2.288268736106826087e-02,7.440065703771707450e-02,2.495438123330737806e-02,1.657710820436477661e-01
-4.126627447342435806e-01,-4.854181791242649369e-01,-4.805685338132763551e-01,-1.763480295471146764e-02,2.227464504293271211e-02,-9.607579752234094231e-03,8.753507584333419800e-02
-4.187719728305957512e-01,-5.631705287116248737e-01,-5.461894090925949463e-01,-4.115080866977829238e-02,3.788253146512412378e-02,-2.052969464318661272e-02,1.712807118892669678e-01
-4.756446999846826729e-01,-4.668898339224866745e-01,-3.568827210718050202e-01,-3.801534225269791872e-02,-4.387742646210049391e-02,8.118624198854199059e-02,2.074273675680160522e-01
-5.007069300638288256e-01,-4.801259880412843128e-01,-4.125997488950950420e-01,-4.237360204883422465e-02,-7.939581480393748114e-02,8.136989730935977050e-02,2.247975915670394897e-01
-4.547776525658213664e-01,-4.692583141777075806e-01,-4.050228431989947309e-01,-1.279310112107951911e-02,-1.670521841687004974e-02,3.414645766279074922e-03,6.905704736709594727e-02
-5.705942749404292469e-01,-3.752874756989982297e-01,-2.977179048900343572e-01,-3.316627906314492669e-02,-4.422284729769498240e-02,1.355303306728922463e-01,3.515452146530151367e-01
-7.035565951643885096e-01,-5.103979434592612607e-01,-3.655968974650325443e-01,-7.759846408925985539e-02,-5.283838431400371405e-02,1.487503861486189349e-01,4.231636226177215576e-01
-4.590690144949737261e-01,-4.667086402872264728e-01,-4.128994914712916242e-01,-1.230510094284302026e-04,-2.075881835668512421e-02,1.005295202713307225e-02,6.433290988206863403e-02
-6.857090845056676987e-01,-4.595786169613433891e-01,-4.624771452045500775e-01,-3.505411599541467804e-02,-7.800836959850729335e-02,1.532129763636160269e-01,3.779588341712951660e-01
-8.105790258093422684e-01,-5.193476237521258421e-01,-4.863623327106028071e-01,-7.165486856714132352e-03,-6.605833263223963303e-02,1.434091157409008999e-01,4.128604829311370850e-01
-4.083198878812992483e-01,-4.354448355720360597e-01,-4.096988320253834304e-01,9.353138838346956516e-03,1.173827628030917926e-02,6.835626597544315272e-03,3.893896192312240601e-02
-4.191064829581462869e-01,-4.289239327407559643e-01,-4.250784478300719260e-01,5.853154504217494315e-03,1.053365597325761453e-02,1.012160322056558648e-02,2.857288531959056854e-02
-4.539877268265291588e-01,-4.268853446029135523e-01,-3.816830900276574901e-01,1.345942704101157298e-03,3.883396699644375751e-03,8.809523721537091887e-03,6.547039002180099487e-02
-3.603755194456075284e-01,-3.137152953636473396e-01,-3.626874944637983322e-01,6.191762911847016604e-02,4.280441502911261353e-02,5.818598309658975370e-02,1.715961992740631104e-01
-4.057131688732345531e-01,-4.131322964345309767e-01,-4.132837080176715583e-01,3.233624052221461403e-02,2.504079799022167901e-02,2.270417006337642485e-02,8.136737346649169922e-02
-4.072240942580860334e-01,-4.365201383622639431e-01,-4.027198754576241657e-01,7.639789618507446776e-03,1.696871538645407934e-02,1.117902353635142655e-02,4.923743382096290588e-02
-3.458966198871531450e-01,-4.484294176364166384e-01,-5.366116473962698752e-01,1.686376450512417358e-01,9.645608469440106192e-02,6.690606621227010442e-02,3.924120366573333740e-01
-4.265406789293423317e-01,-4.675996872079262734e-01,-4.543199940845421558e-01,-8.651071308420188455e-03,1.138409383709809534e-02,-9.431813388155249958e-03,4.687360301613807678e-02
-4.292644949305901014e-01,-4.567776496161781163e-01,-4.180414757918174962e-01,1.792240671603371679e-02,1.996655862642366178e-02,6.846224634845878704e-03,5.909273400902748108e-02
-4.366051891472102486e-01,-4.484631557606896801e-01,-4.369310837860136409e-01,2.755382935792609345e-02,-4.542909249400101795e-02,-2.197092452333841359e-02,1.002699658274650574e-01
-4.093521976732960588e-01,-4.475578613862057908e-01,-4.606901854091809967e-01,2.175795058118798822e-02,-7.659347100362420141e-03,-9.548574365655428456e-03,6.327407062053680420e-02
-3.839652704996794341e-01,-4.422572688771850280e-01,-4.414372550781622273e-01,2.472342888385595239e-02,-2.960838389910062582e-02,-1.477171607587352345e-02,9.202799946069717407e-02
-3.644752009252507086e-01,-4.226649702102774353e-01,-4.085916888677973424e-01,2.546392585957880927e-02,-2.378489473049290315e-02,-1.107870705285178212e-02,8.231522887945175171e-02
-3.441219419115197908e-01,-4.239742196578175637e-01,-4.625213064513510886e-01,7.826903286686065497e-02,-5.085946190782732190e-02,-3.876950789675814163e-02,2.039307206869125366e-01
-4.032304295616067624e-01,-4.839809787033614308e-01,-4.988289830371136491e-01,2.872058975468360850e-02,-3.075336087693782139e-02,-3.258187984057906578e-02,1.282059252262115479e-01
-3.750170274496500977e-01,-4.069116221951738499e-01,-4.279011024816644637e-01,2.750423072591417356e-02,2.004007145075356253e-02,2.350388872614483926e-02,8.519878983497619629e-02
-3.794095193276706413e-01,-4.318748750390917768e-01,-4.457274548631983135e-01,2.452457802588465727e-02,2.001390652126222580e-02,1.484673915464529599e-02,8.566562086343765259e-02
-4.472380665177666526e-01,-4.690216655046917094e-01,-4.381229959962344989e-01,-6.197197231068175653e-03,-1.307527958355549254e-02,5.876673696255002230e-03,3.857303783297538757e-02
-3.989618774702161086e-01,-4.362277461461051553e-01,-3.955544086962614059e-01,-6.218903979774748764e-03,1.912535732703514110e-02,-6.296210124588218215e-03,5.347548052668571472e-02
-4.266067151995681650e-01,-4.369840480815256889e-01,-4.030177486290354993e-01,-7.988884412714837915e-03,8.581553151529183743e-03,-9.530415438206161008e-03,3.992244228720664978e-02
-4.287527868321289182e-01,-4.561197762056996563e-01,-4.043846902877634708e-01,-1.721280729017958359e-03,2.075695957033571112e-02,-7.094808183111239903e-03,5.883951857686042786e-02
-4.261035333531255076e-01,-4.485662946891650349e-01,-3.818324422835248644e-01,-6.923791411973662102e-03,7.105649113348304173e-03,-7.612815506415937170e-03,6.267462670803070068e-02
-4.299066691883355884e-01,-4.432145522385025904e-01,-4.140488187971793632e-01,-7.165738470922373635e-03,3.639775250813036614e-03,-7.098049340523550702e-03,3.137737885117530823e-02
-4.200029263791819067e-01,-4.184367596323272376e-01,-4.484159555801752739e-01,-1.157401738168949146e-02,1.183871754409337269e-03,-3.487963234459137826e-05,3.550118952989578247e-02
-4.176046724674332133e-01,-4.340551558771471030e-01,-4.819056588415203124e-01,-2.874671821582994863e-02,-2.083091136043677474e-02,4.121780477585469671e-03,8.473087847232818604e-02
-4.383674834796911779e-01,-4.516201395162093291e-01,-4.554035074515492831e-01,-1.584604312193230169e-02,-9.071840065306743806e-03,1.525503068359152468e-02,4.402749612927436829e-02
-4.180125591586407729e-01,-3.989306072871561804e-01,-4.456345088613694050e-01,-2.508334864354011887e-02,7.189027055507937400e-03,-8.780545180285108733e-03,6.267405301332473755e-02
-4.447362083616862583e-01,-4.253663727243534032e-01,-4.668487824181824508e-01,-3.528569188530383816e-02,-9.584208838908106487e-03,2.210071017569121415e-02,8.227155357599258423e-02
-4.471399314187124441e-01,-4.421135261995883248e-01,-4.277811889871238615e-01,2.585766039760541406e-03,-1.879449297122882338e-03,-2.479040611481834848e-03,1.875668577849864960e-02
-4.187581923341949230e-01,-4.043479341389378812e-01,-4.426371406395155361e-01,-2.847400820844574187e-02,-1.618211234460632114e-02,1.571455390009612874e-02,7.127898186445236206e-02
-4.063544506916770271e-01,-4.439317186895632150e-01,-4.103473612508302115e-01,1.231288546154094042e-03,1.137708702243408684e-03,3.536579013380470107e-03,3.638551011681556702e-02
-4.331438515857163885e-01,-4.467542187869305570e-01,-4.690913601710156589e-01,-1.402843285947653895e-02,-2.952166903209857158e-03,2.136579233278073069e-03,4.022981598973274231e-02
-5.111787206974548470e-01,-4.394756878461813510e-01,-4.257646709986033784e-01,1.128781388508781069e-01,1.278199847695028202e-01,1.698362018849527977e-01,4.243627190589904785e-01
-4.239412531223701319e-01,-4.623320690187522897e-01,-4.746251968021963363e-01,-1.767341610194746171e-02,5.037112822583214057e-03,-3.848598355740480859e-03,5.616511777043342590e-02
-4.134823469188085299e-01,-4.337909654145846727e-01,-4.474516213666415720e-01,-9.143446944021355396e-03,8.165369578047794105e-03,-2.619891887028513635e-03,3.671378269791603088e-02
-4.123291196718436025e-01,-4.356486739488823479e-01,-4.529428941574410450e-01,-1.055040457993456325e-02,2.220668982518697338e-03,-2.304384232494615607e-03,4.013530910015106201e-02
-4.329850648209869757e-01,-4.153202544341754177e-01,-4.600707067584373089e-01,-3.497885261409330176e-02,9.824570517361359834e-03,-2.889694662140432704e-03,7.422478497028350830e-02
-4.498280500347660582e-01,-4.323793797493107327e-01,-4.768937902216647262e-01,-1.342959199136570247e-02,-4.419457705109569590e-03,2.002190652630343314e-04,4.592437669634819031e-02
-4.374174452410033442e-01,-4.189750422879698899e-01,-4.539661085872953028e-01,-9.994491456262247914e-03,6.668634617785136089e-03,4.443668654243179499e-04,3.678113222122192383e-02
-4.396522672968794510e-01,-4.139466132476368188e-01,-4.575046250136783343e-01,-6.840880476484056776e-03,1.831033101561648337e-03,-1.178751581716060972e-03,3.991257026791572571e-02
-4.459571197075528626e-01,-4.241062561340080972e-01,-4.690232943678029898e-01,-1.067001934433859517e-02,-6.242956156204859837e-03,-2.868582036188829440e-03,4.468424990773200989e-02
-4.427500110041472370e-01,-4.361159563524882321e-01,-3.985138895494811373e-01,-9.279656377831320760e-03,-1.263089583808732486e-02,1.026411660844684520e-02,5.253942683339118958e-02
-4.682782893765356502e-01,-4.710653204578253983e-01,-4.072728326518315067e-01,-1.786331305754964259e-03,-1.400381374803912581e-02,-2.761997818679282329e-03,6.723270565271377563e-02
-4.288076458993954621e-01,-4.403785638726499529e-01,-4.355134226540272602e-01,-9.336163058934920283e-04,-1.844164665047026426e-04,3.518814976942104028e-04,1.021518465131521225e-02
-4.560045721607513536e-01,-4.727274312154271518e-01,-3.888717407048596364e-01,2.843860739780209018e-03,-2.189195178511592343e-02,-1.296393274784795289e-02,8.874316513538360596e-02
-4.990839332627861058e-01,-5.238308753495770631e-01,-4.419209591622209055e-01,-1.344829718983982019e-03,-4.171462635356253806e-02,2.835496091504707741e-03,1.026864200830459595e-01
-3.970050835554287394e-01,-4.265726561219134738e-01,-2.704233209376489255e-01,-6.602450935103526021e-03,-6.684090421081073652e-02,1.866261204119003952e-02,1.876663863658905029e-01
-4.666347590634073450e-01,-4.876357970435372668e-01,-3.667400920222473881e-01,-8.832440942894898006e-03,-2.725711175007874271e-02,-1.153428360366506693e-02,1.240156665444374084e-01
-4.134573442540251942e-01,-4.329475612959071684e-01,-2.125784716995778867e-01,1.234443998262600402e-03,-3.225978759060714463e-02,7.189207347869240768e-03,2.189270853996276855e-01
-4.629717132226430221e-01,-4.822436325288800840e-01,-4.425497773812067104e-01,6.406637454575452029e-02,7.400158446091009701e-02,6.412294478984668922e-02,2.055711448192596436e-01
-4.235578525048802057e-01,-4.047275230785732925e-01,-4.030763467978474845e-01,5.095888198635274702e-02,7.039449887903519165e-02,5.573872481213321822e-02,1.799038499593734741e-01
-3.987234776751560350e-01,-4.227286508327136039e-01,-3.861835945963181804e-01,1.168856310445655702e-02,7.392585789225501920e-03,6.539772550555817202e-03,4.167305305600166321e-02
-4.489151873983825425e-01,-4.615355182154406988e-01,-3.923010005186422511e-01,-2.511240084030606778e-03,-1.019730556776253516e-02,-3.467627056539494476e-03,6.667740643024444580e-02
-4.147816179473233222e-01,-4.267614554753891842e-01,-3.946108847713741818e-01,8.862143533249960958e-03,3.685643632818101471e-03,4.111088345927605726e-03,3.345272690057754517e-02
-4.118228526223245978e-01,-4.394629291768619717e-01,-3.964797357850167181e-01,7.375022410720970430e-03,6.224504843462977041e-03,4.663227851771447469e-03,4.204893857240676880e-02
-3.879115124253201263e-01,-4.283690574003809481e-01,-3.810286329756389923e-01,8.731799263878004674e-03,1.549640224243078838e-02,1.033974876630187022e-02,5.685535073280334473e-02
-3.952452237828157355e-01,-4.502234451424051431e-01,-4.073694560882894500e-01,3.429743290758523015e-03,1.463033410618368862e-02,2.532741614572671211e-03,5.656595155596733093e-02
-4.269267038045049256e-01,-4.673000212561343458e-01,-4.024551256411914579e-01,6.649547425385482491e-03,1.758392191063863283e-02,4.783995423452675790e-03,6.592233479022979736e-02
-4.029997166458382241e-01,-4.526099755193560004e-01,-3.964012778477623566e-01,1.385023064622806395e-02,4.673492246670714334e-02,1.990829984027341765e-02,1.055889874696731567e-01
-3.761051429958733316e-01,-3.957476344387592104e-01,-3.978735537444268444e-01,1.964195909578184823e-02,2.326226424535528595e-02,2.066643107526537626e-02,6.703900545835494995e-02
-4.132704636247220842e-01,-4.445729067705416759e-01,-3.951766536096296134e-01,7.882127969361971825e-03,6.050038478813702866e-03,4.928170973195511971e-03,4.735675826668739319e-02
-4.351412315110150808e-01,-4.062882261999931632e-01,-4.246519818966190130e-01,1.149858095965017833e-02,1.062170021980458727e-02,1.271426516898084731e-02,4.312708228826522827e-02
-4.223336016926603764e-01,-4.385145236072117703e-01,-4.275008145435606477e-01,1.590457803030082343e-02,1.687494709997158782e-02,1.750316029694996486e-02,5.231780186295509338e-02
-4.314052921372412142e-01,-3.877674918787930025e-01,-4.357633427261638492e-01,2.206671280017275319e-02,1.252538076961351270e-02,2.269866284378199012e-02,7.477024197578430176e-02
-3.943809357388908809e-01,-3.928980688525416376e-01,-4.108827755224288558e-01,9.894433058647952167e-03,9.769480256934073500e-03,1.177065684927970819e-02,3.598127886652946472e-02
-3.856008187613796379e-01,-4.099853315114017627e-01,-3.849046136212587177e-01,6.112780187079483452e-02,9.914062567977180440e-02,6.606113360945477242e-02,2.332395762205123901e-01
-3.633862052769146755e-01,-4.106615242729155790e-01,-4.854800033165487250e-01,-1.126521001748936324e-01,-1.818276605841704502e-02,4.350786590134528981e-02,2.368796318769454956e-01
-4.258784057222496089e-01,-4.388036567070801586e-01,-4.060795856703459661e-01,9.318397207151033271e-03,1.070898697254317293e-02,8.278428143737651124e-03,4.031255468726158142e-02
-5.713379889929555144e-01,-3.521259951593401771e-01,-4.547072270172106134e-01,-1.048067106619374744e-01,-4.290116576425651029e-02,1.307446991233028877e-01,3.547494411468505859e-01
-4.406892343786534827e-01,-5.365279439638496184e-01,-4.545206371722654293e-01,-2.541604332206003070e-02,7.298717308339697230e-02,-3.415480692007354102e-02,1.716675311326980591e-01
-3.927702043901886708e-01,-4.897950402800358427e-01,-3.791604637850696236e-01,-2.801363718109656665e-03,7.634474197108816196e-02,2.491959704036217707e-02,1.740447878837585449e-01
-4.033570798871501939e-01,-4.625454091797705503e-01,-3.791081390412576746e-01,4.890296208791792588e-03,3.398297615340867273e-02,-2.589525300725975011e-03,9.530431777238845825e-02
-4.005480383765417374e-01,-4.506740402506957399e-01,-4.020799618551320065e-01,-2.293855311287889588e-03,1.451619606336482932e-02,-3.265766334103639527e-03,5.584007874131202698e-02
-4.676630908483932481e-01,-4.031922966228446703e-01,-4.791391373585182634e-01,-1.857322955563548003e-03,-1.504192353664593387e-03,8.239956354194472032e-03,7.244915515184402466e-02
-3.692241089970188517e-01,-4.251690096588829348e-01,-4.216624325942803786e-01,2.396118307354761640e-02,2.321335115979271738e-02,1.364739193408570465e-02,8.272666484117507935e-02
-3.749169818476437155e-01,-4.569951607199577714e-01,-4.371087998586953849e-01,2.687477031871002287e-02,2.924337960838343728e-02,8.935129437183457826e-03,1.023320779204368591e-01
-4.284967796577989763e-01,-4.337550875241743542e-01,-4.551739039036264423e-01,-9.296212922729233177e-03,-3.681202859369604296e-03,8.826920910989501101e-03,3.365558385848999023e-02
-4.216637432940116281e-01,-4.069725422280862648e-01,-4.588734296234205923e-01,2.097385485952017736e-02,4.371953302574289012e-03,5.186143013658552417e-03,6.003986299037933350e-02
-3.604417648800857243e-01,-4.272029320134819730e-01,-4.523305150374608008e-01,3.330381682848364278e-02,2.363341265624010340e-02,1.414718375540786367e-02,1.112181246280670166e-01
-4.101411593440983383e-01,-4.246855723070064315e-01,-4.427740158057767994e-01,3.396101482093155655e-02,2.654026956610520960e-02,2.448589773381995918e-02,9.040854126214981079e-02
-4.117247814731447852e-01,-3.830581999005501781e-01,-3.846547174037937000e-01,-1.453644691039502473e-02,-1.880390750489057197e-02,3.606396687986482275e-02,7.984403520822525024e-02
-4.580021563825825148e-01,-4.337513288489397434e-01,-4.622521664714523970e-01,-1.658611914387881844e-02,-1.102742885459023423e-02,1.063362113033776771e-02,4.731346294283866882e-02
-5.085379939807777028e-01,-4.651255462466006851e-01,-5.193653699967294424e-01,-4.922198401541398594e-02,-3.069710602003252256e-02,2.370962536863066225e-02,1.193888708949089050e-01
-4.381089521587441804e-01,-4.460075637054332076e-01,-4.149791009215062498e-01,-1.340272951091870529e-02,-1.255966236472009188e-02,1.096126468065413383e-02,4.639670997858047485e-02
-4.405153385058874771e-01,-4.120475159707903678e-01,-4.267625583742489792e-01,-1.008371081765192280e-02,-9.585497133211577300e-03,1.365286424361374096e-02,4.180831462144851685e-02
-4.205923499207984140e-01,-4.577565860991836266e-01,-3.918324173201847560e-01,-5.785128682035255588e-04,1.073832708764249459e-02,-2.180499781205211002e-03,6.031880155205726624e-02
-3.691851810775759746e-01,-4.338347208876397465e-01,-3.781780800655629715e-01,-8.285825966277077584e-04,3.399101235923553815e-02,-1.448313534262056154e-03,8.457876741886138916e-02
-4.330944139505722990e-01,-4.618129604200509331e-01,-3.887956200845700261e-01,-3.217256620178822295e-03,7.003447196121357320e-03,-1.679890934332484934e-03,6.516132503747940063e-02
-4.268769923100882435e-01,-4.527231844563926466e-01,-3.659543651541801168e-01,1.686123444019819268e-04,1.961279888156824275e-02,-9.405500513748296957e-04,8.432635664939880371e-02
-4.479648522178522052e-01,-4.711787162288782471e-01,-3.828975583149965556e-01,-5.117614519789380305e-03,1.469619301334221771e-02,-5.514478781443890240e-03,8.426643908023834229e-02
-3.853631115937991569e-01,-4.474460401191683312e-01,-3.145664544581815436e-01,8.624206917141670481e-03,6.311942626641658949e-02,7.376496203649309837e-03,1.600008606910705566e-01
-4.516158940411609812e-01,-4.282932290602172731e-01,-4.328827892564904856e-01,-6.039188402348428034e-04,1.371932717239961674e-04,-4.822491118695425706e-04,2.144337445497512817e-02
-4.229832398204100286e-01,-4.786823541656499148e-01,-3.827432324346820569e-01,-2.183786638101884760e-03,4.143754436091346555e-02,1.842051475408628411e-03,1.101756691932678223e-01
-4.870108303066184030e-01,-4.465905029163395046e-01,-3.972252732743902781e-01,7.215569561575492508e-03,1.294617446200549069e-02,3.465974107940676674e-02,1.016316115856170654e-01
-4.372867697208145388e-01,-4.037996322713808817e-01,-3.946390060445071346e-01,4.176089382456527402e-03,2.522596409431174507e-03,3.796466440501424476e-03,4.033258929848670959e-02
-4.059249228271130661e-01,-4.409125555819544129e-01,-4.097285942035721606e-01,1.120264874859489045e-03,1.884123893302719691e-03,1.193209138689196609e-03,3.352919593453407288e-02
-3.611796040292326038e-01,-4.271160897105388266e-01,-3.519193290377659600e-01,5.171626101214472221e-02,9.647388972854685496e-02,4.044455274479153567e-02,2.142349183559417725e-01
-4.374507566815605264e-01,-3.729845863089101821e-01,-3.610332522536675581e-01,2.969197456021352433e-03,4.644567629376335390e-03,3.936345739958764522e-02,9.903932362794876099e-02
-4.901989885455398932e-01,-4.274629430713344780e-01,-3.141815550650846611e-01,1.435913583885901033e-02,3.425515478025559224e-02,7.740162022536839492e-02,2.144461274147033691e-01
-5.113174279146546208e-01,-3.699997748943669729e-01,-4.101549601274709356e-01,3.257076858229688426e-02,1.422621043527944225e-02,1.024733877008273120e-01,2.262754738330841064e-01
-4.611052130478764388e-01,-4.062746095385557643e-01,-4.385695712719532291e-01,-3.604752962218384961e-03,-2.613657556417845092e-03,1.383790564338203619e-02,5.396801605820655823e-02
-4.507353325291373891e-01,-4.398177574593745698e-01,-4.112453463830691436e-01,2.924340746133415048e-02,3.803723310741700947e-02,4.217636498887984003e-02,1.161467954516410828e-01
-4.481343199590714366e-01,-3.847105022693485532e-01,-4.153306204068378249e-01,2.290022664248287081e-03,1.043142828574586574e-02,1.244358530103089125e-02,6.184523180127143860e-02
-4.628674841129286621e-01,-4.034694470117578535e-01,-4.246774848249211254e-01,7.958604806541093660e-03,5.957130353044723381e-03,1.784108036404317976e-02,6.300464272499084473e-02
-4.469280867423242598e-01,-4.066013422811053379e-01,-4.041598978039829815e-01,7.782777573873037903e-03,6.551509600975330763e-03,1.549603820147216725e-02,5.255022272467613220e-02
-4.259581897335910083e-01,-4.676170470310610505e-01,-4.703582847089461394e-01,-2.817667132995675672e-02,-3.904759443861472584e-02,1.078914962715251877e-02,9.571994096040725708e-02
-4.376893610265453760e-01,-4.292267103116644278e-01,-4.309745528480527499e-01,2.996573853343309523e-04,-3.092415416580284859e-03,-5.243236895631484852e-04,9.469068609178066254e-03
-4.548089969646540998e-01,-4.293421827666394353e-01,-3.786809819282512257e-01,7.240157146953253055e-03,1.817338086497864366e-02,3.411698390265070074e-02,9.563093632459640503e-02
-4.327022311957806067e-01,-4.527810724068319637e-01,-4.329168534040029326e-01,9.688557404383775148e-03,-2.990588788244930019e-02,-2.076443059586064940e-02,6.824274361133575439e-02
-4.426046971708212374e-01,-4.527969656827877665e-01,-4.329294960961236893e-01,7.210580827963817586e-03,-9.341316407999978103e-03,-5.446110962658356341e-03,2.833447419106960297e-02
-4.385184630571431486e-01,-4.540236665843294106e-01,-4.322346618568463916e-01,7.177377992501305509e-03,-7.589240564916331297e-03,-7.003954258495721959e-03,2.918611280620098114e-02
-4.498839927638083602e-01,-4.369844465762469654e-01,-4.357740228386214332e-01,5.501779255218022975e-03,-5.153014893828194651e-03,-7.746693423363369344e-03,2.310801856219768524e-02
-4.300589304930527712e-01,-4.248036423278496176e-01,-4.245580874838416618e-01,1.055844932988144434e-02,-1.527076039850350925e-02,-1.048360663920320547e-02,3.731913492083549500e-02
-4.223609170156694681e-01,-4.106141184001449451e-01,-4.298806941058563313e-01,1.596375452328805886e-02,-1.360333053113988062e-02,-1.372523784496844021e-02,4.655846208333969116e-02
-4.219518876190164192e-01,-3.976372416928373732e-01,-4.129468425791189556e-01,1.488710962010046657e-02,-1.167443998147247100e-02,-1.793309820145181505e-02,4.991875588893890381e-02
-4.425684890222650325e-01,-4.159397609767085391e-01,-4.302798610854792760e-01,4.201517852135839420e-03,-7.146862606104667677e-03,-6.038953188940855699e-03,2.912845835089683533e-02
-4.358060056236535140e-01,-4.408491046816063741e-01,-4.172174737406462719e-01,5.863982829521286085e-03,-6.848056041231660382e-03,-2.384152340693090118e-03,2.693713456392288208e-02
-4.320760274748220997e-01,-4.467386344119843034e-01,-4.214797870039747041e-01,4.038895543515293347e-03,-6.715487050651224553e-03,-5.349388817729730343e-03,2.743574418127536774e-02
-4.410998655228288712e-01,-4.313150637059161574e-01,-4.339084889573442960e-01,5.240854648700918154e-03,-4.230353320227453993e-03,-4.618466291335577081e-03,1.664842665195465088e-02
-4.410541606566332207e-01,-4.497639670455249594e-01,-4.311711333705577909e-01,5.148152610210750442e-03,-6.521381297053224606e-03,-6.438157949344739013e-03,2.431171573698520660e-02
-4.374013928094730441e-01,-4.506273789003383823e-01,-4.335164869339727112e-01,4.269834647992021281e-03,-4.900243381425262341e-03,-3.314534961135139849e-03,2.002725563943386078e-02
-4.342228825921719548e-01,-4.095585050397151372e-01,-5.364479590449031665e-01,8.709906509879078440e-02,-8.435354606453704038e-03,-1.677671678615373640e-02,1.933809667825698853e-01
-4.755087386825990747e-01,-3.815822947362826900e-01,-5.018923999741851105e-01,2.217544750323704322e-02,-1.410859586875127733e-02,-2.255845792773131589e-02,1.248817816376686096e-01
-4.400495813640147857e-01,-3.688242873239165887e-01,-4.873927140228475618e-01,6.443204218746870215e-02,-1.220220308884435202e-02,-2.945379610105873860e-02,1.618337631225585938e-01
-4.330428776679616232e-01,-4.996886264853553361e-01,-4.162807700839277203e-01,3.792449828338209910e-03,4.334568967091127073e-02,1.192031069933050490e-02,1.092964932322502136e-01
-4.125856493746047904e-01,-4.583825373164089889e-01,-4.262306707308627929e-01,8.629014232941423918e-03,1.630440288034987542e-02,8.103759475302622223e-03,5.363333970308303833e-02
-4.399650452312614535e-01,-4.226119910039292105e-01,-3.662061772356134393e-01,2.442058203153738699e-02,3.541062933347163821e-02,3.642732721040886634e-02,1.182930245995521545e-01
-3.565218892442151288e-01,-4.359587090706493195e-01,-3.885357944305068978e-01,3.288268735569861018e-02,6.898647121984151365e-02,3.339275888172209966e-02,1.601825803518295288e-01
-4.326470837824551441e-01,-4.298954827384792732e-01,-3.072952443993477445e-01,9.786116861154731811e-03,4.132468824183797157e-02,2.896342443667068722e-02,1.526527702808380127e-01
-4.017275242219341402e-01,-4.421168678442576327e-01,-3.673504561076048058e-01,-1.311115770709351169e-04,1.372323966880123654e-02,2.950964831199081825e-04,6.904233247041702271e-02
-3.815714856249854958e-01,-4.271795188857009373e-01,-3.780053821256390001e-01,2.536517220070380260e-02,4.078007183627859605e-02,2.391203050642968370e-02,1.043552905321121216e-01
-4.230296129366217794e-01,-4.555370829521403486e-01,-4.070675627654832263e-01,9.095570846462024475e-03,1.495116229097760187e-02,8.899269593810458720e-03,5.465161800384521484e-02
-4.452788896905631733e-01,-4.373278808971869380e-01,-4.252133668881232231e-01,1.127217522047595580e-02,1.311630553273224718e-02,1.401602910352520333e-02,4.234321787953376770e-02
-4.685983397257487693e-01,-4.659047069186491585e-01,-3.823942308924458966e-01,5.082459726341188172e-02,8.273191501589222119e-02,8.284394478640579040e-02,2.368093878030776978e-01
-4.351015177845706239e-01,-4.384409224325413468e-01,-3.630845568713330640e-01,1.247284539986199745e-02,3.467353887199188522e-02,1.782171525095786399e-02,1.022956818342208862e-01
-4.348198247135757200e-01,-4.305939516993060878e-01,-3.377262967160218898e-01,2.193579480572658072e-02,4.609872958997503906e-02,4.120856553681428308e-02,1.481484323740005493e-01
-3.777590459444223336e-01,-3.537272131152405241e-01,-4.437222457904246298e-01,4.120392773428573768e-02,6.395163094473780077e-03,8.392715233552176107e-03,1.092757433652877808e-01
-3.675983157054730777e-01,-3.922855719530048968e-01,-4.472074218712119298e-01,3.331431340768020027e-02,2.178984970042461850e-03,7.046842294374822471e-03,9.205698221921920776e-02
-4.516941928471402412e-01,-4.519572812396183692e-01,-5.483808002303346418e-01,9.347026898844401632e-02,3.162109500386790784e-02,3.281954692951478264e-02,2.043625563383102417e-01
-3.780295911604060199e-01,-4.034869353231321787e-01,-4.589257009528092679e-01,2.872871952947684410e-02,2.203435414659227903e-02,1.032173359987698796e-02,9.687635302543640137e-02
-4.487524205738881444e-01,-4.529691176002241804e-01,-4.576897100340776570e-01,-2.265489130786767225e-02,-1.407856888851453589e-02,9.721693262559224363e-03,4.977805167436599731e-02
-4.568556150967814089e-01,-4.731955988167939609e-01,-4.575725944454931415e-01,-1.569141383804892667e-02,-2.148546752019455872e-02,9.677494159504638691e-03,5.157802626490592957e-02
-4.302648357423310976e-01,-4.222331787084480648e-01,-4.203042491962827309e-01,-4.479277169081489519e-03,-4.252379673680732435e-03,5.967793697551545054e-03,1.746437698602676392e-02
-4.611345735392834433e-01,-4.324299147684012579e-01,-4.134646129918253532e-01,-7.176686121045087845e-03,-8.896111064204192259e-03,1.772058173745647697e-02,5.533558130264282227e-02
-4.896449327671752449e-01,-4.667307780039633425e-01,-4.499667849136058662e-01,2.891235522193895402e-02,-3.537632452741364814e-02,-3.501389614267937794e-02,1.055005565285682678e-01
-4.375341534134799537e-01,-4.460963465104725856e-01,-4.287760665882108246e-01,7.850675052120952187e-04,-1.724973818708724167e-03,-2.885868617469556589e-04,1.536323875188827515e-02
-4.342016203367035088e-01,-4.415648946688638943e-01,-4.277048252471131740e-01,8.462274827202940358e-04,-6.347181637476901478e-04,-1.677833746719716761e-03,1.249264273792505264e-02
-5.407457034598445178e-01,-3.613729956891329476e-01,-4.796555030207844128e-01,-3.230850391330966718e-03,-1.870438727464358852e-02,8.058535635173119660e-02,2.133343517780303955e-01
-4.172537536857792162e-01,-4.245150504639872424e-01,-4.542703856359003867e-01,-4.459913937833202141e-02,-3.698251163867093128e-02,1.551564388388725936e-02,1.093011572957038879e-01
-4.815895482826031415e-01,-4.640139481737702853e-01,-4.655329642379559263e-01,-4.398529318581579500e-02,-6.513507693013244337e-02,2.074852820518569355e-02,1.418022215366363525e-01
-4.340455989230591616e-01,-4.088379084338100156e-01,-4.209350607919785103e-01,-1.126499851926398947e-02,1.077357082539056807e-02,-1.666130148684875217e-02,4.515013098716735840e-02
-4.886846701764920864e-01,-4.692826691633130154e-01,-4.727049401959971808e-01,-3.484722665179280920e-02,2.829617323182412325e-02,-4.964022071145402643e-02,1.172996684908866882e-01
-4.417437035015777669e-01,-4.297643489288627827e-01,-4.421397232780321929e-01,-7.892345190877151154e-03,4.318217849857382447e-03,-8.032161918401576478e-03,2.418183349072933197e-02
-4.993814175613705553e-01,-4.947409692907917544e-01,-4.905228420410247536e-01,-5.282647071623586960e-02,1.367737128483222792e-02,-4.869136742464127282e-02,1.269037723541259766e-01
-3.296306033785147971e-01,-3.440737941810139144e-01,-4.399298060106404118e-01,1.059243393980620063e-01,5.315544889299177872e-02,5.263058626458563122e-02,2.474424839019775391e-01
-3.655675626152526947e-01,-4.271877355662391795e-01,-4.747370904282884885e-01,4.149052242042959582e-02,5.299098967719930581e-03,5.157358579246297536e-03,1.196512132883071899e-01
-3.470011202481427248e-01,-3.966621318162266707e-01,-4.588953897292616935e-01,7.108003146559206675e-02,2.207371663891486563e-02,8.873772564564541207e-03,1.621260344982147217e-01
-3.794623596566844004e-01,-4.542855204600839136e-01,-5.058364805149727639e-01,7.984182703453245045e-02,2.551624642878448992e-02,-6.476129262885626202e-03,1.825278699398040771e-01
-3.103179356777105435e-01,-4.176392164164093868e-01,-3.731914624257256508e-01,3.024709459455599686e-02,5.907610240119897521e-02,2.846923773078189474e-02,1.561069488525390625e-01
-3.624711778554976505e-01,-4.086344490003946395e-01,-3.864741094719918446e-01,3.555838432853920816e-02,4.306819400094391570e-02,3.433723505923887143e-02,1.203913465142250061e-01
-3.881326255516587276e-01,-4.359258781415157324e-01,-4.368970751958533572e-01,1.671446028576021106e-02,1.597842770087834485e-02,1.095711493558171150e-02,6.554219871759414673e-02
-3.733585781546664983e-01,-4.349827516622251089e-01,-3.947333224286838638e-01,1.538230975447681288e-02,2.776211827087023826e-02,1.563009551525280233e-02,8.180567622184753418e-02
-4.220333566501933698e-01,-4.241259101859567449e-01,-4.618804672059498850e-01,4.188886271701413450e-02,1.860792377114068100e-02,1.433201760852009961e-02,9.180307388305664062e-02
-4.409298621573057853e-01,-4.276587158909462838e-01,-4.236419771539801649e-01,-7.524171034035583017e-03,-5.035113966212224727e-03,6.955073259497202356e-03,2.523053623735904694e-02
-3.934394854933686014e-01,-4.662769700925367689e-01,-4.350314398169588537e-01,-1.504020859856814883e-03,6.307620563513229028e-03,-4.770597305972636235e-04,6.428501754999160767e-02
-3.765039619431625462e-01,-4.384689223165484928e-01,-3.396291649800113888e-01,-2.469283478215360175e-03,4.622966209603931315e-02,-6.765892600083459399e-03,1.185391098260879517e-01
-4.070683521042506303e-01,-4.422815968450257151e-01,-3.597580208581995231e-01,2.393472771482849787e-02,4.012434351425525625e-02,3.296242526844910675e-02,1.222794204950332642e-01
-4.376267028922889990e-01,-5.144939138409255763e-01,-4.421938064175116034e-01,7.528046947040328146e-03,5.572958261138165337e-02,-8.320281485179747624e-03,1.235856860876083374e-01
-4.499307230225425003e-01,-4.255338868953709164e-01,-4.305039265342970323e-01,-2.878656650903142528e-04,1.252030884408930752e-03,-2.560154056049900213e-03,2.287505567073822021e-02
-3.338482661823413689e-01,-3.996716235530119454e-01,-3.677550043574951411e-01,7.791201162417248083e-02,8.885258228535905523e-02,5.000183723318708112e-02,2.294477373361587524e-01
-4.608091512772903298e-01,-3.534883265175886580e-01,-4.460809917606741171e-01,2.160067073374649562e-03,-1.699201456348817686e-03,9.494991791732855860e-03,1.022113710641860962e-01
-4.645990086155541987e-01,-4.386281921863546263e-01,-4.357808221244786062e-01,2.668934876444640798e-03,-6.883673890998061665e-03,-1.792997279603304739e-02,4.341100901365280151e-02
-3.591252154146707953e-01,-4.182019602072564179e-01,-4.112497991652080409e-01,2.462302608176496904e-02,3.551382328968970964e-02,2.202319488514352733e-02,1.009223535656929016e-01
-3.812650111681148979e-01,-4.524310009219444373e-01,-4.359205622749956488e-01,2.093624484820610573e-02,2.741636963553887099e-02,7.884772782535659497e-03,8.898691087961196899e-02
-4.337522125765838066e-01,-4.394486007317369713e-01,-4.570811191063158252e-01,-9.168039837833140762e-03,3.807908962950011869e-03,-4.738777645897308301e-03,2.840464003384113312e-02
-4.361203448345850608e-01,-4.394180063019991755e-01,-4.493996751911019660e-01,-6.454755890622618578e-03,4.290646130748957190e-03,-7.201016278369444870e-03,2.189084142446517944e-02
-4.277745666191880569e-01,-4.242039316121524739e-01,-4.359807345839165627e-01,-5.701427332327264896e-03,3.980646991711547095e-03,-4.885113583739589607e-03,1.805658638477325439e-02
-4.417560203263379282e-01,-4.205699357206846289e-01,-4.255723464077385554e-01,-3.515328787586111635e-03,3.594895918054298242e-03,-6.698882051043681188e-03,2.404912188649177551e-02
-4.383477204827531115e-01,-4.386090162241585433e-01,-4.353616133864427473e-01,-4.874520893973844846e-03,5.276159160525997760e-03,-6.062065243609943144e-03,1.657732576131820679e-02
-4.907562141903657471e-01,-4.599107853097287868e-01,-4.503016257265012867e-01,-1.322918738523968032e-02,1.164825829819665648e-02,-4.030338877988486751e-02,8.453013747930526733e-02
-4.349349429176574966e-01,-4.358362316604573183e-01,-4.391017622576982582e-01,-4.191380652512862078e-03,4.757317655318446699e-03,-5.489485537523878383e-03,1.501405239105224609e-02
-4.385355960348268911e-01,-4.390610736776766609e-01,-4.299233905565384428e-01,-8.502461413048304981e-03,8.323642990084267196e-03,-7.408901229223808192e-03,2.585288882255554199e-02
-3.949337979654783948e-01,-4.598928156333301209e-01,-4.620947605237769040e-01,-2.325995234394898775e-02,2.068186662825142672e-02,-2.356751881564169218e-02,9.455230087041854858e-02
-4.509711679981356913e-01,-4.181515785823525788e-01,-4.040512080705735420e-01,-1.168428986602519648e-02,8.041621397925432721e-03,-2.425010863565562474e-02,6.408189237117767334e-02
-4.870286715532620714e-01,-4.763804104297768571e-01,-4.767456377432668368e-01,-4.323564553055338211e-02,2.999743593948299078e-02,-3.586382767118152792e-02,1.107960939407348633e-01
-3.690494669798424776e-01,-3.052551568100714818e-01,-4.225120552647839700e-01,5.979746317880291900e-02,-1.810414482294485806e-03,-5.950856385001050165e-03,1.455398648977279663e-01
-4.466176992271860269e-01,-4.139327503655627627e-01,-4.615065245997437837e-01,2.319640172005058357e-02,-1.709825898190456619e-02,-1.779259087031154901e-02,7.223311811685562134e-02
-4.292085698437032026e-01,-3.730411554354856607e-01,-4.424134337521141713e-01,3.222336823731077049e-02,-1.335566874119483577e-02,-1.234459290721610231e-02,9.043315052986145020e-02
-4.288946992247522627e-01,-3.895713534192404293e-01,-4.823180767525423462e-01,8.540805255552950948e-02,-2.827957902857653957e-03,-3.858141937680821705e-03,1.686814278364181519e-01
-4.364205401561987996e-01,-4.251222772582020637e-01,-4.326327204138040727e-01,-4.240469652785681595e-03,4.995002656484204794e-03,-4.281929928951874048e-03,1.682266965508460999e-02
-2.466163853807050166e-01,-4.237032994722923496e-01,-2.957102893440126667e-01,3.913445411423879111e-02,1.380944181340702792e-01,3.154650273239732045e-02,2.997771799564361572e-01
-3.034584601423609973e-01,-4.974340295038859883e-01,-4.230467042532675137e-01,5.235030456485973566e-02,1.416586932544619259e-01,6.304788995805506169e-02,3.302710950374603271e-01
-2.365087303792722528e-01,-4.120570957786098276e-01,-3.583327620850060846e-01,6.871815708567698133e-02,1.137686576234599595e-01,4.111410163691067710e-02,2.869493067264556885e-01
-3.690281564406572290e-01,-4.712887369136813942e-01,-4.396581044908044467e-01,9.979362848610610903e-03,4.018897826796850870e-02,2.100032583958640498e-03,1.156745925545692444e-01
-3.505759554429542235e-01,-4.525705715428569587e-01,-4.419890915122021147e-01,7.775039274258573833e-04,9.009918502767480866e-03,-2.568508295781864875e-03,9.849242120981216431e-02
-2.304774860453847052e-01,-4.267573549855463999e-01,-3.588168399056040903e-01,4.463618186019441963e-02,1.066142230813881125e-01,2.547537832749728268e-02,2.680117189884185791e-01
-3.159618481364415699e-01,-4.446527916701141225e-01,-4.166496920192277464e-01,1.802706650658239540e-02,5.230606233834163982e-02,9.054466507185143440e-03,1.522183865308761597e-01
-4.054371914120115661e-01,-4.059240640162054548e-01,-4.495998339902942953e-01,1.226288823267427178e-02,4.496005587198123425e-03,5.053213012195540560e-03,5.017426609992980957e-02
-3.850362334209004311e-01,-4.100662535929293084e-01,-4.569065443230300172e-01,2.677311210697559674e-02,8.539803028825631442e-03,1.347766480726275695e-02,8.310868591070175171e-02
-4.426150878796415444e-01,-4.483633402501503995e-01,-4.316374973051685382e-01,4.909551430262179897e-03,-5.743098100816577609e-03,-4.009385707162537588e-03,2.088391780853271484e-02
-4.191563185581949624e-01,-4.285884658655072510e-01,-4.523055711315651650e-01,1.392661109287432995e-02,9.189883108830254957e-03,1.120494005092370279e-02,4.568408057093620300e-02
-3.996946994274006015e-01,-4.017275180110002619e-01,-4.310242665487273861e-01,8.018276317768212313e-03,9.161441965105045562e-03,8.287559380657337146e-03,3.965743258595466614e-02
-4.032265334669604129e-01,-4.031311143484044290e-01,-4.368735692229314682e-01,9.216136219201583740e-03,1.083542298455736526e-02,6.951641467232584810e-03,4.344363510608673096e-02
-4.126212799879305781e-01,-4.071660088057725280e-01,-4.112585566114175806e-01,7.582646440887108596e-02,4.560752725143908670e-02,6.162054006713178073e-02,1.868276000022888184e-01
-4.308930158495846152e-01,-4.492195152154220272e-01,-4.628588490259030186e-01,-2.098658204681265460e-02,-2.457665068343856465e-02,2.527617162656201413e-02,7.630106806755065918e-02
-4.651266197745607678e-01,-3.924552876570938653e-01,-4.533722080703945778e-01,-2.271586898598726423e-02,-6.027856644212365583e-03,2.212485532374545288e-02,8.769632130861282349e-02
-5.589385468981011851e-01,-4.991656173967951582e-01,-3.654280803550589152e-01,-4.685012529649504494e-03,-1.686714518084267509e-03,7.363710867414896555e-02,2.139954864978790283e-01
-4.511557639574302891e-01,-3.343631377478707978e-01,-1.228342320781370678e-01,3.306969330123302273e-03,5.934153240131454649e-02,1.755785680644811331e-01,4.314748942852020264e-01
-4.598853111441879027e-01,-4.466200302664570798e-01,-4.154159055559933367e-01,3.177782022153379914e-03,-2.984287771307427613e-03,-3.964081972940806421e-03,4.083811119198799133e-02
-7.555682636960177057e-01,-5.877495776385770476e-01,-3.668832195700077459e-01,-3.320591165919214993e-02,-4.466854765339161974e-03,2.088268064605651730e-01,4.982009828090667725e-01
-4.831244029786170291e-01,-4.542481241419517035e-01,-3.254088874437630063e-01,-1.566270287728908570e-02,-1.232412775827972790e-02,7.480324694942266928e-02,1.978180408477783203e-01
-5.047087686237642368e-01,-4.765410287067627926e-01,-3.560620826366475700e-01,-4.729456229460628908e-02,-4.471987159048668864e-02,7.156536858773362986e-02,2.162798047065734863e-01
-6.860946993488953316e-01,-4.689888166168177941e-01,-3.486145862166430409e-01,-1.158782494994914543e-02,-2.184607756214877045e-02,1.783443971654869176e-01,4.301321208477020264e-01
-4.047512253164520790e-01,-4.180150728444344543e-01,-4.508556060211998950e-01,1.644977381979095474e-02,-4.264993489417165558e-03,1.077946779881212028e-04,5.056098103523254395e-02
-4.017314091437647061e-01,-4.243782258875428703e-01,-3.930590906169972865e-01,1.517550164053287076e-02,2.723585803457628449e-02,2.283291519014715026e-02,7.255878299474716187e-02
-4.832293027473891778e-01,-3.623457717372310927e-01,-5.101353450141974388e-01,8.342923153615666720e-02,2.462173914940644914e-02,5.555655904451387711e-02,2.248307168483734131e-01
-4.433451588837369894e-01,-4.113626909997655789e-01,-3.903469810707626553e-01,1.929451902762739993e-02,2.563710449662196661e-02,4.028668312336984580e-02,1.004706025123596191e-01
-4.348188288149495428e-01,-3.857584041824166921e-01,-4.541638612660225394e-01,3.135249156818598754e-02,1.057080623209624010e-02,1.920441346168594993e-02,9.011559933423995972e-02
-4.315645804219593873e-01,-3.592393343285650298e-01,-4.257464865754531647e-01,2.838760437462087630e-02,2.314459295792677812e-02,3.447241478652724594e-02,1.115061566233634949e-01
-5.198067576497374942e-01,-4.649334427658011748e-01,-3.952881013854139258e-01,2.328666047154471369e-02,4.442771462095895796e-02,8.579000976841504034e-02,2.032517492771148682e-01
-4.528476104912175781e-01,-4.355794881824206488e-01,-4.326615718292219359e-01,5.145125973368396693e-03,-5.207390550815531316e-03,-9.485509804513006168e-03,2.806744724512100220e-02
-4.498201443201320648e-01,-4.405689754715332862e-01,-4.292141065915126008e-01,4.454363932716648954e-03,-5.095502905332931036e-03,-8.705284361952619551e-03,2.615961432456970215e-02
-4.414583911332183308e-01,-4.464701765488774399e-01,-4.301223495623446302e-01,5.087020452438920787e-03,-5.967211150761400802e-03,-4.636696993996616833e-03,2.143339999020099640e-02
-4.725182204047090329e-01,-4.355267265042382374e-01,-4.253131375782940315e-01,1.624773516829882206e-02,-1.810848820784179136e-02,-2.608843020344486438e-02,7.528639584779739380e-02
-3.649636017664409371e-01,-3.623692743214141920e-01,-4.059218954453198691e-01,5.003625210495500630e-02,-2.993591832131761721e-02,-3.388439122566626327e-02,1.242351979017257690e-01
-4.302997958558410496e-01,-4.450622071754364306e-01,-4.352720604025062112e-01,-1.136790598323215128e-03,-4.383736776927924395e-04,5.063123453538547532e-04,1.320878602564334869e-02
-4.465298567294255783e-01,-3.952117210392811497e-01,-4.411864153188730375e-01,5.367016131757892418e-03,-6.389397895492714488e-03,-6.210136875918394889e-03,5.208140984177589417e-02
-4.409723920411639519e-01,-4.046899493714583573e-01,-4.423159609346465904e-01,1.289663595797863570e-02,-8.588276952319576218e-03,-1.201532761846561825e-02,5.020277202129364014e-02
-4.452772609557583139e-01,-4.745781416882426940e-01,-4.268799739476411004e-01,3.036908148423674448e-03,-1.422414379205699450e-02,-4.895868577824436137e-03,4.942281171679496765e-02
-4.486817058613986609e-01,-4.626492281453835065e-01,-4.256758630513520769e-01,1.767260160005957106e-02,-1.466468626590805568e-02,-2.725235914634459994e-02,6.968421489000320435e-02
-3.302772623242013483e-01,-4.049739387168415083e-01,-4.360336464097595566e-01,4.457804192071637694e-02,-5.816458977200319840e-03,-9.903850807422317007e-03,1.233763098716735840e-01
-4.254646856815965106e-01,-4.561113573517499575e-01,-4.248453412766091120e-01,1.536725610862270126e-03,-1.016583600979394965e-02,-4.198755649439498035e-03,3.644981235265731812e-02
-4.184272322412301848e-01,-5.005458936418737403e-01,-4.618553317462266161e-01,4.053132008106579733e-03,-3.391248146715461487e-02,-2.548934944137812297e-02,1.025270223617553711e-01
-4.401276408196239109e-01,-4.589745748761874800e-01,-4.182809607891019854e-01,2.125890629645449566e-03,-1.204453732573180884e-02,-9.203556231979107688e-03,4.412611946463584900e-02
-4.629795545110065302e-01,-4.295965587821372056e-01,-4.205452928955001335e-01,-4.666102006691142529e-03,-5.655762831349186483e-03,1.629910785802915485e-02,4.956582933664321899e-02
-4.479040832888472323e-01,-3.918045458717361318e-01,-4.418614971544954639e-01,-1.204490517331898575e-02,-1.011450550715484523e-02,1.800714099051536898e-02,6.752485036849975586e-02
-4.494946116390340363e-01,-3.861374095783025040e-01,-4.506243708479034105e-01,-1.148174426343208723e-02,-8.410648071485022498e-03,2.181827070121980863e-02,7.824838161468505859e-02
-4.508675502259826828e-01,-3.278780385704062605e-01,-4.207886255869188741e-01,1.852787554865183844e-02,8.506508820715396116e-03,4.596106426988387506e-02,1.411239057779312134e-01
-4.957485848992061461e-01,-3.270754882282120857e-01,-4.294258739901548050e-01,6.093223152371561591e-03,-1.375822159820385727e-02,7.043163579181814515e-02,1.929340660572052002e-01
-5.653260939439329613e-01,-4.463214953689949027e-01,-4.182511805992395471e-01,2.142476816025036968e-03,1.456490665458202126e-02,9.148189954056194784e-02,2.098750323057174683e-01
-5.397490191570364360e-01,-4.397804511643013670e-01,-4.148950888803902282e-01,2.564125403306040905e-03,-1.693345981740675479e-02,8.485631957106450074e-02,1.886332035064697266e-01
-4.684506375624820640e-01,-3.805952987098440987e-01,-4.021602069408232172e-01,7.213476438099290919e-04,4.984350244243409590e-03,2.892055576560665156e-02,9.420350939035415649e-02
-4.043016269618763259e-01,-4.279771697251156803e-01,-4.652132778849029648e-01,1.671720110811854287e-02,3.923419797457351060e-03,3.922119978024824274e-03,6.131368130445480347e-02
-3.752867228086159135e-01,-4.353251104269674765e-01,-4.571225604725693836e-01,1.390798118151723335e-02,-2.944569571812618268e-03,5.967102241170575650e-04,7.743252813816070557e-02
-3.775766501943565445e-01,-4.065589824694184617e-01,-4.435620958061785579e-01,9.507665579217526586e-03,-8.070807738755913802e-04,8.045377622496897169e-04,5.963828787207603455e-02
-3.834671238210938249e-01,-4.143746544366359585e-01,-4.540821521051141008e-01,8.200823468344333247e-03,5.248889728856710518e-04,3.711709564945935187e-03,6.327036023139953613e-02
-3.857280510983812638e-01,-2.974683277559544980e-01,-3.715581481103824024e-01,1.024608024231397213e-01,7.209457064291058259e-02,1.152799744616244682e-01,3.060978353023529053e-01
-4.131679190541565627e-01,-4.311489574003734004e-01,-4.656300907203878015e-01,1.621906809084018228e-02,-5.176992028256345232e-03,-4.619237377834697553e-03,5.537023767828941345e-02
-3.647023689594951490e-01,-4.326032571296232754e-01,-4.533124811337967963e-01,2.902625913336197988e-02,-9.060014054797639431e-04,-3.129804173062625998e-04,9.474125504493713379e-02
-3.850772692256243523e-01,-4.205340106370133446e-01,-5.325189120166424761e-01,1.020531694232836156e-01,-3.342564957098572397e-03,6.344128173166897582e-03,2.217368483543395996e-01
-4.358177036182948605e-01,-4.478347813492322693e-01,-4.407971996944857196e-01,3.840345391176895780e-03,-5.048422435454867803e-03,-7.092743450778580573e-03,1.951901800930500031e-02
-4.241203556100340832e-01,-4.341936171014639800e-01,-4.308820411445833942e-01,7.490035915606969505e-03,-3.149673148234335366e-03,-4.563101870551465947e-03,1.842844858765602112e-02
-4.194655088587194713e-01,-4.194158803299525839e-01,-4.286931838561632846e-01,7.815933273434728587e-03,-4.288752261877882069e-03,-4.533541293077255480e-03,1.963965408504009247e-02
-4.065818607307226662e-01,-4.261001902891685122e-01,-3.916846711354866617e-01,1.808484369463542185e-02,-3.688000083165644816e-02,-2.864190517714588699e-02,9.174052625894546509e-02
-4.334249615185952753e-01,-4.534553344591203961e-01,-4.327367974731909928e-01,4.255395882401249649e-03,-5.930881699219114726e-03,-1.604456111069572574e-03,2.414637990295886993e-02
-4.016796143627072158e-01,-4.064866680314505043e-01,-4.202908310440848227e-01,2.813172261919823572e-02,-2.757611044983414306e-02,-2.490471037320709374e-02,8.243943750858306885e-02
-3.958752449085163883e-01,-4.474278441256022143e-01,-3.664050495828628518e-01,9.026843012462931401e-03,2.984420246317852701e-02,1.056221738770258232e-02,9.108562022447586060e-02
-4.453773678904821010e-01,-4.197113742224380939e-01,-4.029944396031283627e-01,1.182308001784886618e-02,-1.540015138138432077e-02,-2.483312434506815616e-02,6.594055891036987305e-02
-4.352430689533978714e-01,-4.246287235427864126e-01,-4.233283633220434883e-01,4.688975135885491835e-03,-4.720008571636138094e-03,-4.842620449170027298e-03,1.820180192589759827e-02
-4.437991106574177835e-01,-4.191523700074449854e-01,-4.307797151120335011e-01,-8.785687595736401539e-03,8.463912233969476256e-03,-1.161189157302380814e-02,3.615338355302810669e-02
-3.181827711746643139e-01,-4.157294029529552404e-01,-3.672350366783141418e-01,-2.589536774795675456e-02,6.198213497039459924e-02,-1.491198094715934751e-02,1.460847556591033936e-01
-4.234957657891326721e-01,-4.306093943604948349e-01,-4.358974025911622752e-01,-2.557960734215639423e-02,4.128313037300510024e-02,-2.544546744419371939e-02,9.557425975799560547e-02
-4.394772640990725066e-01,-4.642574979183138884e-01,-4.454630319180530318e-01,-3.063569105566316467e-02,4.402626433621029817e-02,-1.925595902275939117e-02,1.012151613831520081e-01
-4.147943784558354441e-01,-4.377083898144291663e-01,-4.566395542581092037e-01,-1.052624172555993373e-02,6.458962141964967943e-03,-4.214210252964467433e-03,4.275591671466827393e-02
-4.443903762114048694e-01,-4.623042458647668718e-01,-4.033827843966677484e-01,-1.610157940034930707e-02,-2.355663567868204397e-02,2.337460679142561518e-02,8.257589489221572876e-02
-4.316937439340676752e-01,-4.446980869019875326e-01,-4.611307359340457435e-01,-6.962442669227420985e-03,-5.371820743598157248e-03,9.961852382259625202e-04,2.979620918631553650e-02
-4.426536245605404152e-01,-4.480946026467300669e-01,-4.491620884009911441e-01,-9.155016431450110209e-03,-5.847735021286313596e-03,6.202528849057881849e-03,2.249437756836414337e-02
-2.176758617660626560e-01,-3.156739635052823179e-01,-3.584895777748932089e-01,-1.073351862646642341e-01,-4.477140789726993808e-02,2.322701522561107859e-02,2.404726594686508179e-01
-5.732363494888291777e-01,-5.154615338414839654e-01,-5.914795002907572430e-01,-1.413333795506624413e-01,-1.196243079340034987e-01,2.559457735557374783e-02,3.309762477874755859e-01
-4.347697380359718533e-01,-4.485593237848758408e-01,-4.323955703755249513e-01,-2.732801934787423229e-03,-4.026268702077188434e-03,4.297139970324720046e-03,1.884042285382747650e-02
-4.244399040351167773e-01,-4.358722368200690367e-01,-4.426709703772101490e-01,-1.043280697057858558e-02,-1.146421240481982663e-02,1.115239971546379966e-02,3.672314435243606567e-02
-3.380238514935892669e-01,-2.648429723277950232e-01,-3.377157272221162354e-01,-6.171858558649217369e-02,-5.420876467233612384e-02,7.950014746724980153e-02,2.110382169485092163e-01
-4.473970343845525832e-01,-5.071351629694180740e-01,-4.926790819375310160e-01,-4.130526398761137641e-02,-3.317423189629564728e-02,1.678453817392678085e-02,1.103592738509178162e-01
-4.242850494915453852e-01,-4.362603580015580462e-01,-4.262714367536186155e-01,-4.020006002600293692e-03,-5.635581989840959816e-03,3.072711866748531126e-03,1.719452068209648132e-02
-4.271601169948342491e-01,-4.199620246919812949e-01,-4.189408612859152337e-01,-4.860026405895952195e-03,-4.552697025307975848e-03,6.734397582881346961e-03,1.814670115709304810e-02
-4.441481566443034046e-01,-4.479223621857784110e-01,-4.408149614477254175e-01,-1.941562134975428205e-02,-1.544052647237093359e-02,8.513992158108078454e-03,4.584242403507232666e-02
-4.359974270030285703e-01,-4.458800182472631435e-01,-4.455608524893392430e-01,-5.402971269225822527e-03,-5.638711453360638337e-03,5.635774642931004087e-03,1.930960081517696381e-02
-4.299140233080930851e-01,-4.385122762697778454e-01,-4.411850097465060405e-01,-3.204745215460499865e-03,-4.334883710735710181e-03,7.107912339145767110e-03,1.851503178477287292e-02
-4.326968098803381513e-01,-4.322507841950604668e-01,-4.394339739603564388e-01,-5.512758871830600316e-03,-5.175281840435296335e-03,3.710980804845105067e-03,1.616878435015678406e-02
-3.687721083539932665e-01,-4.612276898438194550e-01,-4.090723608191373373e-01,3.645200244548240515e-02,7.778754508289105474e-02,4.637597408410557009e-02,1.871825456619262695e-01
-3.971127934307719376e-01,-3.982461990191357160e-01,-4.467285577096772875e-01,1.822159768365287993e-02,6.741661836621451291e-03,4.076145094312715392e-03,5.990866944193840027e-02
-4.719345418772050715e-01,-4.536558978403439912e-01,-4.586311696619012057e-01,6.409850092298316482e-02,6.103187889619324236e-02,7.358694523231465445e-02,2.000339031219482422e-01
-4.241923039153720487e-01,-4.380208101263764475e-01,-4.097482473404120418e-01,1.024748032533048456e-02,1.026123085675388971e-02,9.542900333129308854e-03,3.877770155668258667e-02
-3.970753045103536660e-01,-3.952161770365149041e-01,-4.440862596378178928e-01,1.579250278607891023e-02,1.041492554637874976e-02,7.837316722224709278e-03,5.965549126267433167e-02
-3.919055389770359499e-01,-3.670456617086079176e-01,-4.388320156351861456e-01,3.562305480698655519e-02,1.724803845825862228e-02,1.390115559833355642e-02,9.625960141420364380e-02
-3.996615995076426842e-01,-4.055390366393310519e-01,-4.339554567162039467e-01,2.709898126364396198e-02,1.333143733232274031e-02,1.870257056527892259e-02,6.924346089363098145e-02
-3.714627131609091748e-01,-3.868905348283164791e-01,-4.278148886724492117e-01,4.065557711333034341e-02,4.412479139231646752e-02,3.045125432846215383e-02,1.269868165254592896e-01
-4.007017902671438647e-01,-3.720105369097682080e-01,-4.389372304659945323e-01,1.171674704051948145e-02,7.204386754474510768e-03,7.649279140077574904e-04,6.286072731018066406e-02
-3.769684515968481087e-01,-4.444894298602554694e-01,-4.667626520714198146e-01,3.187451291170544793e-02,3.623053266988379966e-03,-2.690115637772600549e-04,9.821730852127075195e-02
-3.955375206970147550e-01,-3.953439105523814390e-01,-4.426191006268101469e-01,1.580643152720417194e-02,1.691663696811712431e-03,-5.239043698015881725e-04,5.463301762938499451e-02
-4.006317558120960354e-01,-4.000689944518105445e-01,-4.592487345606425242e-01,2.179437600775600142e-02,1.949189345808092491e-03,5.872327273093769923e-03,7.077492028474807739e-02
-3.863674730011425473e-01,-4.105818167303313393e-01,-4.444888099505626688e-01,2.284087743252246824e-02,-8.591557295547270351e-03,-1.145762170149630145e-02,6.882911175489425659e-02
-4.578331301758978289e-01,-4.126907791463936825e-01,-5.608700053336919122e-01,9.720566634499852587e-02,-2.415954263298018042e-03,9.226465621581357232e-03,2.143023014068603516e-01
-3.624697648960443774e-01,-3.822360164606314892e-01,-4.393613018751875710e-01,4.009874951003639804e-02,1.786979665091872546e-02,1.784310467853962578e-02,1.073312759399414062e-01
-3.974023281295975818e-01,-3.596914606331953479e-01,-4.418496066957719459e-01,3.305667813674599553e-02,4.664561181530240720e-03,7.373941134730339041e-03,9.263069927692413330e-02
-3.954018880896479349e-01,-3.188291509998398277e-01,-4.405951667040270969e-01,5.935939422256353987e-02,1.393635964376513381e-02,1.661254089399467893e-02,1.527992039918899536e-01
-4.425628246656810871e-01,-4.344129907355468445e-01,-4.319884791702087723e-01,8.351761625308209156e-04,-2.979826647939453916e-03,-2.159574532483838748e-03,1.160945091396570206e-02
-4.043153621752279547e-01,-4.442322099703895355e-01,-3.952915321276528338e-01,3.559569995846198747e-03,6.806917390003473095e-03,1.269632108314210821e-03,4.708329960703849792e-02
-4.374217386939667773e-01,-4.418246060750144477e-01,-4.314683457464936200e-01,-4.711648226451960186e-03,1.791483927442864008e-03,-3.547109368703638913e-03,1.396471355110406876e-02
-4.355723001027583807e-01,-4.256430850736836469e-01,-4.373893820175294711e-01,-1.858048180114294087e-03,2.846008668094197717e-03,-1.438892559522320829e-03,1.268072798848152161e-02
-4.305073208615536329e-01,-4.402012525430671341e-01,-4.477022068775593500e-01,-1.470899464382300964e-03,-2.458486538404078010e-03,4.081410269803450140e-03,1.724955625832080841e-02
-4.207471403013413602e-01,-4.397252068122972091e-01,-4.441816007086972218e-01,-2.546772884401008689e-03,-1.740803950467476610e-03,3.730112789298904719e-03,2.312770485877990723e-02
-4.085466049191865956e-01,-4.268771105867235072e-01,-4.356898976763251552e-01,4.840921138171288413e-03,-3.238014582942363214e-03,-6.194390911360777782e-03,2.814400009810924530e-02
-4.074210130605774305e-01,-3.989443722938632586e-01,-4.487410612289656764e-01,5.756659763549081509e-03,-2.076887816062122742e-03,-4.495071761201327101e-05,4.734785109758377075e-02
-3.561060613459182123e-01,-3.913905809311320483e-01,-3.161072370214689231e-01,4.732429863401470954e-02,7.123712665240038155e-02,4.740719274789963883e-02,1.814979910850524902e-01
-4.223694042822898620e-01,-3.519687896049277787e-01,-4.465275356303886056e-01,1.630663775863756132e-02,6.180498812150962348e-03,3.707583644885647459e-03,9.052161127328872681e-02
-4.082518528874307662e-01,-4.478601796941594770e-01,-4.064417849941725502e-01,2.377182288253114339e-03,1.356899985880432149e-03,7.067899240961866012e-04,4.083827510476112366e-02
-3.978223863786714554e-01,-4.446573585805553841e-01,-4.054852797205987791e-01,3.111526640968128275e-03,4.592229718877295121e-03,3.943805855406518936e-03,4.508119821548461914e-02
-4.082396651459517800e-01,-4.352806678684369990e-01,-4.067294195469115525e-01,2.207698630007480772e-03,9.238929041553260724e-04,7.647394997205238156e-04,2.816508896648883820e-02
-4.010659767632212547e-01,-4.351011471231260308e-01,-3.960666116956568228e-01,4.182460753466398472e-03,5.178712177610806516e-03,2.294661564604753064e-03,3.875916823744773865e-02
-4.111414484269734215e-01,-4.079007918547848388e-01,-4.536028689057786667e-01,8.716032591449610067e-03,2.988097159778114673e-03,2.611585295142110439e-03,4.718296229839324951e-02
-4.096014270000705171e-01,-4.063623523475768939e-01,-4.487617689604402882e-01,1.459967704657194739e-03,2.352248554962822584e-03,1.069603294795760202e-03,4.119821637868881226e-02
-4.091875300393867931e-01,-4.075818233547725544e-01,-4.512279595821433453e-01,1.114762911199811612e-03,-1.527876599016822140e-05,-3.717454692204847722e-04,4.291414842009544373e-02
-3.932542649147738878e-01,-3.999097306755722281e-01,-4.441360015840925546e-01,7.803828561984157627e-03,1.293254598077702138e-03,1.543237835210412153e-03,4.989454895257949829e-02
-4.237838635183019953e-01,-4.428915071996213371e-01,-4.213496742725371114e-01,-1.910440617796280291e-03,7.274509439109311162e-04,-1.399451480364104087e-03,2.087944559752941132e-02
-4.211387945930801791e-01,-4.445401500761589908e-01,-4.157051132574213770e-01,-3.018863190706177514e-03,1.655270492334144075e-03,-1.137615936804685498e-03,2.727171964943408966e-02
-4.269819505809555604e-01,-4.563860892183946305e-01,-4.267723916578023413e-01,-4.112281143604630540e-03,4.895948869516234848e-03,-3.306248913966590691e-03,3.203508257865905762e-02
-4.180908820146627125e-01,-4.466909834987730643e-01,-4.087627074973450014e-01,-4.396418083538873763e-03,4.670087801766848075e-03,-7.660266485120287468e-04,3.601308539509773254e-02
-4.576001871964890388e-01,-4.424850961709718700e-01,-3.922035490164346716e-01,2.184326449303986267e-03,-2.082005117607274233e-03,-1.133628850217460217e-02,6.268621981143951416e-02
-4.666948619715900470e-01,-4.547265400020401027e-01,-3.971163599084860385e-01,-1.294338900466229705e-03,-2.203918957360117420e-03,-1.173968952449655490e-02,6.771063059568405151e-02
-4.503446038073014024e-01,-4.408142215212575432e-01,-3.286977317937106458e-01,1.879407146423884558e-03,-1.152397796114015133e-02,-7.876783125103434605e-03,1.196853443980216980e-01
-4.353215393653666054e-01,-4.214210328930758087e-01,-3.472241030823997043e-01,2.820420704893789737e-03,4.286745391320631940e-03,-1.527873788384682616e-02,8.665503561496734619e-02
-5.144038770286776252e-01,-4.916923939298666890e-01,-4.140720144682147330e-01,-3.914339990027826399e-03,-1.281626784509183083e-02,-3.750310697471172239e-02,1.142882034182548523e-01
-4.012749165179084754e-01,-4.068981205268092927e-01,-4.505633419341732449e-01,6.060781795649908266e-03,1.751549226695168961e-03,4.309377968694626769e-03,4.856877401471138000e-02
-4.013384158892581710e-01,-4.063655016342681559e-01,-4.461653689792351440e-01,2.152886215315999094e-03,1.219579992167859304e-03,7.125260541348476476e-04,4.276994615793228149e-02
-4.073625910315553655e-01,-4.459441561887348415e-01,-3.993886896252025198e-01,-8.055005593158920049e-04,4.765344770076900167e-03,-6.915964940006543446e-04,4.394624754786491394e-02
-4.017384017025585896e-01,-4.065098448324577785e-01,-4.471994382049161443e-01,2.116033801695820209e-03,1.127557188489671739e-03,9.031294948314670537e-04,4.350001737475395203e-02
-3.664221715315008066e-01,-2.895004350770239432e-01,-2.744687235085274679e-01,8.087517351816174427e-02,9.439050870728023235e-02,1.216729095186834669e-01,3.131503462791442871e-01
-4.857154856733080228e-01,-3.758357461852706027e-01,-3.976668791209665987e-01,2.830336055703366535e-02,1.067830717292589209e-02,9.116541695351437768e-02,1.944995522499084473e-01
-4.743867727027074044e-01,-4.420936890713873524e-01,-3.855983617488892290e-01,4.093116458891953025e-03,2.568772124555322636e-03,3.179687501017740975e-02,9.571914374828338623e-02
-4.622446105191527765e-01,-3.335436553663768122e-01,-3.231221726529243665e-01,-1.167246212802315955e-02,-6.817959537255150262e-03,9.766204760061782120e-02,2.171994894742965698e-01
-4.554442574526456067e-01,-4.335618224093852890e-01,-3.449565141707885418e-01,-6.864839343549963618e-04,-1.785634831247466612e-03,4.206976478725450719e-02,1.248567849397659302e-01
-4.630290120031202994e-01,-4.467540627809084564e-01,-3.436303775799862681e-01,2.659832971690597944e-02,3.626749366553349424e-02,5.512668768726667473e-02,1.666222214698791504e-01
-4.481945636601948890e-01,-4.699536403261407869e-01,-4.251688071893252041e-01,-3.736540365407071962e-02,5.628070819700630584e-02,-3.897347952475959526e-02,1.405436992645263672e-01
-2.967701924703720628e-01,-3.959785331365507921e-01,-2.716205806063418660e-01,-5.247305086168584098e-02,1.156669244289516979e-01,-4.612053030721696700e-02,2.602843344211578369e-01
-2.915961133798415372e-01,-5.496968943826832099e-01,-4.431826976457630130e-01,-3.254794354695075831e-02,1.368806848659330222e-01,6.745240800491643027e-03,3.316526114940643311e-01
-2.391294600669031933e-01,-4.465910342401799848e-01,-3.424836111317309806e-01,-2.271816742017524968e-02,1.118788649771644411e-01,-2.408568379362745551e-02,2.704065740108489990e-01
-3.901997689802552127e-01,-3.288838186482291315e-01,-4.347640636039026840e-01,5.771407601651046271e-02,1.615614416713842538e-02,2.600622148159547134e-02,1.458866000175476074e-01
-2.881462202401479100e-01,-5.148393353738124345e-01,-3.990233993291565362e-01,-6.038423039485722038e-02,1.042158536133037938e-01,-4.677599326589844397e-02,2.977146208286285400e-01
-3.860784422486899237e-01,-5.161979542064927262e-01,-4.950171350497606371e-01,-5.190009157599430323e-02,4.436787695350021682e-02,-1.532809448633592857e-02,1.712159812450408936e-01
-4.119536587841213793e-01,-4.522378425717344386e-01,-4.109791703699876564e-01,3.855262581880154662e-03,7.494558776494908425e-03,2.225940014655731960e-03,4.348540306091308594e-02
-3.933782794068251820e-01,-4.448296381595340243e-01,-4.026707296122892243e-01,1.390208405644067146e-03,5.177918742409001567e-03,9.083733524102856035e-04,4.841682314872741699e-02
-4.337307647847953862e-01,-4.300336138250254736e-01,-4.300873802992122852e-01,-7.641384658249193631e-04,3.622474735996394348e-04,-2.038207762950539764e-03,5.299178883433341980e-03
-4.429157507656614201e-01,-3.971242708737678373e-01,-4.165403776069332431e-01,2.175467165439108098e-03,5.526448068865363709e-03,5.112339394431539980e-03,4.205928370356559753e-02
-4.098450209185686144e-01,-4.476085300287457880e-01,-4.086959718354176707e-01,5.046791369975110568e-03,7.649096880192574402e-03,2.462244611737432563e-03,4.172432422637939453e-02
-4.465750175547366085e-01,-3.899537410638623802e-01,-4.590164558829949448e-01,-5.357476922164441067e-03,-2.590115282670185041e-03,-6.982872893461891705e-04,6.459802389144897461e-02
-4.674021200433829404e-01,-3.797158935633117016e-01,-4.756106337786438765e-01,-1.111047611970247644e-02,-5.150007262384568782e-03,-1.151619015566617677e-04,9.447731822729110718e-02
-4.682814371441275103e-01,-4.180572580976715247e-01,-4.754170065636892928e-01,-2.785704887513309677e-02,5.241490294534756518e-03,-6.662273067822840032e-03,7.399585098028182983e-02
-4.606482476345308830e-01,-3.763482725119356997e-01,-4.803305216383125797e-01,1.579578747513096446e-02,1.577453109321229189e-04,-1.227342632797305197e-03,9.952992945909500122e-02
-4.310076811243831463e-01,-3.503573266111059681e-01,-4.492150658474203251e-01,-2.589651855676818049e-02,-3.504136283871802510e-03,6.209235640589560144e-03,1.023172065615653992e-01
-4.437792367927915760e-01,-3.866406170456743729e-01,-4.665602732590527491e-01,-4.035735327632659908e-02,-4.022688979679841549e-03,1.001464260282497985e-02,1.015925556421279907e-01
-4.548142473253343754e-01,-3.774255856656155705e-01,-4.636092576701770218e-01,-3.007441755019678309e-03,2.493467430048599241e-03,1.286961567380452611e-03,8.244844526052474976e-02
-4.266208245064637139e-01,-3.808651763708166271e-01,-4.493136860944427213e-01,6.255689251009001819e-03,8.103339331590932865e-03,5.578589089189526541e-03,6.367595493793487549e-02
-4.142508005632465906e-01,-4.472100467337869478e-01,-3.816544259016799723e-01,-7.751679759050308319e-04,1.072844210685455421e-02,1.431522333514377967e-03,5.980331450700759888e-02
-4.551225554212086077e-01,-3.995372957706948003e-01,-4.634783062084779637e-01,-9.574208223914731225e-03,-1.244478927045282153e-03,-6.620094760755041840e-04,6.248962879180908203e-02
-4.487348375533055100e-01,-4.208598003702092583e-01,-4.000778404010552070e-01,-3.360055636462573863e-03,2.509981633519101866e-03,-2.314313554508024354e-02,5.871788039803504944e-02
-5.057889250007807647e-01,-4.713547241694849843e-01,-4.350319766349620698e-01,-3.459092422544325033e-03,-1.954773163859094970e-02,-4.645576899574520996e-02,1.068290844559669495e-01
-4.204799439990087317e-01,-4.335007448663791840e-01,-4.171949328883468033e-01,-3.508726203891926552e-03,5.335393744924630567e-03,-1.494009627012072390e-03,1.876525953412055969e-02
-4.626272363577716984e-01,-4.523147159835340103e-01,-4.087790268270599103e-01,-3.148889874099344757e-03,4.652687786027842609e-03,-1.922693437187422000e-02,6.045147776603698730e-02
-4.379722887444761903e-01,-4.278207303452936650e-01,-4.402370652764064918e-01,-8.457422885274323279e-04,1.513343463250198728e-03,-8.498903509762018331e-04,1.193137746304273605e-02
-4.501106382502722547e-01,-4.437756140272207661e-01,-3.799429314046209871e-01,-1.019792546328379505e-03,2.028547830848861921e-02,-2.995957429543624415e-02,9.192103147506713867e-02
-4.534280337428754359e-01,-4.088077051636803128e-01,-4.477631499380260172e-01,-3.244023205162915261e-03,6.258726976082424134e-03,-5.852202779437380015e-03,4.496806114912033081e-02
-3.996317950442058731e-01,-3.943737634859256769e-01,-2.346641538121026216e-01,-1.910286818622132510e-02,5.385181676791832989e-02,-4.030630698137128293e-02,2.025911509990692139e-01
-7.049972343301809108e-01,-6.276802704078722206e-01,-4.811030993966039504e-01,-7.806301166272819336e-02,-2.204300180797906517e-02,-1.015155650497521073e-01,2.990837693214416504e-01
-3.770973257909770449e-01,-4.280342175261165893e-01,-4.434286753077065768e-01,-4.111682086791797891e-03,4.077326137893881250e-03,-3.081958106017805630e-04,6.096374988555908203e-02
-5.133571279572737289e-01,-4.911017747464196948e-01,-4.780334451531101925e-01,-2.169244974937991309e-03,-7.874476768365952506e-03,-5.591757817113274937e-02,1.026517823338508606e-01
-4.655425767523008185e-01,-3.669228171377242331e-01,-3.656989157983546734e-01,-2.082944206391075873e-02,7.460304330900671514e-03,-8.127085599943417726e-02,1.764411479234695435e-01
-4.532292091777348486e-01,-4.264628996300522390e-01,-4.384599558418384446e-01,-6.640104188136067677e-04,3.178915656915968710e-03,-2.678341771663232760e-03,2.433942444622516632e-02
-3.121344399939124381e-01,-3.933412683002923682e-01,-4.011881524840121838e-01,9.365030397588659794e-02,8.477545246959422576e-02,5.240103810614891305e-02,2.517989575862884521e-01
-4.091307664222272322e-01,-4.273449467712802097e-01,-4.189584952137059282e-01,4.292533593735798660e-03,1.900233624147500047e-03,4.951123997944473568e-03,1.972277089953422546e-02
-4.334911541439262495e-01,-3.364180668826714515e-01,-4.251590682680679856e-01,2.519874758374162499e-02,1.678754077065111247e-02,3.584265410588464290e-02,1.236457452178001404e-01
-3.541588078589925082e-01,-3.761607552126496334e-01,-3.129675465067020546e-01,7.334725104658475214e-02,1.048869671416559901e-01,1.073326580077354486e-01,2.946035861968994141e-01
-3.298264612005136209e-01,-4.133970487245922643e-01,-3.357709584085464272e-01,1.297983593936699320e-01,1.436229458339971510e-01,1.508837261634943527e-01,4.327190518379211426e-01
-4.415332243199919238e-01,-4.331416074121036131e-01,-4.278127644705628785e-01,-2.753884510972294270e-03,-1.260491694312479340e-03,4.058146706300290766e-05,1.307885721325874329e-02
-4.112785470086141593e-01,-4.065452854915059255e-01,-4.484175592151507517e-01,1.604676219102478324e-03,1.042928038236022896e-03,-1.236707777953399213e-05,3.985583037137985229e-02
-4.286963782651094790e-01,-4.361740731983644315e-01,-4.362268175608568499e-01,-9.801681660070500233e-05,-2.888679336116726284e-05,-2.186359845062022661e-04,7.515839301049709320e-03
-4.496525963964125849e-01,-4.243947225716379612e-01,-4.606856121071060683e-01,-3.396712712574164253e-03,4.887680794247519465e-03,-2.724667176409190702e-03,3.416007757186889648e-02
-3.531523107562873909e-01,-4.347728510799075408e-01,-4.218438281749044561e-01,9.175855458220740987e-03,1.233719995137767984e-02,1.134653856069178443e-02,8.288086950778961182e-02
-4.811167889150263499e-01,-4.112680839934925170e-01,-4.774563466584100246e-01,-5.323370265679694185e-04,-6.844528962868047560e-04,-1.651040380355167994e-02,7.386879622936248779e-02
-5.224150723873715041e-01,-4.131566903328564577e-01,-5.036382672653240133e-01,-1.310133779155704843e-02,-6.981217442173439855e-03,-4.200335910058779904e-02,1.272494941949844360e-01
-3.813754013448195090e-01,-4.373596205395222647e-01,-4.550577036034365586e-01,2.635325759023430039e-02,1.891170489244797109e-02,1.022778763895426483e-02,8.892992138862609863e-02
-4.724967414764135731e-01,-3.619738680116730278e-01,-4.584719804604491800e-01,7.942688252772625579e-03,3.432793531196094011e-03,-2.846592760514067219e-02,1.162647008895874023e-01
-4.493241488312342269e-01,-4.261948165817893708e-01,-4.311538243313838836e-01,-9.988643409998413433e-04,1.445823077795588057e-03,-1.309434028265712199e-03,2.143052779138088226e-02
-4.587209519195939444e-01,-3.548022813738663239e-01,-4.220538638631924910e-01,-4.791587812320967908e-04,-2.778011810576160815e-03,2.007203342641379964e-02,9.780424833297729492e-02
-5.305426532004436924e-01,-2.718208981347666198e-01,-4.665552788247890326e-01,5.093263097165362518e-02,-2.772545612816269822e-02,-7.509831468454424008e-02,2.854543328285217285e-01
-5.102615132267758202e-01,-4.285042738548009988e-01,-4.602381287867414739e-01,-1.202860242678262942e-02,-8.201194703339397332e-03,-3.799985685523799006e-02,1.003225743770599365e-01
-4.410898009801250685e-01,-4.239156760992084383e-01,-4.033130543562873371e-01,-1.498718659781977242e-02,1.848255455175201734e-02,-1.955228260292291020e-02,6.260021775960922241e-02
-4.788214861443911285e-01,-4.145693198731263962e-01,-4.377529224862761192e-01,1.083949188603976210e-02,-1.393688015571832367e-03,-3.466107371864518560e-02,8.449085801839828491e-02
-4.544859955371867710e-01,-4.164828222496597676e-01,-4.005671067178112610e-01,2.401991400677426156e-03,1.033194592685573662e-04,4.773057712116529627e-03,4.886804521083831787e-02
-7.191895780257895332e-01,-4.184248384163823387e-01,-4.468515261635825908e-01,-6.748891759633321441e-02,-4.797985647092965766e-02,1.436319280791698294e-01,4.064217209815979004e-01
-4.589879458826688907e-01,-3.876330105699924422e-01,-4.019993957828473241e-01,-2.577118794615477354e-02,-3.643333881600557128e-02,5.548181682524869207e-02,1.395784020423889160e-01
-4.775230460679552591e-01,-4.794602022571305966e-01,-3.756206965813485565e-01,3.201851997545202282e-04,1.009967214591558134e-03,1.187066443447934959e-02,1.049349680542945862e-01
-4.512432385270006008e-01,-4.586598108637865989e-01,-2.941940034507551371e-01,-6.000709269637091394e-05,9.915841157741455206e-03,2.018535135205594064e-02,1.655341684818267822e-01
-4.273950470680763503e-01,-4.436552692878037996e-01,-4.341821319036403004e-01,-1.412174524174738752e-03,-1.090606112393654320e-03,3.073521476452079678e-03,1.542693842202425003e-02
-4.534445981847648466e-01,-4.530628069654955570e-01,-3.142174514950197839e-01,-1.448636324652552128e-03,-1.600516382140051638e-02,-9.123064580934193285e-03,1.426732987165451050e-01
-4.634518638153455883e-01,-4.609856234946012599e-01,-3.285933360999214181e-01,4.483910955620058693e-04,-6.255549682781050454e-03,-9.281947508133197439e-03,1.350436061620712280e-01
-4.154549249507273334e-01,-4.423437024047089383e-01,-4.137811140461110093e-01,-2.835040577918729191e-04,2.328747311783451422e-03,-2.424650671026356424e-03,2.837185002863407135e-02
-5.013171377473002455e-01,-4.960265166541648618e-01,-3.742516678966706922e-01,6.427333412935954879e-03,9.265031307961545115e-03,-2.754160738862957564e-02,1.347532719373703003e-01
-4.488097801314292479e-01,-4.425907747363196365e-01,-4.334698780480156222e-01,4.480865831077525917e-03,-6.230614769782752069e-03,-7.131295610139703686e-03,2.253557182848453522e-02
-4.388311520763598650e-01,-4.527556413584832296e-01,-4.322718671247398614e-01,2.551137583964119011e-03,-2.492934587718300277e-03,-2.534924618334643068e-03,1.963916793465614319e-02
-4.475781597169963266e-01,-3.768662725756819487e-01,-4.442896484174772564e-01,-1.811561678090228876e-03,2.197555180459135390e-03,-4.664123558817479323e-03,6.977136433124542236e-02
-4.327268478300949628e-01,-4.494657433164203075e-01,-4.298532867521558942e-01,4.975638862715721887e-03,-8.565140630021244109e-03,-6.928473399430757663e-03,2.783730067312717438e-02
-4.340674557635206265e-01,-4.458289466804601919e-01,-4.308595147580676077e-01,3.132499830724678677e-03,-5.243520442636429892e-03,-2.618748501533818551e-03,1.785632781684398651e-02
-4.540276222885794577e-01,-4.293000018655681593e-01,-4.552435289668071428e-01,-1.409573556471659453e-02,-8.308287724461705173e-03,1.229847810740229350e-02,4.358795657753944397e-02
-4.437971364622835257e-01,-4.148425551200059513e-01,-4.151209572839915651e-01,-1.371086913300777072e-05,-8.910586262157282715e-04,1.021456493599785624e-03,2.891188114881515503e-02
-4.412619296908693034e-01,-4.594773965929496717e-01,-4.275415746924985938e-01,1.583277412401543158e-03,-3.197786602185074146e-03,-3.629942455078097210e-04,2.843531593680381775e-02
-4.286272934672584745e-01,-4.400465430336304995e-01,-4.256516268741183384e-01,3.133119968523556242e-03,-3.191542678048323554e-03,-3.257198097970037242e-03,1.628093607723712921e-02
-4.231557717453954814e-01,-4.346493321290786915e-01,-4.530496736874333186e-01,-1.898146558639681033e-03,6.250386386275537951e-04,-1.006392562887497514e-03,2.640415355563163757e-02
-4.303926972711902832e-01,-4.457833399303611777e-01,-4.358975409016486169e-01,-1.265026662415358284e-03,-7.757497136245434122e-04,2.387472442876790437e-04,1.375606562942266464e-02
-4.311546972387746424e-01,-4.397923528597313392e-01,-4.287002575106104718e-01,1.577311170841257017e-03,-2.432008596721216970e-03,-2.712414276149787296e-03,1.221119519323110580e-02
-4.319231466434964029e-01,-4.497193023324073113e-01,-4.322759827732637339e-01,6.670479239637643705e-04,-1.867553946792265777e-03,-2.112609976544878483e-03,1.832310110330581665e-02
-4.298245239235706783e-01,-4.457197456744896868e-01,-4.330870804679829433e-01,1.534979773688332702e-03,-2.041084494189208086e-03,-2.764483338747980926e-03,1.593540050089359283e-02
-5.441836408852802620e-01,-4.877712370859251800e-01,-5.630070450911136559e-01,5.318233738863920729e-02,-1.316266346481962390e-01,-1.358657205861967532e-01,3.470429778099060059e-01
-4.062937123292605923e-01,-4.169270486435677214e-01,-4.307918514732242965e-01,2.071988897884053868e-03,1.202903944955275662e-03,7.556050111906013021e-03,2.532255463302135468e-02
-3.775093969956015982e-01,-3.816349272219256017e-01,-3.281000640855100126e-01,3.915229867247515400e-02,-8.125394468579988372e-02,-7.175792843362858997e-02,2.061918079853057861e-01
-4.360527614464033697e-01,-4.373230556627502597e-01,-4.276086871908128528e-01,-2.360862723741265584e-05,1.991122628295646855e-04,-6.518228064145763180e-04,9.221590124070644379e-03
-4.336262193505301399e-01,-4.532637978677254709e-01,-4.368988552610107434e-01,5.343166816521985113e-04,-2.557239333473861152e-03,-3.699504759136862473e-03,1.983965560793876648e-02
-4.302268597764959401e-01,-4.391793611802712327e-01,-4.328716802241888706e-01,1.819150924723217063e-04,-1.471534578753654846e-03,-3.106075078910250104e-03,9.950036182999610901e-03
-3.792231048956498096e-01,-3.404200789590474119e-01,-3.278414991294427705e-01,5.543058034548457857e-02,-6.588116200267356282e-02,-7.334791146272294504e-02,2.013215422630310059e-01
-4.067410995189962852e-01,-4.352575536868358852e-01,-4.185914121871167626e-01,3.942528262573701328e-03,-5.248139858548175017e-03,-3.062372711255674420e-03,2.780437096953392029e-02
-4.087313243318238531e-01,-4.938934140811847007e-01,-4.859760182417560692e-01,4.310060678170188342e-02,-5.352478017199004817e-02,-3.245272895966282156e-02,1.548167914152145386e-01
-4.605550771656551912e-01,-4.776785416840441112e-01,-4.193584821060561962e-01,3.046159378815240567e-03,-1.299641201512213851e-02,-1.067837835312262194e-02,5.976990610361099243e-02
-5.395555164111431878e-01,-5.108649325360323790e-01,-5.042669805525905602e-01,2.151281233166021933e-02,-5.422175843013957164e-02,-4.992086123744324949e-02,1.368965208530426025e-01
-4.205027283318097386e-01,-4.070501475569202610e-01,-4.018953386385186732e-01,5.788321594332489391e-03,3.052882760601138314e-03,4.549530795896982414e-03,2.162078768014907837e-02
-4.164371199342826180e-01,-4.149151254286440049e-01,-4.128713736212821783e-01,1.783844441503815636e-03,1.339177845245338987e-03,5.387819059471248310e-04,5.039972253143787384e-03
-4.093895907327377293e-01,-4.343223551011065608e-01,-3.489066279337191268e-01,1.333167057468036612e-02,1.887898782497973368e-02,8.829964135439688153e-03,8.731662482023239136e-02
-3.933684666998341628e-01,-4.271035686792710173e-01,-4.299774098744822970e-01,4.176938960666669309e-03,4.385764253366815704e-03,9.416557061704709797e-03,4.024083912372589111e-02
-4.241643588574404156e-01,-4.097069597809791519e-01,-4.104220242260737672e-01,1.235739484154310631e-03,3.182451437381184859e-03,9.489131105978278928e-04,1.539013255387544632e-02
-4.196015981243733650e-01,-4.158234373261726624e-01,-4.105562149762616020e-01,2.673744976834134014e-03,1.498662514373435553e-03,1.224841364738705118e-03,9.726456366479396820e-03
-4.013164565661693772e-01,-4.540133070300235718e-01,-4.342469297000665640e-01,-6.607379289974893086e-03,1.152530225030611553e-02,-3.906302245676365054e-03,5.197393149137496948e-02
-4.651509216421981230e-01,-4.430271806011054081e-01,-4.392444916979047487e-01,-5.191095199683045877e-03,5.113916915076554062e-03,-1.094712957065621835e-02,3.326069191098213196e-02
-4.229598921697728109e-01,-4.448163148399725819e-01,-4.380949867989691882e-01,-1.119362304270963074e-03,-1.914545327504179727e-03,3.879182714671856099e-03,2.087761461734771729e-02
-4.400416471984741618e-01,-4.318461357528121658e-01,-3.774910955085176711e-01,-8.773396815390813175e-03,1.468884791644870826e-02,-2.050870037258671272e-02,7.488076388835906982e-02
-4.534876547527411095e-01,-4.304403780986371664e-01,-4.104413906361961129e-01,1.551006682699327148e-03,1.567974851255422028e-03,-1.126290446190836639e-02,4.227541014552116394e-02
-4.505695044415293227e-01,-3.019724882388697407e-01,-4.201152481521215343e-01,1.233220496313235624e-02,2.286023499764812741e-03,4.339464435209718779e-02,1.568576991558074951e-01
-5.109833712969156228e-01,-7.634765542330987920e-01,-6.384526213277187390e-01,-1.122505545961436924e-01,1.573332333005634798e-01,-1.037803790880220817e-01,4.383936524391174316e-01
-4.430652298624822572e-01,-4.199936434682619568e-01,-4.032545784282812185e-01,-1.797363443232282863e-03,6.844245665364271378e-04,-1.023408068088104729e-02,3.903840854763984680e-02
-4.662577798361792203e-01,-4.408456204340677753e-01,-4.250274266996915684e-01,-1.877437041286669859e-03,-4.523208856658105480e-03,-1.429450528452162750e-02,4.452997446060180664e-02
-4.624940844193556888e-01,-4.302555129537888878e-01,-4.292811134614463175e-01,-3.755332705134352932e-03,-2.631276658642112739e-03,-1.240890954406832086e-02,3.995884954929351807e-02
-4.968388320578965289e-01,-4.515723538006935489e-01,-4.320454667246365621e-01,-8.429718087177080765e-03,-9.113817578794241453e-03,-6.408365068400702358e-02,1.268730610609054565e-01
-5.123360474044289514e-01,-7.414559518920178505e-01,-7.649161035810388976e-01,-1.750779937783563112e-01,5.852032087439226760e-02,-8.774312316821278324e-02,4.286593794822692871e-01
-4.312300510458083047e-01,-4.358668454627550037e-01,-4.556966457209109533e-01,-7.752695018667439975e-04,-4.838224765827532051e-04,1.318710446052910384e-03,2.268016524612903595e-02
-4.086865827928034545e-01,-4.033835945360271791e-01,-4.485325695778448751e-01,2.969242143613647859e-03,7.406411457341944594e-04,1.311015162581246219e-03,4.313210397958755493e-02
-4.201857519035663291e-01,-4.565256816922561578e-01,-4.201611429081898441e-01,-1.082473698435035747e-03,5.571539995584648678e-06,-1.645326147575351585e-03,3.651194274425506592e-02
-4.351945228153880074e-01,-4.423922978827828367e-01,-4.289526064116243043e-01,6.016431913156841194e-04,-3.391406065953630057e-04,-1.229954500488403225e-03,1.190238352864980698e-02
-4.384608160108400821e-01,-4.389517946487530020e-01,-4.321941641723709981e-01,1.092776285901348333e-03,-1.284622951027717319e-03,-1.925690723921554513e-03,7.889669388532638550e-03
-4.371151972010829945e-01,-4.399572007602004509e-01,-4.276170272988980003e-01,1.679945855535808826e-03,-6.051108064326013187e-04,-5.839122472200233317e-04,1.165650226175785065e-02
-4.276595003390515348e-01,-4.368893741384561880e-01,-4.370910769490487513e-01,-4.975626259546954162e-04,-5.259282130057434113e-04,7.558134452481780983e-04,9.506798349320888519e-03
-3.666223928136005950e-01,-4.596782413212722185e-01,-4.472734319900892874e-01,1.532254636085451493e-03,6.908905363493767111e-03,-1.870671494141823129e-03,8.842889964580535889e-02
-4.314902282954634627e-01,-4.515341685822608087e-01,-4.339001410073224374e-01,-1.435567849810285516e-03,-4.904593680956639227e-04,6.606656228000529077e-04,1.916968263685703278e-02
-4.474060444182539342e-01,-4.328529917650848491e-01,-4.013626189881540629e-01,-4.336032208815634136e-03,-1.005567953849354065e-03,4.717419171981884068e-03,4.228374361991882324e-02
-4.363064045027785776e-01,-4.385132833506353300e-01,-4.291027433688712200e-01,2.183471380820657215e-04,-6.007464655722728026e-05,-9.944760349259204428e-04,8.705254644155502319e-03
-5.480857232106017829e-01,-2.935655623166095740e-01,-6.484014521135664788e-01,-8.462463040342499410e-02,-4.867820226672748413e-03,-6.999829362688851642e-02,3.696356117725372314e-01
-3.812432365593606542e-01,-4.080084325658267508e-01,-4.262623102884227078e-01,7.367948823236256974e-03,8.982273394799135044e-03,1.103307296241644829e-02,4.804412648081779480e-02
-4.194816709182611070e-01,-4.110189730953444642e-01,-4.091183833993495833e-01,1.120948864304730300e-03,3.528412894244469140e-03,1.899934072150991820e-03,1.196919102221727371e-02
-4.315379148309818058e-01,-4.343771667834283035e-01,-4.292279087321008713e-01,-2.018739405404803774e-03,9.676809557340595525e-04,-1.489622415485393177e-03,6.453544832766056061e-03
-4.291467672945793455e-01,-4.481207580604989471e-01,-4.312101987547404813e-01,-5.096633436620996889e-03,2.684486425093254684e-03,-5.001942295464282921e-03,2.235449105501174927e-02
-4.404165769484315041e-01,-4.142927393521487200e-01,-4.283988171683551505e-01,-1.851591972366580571e-03,4.844154098009859598e-03,-5.393342110689352403e-03,2.609364874660968781e-02
-4.134033508063489348e-01,-4.371286547668345457e-01,-4.157660954719141211e-01,-9.868038500055165661e-04,4.838734035190852753e-03,-3.048082387265338422e-03,2.476791478693485260e-02
-4.768038515567427083e-01,-4.690344872288104705e-01,-5.004907566112103412e-01,4.031005247279109693e-02,-3.394061701503465339e-02,-3.926255966999844110e-02,1.173060461878776550e-01
-4.354705080039988907e-01,-4.354455462571285018e-01,-4.277746974758996346e-01,-5.887795845108314007e-05,2.191211507033691275e-04,-3.696420413932177879e-04,7.719998247921466827e-03
-4.067350342866786206e-01,-4.081821407621539222e-01,-4.460054260124045045e-01,-4.841202038456832732e-04,-1.209470300582139290e-03,9.553076718604885421e-04,3.866857662796974182e-02
-4.277497690106438766e-01,-4.374280335257416108e-01,-4.285653312152936656e-01,-3.952449132938080055e-03,2.120247054055983665e-03,-3.465967411645322783e-03,1.352151669561862946e-02
-4.224695335591925338e-01,-4.370580054173301421e-01,-4.256661088620255495e-01,-1.458792839806532680e-03,2.726001118340682337e-03,-3.305202396637773547e-03,1.542267855256795883e-02
-4.507379406852060066e-01,-4.056942874009816791e-01,-4.596259030771837617e-01,-8.093771104334511121e-03,7.199417062037097303e-03,-4.782262071345172623e-03,5.411935970187187195e-02
-5.271830768654155452e-01,-4.597065335740738723e-01,-5.176874383333359697e-01,-3.012440427513184138e-02,3.473900825436557899e-03,-3.936618750543303263e-02,1.068187803030014038e-01
-4.335327539135429564e-01,-4.433727630799165209e-01,-4.277546032739322213e-01,2.857385758372115152e-03,-2.908808473543561274e-03,-2.403413497915100720e-03,1.594604924321174622e-02
-4.360963836211642075e-01,-3.740571284779538597e-01,-4.410664426387059800e-01,-2.195970898861428558e-02,8.528630206359518601e-03,-1.472641848918944917e-02,8.060652017593383789e-02
-4.806652877927592993e-01,-4.245197314198313476e-01,-4.656133502077988706e-01,-2.343546776412904972e-02,1.765816193288171493e-02,-3.083429027379081325e-02,8.927004784345626831e-02
-4.381230765872149990e-01,-4.531804845555633676e-01,-4.248812260523026629e-01,2.799662591659578172e-03,-1.705826740745975756e-03,-8.245879160673231243e-04,2.521396055817604065e-02
-4.481129328569206649e-01,-4.369985567814724248e-01,-4.372834635786612689e-01,-6.781711567980373834e-03,6.032825562005156295e-03,-8.099945890176310156e-03,2.375775948166847229e-02
-3.589610108899647378e-01,-4.468951617202754356e-01,-4.582726697276904848e-01,8.056565461794817570e-03,1.531431185296151234e-03,-5.149342100003512961e-04,9.520971775054931641e-02
-4.447322384073474910e-01,-4.069403837599224749e-01,-4.421737965556248873e-01,-6.390706940364679692e-03,7.490137195613246965e-03,-5.924366813818640436e-03,4.164379835128784180e-02
-4.386097781396568474e-01,-4.291516902515207232e-01,-4.365152657338249864e-01,-6.914137575064932843e-04,3.781001876291706116e-05,-4.155410164570955719e-04,8.717155084013938904e-03
-4.410508697668209521e-01,-4.283850520632062620e-01,-4.343266326806254352e-01,-1.197341370512211610e-03,3.897279737101957834e-04,-3.831865141643269325e-04,1.121014636009931564e-02
-4.398965603715575545e-01,-4.277794229711646690e-01,-4.363088234526313336e-01,-1.205837515234446222e-03,1.843658046129818904e-03,-5.558120497310638144e-04,1.147649344056844711e-02
-4.489470562766231243e-01,-4.260900043586144936e-01,-4.279278545084274632e-01,2.796330436588098222e-03,-1.419126030164000792e-03,-1.681914749836819220e-03,2.284297160804271698e-02
-4.464969883395912276e-01,-4.305532581223172062e-01,-4.257935635956441311e-01,3.431925745208305820e-03,-7.180867268281685561e-04,-3.521400241206980330e-04,1.974836178123950958e-02
-4.328760666974815208e-01,-4.362699752797032371e-01,-4.328467315578407582e-01,-1.091981150326690799e-04,-2.900139379552997901e-04,-1.803676780345144772e-03,4.654769785702228546e-03
-4.475517826756829631e-01,-4.313295266657541371e-01,-4.273464199322131729e-01,2.477655863251504616e-03,-1.173680735710769946e-03,-1.297529136872624953e-03,1.926762424409389496e-02
-4.573847750069776619e-01,-3.510530073482877045e-01,-4.647891748817934987e-01,8.811674330959506246e-05,-6.858910698320681842e-04,3.283877789914291245e-03,1.103738173842430115e-01
-4.479060055806876606e-01,-4.353887746993547747e-01,-4.294158502212945261e-01,1.128203419923556362e-03,2.219966601037919062e-04,-3.699739667075181834e-04,1.647720858454704285e-02
-4.066369722775438067e-01,-3.765271891669006443e-01,-4.405701096299589614e-01,8.074496022893812297e-03,8.932007423059709281e-03,5.593885303729275067e-03,6.007150560617446899e-02
-4.170095073226083304e-01,-3.633103697409275634e-01,-4.311526646615516656e-01,1.626155783409579531e-02,1.152727676574058328e-02,6.944517192101517730e-03,7.197033613920211792e-02
-4.267720188870274822e-01,-4.324295426993222669e-01,-3.403913417634789051e-01,-4.140341803057113329e-02,-8.630233371603003578e-02,4.398780876703058118e-02,2.031603306531906128e-01
-4.116922885696426282e-01,-3.625270058740963641e-01,-4.119841286232161504e-01,1.339081401258378039e-02,1.650451954174093211e-02,1.368851315987380801e-02,6.594637036323547363e-02
-4.262930926368634355e-01,-3.745768105259763003e-01,-4.254421079967843911e-01,9.377326540689751716e-03,1.197433198785890704e-02,7.858480922477130426e-03,5.924957245588302612e-02
-4.094793518203612148e-01,-3.870757972047496054e-01,-4.329532852527848141e-01,6.823308098341741151e-03,8.697880567843587971e-03,4.683167707529767645e-03,4.484721273183822632e-02
-4.383141177029882818e-01,-4.419979791821425086e-01,-4.281485580526858681e-01,5.424062695717480048e-04,-9.717938748270251500e-04,-1.041309729684532226e-03,1.270144432783126831e-02
-2.746161330345007756e-01,-5.051697620126724964e-01,-4.892938339326661223e-01,-2.262918801405807562e-02,-1.671590048206246515e-02,2.040695840581199620e-03,2.283281981945037842e-01
-3.165671210646441303e-01,-4.609923923442897920e-01,-4.633057745917465442e-01,2.474208788187356317e-02,-4.203878142613287801e-03,-8.628444385243018780e-03,1.526794135570526123e-01
-3.449599395401831137e-01,-4.921003961446900332e-01,-4.988757675799777580e-01,-5.532617854505489027e-03,-1.139372569708041981e-02,-1.213926063916335833e-02,1.536766588687896729e-01
-3.597974091149004350e-01,-4.701904763338992099e-01,-4.654615704229280726e-01,-2.637365535439210353e-03,-7.147070109143257091e-03,2.064281453628755061e-03,1.089671775698661804e-01
-4.148299265634377009e-01,-4.175907953123573213e-01,-4.128289687410435782e-01,1.166268554642697474e-03,4.881978664932531270e-04,1.132809570525594028e-03,5.078970454633235931e-03
-4.196167772618610292e-01,-4.186468914101496019e-01,-4.182658377212740697e-01,2.933048774239348146e-03,1.942363706201469817e-03,2.376370605947561703e-03,7.451410870999097824e-03
-4.123247499118162240e-01,-4.127942196069393499e-01,-4.135200101312830889e-01,2.722644488035498057e-04,1.549278992677557412e-03,1.176161270880963280e-03,3.558251773938536644e-03
-5.694949552670209858e-01,-7.387704655512022933e-01,-5.082250048087302297e-01,-9.343441541315039567e-02,1.425285531805001449e-01,-1.088559564725238987e-01,4.067698419094085693e-01
-4.124829770734985135e-01,-4.146539223816401165e-01,-4.142322677819170740e-01,5.734473135223167647e-04,1.143361450844357146e-03,1.616635824998352133e-03,4.089534748345613480e-03
-4.303752814253185011e-01,-4.541374978174174126e-01,-4.349784659732450764e-01,-1.465978815442524916e-04,-5.803832591090952531e-04,9.817142272811718150e-04,2.191840857267379761e-02
-4.348103625246065862e-01,-4.578474810145340412e-01,-4.367069138077270263e-01,-3.152508596277238569e-03,-3.667086065512453492e-03,3.350340759098121863e-03,2.438127435743808746e-02
-4.253891039089788273e-01,-4.485007734596986317e-01,-4.299331708528220664e-01,-9.374815190259892794e-04,-3.153373531243544928e-03,2.149766579759979611e-03,2.227351069450378418e-02
-4.284730869778264339e-01,-4.463203881423977726e-01,-4.347273848964074983e-01,-1.711223614284407301e-04,-8.418349917714305691e-04,1.894748893493544912e-03,1.609360799193382263e-02
-4.327473398725770748e-01,-4.343814255380480938e-01,-4.285977705784987379e-01,1.754147582788956371e-03,-2.218869636710044113e-03,-1.452932996553739147e-03,7.550112903118133545e-03
-4.276236581757036914e-01,-4.306688211052958626e-01,-4.517915690965472741e-01,-3.327936082610967201e-03,-6.547092510466347159e-04,1.133399750237131095e-03,2.362479455769062042e-02
-4.146516775145309142e-01,-4.330992262364930512e-01,-4.478760968265459996e-01,5.162487530735324938e-03,-2.437356666929349318e-03,-7.265603375128888708e-03,3.297586739063262939e-02
-4.385126959641137412e-01,-4.313848437117548396e-01,-4.247937145582017515e-01,2.631902252479578243e-03,-1.325690581659651679e-03,-1.488296477381240504e-03,1.318817771971225739e-02
-4.340702696600886590e-01,-4.452626473426906095e-01,-4.298133811973073870e-01,2.558597977296040988e-04,-7.123537377894793464e-04,-9.772274966468980865e-04,1.398637797683477402e-02
-4.400941557984257013e-01,-4.381494670324105889e-01,-4.287076894506349767e-01,1.451736921064515585e-03,-7.611553803617479705e-04,-9.567611104591602477e-04,1.104975864291191101e-02
-4.428324265834843176e-01,-4.357687619515432376e-01,-4.300527013010514987e-01,2.814087022485088282e-04,-1.215905014254174861e-03,-2.565605181106647465e-04,1.130554545670747757e-02
-4.608593878320714210e-01,-4.226666237114029001e-01,-4.380893154824526681e-01,2.339855795152616120e-03,5.896167196077559472e-03,-1.089107681495786982e-02,3.980046883225440979e-02
-4.073526347107648826e-01,-4.427905518009095376e-01,-4.229868598594509477e-01,4.642329218532728098e-03,-1.116565489136745956e-02,-2.919875779095761157e-03,3.755631670355796814e-02
-4.517885555764850625e-01,-4.250158969340651627e-01,-4.302369541590189139e-01,-6.559698303557180568e-04,9.001867517497435947e-04,-3.860686741986164242e-03,2.554779313504695892e-02
-4.447446657544260606e-01,-4.098764658989813015e-01,-4.264917187847675484e-01,-9.138164888640354280e-04,2.836860485013398010e-03,-6.685551131510729037e-03,3.276053071022033691e-02
-4.548766836775186007e-01,-4.293665102707368564e-01,-4.366706679212100095e-01,-3.136287467602544982e-03,2.348736376056564934e-03,-8.404816264911013982e-03,2.785266190767288208e-02
-4.854181289241857877e-01,-3.944946680132719319e-01,-4.830212070498357546e-01,-1.122730024412560770e-02,4.372036076739713693e-03,-3.967188944427672143e-02,1.149432957172393799e-01
-4.294429431507994499e-01,-4.265449374299311036e-01,-4.513682641186718691e-01,-2.603048209808180111e-03,-8.727750548488904083e-04,2.847117867349277932e-04,2.398986928164958954e-02
-4.635770798130924297e-01,-3.717682665214938065e-01,-4.676836069539212493e-01,-1.836889676368888211e-02,-2.419198014153126595e-03,-3.116807844532423419e-02,1.129906699061393738e-01
-4.724723992678074858e-01,-3.999899950094951695e-01,-4.475549764067628944e-01,-2.587194284728597596e-03,-1.738645199173678452e-03,-1.181467029395205127e-02,6.720424443483352661e-02
-4.828390068601107199e-01,-3.752222974825855095e-01,-4.805805321681936304e-01,2.391229207052741629e-03,3.483399186384552627e-04,-1.219269555240719456e-02,1.086596101522445679e-01
-4.795556430273953952e-01,-3.656230962040551424e-01,-4.832029458472559269e-01,1.085623230576405161e-02,-5.546722715187061073e-03,-4.461453668488644247e-02,1.408073753118515015e-01
-4.409169101702659632e-01,-2.931456251953338810e-01,-4.368822552894386924e-01,1.583764373402851006e-02,-1.252817235521669912e-03,-1.983763924932769110e-02,1.522964984178543091e-01
-4.314884292502843555e-01,-4.552876800001441904e-01,-4.379361931634299654e-01,2.748453964566979985e-04,-2.433811903475190195e-03,2.506569464242880407e-04,2.174192853271961212e-02
-3.641248539670237649e-01,-4.327108882328991601e-01,-4.522708650925992280e-01,3.155821369213164529e-02,1.195335446012106735e-02,3.039669659138333375e-03,9.935948252677917480e-02
-4.291187894976095096e-01,-4.377255645518538518e-01,-4.370526732859309482e-01,7.761534530443445462e-05,-6.148679188528609113e-05,3.087313935713648658e-04,8.309830911457538605e-03
-4.286249673959314777e-01,-4.367965036366383558e-01,-4.372392737803595386e-01,-3.112705859553717815e-04,-2.226730211711235301e-04,1.013199259271075963e-03,8.608559146523475647e-03
-3.240735242404437777e-01,-4.553864901673868593e-01,-4.552157430233008117e-01,7.056046959592110479e-03,1.038899060541568879e-02,1.553590085637947781e-03,1.330454796552658081e-01
-4.328804264860798834e-01,-4.604580009388564710e-01,-4.368407991422361136e-01,1.276873308412797454e-03,-3.092655124855011456e-03,-4.331858949995037560e-04,2.647900022566318512e-02
-2.727866208805206916e-01,-4.227658761758889550e-01,-4.065160662419922688e-01,2.303772031522311609e-02,4.267255014712510036e-02,6.154018652493199910e-03,1.657991707324981689e-01
-4.295554203290066209e-01,-4.529001814401500958e-01,-4.352540680452117172e-01,-6.202215328640587689e-04,-1.159193641996870364e-03,-6.867351098801761694e-05,2.120420336723327637e-02
-3.518472016210402176e-01,-4.738463861886512696e-01,-4.696830637390025931e-01,2.034915720255854946e-03,1.232146056964876328e-02,-3.600909070991671320e-04,1.219076663255691528e-01
-3.365175492733051277e-01,-4.514453786537991897e-01,-4.580571857390924873e-01,1.858403291857174677e-02,8.228160809618263044e-03,8.832510355211931063e-03,1.244397386908531189e-01
-3.361834504277190216e-01,-4.355785748000582380e-01,-4.382935306247631724e-01,1.356115100603815654e-02,1.252828745244942595e-02,9.822796934607110411e-03,1.070918589830398560e-01
-4.569588032596137994e-01,-2.531244067667536291e-01,-3.002752630509355480e-01,-7.655497784442182908e-03,-9.707268194525435490e-03,1.460610197823208056e-01,3.140392899513244629e-01
-4.276263095028491890e-01,-4.466682173263402666e-01,-4.269150917497584463e-01,2.619011901105760404e-03,-4.523920633703123681e-03,-3.252077913518815633e-03,2.214376442134380341e-02
-4.341302355278689462e-01,-4.521741891286405468e-01,-4.317677941765005190e-01,4.731570348227370705e-04,-1.066935392641297489e-03,-2.325789943168196845e-04,1.944330520927906036e-02
-4.316842383965561192e-01,-4.518053318014568220e-01,-4.292032252492932187e-01,9.410712078680938614e-04,-4.043255158545622750e-04,1.833674267136694257e-04,2.154489979147911072e-02
-4.360513203700188689e-01,-4.500967685467978652e-01,-4.291830683245188571e-01,1.735921155351273374e-03,-5.109270961339394549e-04,-1.540621258400822543e-04,1.872991770505905151e-02
-4.363042870119285266e-01,-4.340257727211616623e-01,-4.320637585630144883e-01,-2.468539617314632418e-04,-2.090641976282610164e-03,-6.094044786253417475e-04,5.284022074192762375e-03
-4.311457294941289375e-01,-4.481607185002427496e-01,-4.237967262461022067e-01,2.706022875765047922e-03,-2.898088988976233859e-03,-9.409785972467408621e-04,2.276799641549587250e-02
-4.182271041297480063e-01,-4.426932442040029114e-01,-4.261312275379978698e-01,-1.583088445686381537e-03,4.586527066863042845e-03,-5.202634609590500725e-03,2.489002235233783722e-02
-4.356200323124511664e-01,-4.327269247739984337e-01,-4.357336802788928098e-01,-3.669416528226879769e-03,3.223751364065663861e-03,-4.668526596155159192e-03,1.206933241337537766e-02
-4.356000532814344184e-01,-4.389653352808552955e-01,-4.168695870233305456e-01,-4.691260856144816548e-03,1.869740312318956231e-03,-2.402433988524819552e-03,2.278191037476062775e-02
-4.383490734674755918e-01,-4.392304742693006192e-01,-4.266581578778593231e-01,-6.302634718676448748e-03,5.362113644819954325e-03,-5.353021161934888583e-03,2.095589786767959595e-02
-4.299159341093250486e-01,-4.489562095983514189e-01,-4.327311247587103948e-01,-1.027437946255472384e-03,-2.466020928136257169e-04,-1.016143377603583850e-04,1.789513044059276581e-02
-4.256805064841938102e-01,-4.520466029078070713e-01,-4.414758836844450696e-01,-1.146358439616308299e-03,-2.523934056739838769e-03,2.396512411145291805e-03,2.384293451905250549e-02
-4.276123688805452683e-01,-4.245278215731343452e-01,-4.422287000980525962e-01,-2.825400671909701102e-03,1.062167025601635974e-03,-2.283641626509936261e-03,1.764127612113952637e-02
-4.336362943050660057e-01,-4.449889370563544500e-01,-4.347464214929582793e-01,-3.078965004742431621e-03,-1.971869673333605244e-03,2.134526403889317316e-04,1.255999878048896790e-02
-4.130515219270794458e-01,-4.408671465154787583e-01,-3.906117214529566950e-01,-2.373374843880149930e-03,6.466862562590379969e-03,-1.861854088247295565e-03,4.532317072153091431e-02
-3.622859120282758139e-01,-4.249058854265981289e-01,-3.835749586126276922e-01,-8.886263068262413231e-03,3.618340256059368598e-02,-1.231681285756490961e-02,8.752764761447906494e-02
-4.285064428584277052e-01,-4.367706882653638045e-01,-4.379375171447446591e-01,-2.231841875022526529e-04,-3.882692747925699977e-04,2.626685852632128118e-04,8.950468152761459351e-03
-4.199658169947007025e-01,-4.399600794874979348e-01,-3.995360805061639597e-01,-2.410887623121094666e-03,1.088769039046157822e-02,-9.289000795416883132e-05,3.998387977480888367e-02
-4.585842109457402005e-01,-5.480795223028908092e-01,-4.536006931559257160e-01,-3.634774405943230757e-02,6.090589280531705230e-02,-3.511395735003040863e-02,1.651401668787002563e-01
-3.007329315212972642e-01,-4.416611277584691631e-01,-3.356038178443306874e-01,-5.013737339729144177e-02,1.144148778258717997e-01,-5.658808628709305344e-02,2.694116532802581787e-01
-3.978681347003736324e-01,-4.857921463796813777e-01,-4.247246204188565577e-01,-4.911325230261160552e-02,5.119528958219131398e-02,-2.616493967001170054e-02,1.524584889411926270e-01
-4.128025499042941027e-01,-4.518703114605623905e-01,-4.395517603692465358e-01,-1.251608908537858549e-02,2.801452761132302433e-02,-1.336843701773044596e-02,6.750794500112533569e-02
-4.353099084707020561e-01,-4.553140151761845278e-01,-4.377306164015981604e-01,-3.028622009850056446e-03,-3.311632598706768741e-03,4.041367160064247041e-05,2.044561877846717834e-02
-4.838477275448171966e-01,-2.649412066351205519e-01,-3.690362391442043588e-01,-9.620977861522278171e-03,-1.397967171257039586e-02,1.344164307840089445e-01,3.017218410968780518e-01
-5.071427268198235305e-01,-4.832238307573725744e-01,-4.974232324883126055e-01,-3.385486957850546846e-02,1.452542940169493195e-02,-5.395856587960016354e-02,1.150656491518020630e-01
-4.296228089396711414e-01,-4.835764571453661786e-01,-4.563780496728264691e-01,-2.106423624279550252e-02,3.131501756171767986e-02,-1.095180841658097842e-02,8.255979418754577637e-02
-4.537178544116966528e-01,-4.309989946290378460e-01,-4.333526157609809415e-01,-9.632907568458639767e-04,2.180950506254335783e-04,-6.759205070201008102e-04,2.173733338713645935e-02
-4.526600937782070955e-01,-4.261879389727669110e-01,-4.315246758610291611e-01,-3.671586980153880814e-04,1.431368784517725659e-03,-2.326382160980616527e-03,2.471371740102767944e-02
-4.561853471116757430e-01,-4.321415114557469739e-01,-4.356954879044633300e-01,7.575256021942854264e-04,7.449443864993801232e-04,-1.072517734440305492e-03,2.263013087213039398e-02
-4.268967896864305778e-01,-4.355581569804440889e-01,-4.359529402280979959e-01,-2.362345015185549990e-04,2.026502780877671890e-04,2.369583032273475047e-04,8.891207166016101837e-03
-4.581559829722313126e-01,-4.364519325677527206e-01,-4.269577142663287250e-01,-2.712729284495044263e-04,9.119179942101115263e-04,-1.685495687672780227e-03,2.790174260735511780e-02
-4.307501057835136371e-01,-4.306760497356886264e-01,-4.517324120421325473e-01,-6.670967994254425621e-04,1.724099609690503583e-03,-5.639271928730027082e-04,2.128434181213378906e-02
-4.364689880082393003e-01,-4.305159924472382604e-01,-4.488767479553166795e-01,-6.153594299730876264e-04,1.383329133313696436e-03,-1.055932817235473534e-04,1.643667370080947876e-02
-4.325465149344846494e-01,-4.263975821329988869e-01,-4.479230084693799907e-01,-2.284042927066471784e-03,2.485560592120635015e-03,-5.569008345097463918e-04,2.009751088917255402e-02
-4.331661151830692447e-01,-4.485097912707391443e-01,-4.382540872503423723e-01,-2.317081376657906602e-03,-2.095375127159310440e-03,3.579621775116298681e-03,1.584194228053092957e-02
-4.253070033660998894e-01,-4.560895247695428978e-01,-4.487095597387533163e-01,-2.235815878316703160e-03,-5.407037228809146064e-03,3.829583276436005716e-03,3.035713173449039459e-02
-4.324405016021790060e-01,-4.494332577479214774e-01,-4.379553974554268869e-01,-2.632751288893547988e-03,-2.766835551995429875e-03,3.257994762974527041e-03,1.735103502869606018e-02
-4.333150264973839039e-01,-4.457357748185306612e-01,-4.701925370874946997e-01,-1.506115651025305077e-02,-2.332960407413249213e-03,-2.453108331815684589e-03,4.208415374159812927e-02
-4.283795964460604955e-01,-4.405080063036665994e-01,-4.317700407460522971e-01,-2.300529096365226504e-03,-1.996759458385630962e-03,1.463254251411793497e-03,1.231805700808763504e-02
-4.294315079535268032e-01,-4.435705708073989784e-01,-4.317571732893407677e-01,-2.102316921176331302e-03,-1.930351100847324921e-03,1.100568084306397703e-03,1.416018418967723846e-02
-4.385210749324400803e-01,-3.885866434879676756e-01,-4.066566061183685132e-01,-1.966100129040688430e-03,-3.424638656732167160e-03,1.083674178529243567e-02,4.813256487250328064e-02
-4.373339658262315743e-01,-4.590640986202256246e-01,-4.400622856908235625e-01,-1.856717573368415813e-03,-4.513170922143319545e-03,1.034806642708626214e-03,2.224896475672721863e-02
-4.314428645681213648e-01,-4.257817291167170781e-01,-4.332478512423305617e-01,-2.627975469482428904e-03,-3.983971386292821729e-03,1.203888012783434864e-03,1.087233144789934158e-02
-4.244234558106426136e-01,-4.482591814502011052e-01,-4.316955712313513827e-01,-1.464597338452888536e-03,-3.320617248681119200e-03,1.767461221620806244e-03,2.228397876024246216e-02
-4.310702234558312917e-01,-4.518807196386397385e-01,-4.332364146118838355e-01,-1.500783549911227340e-03,-5.890895454331651019e-04,-2.814690497724852986e-04,2.001812681555747986e-02
-4.370166821820715697e-01,-4.223978175803603796e-01,-4.489914322410010761e-01,-1.525364985876145191e-02,-1.483527415947872609e-02,1.003637229617895463e-02,4.682549461722373962e-02
-4.536134519154711442e-01,-4.251521061087809028e-01,-4.523728592639866264e-01,-1.031531644835254231e-02,-8.338728247643254973e-03,1.589076783041223559e-02,4.540537670254707336e-02
-4.249899515354895185e-01,-4.470453851383155985e-01,-4.483024668378088884e-01,-3.201878092128023108e-03,-2.179713524234371414e-03,3.699026225237899302e-03,2.453172951936721802e-02
-4.637545063689402780e-01,-3.704880551832187563e-01,-4.076794327038895105e-01,-5.275592961398238752e-03,-1.053523623046163926e-02,3.219818722675703987e-02,1.006963774561882019e-01
-4.544156722798133874e-01,-3.986022197109463927e-01,-4.175809815428123128e-01,-5.630556491417330542e-03,-8.789045265677575096e-05,1.240387887868875209e-02,5.452307686209678650e-02
-4.353269866587058945e-01,-3.924310127240799861e-01,-4.315517911604107026e-01,-7.791883024968713177e-03,-8.958830177135284831e-03,9.211613415486449505e-03,4.868120327591896057e-02
-4.276620414701729489e-01,-4.313642459466262014e-01,-4.445589615382551929e-01,-1.765231258956116017e-03,-5.961348790152792880e-05,-4.481373746735887835e-03,1.750038005411624908e-02
-4.409327660626883860e-01,-3.769822253882135765e-01,-4.289722103532987441e-01,-2.413970368487115478e-03,-5.692030668891700541e-03,1.579916490727760817e-02,6.581308692693710327e-02
-4.511760779055399295e-01,-4.319261938463950790e-01,-4.402710497382149035e-01,-8.933637616184058119e-03,-1.117005868023499687e-02,2.072532406337787916e-02,4.671096801757812500e-02
-4.543505869304530487e-01,-3.934549326808700620e-01,-4.320863970956732025e-01,-2.808118206491855371e-03,-4.018209769545522808e-03,6.991640099079229551e-03,5.537983402609825134e-02
-4.307306964598753285e-01,-4.025732742362333472e-01,-4.364585570966278971e-01,2.981325528592513457e-02,-1.895370215170835704e-02,-2.684348807256572988e-02,8.302330225706100464e-02
-4.535624814926380033e-01,-4.238941646031632038e-01,-4.665416257150098445e-01,3.012482089153733014e-02,-2.454802554022506716e-02,-5.135665124732002873e-02,1.177989169955253601e-01
-4.289183269606513527e-01,-4.353854600007829312e-01,-4.366404533624910766e-01,-7.888158476294579446e-04,-1.571280352969854069e-03,1.013113576522869106e-03,7.991725578904151917e-03
-4.886195610895229802e-01,-4.551821954157992400e-01,-4.541906334270964241e-01,1.780566812760907757e-03,-9.231151759003715720e-03,-4.258451402029213989e-02,8.281106501817703247e-02
-5.005425531678777684e-01,-4.839560614315169818e-01,-4.716222497586284312e-01,1.611753803345454192e-02,-4.007026168771449237e-02,-5.480458926484543802e-02,1.234448924660682678e-01
-4.269289725858974038e-01,-4.360721825475589175e-01,-4.355349429544454476e-01,-5.815039310765756129e-05,3.352803538682496191e-05,2.290019421527726804e-04,8.896384388208389282e-03
-4.240708297391312387e-01,-1.209089047974366837e-01,-4.020626041032541731e-01,3.833764372064106529e-02,-4.613769581563035779e-03,9.661756490564966937e-02,3.437986373901367188e-01
-4.493509617207731566e-01,-3.933741237045725314e-01,-4.443852177132754933e-01,6.574571713625102128e-03,-8.884414932104286317e-03,-1.055460479392911037e-02,5.983954295516014099e-02
-4.400373958118837803e-01,-4.133565122555937776e-01,-4.246711336260085012e-01,1.655015608690000228e-03,-4.657251089257670972e-03,-6.617501439833561525e-03,2.725192159414291382e-02
-4.356526788838443465e-01,-3.877263657338468894e-01,-4.337274496030246729e-01,8.823715386170270444e-03,-1.308106754499346012e-02,-1.156329989477749079e-02,5.793457850813865662e-02
-4.280162045353896327e-01,-4.336772424276751359e-01,-4.413248096085187200e-01,-7.210172839567872678e-05,-8.475020361076565558e-04,-3.121778655397955925e-03,1.285428646951913834e-02
-4.282265955316382211e-01,-4.394627216284676674e-01,-4.364950908068409574e-01,-1.019825146893942784e-03,-1.848028677914312129e-04,5.410041000830461116e-04,1.028656028211116791e-02
-4.307218500206053680e-01,-4.508535535687955842e-01,-4.298415319914991040e-01,3.231772323366832169e-04,-2.356415741076231356e-03,-8.606098825053357083e-06,2.099415101110935211e-02
-4.324455288053427049e-01,-4.496741205555479515e-01,-4.260951487052879183e-01,2.244921081758127161e-03,-2.494884281921411727e-03,-1.157106922318662854e-04,2.191785350441932678e-02
-4.333574175475137791e-01,-4.526901821866685105e-01,-4.327557857082219295e-01,4.003014866718164954e-04,-1.147213562537256802e-03,-3.135390022324423612e-04,1.976038701832294464e-02
-4.328421586296115064e-01,-4.510849914498752944e-01,-4.289630430407772588e-01,1.145684964240024526e-03,-4.845912335601852260e-04,5.505686178572213093e-04,2.059529535472393036e-02
-4.660277396151765172e-01,-3.335504886626612375e-01,-4.719856600833424731e-01,1.430230211332687851e-01,9.236791193555492219e-02,1.281658759409657344e-01,3.932133316993713379e-01
-4.319303849195358369e-01,-4.549273627730813230e-01,-4.327229350291662557e-01,6.217021138602566365e-04,-3.487585268311331455e-04,2.298516688650491138e-04,2.264830656349658966e-02
-4.324161418440788940e-01,-4.492517376675382867e-01,-4.295914422025282065e-01,2.246153184545717114e-03,-1.936299475302969992e-03,-3.100774449327961275e-03,1.985445804893970490e-02
-4.337513567728221719e-01,-4.402836464688428264e-01,-4.272229687399216602e-01,3.283870762205485724e-03,-2.095668045354423525e-03,-2.825957349259633836e-03,1.405065786093473434e-02
-3.792519055587619814e-01,-6.059097170049964065e-01,-5.124163263969602200e-01,6.483133673686226894e-02,-9.293164889413384200e-02,-9.614661634221691178e-02,3.243061304092407227e-01
-4.278109258832816786e-01,-4.424926947084300011e-01,-4.255976738219575672e-01,1.815041709527884023e-03,-2.354267082948757837e-03,-2.135041167628997337e-03,1.712113618850708008e-02
-4.529418998960276777e-01,-4.318958603715062905e-01,-4.331730672167615759e-01,-2.577314502418210154e-04,5.003268711114420338e-04,-1.209253656698239168e-03,2.056754752993583679e-02
-4.344202033741155766e-01,-4.417597635811184587e-01,-4.271452540867718417e-01,2.854706550776959888e-03,-8.285858194140928489e-04,-9.872640057454254697e-04,1.377028506249189377e-02
-4.347227940091884513e-01,-4.439946922815827812e-01,-4.271089312206563515e-01,2.656294100095438464e-03,-3.557934900805983093e-04,-1.195875446431754517e-03,1.550392806529998779e-02
-3.956984683873967512e-01,-4.494075396793835164e-01,-4.162553168229281564e-01,-9.933115763002989956e-03,-3.060531981033987742e-02,6.847245212003558873e-03,7.382323592901229858e-02
-4.881190944427026834e-01,-4.973558403397856376e-01,-4.046715215523664644e-01,-1.543534035856033472e-02,-4.411141351465425881e-02,2.045226721439962966e-02,1.250067353248596191e-01
-4.420333061965556753e-01,-4.297699684404888143e-01,-4.478006026572177167e-01,-2.205181041468116769e-03,2.613201832147444593e-03,-2.008304612653856284e-03,1.736526004970073700e-02
-4.784291997731153212e-01,-4.555805640907390486e-01,-4.125724932249418830e-01,-3.370381548659938387e-02,-4.322244187829367423e-02,4.429643364730271454e-02,1.351048946380615234e-01
-4.605064195445780495e-01,-4.391203377787306072e-01,-3.759146851184325677e-01,-2.131193166488487209e-02,-3.115992143716390245e-02,3.113821564707444992e-02,1.139658838510513306e-01
-4.393607709933031180e-01,-3.665380110803758140e-01,-4.201838339375604248e-01,4.128470023194373041e-03,8.387458008353420799e-03,9.379976722128166230e-03,6.928581744432449341e-02
-4.590836205621856569e-01,-4.636510326083393974e-01,-3.362024176254687080e-01,-2.788726622520561627e-03,7.208010082325389499e-03,7.746459905167773444e-04,1.259479969739913940e-01
-4.294977076858418896e-01,-4.557271309275842675e-01,-4.409217425594546547e-01,2.003150872172890370e-04,-1.644317361352282906e-03,1.887436822107797568e-03,2.318974584341049194e-02
-4.616178443270788079e-01,-4.872171999582521340e-01,-4.352152288562663451e-01,-3.291079466525477504e-02,-4.621047430187099486e-02,2.552985517094164686e-02,1.167870759963989258e-01
-4.331645423899335157e-01,-4.342402518362311614e-01,-4.455316170840207257e-01,-1.692733480071499782e-03,1.873397198422127369e-04,-4.063486582224312867e-03,1.410799100995063782e-02
-4.544262925202491310e-01,-3.914250887615936536e-01,-4.373118807486972570e-01,-7.116571035533173113e-03,-7.706375830133573544e-03,2.141718639712916414e-02,6.992864608764648438e-02
-4.605651183915930869e-01,-4.420593527455204952e-01,-3.744477856995168663e-01,-1.753778562857917500e-02,-3.328822685113504848e-02,3.007826972820541733e-02,1.145693585276603699e-01
-4.781462574113681807e-01,-3.783006347987622475e-01,-4.799297790766242078e-01,-2.934661716727198291e-02,-3.374388621246837000e-02,3.849224119903916358e-02,1.435095369815826416e-01
-3.795624599266926302e-01,-4.255870178523794567e-01,-4.520846070325005850e-01,6.582859267746478567e-03,2.280257548780971130e-03,4.484064926829553488e-03,6.516013294458389282e-02
-4.274559994252479234e-01,-4.625983526588275385e-01,-4.501415157233995545e-01,2.378350400442773988e-03,-3.633144169523357201e-03,-6.716748479638889185e-03,3.382762521505355835e-02
-4.467848847288207192e-01,-3.518809254213792759e-01,-4.571386920885739946e-01,-1.208811649827375677e-03,-1.367139998204749182e-03,4.449106860532194528e-03,1.008263602852821350e-01
-4.269834308282133284e-01,-4.450991045827737969e-01,-4.367327140603882718e-01,-1.261457521404950799e-03,-6.576098543133537550e-04,2.178486084768358876e-03,1.633768342435359955e-02
-4.591752920879442201e-01,-3.740685019923387644e-01,-4.647399686336990410e-01,-9.699661087872270271e-03,-2.100120714797788259e-03,1.096205116011122159e-02,9.167172014713287354e-02
-3.720033489264448212e-01,-4.512196488628941182e-01,-4.539491469254373079e-01,4.162778568693114960e-03,-1.296130911868035879e-03,8.484692556947543481e-04,8.098196238279342651e-02
-4.448522285536126719e-01,-4.519661847886211059e-01,-4.158219095195376247e-01,-3.700978964821345814e-03,-3.136506809815348303e-03,3.357426574444632647e-03,3.470316901803016663e-02
-4.260179552089396471e-01,-4.289745112451605058e-01,-4.539323584681370649e-01,-6.446953273101303783e-03,-3.314115872754210771e-03,1.614693264094490578e-03,2.951077930629253387e-02
-4.374423695772597931e-01,-4.584142283624073055e-01,-4.264159534299972742e-01,2.051094834835151363e-03,-2.518163220367875335e-03,5.161564115933954706e-04,2.872435934841632843e-02
-4.335667695521926435e-01,-4.478684304652289505e-01,-4.315925301468138686e-01,-2.948398097452322765e-03,-1.536726363449231409e-03,5.539719524050392731e-04,1.645461656153202057e-02
-4.291535232115725185e-01,-4.231625922744558510e-01,-4.452139167453809110e-01,-2.470875019778568087e-03,2.691345697679513056e-03,-9.933242109063451959e-04,2.080985344946384430e-02
-4.256490047572376034e-01,-4.418429048827060002e-01,-4.405591888536963263e-01,-1.598611275263798082e-03,-1.283802751992560573e-03,1.815181118015602195e-03,1.629716902971267700e-02
-4.659233794276826934e-01,-3.691687118185544847e-01,-4.551564810080886980e-01,-1.265983932991057194e-02,-8.068030661512659227e-03,2.046331647467473230e-02,1.018232777714729309e-01
-4.522018756676211559e-01,-3.987878384410183386e-01,-4.653793067540611950e-01,-1.698579206267095826e-02,-8.034342259602395009e-03,7.681611753403517172e-03,7.047544419765472412e-02
-4.350012308710434761e-01,-4.348711487778132989e-01,-4.272999373779750587e-01,-4.294353126115265686e-03,-1.314318866178144267e-03,1.990054877717081522e-03,1.143296621739864349e-02
-4.663447058091878539e-01,-3.990954037560045520e-01,-4.793175289414356444e-01,-1.310765533188701371e-02,-1.673235010132121834e-03,3.893357838542515440e-03,7.831016182899475098e-02
-4.354529542866357184e-01,-4.316350115033840140e-01,-4.316300541372186106e-01,-3.495303465605639472e-05,-1.665107720770637057e-03,7.289224362971959744e-04,4.950862377882003784e-03
-5.842705852388780929e-01,-6.559011857858789707e-01,-5.852866448399535182e-01,-1.402109149658071485e-01,-1.726257894178952756e-01,6.936492899570684267e-02,4.097193777561187744e-01
-3.683634476532609003e-01,-4.201345564472278582e-01,-4.383440570147860704e-01,-2.657190761060659531e-02,4.916498810165935256e-03,-9.438294834957961996e-03,8.007819950580596924e-02
-4.244290572720404442e-01,-4.365676203215721474e-01,-4.502966743938203731e-01,-4.295450121509245510e-03,-2.528328482688022624e-03,3.682693098310750937e-03,2.485355734825134277e-02
-2.301766692603341991e-01,-4.048374504831326326e-01,-3.774442064852009948e-01,-6.921097661233806264e-02,1.053932182542827722e-01,-2.860541411543464710e-02,2.768045067787170410e-01
-3.683098317615817185e-01,-5.936766696333822813e-01,-6.555104191145100234e-01,-9.481534909527949972e-02,1.302317714757599346e-02,-8.293527607706788207e-02,3.415586948394775391e-01
-4.292057472182457256e-01,-4.395131155390420430e-01,-4.391040050229204073e-01,-8.050571202787492817e-04,-6.570066797796435092e-04,6.951151450723896700e-07,1.026799343526363373e-02
-3.317982286631677713e-01,-4.217686055555026625e-01,-4.609952811080058610e-01,-9.079656755272344504e-02,-1.120355754211176634e-02,-9.848614970840470842e-03,1.963726878166198730e-01
-4.142852335974954170e-01,-4.438554088444022772e-01,-4.494335481680617472e-01,-4.056962575292718740e-03,-1.237706808461576857e-03,5.715552558300107146e-03,3.496330603957176208e-02
-5.785598590603490132e-01,-6.806472585222563820e-01,-7.536403749404841923e-01,-1.773598479077752310e-01,5.041575979346218234e-02,-8.361723833479349499e-02,3.823242485523223877e-01
-4.602241334914849991e-01,-5.195010040668915918e-01,-5.361714231721289581e-01,-5.052984774562351011e-02,-9.485140505260230767e-03,-1.142680578971026241e-02,1.144606322050094604e-01
-3.581513264507821814e-01,-4.867862821163744802e-01,-4.907840543177779402e-01,-2.760090090985242023e-02,2.724580495103371552e-02,-1.680926200174996318e-02,1.497907638549804688e-01
-3.440468223070195508e-01,-4.595910737982634720e-01,-4.597571223136607266e-01,-2.835577792846178877e-02,2.602305897777057800e-02,-2.687347239799033755e-02,1.413505822420120239e-01
-4.309038440280514859e-01,-4.332505536132942314e-01,-4.457045296834281634e-01,-8.802163739664862130e-04,3.496674409855775475e-04,-4.424636854914078786e-03,1.585111394524574280e-02
-4.141560528747112446e-01,-4.555662876634789527e-01,-4.282118249034935764e-01,3.822565424049146949e-06,-6.691791596510676676e-03,7.464297426122185226e-04,3.829270601272583008e-02
-3.634214040055425143e-01,-3.896782136668933139e-01,-4.103874075090920837e-01,2.482590259889313339e-02,2.160714765047638125e-02,1.776240561100643836e-02,7.653848826885223389e-02
-3.660733199420537209e-01,-4.391756592549914684e-01,-4.317329251841815485e-01,1.547021270910277010e-02,-1.917023242532465976e-02,-3.245789851710042563e-03,8.189839124679565430e-02
-4.285411582876689218e-01,-4.580390828914195356e-01,-4.395512497072875391e-01,1.694254830504626297e-03,-1.035796616345588568e-02,5.807370757312871334e-04,3.159209340810775757e-02
-4.475223352500884988e-01,-5.214541971179860180e-01,-4.778566405239973447e-01,2.753492635162680877e-03,-4.830687583781921590e-02,-2.067006046178669620e-02,1.115732043981552124e-01
-4.163631348424642886e-01,-4.040228158621034793e-01,-4.328679317734971388e-01,7.440055222671416134e-03,-7.167175696663490372e-03,-4.312281612534621389e-03,3.169104084372520447e-02
-4.332612966959137890e-01,-4.684598234324649502e-01,-4.369277604686248595e-01,-1.369061542028342108e-03,-1.564320380722097198e-02,5.904606480062811295e-03,4.435843601822853088e-02
-4.386488482437351233e-01,-4.227088968227865617e-01,-4.433754693380506096e-01,-4.281090132496635607e-03,4.731905094563312701e-03,-2.426790223189343593e-03,2.217180654406547546e-02
-4.308831185873088776e-01,-4.637521118368653772e-01,-4.422101649458071160e-01,2.520199679946094097e-03,-1.022974755988262374e-02,1.328257147787056036e-03,3.427322953939437866e-02
-3.834436627691966692e-01,-4.479562405379640122e-01,-4.404200613692395017e-01,1.001575141717492550e-03,-1.241099060665956134e-02,-3.134031837267966560e-03,6.501585990190505981e-02
-4.492208335809718678e-01,-4.310423052245189734e-01,-4.252961844307097117e-01,5.002762081408700968e-03,-3.309393248842913172e-03,-5.759273848982860225e-03,2.598806843161582947e-02
-4.413693397032471544e-01,-4.138786217482883778e-01,-4.240797430263068546e-01,4.811899532319946493e-03,-5.607274256706952335e-03,-6.355142326422832597e-03,2.939927764236927032e-02
-4.529915755014180534e-01,-4.335022540387801215e-01,-4.364949770742997393e-01,3.044595124639557990e-04,-4.624289393405856680e-03,-1.322721359600910907e-03,2.000357210636138916e-02
-4.527938449453310366e-01,-4.348168224238560531e-01,-4.325065811357459711e-01,1.239579255304203761e-03,-5.038158410276937470e-03,-6.042989958571809081e-03,2.367179282009601593e-02
-4.218146521661055304e-01,-4.497232896965018822e-01,-4.660398930514152438e-01,3.849629303733221979e-03,-1.227120956028708186e-03,-8.953620189453975753e-03,4.230811074376106262e-02
-4.524032309570740207e-01,-4.357754191011692924e-01,-4.400075937092612355e-01,-1.720354725270044696e-02,1.339587297720024918e-02,-9.963429496980749298e-03,4.413691908121109009e-02
-4.458025359647397878e-01,-4.036415089463947226e-01,-4.341753798021364408e-01,5.058353717715878724e-03,-4.498206905447734404e-03,-5.516862778434362957e-03,4.063618928194046021e-02
-4.862839130024111389e-01,-4.490186519197533754e-01,-4.863474483556378125e-01,1.271822988475004683e-02,-2.195647863793648985e-02,-4.731212695043131994e-02,1.001893430948257446e-01
-4.365113141756005177e-01,-3.961482879959412062e-01,-4.375789002562484042e-01,7.753405567714153138e-03,-8.538910427813406478e-03,-5.528384700984707682e-03,4.652073234319686890e-02
-4.571395325063719040e-01,-4.573749480899221287e-01,-3.988041312274328010e-01,2.074878715045749226e-03,-3.572586081316774485e-03,-3.226624704391027262e-03,5.915442854166030884e-02
-4.144911279616940725e-01,-4.442545928280371426e-01,-4.256381814720803236e-01,1.153437741095032949e-02,-2.097599009878270762e-02,-1.614667381596763054e-02,5.638787895441055298e-02
-4.312830392581952776e-01,-4.293147337546981968e-01,-4.257755585916738750e-01,-3.740907172710620024e-03,1.670050076127027171e-03,-1.816430444389024014e-03,9.144112467765808105e-03
-4.439977587583296970e-01,-3.444458481247281156e-01,-4.467541402442213316e-01,9.035259108082439178e-03,7.471372755654683354e-03,8.422901996160374674e-03,1.040086150169372559e-01
-4.427077146855430412e-01,-4.287578912645615969e-01,-4.142529806447124985e-01,-6.606836681870197070e-03,4.052672580281291119e-03,-5.942187911869644713e-03,2.989118732511997223e-02
-4.433979807860174982e-01,-4.284525340872811228e-01,-4.360704203913127741e-01,-2.022526839750937808e-03,2.058263788895465293e-03,-1.994581240399268245e-03,1.429902482777833939e-02
-4.304051411565992247e-01,-4.311562771273598771e-01,-4.535548104086096766e-01,-6.543644604956018809e-03,4.080382844012804544e-03,-2.526146827418715088e-03,2.677001245319843292e-02
-4.263440344596562959e-01,-4.294241393646533456e-01,-4.498073974298708588e-01,-3.289380690157832961e-03,2.088760605186068629e-03,-1.362700312238659950e-03,2.321349829435348511e-02
-4.244122870103780309e-01,-4.298893603123145057e-01,-4.518420563551733826e-01,-3.418339946212827114e-03,9.282981114948881188e-04,-4.065029693053383514e-04,2.588999457657337189e-02
-4.115781331343298377e-01,-4.609275387810614077e-01,-4.448709409936132952e-01,1.549982594561743034e-03,-4.400361362383788978e-03,-1.675723951372449843e-03,4.443552345037460327e-02
-3.816912826687892668e-01,-4.502324115865719012e-01,-4.577118240058761778e-01,7.416258101337158508e-03,-2.792800360125359017e-03,-5.973473861248791879e-03,7.457830756902694702e-02
-4.302551339783331485e-01,-4.334456374364105136e-01,-4.560818507685599488e-01,-9.491105296159884058e-04,7.867644593056342072e-05,4.688145787814510033e-04,2.445769309997558594e-02
-4.113258131187876865e-01,-4.664470429121820860e-01,-4.455596187480507231e-01,-9.412126542298162798e-03,-3.345855494006581138e-02,1.115926949241119286e-02,7.950516045093536377e-02
-4.395886235951131926e-01,-4.327956126741676068e-01,-4.441182212736193846e-01,-2.568679937141389157e-03,1.872652942037576025e-03,-2.992395283118020038e-03,1.243422646075487137e-02
-4.384823663701490348e-01,-4.281901122731074372e-01,-4.370858361879575438e-01,7.458325044403005765e-05,7.999267422641638276e-04,-3.512707042271670218e-04,9.788455441594123840e-03
-4.375900664687557562e-01,-4.279775783614740425e-01,-4.367117618168985804e-01,-4.308486297114270919e-05,2.962061938698284783e-04,6.478984885751584624e-05,9.220088832080364227e-03
-4.213400161113723952e-01,-4.595515885750323104e-01,-4.474316630252593852e-01,-1.384396677911159260e-03,-4.218065741336609296e-03,3.435123727665375867e-03,3.519121557474136353e-02
-4.212124298928526245e-01,-4.473921045141402431e-01,-3.694580291855847354e-01,7.248589261717995960e-03,8.568152535342057896e-03,2.213517418693023309e-03,7.149385660886764526e-02
-3.406785389203116354e-01,-4.530272123995129907e-01,-4.536431247447234028e-01,6.043691577896355242e-03,2.268396698915999508e-03,1.869921757434949696e-03,1.132576987147331238e-01
-4.364659528854675785e-01,-4.286792544842883967e-01,-4.371037473966881692e-01,-2.955688645544501795e-04,4.393035931305096649e-05,-5.895466302232406017e-04,8.204652927815914154e-03
-4.299315811679896293e-01,-4.321538156612532156e-01,-4.505323588070945240e-01,-1.737645884776899434e-03,8.232401378259153251e-04,-2.634206885687233237e-03,2.038281597197055817e-02
-4.378220316882751595e-01,-4.297017574514204186e-01,-4.383030229898499663e-01,-4.073149556971801771e-04,2.778550893557636486e-04,-1.506203495467947640e-07,8.414589799940586090e-03
-4.340998362186724857e-01,-4.525802952105196786e-01,-4.125100931968115336e-01,3.028016992325451972e-03,-7.603570645204407730e-03,-1.784407403986689757e-04,3.751903399825096130e-02
-4.358161442178616896e-01,-4.289943872351471565e-01,-4.351542511154673498e-01,-4.624025759804960408e-04,5.318272212722565149e-05,-6.635847317497964391e-04,6.665595807135105133e-03
-5.002135497556757793e-01,-5.301073397703094381e-01,-3.733847474024940549e-01,-9.959438992539973098e-03,4.582642192830504307e-02,-2.098566874639260990e-02,1.693798303604125977e-01
-4.461915778446263747e-01,-4.421358774235436551e-01,-3.092708202309107923e-01,-2.350498938275292441e-03,2.307016304466622328e-02,-7.576833112008607950e-03,1.413998901844024658e-01
-7.284534239772066933e-01,-7.526635009804993892e-01,-3.638699422205702860e-01,-5.830682754779582116e-02,9.304376659628936508e-02,-2.894615979461248254e-02,4.254620671272277832e-01
-3.482673504020297739e-01,-4.432104568007433354e-01,-2.256942379642060958e-01,-9.371754967795489083e-03,1.224510735490595553e-01,2.784814693322846656e-03,2.845090329647064209e-01
-5.532720824155368256e-01,-5.698646990391557088e-01,-3.192386923834543699e-01,-3.849703479185976468e-02,1.181061342596434194e-01,-1.205107523122506867e-03,3.243882954120635986e-01
-4.642919167370277433e-01,-4.744412872887745491e-01,-2.773956775520552975e-01,1.930317176110569457e-03,5.357741083659138537e-02,3.895552718249405133e-02,2.238425463438034058e-01
-4.145661659330686089e-01,-4.055092210742051728e-01,-2.426231993866312386e-01,1.502346236088081093e-02,4.454286631914490535e-02,2.462288576514037181e-02,1.911473423242568970e-01
-4.175311458493675132e-01,-2.965805095193452812e-01,-4.163064138005487247e-01,1.330581455721685513e-01,7.923567334512145177e-02,8.905831979816863919e-02,3.320012986660003662e-01
-4.741634833734887366e-01,-4.987497372266114781e-01,-3.294250985181941260e-01,-1.178814021331325845e-02,2.926150481430944000e-02,-4.275477603677449792e-03,1.677876263856887817e-01
-4.520975337665683602e-01,-4.415647870914860551e-01,-4.304902208528847973e-01,-8.060100586913140214e-03,-7.885317670559090220e-03,1.014842684326269957e-02,3.225883468985557556e-02
-4.562159514028135687e-01,-4.505371795679082858e-01,-2.959909686836056930e-01,4.787397016905345359e-02,9.940363796577592059e-02,1.441010780477665065e-01,3.515804111957550049e-01
-4.485240983245768476e-01,-3.395704510307513413e-01,-4.506180975594186178e-01,2.788373790656900261e-02,4.994744660496199147e-03,2.449860008912285031e-02,1.277157962322235107e-01
-4.321971977333334825e-01,-4.312428975604569170e-01,-3.130523827497688205e-01,4.868296025355903223e-02,7.602701535179987036e-02,7.821200245727727429e-02,2.385046333074569702e-01
-5.198141280636675576e-01,-4.029313978435009047e-01,-4.462278191172024955e-01,3.156998111667889267e-02,2.285601264069300753e-02,8.778340758621110129e-02,1.953215599060058594e-01
-4.810608679063078097e-01,-4.003835316540049760e-01,-4.518886635711234501e-01,-1.219666921087730373e-02,-1.278813515699317102e-02,3.620746745366806851e-02,9.937877953052520752e-02
-4.607798484005037332e-01,-3.966058085119060217e-01,-3.082213598833103418e-01,3.875302764418336963e-03,1.389949791169024958e-02,6.223357832541590029e-02,1.727593690156936646e-01
-3.777262291905236768e-01,-2.919163298547352570e-01,-2.796508051539047801e-01,9.179273632390984317e-02,8.038018349848741195e-02,1.350855128801396188e-01,3.285897374153137207e-01
-4.256067643980583348e-01,-4.490542175496810562e-01,-4.248456058179727601e-01,-1.622644664745586177e-03,-4.970016219320127007e-03,2.770101040592489079e-04,2.550376392900943756e-02
-4.312092816742650880e-01,-4.540786606906955791e-01,-4.339005088503201102e-01,8.692525861408356746e-04,-1.078003469997252392e-03,8.811806041823968920e-04,2.183545380830764771e-02
-4.346145139462179174e-01,-4.613756592921557376e-01,-4.391966327525552716e-01,3.556929061205482456e-05,-6.636849301963659159e-03,6.527945819971876914e-04,2.734881080687046051e-02
-4.426709036488983284e-01,-4.314701792989377727e-01,-4.340045114910588420e-01,-1.188025736815518426e-03,-3.164874045681839634e-03,-7.823758679210192097e-04,1.181577518582344055e-02
-4.421417743089078312e-01,-4.036739253093808988e-01,-3.988490871296835327e-01,2.991623543041410996e-03,8.101053224331215266e-04,2.043695065066936101e-03,4.159331694245338440e-02
-4.197797845801780614e-01,-4.260899841567027391e-01,-4.492182358857299551e-01,9.192556354184046406e-04,-1.262123908466401476e-03,-3.075597852094567441e-03,2.750218845903873444e-02
-4.412718691875757715e-01,-4.385140192567290041e-01,-4.301957848177687116e-01,4.605186639465378155e-04,-1.112202018650244829e-03,-8.976730614803538847e-04,1.032007113099098206e-02
-4.276733272968223365e-01,-4.531751259246035168e-01,-4.346846381961772532e-01,3.730608990459520339e-04,-1.973404654065366321e-03,4.038654950608548287e-04,2.309305034577846527e-02
-4.360774317621000096e-01,-4.284448599824459136e-01,-4.434774155793596018e-01,-4.857739773035825697e-04,1.284282873757927428e-03,-3.767968281836937047e-04,1.325061637908220291e-02
-4.335240657833007716e-01,-4.272295755548075058e-01,-4.365448252072814950e-01,-1.937618531007367960e-03,1.554246241231119078e-03,-2.450106297701603458e-03,1.021170616149902344e-02
-4.662574429502526763e-01,-3.811311520250594276e-01,-4.548940708338522487e-01,1.981758400132866207e-03,-8.308321121251437949e-04,-4.628082274975109899e-03,8.053819090127944946e-02
-4.389306781334114116e-01,-4.301178463331754576e-01,-4.391907568382140137e-01,-2.787755945279757081e-03,1.002133977359955007e-03,-2.803229667465582334e-03,1.139857620000839233e-02
-4.313354396831311499e-01,-4.270026883656361516e-01,-4.381285555344491822e-01,-2.166575362339444484e-03,1.190085246664832237e-03,-2.490539798614734620e-03,1.145824883133172989e-02
-3.982500576864203556e-01,-4.154840217084451726e-01,-4.481822621313183985e-01,3.237014138068895156e-03,-5.453362568160846722e-04,3.453218118378263441e-04,4.429886490106582642e-02
-4.347532800025178945e-01,-4.363608302787523319e-01,-4.619344342340961918e-01,-4.906324352613096809e-03,-1.504024640952650619e-03,1.163346197165404661e-03,2.794220298528671265e-02
-4.117326731441841581e-01,-4.369244168953176910e-01,-4.481822192275687899e-01,2.851766693224681154e-03,-4.088153824729517938e-03,-4.018532531701070332e-03,3.417525812983512878e-02
-3.947203620490704057e-01,-3.921478615104817544e-01,-4.422695041314780862e-01,1.477448943749007718e-02,-2.173417696134690227e-03,-1.536258733144523804e-03,5.537117645144462585e-02
-4.257652255324508861e-01,-4.294525962060901092e-01,-4.531814555215190610e-01,-3.027531891472746289e-03,1.552775943798506469e-04,3.207859865322131520e-04,2.630649134516716003e-02
-4.251562434766334997e-01,-4.289247383905202549e-01,-4.512517498552334194e-01,-3.248106217275146396e-03,-3.157521489488688724e-05,3.454058538798896643e-04,2.507683634757995605e-02
-4.300291302263104520e-01,-4.347006136387029929e-01,-4.534278358990809221e-01,-1.161563109659249351e-03,-8.416135838289380555e-05,7.520086059804267269e-04,2.158196084201335907e-02
-4.024860843012559863e-01,-4.295597114621012569e-01,-4.124629319318028342e-01,1.683904914138629116e-03,2.523281271845689670e-03,7.715004164467666181e-03,2.772328630089759827e-02
-4.617848309315230049e-01,-4.360495371977050061e-01,-4.378383075891362219e-01,-7.158324062671825338e-05,-3.670662038203566279e-04,-5.680337450389290679e-03,2.677104435861110687e-02
-4.553609862792090124e-01,-4.318783672231139015e-01,-4.312845609674752501e-01,1.973330308289825662e-03,-3.038667061015736838e-03,-6.713980696773670480e-03,2.720928750932216644e-02
-6.484111347749748067e-01,-7.106664678467214946e-01,-6.670673307179092459e-01,-1.706380271437580032e-01,7.465613249823782605e-02,-1.596158153375568378e-01,4.284467101097106934e-01
-4.066370699297520153e-01,-4.061427903605208667e-01,-4.315389782980429967e-01,1.147765132978944892e-07,1.257022574991340349e-03,9.040543984411339830e-04,2.529525943100452423e-02
-4.559645128996206442e-01,-4.376766324865465907e-01,-4.353547490476343818e-01,2.414146744066064665e-03,-1.919236956847195606e-03,-3.828092576450295870e-03,2.132598496973514557e-02
-3.812096427854121949e-01,-4.426957934946066930e-01,-4.269929905471054887e-01,-1.077959345549719429e-02,3.640676916891199405e-02,-1.647540822989537398e-02,9.055878967046737671e-02
-4.545012680538693672e-01,-3.637827521574656386e-01,-4.601609716921132298e-01,9.359905602837729349e-03,-5.611236092091560421e-03,-7.100308547387797903e-03,9.635271877050399780e-02
-3.993579989267852515e-01,-3.941584956171687582e-01,-4.360741154490054283e-01,4.891822316210631995e-03,4.742840523322359308e-03,3.346024298941738945e-03,4.169981554150581360e-02
-4.512506870920446334e-01,-4.283778041615192156e-01,-4.247863263651453503e-01,1.310858202291328035e-03,-4.477894417380468895e-04,-4.370486389888653296e-03,2.610124461352825165e-02
-4.429481890812722589e-01,-4.188760879016837912e-01,-4.176892661789049499e-01,4.995125434057186460e-03,-4.674930027582821328e-03,-9.911608116704153856e-03,3.232000395655632019e-02
-4.625207133415660254e-01,-4.437496261659039654e-01,-4.099904951344796600e-01,-3.379442135240532719e-05,-4.423516380403108052e-03,-4.240980733402335487e-03,4.731164500117301941e-02
-3.835427108872946356e-01,-4.708814778917154165e-01,-4.649435544797740905e-01,1.322711823040097733e-03,-1.325564692925513622e-03,-1.630350845580168196e-03,8.463570475578308105e-02
-4.577288328653729144e-01,-4.443085952672138350e-01,-3.976387914076375818e-01,2.056738135763787594e-03,-7.079600494458320771e-04,-1.105006443776909188e-02,5.800861120223999023e-02
-3.964292575719225997e-01,-5.015872397860916543e-01,-5.296005819828917272e-01,-3.958600346310193335e-02,-4.839641954507628747e-03,-8.014233222699783041e-03,1.405449360609054565e-01
-4.771011724272982146e-01,-3.807334421783647449e-01,-4.941453044255975091e-01,1.424648948035815432e-01,9.731153818445369141e-02,1.440154943272538290e-01,4.034085869789123535e-01
-4.513688283188722061e-01,-4.304136074693156178e-01,-4.151907555340057510e-01,2.441293452038862267e-03,-9.174013621959896522e-04,-6.254145844601494662e-03,3.357979282736778259e-02
-4.530248891607875916e-01,-4.309073843976897189e-01,-4.155594678387145025e-01,1.115586547176535643e-03,-6.653950284359052636e-04,-5.147545518449234830e-03,3.389326855540275574e-02
-4.708636769743461681e-01,-4.515541687508359825e-01,-4.498414518561310582e-01,2.016001758441473765e-02,-1.168400157621260309e-02,-3.699390484419292496e-02,7.837943732738494873e-02
-4.589925474681492146e-01,-4.375584205050370157e-01,-4.261170320678696055e-01,3.397122267030767105e-04,1.018264368957927884e-04,-1.904964007117887969e-03,2.910029701888561249e-02
-4.060973769706537340e-01,-4.554989941545002918e-01,-4.644792811083325867e-01,-1.383065535232384270e-02,-1.091706869648954425e-03,1.961131296824911510e-03,5.961359664797782898e-02
-4.762297256506721199e-01,-4.705377661775236864e-01,-3.934376452676761060e-01,3.356975437412661536e-03,-1.146245217914424602e-02,-8.695486246509107064e-03,8.408616483211517334e-02
-4.609311190863595309e-01,-2.379629691553948878e-01,-3.323740589520355893e-01,1.575189349636409294e-03,-3.044068137441514801e-03,1.451908764671331342e-01,3.175751864910125732e-01
-4.365388491965408457e-01,-4.286030381788995536e-01,-4.513787424208203225e-01,-1.900116928977556427e-03,-1.787654655775546995e-03,1.474906080639607842e-03,2.068600058555603027e-02
-4.263654766065211321e-01,-4.177173168767533418e-01,-4.275385546502389333e-01,-3.734621937763283293e-03,-4.875984587015009392e-03,3.492649354767246410e-03,1.536474656313657761e-02
-3.679611733373471805e-01,-1.836302244154725261e-01,-2.737272224022058720e-01,7.118521492874446688e-02,4.015513616740879616e-02,1.429916740450939694e-01,3.269049823284149170e-01
-4.812861328212693635e-01,-4.589725215693309379e-01,-4.192222553904617621e-01,-1.342605619635446786e-02,-1.335879930711893204e-02,2.226415975903498976e-02,7.435173541307449341e-02
-4.468242572446957106e-01,-4.189890744940707457e-01,-4.693046498926303212e-01,-3.578774927989051419e-02,-3.373924213083625417e-02,1.216806557605190978e-02,9.801732003688812256e-02
-4.188775271909805364e-01,-4.226012277225552061e-01,-4.344671742439840112e-01,3.367333301590837071e-03,-6.975285212039399182e-04,-2.811262325817852868e-03,1.606355793774127960e-02
-4.309873851497728614e-01,-4.361491166114362938e-01,-4.507262762265271117e-01,-1.144430370546329180e-03,-1.012344344827913276e-03,2.605197163595744875e-04,1.793286763131618500e-02
-5.433599784465191762e-01,-4.389701778841447743e-01,-3.458720906475349910e-01,-1.957026593691957306e-02,-3.092315396169774064e-02,6.544895039674081261e-02,2.148287296295166016e-01
-4.303557971706050145e-01,-4.401857648425372971e-01,-4.565532952797490274e-01,-2.995863312765000615e-03,1.455685146289114251e-03,1.260433549905399468e-03,2.373742498457431793e-02
-4.837883155010546665e-01,-4.457499779415026175e-01,-4.356456140172564884e-01,2.271498282837351723e-02,-3.308107748581183560e-02,-2.354467064137251778e-02,9.180089831352233887e-02
-6.056267451403377633e-01,-5.648124459299003197e-01,-4.112087489135112794e-01,-2.360593486829997562e-02,-2.976778096411107979e-02,3.922036324054438416e-02,2.011813223361968994e-01
-4.453834449649885507e-01,-4.217295076263862796e-01,-3.327061662947922716e-01,1.167348687114121500e-02,1.684039790072212883e-02,5.067447869970238827e-02,1.398346573114395142e-01
-4.675099412170196089e-01,-3.986280583283696166e-01,-3.101444798162453220e-01,-1.498437293055193166e-02,-2.221282402407798867e-02,6.339530000448179159e-02,1.813275665044784546e-01
-4.068687827121429401e-01,-4.487446075486642982e-01,-4.402943138268616829e-01,-4.216869601175642079e-03,-1.073963096368648132e-02,6.019715278202270384e-03,4.448825865983963013e-02
-4.079536286187205874e-01,-4.370754208192570989e-01,-4.480387476907808364e-01,-2.409162694050600434e-02,-1.159885442817289863e-02,1.589926816733619810e-02,6.473580747842788696e-02
-4.066395923779325683e-01,-4.413743123421980941e-01,-4.472850620740050909e-01,-9.501120650639918730e-03,-5.742269738034895717e-03,1.134855132725301648e-02,4.693452641367912292e-02
-4.263722182266715954e-01,-4.479855014218261378e-01,-4.499368662197660296e-01,-7.489157288472922391e-03,-4.820766119184120672e-03,3.004513033834161273e-04,2.741112560033798218e-02
-4.463728429453151514e-01,-4.661479671109162726e-01,-4.253146240038264136e-01,-5.222267498892352831e-03,-1.073118613949790648e-02,3.998937286004940368e-03,4.154754802584648132e-02
-4.262549063648429226e-01,-3.769861388803090740e-01,-4.270038052356683878e-01,-3.091691870510748091e-02,-1.562885858573886261e-02,2.129908016618378697e-02,8.617524802684783936e-02
-3.926367999595268277e-01,-4.489515601659801458e-01,-4.483441862463841687e-01,9.225992647810500255e-04,-1.400616657197015572e-02,1.523897446514675680e-03,6.111919134855270386e-02
-4.738309471528531769e-01,-3.973675646865062472e-01,-1.679195385554237141e-01,4.191973922916912045e-03,2.199194489032946578e-02,9.983414721428560124e-02,3.277829289436340332e-01
-3.866792257943559852e-01,-4.334375409289563108e-01,-4.611335557848519340e-01,6.937013049165120446e-03,-1.652221819695600779e-04,-8.681834322167976360e-04,6.629583239555358887e-02
-4.524899814895339545e-01,-3.952611149373778665e-01,-4.557693841114076050e-01,6.401237279480302342e-03,-4.358863482401272721e-03,-3.646312486656548470e-03,6.077324599027633667e-02
-4.357443170216194206e-01,-4.607921191423141605e-01,-4.484887535050604002e-01,-1.244452876481940209e-02,-1.808205061323353915e-02,5.045853853536522160e-03,4.463692754507064819e-02
-4.301647489996081597e-01,-4.510685480194431274e-01,-4.260940255226057238e-01,1.612906924708120511e-03,-4.001355139367961458e-03,2.950631652796810315e-04,2.438711374998092651e-02
-4.330353897706663013e-01,-4.543881743612396829e-01,-4.309522636698734366e-01,2.524675687553241000e-03,-7.278669268487429102e-03,-1.774475157191138111e-03,2.631096169352531433e-02
-4.365310099689218570e-01,-4.548081987775910995e-01,-4.329422840119415694e-01,2.714630497338097782e-03,-6.002254602096358284e-03,-1.353011511282993041e-03,2.341382391750812531e-02
-4.294449968498736947e-01,-4.503751094988517889e-01,-4.244839367359250493e-01,2.054605997875445181e-03,-4.198476532538466047e-03,-5.189249804612934601e-04,2.515692636370658875e-02
-4.403823665031547097e-01,-4.391956241966996632e-01,-4.293204822627889050e-01,2.020980688823195009e-03,-1.193448062766082427e-03,-1.592290306391036785e-03,1.160940341651439667e-02
-4.058172860064766518e-01,-4.099461052441309428e-01,-4.519895129047777904e-01,1.778932729396256931e-03,7.038881428857470240e-04,3.014871159005170706e-04,4.437947645783424377e-02
-4.266462577843332382e-01,-3.669664825672346309e-01,-4.505579511224541145e-01,1.100672824293494681e-02,-3.530126824465472640e-03,1.465656063567989924e-03,7.725130021572113037e-02
-1.648429783255357661e-01,-4.035699972042947614e-01,-4.352344103582814761e-01,8.681722679499860595e-02,4.264999648973787777e-02,-1.587577246094658496e-03,3.059880733489990234e-01
-3.942455624187357621e-01,-3.826720298188191483e-01,-3.612226340059369600e-01,2.060551278570718278e-02,1.813440756890953923e-02,2.286725695581145676e-02,6.834716349840164185e-02
-4.270779856023185217e-01,-4.279196871034720573e-01,-4.596764026087868382e-01,6.340020804157415167e-03,-3.720732014466963250e-03,-4.874994729223570099e-03,3.562783822417259216e-02
-3.825143582745577087e-01,-4.286880200199619795e-01,-4.529959778769681589e-01,6.991682392923597236e-03,7.023779760107223434e-04,1.158356955432145651e-03,6.322520971298217773e-02
-4.150056849080183685e-01,-4.160776217508845853e-01,-4.505591133855691433e-01,9.440311463213016613e-04,-8.922301487575892958e-04,-2.590586204253228237e-03,3.538756072521209717e-02
-4.258417765633192298e-01,-4.250571945308145860e-01,-4.442714168402365216e-01,8.908856354845106143e-04,-1.860969453100741466e-03,-1.427855754297091594e-03,1.932909153401851654e-02
-4.145581044292537820e-01,-4.112746483922484209e-01,-4.414974531746028719e-01,5.250658607715241039e-03,-1.201829441986863737e-03,-4.202148488056100259e-04,3.020819276571273804e-02
-4.448951601096574060e-01,-4.213404092008287138e-01,-4.189156661164157858e-01,-3.427029582440557862e-03,-2.170051252288243780e-03,2.400293336546642509e-03,2.616228349506855011e-02
-4.586418736692743359e-01,-4.270300367320409851e-01,-4.262957665137433461e-01,-3.884630750108147932e-03,-4.410989193846384833e-03,4.190050475441949550e-03,3.434195742011070251e-02
-4.643083473222137103e-01,-3.491808690069972965e-01,-4.668694117797792531e-01,3.712311254008395737e-03,-1.044886172777937001e-03,1.019800997376958760e-03,1.166339740157127380e-01
-4.430600247226945121e-01,-4.172626753702756708e-01,-4.129613803574658792e-01,-2.479043979179751823e-03,-6.920677797490966572e-04,4.248892212253134112e-03,2.947879768908023834e-02
-4.298224540737762278e-01,-4.382842436821919319e-01,-4.417517119212261978e-01,2.152320189039938752e-03,-1.767333349183989938e-03,-4.108886835119691244e-03,1.367051247507333755e-02
-3.311609788079794559e-01,-4.443935131531818183e-01,-4.432630484876178834e-01,-1.621356335109657570e-02,6.949514512683733526e-03,-1.596388932993976148e-03,1.167735010385513306e-01
-3.831208505114262475e-01,-4.617475253755195519e-01,-3.848160633482415882e-01,1.571255992187415573e-01,1.733121627028748335e-01,1.516190167490506779e-01,4.890740215778350830e-01
-4.412098994022957688e-01,-4.248816887669041864e-01,-4.202609593901789342e-01,-2.059854038017322215e-03,-1.248476978765513182e-03,1.438051035801333338e-03,1.967279613018035889e-02
-1.506832974405811487e-01,-4.053225674028872461e-01,-3.584824395386749796e-01,4.126774718820721416e-02,1.136285912031524820e-01,2.045955107000089687e-02,3.165549635887145996e-01
-6.184780914047109945e-01,-6.996007347874227955e-01,-6.683779491838249820e-01,-1.631797676165468169e-01,7.814913352893425313e-02,-1.597681075873696177e-01,4.240344166755676270e-01
-4.660449019441464391e-01,-4.635884533327591650e-01,-3.616188875330028640e-01,-5.962226243743394549e-03,-3.267057731013292728e-03,3.166499698970495335e-03,1.040339097380638123e-01
-4.671752967641719101e-01,-4.857237806247234890e-01,-4.102423299874610740e-01,-2.144511074065880585e-03,-1.105930322896961707e-02,-5.687611436555369514e-03,7.154856622219085693e-02
-4.619615330674637366e-01,-4.744355591287168217e-01,-3.839636449021207043e-01,-9.515878214658844052e-04,-2.511361545355752026e-03,-2.796719436604375511e-03,8.518991619348526001e-02
-4.657801516488016547e-01,-4.657632667382403113e-01,-3.582935507445372814e-01,-4.267853892786110069e-03,-1.585857376648324921e-02,7.861207976634178307e-03,1.120092719793319702e-01
-4.463432753642800899e-01,-4.437528618733644348e-01,-3.421151698573333677e-01,-5.948263443510629772e-03,-1.036372692668725143e-02,2.700784164529812861e-02,1.149645671248435974e-01
-4.667121910955458475e-01,-4.718986958918534591e-01,-3.691402432655273014e-01,-5.506164136208298136e-03,-1.000717104911780057e-02,-3.511842165705712543e-04,1.022007614374160767e-01
-2.573450388447658388e-01,-4.549411881887677755e-01,-4.470083466673532291e-01,1.545945627710064441e-02,-5.385630224134896338e-02,-1.394791085884590325e-02,2.180407941341400146e-01
-4.257024449006453493e-01,-4.526916132445642504e-01,-3.680872086870162763e-01,2.836418070622530666e-03,8.288632294693109095e-03,5.346314937223311560e-03,7.693443447351455688e-02
-4.476977241006225849e-01,-4.623521792196202407e-01,-3.744254596873355379e-01,1.062664157761097385e-02,3.478183612153296772e-02,1.728231169743393164e-02,1.073381677269935608e-01
-3.813529711331110073e-01,-4.593460964884290565e-01,-4.646948023796872995e-01,-8.207695995937290198e-03,-7.415755905640013072e-04,-4.441971046393274059e-03,8.241140842437744141e-02
-3.098881129682452551e-01,-4.232517753957519280e-01,-3.486081628333463911e-01,-4.610416915389620868e-02,1.207926663580931176e-01,-4.350786678429623133e-02,2.564942538738250732e-01
-4.106514398278963140e-01,-4.489551299565497922e-01,-3.726282494348167607e-01,4.468558568812639430e-03,1.216081257484160315e-02,4.010928187463235449e-03,7.015117257833480835e-02
-4.056608307677591063e-01,-4.379286611180525646e-01,-3.762307649972606582e-01,7.380839370235688611e-03,9.059785939661099685e-03,2.986086218953592879e-03,5.738820135593414307e-02
-4.395030546417704187e-01,-4.266094277984054384e-01,-4.523739282593796096e-01,-2.527190554948088256e-03,2.928414289419067982e-03,-1.118598092479105265e-03,2.337729558348655701e-02
-4.096425849302261502e-01,-4.533083773241166070e-01,-3.955614874830857830e-01,9.666283513416633333e-03,3.895186772631534927e-02,6.544616949313786930e-03,8.763784915208816528e-02
-4.208576249699266247e-01,-4.330240834129201466e-01,-3.580585853348466352e-01,1.123667093734426713e-02,1.331985630723276845e-02,1.044760969108287328e-02,7.806590944528579712e-02
-4.303223391312792634e-01,-4.366397887515154896e-01,-4.374656376244485667e-01,-1.913927590278184079e-04,-7.452676978293561270e-04,7.102353110103718946e-04,7.007062435150146484e-03
-4.270797403122771341e-01,-4.343488179475307187e-01,-4.329629095046511056e-01,-1.524436024672173699e-03,-1.203970507045419277e-03,1.170757868358493319e-03,7.753600832074880600e-03
-4.298320219848491552e-01,-4.371128041810701248e-01,-4.357352680361053499e-01,-4.518317245129993228e-04,-4.098337458863936288e-04,4.163072302080496551e-04,6.820127367973327637e-03
-4.232789720505030773e-01,-4.519469664548075305e-01,-4.688086999438902391e-01,-4.720844874248481850e-03,8.040506828138608468e-04,-1.390572371108132147e-03,4.079416394233703613e-02
-4.359310172809158779e-01,-4.331247638490905993e-01,-4.305368612997367839e-01,-1.433436291272630102e-03,-5.246233630288786544e-04,5.776568721016059511e-04,5.461279768496751785e-03
-4.165665028035444584e-01,-4.142126222802085533e-01,-4.515033239980272839e-01,1.774144780834077803e-03,3.364831841045729465e-04,-2.458124615350785309e-04,3.630871698260307312e-02
-4.123132674876157089e-01,-4.262687605885600584e-01,-4.455502834016056846e-01,-6.980584901566598251e-04,-2.659255144581423348e-03,-4.282189893921606490e-03,3.022092394530773163e-02
-4.304369379217335978e-01,-4.145562430563525247e-01,-4.769651124330718250e-01,2.154527117900898944e-02,-1.919881437539427830e-04,-2.763039660573324784e-04,6.744555383920669556e-02
-3.410486940869426054e-01,-4.704420212968714043e-01,-3.971780579887658202e-01,2.171336836095922110e-02,-8.228873119023992488e-02,-3.846065732846040697e-02,1.969689279794692993e-01
-4.317689896423005380e-01,-4.275314929570605549e-01,-4.530176274440882445e-01,-2.993745482352013279e-03,7.272295281190244501e-04,4.132485252976701739e-04,2.425878122448921204e-02
-3.999822299961553473e-01,-4.171817132205755674e-01,-4.434381121348091037e-01,2.397111504923145776e-03,1.741806616052110623e-03,5.866952046679000873e-03,3.957803174853324890e-02
-3.087264147459060637e-01,-4.429136769726159661e-01,-4.500725460683543400e-01,2.475417313132583300e-02,-3.323200837438131973e-03,-3.935068901672248050e-03,1.446927487850189209e-01
-4.021482854380652450e-01,-4.391045752896179932e-01,-3.932877705304185234e-01,3.417996370898373614e-03,4.958442531673984757e-03,2.780611663799512426e-03,4.363175109028816223e-02
-4.344402024289555353e-01,-3.641251393184964380e-01,-4.491881443038128197e-01,1.499041626527696305e-02,7.197296183033286172e-03,6.961115179122821101e-03,8.469725400209426880e-02
-4.971312181648058770e-01,-4.879270780166674037e-01,-3.966479705268151079e-01,-8.143170243192075124e-04,-3.131528179825827235e-02,-3.481713914060272780e-02,1.258465945720672607e-01
-3.839874267063783653e-01,-4.316344919854727125e-01,-4.598108641625269222e-01,6.422991062066345409e-03,1.880061496423892590e-03,2.328069025498047569e-03,6.750778108835220337e-02
-4.303200488185709438e-01,-3.960627652131477050e-01,-4.307633790447377153e-01,3.380843245978492045e-03,8.539197908018509448e-03,3.923675234085984703e-03,3.857687115669250488e-02
-4.616512026631398036e-01,-4.552956164157168084e-01,-4.068171269297343740e-01,1.683367576814573038e-02,-1.542469293796327676e-02,-1.642195194519413537e-02,7.121509313583374023e-02
-4.185162284779171959e-01,-4.480702076201711903e-01,-4.029679320429604417e-01,7.365916369175776017e-03,-2.077634573715594901e-02,-9.676099119042477770e-03,5.756146088242530823e-02
-4.036528681370659122e-01,-4.064253085571023494e-01,-4.489376301174187733e-01,1.565872289253946587e-03,5.783747369481101637e-04,1.355966805210556117e-03,4.412167519330978394e-02
-4.301314342618472453e-01,-4.805403750624254733e-01,-4.001745249666328608e-01,-1.781390338657166646e-03,-2.998517513057357559e-02,-1.411405215907137606e-02,9.084627032279968262e-02
-4.507680270292016012e-01,-4.387600967213860503e-01,-4.079158623924994398e-01,1.111220092405566448e-02,-1.620703664913350148e-02,-1.619750216324542663e-02,5.840767920017242432e-02
-4.758783741498959774e-01,-5.234360906009332126e-01,-4.630131759853762796e-01,-6.081069052536510443e-03,-6.223892680414774142e-02,-2.757051089373833280e-02,1.305813044309616089e-01
-4.593590585003120563e-01,-4.893574946684018379e-01,-3.945931653186314780e-01,-2.927769685016888036e-04,-2.764490922528223260e-02,-1.521154168761588640e-02,1.001227051019668579e-01
-3.437494620528224742e-01,-4.602701616266410278e-01,-4.673700997021481562e-01,1.284105079052298010e-02,2.345094105571966358e-03,-4.294415675195349712e-04,1.223376542329788208e-01
-4.412626165976741843e-01,-3.486239690489292276e-01,-4.585065163568770030e-01,9.900470579604971413e-03,3.250883471044691952e-03,6.968899798834445394e-03,1.046335622668266296e-01
-4.070641099589050738e-01,-4.106552294819573179e-01,-4.426109380649609903e-01,1.942602041587537321e-03,1.277791363827878324e-03,1.721486214463782390e-03,3.426266461610794067e-02
-3.541318171641349988e-01,-4.354214821661928081e-01,-4.394984097011020996e-01,1.238290736034720896e-02,1.267839391687460363e-02,1.049133408782150674e-02,9.071097522974014282e-02
-4.193859128701866168e-01,-3.571095179260569408e-01,-4.554262312449398054e-01,1.733377191751226884e-02,6.085213919477030012e-03,2.759941510767013884e-03,9.196214377880096436e-02
-3.650258239406694027e-01,-4.474404529820766308e-01,-4.476570712529019391e-01,8.671895314150216902e-03,1.350420923178420780e-02,1.132907332686528684e-02,8.926258981227874756e-02
-4.878594412427681992e-01,-4.962056341106229618e-01,-4.071450375139237798e-01,1.149691816584524906e-01,1.561925772869315887e-01,1.610048615731349830e-01,4.448234736919403076e-01
-3.640257211733018416e-01,-4.557343343327159291e-01,-4.720837135169290155e-01,7.472797743150792413e-03,1.723064531964953704e-03,-2.651877258464244969e-05,1.017525792121887207e-01
-2.854629417150840731e-01,-4.277276055737462279e-01,-4.364147932314210165e-01,4.036082756830316337e-02,2.026443726628293640e-02,7.589783428808919699e-04,1.663467437028884888e-01
-3.770437918252259601e-01,-4.382240421443673317e-01,-4.750958891191984779e-01,3.132782707702336938e-02,1.512432753032035698e-02,9.244590428138259666e-03,1.060438901185989380e-01
-3.419447512549084189e-01,-4.379808468543731070e-01,-4.357131693372670589e-01,7.880027276484978527e-03,5.962886980585517006e-03,7.773227519855340807e-03,9.738848358392715454e-02
-3.495405288897852625e-01,-4.118886037808968115e-01,-4.324299786399530277e-01,3.331754790813479250e-02,2.350632114465129804e-02,1.447304838154726651e-02,1.058592051267623901e-01
-3.532098876726790238e-01,-4.145682057727320124e-01,-4.329439062921471848e-01,1.429312533773176817e-02,9.450685187015622074e-03,1.435278131004696749e-02,8.202953636646270752e-02
-4.381520303657548410e-01,-4.364635607195710976e-01,-4.264643658685314254e-01,2.561580840007370453e-03,-1.394444565331596966e-03,-2.017453216181941053e-03,1.254779007285833359e-02
-3.770785703758586238e-01,-4.725308023488021258e-01,-4.744086805143534202e-01,-2.022258156034530650e-03,4.586609113457483164e-03,-3.119332629905604073e-03,9.694571793079376221e-02
-4.501782752681736111e-01,-4.103089440254518716e-01,-4.048820341761399932e-01,4.518620063464749725e-04,5.413571061543248197e-04,1.843086635752427338e-03,4.297749325633049011e-02
-4.422744475457809354e-01,-4.337887908377299206e-01,-4.316935531601230891e-01,2.623935365346758471e-03,-2.943579117622184549e-03,-2.261894904631482107e-03,1.249693799763917923e-02
-4.510889235308782053e-01,-4.361573106573353176e-01,-4.317478763932338648e-01,3.793849197301033763e-03,-2.814319514664418743e-03,3.102544490517578427e-04,1.937694475054740906e-02
-4.469134920247216369e-01,-4.305388257497644311e-01,-4.279956329793596082e-01,1.653966020430081224e-03,-3.175762216632178718e-03,-2.214980220531674159e-03,1.922038197517395020e-02
-4.415041937470788325e-01,-3.109864272968299037e-01,-4.602221696699780873e-01,4.586337967412219829e-02,2.351137404716400689e-04,1.895440607783099168e-02,1.649745553731918335e-01
-4.840020845961145457e-01,-4.123748790603090075e-01,-5.670339193406084277e-01,9.086902458330028964e-02,6.346416618770876240e-03,2.073870330086250227e-02,2.101302742958068848e-01
-4.422472794752453917e-01,-4.303506045691569137e-01,-4.277849393635249076e-01,1.230821370151721772e-03,-1.920680742418394253e-03,-1.429406046238018224e-03,1.415548659861087799e-02
-4.627602271402902478e-01,-4.689292521650785805e-01,-4.489848904644436201e-01,-6.126056863739439556e-02,4.166410058132755806e-02,-5.170083362308917213e-02,1.574737727642059326e-01
-3.925362879091967572e-01,-4.576911401399174628e-01,-4.621036989016004681e-01,-3.744379839130367125e-03,3.204045660796495196e-03,-8.361507228627667373e-04,6.802265346050262451e-02
-4.231847867740937685e-01,-4.417555309812065123e-01,-4.212420579147344579e-01,-2.492138366480209540e-03,1.072650642621898265e-03,-1.241064762168840683e-03,2.028372138738632202e-02
-4.305425082446731055e-01,-4.357049704046609406e-01,-4.309230944640273786e-01,-5.168083102907779919e-04,2.662554882826289205e-04,-1.926885302379874971e-03,6.081423256546258926e-03
-4.227333830455396457e-01,-4.341860364349470203e-01,-4.201649837729533044e-01,-3.590285323880125327e-03,2.403047760702048830e-03,-6.536127934451335187e-04,1.498168613761663437e-02
-4.479729946308761979e-01,-4.472215725684882681e-01,-4.217540875281849400e-01,4.807608907855081583e-03,-8.464163894547757291e-03,-1.018841331557461018e-02,3.555237129330635071e-02
-4.474292490293750313e-01,-4.395273114474462228e-01,-4.293378846843921015e-01,4.574836194500022518e-03,-6.052893677446567755e-03,-5.768828290467336965e-03,2.278857864439487457e-02
-6.551978045908694037e-01,-5.077363763664736185e-01,-3.575391471493527540e-01,-8.531558919946401198e-02,-2.345132458680149537e-02,1.714271805352277356e-01,4.220193922519683838e-01
-3.694758992675424292e-01,-4.306555890595297198e-01,-3.952150858934343480e-01,6.201644840673458010e-03,1.512455057229359842e-02,9.509479710950686712e-03,6.247937679290771484e-02
-4.445080457918527683e-01,-4.436995380338929484e-01,-4.169032657045184109e-01,5.511324602031963948e-03,-2.864969916544430825e-03,-3.219229021479704401e-03,2.978586032986640930e-02
-4.383927983472489798e-01,-4.369398216588550321e-01,-4.036748250095730794e-01,5.327794043523769937e-03,-6.691630352402813155e-03,-7.601679732766726712e-03,3.936814516782760620e-02
-4.133642645866655307e-01,-3.928155573836554781e-01,-4.233500626158708258e-01,4.881444415919125937e-03,9.954975904133477743e-03,4.455248308575035510e-03,3.399262577295303345e-02
-3.999632480696015402e-01,-4.017538058654767097e-01,-4.259645412586456903e-01,1.377524439331559826e-03,3.456321375118425951e-03,2.670253655425022885e-03,2.637496031820774078e-02
-4.061021628453778121e-01,-4.066055207954270001e-01,-4.223295218371739823e-01,2.371967621072776974e-03,2.417329913428536547e-03,4.832241341716393170e-03,1.897032372653484344e-02
-3.855522658114249879e-01,-4.421458108913447482e-01,-4.274387186977300357e-01,-8.284846948926133858e-04,7.440699006060124895e-03,-4.760305087330386244e-03,5.313128978013992310e-02
-4.236975507246156236e-01,-4.407294842443159610e-01,-4.377084457870302758e-01,-1.778680413450056891e-03,2.493076613980200768e-03,-4.693490489841351324e-03,1.849278993904590607e-02
-3.645872915390168667e-01,-3.990161621167779837e-01,-4.337776586239155963e-01,2.659353436286343575e-02,1.644685551046238051e-02,1.266577817680457178e-02,8.369539678096771240e-02
-4.120574059564096059e-01,-4.130522006849041694e-01,-4.253970750261118483e-01,2.813266949233838698e-03,4.654242209805680049e-03,4.255535591092049832e-03,1.757054962217807770e-02
-4.059449746986603103e-01,-4.192047339876643353e-01,-4.266761669166417303e-01,1.203322763034710141e-02,8.029989850002101220e-03,1.009581538418981989e-02,3.555738180875778198e-02
-4.401407161513731792e-01,-4.714362792758601262e-01,-4.364122233542929719e-01,-5.629589813113912086e-03,-1.147721065572417619e-02,4.935057217568934729e-03,4.090622812509536743e-02
-4.342595688790890085e-01,-4.259946096994423614e-01,-4.359883025434916903e-01,-1.099282040003592273e-03,1.428364686769332268e-03,-5.073382787212048347e-04,9.803269989788532257e-03
-4.334360820955200921e-01,-4.276584620114594615e-01,-4.325104172524279478e-01,-9.143458667204875908e-04,1.130383779679125511e-03,-8.021320586411659218e-04,6.096002180129289627e-03
-4.429373008347118890e-01,-4.150236509441841970e-01,-3.954237541239468690e-01,5.556036094161529576e-03,1.720158708693394394e-03,2.978869549369574880e-03,4.287818819284439087e-02
-4.266270897648195559e-01,-4.341332810605010306e-01,-4.430362682466331692e-01,-2.310761929428175633e-03,-1.900372810905929209e-03,2.559218255183358208e-03,1.577769033610820770e-02
-4.371898968119041773e-01,-4.267481963715121784e-01,-4.353368209238542286e-01,-8.072375968336765930e-04,1.767212342496985410e-03,-8.116785841904396517e-04,1.031572651118040085e-02
-4.385021868734683692e-01,-4.397878978295253205e-01,-4.358719254179598823e-01,-4.428039823567214359e-03,6.771144371124088049e-04,-3.961074228202641871e-03,1.091885846108198166e-02
-3.989266548588716321e-01,-4.141310044465504880e-01,-4.431950679983916452e-01,2.890768382189300330e-03,1.518679727504549867e-03,6.390428125975753347e-03,4.089368879795074463e-02
-4.358066897716696975e-01,-4.370237321444327416e-01,-4.303748334685397192e-01,-4.469099418500985417e-03,2.211111683717871795e-03,-1.205675774929363103e-03,1.079553645104169846e-02
-3.878276690701553120e-01,-4.323538069586589372e-01,-4.459107038960232194e-01,5.449088956613593396e-03,3.180260708627313804e-03,8.223045187624230395e-03,5.560825392603874207e-02
-4.378406357635767354e-01,-4.336892111392817717e-01,-4.364946732220874592e-01,-1.872565736080612558e-03,-6.926923597753042354e-04,-7.213183979415317042e-04,5.194049794226884842e-03
-4.377869892191034173e-01,-4.341263556501605003e-01,-4.380405394567672417e-01,-7.702160675317853934e-04,5.665122562643865826e-04,-6.417574964567946349e-05,4.140959121286869049e-03
-4.320825662768837394e-01,-4.362853245480979303e-01,-4.309742967951392667e-01,-2.147553778553124709e-03,4.760858084530644827e-04,-3.917762182616144409e-04,6.206901744008064270e-03
-4.228714638712106622e-01,-4.180768486641132653e-01,-4.287966507551762008e-01,3.959236962461644763e-03,6.231896476996768262e-03,4.125212025222919736e-03,1.735204830765724182e-02
-4.164321412458057425e-01,-4.193964343613577062e-01,-4.243262028075717729e-01,1.095793781752544063e-03,1.784325802718728961e-03,6.233715076814286401e-04,7.875433191657066345e-03
-4.254744337146797450e-01,-4.121750014766799031e-01,-4.111648950228968258e-01,2.944174436691269440e-03,-1.897910605410825903e-04,1.003218554009802175e-03,1.484792772680521011e-02
-4.251830635839536909e-01,-4.061210658159165598e-01,-4.005895953294742462e-01,4.742562188865267689e-03,2.327763718000856741e-03,4.675051433517505260e-03,2.546953596174716949e-02
-4.137258653188568003e-01,-4.139671397499821714e-01,-4.165339512679095413e-01,3.632683575543225541e-04,2.830342550804015042e-04,8.013103764330415952e-04,3.135052276775240898e-03
-4.129071334327062415e-01,-4.115317233900074312e-01,-4.168946362607948708e-01,1.540999208523427186e-03,3.853828326307463369e-03,2.554165039201534548e-03,9.722534567117691040e-03
-3.589172642796730761e-01,-4.625181397351411650e-01,-4.459099086712205451e-01,5.266035235380123886e-03,8.969009312816378712e-03,2.267956838239682752e-03,9.812390804290771484e-02
-4.162395282341156411e-01,-4.058416930123931454e-01,-4.180310253043584279e-01,1.092550845063554581e-03,5.180725657560442468e-03,6.487053499709360916e-04,1.467362791299819946e-02
-4.158791824137456627e-01,-4.132655566746992748e-01,-4.112933987070844788e-01,1.360990617870604579e-03,1.090083609646198485e-05,7.379732093421489253e-04,4.802706185728311539e-03
-4.130230626965555873e-01,-4.149203031924759699e-01,-4.133054295070072159e-01,1.165996498721830633e-03,7.263697997321410084e-04,1.250387303170608349e-03,3.673611674457788467e-03
-4.499771458550079761e-01,-3.660290603245388019e-01,-4.441210310229231073e-01,2.057048303249625273e-02,1.059593686083349674e-02,2.531727006438732122e-02,1.005938053131103516e-01
-4.166727884082319089e-01,-4.149262677737897143e-01,-4.164389691470692934e-01,2.588965999334175562e-04,3.725045823009561614e-05,7.124072317551850006e-04,2.103438368067145348e-03
-4.496348016059663055e-01,-3.911132446791289463e-01,-4.401364944265379053e-01,-1.190781675893204817e-03,-8.305821253923827835e-03,7.173653516758011703e-03,5.766049399971961975e-02
-4.584148109390103754e-01,-3.291566250148021955e-01,-4.554097864777851834e-01,6.367847442119306707e-03,9.793724010389503673e-04,6.654956604549994333e-03,1.287853866815567017e-01
-4.186770768356525285e-01,-4.171195514376772051e-01,-4.155826917408553256e-01,7.018396168536193961e-07,5.213575099330194917e-04,1.008029646131798586e-03,3.323452314361929893e-03
-4.153467515459178805e-01,-3.924365521350997033e-01,-4.251390964126597893e-01,3.929267095585022712e-03,8.425018953041015293e-03,3.701339849776508813e-03,3.384482115507125854e-02
-4.336451931929112824e-01,-4.511838431237148450e-01,-4.153100753258268663e-01,-5.159753086880766032e-03,6.134930311443382613e-03,-4.957734168201942924e-03,3.509804233908653259e-02
-3.330741578375424061e-01,-4.342180293011300152e-01,-4.006268750716379112e-01,1.319737080839467058e-02,4.854421868074097757e-02,2.613308278002645811e-04,1.247126683592796326e-01
-3.644964712343898294e-01,-4.568389383818410865e-01,-4.433254028913624634e-01,1.744103888116798305e-03,7.605487284384132747e-03,-8.125451484498192982e-04,8.744432777166366577e-02
-4.240935062575568737e-01,-4.621911433376323375e-01,-4.068687325122073983e-01,-2.744014666064532003e-03,1.428623950273349118e-02,-1.577199125808821092e-03,5.519680678844451904e-02
-3.932397020644628483e-01,-4.706059776305960840e-01,-4.438152332125557264e-01,3.243786393358057737e-03,3.069846787063046020e-02,-3.262732137284564318e-03,8.672528713941574097e-02
-4.075288608020996017e-01,-4.436726099766374332e-01,-4.118302797052867947e-01,-1.835762607778169270e-03,2.141189482200653912e-03,-2.540383370978466487e-03,3.482281044125556946e-02
-4.531405251164112302e-01,-4.661731052266632203e-01,-3.818087057648995031e-01,-2.884800694618543104e-03,-4.229322187279896221e-03,4.391058032840517399e-03,7.952475547790527344e-02
-4.044383619977106048e-01,-4.476423238853527997e-01,-4.141328682036424791e-01,-1.963193322469564735e-03,1.400340926966853368e-02,-2.373175748301463266e-03,4.645933210849761963e-02
-4.570090771470924351e-01,-4.310259412806058954e-01,-3.815575075863026355e-01,3.519867573002119585e-03,3.233876330707107210e-03,7.538672340661316598e-03,6.816620379686355591e-02
-3.868173233076323547e-01,-4.445449219099752991e-01,-4.308949126884720204e-01,4.094338376384868902e-03,5.980418173462149524e-03,7.724164318087438710e-03,5.538403615355491638e-02
-3.938965051945453877e-01,-4.339988954595047077e-01,-4.334042908017783913e-01,3.560383101488792494e-03,3.532468480354856132e-03,7.639593463580091059e-03,4.283998534083366394e-02
-4.104645637966198302e-01,-4.359612367044446435e-01,-4.141739806199195018e-01,-5.820005548274268491e-03,8.544478510134272814e-03,-5.681064183660885537e-03,3.141221776604652405e-02
-4.091290651314216653e-01,-4.387260961900996126e-01,-4.234115966078910165e-01,-4.413280848367473821e-03,6.319073006985716397e-03,-8.534818714262596556e-03,3.246547281742095947e-02
-4.101747505984463804e-01,-4.427173851788352432e-01,-4.033635829809228412e-01,1.224027210436381789e-03,2.305102422853875458e-03,1.576143245694360158e-03,3.680973127484321594e-02
-3.883373641578380941e-01,-4.382052416662645666e-01,-4.135475609580793743e-01,-1.094160898155969140e-03,1.364874806140425716e-02,-4.042800277935002309e-03,4.976614937186241150e-02
-4.084680878130924064e-01,-4.095528398544936444e-01,-4.082271942850247415e-01,1.614063746494574271e-03,2.513778079834363011e-03,5.395251019720048724e-03,1.075151469558477402e-02
-4.168734076058157045e-01,-4.099917098079967070e-01,-4.490550013721325007e-01,4.866197694059640547e-03,-1.973315502114776198e-03,-1.654403616612731397e-03,3.735518082976341248e-02
-4.127008266005872117e-01,-4.148224702290273513e-01,-4.550442093195434246e-01,9.635033838572735002e-03,2.780855475992876670e-03,4.069820391889321701e-04,4.483105987310409546e-02
-4.000247777117409420e-01,-4.062859834911637380e-01,-4.472195626875355434e-01,4.997601993472679076e-03,8.742612915222980384e-05,1.065072624737111676e-03,4.527039080858230591e-02
-4.023169006189908359e-01,-4.396406204082062841e-01,-4.023696926761686776e-01,1.227858260958447200e-03,1.044271221050824391e-03,1.562652415123216929e-03,3.749949857592582703e-02
-4.059133310018836482e-01,-3.983536704900128012e-01,-4.454301602847013375e-01,7.693864298051323117e-03,9.805360558244569872e-04,1.244862262555783330e-03,4.585392028093338013e-02
-5.619766224884373829e-01,-4.636419234138155487e-01,-3.800212625352001883e-01,-1.688803793340505968e-02,-3.145534553692855978e-02,7.930365134884882761e-02,2.181194275617599487e-01
-4.004713939098502595e-01,-4.486450070865113382e-01,-4.226820931894590405e-01,-4.449201102777575363e-03,4.820108695695384145e-03,-3.022559224802902171e-03,4.359514638781547546e-02
-4.357090290343098027e-01,-4.283788032198060924e-01,-4.508270282502518378e-01,-1.118962970801138518e-03,9.096442342018367776e-04,-4.394464498936250332e-04,1.999806053936481476e-02
-4.621834381958200844e-01,-4.432925578472776129e-01,-4.167495901322204044e-01,6.305238319031569727e-03,-9.266420876557606920e-03,-4.011546585623732009e-02,8.226441591978073120e-02
-4.084202023648411117e-01,-4.388635414392485501e-01,-4.092739377127624367e-01,6.593446779704887446e-04,1.576689713787476433e-03,3.113434974941643903e-03,3.064926899969577789e-02
-4.530921626296060545e-01,-4.454911369360784468e-01,-4.112432411973727109e-01,1.265599723701333950e-03,-6.912466124363281748e-03,-7.981115206129721362e-03,4.278153181076049805e-02
-5.406769878832127230e-01,-5.211937751934917484e-01,-4.787317626505540047e-01,6.869915395448002995e-04,-3.820536918338938298e-02,-3.487399570182572045e-02,1.050660163164138794e-01
-4.836120740097942239e-01,-4.429721760437266287e-01,-3.956451797303863205e-01,-3.623394741529252765e-03,-6.811763696748580031e-03,-2.089510282960800949e-02,8.545883744955062866e-02
-4.320110993760906681e-01,-4.255580763083511298e-01,-4.408839533780816167e-01,-1.411206283910924420e-03,3.285897419925309232e-03,-1.411708498690795273e-03,1.489867176860570908e-02
-5.318009318900402960e-01,-3.957981417017921721e-01,-3.628620575950167737e-01,3.999476854253423280e-02,-3.130025660637833496e-02,-1.110548369979112021e-01,2.622943818569183350e-01
-4.329826426422215824e-01,-4.272124753436749578e-01,-4.448734768870231671e-01,-1.639103744723380068e-04,7.481706640260270226e-04,-9.114724911617879755e-04,1.573375612497329712e-02
-3.255314346570576389e-01,-4.526647697288984640e-01,-4.504469107249152726e-01,6.204801213839611189e-03,6.162471773984113006e-03,1.416441443483961631e-03,1.269696205854415894e-01
-5.045663023557587223e-01,-3.748609211330526936e-01,-5.259715918472330776e-01,-2.005794027791313675e-02,-5.800978722731028707e-03,-3.198086168751117925e-02,1.563147306442260742e-01
-4.891573279027231491e-01,-4.668836627669233907e-01,-4.025189435311992137e-01,-5.537312301684582660e-03,-1.263585709496278624e-02,-2.804906998204778623e-02,9.488836675882339478e-02
-5.391489744052292421e-01,-4.313573405045944553e-01,-2.244415020352308054e-01,-3.087289754191313226e-02,-1.063781205299546145e-01,1.140176290596598419e-01,3.905705809593200684e-01
-3.872573610643237907e-01,-3.969534429286451505e-01,-3.521192523181588818e-01,4.431089700190007918e-02,-9.529538513499904995e-02,-6.805388789656069415e-02,2.206748574972152710e-01
-4.351272131740621663e-01,-4.283211791779666378e-01,-4.349050803073529758e-01,-1.430402382898877207e-03,2.392346641815746005e-03,-1.888790641678323541e-03,8.880895562469959259e-03
-4.361399058696403541e-01,-4.278583943567507153e-01,-4.382208629028034319e-01,-1.887117721553604739e-04,6.970429109758775627e-04,-8.273097922419536026e-04,9.683235548436641693e-03
-4.219592651597759980e-01,-4.299363365181309571e-01,-4.334445748882753136e-01,-2.534852113863506496e-03,2.606971958441184518e-03,-4.458330992544071170e-03,1.425560750067234039e-02
-4.446480053908671293e-01,-4.339327196813352328e-01,-4.464445617593478244e-01,-8.879303320096811752e-03,5.290589110784238609e-03,-6.672895120117141796e-03,2.431820891797542572e-02
-4.064806678285660113e-01,-4.200088056851648544e-01,-4.473777943763559972e-01,-8.307956144838727838e-03,3.245495723424739968e-03,-5.520300751338726164e-03,4.040310531854629517e-02
-4.085158546329109575e-01,-4.135402673832948572e-01,-4.333605215201903338e-01,2.114550283110752053e-03,1.640294055542321433e-03,1.191948384547696386e-03,2.331137470901012421e-02
-4.241196394926461388e-01,-4.541007716431102459e-01,-4.542494606774288290e-01,-1.531130565321914966e-02,8.353356902188564456e-03,-9.713220188082370699e-03,4.581519588828086853e-02
-4.289946963920627798e-01,-4.262795767162352312e-01,-4.426874118080356135e-01,-4.828432607697993179e-03,4.872571791702448411e-03,-5.166232498263907333e-03,2.129029668867588043e-02
-4.155651773929078807e-01,-4.181632235179402191e-01,-4.167446843433370018e-01,2.375284099907180695e-03,1.806202886634380739e-03,2.521676862903064580e-03,7.132058497518301010e-03
-4.318296174386690445e-01,-4.269320140401490216e-01,-4.440494672336260940e-01,-2.009138988173877517e-03,1.589411090789497874e-03,-2.404846734731684327e-03,1.643769070506095886e-02
-4.159484673855880499e-01,-4.286708371810263318e-01,-4.388843617307959244e-01,-4.497156762092975081e-03,3.232892532888772836e-03,-7.330221455104728688e-03,2.548214048147201538e-02
-3.738794328504049802e-01,-4.523330970256529415e-01,-4.237619838379133586e-01,-3.944760481477964549e-03,1.534536063093280660e-02,1.149058867284567407e-03,7.407335937023162842e-02
-4.121740594560073245e-01,-4.424468124476030884e-01,-4.171799648635373114e-01,-4.574526654226487962e-04,4.489706010400403187e-03,-3.546054142218438288e-03,2.981241047382354736e-02
-4.217466838449356881e-01,-4.412096548345865177e-01,-4.198795381937183158e-01,-4.254322590370813485e-03,4.977544925206497765e-03,-2.768906061752336549e-03,2.388011477887630463e-02
-4.020690812330094954e-01,-4.484042946477265756e-01,-4.028948533116705755e-01,1.685894959818320590e-03,3.693588969558089449e-03,1.738909012284246824e-03,4.656068608164787292e-02
-4.233934155209519989e-01,-4.146713897568035101e-01,-3.868099773592849622e-01,9.738092944894151046e-03,5.096484835201911187e-03,7.795700209641289596e-03,4.049780964851379395e-02
-3.853157498058956132e-01,-4.455674977867629671e-01,-4.250906465616688390e-01,3.477855414083948736e-03,6.941552696613935078e-03,8.474474354278116461e-03,5.667539685964584351e-02
-4.176160078392056052e-01,-4.430923137281315705e-01,-4.150206000503649517e-01,-2.965618053047960282e-04,2.588569061521410778e-04,-3.464277810461769075e-04,2.688353881239891052e-02
-4.029093867157544362e-01,-4.484930335352845798e-01,-4.066495595371892313e-01,-1.060609963336994711e-03,6.398236353757566497e-03,2.453414263921794257e-03,4.544899985194206238e-02
-4.201459675436269858e-01,-4.595022812326992612e-01,-3.990816620902872258e-01,-6.501701401891793637e-03,2.635845264314320285e-02,-8.985454913245963585e-03,7.262901216745376587e-02
-4.061946437746745686e-01,-4.282675570575939505e-01,-4.054890215776891793e-01,1.349150446571244525e-03,1.429507556878232546e-03,3.094369644930740782e-03,2.331529557704925537e-02
-4.406232254634354084e-01,-3.670312216394632232e-01,-4.409180561557236588e-01,7.745493333202955674e-03,7.706908277549173909e-03,7.947430396108203648e-03,7.736419886350631714e-02
-4.507814951391025393e-01,-4.281456408319733731e-01,-4.356167642582854382e-01,-9.158015560286371370e-04,4.867001147568659146e-04,-1.700383575224945123e-03,2.027276344597339630e-02
-4.023940305049865107e-01,-4.435240748464491789e-01,-3.948364314364329886e-01,4.138684435894239219e-03,6.323393072588584518e-03,1.466103886101097513e-03,4.730150848627090454e-02
-4.113689448825171291e-01,-4.520576202170499269e-01,-3.827969848553024468e-01,-5.857113016363454591e-03,3.637600927627452491e-02,-6.720583457008559060e-03,8.855810761451721191e-02
-4.433955141713191161e-01,-3.763880673022582113e-01,-4.070121856062088317e-01,1.236040467186753792e-03,1.004526176917605942e-03,1.108764384352208844e-02,6.125527620315551758e-02
-4.084509136667196505e-01,-4.496857467948369713e-01,-3.935264150359868429e-01,-8.407637522855842746e-03,8.071858918603947580e-03,8.561415876860545933e-04,5.429723858833312988e-02
-4.174262471797620111e-01,-4.524254318720896673e-01,-4.044190251151207338e-01,-4.204325076915197811e-04,8.040776484530241797e-03,1.508447403213532441e-03,4.528456553816795349e-02
-4.873950295830911661e-01,-4.868123938480174995e-01,-3.810782006258764398e-01,-5.059615924213609062e-02,-1.028535558126379146e-01,1.260236208849333794e-01,3.135346770286560059e-01
-4.354376266299654352e-01,-4.527388092072795467e-01,-4.320875307887687145e-01,2.268360740891315393e-03,-3.190238702708680929e-03,-2.129205775049333748e-05,2.035891264677047729e-02
-4.390170270378778161e-01,-4.518079321949217131e-01,-4.279235654292282143e-01,6.597576848398487709e-03,-1.110557885225385219e-02,-4.548833594996823902e-03,3.148378804326057434e-02
-4.162478115604885121e-01,-4.477941007714303923e-01,-4.259749256527408656e-01,5.763695542735640821e-04,-5.084751065560797444e-03,-2.672242851899695772e-03,2.971387095749378204e-02
-4.351459569418965612e-01,-4.569129459870141519e-01,-4.363904245024701756e-01,1.014876551719212259e-03,-1.268706585367531661e-03,-2.186621034356597566e-03,2.169158682227134705e-02
-4.341716131836326209e-01,-4.463787298617166166e-01,-4.272453025217820555e-01,1.429223074076024259e-03,-8.122084750641793199e-04,-2.898974398091837615e-04,1.702636107802391052e-02
-4.339687097511921721e-01,-4.478176555244007262e-01,-4.306409854197327247e-01,7.211843081021713110e-04,-9.426839812358486911e-04,-1.421739206612911231e-03,1.610101945698261261e-02
-4.901744894383711082e-01,-4.920309232491223428e-01,-3.236941138264233242e-01,8.055680461342921289e-03,-3.021966840266403394e-03,1.771171423647171714e-02,1.708549559116363525e-01
-5.385035123328001383e-01,-5.537106840687674447e-01,-3.658423259044780163e-01,-1.784552548832397598e-02,-2.114530000046331570e-02,2.680932864699637867e-03,1.870485395193099976e-01
-3.909523027269831141e-01,-4.495377726709777200e-01,-4.367179545610520019e-01,-1.255635132972416886e-03,6.565579924936200754e-03,-7.420410229677778212e-03,5.607840791344642639e-02
-5.344116667736908965e-01,-4.772543586491010403e-01,-2.914904008813993808e-01,-2.077309139612716279e-02,-3.183843227093472936e-03,2.301281790322428494e-02,2.265098690986633301e-01
-5.051292274004581806e-01,-5.163103747785284803e-01,-2.235797508369542774e-01,-1.264062577159513583e-02,1.600620225274145686e-02,2.533129781142982526e-02,2.927731871604919434e-01
-4.060553518387585714e-01,-4.717629763411872457e-01,-4.446271876775615972e-01,-3.471776274054583483e-03,4.246380507069964262e-03,-4.270279598311712763e-03,5.844463780522346497e-02
-4.090472800963528277e-01,-3.858445782206079144e-01,-4.360440447576437450e-01,5.554002911698214043e-03,8.754301460527880510e-03,3.659346077269492840e-03,4.749963432550430298e-02
-6.275181277840813365e-01,-5.614668080030688069e-01,-2.538234026663770959e-01,4.633993431087521896e-03,-5.619516335487295677e-02,1.673031049578082435e-02,3.601462543010711670e-01
-4.288783718579742277e-01,-4.362193473374310071e-01,-4.368722563302153139e-01,-1.461350493707450505e-03,-1.383946261516919712e-03,1.022945404060310315e-03,8.625602349638938904e-03
-4.297060025071345879e-01,-4.408208049446450949e-01,-4.415627515380179946e-01,-1.397355278531528218e-03,-1.368670211173740169e-03,1.753152415759629641e-03,1.237069629132747650e-02
-4.283333300133443378e-01,-4.393372976489732795e-01,-4.361383201508446383e-01,-2.330239274882558564e-03,-1.947903633369394219e-03,1.518531686952858577e-03,1.143285445868968964e-02
-4.278139468384684618e-01,-4.381773024586581022e-01,-4.365464269177051770e-01,-5.502833376992059908e-04,3.280197405411721035e-05,2.364134567928234979e-04,9.707568213343620300e-03
-4.286625495284703824e-01,-4.402376182015036998e-01,-4.385650564218488423e-01,-4.924922509190060322e-04,-6.489105501652056487e-04,1.001393029123910042e-03,1.106430869549512863e-02
-4.022180043988614617e-01,-4.367093028639613683e-01,-3.956121383531781555e-01,3.871645322676795821e-03,4.124836008520709960e-03,2.207315013631817521e-03,3.964543342590332031e-02
-4.287859804781064543e-01,-4.307217139911483916e-01,-4.360282985568805780e-01,-8.816638612318815783e-04,6.644147151413923921e-04,-2.282602548224609701e-03,7.840038277208805084e-03
-4.007835258814819723e-01,-4.096769954574305261e-01,-4.337923450081296317e-01,3.555586670232168279e-03,3.179962672014882263e-03,5.907918677156226775e-03,3.237416595220565796e-02
-4.011585813620581198e-01,-4.627386067308381090e-01,-4.537821546632207492e-01,-1.582293521464548649e-03,5.841645826702951232e-03,-4.157374808116901660e-03,5.901284515857696533e-02
-4.040162026453433808e-01,-4.103930832438030807e-01,-4.293332635363312777e-01,1.779033528780374481e-03,2.478410310973535018e-03,5.832548596085861126e-03,2.549809031188488007e-02
-4.092652232632719711e-01,-4.072032132284743033e-01,-4.374633522766271931e-01,1.143418535645048710e-03,2.580693798127005681e-03,1.350549505487262875e-03,2.978095598518848419e-02
-3.307320433253256864e-01,-4.345108010538054621e-01,-3.359231965895748129e-01,-4.940880830286282360e-02,-1.336902975736539989e-01,1.467962582955506523e-02,2.680442035198211670e-01
-4.367174099307144508e-01,-4.267755263667764587e-01,-4.440727981550986470e-01,-2.250443329921623416e-03,4.079267000782624969e-03,-2.017330628624467055e-03,1.741817407310009003e-02
-4.248287382592411121e-01,-4.437315711479092317e-01,-3.370885877598053804e-01,-4.778986144795753337e-03,-2.161117793297349238e-02,7.542697622834157629e-03,1.065575480461120605e-01
-4.347596717755288775e-01,-4.306670531365753840e-01,-4.467430252506416344e-01,-8.937148225321995122e-05,7.527354733342030320e-04,-1.782721769707267239e-03,1.485434826463460922e-02
-5.101271774822400129e-01,-4.982043109141642834e-01,-3.401954662952003661e-01,-1.535204176385122736e-02,-6.124926622149007814e-03,3.684669310908359613e-02,1.785651296377182007e-01
-4.389075175854461053e-01,-4.295431944783348888e-01,-4.417975020895583138e-01,-1.084502876364708658e-03,2.747879415907148728e-04,-9.942133959023632776e-04,1.139410585165023804e-02
-6.443302037461171583e-01,-6.205518620194425683e-01,-3.320714194326013780e-01,-3.125107300696641777e-02,6.071169081282653396e-02,4.838959433753990680e-02,3.341530263423919678e-01
-4.639776405164829365e-01,-4.714231243245871061e-01,-3.622981239361184880e-01,-3.213693757770747731e-04,-1.430083734549515576e-04,1.668938413215014308e-03,1.056406125426292419e-01
-4.700390540745953416e-01,-4.677904067882988071e-01,-3.465956282612036032e-01,1.236066557312242220e-03,-3.277204513241344097e-03,-1.512245238700398809e-03,1.225129365921020508e-01
-4.670016095365833730e-01,-4.683704664308351306e-01,-3.846888360345946389e-01,2.299631220327404222e-03,-4.719605093548978440e-03,-1.269293916383170849e-03,8.353120833635330200e-02
-4.660329548141388667e-01,-4.670435536508639185e-01,-3.536459111411134337e-01,-3.640406022284938328e-03,-1.616490003665044554e-03,3.016039139339535876e-03,1.132269129157066345e-01
-4.170683547362796229e-01,-4.252070501396361668e-01,-4.186353962587040511e-01,1.407088826742018293e-03,2.429908259167467589e-03,6.380322783548005462e-04,8.989695459604263306e-03
-4.804957552533304921e-01,-4.879328974939995400e-01,-3.790845098597825924e-01,-2.858438215640973432e-03,-1.408340731835154916e-02,2.861901846799209557e-04,1.082291379570960999e-01
-4.112622930931702503e-01,-4.226315485330093824e-01,-4.221786656365303925e-01,2.118824041208292909e-03,3.157841328301830806e-03,4.398895356157166148e-03,1.502501592040061951e-02
-5.139420963093983552e-01,-4.417089313768450820e-01,-6.034919432223634361e-01,3.200438331736874670e-02,-7.004285776193874824e-02,-1.860671312305807457e-01,3.759774565696716309e-01
-4.540403366042772837e-01,-3.759842171625841778e-01,-5.185193823175975325e-01,4.983942904621289915e-02,-2.235185110258211538e-02,-1.674071363621442571e-02,1.583501398563385010e-01
-4.192526272068342053e-01,-3.382317362323182808e-01,-4.076149892528516117e-01,1.829257728897239893e-02,-4.601447333401832880e-03,-2.277093132188764968e-02,9.154151380062103271e-02
-4.133623737682819987e-01,-4.148356372883575949e-01,-4.138924545440912928e-01,4.010084861600176861e-04,5.122579998437038276e-04,1.248254217132569160e-03,2.759457565844058990e-03
-4.266469705661306011e-01,-3.763301033100031612e-01,-4.501012199060950847e-01,7.593417240028001690e-03,3.187047736869981409e-03,2.543361622714314201e-03,6.696932762861251831e-02
-5.116168444494361145e-01,-4.130239719080215366e-01,-4.707957581333637731e-01,-8.660963115091707687e-03,-1.148538209080170527e-02,-3.136586472944888349e-02,1.045680567622184753e-01
-4.373976247884406865e-01,-3.364532546587999384e-01,-4.486286347209644809e-01,3.015024796998436868e-02,-2.664234878281364002e-03,-6.984387384319795493e-03,1.197679415345191956e-01
-4.395414151239503964e-01,-4.316566110812479207e-01,-4.414673423214678927e-01,-8.953655466927541370e-03,-1.040972804855544442e-02,8.337118507421465222e-03,2.924343757331371307e-02
-4.364996531555762060e-01,-4.269357154702376755e-01,-4.372775881709681234e-01,-5.357388826777231350e-04,9.626236166715969409e-04,-1.700540368506733190e-05,1.015657745301723480e-02
-4.825703263073798377e-01,-3.051528750951153501e-01,-5.011532756451655413e-01,6.217241861572241762e-02,-1.932669809572348102e-03,1.070421680351318038e-02,2.169571220874786377e-01
-4.326449217109024636e-01,-3.451012132518829212e-01,-4.173015958710234452e-01,1.936002132011917232e-02,-8.639179114200612811e-03,-2.309237940194384248e-02,9.748958051204681396e-02
-4.404807417932571911e-01,-4.277526263731954437e-01,-4.386373919547688072e-01,-9.184823655270246429e-04,1.776786785225073365e-03,-4.898486799502762895e-04,1.243632100522518158e-02
-4.392707092883215148e-01,-4.290436928877580103e-01,-4.394230736216012123e-01,-1.230612964444432154e-03,2.234736171416646256e-03,-1.496783142170696667e-03,1.150737795978784561e-02
-4.061824074252287087e-01,-4.332536667800214181e-01,-4.200099399806513922e-01,1.724566258402461397e-03,1.399253318269807903e-03,5.915091122956661271e-03,2.587442845106124878e-02
-4.361583726807705119e-01,-4.294190202434829406e-01,-4.347831072015603260e-01,-8.074651155052722795e-04,3.333447294561232843e-04,-7.172562920600791293e-04,6.471055094152688980e-03
-4.353500334435724262e-01,-4.266191218559555187e-01,-4.345839443332127905e-01,-2.017596440925647691e-04,-9.548012812005048523e-05,-8.962234235597298798e-05,8.384546265006065369e-03
-4.379853411156468534e-01,-4.274413734963505851e-01,-4.380386152960717427e-01,-8.120454912922840445e-04,6.805405531808446300e-07,-6.375097250468854566e-04,1.072088256478309631e-02
-4.332330848931074674e-01,-4.283638227735160897e-01,-4.342198029466859399e-01,-1.314857281723316122e-03,1.826048269127572912e-03,-1.554874933012663583e-03,7.206297945231199265e-03
-4.450267036602558179e-01,-4.494197138290966231e-01,-4.664836565844819871e-01,-2.457893245118524667e-02,-3.803424445309022683e-02,3.685965289412890949e-02,1.030219569802284241e-01
-4.483568299002813617e-01,-4.339499591541421952e-01,-3.978331538798604017e-01,-4.755524310755205979e-03,-1.250720312182773859e-03,5.090476270005880530e-03,4.671818017959594727e-02
-4.280901593033562547e-01,-4.274711248479518555e-01,-4.273852860082510419e-01,-1.294024362549606177e-02,-9.660016782955594891e-03,1.304518191867513194e-02,3.596208617091178894e-02
-4.272968166557158942e-01,-4.254704003829800074e-01,-4.449063452266915353e-01,5.946334920032613630e-03,-3.002208387654511489e-03,-3.502788188214887855e-03,2.270503528416156769e-02
-3.941750876208536258e-01,-4.488231469232346615e-01,-4.132425862680463857e-01,5.178088343303687089e-04,3.989169269519273961e-03,2.612435935362581851e-03,4.875446110963821411e-02
-4.272637568644158668e-01,-4.298333890598459717e-01,-4.349235203817680695e-01,4.930976693398501920e-03,-3.932427554979103963e-03,-4.021311011420338269e-03,1.460960600525140762e-02
-4.312387854172826107e-01,-4.316517022489010369e-01,-4.355209475744208358e-01,5.176741277968407952e-04,-2.222142574919956128e-03,-1.339096920355976449e-03,6.143003236502408981e-03
-4.257889538630517112e-01,-4.309909700559916290e-01,-4.396307072256794846e-01,1.144653765426240435e-03,-1.310635995190233922e-03,-3.851773850389372377e-03,1.415070891380310059e-02
-4.247906135095941837e-01,-4.399870348078004922e-01,-4.297851230043706616e-01,-3.588010729688849432e-02,-4.722225201596453453e-02,1.719383732352676442e-02,1.077906861901283264e-01
-3.129373654891308143e-01,-4.647537584308999437e-01,-4.583775197266367063e-01,5.371935297177644897e-03,4.379320491130109932e-02,4.471592898065710267e-03,1.673945933580398560e-01
-4.189785640256773469e-01,-4.387803931630697707e-01,-4.155526799711414809e-01,-4.057377202373010742e-03,2.834475656689473561e-03,-2.827796597819102423e-03,2.385721914470195770e-02
-2.257051015087314649e-01,-4.608152726724167314e-01,-4.099009467354647329e-01,-3.667383641134325939e-02,7.331319054744775410e-02,-1.843581673563268394e-02,2.589934468269348145e-01
-3.866937593149274432e-01,-4.446179980129455478e-01,-4.119499976894692161e-01,-4.268650510713648699e-04,5.062531212939140601e-03,1.154829396936139405e-04,5.106487125158309937e-02
-4.603843539258897777e-01,-4.331740182431378927e-01,-3.820091821896257622e-01,-3.084330791741982016e-03,6.937142051243430814e-04,7.573528054791435656e-03,7.037409394979476929e-02
-2.691913295279725338e-01,-5.271610101235204571e-01,-5.094951115505248485e-01,-3.511123558947718687e-02,6.749553764253654609e-02,-1.202762338443337607e-03,2.822638154029846191e-01
-4.321072404564355041e-01,-4.262358688827058151e-01,-4.510658685681548374e-01,-2.037157723888623467e-03,2.570211109614129602e-03,-3.780397139228623866e-04,2.319294027984142303e-02
-4.088853054903920925e-01,-4.472373857604106107e-01,-4.502673629328193261e-01,-1.760391220983122465e-02,1.318970152682018282e-02,-9.869700635879913309e-03,5.779359489679336548e-02
-3.992572579474588101e-01,-4.297932351197514267e-01,-3.944912777773076917e-01,4.948706361254055948e-03,4.485092707172097341e-03,1.841158170328673765e-03,3.528003767132759094e-02
-1.841342670132864456e-01,-3.789468276468975216e-01,-3.620285312115249510e-01,-4.638916236843465546e-02,7.219963193266554224e-02,-2.459484610707167798e-02,2.425926774740219116e-01
-4.287250140515911911e-01,-4.413061416912278379e-01,-4.319436198221277001e-01,-1.130140518256521429e-03,1.453647105730093540e-04,-2.656463366880530263e-03,1.237804256379604340e-02
-4.143001326314090793e-01,-4.791918236418926669e-01,-3.921651968883500539e-01,2.705750704564958715e-03,5.945245492602822812e-02,-2.150814809193551252e-02,1.347249299287796021e-01
-4.654948730380935040e-01,-4.191393594344456908e-01,-4.450257354902539264e-01,4.641006037521755380e-04,4.047874016112093347e-04,-6.512768275441326374e-03,4.180129244923591614e-02
-3.773014024214363382e-01,-5.084341116358288559e-01,-4.907464396620159208e-01,-1.226146119419236832e-02,4.504168544017288917e-02,-2.486556128419148068e-02,1.535623222589492798e-01
-4.286186339447445315e-01,-4.282673341072392725e-01,-4.488247700221393299e-01,-4.979734551705211447e-03,4.345646002505439316e-03,-5.525782893960823686e-03,2.526182495057582855e-02
-4.051369403940587866e-01,-4.495927481431515327e-01,-4.107692846739533499e-01,-2.967052187525396820e-05,2.358018864090593268e-03,3.909392061081975447e-05,4.212291166186332703e-02
-3.890750492178969289e-01,-3.889746274075906451e-01,-4.263344312784834722e-01,1.449500306422774748e-02,8.369249440548049909e-03,8.494672945389501045e-03,4.948676750063896179e-02
-4.368062517070951389e-01,-4.267074066094532214e-01,-4.368327052073801564e-01,-1.264519398320489195e-03,1.217799975912456194e-03,-4.224428760800394921e-04,1.058470737189054489e-02
-4.373199469729668887e-01,-4.271390362439710930e-01,-4.325352872890102507e-01,-1.985740104308882439e-03,1.319180437592831637e-03,-2.298538153680701988e-03,1.052291598170995712e-02
-4.312953996682024616e-01,-4.269540242297046317e-01,-4.477282887852422899e-01,-2.935163099087228188e-03,2.599752065291315636e-03,-2.820950581198301312e-03,2.074183523654937744e-02
-4.569838383135614857e-01,-4.442036069304000634e-01,-3.532464560552996957e-01,-1.762512487256107574e-03,-1.076460984060545104e-04,8.503016625019748156e-03,9.912239760160446167e-02
-4.374015439949922035e-01,-4.288775683742437339e-01,-4.469461414535019772e-01,-1.333899755680368910e-03,5.253052868972489043e-04,-1.166963101675492489e-03,1.598019152879714966e-02
-4.352281821778370419e-01,-4.297038603896308206e-01,-4.434204013111688325e-01,-5.663630140103048096e-04,3.184948671141984273e-04,-1.299509013814287729e-03,1.221555657684803009e-02
-3.978458792435518587e-01,-4.226551990610495357e-01,-4.579438225705901311e-01,9.288941538940345688e-03,-1.166859702098198281e-03,-4.386414792442189063e-03,5.528956279158592224e-02
-4.369286220127909792e-01,-4.280023483510632665e-01,-4.378659333989268765e-01,-1.994846512145775051e-04,-1.205128323722652308e-04,-8.579089905779263255e-04,9.554820135235786438e-03
-4.017343883766463786e-01,-4.231221158112738467e-01,-4.484389688965363385e-01,1.803446441370559067e-02,-7.508179707275025247e-03,-6.015425447234374126e-03,5.378891900181770325e-02
-4.346085576650088322e-01,-4.277799021999272311e-01,-4.395094732877781185e-01,-2.862642258296146610e-04,3.396087694411332363e-04,-7.062164643217046364e-04,1.030554436147212982e-02
-4.037518428540320947e-01,-4.074540226963790368e-01,-4.439434179610155518e-01,5.160141376600054994e-03,-1.009863579317551129e-03,-2.358460339019406943e-04,3.953959792852401733e-02
-4.171993738457785428e-01,-4.199578736117767774e-01,-4.454173457369702827e-01,5.318103559599598670e-03,-4.068552539640012816e-03,-3.392954987798570913e-03,2.991766110062599182e-02
-4.079979825605741794e-01,-4.217353194324968135e-01,-4.522866706669067538e-01,2.872194646669679399e-03,-1.592238642375021608e-03,-2.427023346140342024e-03,3.989760950207710266e-02
-4.336630371819139018e-01,-4.289460930185805543e-01,-4.524844410603264810e-01,-7.463190140937730858e-04,1.268556005175922085e-03,2.897329243874693038e-04,2.172613330185413361e-02
-4.018674573848534104e-01,-4.269953947701196628e-01,-4.431488895630378844e-01,3.729010946103691101e-03,-3.318060019237283921e-03,-6.728342924924361063e-03,3.884339705109596252e-02
-4.322698313176316920e-01,-3.846873313955747054e-01,-4.111024180342010004e-01,4.122999978222436669e-03,8.136662144867490634e-03,6.905574737560813033e-03,4.579988494515419006e-02
-3.793207089376485208e-01,-3.901935942448903627e-01,-3.364251681637881464e-01,2.903388503164042872e-02,3.948683878564136079e-02,3.573201704604452023e-02,1.160237342119216919e-01
-4.483719644852235398e-01,-4.083010438098031436e-01,-4.103439430846139158e-01,3.215104092605790102e-03,4.824466752077832647e-03,7.783022061212338701e-03,4.255061224102973938e-02
-4.493931849164738423e-01,-4.201854693083388881e-01,-3.960957280967030703e-01,6.936275307797918656e-03,6.682748147749155432e-03,2.123387121359004287e-02,6.138369068503379822e-02
-4.574053251041350077e-01,-4.047638885002297071e-01,-4.242777242577592811e-01,1.025351917818511857e-02,1.050768413502926359e-02,1.906635475921398398e-02,6.214410811662673950e-02
-4.382137018895935210e-01,-3.986132899058935641e-01,-4.040220308660901760e-01,2.217420062654562422e-03,4.716652442626741680e-03,5.529117694115851661e-03,3.945203870534896851e-02
-4.454124815212674449e-01,-3.920540210213296350e-01,-4.377021088220378608e-01,2.436997534296306278e-02,1.289527582655788929e-02,3.642244321828671388e-02,9.357080608606338501e-02
-3.612306924597958324e-01,-6.995241770060290909e-01,-6.738061064174051262e-01,-6.378821401794003421e-02,-7.441836212275386442e-02,-7.608925457513572577e-02,3.906321227550506592e-01
-4.313517641532974567e-01,-3.596046495568074319e-01,-4.450327110293729183e-01,3.934532978086566213e-02,1.799798081724569149e-02,2.568484656423298748e-02,1.179468780755996704e-01
-3.479272290284815550e-01,-3.888169188464732362e-01,-3.095598617534358610e-01,7.753502990181329602e-02,1.251654993793538118e-01,9.382252696259679725e-02,3.100888729095458984e-01
-4.077851643275827165e-01,-4.093738953304163486e-01,-4.550545359625164932e-01,9.542865955999704081e-03,7.349247991005312692e-04,-2.833117446640995470e-04,4.936475679278373718e-02
-3.326059791740379468e-01,-3.257319114843703067e-01,-3.837218129098972641e-01,1.422735116104210662e-01,1.253996835259903464e-01,1.297272853383205915e-01,4.017455279827117920e-01
-3.629389362106686390e-01,-4.440200730024837505e-01,-5.000542449137700407e-01,8.093092557269435106e-02,3.896539867752324415e-02,1.967862334081259268e-02,1.990562528371810913e-01
-4.504335513908558353e-01,-2.667792716888809368e-01,-4.599081897959625964e-01,2.630029695998976208e-02,1.155602750379316687e-02,3.101196226168608308e-02,2.022861540317535400e-01
-4.965274411318988390e-01,-3.952437259106598155e-01,-4.959866753949940255e-01,-8.818015390683001803e-03,1.236900425894481769e-03,-1.645103605269241818e-03,1.022247225046157837e-01
-4.709988474403220549e-01,-3.507853179874897975e-01,-4.759736277178480135e-01,1.411823867971897465e-03,2.529934548591306238e-03,1.313952722631015271e-02,1.249687969684600830e-01
-4.076208970776703522e-01,-4.528832969015132437e-01,-4.150359197459231875e-01,1.360576067215297895e-04,2.782067601562675588e-03,-1.174414209420719625e-03,4.237285256385803223e-02
-5.101768718283310466e-01,-3.992535369381572385e-01,-5.077537401283759300e-01,-5.125485135140301664e-03,-3.041090803718149091e-03,-1.206250310353491548e-02,1.121790707111358643e-01
-4.155864831043550867e-01,-4.340567635698148186e-01,-3.987225063750787779e-01,6.865063258013349642e-03,2.721940578843382464e-03,1.666447841473120070e-03,3.330124169588088989e-02
-5.426363422678641690e-01,-3.711487160421136355e-01,-5.498103671240555101e-01,3.571478566460650067e-02,-8.358818878824504986e-03,-1.820233352419010561e-02,1.889972239732742310e-01
-4.597571767772882234e-01,-3.338378945459429259e-01,-4.629573039937048273e-01,1.873869212243348343e-03,3.095954684805718796e-03,-3.571926538743001173e-03,1.278531551361083984e-01
-4.029539929951510002e-01,-4.473215847916579557e-01,-4.078798351441190184e-01,2.927269833911839026e-04,1.402721963134885216e-03,1.028256934935223169e-03,4.223187640309333801e-02
-4.875159173211927044e-01,-3.562287707626557998e-01,-4.877319299193754176e-01,9.526231506600762663e-03,-3.344057054229842077e-03,1.776429897017566938e-03,1.325895339250564575e-01
-4.226620484287706425e-01,-4.491315166302025097e-01,-4.262119392381824579e-01,-2.850436083419900790e-04,7.255383661604112005e-04,-3.318835794907348726e-03,2.557611651718616486e-02
-4.277497360894738643e-01,-4.274037857753108516e-01,-4.509701617319093470e-01,-2.379616274157033209e-03,1.020211583563866752e-03,-1.627619645211135242e-03,2.398746833205223083e-02
-4.885326831620944721e-01,-3.529137824488851605e-01,-4.841363167981022064e-01,4.460703216912687355e-03,-2.548723345677930425e-03,7.592253256761452573e-03,1.344161182641983032e-01
-4.574589505894153807e-01,-4.232293184375267581e-01,-4.376558490803192925e-01,-2.197745184607625708e-03,2.619312954035104874e-04,-2.246868347135081920e-03,3.026250191032886505e-02
-4.383052923431610126e-01,-4.310439027439490478e-01,-4.268662484629619502e-01,9.976961508699521211e-04,-3.463003337532256139e-03,-1.999766981897201177e-03,1.230758801102638245e-02
-4.435665164620419820e-01,-4.289953873103936055e-01,-4.221553426698836375e-01,4.831699047858068266e-03,-4.629062584079419139e-03,-6.026040712204856591e-03,2.453632652759552002e-02
-4.545831641859446881e-01,-4.367603605717180759e-01,-4.337873886067430407e-01,2.990561142335936527e-03,-1.415339971052546148e-03,-3.265643313500451225e-03,2.107868157327175140e-02
-4.390299015888573519e-01,-4.278633688246758493e-01,-4.353081415281800925e-01,-4.567739802443266262e-04,6.462177126709268667e-04,1.340097265207187774e-07,9.942962788045406342e-03
-4.397394327394911762e-01,-4.224879966056880320e-01,-4.341013267373657891e-01,1.841551334630779331e-03,-5.793347188721801981e-03,-2.969686829415523269e-03,1.922119967639446259e-02
-4.500803384899322301e-01,-4.350966410924900218e-01,-4.317860451029914004e-01,3.184120405461375331e-03,-2.441412364723224721e-03,-3.786734433556700457e-03,1.940081454813480377e-02
-3.842128634258349940e-01,-4.079125310315788178e-01,-4.411668332603979614e-01,2.208868410867355705e-02,8.365681424836002994e-03,8.539450551982527907e-03,6.594004482030868530e-02
-4.358166629538445247e-01,-4.260760962610825597e-01,-4.361132242660533120e-01,-3.438011464064664015e-04,6.667771849581277145e-04,-3.137919986371070407e-04,9.991948492825031281e-03
-4.330694166694547542e-01,-4.300782908423356199e-01,-4.505002107257392585e-01,-1.048754993005030032e-03,5.750462160146144631e-04,-7.619768577897235128e-04,1.926007866859436035e-02
-4.129597136463006857e-01,-4.082628841569073685e-01,-4.333078156188541752e-01,2.503811485384760914e-03,5.643312577611344326e-03,1.980216739809521290e-03,2.564739622175693512e-02
-4.201448864595391797e-01,-4.152538322153468964e-01,-4.214768601399733194e-01,3.061676571819593132e-03,2.347984617601921002e-03,3.458640327707267811e-03,1.061878446489572525e-02
-4.340163453267809612e-01,-4.195306840479844368e-01,-4.458499617982877861e-01,1.132570801676550769e-02,1.221043596720106789e-02,1.071644619898386337e-02,4.120573401451110840e-02
-4.242938417539894314e-01,-4.372411876546725695e-01,-4.227156129569833443e-01,-1.033252344660260747e-03,-8.737862884361690318e-04,-4.831323134240276661e-04,1.402683276683092117e-02
-4.568959614411586267e-01,-4.452168396101018888e-01,-4.174487361485877401e-01,-4.716955288601447534e-03,2.228370200906205651e-03,-4.394402129396343844e-03,3.703180700540542603e-02
-3.982440899916137589e-01,-4.143640898538458739e-01,-4.520984262502509288e-01,3.575878005205853759e-03,1.431114696653839257e-03,4.512623672239162234e-03,4.896537959575653076e-02
-3.952730612602681770e-01,-4.012071558150206441e-01,-4.375496345208851889e-01,6.676808575762986989e-03,3.360385954958376720e-03,4.603007722678924621e-03,4.245971888303756714e-02
-3.811274645923440341e-01,-4.100163648853941689e-01,-4.304291168603369133e-01,1.122252563641835087e-02,3.072377512487800295e-03,1.219080312631036674e-02,5.189365893602371216e-02
-4.313910080319127149e-01,-4.296762494841651070e-01,-4.289174777228502711e-01,-8.691195411094213875e-04,-9.704747363761151739e-04,-2.674355072737540388e-04,3.181725507602095604e-03
-4.216069109899241441e-01,-4.341683843651402697e-01,-4.044305587876897423e-01,4.782843263238459840e-03,2.039319346239674459e-03,1.913663680879241569e-03,2.758020162582397461e-02
-4.167487627906906189e-01,-4.803806651096491631e-01,-4.822415460066099002e-01,-9.744019096551282191e-03,-2.284920436387874801e-03,5.762931335267289191e-04,6.687592715024948120e-02
-3.842260011581977719e-01,-4.583544017508590085e-01,-4.596928487088477455e-01,-2.449485609648204693e-03,2.376199386934927521e-03,-2.317928372030049044e-03,7.514709234237670898e-02
-3.451782782168078545e-01,-5.078265350059897321e-01,-5.065975445611502481e-01,-1.337513533309353519e-02,-2.681282963112484666e-02,-2.007014947030703184e-02,1.736605018377304077e-01
-4.354303121963778445e-01,-4.268444792117017106e-01,-4.351790491428475516e-01,-4.550644252147656254e-05,-1.417627863732223465e-04,-3.903258089593763342e-04,8.493876084685325623e-03
-3.418622115094448466e-01,-4.775532589744665990e-01,-4.792690227658665258e-01,1.500577906292295560e-04,-1.365633595372120306e-03,-7.164080991184985404e-03,1.371402591466903687e-01
-3.674365232933639591e-01,-4.658871778426365573e-01,-4.715103120416718752e-01,3.945779563209240483e-04,-1.110694269888166247e-03,2.853935309014744934e-03,1.015202179551124573e-01
-3.704346596645793355e-01,-4.758598121078942422e-01,-4.711813246386117870e-01,1.029841615010592022e-03,-1.374813357601184245e-03,8.930313560076019470e-04,1.032199859619140625e-01
-4.298336296032044812e-01,-4.313988229266925156e-01,-4.315062933681816371e-01,-1.048562160541730877e-04,-7.006320670185021537e-04,-5.233046026916342731e-04,2.226381795480847359e-03
-3.882837760758405254e-01,-4.624238212371055146e-01,-4.680649471185290289e-01,-7.595137231348207587e-04,-8.985292759928466266e-03,-8.499840404578893433e-05,7.868138700723648071e-02
-4.415813626676876602e-01,-3.981115212202273601e-01,-4.376963035151183457e-01,-1.290819581095527593e-02,-1.157926510396276552e-02,1.906519511758754740e-02,6.106050685048103333e-02
-4.262223106913746729e-01,-2.945569219482809808e-01,-2.950724771547610925e-01,8.866499958973924483e-03,6.439203745891798961e-03,1.391698815487302232e-01,2.751965820789337158e-01
-4.333289151043859810e-01,-4.403018222615260879e-01,-4.416357405303066308e-01,-6.220733547841394637e-03,-4.822129700585790421e-03,4.068524407041276998e-03,1.718173734843730927e-02
-4.495763696380507546e-01,-4.091079702143984864e-01,-4.124450012312885772e-01,-4.658869638335496385e-04,8.384650183264594258e-04,1.628064969718647425e-03,3.904477879405021667e-02
-4.591899315150912986e-01,-3.784799971189642953e-01,-4.141660861152637874e-01,-1.314530755596090769e-02,-9.142527977625720947e-03,2.944568416012146445e-02,9.098169207572937012e-02
-4.064760580991269023e-01,-4.456889083472103663e-01,-4.195870870942426389e-01,4.095419330980741503e-04,4.104386219246900815e-03,8.493679236405525870e-03,3.824780881404876709e-02
-4.514211585096044033e-01,-3.258774068378388344e-01,-4.238785030773279394e-01,1.244631564718910559e-02,2.440775641187714964e-03,4.558977420271773801e-02,1.406410634517669678e-01
-4.248589619408486562e-01,-4.250582159312071284e-01,-3.693117065949744759e-01,-2.144749334241101424e-02,-3.141915298486230856e-02,2.557674348392054500e-02,9.695663303136825562e-02
-4.652978900954073405e-01,-3.461724287441017012e-01,-4.540219271806979484e-01,8.302769188422639028e-04,-1.741484177141239243e-04,1.232420391197812728e-02,1.158990338444709778e-01
-4.106702172672818674e-01,-4.503861800290260842e-01,-4.060246772643227309e-01,1.973300579915528673e-03,1.526284227166821092e-03,1.965721049530137559e-04,4.245264455676078796e-02
-4.445224259678589029e-01,-4.286380038097045708e-01,-4.221475126654604670e-01,-2.899614609388195298e-03,-2.682619892292495336e-03,4.414707131023807608e-03,2.242366224527359009e-02
-4.316597282047044404e-01,-4.350006829933389385e-01,-4.358110545724212526e-01,-1.099102360197230137e-03,-2.268928132615564714e-03,-1.459811335565417724e-04,5.801569670438766479e-03
-4.776698782513084107e-01,-4.579891294669212742e-01,-3.915226512485139865e-01,-1.624832867135735451e-02,-3.447992501805741822e-02,4.125660182502750850e-02,1.248125657439231873e-01
-3.456713416331541611e-01,-4.539094414252596299e-01,-4.588071191189445064e-01,3.221559280569315231e-02,-7.015061492485438234e-03,-8.165492999409659086e-03,1.254224181175231934e-01
-4.438505417055547686e-01,-4.083735748366489338e-01,-4.081375559111041773e-01,1.405032018604883979e-03,1.657615006592843112e-03,2.213429559799786218e-03,3.599871322512626648e-02
-4.205535215989837372e-01,-4.453070573820349654e-01,-4.019840458742650613e-01,4.594623465535518925e-03,4.010268125873526872e-03,1.928949972514220962e-03,3.924237564206123352e-02
-4.409440539759971189e-01,-4.221172115013792081e-01,-4.437624946925224911e-01,-2.231554550841744790e-03,-5.005107845336938428e-03,2.438062928093322635e-03,2.287752740085124969e-02
-4.534614224369827862e-01,-4.174016676674249804e-01,-4.336428948081008650e-01,-1.763193120240277509e-03,-4.318029917176265629e-03,3.169521397572980844e-03,3.276932984590530396e-02
-3.040889671810846906e-01,-4.119980477491160809e-01,-6.658215927559536507e-01,1.647776668075859874e-01,-5.800886713503912440e-02,-5.376544261688671889e-02,4.513124525547027588e-01
-4.352095788030867496e-01,-4.354488079903661157e-01,-4.271868556815749396e-01,1.376189856757296937e-03,-5.252765036514703322e-04,-5.156840347156602285e-04,8.581831119954586029e-03
-4.243557163453333114e-01,-4.346221331721025760e-01,-4.516619179591262467e-01,2.981384994584636555e-03,-1.586869830063797240e-04,-4.865077586013275002e-03,2.585419826209545135e-02
-4.327889525204776655e-01,-4.336403420137767140e-01,-4.545625038961431108e-01,-7.221985698044877319e-04,-2.950877817400798710e-04,3.905179211494150477e-04,2.141396887600421906e-02
-4.222060982144177355e-01,-4.363639083122706763e-01,-4.435401270155732711e-01,8.571579487253781987e-04,-2.128573467234805890e-03,-5.049952328134189872e-03,2.111501619219779968e-02
-4.328234550365880895e-01,-4.269662653291695364e-01,-4.276592569584854453e-01,-3.159947795079168491e-03,-2.204647148172431039e-03,2.025319360848841510e-03,9.357932023704051971e-03
-4.257950930774414555e-01,-4.440439155145244343e-01,-4.387726616264901458e-01,-1.422744654835529209e-03,-1.248330885847506863e-03,3.428652151026880587e-03,1.762458495795726776e-02
-3.587881037566432729e-01,-4.210760263138955684e-01,-4.456778086412949702e-01,5.761952717078834552e-02,-4.430057422191067268e-02,-1.001288418443952583e-02,1.488820165395736694e-01
-4.112432987645363580e-01,-6.305532913882140322e-01,-6.745645660807719768e-01,-1.283035032712280255e-01,-7.976017959839988569e-02,-5.799412553687931238e-02,3.718149662017822266e-01
-3.375459246497890531e-01,-3.630259747645104285e-01,-3.953499110119201854e-01,6.030608971306845867e-02,5.075121367393073402e-02,4.335481986407211524e-02,1.636891514062881470e-01
-2.224548221848591800e-01,-2.483868448783418392e-01,-4.139314533155182829e-01,1.653790968067718192e-01,3.717623570227653745e-02,3.190896117775395696e-02,3.487433195114135742e-01
-4.180572678584069113e-01,-4.155070410280097826e-01,-4.375455699931459774e-01,1.055063781230065716e-02,-5.755596761856596882e-03,-5.747748104738033791e-03,3.111969679594039917e-02
-4.084856619898631358e-01,-4.344768819753534461e-01,-5.864208422539367582e-01,1.894968505436884498e-01,1.041360560827089138e-01,1.092199838732366701e-01,4.513965547084808350e-01
-3.824032182591210471e-01,-4.120842214804545378e-01,-4.749162341799817444e-01,3.400525388423607936e-02,2.251641592212558479e-03,4.329893968267854590e-04,1.008889749646186829e-01
-4.500653625104392708e-01,-4.234141080864239348e-01,-4.256854886931403792e-01,-7.496103519286661685e-04,-2.370681629167506205e-03,8.622950948693975043e-04,2.599404193460941315e-02
-4.285935868525077574e-01,-4.371399588223065513e-01,-4.357359944862368994e-01,-7.503119558119913284e-04,-1.924154070957568511e-04,4.474906237129636956e-04,8.087861351668834686e-03
-4.115390995056790735e-01,-4.583310361202510008e-01,-4.744554896246194198e-01,-1.078202440547227671e-02,-5.972366624403791478e-03,2.560987619575091998e-03,6.065820157527923584e-02
-4.292477238628233938e-01,-4.340067120428813818e-01,-4.351612808411209898e-01,-2.782709230519036982e-03,-1.549087302040197314e-03,2.537293195878360767e-03,8.900481276214122772e-03
-4.314714461555768099e-01,-4.354934835912724345e-01,-4.326595581935784862e-01,-2.374772857967942172e-03,-1.018449060110391538e-03,4.059750196715171432e-05,5.731061100959777832e-03
-4.329321259153643964e-01,-4.378028266723711925e-01,-4.347052730796942543e-01,-1.665658542356566758e-03,-6.959567107610230242e-04,-7.660093499571473579e-04,5.456000566482543945e-03
-4.533893314648793638e-01,-4.037706071141687336e-01,-4.392297513518715890e-01,-1.713907929344596912e-03,-4.741478721774299541e-03,5.688983977802743175e-03,4.618746787309646606e-02
-4.258852653341180794e-01,-4.379373007748690316e-01,-4.542579547279063101e-01,-2.823552040910128156e-03,-5.564216439304023581e-04,1.307342494795031519e-03,2.526432275772094727e-02
-4.298100500468485796e-01,-4.377045564900760577e-01,-4.380304884868492787e-01,-1.250470785926643155e-04,-5.277915116808260828e-08,3.171371181410662619e-04,8.084007538855075836e-03
-4.355404056960390236e-01,-4.362307588498154920e-01,-4.370980220190935350e-01,-2.713677620002287634e-03,-2.835201464513635757e-03,1.890763718174870217e-03,7.665484678000211716e-03
-4.348779301286370691e-01,-4.298320113573552703e-01,-4.311475139329534190e-01,-7.759370038845414324e-04,-1.865402731119823482e-03,5.951209614202839686e-04,5.819093436002731323e-03
-4.323757969914944210e-01,-4.329821046749507407e-01,-4.354448298429585140e-01,-6.636638054432283810e-04,-1.770824688421868392e-03,8.020781143888365246e-04,4.537024535238742828e-03
-4.043298682794167487e-01,-3.442331042329489499e-01,-4.513166243503098363e-01,5.091147072310295979e-02,2.542918307908977743e-02,3.086676045373212135e-02,1.456614583730697632e-01
-3.993480325622750238e-01,-4.140271870442088220e-01,-4.349437209307631114e-01,1.784711662620091198e-03,2.789448803630206579e-03,7.043135920807910670e-03,3.378952294588088989e-02
-3.849712041499046555e-01,-3.869781960237161922e-01,-4.331697836914062960e-01,1.719662797669259391e-02,6.829837821683464386e-03,6.620802696009952214e-03,5.821523815393447876e-02
-3.815777653780694778e-01,-4.351170119946953796e-01,-4.502750889930676736e-01,-4.810767444068286131e-03,3.502426695518901477e-03,-2.497835328831084657e-03,6.350369751453399658e-02
-4.548944853526315502e-01,-4.318218563968978518e-01,-4.310539972222190430e-01,1.858614271416335068e-05,5.356923894369289057e-05,-7.274533604974015456e-04,2.349998988211154938e-02
-4.466303544309797591e-01,-3.964805468620331008e-01,-4.073726452242559803e-01,1.470653137985133019e-03,7.311723263017060449e-05,4.684882197240175170e-03,4.647314548492431641e-02
-4.606893899959165761e-01,-4.359565030437761446e-01,-4.364822427719752818e-01,-1.070067327540256269e-03,7.399496800968599587e-04,-5.910980700175733939e-03,2.662491053342819214e-02
-4.443466785946634801e-01,-4.184233244871289337e-01,-4.163351748059009316e-01,-8.700701228504219157e-04,7.846365858195833410e-05,-5.652156514358174275e-05,2.707049436867237091e-02
-4.257092825647796897e-01,-4.577791524123752120e-01,-4.482294852310563793e-01,-2.026193281920004620e-03,-5.555889435622455262e-03,3.632677683252765084e-03,3.095036745071411133e-02
-4.542722167130587851e-01,-4.317937262963918998e-01,-4.324239038312125416e-01,-4.608719029957997291e-04,2.205305433354202255e-04,-1.069799931790515156e-03,2.226501144468784332e-02
-4.365021494135021274e-01,-4.385873532102945171e-01,-4.279037116520600925e-01,-5.244047442807601295e-03,-4.507226230909626083e-03,7.487522141866340651e-03,2.019517309963703156e-02
-5.105118485434891884e-01,-2.952993771289860181e-01,-5.175225768006087579e-01,6.709486050319339590e-02,3.397181035481301042e-02,1.422149804825800501e-01,3.542838692665100098e-01
-4.525568249179992564e-01,-4.294251751221535018e-01,-4.259059589472287133e-01,-8.234528771299241563e-04,9.981579395629777988e-05,-4.101160706937054430e-03,2.610337175428867340e-02
-4.301609257335676229e-01,-4.413560316516788040e-01,-4.437461761032164831e-01,-1.794076761874293172e-03,-1.461402979657080601e-03,2.372247868784146691e-03,1.381111890077590942e-02
-4.504511417798309214e-01,-4.083795728554557858e-01,-4.157104324454556910e-01,1.898212162683183960e-04,-2.911564620538204592e-05,3.648401740678033564e-03,3.943831473588943481e-02
-4.378012474772016716e-01,-4.385002566903252741e-01,-4.392129227966605209e-01,-3.519135971189257112e-03,-3.420601687199412502e-03,2.130558703351566070e-03,9.347031824290752411e-03
-4.238779646900895925e-01,-4.257844337111993394e-01,-4.338875995718595169e-01,-2.665029884327536295e-03,-2.987382805401546468e-03,4.374036404924576925e-03,1.379207987338304520e-02
-4.319477197401071500e-01,-4.335783172015206799e-01,-4.399114311699511282e-01,-6.945950111843393702e-04,-3.279895116715596942e-03,1.442359507581056875e-03,9.646536782383918762e-03
-4.284283565654736781e-01,-4.356557860031970986e-01,-4.383661121914461112e-01,-1.244788312739351487e-03,-2.046022342401953350e-03,8.162802337154501618e-04,9.918485768139362335e-03
-4.526521319231925355e-01,-4.317957214741546812e-01,-4.180390963680961081e-01,-5.771910741055517186e-03,-1.132605793482306189e-03,1.850546614455499074e-03,3.201898187398910522e-02
-4.277388205446120417e-01,-4.470381618201731411e-01,-4.416509066119433391e-01,-1.054482497448961829e-03,-9.192317852839378741e-04,2.476391255972042703e-03,1.793836429715156555e-02
-4.418265598903849400e-01,-4.327917587819479217e-01,-4.749353905445018453e-01,-5.122251797628916276e-02,-4.522879514482801983e-02,2.485068192877687779e-02,1.316730529069900513e-01
-4.651646699566886478e-01,-5.736445608816890251e-01,-4.202326421455002681e-01,8.426657327368206052e-03,9.771539328989266304e-02,1.671453495751796733e-02,2.199023514986038208e-01
-4.502091498134124792e-01,-4.836815681472214634e-01,-4.011075652983467910e-01,-8.675674708055539086e-03,3.182301348513184858e-02,-1.583352204793263968e-02,9.586935490369796753e-02
-4.308674587504998654e-01,-4.673444165833330333e-01,-3.846772014876556622e-01,-1.254613112711130095e-02,2.640408844923988058e-02,-1.248265137774670283e-02,9.044435620307922363e-02
-4.314234620868155901e-01,-4.621308101091995968e-01,-3.728600790457926584e-01,7.735601736008602090e-04,3.475319821439676327e-02,8.829691927244340960e-03,1.001497730612754822e-01
-4.261680075853259697e-01,-4.515289067001005963e-01,-3.447677366271874044e-01,-4.278074133173127673e-03,4.507463114333297438e-02,-4.175338241133182658e-03,1.246432363986968994e-01
-4.488960670328473457e-01,-4.977042588032714598e-01,-4.397541350023502771e-01,-6.620630699083004771e-03,3.598094226362368725e-02,-1.240705855192049747e-02,8.596047759056091309e-02
-4.309230919020989314e-01,-4.828986435680600042e-01,-3.621090195069927020e-01,-2.147453699669045479e-02,7.417751524008232844e-02,-4.083575502674233713e-03,1.701584309339523315e-01
-3.846790028055253052e-01,-4.360591427675701848e-01,-3.499298181850724054e-01,6.962867278906814499e-03,3.499585024322775934e-02,8.600561037499206488e-03,9.835814684629440308e-02
-4.471882876635191462e-01,-4.430732235956623688e-01,-1.521932947168547490e-01,-2.056674163190556903e-02,-4.587042733712847625e-02,1.953346852516154794e-02,3.074914515018463135e-01
-5.402677862552338617e-01,-5.500753214141507197e-01,-4.064552542804389379e-01,-8.218428511156517999e-03,-4.497862791410705413e-02,-1.617297163058524848e-02,1.623912155628204346e-01
-5.112119412181648226e-01,-5.155119091469086978e-01,-3.927622183157726821e-01,-2.664670749634938732e-02,-4.372231676545010326e-02,-5.953071601381357790e-03,1.500984281301498413e-01
-4.499282214813383751e-01,-3.388361935113061163e-01,-4.330180856751271734e-01,7.582753678369620262e-03,3.671977708627714113e-03,1.137483805935441197e-02,1.065359860658645630e-01
-5.006948106028557000e-01,-5.167323556572613885e-01,-4.095574998745032946e-01,-2.386620828008661349e-02,-3.592885747408616770e-02,2.488705413498422392e-02,1.321528106927871704e-01
-4.513506843509072497e-01,-4.977715740805929712e-01,-3.550996475327098945e-01,-1.026149242545223821e-02,-1.075787332176113970e-01,-1.869105304200701506e-02,2.279708981513977051e-01
-4.445749077527348936e-01,-3.964814665297997642e-01,-4.040506670755925067e-01,3.154566144696204378e-03,4.775515565135839309e-03,6.457871031607153103e-03,4.721891507506370544e-02
-7.476600361090099955e-01,-6.670106582673231976e-01,-3.705984810389683637e-01,-9.178702202127188292e-02,-1.562609343529312855e-01,8.370758744365229542e-02,4.876657128334045410e-01
-4.511936106617445708e-01,-4.066949979955490346e-01,-4.013778564176941899e-01,4.544459379370430186e-04,1.318812231046783854e-03,3.372007815311989145e-03,4.780117794871330261e-02
-4.491627968116170821e-01,-3.992657208067688090e-01,-4.166725179536417967e-01,2.155309467640777448e-03,4.511667016889845880e-03,5.136912320400210258e-03,4.558872058987617493e-02
-4.732226541603984926e-01,-4.934359109388583575e-01,-3.645683032776592114e-01,-9.622972777395497404e-03,-1.866671462293920808e-02,3.373912774146856086e-02,1.383789479732513428e-01
-5.511775096810732633e-01,-5.216438107669206792e-01,-3.869864449045002930e-01,-8.411097397434525585e-03,-2.246788696030169868e-02,4.267216137967949630e-02,1.736985146999359131e-01
-4.387510321446673744e-01,-1.278486724288989962e-01,-4.233005708868200490e-01,4.288255498879114946e-02,3.776885584879524920e-04,9.371789650884447542e-02,3.520819544792175293e-01
-4.274629382426708424e-01,-4.249061252105882924e-01,-4.441145681917779142e-01,4.228724057713786552e-03,-4.629667322087369433e-03,-5.054073150479426735e-03,2.282472141087055206e-02
-4.445078748325067552e-01,-3.065657430857917642e-01,-4.249520542525672129e-01,-1.684839778442701747e-02,-1.353251821186976338e-02,3.698257896077009749e-02,1.490537375211715698e-01
-4.767972703429184667e-01,-2.151990946255755988e-01,-4.524551953940997295e-01,-3.157377922269604537e-02,-1.170976980870575695e-02,8.340939781682020493e-02,2.948419153690338135e-01
-4.296437960652765842e-01,-9.765432026555920242e-02,-4.129654417498911378e-01,-6.821470006256025176e-02,-3.345094570949654761e-02,4.087471131663557994e-02,3.567730486392974854e-01
-2.435327932455937927e-01,-4.347611370995775326e-01,-5.254228755117118510e-01,1.528062133893345609e-01,6.980519909461415382e-04,2.839271425432721499e-02,3.668706119060516357e-01
-4.190621618145028981e-01,-3.993595938016100133e-01,-4.584342790162906356e-01,2.032107872588219399e-02,1.195544732375325523e-03,-5.541177005567476596e-03,6.363432109355926514e-02
-4.084550858751599400e-01,-4.065670337645868604e-01,-4.512738527502864194e-01,3.540915332450245839e-02,-1.966603741336673400e-03,-9.722070638639499982e-03,7.729449123144149780e-02
-4.104853307258197748e-01,-4.039589427955058709e-01,-4.485391850893115651e-01,3.132692618366110342e-03,4.519283176811194616e-04,1.230761280555830008e-03,4.211463034152984619e-02
-3.626524411321725427e-01,-4.297753058089384681e-01,-4.529370228967288803e-01,1.294036340236024568e-02,1.989476444163081753e-03,1.566379818870811992e-03,8.436953276395797729e-02
-4.269429178027880356e-01,-4.055559396423691898e-01,-4.050253020617433086e-01,1.447811930915042554e-03,2.980596817163112637e-03,8.452095621827353461e-04,2.245254255831241608e-02
-3.740342259517940304e-01,-4.480937225217612729e-01,-4.670438035923952236e-01,2.840733306612082745e-02,-1.939664092703160050e-03,-5.209674802889226533e-03,9.879770874977111816e-02
-4.296206452397088316e-01,-4.272118355341242291e-01,-4.487462671626981647e-01,-2.338697428181483583e-03,1.192441966747164123e-03,-1.912532822139890228e-03,2.119691856205463409e-02
-3.656165750737576103e-01,-4.210443644625049830e-01,-4.364533901227900525e-01,1.369465848238147175e-02,-5.902719830128067696e-03,-9.745202848042136198e-03,7.152502983808517456e-02
-4.224624410856261392e-01,-4.302210740474156636e-01,-5.109182840230672706e-01,5.286628912873726771e-02,-1.910743266796020162e-02,-2.073734927564872474e-02,1.340457499027252197e-01
-3.607191351651294897e-01,-4.283087982534880545e-01,-4.506484318638722675e-01,1.339189545712778963e-02,1.167967600015962703e-03,5.392614885191010119e-04,8.438213169574737549e-02
-4.584003361374689445e-01,-4.559222411266500852e-01,-3.765274453147658962e-01,-1.856021596139389171e-03,1.566803281599906663e-03,-4.239195243460624346e-03,8.110507577657699585e-02
-4.151884781348035847e-01,-4.150941128153941562e-01,-4.048709043325121604e-01,6.118372453097997016e-03,1.948709995752914009e-03,1.877578230049312905e-03,1.548416540026664734e-02
-4.709795519645961215e-01,-4.727213322961535402e-01,-3.743256696195018107e-01,-6.520884540928190490e-03,8.297262565734868367e-03,-2.071220959949202425e-02,1.055198684334754944e-01
-4.338807117730609231e-01,-4.159664440065397595e-01,-4.140030970208411487e-01,1.238464363216938832e-03,1.343993563050418496e-03,2.563663177088810509e-03,1.974044367671012878e-02
-4.814085999793016879e-01,-4.471282235878601408e-01,-3.746122543622008583e-01,9.836146724452814183e-02,1.305374932179437231e-01,1.443376741554251441e-01,3.893131315708160400e-01
-4.125953729796622560e-01,-4.245128123958366029e-01,-2.395430969295368473e-01,-2.014361736114266693e-02,5.697400287987710449e-02,-3.914685620719522696e-02,2.184131145477294922e-01
-4.140366022149011282e-01,-4.283526666163731678e-01,-4.000219131719415233e-01,6.923067195458365401e-03,2.756255753759620248e-03,2.205308813398082404e-03,2.798506617546081543e-02
-5.132528608039138573e-01,-4.829134416888807846e-01,-3.710325220463961404e-01,-1.315549258849778129e-02,3.083620510070772536e-03,-1.308178890517567618e-02,1.337660253047943115e-01
-4.168966581039991182e-01,-4.108306236529853939e-01,-4.201931843042391312e-01,6.812413919353449291e-04,4.273966902977129403e-03,2.898697039624599601e-03,1.220904104411602020e-02
-4.245586135904553804e-01,-4.160637402270304097e-01,-4.191156462204575495e-01,1.126511781625120709e-03,1.086847684330632469e-03,2.113548889169391577e-03,8.735188283026218414e-03
-4.228925097701996538e-01,-4.084483278557946573e-01,-4.094297642739362919e-01,1.264291628872996282e-03,1.577704975808816214e-03,1.224655050009333375e-04,1.441281754523515701e-02
-5.210117230788969822e-01,-5.154184377174487741e-01,-3.094884486977029225e-01,-1.622400018675968641e-02,2.579227910955977920e-02,-1.748424266794393681e-02,2.174689471721649170e-01
-5.028607660231461107e-01,-5.319777857581696745e-01,-3.410588935582397063e-01,-1.453835407167868542e-02,3.234060891802393190e-03,4.058746501443418267e-03,1.801491677761077881e-01
-4.680172228233238085e-01,-4.839237659466651409e-01,-3.524217850046600375e-01,2.769595003989993117e-05,1.092771876933010949e-02,2.470213974376676315e-03,1.258197128772735596e-01
-4.461663420209825981e-01,-4.255354563896626696e-01,-4.335902330391518400e-01,-1.640435721262354946e-03,3.183023011893711379e-03,-2.229493204691578283e-03,1.943490654230117798e-02
-4.455438039708415898e-01,-4.385004660518553310e-01,-4.345469142384063010e-01,-4.819055124471321311e-03,4.368765910810561669e-03,-8.152872090271589059e-03,2.047978527843952179e-02
-4.113580838863854505e-01,-4.153646576951428027e-01,-4.212871553753060327e-01,7.857955527967879937e-04,1.389062081913005394e-03,5.467715521136030758e-03,1.312197279185056686e-02
-4.401040983398853967e-01,-4.282742991280898970e-01,-4.388878128995012395e-01,-1.736116414040755679e-03,2.083166659768257399e-03,-2.219342551794813850e-03,1.280127279460430145e-02
-4.487179882382363871e-01,-4.303874350829439699e-01,-4.340339202935846186e-01,-1.784965985324007401e-03,1.104626505390461731e-03,-7.216402952185909563e-04,1.724079810082912445e-02
-4.413773425121538252e-01,-4.270156652189126545e-01,-4.301863958116447506e-01,-2.201785202017608745e-03,1.185968931981026125e-03,-2.089150953978258056e-03,1.423485483974218369e-02
-4.166382151285177304e-01,-4.498813469324077219e-01,-3.979040350140153337e-01,8.752220503313831485e-05,4.236611066872582494e-03,1.241184913104180585e-03,4.623147472739219666e-02
-4.051688649036745971e-01,-4.040558791327579780e-01,-5.913187411817827366e-02,-1.067623230368540052e-02,5.749120424206868342e-03,-8.947241981356698903e-03,3.464663922786712646e-01
-4.186175379566268728e-01,-4.153030250718617311e-01,-4.172228676812619885e-01,4.549824889006372480e-04,4.509858327283522611e-07,7.424020155686407484e-04,3.253145841881632805e-03
-3.459003647908356904e-01,-3.837386789682325494e-01,-1.430892370420154547e-01,2.397374134798196596e-02,1.148008536903920435e-01,7.029718679024174466e-02,3.260753452777862549e-01
-4.334897600179760668e-01,-4.287003501472562150e-01,-4.487945959394106232e-01,-4.094011943798723250e-04,1.067033133411592971e-03,-1.380120228576150933e-03,1.844207942485809326e-02
-5.114993110800368781e-01,-5.260603433248540739e-01,-3.504530483023416410e-01,4.375940973891217708e-03,4.753771862313167784e-02,3.629378973045700035e-02,1.981958448886871338e-01
-4.647862327867758880e-01,-4.716819777248412726e-01,-4.117562384720443447e-01,-1.307823660173412306e-03,-5.646112038084336905e-03,1.191838547956375338e-02,6.125621125102043152e-02
-6.247279689059350716e-01,-3.467238555759024066e-01,-5.138457320114153681e-01,7.444484615914379044e-02,3.642145986207393632e-02,1.557961941001221595e-01,3.901005983352661133e-01
-4.760641997060018893e-01,-4.672618391206029842e-01,-3.021831147970139297e-01,-1.318585072952406165e-02,1.605957178524178644e-02,4.032148533818732256e-02,1.869608163833618164e-01
-4.309091975104096250e-01,-4.272183027148879209e-01,-4.385700782033203904e-01,2.302622596715412587e-03,-4.964987225373174683e-03,-1.434657029859511988e-03,1.402217987924814224e-02
-4.408562807985694221e-01,-4.162566927442495901e-01,-4.178923025728922824e-01,4.582226921503168918e-03,3.915498272671260466e-03,5.355572883774874747e-03,2.761539258062839508e-02
-5.185187454301132259e-01,-5.007524500809935608e-01,-3.378661741295148069e-01,-5.667031488183023845e-03,1.103775701115256328e-03,4.845896119913771505e-02,1.920580118894577026e-01
-4.267394559749113636e-01,-4.334920620260635515e-01,-4.380731663611950322e-01,-6.341396409241084175e-04,-1.285872905701109133e-03,1.384140846655952878e-03,1.046102028340101242e-02
-3.677034308283636532e-01,-4.402676714364883170e-01,-4.265959733358271611e-01,4.784412358575953692e-03,1.100790965717446564e-02,9.782883959891949810e-03,7.197024673223495483e-02
-4.170954441059069318e-01,-4.161836658136445766e-01,-4.303711958433241724e-01,1.825428418271987305e-02,1.638822710767219581e-02,1.815955654139706291e-02,5.462479963898658752e-02
-3.757989657253222315e-01,-4.384023974155717984e-01,-4.073587697473831093e-01,5.472565022772709481e-03,9.913519310383043029e-03,9.197698543365108795e-03,5.981582030653953552e-02
-3.842395612792837700e-01,-4.260986957984363444e-01,-4.316322175444661791e-01,4.338026624495400739e-03,4.085818014313592587e-03,1.063880329442408804e-02,4.960367828607559204e-02
-4.568879386300234158e-01,-3.457034018818787580e-01,-3.178416660751692269e-01,2.415749324117429098e-02,-4.267604426135414991e-02,-9.710519276893325724e-02,2.274616807699203491e-01
-4.464612057748060803e-01,-4.125553229383472353e-01,-4.259592514500267213e-01,-1.753865864287083810e-03,-1.941787776710524613e-03,3.152758486878673959e-03,3.041646815836429596e-02
-4.329054580508678862e-01,-4.383350501530604015e-01,-4.658993450727154650e-01,-2.950955459343589538e-03,1.377497538369375435e-03,1.017406917976966309e-05,3.115687519311904907e-02
-4.379188862454508890e-01,-4.304914210482619352e-01,-4.556441255303035343e-01,-1.904004898774044495e-03,-2.714953000146490877e-03,1.477923869706860476e-03,2.324965223670005798e-02
-4.314445868735503065e-01,-4.256141800566056732e-01,-4.521752968353445201e-01,-3.163738394241599142e-03,1.378824424683240246e-03,-4.500401607962619061e-04,2.491913363337516785e-02
-4.695040154269332078e-01,-4.472089078845208343e-01,-4.372237713508083101e-01,9.000583206356038094e-04,-1.219932338411730890e-03,-1.220435070546785523e-02,3.568091988563537598e-02
-4.740072768045517360e-01,-4.286630557046613443e-01,-4.382999911344255262e-01,-2.208493052983439425e-02,7.184157160361317150e-03,-1.564236593337139589e-02,6.375036388635635376e-02
-4.560326725225704037e-01,-4.298669563163896590e-01,-4.268540222239877169e-01,-1.020263367728436446e-03,3.282142622344064566e-04,-2.906729225396077494e-03,2.830814756453037262e-02
-4.157642194126853763e-01,-4.259750928321826002e-01,-4.345595396632109253e-01,2.120381244828601144e-03,-1.323486077608836912e-03,-1.897677792479870095e-03,1.718009822070598602e-02
-4.590013932086793869e-01,-4.307752497255685764e-01,-4.349997913178950126e-01,-5.975295429620716025e-05,-3.226778900930354649e-04,-3.618830402575287739e-03,2.710959687829017639e-02
-4.580556146222082292e-01,-4.069685250741107430e-01,-4.281682488962494926e-01,-1.754204190988253571e-04,-2.688540766219859809e-03,4.731923371803290271e-03,4.544487968087196350e-02
-4.818525187546012778e-01,-4.241510420042596818e-01,-4.668298852093749618e-01,-7.014262550022324835e-03,1.388470535101270090e-03,-2.299258283727567687e-02,6.654074788093566895e-02
-4.477684709016436226e-01,-4.048924553959889483e-01,-4.039444124557777793e-01,2.007962450948115075e-03,-5.440191938556472595e-03,-2.976558666782078491e-02,6.810839474201202393e-02
-4.474020438133854971e-01,-4.293125625487256292e-01,-4.104620544186513564e-01,1.684516725008534162e-03,-6.662773845557647861e-04,-7.469930040579663387e-03,3.465272113680839539e-02
-4.514341909406618947e-01,-4.018352079968650625e-01,-4.190521518015954405e-01,-1.911391312769268299e-04,-1.651971135809132945e-04,4.652282237357893528e-03,4.435833543539047241e-02
-4.273715345743992478e-01,-4.250417802482284180e-01,-4.369546332734922101e-01,-1.463395874316532840e-04,-3.634754968627665079e-03,-1.060754722629557879e-03,1.275397930294275284e-02
-4.188139251183035094e-01,-4.301012257953958362e-01,-4.392508726777629713e-01,-5.428649544593912302e-03,2.906951236750263991e-03,-7.067302388044212347e-03,2.404155023396015167e-02
-4.408342888808320370e-01,-4.257652779748816174e-01,-4.364240621050508029e-01,-1.023700106020671409e-03,-5.195703349974099480e-03,5.842600802534560819e-04,1.628561876714229584e-02
-4.586095134441434684e-01,-4.413515061645480464e-01,-4.313461932731236237e-01,2.850100653369671243e-03,-1.830726184987374995e-03,-2.018344936131706048e-03,2.484475634992122650e-02
-4.231865885439937136e-01,-4.216261542520873817e-01,-3.693439516458654759e-01,8.523187942867714237e-03,6.643998815530999420e-03,8.370625310174923533e-03,5.812066048383712769e-02
-4.426086948193700965e-01,-4.181939965267800208e-01,-4.531132894222800744e-01,-3.412987936157988074e-03,-4.295241128429569052e-03,2.014576909520105624e-03,3.263983502984046936e-02
-4.525807059450192016e-01,-4.021225840481993385e-01,-4.187856109085821288e-01,1.701545035253849590e-03,1.412652947495681658e-03,4.244601783679902846e-03,4.529476910829544067e-02
-4.676457651369601565e-01,-4.619673923440353325e-01,-4.439267293971870809e-01,1.417137675560787603e-02,-2.158719863084907625e-02,-3.122686167062481075e-02,7.338941842317581177e-02
-4.270383124921911522e-01,-4.034388238216554678e-01,-4.131073712419826571e-01,3.190617069394513332e-03,8.302806355165797195e-03,3.814053591146853665e-03,2.651857398450374603e-02
-4.609164878527442499e-01,-3.783421067349818645e-01,-4.496769656357416101e-01,-3.076879654483588231e-03,2.003637053370246868e-04,6.650415696368158248e-03,7.860002666711807251e-02
-3.901255732803709519e-01,-4.245700160564062631e-01,-4.117160624822429060e-01,4.000220726510968217e-03,5.468432751547987539e-03,9.793585817427577500e-03,3.652883693575859070e-02
-4.588167505369283861e-01,-4.055009380420614429e-01,-4.228065470731909858e-01,5.902782901577121634e-04,-2.326280007646423331e-04,4.022947827677442884e-03,4.763567447662353516e-02
-3.955003938683769316e-01,-4.627262235383921007e-01,-4.141439743642635896e-01,3.734806201004694896e-03,2.612923225090053175e-02,5.226404676514059648e-03,7.606291770935058594e-02
-4.023268516191175759e-01,-4.286791553791407527e-01,-3.990116682191872099e-01,8.882837399889570440e-03,1.112874592355883596e-02,9.095987649391738122e-03,4.061119630932807922e-02
-4.191315305694244264e-01,-4.406595400119099337e-01,-4.144852987523465759e-01,4.818315619449223784e-03,6.058196655879720394e-03,5.667181977429749419e-03,2.934572100639343262e-02
-3.963156398995796859e-01,-4.371515068447118235e-01,-4.007988659184364977e-01,1.886762874424987224e-03,5.388006593708199662e-03,4.802244324963384978e-03,4.088455811142921448e-02
-3.784679175123761841e-01,-4.304076698582923743e-01,-4.031922101419891380e-01,3.289089853068208336e-03,1.256158457556248199e-02,1.164297832703879362e-02,5.419747531414031982e-02
-4.350134969335531787e-01,-4.362142967546173145e-01,-4.305316325273139122e-01,3.813170628100483899e-04,-5.225262202596133278e-04,-1.254762804312354110e-03,5.734932143241167068e-03
-5.646656298572254595e-01,-5.779868285858699162e-01,-3.185543572345492791e-01,3.009646559582096481e-02,1.288218828805204885e-01,1.291054935873166831e-01,4.080857932567596436e-01
-3.412014032571807909e-01,-4.359818585361086019e-01,-4.510801181821478267e-01,1.039322222585657186e-02,1.217814634561196520e-02,4.537006179750297657e-03,1.071122959256172180e-01
-4.247478806468525381e-01,-4.097753283820035897e-01,-4.365561855757997822e-01,2.262034449956378587e-03,5.200884556339464317e-03,2.882730275246187836e-03,2.572629414498806000e-02
-4.722261334816852951e-01,-4.269680318786597817e-01,-5.105767685107786003e-01,-4.247138679250890558e-02,-4.396858725339188034e-03,-5.906545511581181088e-03,1.040618047118186951e-01
-4.739698887510486180e-01,-3.798461250681502976e-01,-5.091319272943027885e-01,-8.397766012887877829e-02,3.827529136824139346e-03,-3.721013859074480401e-02,1.968748569488525391e-01
-4.289617141577007908e-01,-3.800981625826938548e-01,-4.333772301389671178e-01,-3.191735309825542016e-02,-1.447560300586104437e-02,2.244402089579687967e-02,8.842445909976959229e-02
-5.283012568218413696e-01,-3.243937268368872751e-01,-5.022920176461341812e-01,-2.910135962304914031e-02,-1.269804121436114014e-02,3.721237955999878028e-02,2.100713104009628296e-01
-4.851774167181019393e-01,-3.403936528155853680e-01,-4.761285027706798623e-01,-2.847312534602642123e-02,4.728958441787100946e-03,4.281301022643692854e-03,1.492927372455596924e-01
-4.560730411216865066e-01,-3.628896414103359169e-01,-4.642578617429825028e-01,-2.577426209892592912e-02,-7.492978301073433510e-03,6.533088171107822618e-03,1.086381226778030396e-01
-4.546555710224899349e-01,-4.453528978040356412e-01,-3.991460299330775729e-01,6.510027559142427499e-03,-6.600094858406165520e-03,-1.837775791617853385e-02,6.262996792793273926e-02
-4.529649881840314696e-01,-4.349634295403574380e-01,-4.317557617570360606e-01,1.635916273385751817e-03,3.814604639537440994e-04,-5.672390350807112120e-04,2.003793232142925262e-02
-6.725262470674437942e-01,-3.491617309564205573e-01,-7.180841818246352926e-01,-1.984390374363229070e-01,-8.221226552268184884e-02,2.636724662871598335e-03,5.097092390060424805e-01
-4.165971660806988552e-01,-4.162011825350346861e-01,-4.149401057584333752e-01,3.687802076051818279e-04,1.530846581810220539e-04,6.758897209848960730e-04,2.023676177486777306e-03
-3.535766511664907297e-01,-4.970144745072384018e-01,-4.622491786037697947e-01,-9.818566517734850577e-03,-8.897835811655825655e-03,7.809444149395295201e-03,1.323104947805404663e-01
-2.520486287777149448e-01,-4.299505697419582773e-01,-4.360216325684722616e-01,1.603905449983427517e-02,-3.780310464644139404e-03,-2.957330739648597780e-03,1.833217889070510864e-01
-4.518455465463342979e-01,-4.108555972359319575e-01,-3.142999454580126528e-01,2.857053252943098781e-02,2.969909099466381402e-02,6.180151810495578685e-02,1.775223910808563232e-01
-3.273494335688060808e-01,-4.727947292458602457e-01,-4.890622725344216382e-01,1.469307769641773134e-02,-2.589285774787766434e-02,-6.731762134136036989e-03,1.630335301160812378e-01
-3.267400942488925542e-01,-4.593644961337367549e-01,-4.533198693288948422e-01,9.991714507011681401e-03,-1.390969183445992831e-02,-7.527058080308436649e-03,1.336937397718429565e-01
-4.859333328566061150e-01,-4.973839870710994870e-01,-4.734156977238458408e-01,2.194386386092815264e-02,-3.899729568075995662e-02,-4.881886338504807382e-02,1.165673807263374329e-01
-4.757465425361430689e-01,-4.623202662951046427e-01,-4.076491796168914550e-01,9.392476403748304184e-03,-5.837865266381068487e-03,-3.145516501631737821e-02,8.507879823446273804e-02
-4.390981796181124275e-01,-4.110496488870834519e-01,-2.984821407773425861e-01,6.630544874518857004e-03,-4.350547176412400407e-02,-7.020958969507366809e-02,1.929086446762084961e-01
-5.151765931039306023e-01,-5.306758293758451206e-01,-4.374355487402751264e-01,-6.618077438860098423e-03,-4.604731665247982497e-02,-6.239275123268445654e-03,1.187352985143661499e-01
-4.551761135156477955e-01,-4.764705117084901964e-01,-4.084856119401118479e-01,1.410486601956934156e-02,-4.374218758688784570e-02,-8.881858374155062255e-03,1.010016873478889465e-01
-4.361063304146038933e-01,-4.349902226588862053e-01,-4.459432396154026090e-01,-1.088781009883254191e-03,-2.933864931254516646e-03,8.220893522116384583e-04,1.184888370335102081e-02
-4.339940033875224201e-01,-4.341256087942113040e-01,-4.454578338944862326e-01,-1.087758588766284508e-03,-2.512202873773468348e-03,8.213174030889269393e-04,1.242718193680047989e-02
-4.405623238676422693e-01,-4.208766628335087190e-01,-4.404093616434380243e-01,-2.202775654896915909e-03,-4.385439077612933098e-03,2.373514337995173262e-03,2.176444604992866516e-02
-4.294831559608223714e-01,-4.259414345852627903e-01,-4.468460093802418265e-01,-2.216484741130474601e-03,1.759436059630895130e-03,-2.847073657695961806e-03,2.058760821819305420e-02
-3.648579235585076019e-01,-3.813298286792980440e-01,-4.865895106035372231e-01,1.673281690184926229e-01,8.214542104342449635e-02,5.454639952580038476e-02,3.553173840045928955e-01
-6.430156210609062617e-01,-4.099650310776955520e-01,-4.415542648964441153e-01,2.236567876182363190e-02,1.602128726511331189e-02,1.674401826727741072e-01,3.665077388286590576e-01
-3.366898119135272038e-01,-4.133342128049743436e-01,-3.006000304995507522e-01,-7.412146427982777008e-02,1.044209926584733494e-01,-7.321043588598925844e-02,2.742543220520019531e-01
-4.462321240306527104e-01,-3.987368694800271229e-01,-4.309517664379701185e-01,-1.833792357863954069e-03,-2.268258232715500942e-03,5.444480126642245975e-03,4.333583265542984009e-02
-4.478568234315089547e-01,-3.798658377434049327e-01,-4.252101049308530389e-01,4.104166003765312274e-05,7.780831699142843813e-05,9.135934746496156625e-03,6.201849877834320068e-02
-6.991017286502901884e-01,-4.178995757676027267e-01,-7.016378634191163810e-01,-1.572855037496588559e-01,-8.955308960610727786e-02,7.035778148450466674e-02,4.392270147800445557e-01
-4.055496667786255838e-01,-4.795508008505443009e-01,-5.602941623735153698e-01,9.175106596074493470e-02,4.263128762520448228e-02,1.200282729786939992e-02,2.216078042984008789e-01
-3.019885296096202487e-01,-2.787224778910131762e-01,-3.606211681314522854e-01,1.328785592555621342e-01,9.820652340656733925e-02,1.106136703043822389e-01,3.520697355270385742e-01
-4.326669922747822250e-01,-4.289669134123251792e-01,-4.503892701312960378e-01,-8.818580757503771206e-04,5.036797306106298704e-04,-5.632932476153232944e-04,1.993463188409805298e-02
-3.524962684160135584e-01,-3.375249347600834948e-01,-4.361390488964233536e-01,1.586226068468876427e-01,8.909821060644965152e-02,1.354859316464267771e-01,4.035352170467376709e-01
-5.431059025112341399e-01,-3.521049965085912281e-01,-5.012785616140994494e-01,-6.289444514104885336e-03,-1.969686446529856499e-02,-4.114279534648363629e-02,1.913179904222488403e-01
-4.444621048153286624e-01,-3.676871590543123736e-01,-4.186676881271295114e-01,3.915404599943455091e-03,4.857957973429562204e-03,7.503473401052260933e-03,6.975010037422180176e-02
-4.443889354607711839e-01,-3.773909198350756666e-01,-4.461908848852332299e-01,4.267342344581147827e-03,-4.391701999373855830e-03,-1.624506833888137531e-03,6.879765540361404419e-02
-4.472041697335547572e-01,-3.738722672286184379e-01,-4.492703850637078666e-01,-2.859552449237873044e-03,-4.730276715550488058e-03,8.030689556491705725e-03,7.627902925014495850e-02
-4.534293342185967690e-01,-3.427385648725568834e-01,-4.517786175902196999e-01,-7.417092449626855842e-03,1.723892889904363179e-03,-1.311000409653270866e-02,1.129691302776336670e-01
-4.532704063368206970e-01,-3.674914614143814373e-01,-4.477858061224302966e-01,-7.373128501093089392e-03,-2.530915465943723609e-03,-1.842698260082510251e-03,8.432163298130035400e-02
-4.755141164719294267e-01,-4.020971918039987214e-01,-4.703974388306019216e-01,-6.611655876917612662e-04,-3.699273756789407935e-04,-1.046657962565506611e-02,7.328672707080841064e-02
-4.425298858402110791e-01,-4.114353954220421605e-01,-4.543891271951495670e-01,-3.133669439425770028e-03,-7.079799075754226578e-04,-1.930150663165250400e-05,3.882306814193725586e-02
-4.488288467749759758e-01,-4.339767140263375289e-01,-4.299524425999065036e-01,3.436025795375949234e-04,-8.791297851176043711e-04,-2.830599412819786901e-06,1.729804649949073792e-02
-4.371728875300107120e-01,-3.641616125430625628e-01,-4.149038249269818568e-01,4.248148018068964929e-03,9.543601272846305092e-03,8.419607263960749918e-03,6.885285675525665283e-02
-4.806703829613785950e-01,-3.476229440307588847e-01,-4.783847445742479554e-01,7.216364503645849270e-03,-4.390191961645306673e-03,6.631049403358929561e-03,1.332242786884307861e-01
-3.995199032529558325e-01,-4.521599366918888085e-01,-4.595230715597733440e-01,-1.348930502408104450e-02,-3.000678553463807449e-03,1.920352263648328383e-03,6.161772459745407104e-02
-4.502938080574329649e-01,-4.368481788194476523e-01,-4.313815003342121868e-01,7.102514870382187423e-04,-4.831782516641736731e-04,-7.763624543223496570e-04,1.697628945112228394e-02
-3.952768396571956222e-01,-2.164105847757773204e-01,-4.165610280079231620e-01,9.934404685779124611e-02,2.982699715424121795e-02,8.763815655361510693e-02,3.026072978973388672e-01
-3.770661147190028650e-01,-8.056612589703412985e-02,-3.889376561067928728e-01,-8.903713487828923689e-02,-2.144678323520766289e-02,1.600355208134749546e-02,3.427887856960296631e-01
-4.308584628109278225e-01,-3.965504527545603564e-01,-4.307169402727730745e-01,4.013649184531429409e-03,8.752669869077524603e-03,5.102108342395621568e-03,3.909545391798019409e-02
-5.447756826752565562e-01,-3.242258930523568283e-01,-5.340340627339685842e-01,-3.027864843248770019e-02,-2.464670386492876994e-02,1.349310286988930976e-02,2.269526124000549316e-01
-4.657170481154938035e-01,-4.153275044799442095e-01,-4.826571958243675575e-01,-1.613345020917945558e-02,-2.078340503501566097e-03,4.362619451867767902e-03,6.730974465608596802e-02
-4.473814995545110085e-01,-3.558157909784237516e-01,-4.547883061305896257e-01,6.705139816903563608e-03,3.137518505914726075e-03,5.072288643119359300e-03,9.674162417650222778e-02
-4.886287161340855389e-01,-2.996195794013398195e-01,-5.067590986937884345e-01,-3.035595088716422103e-03,-1.799925940406172861e-02,8.334241142528401453e-03,2.017124593257904053e-01
-4.119248018080553519e-01,-3.971662655005240294e-01,-4.422469051887120695e-01,4.656032148025569285e-03,6.678279782708241609e-03,2.970032265665028225e-03,4.254470020532608032e-02
-4.047843060468604981e-01,-4.112181997550147239e-01,-5.175906735012798521e-01,1.756657486553655778e-01,1.022532307127775042e-01,1.147066350018724618e-01,4.188749790191650391e-01
-4.442323594200636161e-01,-3.595374639102058567e-01,-4.431677716214682539e-01,7.521452820318890592e-03,7.566323494107785735e-03,7.344294361678050699e-03,8.710610866546630859e-02
-4.495679777155495715e-01,-3.043156652887797353e-01,-4.492376151984046051e-01,-1.120138671781888487e-02,1.344915024255416165e-03,-3.809830027865007337e-03,1.465460360050201416e-01
-4.678248947203028640e-01,-3.418224959382010208e-01,-4.627571940226277714e-01,-4.708041839485552736e-03,1.820612428893022975e-03,2.249384624641226869e-03,1.239167600870132446e-01
-4.606934050862487862e-01,-3.378426921228567803e-01,-4.626429195962348251e-01,2.705651200721889086e-03,-7.095952061362488864e-03,1.356886240345675726e-03,1.245557740330696106e-01
-4.611582722003399470e-01,-3.670294520542559669e-01,-4.665379884498802032e-01,-8.484686549832184954e-03,-4.461683558662046453e-03,7.617829929509610347e-03,9.922371804714202881e-02
-4.195121572563735857e-01,-4.112951615781977321e-01,-4.546342229777951549e-01,2.151003430014640505e-03,-1.281768677308151591e-03,1.858377337771831153e-04,4.010722041130065918e-02
-4.908797386981778033e-01,-3.844649365231023741e-01,-4.885481327171007360e-01,-1.410809048950145694e-02,-6.890773973104425375e-03,7.822731224847207995e-03,1.095653995871543884e-01
-3.700849286621340495e-01,-4.230352868900612573e-01,-4.266060827672473743e-01,2.329758243803032453e-02,2.246942404805742088e-02,1.366522806965495170e-02,8.190689235925674438e-02
-4.056889147449301292e-01,-4.063476288106783740e-01,-4.401617674279809656e-01,2.431031669309556727e-03,2.952727173026848968e-03,3.944287816720093778e-03,3.544942289590835571e-02
-3.797939135178142189e-01,-4.461594255910552587e-01,-4.324121682638011333e-01,2.217167857027953909e-02,2.351474918820540411e-02,1.318261777849052789e-02,8.565015345811843872e-02
-3.412462634502003711e-01,-4.266207510334352193e-01,-4.092887744012922990e-01,1.378114078648395337e-02,1.755931221931254435e-02,1.359516791534906566e-02,9.032566100358963013e-02
-3.707173223454985900e-01,-4.261776769356672157e-01,-4.292509377899991763e-01,1.037373004073883533e-02,1.036107812340101436e-02,1.211809540102946198e-02,6.588765978813171387e-02
-4.605917899852599029e-01,-4.468604657091586607e-01,-3.707372154425432886e-01,-2.444110696248490925e-03,-2.625202013887731767e-03,-2.330119475878686050e-02,9.325236827135086060e-02
-4.655549022780131052e-01,-4.705856396754265480e-01,-3.694428810601056434e-01,-4.898705119251709796e-03,3.319121221455401290e-03,-9.401025527130315446e-03,1.005809232592582703e-01
-3.950280792168813782e-01,-4.142679586875310793e-01,-4.424632723286350822e-01,4.110445011976266230e-03,2.741355898770072262e-03,7.449470096992119768e-03,4.412866756319999695e-02
-4.258239383270359668e-01,-4.382383725444224942e-01,-4.537819596504772957e-01,-2.865495543295081687e-03,-5.080031819376958470e-04,1.336097732988127075e-03,2.488873153924942017e-02
-4.276064712129475920e-01,-4.440958379673409229e-01,-4.524571398610339745e-01,-3.482844037571113018e-03,-2.751912927963143848e-03,2.120549053874639343e-03,2.350070327520370483e-02
-5.661928931676349919e-01,-6.838189064444283316e-01,-2.900890779927445262e-01,-6.294507598157821071e-02,1.023210655580134854e-01,-8.439525503747276336e-03,4.074983596801757812e-01
-5.060012911335796115e-01,-4.968257866434305225e-01,-3.852283558509266292e-01,8.469851259910237892e-03,-1.129219606123400138e-02,-4.158595866979777900e-02,1.390973478555679321e-01
-4.430131707135311347e-01,-4.085425247378823288e-01,-4.557370965557566156e-01,-2.528588885818220441e-03,2.925350788544591341e-03,-1.069337540498396539e-03,4.286035895347595215e-02
-4.396219686646767877e-01,-4.295631486862545589e-01,-4.594657591695372467e-01,-1.302848108694607682e-03,-1.789626209564688626e-03,6.629766959077262097e-04,2.665670961141586304e-02
-4.333938453616807962e-01,-4.342615449223825586e-01,-4.558111879728605209e-01,-7.561335580371221325e-04,-1.649204134705152720e-04,4.600521473586880968e-04,2.205153927206993103e-02
-5.025130466904960125e-01,-4.793647779213355831e-01,-3.835532365821887613e-01,-1.841549956389659098e-02,8.157670682331381179e-03,-3.982889147643466771e-02,1.338268369436264038e-01
-4.508935299764704197e-01,-3.761091994602633881e-01,-4.571253714399359236e-01,-1.111290864628780919e-03,-1.872925142329560791e-03,3.886777422268835572e-04,7.818093150854110718e-02
-4.128260449876425264e-01,-4.497284517596470410e-01,-3.273026653234126226e-01,-3.363574608691430323e-02,5.390296060145571833e-02,-7.427776570838805215e-02,2.012319415807723999e-01
-4.417820914795801412e-01,-4.503382018970488732e-01,-3.250747342028103559e-01,-4.862937009636050106e-03,2.793596097657661745e-02,-3.429689683286437935e-03,1.309192925691604614e-01
-4.436107751016682421e-01,-4.240730863395090755e-01,-3.855102811235867621e-01,7.559694878605360824e-03,4.955857919627830628e-03,6.479098430622389285e-03,5.471109598875045776e-02
-4.465532172522636567e-01,-4.126326734440044497e-01,-4.647163296560966605e-01,-2.406419299298342973e-03,9.223251727844797472e-04,-1.969461438543751702e-03,4.613204300403594971e-02
-3.900858682415491163e-01,-4.684604256620928386e-01,-4.856160252061162974e-01,-1.146544701912457186e-02,-1.490808654054458920e-02,5.313430982576754398e-03,9.448422491550445557e-02
-4.168142226328175326e-01,-4.426611997955633426e-01,-4.495801310528933503e-01,-2.140439626549253509e-03,4.249326536960086088e-03,-5.463860224023287838e-03,3.243836387991905212e-02
-3.739945555869158555e-01,-5.048003229264105274e-01,-4.944786568124093229e-01,-2.043578266438241670e-02,-1.508328460991811143e-02,4.111544181946655621e-03,1.336137950420379639e-01
-4.520062932593314486e-01,-3.417235101726411317e-01,-4.403177511011051593e-01,7.586527942564715542e-03,2.237060740408293620e-03,1.148744863600630918e-02,1.076728031039237976e-01
-4.059048841663801532e-01,-4.406082611255675019e-01,-4.537695233969058495e-01,4.314086969700745879e-03,2.555679447007663460e-04,-5.695649833143449740e-03,4.458289593458175659e-02
-4.105254364073265827e-01,-4.657158487936635671e-01,-4.749895611187941458e-01,-8.798182274892244262e-03,-2.476737735162220285e-03,5.355114427163331194e-04,6.241226196289062500e-02
-4.124381431786854346e-01,-4.781292603131257479e-01,-4.767576412504966332e-01,-3.499928607527316021e-02,3.728921074897080783e-03,7.085187293289333527e-03,8.996813744306564331e-02
-4.306580068190214994e-01,-3.906124624332417139e-01,-4.131196975268224825e-01,3.572738795927982592e-03,1.005691108662357981e-02,4.816828400217421265e-03,4.025208204984664917e-02
-4.506966271380065114e-01,-3.756333417557397025e-01,-4.558266638171416529e-01,-9.547598180617872677e-04,-1.636173492970103205e-03,3.609654462354940388e-06,7.782453298568725586e-02
-4.635467446902917787e-01,-3.533729225286568187e-01,-4.545508087389109053e-01,-3.232583171903792688e-05,-6.028072423186737160e-04,5.773523592008659132e-03,1.064385995268821716e-01
-4.781066054271303489e-01,-3.887581697269180125e-01,-4.654315679828641139e-01,-1.215449503237033381e-03,-4.937649800516650048e-03,8.211870454115262341e-03,8.538842201232910156e-02
-4.164442723547702729e-01,-4.445136318727907487e-01,-4.576138879868822951e-01,-4.195697903622204808e-03,-3.833631777517366567e-03,5.430681491155726036e-03,3.889216110110282898e-02
-4.693180202359127917e-01,-3.968794073071937878e-01,-4.529829650113654238e-01,5.786798243098134620e-03,-7.347535081359177732e-03,-1.067310042936581507e-02,7.025000452995300293e-02
-3.981880710017919878e-01,-4.494846676356487047e-01,-4.534169461162952941e-01,-9.518649298927045130e-03,-3.693338479119443341e-03,5.975443891873409748e-03,5.716966092586517334e-02
-4.447052213752679117e-01,-3.287357153748342031e-01,-4.490549900526249472e-01,6.302562202875343529e-03,2.027422419701362718e-03,4.131518315686372698e-03,1.189747601747512817e-01
-4.451465347725011013e-01,-3.572319465802230587e-01,-4.614610614129990296e-01,7.554185781602705020e-03,2.462595966751105533e-03,3.947202800108159763e-03,9.831355512142181396e-02
-4.413347633427620598e-01,-4.974726094107389529e-01,-5.009215927643012600e-01,-3.896583114981019141e-02,-1.487321494031638124e-02,2.469223051098235876e-04,9.260561317205429077e-02
-4.076728598628133193e-01,-4.011674434056729521e-01,-4.499714798159959450e-01,4.275226566666680619e-03,3.060080921302356198e-03,1.653117391088287143e-03,4.688056185841560364e-02
-4.471937818475775206e-01,-3.610249049493798323e-01,-4.449525091577770097e-01,7.205726307633421313e-03,6.835405784225750438e-03,7.318444908673915963e-03,8.771308511495590210e-02
-4.230826147752621558e-01,-4.307309595590634310e-01,-3.933579100182376109e-01,9.343266190100148541e-03,1.026296638470433620e-02,8.303615449660930320e-03,4.420549049973487854e-02
-4.686579692518941798e-01,-3.545851728602464892e-01,-4.692740260262450169e-01,7.363168883074555117e-03,-2.354148228629294234e-03,1.487385809975879910e-03,1.151918843388557434e-01
-3.994632507209054939e-01,-4.214390694210329302e-01,-4.526789532883225275e-01,1.631224847535948583e-02,7.929531329415437715e-03,7.595706369860669681e-03,5.749238282442092896e-02
-4.123861725624265451e-01,-4.131831847490442522e-01,-4.550559839250610250e-01,8.390748801402773960e-03,3.566896726210756850e-03,3.466231737919915016e-03,4.552764073014259338e-02
-3.980227846253888146e-01,-4.173158132625699457e-01,-4.550550151183180847e-01,1.677814852863212039e-02,3.617725120278870218e-03,4.651249852289079793e-04,5.838667228817939758e-02
-4.457048689278610976e-01,-3.594362164629530398e-01,-4.613098041693355911e-01,9.795090116402812089e-03,-2.974008879572522229e-03,2.126020759341319590e-03,9.674676507711410522e-02
-3.399867841640156207e-01,-3.432503015747144226e-01,-4.260909963290046565e-01,6.636132807023076285e-02,1.190075339771361207e-02,1.402911522602083398e-02,1.461861580610275269e-01
-4.188702785315396304e-01,-3.991683897492202537e-01,-4.548582476060303303e-01,2.123772363553912482e-02,6.673083325585488050e-03,4.816421168236969912e-03,6.283817440271377563e-02
-4.263694260303506067e-01,-3.796491438840737809e-01,-4.498409277707454135e-01,7.214700754547603324e-03,3.624099166182911166e-03,3.505823871674619129e-03,6.373948603868484497e-02
-3.995525489014600251e-01,-4.067530853495688326e-01,-4.477636625795721192e-01,4.495036199000625871e-03,6.229122972867617110e-04,-8.740320790518819665e-04,4.575024917721748352e-02
-4.165459932783255326e-01,-4.153058043202080829e-01,-4.504186117536948530e-01,8.980705703319560862e-04,-1.053575127682086863e-03,-7.947433489587372221e-04,3.462001308798789978e-02
-3.987688819057176870e-01,-4.064094413936594763e-01,-4.451870522054992008e-01,4.933985288431108097e-03,6.690070000201746444e-05,-8.279280058560308485e-04,4.397119954228401184e-02
-4.001665401343530437e-01,-4.614294695787410916e-01,-4.595594932695407087e-01,-4.501075542312088680e-03,-6.961123675109905963e-03,4.413544094357301634e-03,6.250337511301040649e-02
-4.197315492308879015e-01,-3.913164104045167568e-01,-4.407979910943493618e-01,8.375570872989998583e-03,-3.326321323448815179e-03,-6.615035642860452167e-04,4.576873779296875000e-02
-3.892030830856878509e-01,-4.924731109844421306e-01,-4.923183506106063034e-01,-1.337591459367637459e-02,-1.606709385856243876e-04,-7.018805310791271547e-03,1.064582243561744690e-01
-4.016372343452389582e-01,-4.725668505690238108e-01,-4.661981315314825403e-01,4.655823325231667892e-03,-1.328496724279205378e-02,-6.093801993192061832e-03,7.297769933938980103e-02
-3.838549840433085336e-01,-4.612858687014157466e-01,-4.702750374335875616e-01,-4.628581129217432429e-03,-6.159403830162691121e-03,1.293125638634772239e-03,8.339957147836685181e-02
-4.345545649248123699e-01,-4.213729704161360279e-01,-4.544307127058920259e-01,-9.464756246090923197e-03,-5.027109109293925347e-04,-6.568876654258073251e-04,3.319054841995239258e-02
-5.176719592664706937e-01,-4.428124557975472442e-01,-7.414444474127453999e-01,1.836722604383812241e-01,-2.988131870320737821e-02,-9.327502673470414087e-04,4.199016094207763672e-01
-3.658820732750462379e-01,-4.927358693692439617e-01,-4.748438194236493937e-01,-2.015495552605656507e-02,-1.874845469465256584e-02,-1.259596894109759301e-03,1.281416267156600952e-01
-3.565434260762481711e-01,-4.491014172758612810e-01,-4.180672541875642967e-01,1.755119482184179817e-03,1.404986643977222671e-02,-1.538100368812228731e-03,8.524186909198760986e-02
-4.374482886706303475e-01,-4.253404052923673295e-01,-4.541456989288491508e-01,-1.978793689220437191e-03,2.151519334489995338e-03,-6.421707703786496389e-05,2.555818855762481689e-02
-4.372485601063469396e-01,-4.257679303243040447e-01,-4.376829473794792147e-01,-1.071803533944170207e-03,3.503500796979636470e-03,-7.814948836924202197e-04,1.338217593729496002e-02
-3.751613665733515290e-01,-4.686358570507879739e-01,-5.293516953794102919e-01,-7.334644306480264664e-02,-3.417397434535993095e-02,-4.041486760488797320e-03,1.943989694118499756e-01
-3.564111777331062658e-01,-4.351627297998768018e-01,-4.468484074325549393e-01,-1.775000930115454983e-02,-3.726323056219366537e-03,2.821079639028335555e-04,9.080589562654495239e-02
-3.869803890578128458e-01,-4.669928639168611784e-01,-4.589579399154314898e-01,-1.303886632651598577e-02,2.389243682915623279e-02,-8.635112710119562454e-03,9.093920886516571045e-02
-3.282905089057255310e-01,-4.406910786761948917e-01,-4.485038876013890397e-01,-1.253085052756417253e-02,1.066880403588812108e-02,-6.062791571903820625e-04,1.199447065591812134e-01
-4.262457124683114995e-01,-4.398799350955716059e-01,-4.323029222398238614e-01,-8.764117474237965826e-04,-1.185718108511117077e-03,2.492638601537929422e-03,1.285139285027980804e-02
-4.703251463099852869e-01,-3.600463382386689948e-01,-4.693551206497209582e-01,-2.193786291005471543e-04,-3.938916236200532862e-03,7.676379588896897060e-03,1.108099892735481262e-01
-4.313723947498764311e-01,-4.422050836061101609e-01,-4.408467162057034816e-01,-4.238539342557933777e-03,-5.988911400804933054e-03,4.442972681310782858e-03,1.803314685821533203e-02
-4.332236521516579786e-01,-4.444866772485314699e-01,-3.991984858378055945e-01,-4.351575459267871017e-03,6.080532154490376692e-03,5.883896722923243842e-04,4.285510256886482239e-02
-4.289520235345232191e-01,-4.401003383427481430e-01,-4.171378649702420227e-01,-5.185548094402694756e-03,-3.833438756778725399e-03,2.828333660330239422e-03,2.333069033920764923e-02
-4.600790826088582142e-01,-4.867298801116662910e-01,-3.410671443263281200e-01,2.403396017231405543e-02,9.107284512678305577e-02,6.019586601999109970e-02,2.356526702642440796e-01
-4.250100881615107018e-01,-4.209338202319140576e-01,-4.550321450205601637e-01,-8.675556060330285105e-03,2.337055917758805793e-03,-2.785750230806692800e-03,3.613558411598205566e-02
-4.336974472525339519e-01,-4.458892849129301728e-01,-4.194106498964931262e-01,-3.254198279493293773e-03,-4.819301695753291578e-03,3.947599141999462956e-03,2.598331868648529053e-02
-4.382530461117739029e-01,-4.266038516151643978e-01,-4.552851951028450972e-01,-1.842653068931160562e-03,2.294037685139098306e-03,-4.610385660831642710e-04,2.551117911934852600e-02
-4.326300042950614877e-01,-4.446403949024929081e-01,-4.271939077900628878e-01,-3.605443659596766805e-03,-1.437286189289225212e-03,1.347745897361657657e-03,1.702159084379673004e-02
-4.279445520685754012e-01,-4.233162516193478830e-01,-4.271835838577716649e-01,-5.737201752042020604e-03,-6.088939395638657062e-03,5.878356266978793619e-03,1.822403632104396820e-02
-4.264383270406673088e-01,-4.320715385550711329e-01,-4.185294141577707294e-01,-4.971693858573749542e-03,-3.930004712964941388e-03,2.937121945243927838e-03,1.688800193369388580e-02
-4.285521791818788229e-01,-4.572047855230476632e-01,-4.380127970342952981e-01,-2.409229612004745963e-04,-1.573022460051470318e-03,6.374565965205741510e-04,2.546016871929168701e-02
-4.009187314684619641e-01,-4.597402804808300991e-01,-4.560657433697893337e-01,-1.579005787172827868e-03,5.837454220921251512e-03,-4.069134056970321114e-03,5.845268070697784424e-02
-4.592720974723321636e-01,-3.835411984166487986e-01,-4.722413149751112926e-01,-1.424802114068024093e-03,-4.159762392131343030e-04,1.447774764406597678e-03,8.305683732032775879e-02
-4.361978057769715367e-01,-4.589565260933238244e-01,-4.152986443443231757e-01,-4.608344448037607344e-03,-1.020160675542000281e-02,7.766083378522451244e-04,4.252188652753829956e-02
-4.590557282864162758e-01,-3.353544161203659835e-01,-4.597294922722242050e-01,7.582733354143560318e-03,1.697015719734914965e-03,6.936751380273128639e-03,1.253447383642196655e-01
-5.227231925092773457e-01,-4.315201140841596339e-01,-5.112818947491385435e-01,-2.630114670762934842e-02,2.249723500029024176e-03,-4.296712626388174416e-02,1.226147636771202087e-01
-1.870541009111178488e-01,-2.682987038178354933e-01,-3.787144475754556372e-01,1.518509608165555524e-01,5.089373471530656001e-02,3.246278566507565522e-02,3.284374475479125977e-01
-4.090715431506533606e-01,-4.458324187210300216e-01,-4.239591592782851470e-01,-6.936823616895045628e-04,-7.225766282190450480e-03,1.219780070183921995e-03,3.447119891643524170e-02
-4.574396940611906714e-01,-4.174300181774404650e-01,-4.444977004783410846e-01,2.356481557528436726e-03,-4.500749576396015188e-03,-5.191297235393660392e-03,3.753321617841720581e-02
-4.281840677919769855e-01,-3.824010459364390879e-01,-4.564864894250189042e-01,7.491750270874992720e-03,2.302840762747573010e-03,2.635709093645497575e-03,6.631750613451004028e-02
-4.401327848747352833e-01,-4.569847658796754031e-01,-4.314952505367578572e-01,1.509482928896542292e-03,-1.238151329637609752e-02,-2.990732928812573580e-03,3.158687055110931396e-02
-4.296315793048273157e-01,-4.543317323418099574e-01,-4.361896468775718905e-01,9.313232496351318617e-04,-2.515533368472581358e-03,7.250037631120605187e-04,2.267781458795070648e-02
-4.151194621684437536e-01,-4.511042215042969650e-01,-4.325017657935024684e-01,1.549957041761529375e-04,-4.831056249666220229e-03,6.733192697673913906e-04,3.229549154639244080e-02
-4.039217102734470877e-01,-3.915741907989890302e-01,-4.433311372296262487e-01,7.889952493642618525e-03,5.572684678282669238e-03,4.618945180990935949e-03,5.035965889692306519e-02
-4.592568637141024590e-01,-3.846236964335165154e-01,-4.547852000989940358e-01,7.773898091488360730e-03,-4.247769331905633383e-03,-3.578914577011348738e-03,7.436550408601760864e-02
-4.230335405771331603e-01,-3.059105247889465362e-01,-4.046846493265310318e-01,1.388022082255850609e-01,1.043878270789877494e-01,1.212802710651405547e-01,3.827802538871765137e-01
-2.614188149369602865e-01,-2.323280324251748574e-01,-3.194065397966650011e-01,1.340352720083017035e-01,1.002465893676193903e-01,1.119942466617231958e-01,3.571671843528747559e-01
-3.257714704948734274e-01,-2.642285754096454498e-01,-4.271521465310782473e-01,1.207175183076929642e-01,4.233363411430902945e-02,5.193161254708398428e-02,2.783703804016113281e-01
-4.272986182301939384e-01,-3.009922855418707410e-01,-4.927160064840772069e-01,1.301315190393608767e-01,6.727996630346012863e-02,4.755723209673459045e-02,3.156942129135131836e-01
-4.722156226822732394e-01,-4.008264319810331267e-01,-4.785249035570091070e-01,7.722617915921883847e-02,4.921346540550314286e-02,8.438356780561803716e-02,2.282672524452209473e-01
-4.498472722024643988e-01,-4.254115048370409324e-01,-4.022717374612128638e-01,8.107452267894710990e-03,8.706788807392718682e-03,1.844602548228339162e-02,5.606583505868911743e-02
-4.226357294076197868e-01,-3.588447907340402976e-01,-3.299496891579267177e-01,2.956039421002180229e-02,3.126483931902054175e-02,6.670594960202566592e-02,1.601575165987014771e-01
-4.368817558869814155e-01,-4.350630441922094804e-01,-4.041000588512666525e-01,8.499588141583795664e-03,9.929023086864849010e-03,5.266329510821804276e-03,4.017480835318565369e-02
-4.385356000033878709e-01,-4.255342662237596718e-01,-3.668192734604412975e-01,1.204699604366513306e-02,7.342616802763058011e-03,1.075995784319743777e-02,7.296794652938842773e-02
-4.338971089396616576e-01,-4.085869412713126758e-01,-3.750093726499111324e-01,9.049041141503535307e-03,5.768989890221557469e-03,7.853908231237971202e-03,5.611116066575050354e-02
-4.077683581627865039e-01,-4.031465302708147069e-01,-4.460810070647946435e-01,2.033251261347051014e-03,2.038880291715219548e-03,1.249084501957399606e-03,4.118068516254425049e-02
-4.262192495886400478e-01,-4.308220081252669420e-01,-3.825875709386896140e-01,9.989015281869394539e-03,5.758546761314493889e-03,3.616190698499973603e-03,5.063387379050254822e-02
-4.561023865663709764e-01,-4.610840877370624424e-01,-3.728966968878572041e-01,2.715545232797522777e-03,-1.564200148439589058e-02,-2.117647287516829374e-02,9.728298336267471313e-02
-4.725927462928685152e-01,-4.676962754675607625e-01,-4.086045988400515139e-01,1.436752519066893758e-03,-1.858075609934451734e-03,-3.043473044016275532e-03,6.204418465495109558e-02
-4.531315498909817552e-01,-4.462645764172507024e-01,-3.979845535014957525e-01,2.691160859649147606e-03,-1.092960465165060922e-02,-2.531985121681793946e-02,7.080278545618057251e-02
-4.889150527150193937e-01,-4.897353341108976466e-01,-3.384458655416883177e-01,-9.320077344627567331e-03,-3.972029220113154450e-03,-4.565708782509980343e-03,1.521037071943283081e-01
-4.789867171978181015e-01,-4.807412501741696875e-01,-3.840714121626738753e-01,-5.283803975663852771e-03,6.673598697056997830e-04,-1.790037912621640984e-02,1.011181920766830444e-01
-4.662875735346140305e-01,-4.680964323033108831e-01,-3.528052025696046812e-01,1.213193634453624617e-02,9.350135905094952848e-03,-1.985873680020309312e-02,1.223671883344650269e-01
-4.385394134056613824e-01,-4.278881063708613319e-01,-4.606820241127926874e-01,-1.996767530993343899e-03,9.109762547706925801e-04,-3.114166908157128762e-05,2.922408469021320343e-02
-3.734989846800287894e-01,-4.600426665578916108e-01,-4.386651066443249536e-01,-2.049039688203899146e-03,2.798586292964985039e-02,2.787857802936049168e-03,9.209915250539779663e-02
-4.118659805776734850e-01,-5.589619721683584119e-01,-4.933411974758383778e-01,-7.399802727898741744e-03,7.784862456814352349e-02,-8.081664426956115116e-03,1.866338700056076050e-01
-4.321287967281444153e-01,-4.269101490450151748e-01,-4.499421014707610800e-01,-1.094863796213641199e-03,1.633712017517796296e-03,-4.453924449491714413e-04,2.120631560683250427e-02
-3.797281158229209308e-01,-4.667329643929281069e-01,-4.602799573423227986e-01,-7.691419228352897909e-03,1.116178000675799309e-02,-7.117949208701523228e-03,8.805263787508010864e-02
-6.456647194759150832e-01,-6.797586550050704890e-01,-2.630351047757351068e-01,-2.372553203634315128e-02,8.382702283665545429e-02,7.525960474673978884e-02,4.476324319839477539e-01
-3.441949665350130250e-01,-4.779772069815659830e-01,-4.492663089610321459e-01,-2.067978964380797965e-02,5.768495411078699425e-02,3.183513550613191554e-03,1.617931425571441650e-01
-4.468873422074313706e-01,-4.197731387731928332e-01,-4.563688116351636292e-01,-3.244505635285270528e-03,4.001555413161611216e-03,-1.261412102121939544e-03,3.415482491254806519e-02
-4.492524577182723799e-01,-4.273534284130099392e-01,-4.226114513885103618e-01,1.673678211759384391e-03,3.338160113375806854e-04,-4.488605622253646725e-03,2.598228491842746735e-02
-8.495560511098912970e-01,-5.121685860035904980e-01,-6.275926935465463430e-01,-6.680816562446606488e-02,-9.682373737154359450e-02,1.825679798318118607e-01,4.792891442775726318e-01
-3.040758892275702840e-01,-4.408357505445587021e-01,-3.812264990049309965e-01,1.032901787038853665e-02,5.914741227345726715e-02,4.568328266464034837e-03,1.580578833818435669e-01
-3.522476372375752396e-01,-4.715907001053194492e-01,-4.775497066454510442e-01,5.226849633908769652e-03,-3.184261133011889126e-03,2.222202291349277168e-04,1.228900700807571411e-01
-4.165363899497455669e-01,-4.424905131908219991e-01,-4.143493850386318345e-01,-3.290716898352840096e-04,-4.172093369422293763e-05,-3.119550527691847372e-04,2.712532691657543182e-02
-4.572113645723993591e-01,-4.104747999127757452e-01,-4.569242719705207123e-01,-3.562521855953108656e-03,5.003236277763762826e-03,-2.681132614684570304e-03,4.801779240369796753e-02
-4.325799878040450519e-01,-6.998926884206744248e-01,-4.209675282082100400e-01,-3.270501406678258394e-02,2.022149370584474803e-01,-2.858870160953077763e-02,4.505868554115295410e-01
-3.604017530417015225e-01,-4.716517769013032768e-01,-4.810646983359129769e-01,8.449903014918560022e-04,-1.296237524018387381e-04,1.172164443454446321e-04,1.162522807717323303e-01
-4.202238852802497315e-01,-4.378317257455961453e-01,-4.301606024417892749e-01,-1.700133655752661529e-03,2.031698803276463759e-03,-2.981530235246788226e-03,1.677896268665790558e-02
-3.729944385474355806e-01,-4.718726275289554795e-01,-4.761323977135581420e-01,5.356425865530888009e-03,-6.186834243128461371e-03,1.298790200950931430e-03,1.020892038941383362e-01
-1.839524222528329811e-01,-4.328211710983360661e-01,-3.649590493537039904e-01,2.097591252449449578e-02,1.078289256685311392e-01,5.215895886397396361e-03,2.931466698646545410e-01
-4.532518081559755996e-01,-4.179320403342186019e-01,-4.467657889617807632e-01,-1.586799473336341542e-03,4.368610359051673143e-03,-3.549950139954829911e-03,3.410401940345764160e-02
-4.304539214515694656e-01,-4.617236706521226086e-01,-3.805471059063036954e-01,-2.772652865795625747e-03,7.450886815021647708e-03,-2.276845042502372387e-04,7.224144786596298218e-02
-3.907259363213427816e-01,-4.347918108206880183e-01,-4.363296749405264352e-01,-8.725580572200642912e-03,9.147944007036515335e-03,-8.927246275987772359e-03,5.225402116775512695e-02
-7.118958835342960034e-01,-5.609443370824730435e-01,-3.160907084744260520e-01,-2.210347975773021417e-02,1.990078009756503057e-03,1.054673598000610141e-01,3.931263983249664307e-01
-2.951511000460044776e-01,-3.299622037701343547e-01,-4.162774229725411113e-01,-9.646593717366336307e-02,-5.803072203800286807e-03,-8.829194151908935362e-03,1.997968405485153198e-01
-3.562626208773388981e-01,-4.672356451930518295e-01,-4.764423369534415142e-01,6.425873466530363301e-03,-4.202697008465452327e-03,-1.255874389223038054e-03,1.166321784257888794e-01
-3.728890921365163313e-01,-4.768430917804616365e-01,-4.740957100527791179e-01,1.380713682914771340e-02,1.129332293381508982e-04,1.774394702506465644e-03,1.054029166698455811e-01
-2.314182312017462884e-01,-6.139070066077957355e-01,-5.660736696396744261e-01,8.567795390084932683e-02,1.457653223858275393e-01,1.476003277416445235e-02,4.655193686485290527e-01
-4.264489219346089266e-01,-3.811169073196808421e-01,-4.528730181413953004e-01,7.372233536046757067e-03,-3.840885151748092111e-04,1.464108348833909122e-04,6.414544582366943359e-02
-2.769542488248509793e-01,-5.860139752975571659e-01,-6.263606760603628310e-01,7.100474874127862823e-02,1.815237493707390001e-02,-5.423149552797718737e-02,3.668133318424224854e-01
-3.788072918107653342e-01,-5.382801107190644530e-01,-5.270177041685952801e-01,-1.927956393007470431e-02,-9.121625101339705249e-03,-1.005888550839980321e-02,1.594698578119277954e-01
-4.595978809914273433e-01,-3.508496978354285756e-01,-4.661785537915891786e-01,6.971258044082080142e-03,-4.840395915455302975e-04,1.565201329830233877e-03,1.128669828176498413e-01
-4.476027604737164434e-01,-4.308690105187077957e-01,-4.263667818408868881e-01,3.387704453912175704e-03,-3.052830821203298805e-03,-3.449321082225605649e-03,2.176488004624843597e-02
-4.548384881899038001e-01,-3.789585185635012121e-01,-4.520185859407344076e-01,2.857999403844338135e-03,-1.414782099866859853e-03,-2.589431862335811376e-03,7.484899461269378662e-02
-4.212155316728081189e-01,-4.442092042692360465e-01,-4.146788668168038261e-01,-1.137203493345168362e-03,1.245007801304189466e-03,-2.371774969319992432e-03,2.733394689857959747e-02
-3.351230724853255238e-01,-5.032391417031870651e-01,-4.913051741986844134e-01,1.835437089656302700e-02,-2.912901765719639463e-03,1.098583519959474980e-03,1.656468063592910767e-01
-3.772303845981024306e-01,-5.300484283550682685e-01,-5.284428545439588953e-01,-1.915047481358242432e-02,-7.878483200580025173e-03,-1.207020727176902342e-02,1.575883030891418457e-01
-4.272594916885270599e-01,-4.439522332970411989e-01,-4.278784738607976368e-01,-2.575618900629034029e-03,-3.008555245435663543e-03,1.251470496675136535e-03,1.790118589997291565e-02
-3.160522062781397357e-01,-4.724996143314276753e-01,-4.839111238912703339e-01,8.793441814603437587e-03,3.179560918264835723e-02,-4.937465003316021325e-03,1.724218875169754028e-01
-3.352776700767431395e-01,-4.918384658648972674e-01,-4.711297089555817053e-01,-1.417366486247074661e-02,7.738443029923586410e-03,-5.984545186277859426e-03,1.502921432256698608e-01
-4.230285313110738188e-01,-5.289747528555404088e-01,-3.855254246992578793e-01,1.726585468267560763e-02,7.384195845573067463e-02,2.665954256892395097e-02,1.897072046995162964e-01
-4.609092099976049295e-01,-4.383540772338627711e-01,-3.126351821814093990e-01,1.683871942265627308e-02,3.756556963973161495e-02,3.513950097410110940e-02,1.671468764543533325e-01
-4.370233621563175408e-01,-3.894139672415336539e-01,-4.680115675473760506e-01,7.047832333493796349e-03,-4.439878655419282616e-03,-1.180826899461910606e-03,7.010413706302642822e-02
-4.439059331825588872e-01,-4.591959057352903439e-01,-3.456949075350732592e-01,1.226345810949228468e-02,9.687074200685853731e-03,1.197937833535346608e-02,1.120001971721649170e-01
-4.653235873869838723e-01,-4.407474540217967141e-01,-3.467629105460001138e-01,1.249805732945615498e-02,1.162673586078689404e-02,1.046832514073261534e-02,1.137970238924026489e-01
-4.693838582595013520e-01,-4.525424389644377987e-01,-3.513324270624454404e-01,2.155210044680101484e-03,-1.491330585425777863e-03,7.094028090188741510e-03,1.113696694374084473e-01
-4.174786907819957316e-01,-4.066271898897997339e-01,-2.812536224865934686e-01,8.352139928458438348e-03,2.668826665966000933e-02,3.917956250134613239e-02,1.553961336612701416e-01
-4.157267000866645690e-01,-3.971010998368700307e-01,-4.484300921309874455e-01,4.873113717007791779e-03,1.094527853058692999e-03,1.180264826784539582e-03,4.587548226118087769e-02
-4.393536784339123757e-01,-4.262292507309633494e-01,-4.491702148532376038e-01,9.876888672630288607e-03,-8.512656527213634250e-03,-9.086699649819767605e-03,3.398838639259338379e-02
-4.371429181247930562e-01,-4.410035024797475667e-01,-4.531829318288560504e-01,-6.302977370395755272e-03,5.774406509992342784e-03,-5.389756260922429383e-03,2.272937819361686707e-02
-4.084949001578994099e-01,-4.235150547890267902e-01,-4.323291352976484370e-01,-1.385307951047069948e-02,9.103934373316415266e-03,-1.050066273803035473e-02,3.988536074757575989e-02
-4.372399087848783950e-01,-4.229133679822084102e-01,-4.421510147624294618e-01,-2.531005168700937134e-03,5.434397723977571135e-03,-2.029902626061309227e-03,2.049159258604049683e-02
-3.932430828095686559e-01,-4.306427570690011808e-01,-4.260504927731822433e-01,4.231164847528849984e-03,4.441836555002353325e-03,9.353228056629222034e-03,4.029171168804168701e-02
-4.301966459330177628e-01,-4.155477112401336215e-01,-4.434861655887001319e-01,-5.687895238027454621e-03,5.146970566996932755e-03,-2.217502003734390069e-03,2.787763066589832306e-02
-4.368964708861144408e-01,-4.257046530674896134e-01,-4.522077013340665141e-01,-2.810302144247011236e-03,3.375855370714022502e-03,-9.869636658867381000e-04,2.432809025049209595e-02
-4.414084675596213758e-01,-4.014323020898122873e-01,-4.485398964321370974e-01,6.622301562950356178e-03,-1.087978303512853080e-02,-6.894009589975129935e-03,5.062898248434066772e-02
-4.305219865060485041e-01,-1.738385130466438833e-01,-4.011429686959450125e-01,8.464811374326093596e-02,2.328257096836252801e-02,1.104966973052934065e-01,3.449045121669769287e-01
-5.032885211380847545e-01,-3.434460676235869814e-01,-4.725953902078706692e-01,1.056218434900980642e-04,-1.084474343065843990e-02,2.662061873028167061e-02,1.551271826028823853e-01
-4.482048076572477946e-01,-4.465803014464352905e-01,-4.548732512753372315e-01,-1.565317156932610060e-02,1.425942418797411342e-02,-1.517260415621777582e-02,4.575612396001815796e-02
-4.668745589964946596e-01,-4.154982623722621726e-01,-4.628471000221094367e-01,-2.634966270316859479e-03,2.518042810912581291e-03,-2.558198925449998561e-03,5.008305236697196960e-02
-5.095245260843719315e-01,-3.020789319589400890e-01,-4.792874273733970791e-01,1.445277225130693968e-02,-4.546581339039984407e-04,2.276172909435396699e-02,1.996420770883560181e-01
-4.398629577084400277e-01,-2.707103839209091811e-01,-4.409508776608910274e-01,1.158584166724936811e-02,-3.289455166149178340e-03,2.232372941786653700e-02,1.752940565347671509e-01
-4.146862879845750749e-01,-1.557059426496249510e-01,-4.205264050356282146e-01,5.658656116680738785e-02,-1.100058670302279289e-03,2.498419828772113424e-02,2.830190360546112061e-01
-4.457646122731575566e-01,-4.228015372605727351e-01,-4.457819696085163486e-01,-2.575760438712041377e-03,4.947087040170771409e-03,-2.442229494871041035e-03,2.527686208486557007e-02
-4.886174134793994650e-01,-3.542313821311314781e-01,-4.829078373558937098e-01,-7.340852734343866672e-04,1.383377878997145340e-03,5.252791909374736681e-03,1.319660991430282593e-01
-4.089978016273760897e-01,-4.436092190683781911e-01,-4.237052401755574405e-01,-1.963344525947709109e-03,3.598899836710601000e-03,-1.535056090708202372e-03,3.102746047079563141e-02
-4.721761191915035960e-01,-3.966253391400006989e-01,-4.640532598806395570e-01,1.369876800301885866e-03,-2.339692973472172217e-03,-2.079570828618786203e-03,7.207800447940826416e-02
-4.813634297531681483e-01,-3.020088180590512206e-01,-4.530442679793268423e-01,-4.433014051231213594e-03,9.386989430586594255e-03,3.994134605865736626e-02,1.816593408584594727e-01
-4.359352623201715460e-01,-4.303251443745850224e-01,-4.499046604586363074e-01,-1.597165566772283402e-03,3.534671434502651820e-03,-3.288823996676468533e-03,1.955942437052726746e-02
-3.681700086505493852e-01,-4.450567960270761514e-01,-4.411488213246052004e-01,-2.170387329687955766e-02,2.097413559920312601e-02,-1.189832895985295375e-02,9.372303634881973267e-02
-4.764610118248228110e-01,-3.487755397874437446e-01,-4.665389795317702593e-01,2.528125731400786627e-02,7.127049492897559457e-03,2.905228270111564690e-02,1.404885798692703247e-01
-4.712062739246449250e-01,-3.489649572543992440e-01,-4.743374917294113091e-01,2.031719188523264247e-03,-1.171238838637380037e-03,5.764065302187243618e-03,1.243047863245010376e-01
-4.350200017512805828e-01,-4.244994107274719930e-01,-4.291667195126297463e-01,-1.582125538284095880e-03,2.128783043012004526e-03,-1.364964486135276977e-03,1.049083657562732697e-02
-4.810826894385625274e-01,-3.663929983018451297e-01,-4.747811562601511604e-01,-5.616174080384691777e-03,-5.341794096518501928e-03,5.034867691258259129e-03,1.128139719367027283e-01
-4.537301669138896210e-01,-4.312572806130539060e-01,-4.313087253906642826e-01,6.948676400468779650e-04,-1.804889279417984035e-04,-1.052171788407621923e-03,2.255536802113056183e-02
-4.683645330390849848e-01,-3.857155126619066232e-01,-4.597674658819217997e-01,3.529941957063400301e-03,-4.772086814955541455e-03,-2.564214729951455173e-03,7.949626445770263672e-02
-4.766721543496744151e-01,-5.144706446735068939e-01,-3.836421008471590510e-01,-1.075383971172152592e-01,1.278629450913554844e-01,-7.370214270800221068e-02,3.370994627475738525e-01
-4.812955774219008775e-01,-3.553427880435386932e-01,-4.669062087318480714e-01,-3.549917339337213366e-04,4.568580716773228481e-03,1.358333167341106706e-02,1.219643056392669678e-01
-4.838338988432508425e-01,-3.761203971622957831e-01,-4.769156929563833081e-01,-7.054928185260506829e-03,-6.560970425088601642e-03,8.176307083455160163e-03,1.066953018307685852e-01
-4.685502679148204064e-01,-4.441186705363341924e-01,-4.358323186441827590e-01,1.089614257357873544e-03,-2.372689631287155671e-03,-1.293702401883903806e-02,3.729029372334480286e-02
-4.128030623572868651e-01,-4.468453570855388524e-01,-4.631788544882315950e-01,-1.733238076948104972e-02,4.963447603667955205e-03,-8.846929619334123820e-03,5.649457499384880066e-02
-4.366825536299129840e-01,-4.595986389234968383e-01,-3.933093031515404459e-01,-6.148366882676146311e-03,7.077547076560365691e-03,-6.727034882329782813e-03,6.164229288697242737e-02
-4.767256989597057903e-01,-4.724526580051480740e-01,-4.049547744972197272e-01,1.229312807200361657e-03,-2.158115412551563170e-03,-1.230850497031008191e-02,7.304552197456359863e-02
-4.597621113176422192e-01,-4.440677261111031782e-01,-3.815449985419678280e-01,-2.320777544345697420e-03,9.837813054162314330e-03,-2.032544113711448261e-02,8.174678683280944824e-02
-4.770081044237998724e-01,-4.603354448931638587e-01,-3.957558456053726914e-01,3.183079765443534194e-03,1.560866052280187287e-02,-2.397195890168245247e-02,8.950120955705642700e-02
-4.566671181503806909e-01,-3.872187533008968341e-01,-4.500015735120243554e-01,5.851287529547010156e-05,2.313668844373236756e-03,-3.009916529914400622e-03,6.669214367866516113e-02
-4.077423565996198263e-01,-4.499091096948285018e-01,-4.049107289132937160e-01,-4.248564149098188903e-04,2.213181317092716063e-03,5.461258956230035560e-04,4.383588209748268127e-02
-4.325232325263431710e-01,-4.518086020141362513e-01,-4.309864724726586438e-01,4.418957621719646518e-03,-8.618082485906871162e-03,-4.716232951477048949e-03,2.742349728941917419e-02
-4.047863469812852943e-01,-4.631166226200787994e-01,-4.212299485823925438e-01,3.104015473397600099e-03,1.980611665275104627e-02,3.763202188581644871e-03,6.294354796409606934e-02
-4.059396558036484914e-01,-4.560655665749064336e-01,-4.162687459088391106e-01,5.574753304559374465e-04,7.662835574240249754e-03,-9.222050249198844585e-04,4.776173084974288940e-02
-4.556477306908176539e-01,-4.260867988599835177e-01,-4.393562382691729162e-01,8.562033826195130466e-04,1.036609463252200240e-03,-2.678531492172345468e-03,2.616517245769500732e-02
-4.693191297594989098e-01,-4.439433127318632710e-01,-4.161689352632211847e-01,-1.171307034609268653e-02,1.385129360272277423e-03,-2.898527633221421526e-02,7.111911475658416748e-02
-3.966466128004969560e-01,-3.966649172423716840e-01,-4.384488829892069783e-01,1.653472315659425262e-02,-2.830310577234104209e-03,-3.959514374653979631e-03,5.136070027947425842e-02
-3.715404767683446186e-01,-4.421492478843453422e-01,-4.000786393909346872e-01,3.383422089058099082e-03,1.235580970455514224e-02,3.583112727089563746e-03,6.569503247737884521e-02
-4.066364702719516555e-01,-4.106717685008884899e-01,-4.447655609394710607e-01,1.857266734052427778e-03,1.896074279358475351e-03,1.894505145874066402e-03,3.671716153621673584e-02
-3.693106180071012434e-01,-4.313243620196134387e-01,-3.952230295081091138e-01,4.525353618370637869e-03,1.114190783915948446e-02,6.479549393474402612e-03,5.890711769461631775e-02
-4.492317541226176214e-01,-4.318941270742763794e-01,-4.630536374867997296e-01,-1.698498791281708581e-02,-5.138269517084329344e-03,1.321071833857936396e-02,4.689904674887657166e-02
-3.516875564293951983e-01,-4.905082898923744383e-01,-4.362284538675174073e-01,-5.798653049412238331e-02,1.103838454959538834e-01,-6.909219239316545524e-02,2.750356495380401611e-01
-4.157933340002043510e-01,-4.136953015022233893e-01,-4.428547253963668884e-01,1.256190369474606203e-03,-4.100855522942926847e-04,-3.070520618844874410e-03,2.875794097781181335e-02
-6.395200785391484954e-01,-3.389684799126659320e-01,-6.148522713331000533e-01,-2.056158637830464153e-01,-7.867477596709238075e-02,-2.331425890447837504e-02,4.801658987998962402e-01
-4.424715345218477314e-01,-4.059501696070647592e-01,-4.549326980040126478e-01,5.479986680530890379e-03,-6.204861274993237266e-03,-6.129320663838424936e-04,4.637788236141204834e-02
-4.329346043187534132e-01,-4.033215896505159548e-01,-4.867909582478177066e-01,-2.860791045523714340e-02,-9.355114426049589583e-04,-2.986828235632775410e-03,8.863922953605651855e-02
-4.548746094360268111e-01,-4.005943366691438468e-01,-4.680559565087830665e-01,-3.467154077544902513e-02,-2.320251689847223006e-02,1.987554421944410024e-02,1.012033224105834961e-01
-4.401372534942313286e-01,-4.306531467360948939e-01,-4.641626426784056791e-01,-1.193805354992773758e-02,4.042647186796043818e-03,-1.932361768749216689e-03,3.718614578247070312e-02
-4.151252031361425954e-01,-3.935765472616089555e-01,-4.807988173231318996e-01,-9.213995907854814760e-02,-3.818658679803885875e-02,1.311598150250606679e-02,1.911873370409011841e-01
-3.797397044407965216e-01,-5.432502268381907973e-01,-5.162362517369074588e-01,-1.838143457747036177e-02,3.389010458642757045e-02,-9.839687522120969462e-03,1.667275726795196533e-01
-4.083758893438034221e-01,-4.504564362635158914e-01,-4.589000352907534053e-01,-1.474649867683775102e-02,8.301151587582629790e-03,-8.063941926075492150e-03,5.702249333262443542e-02
-3.559973478404154790e-01,-4.748473566664415113e-01,-5.992813227197212322e-01,1.376025394391966750e-01,-5.379168740054014741e-02,-9.461542499459398015e-02,3.697814941406250000e-01
-3.629409128108719296e-01,-5.725261730993359555e-01,-4.375382114527622823e-01,-1.218058069204240729e-01,3.839206884731103525e-02,2.610356999771976105e-02,2.912597656250000000e-01
-3.282458823012521787e-01,-5.190316028113467484e-01,-4.850789339811941714e-01,1.564609418650964728e-02,5.438851533254782100e-02,-4.402703362532349625e-03,2.018444240093231201e-01
-4.001060548612055956e-01,-4.296541280045064748e-01,-4.166028269175389154e-01,2.314457937045411983e-03,2.539530026265485792e-03,7.885902407148096677e-03,2.966082282364368439e-02
-4.107186940353196869e-01,-5.065202230428067498e-01,-5.270100357116086487e-01,-4.477185676605231757e-02,-1.292351525053329030e-02,-7.468215197521296464e-03,1.350653618574142456e-01
-3.850401731424776264e-01,-4.845499923451460633e-01,-5.115305040898611155e-01,-1.904235518076024397e-02,-1.460051135565398547e-02,-1.870638032744611481e-03,1.226899921894073486e-01
-4.546000585041313213e-01,-4.302263054449312341e-01,-4.332792363065993690e-01,-3.097871403537126003e-04,1.585162516099912901e-04,-1.141896595512368901e-03,2.309250831604003906e-02
-4.130097376376363760e-01,-4.125063128073034324e-01,-4.441281488958849222e-01,1.101783456847839809e-05,3.248959080427995475e-03,3.947421397582455242e-03,3.259890526533126831e-02
-4.002993302916609819e-01,-3.977403093060226102e-01,-4.287133678266549230e-01,6.524417894985100157e-03,5.621112296368955576e-03,8.107801895780213444e-03,3.614308312535285950e-02
-4.322980770998821054e-01,-4.259326868470889038e-01,-4.431823272215710818e-01,-7.524859771424256783e-04,1.965345293180406454e-03,-9.557656345136939955e-04,1.562992297112941742e-02
-5.122412037559425091e-01,-4.443150161743677495e-01,-3.511810563839984911e-01,8.889606272444099816e-03,-3.713908859950634713e-03,-9.106112685014450259e-02,2.115868031978607178e-01
-2.942134754889946247e-01,-4.526944642822770537e-01,-4.436004400444424345e-01,4.892702351840654560e-04,1.136941813641669831e-02,-4.000500781403405239e-03,1.555449068546295166e-01
-3.863347469667471890e-01,-4.422893160954034508e-01,-4.544742214006922687e-01,-1.257591521288547835e-02,2.401841487569163908e-03,-4.562801611595048920e-03,6.719681620597839355e-02
-4.711467381782488140e-01,-4.861181963780526472e-01,-4.474673399298703669e-01,-6.665502483710318560e-02,4.218465335392865972e-02,-4.840693070955141147e-02,1.638181209564208984e-01
-4.408018147870469972e-01,-4.348954758966219192e-01,-4.410113889928518049e-01,-6.133559894918941269e-03,7.791065825797116248e-03,-4.489340099308629546e-03,1.978870667517185211e-02
-4.480440037180308255e-01,-4.179957383333172682e-01,-4.688541308141208619e-01,-3.312396203119800063e-03,-3.947764746895319338e-03,9.285868121391542291e-04,4.520536586642265320e-02
-4.381433954147199161e-01,-4.302165760142256379e-01,-4.402108113896278097e-01,-2.495269983008353582e-03,2.718086332794233777e-03,-2.919819802892415894e-03,1.224401313811540604e-02
-4.393080032676890401e-01,-4.277559818467070452e-01,-4.506982536982004905e-01,-2.056165378210936083e-03,3.768608317315828241e-03,-1.898952899345449866e-03,2.146802656352519989e-02
-3.909401642618810513e-01,-4.517527104241108038e-01,-4.595634291046067355e-01,-1.265643599086020178e-02,2.620431982129134852e-03,-1.631951585933941098e-03,6.887168437242507935e-02
-4.512102316480450792e-01,-4.908732845003538903e-01,-3.264481795198771463e-01,1.132956252164972304e-02,-7.220503359273945654e-02,-4.730100926290205926e-02,2.117194086313247681e-01
-4.130918224633546854e-01,-4.331344718417337036e-01,-4.606803108804659042e-01,-1.347604933450722783e-02,4.348235189239981098e-03,-1.352244470210094661e-03,4.816213622689247131e-02
-5.853267731279282460e-01,-3.919290793895773284e-01,-5.746190770829278094e-01,-5.114224293579346277e-03,-2.442357613136102168e-02,-2.667137782601670948e-02,1.986166238784790039e-01
-4.053179657994961937e-01,-4.013439399697409926e-01,-4.406455765040732109e-01,1.867540712653193834e-03,1.801990440251891859e-03,1.739647732212058978e-03,3.786171600222587585e-02
-4.515554224301006614e-01,-3.826955361631360630e-01,-4.385397102054285901e-01,2.624140773400562843e-03,-7.001343838049369850e-04,-2.268296504380127449e-02,7.470282167196273804e-02
-4.527611264972237759e-01,-4.269431081062502464e-01,-4.404147432323255451e-01,-9.086307144390430883e-04,2.940371972720234872e-03,-2.311036688277826479e-03,2.333840169012546539e-02
-4.414471066607402183e-01,-4.412563471493033962e-01,-3.554677203206048075e-01,5.559306707765964729e-03,8.449602380544232044e-03,7.265557136842650671e-03,8.855145424604415894e-02
-4.475309923287993374e-01,-3.484496217801649198e-01,-4.486369842301148880e-01,-1.066616743953355088e-02,5.043377225724839791e-03,-1.682101866722115688e-02,1.058034598827362061e-01
-4.598382797781457310e-01,-3.756816811633676423e-01,-4.575070419441468750e-01,-8.633221051889969702e-03,4.162356189850807686e-03,-8.417149933746223209e-03,8.590516448020935059e-02
-3.290777609228664469e-01,-5.093033085902570756e-01,-4.512767520565951762e-01,-1.160521940494685933e-01,-9.888945512591795772e-02,6.173258791660875267e-02,3.264428079128265381e-01
-4.351414809452834875e-01,-4.330608108193000905e-01,-4.366685101120655332e-01,-9.054957243572649009e-04,-6.065573667755410096e-04,-2.098833653377418177e-03,5.159172695130109787e-03
-4.167315790650185647e-01,-1.755015518488516335e-01,-3.792221911650929256e-01,4.647543108203576814e-03,-1.200180706039808386e-02,-7.121602245799997510e-02,2.574152052402496338e-01
-4.465374910913555984e-01,-4.295506663768418609e-01,-4.421133242066647151e-01,-1.517039643186773564e-03,3.392170005125826754e-03,-1.374374704616127853e-03,1.673512160778045654e-02
-3.973223186962638875e-01,-2.872739559984186508e-01,-2.826114737524030307e-01,1.836977528005656959e-02,-1.794340247961855039e-02,-1.126242963939523417e-01,2.295134365558624268e-01
-4.775554365678199575e-01,-3.954813207413196419e-01,-4.928289171639548827e-01,-9.978594920867646378e-03,1.048038712672908369e-03,-4.106422751386066411e-02,1.165496557950973511e-01
-4.622699372059727030e-01,-3.980402888144876083e-01,-4.522069939506834779e-01,-1.085410872095541593e-03,9.237068921333966122e-04,-1.225753943510922948e-02,6.353902071714401245e-02
-4.283814872698275544e-01,-4.208272152370698960e-01,-2.918014036981635972e-01,5.465340445892113118e-03,2.552589771750402026e-02,3.921902503747105861e-02,1.560068726539611816e-01
-4.167606105686710860e-01,-4.309563949942852301e-01,-4.454919923828907224e-01,-6.016716886117262977e-03,4.251470680253969722e-03,-5.900534418483315523e-03,2.977288514375686646e-02
-4.508724288701597138e-01,-4.145207840112689612e-01,-4.422472642242876728e-01,1.681212721218654097e-03,-3.059623496966086802e-03,-5.036136729969631701e-03,3.456801921129226685e-02
-4.027262886262836794e-01,-4.027031216488498044e-01,-6.614517210231002364e-02,-1.086522543007235365e-02,3.612184095751382745e-02,1.153403206302931056e-02,3.434336483478546143e-01
-4.448852082556962739e-01,-4.343506616404989029e-01,-3.051250073202338431e-01,-6.215263469429030754e-03,3.064600614252990275e-04,3.471049083151576953e-02,1.479939371347427368e-01
-4.569167239288849380e-01,-4.166124157874054879e-01,-4.460106805015845999e-01,-8.589218580268849056e-04,1.648691846664617844e-03,-5.707910574964837960e-03,3.757561743259429932e-02
-4.749699843366191887e-01,-4.680986077389487354e-01,-3.570022889045956216e-01,-1.124902557819506188e-03,5.558297984806025811e-04,1.173089198741809197e-02,1.164927333593368530e-01
-4.223526577762743428e-01,-5.032335164763327429e-01,-2.301402387142409134e-01,-3.159992771684794113e-03,9.029496663626562780e-02,4.690964748646028054e-02,3.002077341079711914e-01
-3.356221405445704575e-01,-4.580223710378540369e-01,-4.380865598794457250e-01,6.229600340956209514e-03,1.653262993568313868e-02,4.123620352428004031e-03,1.180106997489929199e-01
-7.788244028660977758e-01,-7.608431854924516680e-01,-3.466180514321773320e-01,-4.651705434279263668e-02,-2.250227324175679486e-02,5.972801048699202808e-02,4.450471103191375732e-01
-4.487557247065863120e-01,-4.145395065969937898e-01,-4.116575669848616670e-01,-3.479508389998565640e-03,-3.452961967526444863e-03,7.327171138182543911e-03,3.886922076344490051e-02
-4.993037454992636515e-01,-5.391852945625853488e-01,-3.284581871341347714e-01,-1.188384475125011872e-02,5.685722229356615642e-02,-1.676270121160833423e-03,2.184551805257797241e-01
-4.761982129906856542e-01,-4.646675119255376241e-01,-4.085131845010044338e-01,-6.611606098513963387e-03,2.269123749939680728e-03,-1.054543543047967158e-02,6.643771380186080933e-02
-4.726377604718986492e-01,-4.617524110609457222e-01,-3.927962995729012974e-01,-2.629733437800819452e-03,-6.067408192922505057e-03,-1.047526729718235156e-02,7.800274342298507690e-02
-4.619152020456305241e-01,-4.541003908792756727e-01,-4.001862431372442130e-01,-3.141963325809751795e-03,5.168405767759619166e-04,-1.137541895173407175e-02,6.170699372887611389e-02
-4.359869068752291743e-01,-4.342646112218425114e-01,-4.380769504028834138e-01,3.628506868604649670e-03,-2.385045444268041326e-03,-3.404659675423585535e-03,1.011300645768642426e-02
-4.736968332215679145e-01,-4.765815824715530225e-01,-3.637073220137261309e-01,-3.100297007862977319e-03,-3.099695419430960417e-03,-1.304620927670829952e-03,1.117410957813262939e-01
-4.299955287067582788e-01,-4.456172879474186721e-01,-4.335408336583650990e-01,1.438079209734427835e-03,-1.811971802432635423e-03,-3.568939746004697825e-03,1.598407328128814697e-02
-3.692674413572009096e-01,-4.636284445176454549e-01,-4.573441012909476577e-01,-1.808384992124863503e-03,4.505970497398197050e-03,-4.249805971526334804e-03,9.206193685531616211e-02
-3.565043031448311139e-01,-3.238528256399405003e-01,-4.428856051322683784e-01,-9.740464706363025083e-02,-1.164795920774497687e-02,-7.463386303973799929e-03,2.009613215923309326e-01
-4.188536794160567789e-01,-4.762234142806558435e-01,-4.877970176872447605e-01,-2.950818083040680426e-02,-1.757019506190560590e-02,-5.202169394522754287e-03,8.779937773942947388e-02
-4.319990122052983494e-01,-4.280824904985332524e-01,-4.701084907855789252e-01,-8.260001523485133168e-03,-3.122587311050962350e-03,2.916601004263524866e-03,4.331722855567932129e-02
-3.990472735754552747e-01,-4.189441967703366188e-01,-4.518829687417593166e-01,3.632871463425564607e-03,1.579920673034243854e-03,3.257636453501884543e-04,4.672933369874954224e-02
-3.452866444020832315e-01,-4.280477089599440954e-01,-4.540422000784670176e-01,-6.986450261177629129e-02,-3.316901885211442219e-02,4.947673949853352744e-03,1.664138734340667725e-01
-4.414193284714130749e-01,-4.418526787723734417e-01,-4.288963670235531600e-01,1.873967557526515877e-03,-5.438870357082505437e-04,-4.943546552985746438e-04,1.321344170719385147e-02
-4.428810595188098498e-01,-4.214051405881338308e-01,-4.414322437151367851e-01,2.056908345416950338e-03,-5.258285803150838933e-03,-1.568474461291304240e-03,2.313484810292720795e-02
-3.841655306565044947e-01,-4.270670937039088844e-01,-4.990873168793946713e-01,-1.045187190379278097e-01,2.276739454981473350e-03,-2.464794296402401941e-02,2.114895731210708618e-01
-4.533903513856655243e-01,-4.418811964432377559e-01,-4.942043939951029641e-01,-3.836983930729298553e-02,8.861524940949487561e-03,-4.169784829833947382e-03,8.350123465061187744e-02
-4.329509439731694109e-01,-4.669081707751149279e-01,-4.158369136603400351e-01,2.895437802104166344e-03,2.096011004117221202e-02,3.609309923426160839e-03,5.838954448699951172e-02
-4.335501027246124184e-01,-4.317032397548934974e-01,-4.423254673554029570e-01,2.595708615737219089e-04,-2.599215728597675454e-03,-1.187319540684072866e-03,1.101471297442913055e-02
-3.263283906290087577e-01,-4.052274631785691139e-01,-4.285806123212842489e-01,-3.911069172754564477e-02,1.871504240730833407e-02,-1.331637786694637657e-02,1.215921491384506226e-01
-4.597137041261399881e-01,-5.273656113694585867e-01,-5.015720217487519283e-01,8.557035404567203685e-03,-5.326824601806556120e-02,-2.627330948037017236e-02,1.195832416415214539e-01
-4.242639412647141728e-01,-4.692712586839451472e-01,-4.422304771859095762e-01,-2.525174981064405751e-03,-8.180012972806320268e-03,-2.271377788131853388e-03,4.213281720876693726e-02
-3.932442327183700570e-01,-4.569388603396763449e-01,-4.555006490176958800e-01,2.925292402383081192e-03,-1.360973037294811207e-02,-2.076683879946709856e-03,6.754074245691299438e-02
-4.586360998549793844e-01,-4.272220878508030117e-01,-4.407554176878364927e-01,1.538579142789500481e-04,5.914841614460334936e-04,-2.562067547186180818e-03,2.767070941627025604e-02
-4.290813655949128336e-01,-4.552959421435102128e-01,-4.370518733785365706e-01,6.228158052950762830e-03,-1.585450275919114693e-02,-2.368858700203882884e-03,3.780330345034599304e-02
-4.080628022726867088e-01,-5.103151533344859603e-01,-4.895448819218894965e-01,-7.156048851095931501e-03,-3.819005869313453483e-02,-2.290287643752594512e-02,1.219255179166793823e-01
-4.570282520590237541e-01,-4.547366732542508783e-01,-3.442752474373339533e-01,1.581185091919024401e-03,4.407818865827506892e-03,6.379479313440751401e-04,1.119246035814285278e-01
-4.440435359387890912e-01,-4.287795201195521710e-01,-4.339331706332968386e-01,-1.024717157829912410e-03,5.187302892851781847e-04,-3.096572342026952351e-04,1.360624562948942184e-02
-4.406723037300528389e-01,-4.792222241873853039e-01,-4.505679143849125601e-01,2.917400399986152279e-04,-1.497572261617302614e-02,2.013674509714079611e-04,4.330979287624359131e-02
-3.905414454781482858e-01,-4.548591902246180707e-01,-4.454146411206501566e-01,4.547181213437238335e-03,-1.444985717846365356e-02,-1.306952577802532496e-02,6.942177563905715942e-02
-3.891490769061370925e-01,-4.566401229046313515e-01,-4.534012852629454304e-01,2.460027063942616873e-03,-1.232702153305196592e-02,-2.746150666036762788e-03,6.959586590528488159e-02
-3.548428218644041343e-01,-4.521443850059254088e-01,-4.237127766387845385e-01,1.924697838873015493e-03,1.804837891135794431e-02,4.705871075618793704e-03,9.254346042871475220e-02
-4.536009955366129831e-01,-4.029453337736915719e-01,-4.356439851807770158e-01,1.471387982054869065e-03,7.355976228623948513e-04,-4.544720110107319452e-03,4.526486247777938843e-02
-2.736051133882080322e-01,-4.191003284518964311e-01,-4.222185224444146012e-01,-3.228022862997506019e-03,1.779787359761689572e-02,-5.395385051536161561e-03,1.506689935922622681e-01
-3.784454294527739848e-01,-4.734706507329202729e-01,-4.815156369899839528e-01,-8.389617187880268889e-03,1.085168827045441967e-03,-5.593507950420772631e-03,1.008342355489730835e-01
-4.534574580434121982e-01,-4.294163086967436871e-01,-4.352689352863178263e-01,1.353606800199964487e-03,-3.288985537724258695e-03,-2.818040013746068474e-03,2.309327386319637299e-02
-3.730627734342253921e-01,-4.777784615275463831e-01,-4.694732231357787167e-01,-1.054042266338790085e-02,5.923964371820499182e-03,-3.866615112712300760e-03,1.031896173954010010e-01
-4.811998739351163734e-01,-4.945616155003521031e-01,-3.661933771546740379e-01,5.649639226561907826e-03,-1.761013524915440095e-02,-8.554000105248113148e-03,1.272294670343399048e-01
-4.390288807367083157e-01,-4.475422346425758091e-01,-3.405444333672660862e-01,2.719090001777931063e-03,8.889681347591979477e-03,5.995623492005107934e-03,1.047721281647682190e-01
-3.918636447208631024e-01,-5.516082494932125213e-01,-5.368391601459817641e-01,-2.678571553633788543e-02,3.197913543884097626e-02,-1.805885478121756205e-02,1.719766557216644287e-01
-3.068635796695854401e-01,-4.179698312245284098e-01,-3.884078557603209969e-01,-2.202870611074595267e-02,5.725342874688525013e-02,-1.542638772118964940e-02,1.481133550405502319e-01
-4.149463467420196339e-01,-4.562983713542698716e-01,-4.629026844948394559e-01,-2.379406270549400126e-02,8.402106726922587560e-03,-9.959079162817156480e-03,6.507316231727600098e-02
-3.627538174530655080e-01,-4.499341987619289163e-01,-4.621070268637512690e-01,1.376165684555241860e-03,-2.056118538560329154e-03,-1.127401456800351635e-02,9.596615284681320190e-02
-3.865419518553002698e-01,-4.633487216383391782e-01,-4.496158228629283382e-01,-1.032432516419996837e-02,1.534774267166957168e-02,4.110440139248087651e-05,7.784300297498703003e-02
-4.509199821617316251e-01,-3.964166669340375981e-01,-3.974480452392409879e-01,7.428992399502096916e-03,5.907217618228759182e-03,2.067327290144517840e-02,6.684212386608123779e-02
-4.525281657306493011e-01,-4.299655229928111555e-01,-4.324889373400700454e-01,4.631505776059348790e-04,-2.108065861058695269e-04,-1.247292905690566703e-03,2.153949066996574402e-02
-4.593090043825487356e-01,-4.276243809114271266e-01,-4.149310441060787835e-01,-4.108472844813863128e-03,-1.291641125227336586e-03,3.647225267178856329e-03,4.077707976102828979e-02
-4.475274745383678865e-01,-4.312719467372900795e-01,-4.303669255195289312e-01,1.098690119367153788e-03,-2.986019756449409101e-03,-1.453040502162582627e-03,1.778980344533920288e-02
-4.463560696920609860e-01,-4.107902056982503103e-01,-3.822875358019355851e-01,1.052510145512674210e-02,3.429863366287463043e-03,9.454978083358918026e-03,6.104809418320655823e-02
-4.298931843581024204e-01,-4.323562415459095698e-01,-4.308046127133721703e-01,-6.735006742295653525e-04,-2.897261701703017565e-04,-7.007286092216328480e-04,2.781752496957778931e-03
-4.371459870001298542e-01,-4.002023570599216318e-01,-3.782404267036089673e-01,-3.156330641702921862e-03,-3.810026816336624053e-04,1.429694063445344568e-02,5.746339634060859680e-02
-4.410069679234648876e-01,-4.412410758017243917e-01,-4.311335070300044148e-01,5.244913800917289440e-03,-5.625948197854161413e-03,-5.976377126766117300e-03,1.960826292634010315e-02
-4.491824963775046808e-01,-3.978515159341430296e-01,-4.001319026216268449e-01,6.853799172196806989e-04,1.530159755622586594e-04,1.330044391234524483e-02,5.527386441826820374e-02
-4.447346364350804881e-01,-4.323464822190625778e-01,-4.343934675152423264e-01,5.613765474143797085e-04,-3.509491178102674535e-03,-1.043864294836082665e-03,1.317050214856863022e-02
-4.546681087217526174e-01,-4.161872190103423907e-01,-4.130427978832038605e-01,-2.289722025207776516e-03,-2.186216027341462368e-03,4.411043426498490946e-03,4.123233258724212646e-02
-4.561256961650986819e-01,-4.174448283651596148e-01,-4.159447225949021165e-01,-2.304049786267882687e-03,-2.600185104156028937e-03,6.683749364297418734e-03,4.155372083187103271e-02
-4.234749153881193218e-01,-4.428268885681641565e-01,-4.420100769946828101e-01,1.297440710155929686e-03,-2.495680255458176434e-03,-5.356964521686319661e-03,2.166069298982620239e-02
-4.571580935295587733e-01,-4.143467151758942757e-01,-4.153946811139693773e-01,-2.559934361776706828e-04,-1.717788817451606446e-03,7.010461560211954032e-03,4.410823434591293335e-02
-6.464932452313144617e-01,-2.652949495361605070e-01,-5.191062738383821484e-01,-3.723825673953753967e-02,-1.913974162729750392e-02,8.725599902073850889e-02,3.756058514118194580e-01
-5.183627440038267586e-01,-2.347463468365846573e-01,-5.894538105654226756e-01,3.201992187230982834e-02,2.043594767315067701e-02,8.142460614559447751e-02,3.603795170783996582e-01
-5.067147706484994574e-01,-3.990693454798918127e-01,-5.139065309573522811e-01,-1.854313741946098798e-02,-1.681776973197171912e-02,-3.230237341786458549e-02,1.319992542266845703e-01
-4.457118992876022423e-01,-3.083472377204720671e-01,-4.477613465605447818e-01,-6.369564105373583425e-03,-2.254280247890345836e-03,-2.086474514013007125e-03,1.389416903257369995e-01
-5.172003421181982086e-01,-3.446756857771827720e-01,-5.219311576400316177e-01,-2.141148752847674488e-02,-1.390860637596321239e-02,8.337236310953274453e-05,1.804412454366683960e-01
-4.472236678068209903e-01,-2.700689124645294092e-01,-4.412480082470346399e-01,2.493225843449962606e-02,-2.583470759573371685e-03,2.161160968766729154e-02,1.834310740232467651e-01
-4.525654167498666114e-01,-2.737032936407643446e-01,-4.477027470626221972e-01,2.462457742686856299e-02,-1.005358816451957724e-03,2.227744183900548167e-02,1.856247633695602417e-01
-5.372986045248339115e-01,-4.142045836552529225e-01,-5.369652976110829146e-01,-3.641724197352565195e-02,-8.267571406116490731e-03,-2.460589797247508120e-02,1.452971994876861572e-01
-4.666470407771343143e-01,-3.444369472995578163e-01,-4.662662212035459386e-01,2.300122701608453991e-03,-5.336761549064383998e-03,1.486597158071939744e-03,1.224616542458534241e-01
-4.388150797728191388e-01,-4.266514735652305323e-01,-4.348300873101041408e-01,-5.458510676708514279e-04,1.204259933562798956e-03,-7.657370574323276152e-04,1.106188260018825531e-02
-4.863611065841935699e-01,-3.983998414679585931e-01,-4.791286365646667544e-01,-1.636897139332069498e-02,-4.994066471613617213e-03,-2.853620132642638481e-03,8.975743502378463745e-02
-4.397383185474071365e-01,-2.934352043735691806e-01,-4.353424705351404689e-01,6.475802633774412412e-03,-1.757149414998166858e-03,-1.220486026149796704e-02,1.461599916219711304e-01
-4.319289677560801954e-01,-3.900854688293258765e-01,-4.333445346209273685e-01,1.762645878772457417e-02,1.264965248373852054e-02,1.551312082487211856e-02,6.281881034374237061e-02
-4.623273051190971428e-01,-3.852650559207455028e-01,-4.545276880433662958e-01,3.473779098238714662e-03,1.174794373148368813e-03,-4.488342270660278244e-03,7.415622472763061523e-02
-4.273287398127948444e-01,-4.427011273972507599e-01,-4.358203499163680328e-01,-4.352754694947023884e-04,-2.799353729984112738e-04,1.222973626791006713e-03,1.353410165756940842e-02
-4.267050987571745502e-01,-4.427159272233878728e-01,-4.325359520620908893e-01,-1.845908521189261724e-03,-1.592471606533576870e-03,9.803921965410285298e-04,1.475473586469888687e-02
-4.312891070957051154e-01,-4.490067956721312536e-01,-4.353260162055945792e-01,-1.094062342575633038e-03,-6.177998877319389962e-04,-4.379934840922645577e-05,1.623053103685379028e-02
-5.971871686259775380e-01,-4.681860281254481837e-01,-6.522560092520723884e-01,-4.713460499253781244e-02,-3.482275841509967912e-02,-1.914901230270459609e-01,3.835180699825286865e-01
-4.299773605670002552e-01,-4.479631149050142258e-01,-4.353802816713233104e-01,-1.230593799985209682e-03,-3.975074422334982406e-03,2.899706436125428898e-03,1.823937892913818359e-02
-4.402948929582953808e-01,-4.538146566086114220e-01,-3.523059806909553116e-01,-2.029634682825976096e-03,8.815542991776998197e-03,3.867836275923429868e-03,9.697835892438888550e-02
-4.527476278780547814e-01,-4.309043691539221066e-01,-4.304775470453343633e-01,-1.609300475348500990e-04,2.296236470665417124e-04,-8.513500746727024416e-04,2.211432904005050659e-02
-4.194666494806379986e-01,-4.429779953593638853e-01,-4.381102478341858397e-01,-2.908887977317961126e-03,-2.592067624934094906e-03,5.636819327669493479e-03,2.455389127135276794e-02
-5.759073937402294785e-01,-1.824397193846815646e-01,-5.016213488405278920e-01,6.537255474019650070e-02,-4.347499602623619303e-04,7.553626042325988117e-03,3.796031177043914795e-01
-6.512768153238198687e-01,-3.074212236831735390e-01,-6.587622486929086696e-01,-6.524390331470078519e-02,-7.945346425225115194e-02,-6.007798429777103100e-02,4.042320549488067627e-01
-4.541263833396881888e-01,-4.300358880090204838e-01,-4.310451897395337628e-01,2.233921920918601508e-04,-2.398027887162948360e-04,-1.013052438654450183e-03,2.367397584021091461e-02
-4.973095090749207747e-01,-3.469784767481145504e-01,-4.835649099727706846e-01,-1.450224858115607696e-02,-1.968137567016962561e-02,-3.570298333090764220e-02,1.622936129570007324e-01
-4.729585664476124718e-01,-4.129191346633775406e-01,-4.609097208097929776e-01,-6.434455821324898232e-03,2.019310288043613989e-03,-1.171294684291001621e-02,5.978729948401451111e-02
-4.901450856974722270e-01,-3.465203706908431824e-01,-4.831318407036694906e-01,-8.349552272457119728e-02,1.344232022574010955e-02,-6.722394715358979977e-02,2.338455468416213989e-01
-5.580645902431831118e-01,-4.137132408274513118e-01,-5.334510250794066710e-01,-4.851052866783467366e-02,-5.983656906910369243e-03,-1.794173425387523765e-02,1.613167077302932739e-01
-5.079508938206257485e-01,-4.158219706934857540e-01,-4.652121093940844165e-01,-1.086602036332400857e-02,-3.882282834289861075e-03,-2.785687696545974604e-02,9.541650116443634033e-02
-4.768054377617549355e-01,-4.793018544723279262e-01,-4.187831730712618938e-01,-6.563936638514412600e-03,-4.460686717656764388e-02,1.115009396541614094e-02,9.994603693485260010e-02
-4.502469119938362074e-01,-4.306973882738059922e-01,-4.304219609230883758e-01,5.694454281748271033e-04,-1.244498845812355182e-03,-1.456877294984129656e-03,1.999076828360557556e-02
-5.008035845758805893e-01,-5.433009972828617418e-01,-4.524050022994381970e-01,-8.801226545197863085e-03,-3.677341386646151150e-02,-1.540231730791189607e-02,1.058593317866325378e-01
-4.323058615106084579e-01,-4.353047577846665406e-01,-2.824941678509410026e-01,-2.419444495377292767e-02,-5.272351617587793526e-02,4.153349874542177494e-02,1.953773796558380127e-01
-5.266918331587181479e-01,-5.467868273965816872e-01,-3.604587591887900566e-01,-1.949615596449281313e-02,-2.060256345443110468e-02,2.509687287281737490e-03,1.838757395744323730e-01
-4.485861926487513807e-01,-4.428508952762941764e-01,-4.302166479660126108e-01,2.829766248021444146e-03,-1.491113903369114396e-03,-1.553738786605229558e-03,1.740443333983421326e-02
-4.809222377233430268e-01,-3.978016298436500287e-01,-4.333812260821251483e-01,1.084046348693857957e-02,-1.747252825121551820e-02,-5.945721326830030046e-02,1.307342350482940674e-01
-4.713206460707136669e-01,-4.766547594502134055e-01,-3.662829285007297431e-01,-5.292099499031862470e-03,-1.096649191304143942e-02,1.816105252733412820e-02,1.142625957727432251e-01
-4.596286350611534788e-01,-4.837826861576378090e-01,-3.662416332171722910e-01,-1.491846321653408219e-02,-2.570969362178629480e-02,1.702275657140413928e-02,1.228014454245567322e-01
-4.495446521102817727e-01,-4.301676858976927198e-01,-4.295332439113537237e-01,5.744882923700842577e-04,-9.849321451580971259e-04,-1.444251200147829645e-03,1.995797827839851379e-02
-4.440552246354846355e-01,-4.366179216847171363e-01,-4.266558237710036949e-01,4.575652974481732652e-03,-1.753833477599184808e-03,-2.327488512702459000e-03,1.780273020267486572e-02
-4.314012306552354459e-01,-4.283030970584671970e-01,-4.412443314095643165e-01,-2.314568212702296235e-03,1.460122807744604172e-03,-3.153767342893787611e-03,1.375814713537693024e-02
-4.364683854472591884e-01,-4.365433291979527453e-01,-4.286999006924966382e-01,1.012208102326774559e-03,-3.325646548235102308e-04,-2.328003584986636102e-04,8.031516335904598236e-03
-4.337938579195436128e-01,-4.267241002118390414e-01,-4.384458815238839735e-01,-7.363036570006071310e-04,1.652000061612719740e-03,-9.156165695275807594e-04,1.080926787108182907e-02
-4.509210504717642287e-01,-3.876524140638958338e-01,-4.520738041747935920e-01,4.072508027211335473e-03,7.790253718597602885e-03,3.104101544711016913e-03,6.586280465126037598e-02
-4.350981254172671120e-01,-4.285716542402196461e-01,-4.401743469248105556e-01,-3.195750657996517538e-04,3.208927059363747081e-04,-9.452644249118758888e-04,1.023662742227315903e-02
-4.269007871658141995e-01,-4.180227074830539791e-01,-4.354453935287771471e-01,1.903279821349554033e-03,-3.117479995886367119e-03,-1.088742128540289272e-03,1.647027209401130676e-02
-4.362065516953197442e-01,-4.209247665140365413e-01,-4.247346220562637220e-01,-4.129705647622378475e-03,4.540367760690303296e-03,-5.736158930124412268e-03,2.003859728574752808e-02
-4.445184942248942006e-01,-4.318216114081002144e-01,-4.330294065813801163e-01,6.348737549848612952e-04,-3.253178634371294876e-03,-1.236850790000200515e-03,1.359714940190315247e-02
-4.338117284116542183e-01,-4.535120259896444628e-01,-4.338285796043765963e-01,1.311781361400525699e-04,-1.631529820108170879e-03,4.099686939776095657e-04,1.990757510066032410e-02
-4.355023049119527423e-01,-4.510361328653931801e-01,-4.284183413629057968e-01,-2.486802387206010073e-03,-1.589296156112008545e-03,1.396484477051341709e-03,2.082076109945774078e-02
-4.100044588835649040e-01,-4.316792123692500538e-01,-3.854489640115651983e-01,7.574599138365753319e-03,9.307641636508334065e-03,5.410040252958912138e-03,4.609585180878639221e-02
-4.343558757250073343e-01,-4.544844476837331948e-01,-3.573013006716964091e-01,7.102312637013739882e-03,1.497850672289192074e-02,5.353090648983520154e-03,9.382924437522888184e-02
-4.266805957958188511e-01,-4.648211954841938720e-01,-4.003292715945653835e-01,3.758315846848756837e-03,1.749382902385072935e-02,6.401205035501800374e-03,6.509651243686676025e-02
-4.239109188996758038e-01,-4.266906995473872533e-01,-4.369642504233676727e-01,-4.562537049343261329e-04,-1.432555040324035522e-04,-1.226187290703843269e-03,1.212550699710845947e-02
-4.006204581424882005e-01,-4.376277322232490219e-01,-4.042929075248576920e-01,2.483392534161111241e-03,3.194834514165679779e-03,4.783424287393470663e-03,3.694433718919754028e-02
-4.053919737999552853e-01,-4.517333173959646730e-01,-4.170196034794401707e-01,7.236930714555886608e-03,1.851361717773347335e-02,5.976216698019511456e-03,5.510361865162849426e-02
-4.205333238490417402e-01,-4.426132594586423274e-01,-4.030237978483252603e-01,5.147624560634666245e-03,3.888024102703673598e-03,2.511696165084720093e-03,3.639349341392517090e-02
-4.130789924339917096e-01,-4.527576148621587082e-01,-4.130138814433459982e-01,5.774253452962202493e-03,6.950072056214073174e-03,3.986762306127646267e-03,4.323887452483177185e-02
-4.354058811925829442e-01,-4.363477996649923751e-01,-4.286886123431953854e-01,-2.964007174770700464e-04,-1.656712522541059702e-04,1.248793299152267514e-04,7.261454127728939056e-03
-4.350159282514971526e-01,-5.016097121181662954e-01,-4.523579622306505010e-01,3.092039916468496130e-03,-4.480615715742149868e-02,-1.270272233226796450e-02,1.005790308117866516e-01
-4.047779557934114147e-01,-4.740831027962916777e-01,-3.752771305232754373e-01,-4.937867632097760889e-02,-1.042735172965127965e-01,1.540029082986012210e-02,2.199164181947708130e-01
-3.743401346330647028e-01,-4.296097120249424139e-01,-4.319361742329137499e-01,-1.639973089243714627e-02,1.465365394531630699e-02,-6.759210556087509245e-03,6.911457329988479614e-02
-4.341266543578667370e-01,-4.278279587532017869e-01,-4.303806419611539980e-01,6.403184494839350618e-04,-2.407465550221965771e-03,-6.508472989969806824e-04,7.071045693010091782e-03
-4.318920103027348301e-01,-3.840868930071416609e-01,-3.823502872335553526e-01,7.007954492919467662e-03,6.873843776298323507e-03,1.804603257407112749e-02,6.031106784939765930e-02
-4.475579799373142764e-01,-4.267129824516175951e-01,-4.265251402794372204e-01,1.046648894407283112e-03,-2.378237870893873569e-03,-3.342077067446682075e-03,2.218620479106903076e-02
-4.490686982639184865e-01,-4.315180864176974551e-01,-4.306320414492424420e-01,3.821455721949508499e-03,-6.103867826209497319e-03,-5.018582360342017240e-03,2.356905490159988403e-02
-4.508603172871910592e-01,-4.390466457929285138e-01,-4.269730661504162472e-01,9.081304206377346531e-04,-9.273012914533410121e-04,-2.390552115308525530e-03,2.121710218489170074e-02
-4.556059219412766925e-01,-4.302048799560283521e-01,-4.314556001259498008e-01,1.952714698042388140e-03,-4.164144057357502151e-05,-3.629715826280785051e-03,2.580652385950088501e-02
-4.571263891305650806e-01,-4.332776898503061802e-01,-4.328042638233730033e-01,2.116830499327103203e-03,-4.981085186395323036e-05,-5.259524111897125910e-03,2.601371333003044128e-02
-4.364083968950481229e-01,-4.261659710367907139e-01,-4.196744298298261122e-01,-3.454577955207497209e-03,-1.258748390631037788e-03,1.579272147292226647e-03,1.617326401174068451e-02
-4.291639516166813606e-01,-4.376877007907552519e-01,-4.368969800048200791e-01,-4.241184788023253369e-04,-3.960595455759796814e-05,-1.727724995509421352e-04,8.195945061743259430e-03
-4.468774367013763626e-01,-4.311346589806583363e-01,-4.276140465771164911e-01,3.449522814784656416e-03,-3.459567145294455484e-03,-3.789624902090131010e-03,2.074466645717620850e-02
-4.497737374116581588e-01,-4.346799053552868886e-01,-3.626912918724790047e-01,-7.062734164180975872e-04,2.648038013164743620e-04,-2.019934505450760379e-02,8.787784725427627563e-02
-4.600682985433815486e-01,-4.349351625252101394e-01,-4.295057266312543032e-01,1.158959690580216480e-02,-1.709041878315866944e-02,-2.916662888731195308e-02,6.803596019744873047e-02
-4.740619500807405906e-01,-4.421746950223438000e-01,-4.501814140552874433e-01,-4.606615847365060681e-05,-2.898624655341161798e-03,-1.655370318337191435e-02,4.090085625648498535e-02
-4.105264215811226802e-01,-4.440266737284311871e-01,-4.421790343647722388e-01,-7.344276542779878611e-03,-3.662735421118474589e-03,7.280198563739744867e-03,3.774718940258026123e-02
-4.524236436023894581e-01,-4.068263597432879020e-01,-4.285140168408253514e-01,1.484779157100424990e-03,7.483200753972569239e-04,-8.654454083164203615e-03,4.235045239329338074e-02
-4.288604333797012558e-01,-4.399201269886297561e-01,-4.377117069807096583e-01,-5.725493934456621142e-04,-2.140883594979858513e-04,1.119625845619059328e-03,1.037550531327724457e-02
-4.504847117865144468e-01,-4.207311907850720956e-01,-4.217879208359857079e-01,-3.781333954029118078e-04,-6.653852327388456924e-05,-1.097257585802457157e-02,3.487953171133995056e-02
-4.475182217887922476e-01,-4.482649145742295671e-01,-3.722987532777490838e-01,-5.591852539503988813e-03,6.462623015771002365e-03,-9.756479395269166115e-04,7.704966515302658081e-02
-4.495113739074438342e-01,-4.119699019039907983e-01,-4.292757385886168953e-01,-8.728052932096386869e-04,1.599851258957795319e-03,-7.004687996878691467e-03,3.487589955329895020e-02
-4.407011949768217529e-01,-4.438367428575772933e-01,-4.212346106159396419e-01,-5.929162809208157053e-03,-2.337876331323757075e-03,1.435487475716343752e-03,2.403875626623630524e-02
-4.576855609102489231e-01,-4.295322463746270580e-01,-4.379691110601127146e-01,3.566080678222646565e-03,-7.032983871281020235e-04,-1.209035295200562576e-02,3.323294594883918762e-02
-4.195772326530888829e-01,-4.178378072651066089e-01,-4.468447552431726311e-01,-1.161612645255326141e-02,-2.488662933505419658e-03,2.936843075543637931e-03,3.525949269533157349e-02
-4.210454234942136997e-01,-4.411292286346580882e-01,-4.537353758451520003e-01,-4.506097334449065371e-03,-1.588133580017070433e-03,2.725240622896621737e-03,3.010341525077819824e-02
-4.305789557602570650e-01,-4.341903179080702224e-01,-4.300798220244055892e-01,-2.168729269361379438e-03,-8.836565185389363150e-04,7.296596619077849993e-04,5.757042672485113144e-03
-4.334373766068483902e-01,-4.392915826251109768e-01,-4.581036618674063643e-01,-4.687265213546158542e-03,-6.670371417052622064e-04,2.174281112450358183e-03,2.407746948301792145e-02
-4.306032011714032159e-01,-4.310707078405053294e-01,-4.326393305725494409e-01,-1.786515806022163639e-04,-4.726301011858408813e-04,-6.320434023922886450e-04,2.318793907761573792e-03
-4.145315519207926069e-01,-4.289202341089634607e-01,-4.514631436052838898e-01,-8.208607906868232995e-03,1.207389971195207924e-03,4.356750398885025541e-04,3.530815988779067993e-02
-4.313439395265152299e-01,-4.329016786160953534e-01,-4.542890013147613537e-01,-4.850744745580758306e-03,-1.640529272973699146e-03,-3.705556520936267146e-04,2.392143569886684418e-02
-4.276610400278531565e-01,-4.261162057483444676e-01,-4.481266115518102722e-01,-2.330661381523622955e-03,4.414493149638207931e-05,1.407582388314365576e-03,2.179650589823722839e-02
-4.361196714397338470e-01,-4.363323111420794875e-01,-4.600503869161000070e-01,-5.519856581398245587e-03,1.199073887391945777e-04,8.292196871794764793e-04,2.571280114352703094e-02
-4.398641531774132307e-01,-3.522199518715465882e-01,-4.365769172324670544e-01,1.276384346763818727e-02,1.000849907697563129e-02,5.487923762812770868e-03,9.101545810699462891e-02
-4.352549239556289806e-01,-4.383576118277389133e-01,-4.579366088501725662e-01,-5.127946165744834070e-03,-1.532904610572688193e-03,2.581053127841681939e-03,2.365657873451709747e-02
-4.368927737022925140e-01,-4.266972051207889582e-01,-4.569999627421627020e-01,-1.435561837701401430e-03,-1.545428913619780690e-04,-1.278275621089169564e-04,2.682454325258731842e-02
-4.429561114626908713e-01,-4.300145427110820262e-01,-4.697057309069589959e-01,-9.100918372529165010e-03,-1.959128091446164961e-03,2.360503095046199984e-03,3.880617395043373108e-02
-4.397863185070252645e-01,-4.184948326930210127e-01,-4.621290782330574332e-01,-4.991775214476514184e-03,1.945383904338094608e-03,5.716749620549648695e-04,3.892716765403747559e-02
-4.845736674568978386e-01,-4.820925560863715820e-01,-3.701754649397922536e-01,5.365976940695681889e-04,-6.395186435770473929e-04,-3.734062140160777747e-03,1.133719086647033691e-01
-4.679535132101579342e-01,-4.488323050937851888e-01,-4.366746741738461446e-01,3.822254657572278069e-03,-3.998076956121294698e-03,-1.176747818095338037e-02,3.539916127920150757e-02
-4.634728035928151746e-01,-4.544395635509362874e-01,-4.067243189819263471e-01,4.525281704086816549e-03,-2.658616441816894198e-03,-5.977310806281201962e-03,5.458196625113487244e-02
-4.359590481708967014e-01,-3.800569629112275361e-01,-4.710791869818675703e-01,3.583809873985814576e-02,-5.049894122152152193e-03,-8.678626337101922814e-03,1.023588031530380249e-01
-3.512339632846875337e-01,-4.483031302206724189e-01,-4.551990496347002590e-01,8.755971013792374774e-03,6.694282112505859847e-03,2.402965953339347097e-03,1.025725230574607849e-01
-4.410856673480314516e-01,-4.419899564668522962e-01,-4.207482993289116679e-01,-5.683726748013395204e-03,-2.362221413968391970e-03,1.474183866087432028e-03,2.351576648652553558e-02
-4.039246522854663679e-01,-4.391574539168800473e-01,-4.053795660419781677e-01,1.183220246719875017e-03,1.414590974600666087e-03,2.172023227512243342e-03,3.487925976514816284e-02
-4.502076125652205718e-01,-4.396477397024730061e-01,-4.200339369743547602e-01,-9.542943314033479688e-03,-1.211312917257296833e-02,1.084670772195486972e-02,4.206746444106101990e-02
-4.098400852633683478e-01,-4.317397749434770393e-01,-4.130190123153854587e-01,1.345527918986620100e-03,1.567400287996449431e-03,1.321652532973121566e-03,2.093146741390228271e-02
-4.180394916545689399e-01,-3.969069693811679844e-01,-4.414723266800071322e-01,7.915912140460199670e-03,-3.973322952362758585e-03,-5.734481376855531196e-04,4.155971109867095947e-02
-4.104269920044541498e-01,-4.086594764742906838e-01,-4.171506370197182734e-01,8.231088632630825666e-04,1.709366782037748285e-03,3.526315605857880276e-03,1.040762662887573242e-02
-3.800816963960564343e-01,-4.053467858020636250e-01,-4.695162071361357325e-01,3.412135848926804715e-02,-1.286528274363884367e-02,-8.521833887560155071e-03,1.028809919953346252e-01
-4.173130246844933278e-01,-3.898086967165111383e-01,-4.483877012755027036e-01,1.010778508492302455e-02,-4.479537373792820930e-03,-2.527557419500619292e-03,5.443048849701881409e-02
-4.076083562435977581e-01,-4.182712136818598769e-01,-4.496294411191097407e-01,5.735065884963396095e-03,-2.158266983103005517e-03,-4.763592836545888637e-03,4.015129059553146362e-02
-4.616719423687067891e-01,-4.487740621674935482e-01,-4.318428443771176184e-01,-1.245817867038627805e-02,2.522651753164700111e-02,-3.316472472580753866e-02,7.966081798076629639e-02
-4.060667772354658034e-01,-4.525174286449089589e-01,-4.120808105119991849e-01,1.170627401590063218e-04,1.312056810916243038e-03,-4.816823248964873590e-04,4.382211342453956604e-02
-4.630402843807238655e-01,-4.348726690578166298e-01,-4.463584720390788019e-01,-3.764290343023796431e-03,5.405171132491000223e-03,-8.048064473816601144e-03,3.043487854301929474e-02
-4.103702149879954741e-01,-4.246129194384016814e-01,-4.107685720862376266e-01,2.378532264953864663e-04,8.085355037054994939e-04,2.054370105457628114e-03,1.456474699079990387e-02
-4.460922981333034221e-01,-4.138431815116438428e-01,-4.227371981276188961e-01,-1.501619570408107944e-03,4.198111405389330669e-05,4.277509133769310384e-03,2.989893034100532532e-02
-4.493935240690604682e-01,-4.277691540018213612e-01,-4.081070274160451539e-01,-4.919843983669767301e-03,2.503461904858640067e-03,-9.173435765015317336e-03,4.028977453708648682e-02
-4.502876877396224664e-01,-4.234436022406675715e-01,-4.290811932982072641e-01,-1.206447416685921340e-04,1.128661953247826364e-03,-3.631408807948319391e-03,2.538657188415527344e-02
-4.521192585938345609e-01,-4.250839996682638233e-01,-4.329653760645883476e-01,-9.654450040518803558e-04,1.932729961711136292e-03,-2.688302152800936453e-03,2.481188811361789703e-02
-4.522655260056067661e-01,-4.377215031791557576e-01,-4.354432165721474068e-01,-5.497827731977855334e-03,3.151391734969428548e-03,-1.001935822985464304e-02,2.591311186552047729e-02
-4.490239617167414155e-01,-4.239274527796602077e-01,-4.163367024459240784e-01,-1.263820207837352064e-03,2.249178328232217128e-03,-9.848310240998619375e-03,3.448030352592468262e-02
-4.250760856977950919e-01,-4.227603614103777052e-01,-3.670685926193018034e-01,1.851627670760627384e-02,2.322453524499589958e-02,2.739276840015230502e-02,9.018696099519729614e-02
-4.031935237005772055e-01,-4.040049417556486056e-01,-4.268651381992343286e-01,1.222730304992586305e-03,1.411434353505292135e-03,3.770130317564717587e-03,2.439056150615215302e-02
-4.479588892277529544e-01,-4.151102814001309538e-01,-4.342662388234025950e-01,-1.663171865202010911e-03,4.141437251760897269e-03,-5.257789413053329947e-03,3.097452409565448761e-02
-4.478989195125580580e-01,-3.700355386561680615e-01,-4.216814219913481709e-01,2.986591667484167142e-03,2.308510897587507521e-03,7.672105443066057177e-03,7.019979506731033325e-02
-4.476957831699393542e-01,-4.279625114294322574e-01,-4.318657831058177465e-01,-3.180328415862206277e-03,3.071708029165777249e-03,-4.092395157308739359e-03,2.089272439479827881e-02
-4.044894802135447498e-01,-4.437322514717174649e-01,-4.180105762496679200e-01,2.325070514818116784e-03,3.425112869213734097e-03,5.116636507869462558e-03,3.636154159903526306e-02
-4.486633423329366988e-01,-3.947557695903401442e-01,-3.971131461139061902e-01,1.110852196285675711e-03,4.298179374399853196e-03,1.542624469586744221e-02,5.964507907629013062e-02
-4.667377934586273147e-01,-4.629836397093933797e-01,-3.550511950582276310e-01,-9.295108965362952180e-04,1.357154412256873256e-02,1.766666969688882732e-02,1.164482161402702332e-01
-4.022904920849422750e-01,-4.439782845602972539e-01,-3.969455361099661905e-01,3.863324056352023320e-03,3.876413020395064104e-03,2.051837309024199391e-03,4.573560506105422974e-02
-4.005650439636533888e-01,-4.598328595708269240e-01,-4.217293683170242891e-01,-4.737324623197282196e-04,3.566632278980782188e-03,-4.942013548181825328e-04,5.240045860409736633e-02
-4.494513549833953348e-01,-4.320279523297522739e-01,-4.367817167720631777e-01,-3.167531303219441648e-03,3.249333768970396989e-03,-2.958409484837791394e-03,1.820377260446548462e-02
-4.409894151676446716e-01,-4.127941336684495810e-01,-4.309917313928675608e-01,-1.925075136562129927e-03,4.693312716906855760e-03,-5.204450268579138318e-03,2.777585759758949280e-02
-4.277608674811023137e-01,-4.386949893435361236e-01,-4.581743457480710879e-01,-2.342437602263445443e-03,-5.508753165907089846e-04,-8.540021021287054221e-04,2.704717032611370087e-02
-4.278575113174251099e-01,-4.322329769512683884e-01,-4.560062978980908843e-01,-3.603315108296015114e-03,-3.307823399858731187e-04,-5.530806061725690188e-04,2.699133940041065216e-02
-4.227785134065096817e-01,-4.199344243031358781e-01,-4.472145871879024681e-01,-9.468290593869423122e-03,4.867783889140007807e-03,-3.396455130409110207e-03,3.239364549517631531e-02
-4.139805361816191742e-01,-4.332764729393543957e-01,-4.487656367131678814e-01,-4.513124779443319218e-03,3.999969641480758190e-03,-2.403441502125813669e-03,3.221116214990615845e-02
-4.169258070979705577e-01,-4.363105434352712586e-01,-4.542909222675938219e-01,-5.226832963735543458e-03,8.306105116504252251e-04,-2.942263173925983508e-03,3.402362018823623657e-02
-4.361523188454727307e-01,-4.083918060777728121e-01,-3.824490701140373927e-01,8.313410144291620563e-03,4.140757601823964913e-03,6.840479513310192966e-03,5.062615498900413513e-02
-4.608739309844152587e-01,-4.247904654998259089e-01,-4.070026748859535415e-01,9.978930230947672883e-03,9.461358374050484604e-03,1.725995156072102077e-02,6.100224703550338745e-02
-4.435605658844773425e-01,-4.182450769609600272e-01,-3.996478519401311380e-01,4.108094422839436710e-03,2.723909644263178016e-03,2.951044681939407610e-03,3.945304825901985168e-02
-4.506435078975467023e-01,-4.169939484755889048e-01,-3.994290712574681823e-01,2.934186100528390385e-03,6.979596377447135416e-04,4.399803850749260843e-03,4.601339623332023621e-02
-4.478141857362933909e-01,-4.079565347547603471e-01,-4.033248251463706358e-01,1.208451603536198375e-03,4.333593457376049636e-04,1.727440847018983172e-03,4.252753034234046936e-02
-4.360853170663335221e-01,-4.230815838083300529e-01,-4.287016779413601042e-01,-1.877346058341457539e-03,-6.155528858349426646e-03,2.478146303821709626e-03,1.643985509872436523e-02
-3.878611208278925360e-01,-4.246544696308882094e-01,-4.241844853247423441e-01,4.214137834909031412e-03,4.159371903007691440e-03,1.056999890419534592e-02,4.215485602617263794e-02
-4.439874406417472774e-01,-4.581270474990813413e-01,-3.453914489222310591e-01,3.651218979084411113e-04,8.851775437072580480e-03,7.064366703776340031e-03,1.081683114171028137e-01
-4.378715712892277678e-01,-4.163833011560795216e-01,-4.001922266052827526e-01,5.879309606383474780e-03,3.135326776918912796e-03,2.640220655667064025e-03,3.501309454441070557e-02
-4.157140730775411575e-01,-4.155024258876898746e-01,-4.144081527155032973e-01,-9.138230591108631180e-05,8.157189448755968169e-04,1.191756222377324527e-05,1.869625295512378216e-03
-4.594536815512911820e-01,-4.481782414684267746e-01,-3.554451365819445430e-01,2.220785542281226294e-03,5.624819344569348400e-03,9.592879057721674999e-03,1.007866635918617249e-01
-4.240929931255153496e-01,-4.110400715041119257e-01,-4.100021085382372643e-01,4.913922670726227418e-03,5.941491811175557414e-03,5.873532051168565797e-03,2.160656452178955078e-02
-4.135037794367119046e-01,-4.164792113560119025e-01,-3.999977045575847101e-01,1.257200144585930712e-02,9.983547064373588659e-03,1.250001661173069829e-02,3.838468715548515320e-02
-4.213589212568023545e-01,-4.264291527104392965e-01,-4.139656457019877944e-01,8.133229019322636005e-03,6.734070169121904835e-03,7.671487701417370637e-03,2.507787756621837616e-02
-4.146067823552379572e-01,-3.977003757903060377e-01,-3.925350924950229969e-01,1.002943335532081350e-02,1.155229359229619814e-02,1.052013680014901587e-02,3.786803409457206726e-02
-4.204279897551870260e-01,-4.321413402400171577e-01,-4.845727034198665240e-01,3.907190637476389700e-02,1.327569909058880573e-02,1.544115458205557595e-02,9.656220674514770508e-02
-4.339864707767205898e-01,-4.287885982600133650e-01,-3.753310139190931816e-01,1.135301178533417409e-02,8.652927448392980225e-03,6.493447198817592879e-03,6.245305016636848450e-02
-4.096855686146596565e-01,-4.035176139691791786e-01,-4.429093367043721585e-01,2.232869642219093616e-03,7.408055129670215950e-04,1.743121434296683505e-03,3.704732283949851990e-02
-4.324788298958707755e-01,-4.490612790958474210e-01,-4.347476740489108482e-01,-2.046972101300433954e-03,-4.689125625151263806e-03,2.335487936680319052e-03,1.836844533681869507e-02
-4.187417611622790137e-01,-4.483823525429623258e-01,-4.328425229888203107e-01,-2.055546867969788600e-03,-5.009434150514265223e-03,4.245519376339930255e-03,2.831031009554862976e-02
-4.284626582027597497e-01,-4.151710817804695752e-01,-4.173243412075493541e-01,5.652399578710534146e-03,4.877698860690020746e-03,6.006777289911920462e-03,2.069181390106678009e-02
-4.399007574605119930e-01,-4.047386114714007221e-01,-4.050535777377591851e-01,1.437486151552505977e-03,1.343214821362328972e-03,5.583388795518061908e-04,3.518448397517204285e-02
-4.290109916374192367e-01,-4.567846606170570256e-01,-4.411249967107376269e-01,6.586143055351858762e-04,-1.775027806400576074e-03,1.632563889164431823e-03,2.450356632471084595e-02
-4.039613281500296083e-01,-4.056549082782968663e-01,-4.416596756509083566e-01,1.698094624612442316e-03,1.912054934978912706e-03,5.874216888266898867e-04,3.715968504548072815e-02
-4.385778612709706481e-01,-4.517123630167761972e-01,-4.378701623074633398e-01,-5.286158863574002241e-03,-8.293892617847804793e-03,3.614161725831116414e-03,2.262065745890140533e-02
-4.230216890713690003e-01,-4.512756987516648999e-01,-4.466031759663530165e-01,-7.587495636453086070e-03,-1.495680958995910734e-02,7.790086919372698517e-03,4.140035063028335571e-02
-4.262438499498716338e-01,-4.445256514065021869e-01,-4.290442457436550172e-01,-1.331057901036691513e-03,-1.276969340729809579e-03,1.362004801752183733e-03,1.751120947301387787e-02
-4.232262933303652663e-01,-4.526186948997396597e-01,-4.364682733237437162e-01,-5.756346253507576768e-03,-9.664839978038563054e-03,2.892258545921620825e-03,3.247736394405364990e-02
-4.370408031485458200e-01,-4.079063588060030665e-01,-4.085471369252419160e-01,1.045953151011317890e-03,2.777387613314554610e-03,9.681559183997701361e-04,2.932223491370677948e-02
-4.214764767203365570e-01,-4.470641936695812779e-01,-4.220851763025502135e-01,-5.016221485831798797e-03,-1.006527880939519712e-02,4.114345832357002922e-03,3.270668163895606995e-02
-3.713342164886794805e-01,-4.332031163379497229e-01,-4.170188705243009775e-01,-2.122880611774993070e-02,2.426320024433912398e-02,-1.681094987591112352e-02,8.398993313312530518e-02
-3.879000241477987831e-01,-4.063285219212807720e-01,-3.675568913610711141e-01,1.616371729810031632e-02,2.163429633482411366e-02,1.555199333250952172e-02,6.357566267251968384e-02
-4.150338277001482390e-01,-4.158487979993598649e-01,-4.001728213679175417e-01,5.339115071887850020e-03,4.584168015639890001e-03,2.839926689448192543e-03,2.015893720090389252e-02
-4.170288742262544535e-01,-4.463911245735162625e-01,-4.098038244735056068e-01,-3.723696948682504813e-03,3.764517454676606905e-03,-6.743786720546910861e-04,3.481326997280120850e-02
-4.356735806165277780e-01,-4.436492434393007334e-01,-3.963947637022252057e-01,-1.049890561169539507e-02,1.013927659291509464e-02,-7.254279479847157430e-03,5.212178826332092285e-02
-4.138352305699681821e-01,-4.141808631547108099e-01,-4.133001674336936881e-01,1.256035081248818835e-03,5.319014604801839199e-04,2.889905531484607748e-04,2.534337341785430908e-03
-4.409984857087166921e-01,-4.498380725021931537e-01,-3.967251809973399435e-01,-7.776570695611012378e-03,6.513264762172177313e-03,-1.819051543236877488e-03,5.242367088794708252e-02
-4.190059588896004050e-01,-4.462057975118207676e-01,-3.998304075146925651e-01,-2.278777315391892783e-03,1.401683762073093961e-02,-2.074992339209384001e-03,4.740269482135772705e-02
-4.056578217346021309e-01,-4.446948512347600468e-01,-4.157312089102997432e-01,-1.791097702716521215e-03,3.813631293787027744e-03,-3.472066768584932024e-03,3.635311499238014221e-02
-4.391150225361249992e-01,-4.662141030319348900e-01,-4.112566173890106480e-01,-4.779065091283857085e-03,1.940341881807551225e-02,-5.146941605148266062e-03,5.952190607786178589e-02
-4.366564668526641824e-01,-4.520924481846289589e-01,-3.728921284419540738e-01,-6.479279071139488512e-03,1.255252337677188919e-02,-3.134866257009814947e-03,7.691910117864608765e-02
-3.922633807330652700e-01,-4.670388029822136744e-01,-4.731070516198113696e-01,-1.496963720502833550e-02,-1.677723210855976491e-02,1.402876455242111752e-03,8.720403909683227539e-02
-3.627642411213738982e-01,-4.584354226773039165e-01,-4.480235937128294599e-01,-4.672716345821985133e-03,5.934894048095726640e-03,-7.793860509786016896e-03,9.283681213855743408e-02
-4.262380471739864451e-01,-4.012448109052100809e-01,-4.044561844879663304e-01,2.476338988864602419e-03,5.411940708621190005e-03,5.150981771532204233e-03,2.721349149942398071e-02
-4.166023685131987064e-01,-4.131850970715365001e-01,-4.151989374533345822e-01,1.035883646671437999e-03,2.103294035900215870e-03,1.255366874475528612e-03,5.483611952513456345e-03
-3.477451099268790702e-01,-4.625213735196692100e-01,-4.587096886442070254e-01,9.390056962530569712e-04,1.386095438224058292e-02,-4.880164723551443898e-04,1.154572069644927979e-01
-2.742639684472815698e-01,-4.259287783270422345e-01,-4.088158086953812553e-01,2.331159400745464599e-02,4.239134142688902318e-02,7.058551542810874956e-03,1.669445186853408813e-01
-3.293301044807471212e-01,-4.714650677882539775e-01,-4.907085454075520436e-01,5.320411661747261739e-02,6.331226175586573968e-02,1.695467046803294034e-02,2.113943547010421753e-01
-3.247512134281937413e-01,-4.578409732745363225e-01,-4.522091653732001615e-01,5.220094231154497229e-03,1.172854194892071142e-02,1.402141275694646343e-03,1.322701275348663330e-01
-4.100552287802782248e-01,-4.185489966073093759e-01,-4.085738716984284591e-01,2.552419161725671699e-03,7.906763243811763559e-04,1.104309500184964777e-03,1.058297418057918549e-02
-3.236069138756829111e-01,-4.493302489248354736e-01,-4.387523696626068892e-01,-5.691089070296649448e-03,3.130150301234609772e-02,-1.860845961918357978e-03,1.327978521585464478e-01
-4.160088664071294184e-01,-4.339075860740361223e-01,-3.888620478430402372e-01,9.229662990165771880e-03,6.403349049799670484e-03,8.924402889562916066e-03,4.648344591259956360e-02
-3.784623030252426412e-01,-4.086143686812975240e-01,-4.399399793903666089e-01,6.898985071844256946e-03,3.329946998548843733e-03,8.429435395088665656e-03,5.678197368979454041e-02
-4.145245572198801853e-01,-4.144273821646397016e-01,-4.528937544889613531e-01,7.766243688226442780e-03,5.685963750020665841e-03,5.485473591295119029e-03,4.294343665242195129e-02
-4.048847122673266963e-01,-4.015102632230321267e-01,-4.366873868353642330e-01,4.523580929043231370e-03,4.768072662014112735e-03,2.952769188549911415e-03,3.585891798138618469e-02
-3.822317276179905132e-01,-4.081661537619089009e-01,-4.353949012733587254e-01,6.656767914113632077e-03,3.244842895608971919e-03,8.006688936972258114e-03,4.976953938603401184e-02
-3.934992833928348532e-01,-4.130754349348219612e-01,-4.451544352327350129e-01,2.947119681004211570e-03,2.066361784928449994e-03,6.411982608477669390e-03,4.693056643009185791e-02
-3.767131451921599816e-01,-4.062220463889144040e-01,-4.370025698462537966e-01,6.887032355889283718e-03,3.323964418640123868e-03,7.582262053762641243e-03,5.544751882553100586e-02
-4.030541861507334067e-01,-3.991996085052396115e-01,-4.612625346961481410e-01,1.604285487989424303e-02,-3.073168582660432743e-03,3.735896382882502881e-04,6.654554605484008789e-02
-4.249184637724461866e-01,-4.049985453919974221e-01,-4.571056666885036646e-01,1.693115211872842085e-02,8.331269663419791846e-03,9.886392257942218723e-03,5.861254036426544189e-02
-4.087208071261040354e-01,-4.095722680019792117e-01,-4.406849398586896727e-01,7.979415964877081130e-03,4.919209214093079978e-03,4.942483457905690047e-03,3.649805486202239990e-02
-4.295017511283030776e-01,-4.305982175874137896e-01,-4.493549537561242757e-01,-8.320070940883816761e-04,-1.004954856966744923e-03,2.390808308281547226e-04,1.946436427533626556e-02
-4.212404748319145686e-01,-2.951272408256542246e-01,-4.535859379745653674e-01,6.007594207281475446e-02,3.241468236232968037e-02,3.625153526029189360e-02,1.973625570535659790e-01
-4.721329615676600477e-01,-3.636028120891417470e-01,-4.491097829890384752e-01,-1.612367402526569552e-03,4.327077223255119606e-03,1.193137045352229281e-02,1.014947965741157532e-01
-4.795507482405356181e-01,-3.505074195825992889e-01,-4.735548471772627055e-01,6.608878942037803988e-03,1.312777089892063409e-03,1.163094276008775317e-02,1.282826513051986694e-01
-4.469209827848703021e-01,-3.595567028932852294e-01,-4.333159299025761135e-01,7.745180645527484711e-03,1.017673632153457373e-02,1.485270278637047456e-02,8.821275085210800171e-02
-4.603254526330453067e-01,-4.671643098587867637e-01,-4.575240948817161368e-01,-2.469417249539436476e-02,-4.231323370464046274e-02,1.476162931326015747e-02,8.904004096984863281e-02
-4.302274050865966815e-01,-4.526328098901545305e-01,-4.389446786943246859e-01,-8.808788175795278196e-04,-1.527566157906915575e-03,4.923771319126882436e-03,2.155777812004089355e-02
-4.321520499966619577e-01,-4.518638416500431743e-01,-4.347763636086923178e-01,-3.317191955349250380e-03,-3.582828705348587838e-03,3.259778039619172160e-03,2.114501222968101501e-02
-4.343068655834547154e-01,-4.451978274561874671e-01,-4.316990314888231040e-01,-3.255503716097983731e-03,-1.075157019373261438e-03,5.219009086351331182e-04,1.378026138991117477e-02
-4.359347633544643497e-01,-4.898386834839353887e-01,-4.187801516189228468e-01,-9.361678321797611141e-03,-2.179532035378256918e-02,-1.151049780002323056e-03,7.626676559448242188e-02
-4.545986590438950703e-01,-4.319794621565177239e-01,-4.184358806484608784e-01,-5.806997216192848719e-03,-1.189543201994685022e-03,2.477412391766088771e-03,3.354434296488761902e-02
-4.104845408828454167e-01,-4.493771461250392063e-01,-4.247260285444117711e-01,-1.200468112868922866e-03,-6.894979310954513739e-03,1.327788644725873702e-03,3.624638915061950684e-02
-5.060478509196530972e-01,-4.910773360945643318e-01,-3.452390444267127156e-01,3.150548877158573617e-03,5.736498171371640000e-04,3.933744920038469844e-02,1.683724075555801392e-01
-4.297155966261942406e-01,-4.526172395529439729e-01,-4.265035611140999272e-01,-3.098180525213966360e-03,-3.404203649097801293e-03,1.283183541484215128e-03,2.601662836968898773e-02
-4.250916515772100723e-01,-3.604636695582058015e-01,-3.931140509850524767e-01,1.980698256131923837e-02,1.771294357759720453e-02,2.716788039556788242e-02,8.640122413635253906e-02
-4.336301050368097654e-01,-4.384668974830294719e-01,-4.510039984169604277e-01,-3.105908437519797408e-03,-2.910493302078732795e-03,3.211725870541803484e-03,1.806962303817272186e-02
-3.943998832580666858e-01,-4.624970114977380309e-01,-4.648063134935476182e-01,-2.673058521046539973e-03,-4.100433553607595212e-03,-9.511589045735834805e-04,6.981689482927322388e-02
-4.512828165265255209e-01,-4.129174650254174850e-01,-3.967934479688060012e-01,-1.101912253315025670e-03,1.046268508858404570e-03,7.763941488834176161e-03,5.038105696439743042e-02
-4.449772696333418875e-01,-4.308202988778748743e-01,-3.907124846708203703e-01,8.174844134710833321e-03,4.317452825188817719e-03,5.577177172067867769e-03,5.221668258309364319e-02
-4.355635148254968780e-01,-4.252335556080806267e-01,-4.071174102633018377e-01,4.715833895966533608e-03,3.287756482704523673e-03,3.090370244141276476e-03,2.738317474722862244e-02
-4.318134715519775790e-01,-4.337599988813786722e-01,-4.536125986989715808e-01,-3.252612323280740930e-03,-1.726260237082709011e-03,1.798633421771702202e-03,2.206676080822944641e-02
-4.279428287900858829e-01,-4.261388386927073002e-01,-4.496307151414970504e-01,-3.684257531546063485e-03,-1.686274028501926706e-03,1.005849582848637042e-03,2.377037145197391510e-02
-4.266406058219949782e-01,-4.275529946716042362e-01,-4.448163555456882690e-01,-3.346204924045772817e-03,-2.449837681457150106e-03,1.372727248758877881e-03,1.928358152508735657e-02
-4.280198178794667463e-01,-4.157315251978598303e-01,-4.413630325998026405e-01,-4.440396227449630411e-03,-5.126933205531996121e-03,3.075487195433317979e-03,2.567863650619983673e-02
-3.997560128765335064e-01,-4.428582424662162453e-01,-4.525163621265891889e-01,-2.266933050899285276e-02,-8.876322206889258187e-03,6.325252180778884008e-03,6.531047075986862183e-02
-4.385387050158643940e-01,-4.116361661432102470e-01,-3.958467590489360144e-01,5.960629233874636078e-03,2.925764496448516380e-03,3.490988636157343807e-03,3.958100080490112305e-02
-4.432472358594217177e-01,-4.213483747742630126e-01,-4.408929686421850236e-01,2.082053828593599058e-03,-5.232636893415416879e-03,-1.596844564785776348e-03,2.315907925367355347e-02
-4.247514704621386250e-01,-4.297092652359419396e-01,-4.456320396150041940e-01,-1.442926650167324683e-03,-4.302834537153153727e-04,3.261564626382461741e-03,1.989400014281272888e-02
-4.029993846521325307e-01,-4.199952011863977153e-01,-4.425950982859477301e-01,-1.067226281789560374e-02,3.845042692398517440e-04,1.257619503258468503e-03,3.912284225225448608e-02
-4.291850557428597557e-01,-4.316974623072261097e-01,-4.556628353324752023e-01,-3.075657386730679468e-03,-1.413896330965408064e-03,5.264978614103908369e-04,2.600134536623954773e-02
-4.498819000243101107e-01,-4.529923196540792674e-01,-3.788770877630148748e-01,4.096964534758513327e-03,-2.932474387625125158e-03,6.800519541460146779e-04,7.314201444387435913e-02
-4.498399282125318810e-01,-3.063468693791133735e-01,-4.351098619782295396e-01,1.274845297012952051e-02,-1.998603510875079925e-03,3.154336779525385853e-02,1.489230543375015259e-01
-4.394089407520202495e-01,-4.166727769618409627e-01,-4.137893739671537618e-01,5.780122029942554897e-03,5.451211750259135277e-03,6.255136759137678616e-03,2.995933033525943756e-02
-4.459879422713992070e-01,-4.357934062345399373e-01,-3.926248549040550206e-01,7.229148338670811358e-03,4.791632531285339169e-03,4.241171968912963060e-03,5.183781683444976807e-02
-4.632372730336798972e-01,-3.179865505095386125e-01,-4.574393557985250158e-01,-6.385701682386796946e-04,-5.189327518769419438e-03,2.125336724050993446e-03,1.427753418684005737e-01
-5.335018691150690273e-01,-3.433446506153391975e-01,-5.164566627407430888e-01,2.831180482788379221e-02,7.826512258095405170e-03,6.066796706669010109e-02,2.164238542318344116e-01
-4.285365655525863460e-01,-3.890687777134037018e-01,-4.473675350720821564e-01,6.051711994829993974e-03,7.934811765817824034e-03,4.183991489112299893e-03,5.483428761363029480e-02
-4.660228825039026690e-01,-3.435689588782952497e-01,-4.759156318192731550e-01,4.989804554232315018e-03,-2.249500900363244228e-03,1.100242092604526234e-03,1.280536651611328125e-01
-4.279437033152522218e-01,-4.055641052208901476e-01,-4.212265054994422941e-01,8.501869427552608341e-03,8.783729736957610057e-03,1.136619898107783799e-02,3.509298339486122131e-02
-4.624743532324963047e-01,-3.523530101746815690e-01,-4.585442748780237943e-01,1.349501075593678538e-02,4.478846239635269830e-03,1.204616276545896793e-02,1.129213273525238037e-01
-4.247123204759359894e-01,-4.233291198944955092e-01,-3.816582567847308649e-01,9.210098320966926544e-03,5.390130901517018944e-03,4.111415868753898022e-03,4.677993804216384888e-02
-4.172308370100360486e-01,-4.185058452420465924e-01,-4.158996708605166570e-01,6.959417447615630846e-07,7.292066236941518098e-04,7.144586612249004178e-04,2.867312170565128326e-03
-4.119596051446904328e-01,-4.146483397880450505e-01,-4.096473864881468585e-01,2.455550985793706134e-03,1.430708793839481499e-03,2.074885406325465732e-03,7.479172199964523315e-03
-4.444163089542593759e-01,-4.053050041534305703e-01,-3.972023251132104638e-01,5.806816675989384495e-03,3.066347724926107073e-03,6.624395648450820753e-03,4.661830887198448181e-02
-4.064098561830448708e-01,-4.291991780910188181e-01,-4.075097677462813373e-01,3.562926427096056552e-03,2.210059524432675133e-03,1.428754026186613820e-03,2.354479208588600159e-02
-4.180774240243693707e-01,-4.017007892028386928e-01,-4.546536157005179324e-01,3.180908481826590431e-03,6.014750306791819510e-03,5.602466166365565161e-04,4.842349514365196228e-02
-4.194576332717623313e-01,-4.209709100774752799e-01,-4.109279228748463075e-01,4.255767606739216738e-03,1.618349495823376760e-03,1.862584231541488701e-03,1.267096213996410370e-02
-4.195073853264275621e-01,-4.313120497304133716e-01,-4.004269711406757137e-01,4.716590660236405150e-03,5.230791639457951260e-03,3.870644431707402806e-03,3.037133626639842987e-02
-4.126728513036511115e-01,-4.054176672782646706e-01,-4.211037090129907678e-01,3.496445357651803941e-03,5.550595254529337025e-03,2.843484342310075540e-03,1.839139498770236969e-02
-4.159447827642976381e-01,-4.186849087648142342e-01,-4.177154827490088262e-01,7.183258121789527989e-04,8.238004963831885340e-04,7.901828318800779770e-07,3.061967901885509491e-03
-4.381940305402623470e-01,-4.362481358093305839e-01,-4.344024650056534376e-01,-3.224623514471050643e-03,-3.662612122035394362e-03,2.218844549591315364e-03,9.848506189882755280e-03
-4.099187161738940266e-01,-4.114440725269680743e-01,-4.258577916099639538e-01,3.843214145963809577e-04,9.651177317092810926e-04,3.020361622708708435e-03,1.620719768106937408e-02
-4.088070799077436757e-01,-4.122035378466789024e-01,-4.193045302063284074e-01,-1.332568412484935651e-03,1.424448186920239086e-03,9.726846569295650264e-04,1.001653447747230530e-02
-4.308845903999026783e-01,-4.360819743208352306e-01,-4.535310515583814706e-01,-3.833382436187754080e-03,1.207972499225528972e-04,3.472148328506793370e-03,2.241580560803413391e-02
-4.370326686481828538e-01,-4.547045822738276510e-01,-4.301565334986148237e-01,-3.339479380763090560e-03,-1.587888509578863454e-03,1.361019931589824367e-03,2.297106571495532990e-02
-4.256122343358041960e-01,-4.317424225276753624e-01,-4.475425363149046487e-01,-3.006296078600283715e-03,-1.606343214690053589e-03,2.345368798739289138e-03,2.086713165044784546e-02
-3.979762499430729572e-01,-4.733650480818764605e-01,-4.651710006042124590e-01,-2.851276562780824357e-03,-4.200396879343442150e-03,8.027008670907178527e-04,7.219505310058593750e-02
-4.092213600401692353e-01,-4.214038701980278301e-01,-4.123415926965148248e-01,1.841523880057961693e-03,2.727413348414797593e-03,4.725642624658827652e-03,1.481965649873018265e-02
-4.288496123259167847e-01,-4.340207653030407342e-01,-4.465411100406910805e-01,-2.114283466227219758e-04,-2.528494966145926879e-04,1.528424827864315527e-03,1.598682627081871033e-02
-4.306220580232972273e-01,-4.289674548645667218e-01,-4.531248487417298132e-01,-2.981005852485889285e-03,-1.505640987839047037e-03,7.669032309670671807e-04,2.411578223109245300e-02
-4.286575003851972876e-01,-4.284552518620337591e-01,-4.486344100181074435e-01,-3.126768164166010468e-03,-2.248187974948154776e-03,1.244934648997643011e-03,2.126736380159854889e-02
-5.204180510146226846e-01,-5.422564764735349208e-01,-5.726579596087373325e-01,4.100843959613156842e-02,-1.530081293683177301e-01,-1.171502477941701592e-01,3.442632257938385010e-01
-4.442222505671098443e-01,-4.442363827475091509e-01,-4.155963972562201625e-01,5.036168064392889179e-03,-1.702104542556938903e-03,-2.480270349474110805e-03,3.038222901523113251e-02
-2.246378334536577870e-01,-2.683881455096818747e-01,-4.243212465546765122e-01,1.540167007601908056e-01,2.827881602616413512e-02,1.930067777134622520e-02,3.282246291637420654e-01
-3.990709427337160164e-01,-4.183530149980533852e-01,-4.213503375825443653e-01,1.314703156341838139e-02,-1.108388688928016799e-02,-9.765523332666807207e-03,4.014678299427032471e-02
-4.008896771128499514e-01,-4.595827817393370873e-01,-4.622558023562350904e-01,-4.281724576992677368e-03,4.224673552601736909e-03,-5.070324001367290147e-03,6.160017102956771851e-02
-4.536753375253169129e-01,-4.379313052168558595e-01,-4.411225510310246012e-01,5.764390521529161315e-03,-7.323755508214325159e-03,-8.633127523340299037e-03,2.630598656833171844e-02
-4.418234168920562310e-01,-4.589248060459574230e-01,-4.475365294956537010e-01,3.786862298467844404e-04,-1.040670756011606579e-02,-7.807351688369238048e-03,2.712172828614711761e-02
-4.390181203846713620e-01,-4.487404901534870483e-01,-4.104055916468460907e-01,-4.517963853957521723e-03,-2.719984581698749876e-03,1.191282074788465456e-03,3.576410561800003052e-02
-4.384129100702753856e-01,-4.498203984636538477e-01,-4.213443657906033035e-01,4.918827382370303571e-03,-6.228948153794584483e-03,-4.570058767508430181e-03,2.945870906114578247e-02
-4.243436887060171858e-01,-4.498890347908314769e-01,-4.285612587563713549e-01,1.137807655981832450e-03,-4.573744439825739444e-03,-1.810805477253075676e-04,2.508690766990184784e-02
-4.143655716544157319e-01,-4.454321268557141500e-01,-4.641999525457822240e-01,-4.356524884345557361e-03,1.506948544785160051e-03,-1.863649334488245470e-03,4.443629086017608643e-02
-3.044473265724340072e-01,-7.367691606795272463e-01,-7.572425775806983506e-01,-6.153964385303376666e-02,-5.859025310685591487e-02,-4.845643333411794873e-02,4.742113053798675537e-01
-4.350697494800569998e-01,-4.496578748168761908e-01,-4.280764972258327972e-01,3.152813842305708658e-03,-1.231133549449929488e-03,-1.646582239709782139e-03,2.015536837279796600e-02
-4.360802083066602219e-01,-4.435802136753665970e-01,-4.259482413906512943e-01,4.410361935197254502e-03,-1.733393222118426473e-03,-1.787055648825702867e-03,1.765913888812065125e-02
-4.383846615640548672e-01,-4.523391618795796210e-01,-4.297871654316793300e-01,2.150725114850632509e-03,-1.241286845214188434e-03,-1.595540714942450403e-03,2.036554180085659027e-02
-4.252200457638708464e-01,-4.489938163833029905e-01,-4.281631125833393336e-01,2.922292253973138906e-03,-2.937826196089041858e-03,-1.722082398155377588e-03,2.375488542020320892e-02
-4.272022770882695220e-01,-4.108350181184856620e-01,-3.842275642528012458e-01,8.752197134670042233e-03,6.348670475638395691e-03,5.246807879647942194e-03,4.294928908348083496e-02
-4.429813549744242573e-01,-4.618742678380455269e-01,-4.132885949944396509e-01,7.404366382066409876e-04,-4.235953271706842556e-03,-1.287334701019231600e-03,4.312808066606521606e-02
-4.337021100528358208e-01,-4.256431302389869220e-01,-4.033422060204088777e-01,1.138626455494259719e-02,8.574585372301497810e-03,1.091435746048116315e-02,4.133863002061843872e-02
-4.547105996034456199e-01,-4.251938637114409114e-01,-4.385564533900792039e-01,-3.122651890212907997e-04,1.585094341302473479e-03,-2.591853322875438057e-03,2.614114992320537567e-02
-4.321152300575455962e-01,-4.429631902817571798e-01,-3.873762603281197259e-01,8.542253313979543405e-03,6.468608642829704221e-03,4.123343158494946134e-03,5.477248504757881165e-02
-4.572935044348072631e-01,-4.459944124562141288e-01,-3.582484643084170584e-01,-9.609369882470784798e-04,2.460980230514232901e-03,1.000807513664718484e-02,9.560279548168182373e-02
-4.284489519924485346e-01,-4.089663993947329490e-01,-4.027277842661119989e-01,5.951237364645737063e-03,2.644743446849808204e-03,3.330298312905548459e-03,2.646776661276817322e-02
-4.237626165441468751e-01,-4.249432046037420196e-01,-4.136883554462091328e-01,2.918375742497591584e-03,1.377216438823241967e-03,1.676671410581274946e-03,1.242789905518293381e-02
-4.337225339731503593e-01,-4.142479490157907618e-01,-3.978724205351627519e-01,5.648305691582384408e-03,3.013173375490732324e-03,2.069201780146602380e-03,3.319814056158065796e-02
-4.028397862672161711e-01,-4.246049657600559080e-01,-3.977002670499368286e-01,5.497187044391870989e-03,4.586444445730604620e-03,3.294792999755891301e-03,2.825474925339221954e-02
-4.254769124511432188e-01,-4.111011018053005173e-01,-4.090060704475026454e-01,6.270539351521374830e-03,6.153148467063882139e-03,7.168651824369656582e-03,2.503761649131774902e-02
-3.691349696208883757e-01,-4.371143115555395919e-01,-4.659885068834025423e-01,1.472259790854973938e-02,4.137117023996135534e-04,4.796999662844614841e-03,9.020848572254180908e-02
-4.193332862502521796e-01,-4.426028778452071322e-01,-3.993371404488634813e-01,5.030940604249812750e-03,3.999896227963218795e-03,1.890263983829170574e-03,3.925900906324386597e-02
-4.319101954157019696e-01,-4.167233942738764463e-01,-4.678368456040198353e-01,1.871732887151496966e-02,1.596192393782199740e-03,1.125114725804986834e-03,5.594131350517272949e-02
-4.121482679403565830e-01,-3.985538784805802148e-01,-4.291105769245693313e-01,2.671041230295655242e-03,5.869044718246230197e-03,2.517350031954220316e-03,2.910105139017105103e-02
-4.044052484900807487e-01,-4.269429301741252680e-01,-4.688568570788473888e-01,2.023615723534470667e-02,1.739568565271308207e-03,2.728655956484506151e-03,6.685273349285125732e-02
-4.161314101289685929e-01,-4.029151455252372727e-01,-4.490426432440170479e-01,2.734729745780457334e-03,2.898463574240291597e-03,7.485364565950914382e-04,4.173850640654563904e-02
-4.069858838888623098e-01,-4.489603309361872019e-01,-4.154475870992132558e-01,-2.677513006595651397e-03,4.770970019469358663e-03,-2.784855912394474352e-03,3.989159315824508667e-02
-3.863523095600099322e-01,-4.147634883256722804e-01,-4.463802249013388845e-01,6.846707727493861646e-03,3.864368493943625012e-04,-1.262376688232949747e-03,5.339422076940536499e-02
-3.754436065526038924e-01,-4.075455009826710606e-01,-4.463062298440385600e-01,1.189133023949279222e-02,3.352804572447110141e-03,3.539440717250597491e-03,6.536617130041122437e-02
-3.919397029979481695e-01,-3.648575488900377417e-01,-4.371732770503544696e-01,3.273283935024585284e-02,-1.982280576856865120e-03,-4.053383233139066892e-03,8.532254397869110107e-02
-4.260577708840603273e-01,-4.011173155302391602e-01,-4.665108972605061521e-01,2.247983375855505325e-02,3.213894910266194144e-03,5.589092047429832996e-03,7.005805522203445435e-02
-4.264919401206224703e-01,-3.985405159761657989e-01,-4.518337499674993651e-01,1.094872019829398052e-02,-8.700572988022226700e-03,1.467960291693755663e-03,5.220169574022293091e-02
-7.931035991556956155e-01,-7.861420357084141219e-01,-4.003521334708302071e-01,-3.260658944345038585e-02,-9.138700278595993098e-02,-4.539634165402859495e-02,4.312711656093597412e-01
-3.865272359571799710e-01,-3.873209024380596666e-01,-4.405342508120435596e-01,1.696190703028035984e-02,2.827862229726373772e-03,2.402325335102259169e-03,6.147313863039016724e-02
-3.964239667907869524e-01,-4.056031571898865429e-01,-4.435477240085600736e-01,5.887877278440093592e-03,2.636058143451911959e-03,5.304351385259050040e-03,4.562460258603096008e-02
-4.034871782806408458e-01,-4.365336858428103262e-01,-4.017524675353290053e-01,4.934710358082468329e-03,4.358457023223395038e-03,3.493486211651102534e-03,3.631890565156936646e-02
-4.328096951167305084e-01,-4.341011341580402472e-01,-3.919088377952174018e-01,1.084586004412550070e-02,1.422977428360265757e-02,1.354345437067421866e-02,5.690344423055648804e-02
-4.110237821765039823e-01,-4.229375710931837506e-01,-3.948621871956954910e-01,7.399583461721106169e-03,4.890685687019574561e-03,3.556310075613932677e-03,2.948968112468719482e-02
-4.554154139130208723e-01,-4.454851911377859519e-01,-4.190706379269275028e-01,3.794676570134331538e-03,-2.184438767228761777e-03,-4.187847672249123306e-03,3.418725728988647461e-02
-4.201439908816235747e-01,-4.030328338365963825e-01,-4.544947196747184393e-01,7.500342571751156956e-03,-2.293673462558640241e-03,-4.560961460800114415e-04,4.738900065422058105e-02
-3.892232528565758298e-01,-4.100342142458442973e-01,-4.428212292844426745e-01,9.479194957355642492e-03,-3.063481017370257202e-04,2.195506275043234291e-04,4.960247129201889038e-02
-4.578120059020209798e-01,-4.307206923751590311e-01,-3.904500161414913850e-01,7.211654011667266613e-03,2.492527988828950169e-03,6.218428931140594987e-03,6.113363057374954224e-02
-3.783220016681678732e-01,-4.102122118186504740e-01,-4.461268386244154893e-01,8.603322027132803002e-03,2.514947076805533303e-03,4.015317597135241445e-03,6.116833910346031189e-02
-5.003708123206324077e-01,-3.433564993364967011e-01,-4.845828977062925369e-01,8.771843536318874382e-03,4.478869720638106386e-03,-2.229057462261500779e-03,1.507638841867446899e-01
-4.122736622092649794e-01,-4.365396686219477629e-01,-4.155565137954144728e-01,4.403706458613146878e-03,5.337447371168096630e-03,5.281406304099366990e-03,2.733637019991874695e-02
-4.107632637716293611e-01,-4.390487896732498951e-01,-4.083119671355190383e-01,4.530080907043432248e-03,5.121872101584802606e-03,4.972463121891612138e-03,3.301299363374710083e-02
-4.127358301614184599e-01,-4.251347786263771633e-01,-4.099075010784537509e-01,2.549455631155092116e-03,7.906026798636433053e-04,9.419785261453454987e-05,1.477168314158916473e-02
-4.296095615089312036e-01,-4.500945596356903389e-01,-4.327934272303067820e-01,-8.927110325184932403e-04,-2.958669997450681329e-04,7.388003906022008261e-04,1.920524798333644867e-02
-4.025633337975997872e-01,-4.279755657270892799e-01,-4.082735355688554280e-01,2.432887531288657496e-03,1.767768567925729305e-03,4.227453823952909313e-03,2.477952651679515839e-02
-4.083837933697554989e-01,-4.283181717681646128e-01,-4.108595086622170989e-01,4.632680819123837467e-03,5.286627683833190067e-03,6.665970276036175049e-03,2.521294727921485901e-02
-4.518058340107360960e-01,-4.806487989049189613e-01,-3.234301599184405407e-01,1.870468630584791112e-02,3.897835397674616342e-02,2.979429296741091179e-02,1.711303442716598511e-01
-4.273467656428568406e-01,-4.573021848721123273e-01,-4.384508231456049065e-01,-2.764855897143563739e-04,-1.569673887454550764e-03,1.109420086280143037e-03,2.644454501569271088e-02
-4.426170502327350653e-01,-4.175709071887749868e-01,-3.491325642344325630e-01,5.928267273716055982e-03,6.303371205868571643e-03,1.887911681813906478e-02,9.120924770832061768e-02
-4.042941922328479598e-01,-4.476567640688763894e-01,-4.078760867969601911e-01,-1.676301812043964781e-04,1.910876965695661829e-03,1.113207047161748854e-03,4.186381399631500244e-02
-4.062366354215141695e-01,-4.489380833628728862e-01,-4.068182440199176186e-01,3.890046048590935072e-04,1.070065828983935352e-03,1.604510236039901130e-03,4.255031049251556396e-02
-4.681131065706583549e-01,-4.641448902585123548e-01,-3.578500050931795462e-01,1.709991330942058378e-03,1.590471810614543791e-02,1.635847356987660609e-02,1.153542473912239075e-01
-4.406437479759244269e-01,-4.632280132685497320e-01,-4.000658066806653812e-01,6.314130449400317570e-03,1.642571101589071839e-02,7.372776562298643567e-03,6.453783065080642700e-02
-4.280569004851219606e-01,-4.388505574794043795e-01,-4.391412614120377422e-01,-8.666884117735543236e-03,6.602066032076429371e-03,-1.015102146462973885e-02,2.801716327667236328e-02
-3.374832704849643483e-01,-3.928795489386129880e-01,-2.179279635274641858e-01,-2.934885545349536287e-02,9.111165120079679769e-02,-6.124281010362773309e-02,2.504501044750213623e-01
-4.387710419863916078e-01,-4.388500292961607374e-01,-3.508938848851442249e-01,1.191692979967341574e-02,1.226929153418481258e-02,1.056886136366097344e-02,9.456262737512588501e-02
-4.442310732018823205e-01,-4.473762039153120207e-01,-3.598627562065193075e-01,5.619395155248232574e-04,-1.031366932365216423e-03,5.689515098701088125e-03,8.657080680131912231e-02
-4.161040725347344704e-01,-4.729046568932137040e-01,-4.697547474661970535e-01,-1.442899003892955667e-02,8.836478200353780482e-03,-6.062319405967132348e-03,6.345394998788833618e-02
-4.088843349715045594e-01,-5.689836299351626048e-01,-3.499773225068381621e-01,-1.408250624875665748e-02,1.269414486513619766e-01,-6.280878480205828729e-02,3.151268959045410156e-01
-4.408564041419002488e-01,-4.554854826234140952e-01,-3.945244225149523998e-01,-8.607142691591646716e-03,5.225108161560466230e-02,-4.061447188953331427e-02,1.280618458986282349e-01
-5.734298517494867964e-01,-7.208138479581136515e-01,-4.447723746338414497e-01,-7.764638237031565304e-02,1.508139849771598928e-01,-5.888052371903170629e-02,3.923761546611785889e-01
-4.261202197632452116e-01,-4.196117493482027783e-01,-4.253532022301481086e-01,-1.169641705790737396e-02,1.145588091452892296e-02,-1.079128897855307669e-02,3.451727330684661865e-02
-4.328309174876663890e-01,-4.365540120052061046e-01,-4.548339542904922261e-01,-1.907196312775227701e-03,6.766063199311577988e-04,-4.057031564899147430e-03,2.185725979506969452e-02
-4.213946240965601997e-01,-4.348580983057214744e-01,-3.818873701431536039e-01,-5.891782305217006105e-03,1.533770285188423149e-02,-8.857911200688396020e-03,5.761298164725303650e-02
-4.286027832357605094e-01,-4.419546284672793424e-01,-3.859311789971727746e-01,9.251038913634527031e-03,6.927443672182381079e-03,3.991633329167880093e-03,5.493082106113433838e-02
-4.282044536931270962e-01,-4.484805061735798182e-01,-3.774442031155482713e-01,4.446309640802763134e-03,7.464541522338925469e-03,2.784792057451497896e-03,6.531976163387298584e-02
-4.421571546897373750e-01,-3.801636884744988842e-01,-4.089390105121156749e-01,8.436283572868556128e-04,-1.596806925971605692e-03,1.259611202817376499e-02,5.807837471365928650e-02
-3.359517532011221386e-01,-4.339596920112038236e-01,-4.362953840278995243e-01,3.941769341187480180e-02,3.821611141338229073e-02,1.200458355340504497e-02,1.389781832695007324e-01
-3.225523008997747132e-01,-4.716112018239549952e-01,-4.612251188934393120e-01,1.773598610178082208e-02,1.838580164224854971e-02,-1.248873755069101815e-03,1.508004516363143921e-01
-4.384606204034459664e-01,-4.118088170870857212e-01,-4.295569746094498598e-01,-2.969049498119631127e-03,-6.176330221833673667e-03,2.544204869180802849e-03,2.669459022581577301e-02
-4.366717063025136736e-01,-4.317056518109547714e-01,-4.169356081345268472e-01,-5.742146118863088698e-03,-1.553274380472327576e-03,2.204684319754610967e-03,2.090218476951122284e-02
-3.897313329863379971e-01,-4.472461850095201807e-01,-4.187363204170654329e-01,-5.766355293081928002e-04,5.964756332370982177e-03,-1.384796856494822535e-03,5.093638598918914795e-02
-4.422896446274366400e-01,-4.268741134346949462e-01,-4.323060525224703965e-01,-1.162605481920113122e-03,1.890664237552474886e-03,-5.774098975185631326e-04,1.411337405443191528e-02
-4.098864910169149334e-01,-4.283731516870913358e-01,-4.410871579177671475e-01,-9.988697801569247983e-03,8.436614979627639690e-03,-5.961317120044547051e-03,3.684977069497108459e-02
-3.403981132808089893e-01,-4.553286054887532575e-01,-4.561446918518570204e-01,2.976797914854082891e-03,7.169052761526273007e-03,2.435600496012257313e-03,1.161982938647270203e-01
-3.188767993061805139e-01,-4.609492338818247936e-01,-4.447133054319800105e-01,2.358005168310229813e-02,2.850399167679733628e-02,3.255796811553410448e-03,1.492608189582824707e-01
-4.039229650680316031e-01,-4.384808162929024755e-01,-4.029932377302073987e-01,2.332626614946035036e-03,1.323623853132663156e-03,1.418972928447226334e-03,3.542398288846015930e-02
-3.350890474156935639e-01,-4.478619557629509584e-01,-4.476513804767870419e-01,7.787394490343625512e-03,1.657866090618613161e-02,5.079168120874397521e-03,1.173793300986289978e-01
-4.991059484190782380e-01,-4.881718382849061233e-01,-5.075461382944416178e-01,-4.269248204000507946e-02,2.693136298289945316e-02,-5.050225950128991309e-02,1.248132660984992981e-01
-4.312007394376782821e-01,-4.307790052944056036e-01,-4.338049903267896523e-01,-9.679439509014163903e-04,8.313110807649503340e-04,-2.189528252405279450e-03,5.227271467447280884e-03
-4.162501331470432331e-01,-4.498665681615168221e-01,-3.998937804023349751e-01,5.752685686127408798e-03,3.241393073331905184e-03,1.106775546945915805e-03,4.562797397375106812e-02
-4.104196308690915562e-01,-4.377991396784478018e-01,-3.948703729541694907e-01,7.208657942644909437e-03,3.938017292434953243e-03,1.879723736239784443e-03,4.037531837821006775e-02
-4.158034960763805632e-01,-4.505100491573014732e-01,-3.978665071090460859e-01,3.813568525589296730e-03,5.462246970327174107e-03,1.027085439566575694e-03,4.780287295579910278e-02
-4.175076941948733245e-01,-4.376544551222979473e-01,-4.347535204179158175e-01,-2.248839799517312471e-03,4.651800208525973604e-03,-5.330915495444375068e-03,2.282999083399772644e-02
-4.385683937445694069e-01,-4.142780160009074120e-01,-4.274767758937527695e-01,-2.441225313668876889e-03,-5.656006211106429094e-03,2.473564814837642817e-03,2.399650774896144867e-02
-4.115106546225080764e-01,-4.505941096105930965e-01,-4.256183817253482715e-01,-8.138775867505717437e-03,1.214337627323675006e-02,-4.637824657141495326e-03,4.336816444993019104e-02
-4.421542148007907014e-01,-4.431172764694618071e-01,-4.419898063907183317e-01,-9.739787259857805163e-03,9.363155439186388387e-03,-9.187976033305870691e-03,2.831900306046009064e-02
-4.360297677521826620e-01,-4.506370606871770157e-01,-4.285619616635959472e-01,7.814222252247607576e-04,-1.423781310155109543e-03,-1.081007855765276011e-04,1.965130865573883057e-02
-3.941574290058913466e-01,-4.369515836535655673e-01,-4.678740559745161454e-01,8.633484138496645005e-03,1.923389156865789630e-03,-1.062022202858500103e-03,6.594644486904144287e-02
-4.230523663229678322e-01,-4.434436612907123321e-01,-4.244042675254449115e-01,-5.106461964544902789e-04,1.178918711540943290e-03,-2.673214520740247076e-03,2.040724270045757294e-02
-4.229661957329728383e-01,-4.374021732979820887e-01,-4.245179748236939110e-01,-2.947146249773018555e-04,-6.975364516576354566e-04,-1.177003539002786448e-03,1.393844559788703918e-02
-4.346768489325968932e-01,-4.427181003563135375e-01,-4.301942773247845464e-01,-3.081429308221096761e-03,3.247026832304336641e-04,-1.259416111066039359e-03,1.242420822381973267e-02
-4.760647961302749698e-01,-4.968942649470911022e-01,-3.931499745798128220e-01,-2.514668249145667056e-02,2.068301708750903273e-02,-3.761485716245384359e-02,1.282999068498611450e-01
-4.507417708096162490e-01,-4.408003871688759845e-01,-3.914754415685117728e-01,-8.488726874212947082e-03,2.009698349739665914e-03,-1.271502077228534901e-02,6.111830472946166992e-02
-3.611546840166627304e-01,-3.690959830813964060e-01,-1.452921792735115403e-01,-2.250726391520187913e-02,4.960329073639000580e-02,-6.421346923983491106e-02,2.639037966728210449e-01
-4.495672608183194918e-01,-3.670429996266151851e-01,-3.672423968438670583e-01,-5.084789929737157377e-02,3.246376490738263343e-02,-7.799547539076542857e-02,1.896363198757171631e-01
-5.109272632346459897e-01,-4.546471225533278426e-01,-4.381892483807880434e-01,-1.286180586637505376e-02,-4.816535540444350123e-03,-6.544305112152441761e-02,1.333372443914413452e-01
-4.414978699251911887e-01,-4.389636206160366094e-01,-4.308320844156351970e-01,4.067072348008549955e-04,-8.773597457122727207e-04,-5.924443391656933821e-04,9.849371388554573059e-03
-4.569278805664164222e-01,-4.649536873694726236e-01,-3.693756531914185737e-01,-4.138205074140669133e-03,-1.390280725572874384e-03,4.652836412417785290e-03,9.249109774827957153e-02
-4.432727010558328851e-01,-4.373408950184730637e-01,-3.880083723461842382e-01,-8.786323461378683919e-03,-1.509685876294252285e-02,2.170334983698415932e-02,7.134398818016052246e-02
-4.439301506408682707e-01,-4.255436098060143557e-01,-4.177380698825171601e-01,-2.142497244499150591e-02,-3.157819877705470013e-02,2.896865627865431031e-02,8.618986606597900391e-02
-4.748194082141450889e-01,-4.725985682721000058e-01,-4.181612175030097744e-01,-3.379528353541048913e-02,-4.664206926690874638e-02,1.526112868589819989e-02,1.172210350632667542e-01
-4.389762244117548229e-01,-4.706471625465102337e-01,-4.499819485550792253e-01,-4.802968658435177382e-03,-1.237970784962997770e-02,4.767686127238589602e-03,3.705107420682907104e-02
-4.629168193229813433e-01,-4.280985230416004539e-01,-4.380110644433072853e-01,2.187605216023100901e-03,4.773475991220978485e-05,-3.533612712369574565e-03,3.189447149634361267e-02
-4.403591828144842735e-01,-4.562834935203255449e-01,-4.112337628870731399e-01,3.787899288353347989e-04,-4.162853413136488774e-03,2.123360823299376508e-03,4.039332270622253418e-02
-4.279507165225687748e-01,-4.373112375012633279e-01,-4.566659425485509738e-01,-9.974687179588548336e-03,2.106151251708062930e-03,-4.857532645350059325e-03,3.203079476952552795e-02
-4.348784766514800504e-01,-4.280119562807443989e-01,-4.487429868211949557e-01,-6.387962438352844975e-04,1.769432131673068535e-03,-5.045832813920269385e-04,1.859987527132034302e-02
-4.242304973003797053e-01,-4.237278468690482414e-01,-4.484154718076276969e-01,-6.096058103807778898e-03,4.223040291716635176e-03,-2.989795836135302875e-03,2.809140272438526154e-02
-4.306174314341722487e-01,-4.241979331938339759e-01,-4.485017301356736263e-01,-2.358586887992567254e-03,2.906763936994952689e-03,-1.123697199613152503e-03,2.284055761992931366e-02
-4.373216696030405304e-01,-4.180137638057271343e-01,-4.497658627824426825e-01,-4.507857016253961381e-03,4.262027027924619044e-03,-1.804903150550761157e-03,2.988569065928459167e-02
-4.584864261706375066e-01,-4.615103992497255891e-01,-3.567899667240167494e-01,1.281001230195720716e-05,-1.125053586880812384e-04,5.315026352041772074e-03,1.036514788866043091e-01
-4.834284051345600353e-01,-4.771596885965658785e-01,-4.252142016600755636e-01,-1.119941802350042908e-03,-1.901535942379346464e-02,-3.654345016469074617e-03,6.474441289901733398e-02
-8.092477774265289803e-01,-6.157951378004266063e-01,-5.742038550752780468e-01,-6.066287179592916301e-02,-4.663376331439423456e-02,-2.524742481025730734e-01,5.059580206871032715e-01
-4.591260248622204831e-01,-4.494247975098816239e-01,-3.598862516176230542e-01,-1.776741694801486611e-03,2.463681061356825987e-03,9.671851125623758330e-03,9.637537598609924316e-02
-4.287650378726882705e-01,-4.333944898903897558e-01,-4.362262976685086779e-01,1.981880924534605223e-03,-1.256263256160061780e-03,-3.695606215630681431e-03,1.000256650149822235e-02
-4.309394393340562623e-01,-4.307672387062411179e-01,-4.362806026148203231e-01,4.953452590373580867e-04,-1.805301153526986087e-03,-9.945026412393786260e-04,6.554233375936746597e-03
-4.237474943906842650e-01,-4.179683989585373238e-01,-4.406445577844856354e-01,3.066970912136296641e-03,-4.784003324695411397e-03,-2.876418348003634100e-03,2.320040389895439148e-02
-4.247631614191646476e-01,-4.227462723727031801e-01,-4.438585148748410147e-01,9.790820088473222230e-04,-2.872391759545345202e-03,-1.546061421556331559e-03,2.102408558130264282e-02
-4.306962402700116876e-01,-4.266249255119611283e-01,-4.396437453489651093e-01,2.103226547655764628e-03,-2.069378134546302620e-04,-8.645140353421406016e-04,1.219437830150127411e-02
-4.428359524728248120e-01,-3.532130593591160106e-01,-4.252678427449532172e-01,1.902037001921586673e-02,8.258871288775152322e-03,3.081632516438347763e-02,1.044283732771873474e-01
-4.648272534195131978e-01,-4.453480682848718897e-01,-4.077723308585857742e-01,-4.246591548695380011e-03,2.103553416172453030e-03,-4.402527380925575634e-03,5.146689713001251221e-02
-4.532333371525789079e-01,-4.514220519495634187e-01,-3.684572270781742986e-01,-5.974243974645666215e-04,-2.121515012858162376e-04,-1.988581991633038819e-03,8.396299928426742554e-02
-4.323215812783991474e-01,-4.587362202067051253e-01,-3.820863686482082189e-01,2.197048506261998525e-03,7.665105086935848459e-03,1.706250417677458459e-03,6.890378147363662720e-02
-4.542141816361540130e-01,-4.256157849716731278e-01,-4.385259156915652379e-01,-6.382624134925862086e-04,2.587344919904708065e-03,-2.080899619892463519e-03,2.548776939511299133e-02
-4.017572630725994576e-01,-4.445321303456963857e-01,-3.948475058713012409e-01,1.924074968200225732e-03,6.096835764106628766e-03,1.946032306355896047e-03,4.803102463483810425e-02
-4.619395635985775184e-01,-3.408869096927765741e-01,-4.547113867054544123e-01,4.993482994233726206e-03,3.194726179569341764e-03,1.229947498936073864e-02,1.199593916535377502e-01
-4.430610720148959736e-01,-3.587277672622092850e-01,-4.310400845293457239e-01,5.422623206109475520e-03,8.527381029057271022e-03,1.220491475592997213e-02,8.364259451627731323e-02
-4.464225334228285047e-01,-4.165625355868612378e-01,-4.370731777488888747e-01,-3.776645727017986526e-03,6.576396806059434455e-03,-3.388904951856235633e-03,3.011392243206501007e-02
-4.284503325411909702e-01,-3.263204570048838793e-01,-4.341561482970945351e-01,3.085138789964449527e-02,1.232419104972497757e-02,2.882150423863855809e-02,1.298033893108367920e-01
-4.296530303286988373e-01,-3.888803855146802935e-01,-4.457131921707435107e-01,5.737892157241083514e-03,8.017337603674451821e-03,4.532875748035811690e-03,5.411466211080551147e-02
-4.241128238966795916e-01,-4.338615872936379958e-01,-4.581645414011169537e-01,-1.329976321294333748e-02,5.434455414726511308e-03,-4.050256704283756656e-03,3.988809883594512939e-02
-4.199409720935821100e-01,-4.416588174797432265e-01,-4.279640555353447784e-01,-8.965300887651017625e-03,-1.296889980550090631e-02,1.124362041036476925e-02,3.855845704674720764e-02
-4.364663542547079222e-01,-4.411062771687934703e-01,-4.373972671493271402e-01,-9.204162927713510287e-03,-6.362234821300756168e-03,2.411840271125411349e-03,2.027587220072746277e-02
-4.078189318337782088e-01,-4.501412568388620250e-01,-4.049163636349236706e-01,2.455494110236106173e-04,3.086521295514957613e-03,4.805668810942530927e-04,4.418032616376876831e-02
-4.179616642810004556e-01,-4.439095858956207397e-01,-4.318775901723744814e-01,-2.054273239966013329e-03,-3.602435264944156210e-03,6.578533458844058358e-03,2.621606923639774323e-02
-4.398116752124929807e-01,-4.246662858052532852e-01,-2.110852295924164068e-01,8.152435085662363898e-03,3.804002526235630149e-02,7.430976848032644355e-02,2.649289667606353760e-01
-4.239426034853704395e-01,-4.510115204467672334e-01,-4.465058979650473603e-01,-2.112331417129552965e-03,-4.080816591768639430e-03,6.141970126275920344e-03,2.841796912252902985e-02
-4.015086271604106360e-01,-4.388404821963084457e-01,-4.328543592203871193e-01,-4.511813529226684112e-03,-1.065532940608564932e-02,8.743290791236282139e-03,4.286071658134460449e-02
-4.207714840896932817e-01,-4.559253319962747741e-01,-4.112046954053562575e-01,-3.611620650857586858e-03,3.835386950140433869e-03,1.961615326941720382e-04,4.179716855287551880e-02
-4.349946585470212956e-01,-4.373717490647593409e-01,-4.487800749095092190e-01,-6.872438760747221105e-03,-3.741810664827610860e-03,5.040327708922089263e-03,2.056279405951499939e-02
-4.343931340787399731e-01,-4.208049106401081096e-01,-4.336054097268522423e-01,-4.373017076426451849e-03,5.818446228882744042e-03,-3.415290577356587965e-03,1.919588446617126465e-02
-4.295216651728451795e-01,-4.450979720851198640e-01,-4.600785893508770874e-01,-6.553402734356986517e-03,-6.939048971697721162e-03,1.827164998853679934e-03,3.136384859681129456e-02
-4.177451238956564339e-01,-4.520189366744893356e-01,-3.989898042519721688e-01,3.264489195234377902e-03,5.509580327603468691e-03,1.044964643447035242e-03,4.791226983070373535e-02
-4.034652239121963579e-01,-4.414659285541421285e-01,-3.966831764293176077e-01,4.400885038295823323e-03,5.011411945522611933e-03,2.872668635692997904e-03,4.365747421979904175e-02
-4.100844420671085899e-01,-4.225731810123121712e-01,-4.122518799862764927e-01,6.609883561784899407e-03,4.758089192311468034e-03,6.195621326873447694e-03,2.115998417139053345e-02
-4.746470340507889518e-01,-4.570179713967173485e-01,-4.525114905508891283e-01,8.166400164047489876e-03,-8.802039128335286192e-03,-1.893401768600234611e-02,4.380098357796669006e-02
-4.370688763881446781e-01,-4.258589928242759726e-01,-4.507376921643865830e-01,-2.114385574443518670e-02,-2.774396017831284172e-02,3.468356027151391768e-02,8.789164572954177856e-02
-4.401483495736922547e-01,-4.364335314508445141e-01,-4.293736516003781589e-01,4.220292562232573811e-04,-8.598785372651271451e-04,6.226550685004399199e-05,9.624555706977844238e-03
-4.292730389907092881e-01,-4.314031157885831469e-01,-4.447941129574984886e-01,-2.741659947222233832e-03,-2.951763014229614492e-03,5.211249110980483747e-03,1.850783824920654297e-02
-4.294719240221622769e-01,-4.356108639979569541e-01,-4.485957447949415755e-01,-9.347175408879866915e-04,-4.597437890906047944e-04,1.819398100517895722e-03,1.729719340801239014e-02
-4.241781778951656534e-01,-4.436147372193342542e-01,-4.433550262903093175e-01,1.283777300320451936e-03,-2.365102068893179359e-03,-5.011509469102969939e-03,2.167649567127227783e-02
-4.296143221450259841e-01,-4.325596688914468135e-01,-4.439399013386494119e-01,-1.793794462682400236e-03,-2.698494138596959930e-03,1.221261647100959150e-03,1.441099029034376144e-02
-4.249314445138563379e-01,-4.481854958682299217e-01,-4.176774771938053243e-01,-4.280584918204745348e-03,4.668047170900939923e-03,-4.968642614549468499e-04,2.971763722598552704e-02
-4.322777538378159146e-01,-4.161069349086621849e-01,-4.529342143252055308e-01,2.368065320301536957e-03,-4.428221245196347147e-03,-9.863523009476066975e-04,3.317809477448463440e-02
-4.387506630085429293e-01,-4.443526173957690895e-01,-6.927047317558351347e-01,1.867637257946701546e-01,-7.379269818493824733e-04,-1.210188408471471640e-02,4.101030230522155762e-01
-4.195014830250330951e-01,-4.411470715673986298e-01,-4.256343540666363001e-01,-5.513052498127823768e-03,5.172630745989465623e-03,-4.377043211362770768e-03,2.454219013452529907e-02
-4.350015746529796168e-01,-4.218563148242383543e-01,-4.388732251133322659e-01,8.421520024800031650e-04,-5.001074585440985938e-03,-9.720641899323498184e-04,1.785149797797203064e-02
-3.961344965599896129e-01,-4.042045739449571240e-01,-4.436164565776849478e-01,5.112910158376314691e-03,1.608987255297809676e-03,1.552059140208927965e-03,4.505439102649688721e-02
-4.229364139813960310e-01,-4.100656490967916068e-01,-4.439763692582704979e-01,3.160068827990207465e-03,-1.468398451898256978e-03,-2.950185012616448493e-04,3.026259131729602814e-02
-4.214437009002058310e-01,-4.689783931744931356e-01,-4.398826530169787641e-01,-6.298322659619539840e-03,1.353181707889864784e-02,-5.046986107513604623e-03,4.967700690031051636e-02
-4.590091905296961317e-01,-4.615407008152363488e-01,-3.381075858382290300e-01,1.281111743366808572e-03,5.599238230537588457e-03,7.389332785234727259e-03,1.232576742768287659e-01
-4.041912431731706223e-01,-4.431578645914305281e-01,-4.230408190793339407e-01,-1.517297333401772686e-03,5.537311247267040666e-03,-4.572287270300242658e-03,3.606673330068588257e-02
-4.471915446875174838e-01,-4.579726554811336392e-01,-4.232469671347408036e-01,2.615091724687720800e-03,-5.298791424521600776e-03,5.587218737941745820e-04,3.245625644922256470e-02
-4.129853684331625252e-01,-4.453388417932277465e-01,-4.280985398023576805e-01,-6.468949638961832109e-03,8.735646258108553316e-03,-4.036582472275175061e-03,3.448985517024993896e-02
-4.679676405529550332e-01,-4.637295755225211424e-01,-3.504145673110031778e-01,-1.449758947781251694e-03,5.742652535905541297e-03,1.310400662566420975e-03,1.159693077206611633e-01
-6.327497027142028330e-01,-5.496274490028110193e-01,-3.075900968120944823e-01,-3.380806199623989650e-02,-2.467537113546499142e-02,-6.896903236912442503e-02,3.242465555667877197e-01
-4.341297146345287072e-01,-4.338943539373507075e-01,-4.324441927046088208e-01,2.471866422058378778e-03,-3.149425980352003971e-03,-3.286790797209486730e-03,9.110196493566036224e-03
-4.634163527850242437e-01,-4.496848846077227124e-01,-4.234014895363592546e-01,3.700275841611899361e-03,-9.874240118006238302e-04,-4.153952583573486228e-03,3.655197471380233765e-02
-4.413947256056519608e-01,-4.536592960501980021e-01,-4.100662776229319628e-01,2.319216375284535465e-03,-4.524753228779245830e-03,-4.308358876928331579e-04,3.992786630988121033e-02
-4.323322222136166126e-01,-4.352202679590926326e-01,-4.380462221848182569e-01,2.315145234716111788e-03,-3.666029976771652179e-03,-3.673090280189290555e-03,1.101644709706306458e-02
-4.302942301482249876e-01,-4.306301387365913946e-01,-4.270591354577861209e-01,2.248240502919218731e-03,-1.058893610154142476e-03,-2.436452971443502438e-03,6.928333081305027008e-03
-4.369013387617026178e-01,-4.339771115219102082e-01,-4.303965980791653601e-01,2.129640622148699231e-03,-1.899578297618880569e-03,-2.434750719954576707e-03,8.605623617768287659e-03
-4.595244124259252883e-01,-4.660469925293739824e-01,-3.860670640528716113e-01,5.558346624146158401e-04,-3.282066151882053959e-03,-2.326160083073878690e-04,7.714313268661499023e-02
-4.280766976553065928e-01,-4.307483353199197396e-01,-4.293791943249804510e-01,1.825413308057189689e-03,-8.570210808307833841e-04,-3.042893223493857175e-03,6.732889451086521149e-03
-4.253194610328171477e-01,-4.338447429161071955e-01,-4.317926743020539249e-01,5.976708765970935398e-04,-2.224620845334031143e-03,-3.819794154759742402e-03,1.091273967176675797e-02
-4.306956297814921730e-01,-4.538238494145618307e-01,-4.417388143818607449e-01,-4.638189091388204323e-03,-1.233908564560959840e-02,5.505624000410380692e-03,3.183850646018981934e-02
-4.569766593616449990e-01,-4.582124433224808446e-01,-4.228417312357969360e-01,-1.832550765768350617e-02,-2.367864947340684451e-02,9.861766727863754620e-03,6.473156064748764038e-02
-4.481778588939779318e-01,-5.196528081611184735e-01,-4.848146265719147641e-01,-1.193741521150342225e-02,-4.049731732251690003e-02,7.370676927617485696e-04,9.582037478685379028e-02
-4.438842256455443058e-01,-4.337259401292441474e-01,-4.308883456962108727e-01,-3.269521450118526278e-03,6.511783722526833006e-04,-1.367486092622811336e-03,1.337980851531028748e-02
-3.680051751736223009e-01,-4.427168465367815609e-01,-3.470775169508119040e-01,-3.755678881345497766e-02,-8.917584800905747899e-02,1.895498107757428996e-02,1.917022317647933960e-01
-4.223113869138883092e-01,-4.480973871541886200e-01,-3.628850997044799631e-01,-1.741285543985222070e-03,9.456855444991552409e-03,1.186219588833527586e-03,7.752665132284164429e-02
-4.994457587209094052e-01,-3.747478771086175109e-01,-4.382635187496636275e-01,-4.908831601813178763e-02,4.982096521605582085e-02,-1.186834794782624936e-01,2.619087696075439453e-01
-3.537905809063321416e-01,-4.435451261617693874e-01,-4.151123039019617988e-01,1.454024175761438765e-03,1.398332340689503392e-02,-1.097104187922863473e-03,8.311968296766281128e-02
-3.520254350574141267e-01,-3.157415950952102701e-01,-2.395092903752681357e-01,-5.921028086053448797e-02,-8.910527241860813352e-02,9.719477700135234488e-02,2.693903744220733643e-01
-5.343439225560345784e-01,-5.024872153192998514e-01,-2.996916258449827120e-01,-2.776892948651624865e-02,-8.466832979355286282e-02,1.271142001983523728e-01,3.476994037628173828e-01
-4.296623274002301929e-01,-4.088409799303623915e-01,-3.029837871879865752e-01,-2.686754626682518604e-02,-5.759980849608194176e-02,5.373761353328067314e-02,1.860789209604263306e-01
-5.312457104024983501e-01,-4.801031014108398942e-01,-4.861897740578087213e-01,-1.062154887780187573e-01,-1.571427174920493330e-01,6.350434029279378167e-02,3.498091101646423340e-01
-4.066733162241624178e-01,-4.477345175935621979e-01,-4.039030014455960438e-01,-2.319183733342107049e-05,1.796160817365563241e-03,3.242058547869971965e-05,4.262784123420715332e-02
-3.755547213065070222e-01,-4.813142665284488864e-01,-4.581732053199568111e-01,-6.034213668701592873e-04,6.739335305939071763e-03,-2.934241745338419432e-04,9.700932353734970093e-02
-4.119514032445527607e-01,-5.449453033273702340e-01,-4.462245939424357433e-01,-5.684314755960521298e-02,-9.776476015112994800e-02,6.519571755617208086e-02,2.557784616947174072e-01
-4.424315145121245352e-01,-4.260275145204734382e-01,-4.195743569010211838e-01,-3.341551581428568816e-03,-1.733067801364762336e-03,2.048359357536178212e-03,2.171837538480758667e-02
-4.369738367536919466e-01,-4.177320675473466527e-01,-3.991748683845560697e-01,-5.331468350122985957e-03,-1.821133900150268296e-03,8.940016702520491715e-03,3.750577941536903381e-02
-4.540055881926731707e-01,-4.155847443345543346e-01,-4.146044492094861367e-01,5.160882503915473901e-03,5.006850517307723757e-03,7.501926800470118915e-03,4.288044571876525879e-02
-4.394939068117637015e-01,-4.089207651045208558e-01,-4.083580913464758821e-01,5.529445279159583490e-03,5.024082948306962497e-03,7.857358839186291688e-03,3.612338751554489136e-02
-4.395252881911472231e-01,-4.066512205642422995e-01,-3.996971258411164962e-01,4.692608305007198340e-03,2.396586136910200653e-03,4.413357922107732749e-03,3.872207179665565491e-02
-4.246049499539685246e-01,-4.631065435425218979e-01,-4.048942768839172701e-01,-3.311182580308378795e-03,3.684652429020551789e-03,-2.953357260633280353e-03,5.224523320794105530e-02
-4.475910222038319564e-01,-4.069381509619673931e-01,-4.083987654024456848e-01,7.745990925937202903e-04,2.270501240113550860e-03,1.212688741136049410e-03,4.021304100751876831e-02
-4.535045713037517134e-01,-4.429822082309204379e-01,-3.976857329868376811e-01,1.993180553075507479e-03,-3.183565279616105623e-03,-1.162845770292298027e-02,5.556170642375946045e-02
-3.881414740782623829e-01,-4.434187659651626090e-01,-4.144447857110110101e-01,-2.845514022011412167e-03,1.208256246932906848e-02,-4.550793672122558156e-03,5.308344587683677673e-02
-4.374365001740352921e-01,-4.277178217758891288e-01,-4.361529356766346011e-01,-5.195781209095233109e-04,3.063816681541554226e-04,-4.303426841219533763e-04,9.234325960278511047e-03
-4.791485143427666182e-01,-3.527955680023820428e-01,-4.839823037233640379e-01,1.425219082907853031e-03,-2.678589177644214326e-03,8.128451834236879959e-04,1.289526969194412231e-01
-4.400656571974679299e-01,-4.321404030900444226e-01,-4.275697244007036213e-01,1.250425648858919389e-03,-2.266133048085436277e-03,-1.345174798369615189e-03,1.206025667488574982e-02
-4.465872844722958424e-01,-2.840026968474054225e-01,-4.472501774122121243e-01,5.421229155427307461e-02,1.187390939830019164e-02,1.902335080694498096e-02,1.920091509819030762e-01
-4.443273847669869658e-01,-3.330591794197461653e-01,-4.501530339194624308e-01,3.552527529303421694e-02,1.515152839953910237e-02,2.275651401811574701e-02,1.381708383560180664e-01
-5.180443662467043575e-01,-3.348885065585974763e-01,-5.309994286570137723e-01,1.341904589421288874e-02,-2.059038799007910370e-02,9.051523024926555949e-04,1.946824640035629272e-01
-4.631273754240797236e-01,-3.593756101605919961e-01,-4.652852048699488985e-01,4.130668870875836389e-03,-2.880505077794438644e-03,-7.592695935047627000e-03,1.060282513499259949e-01
-4.614145617367962360e-01,-3.491178986027343445e-01,-4.760913330926497822e-01,1.008810713130832426e-02,-1.002902536224352208e-03,2.560088664521253314e-04,1.215838193893432617e-01
-3.807657408935141152e-01,-4.258241344711783949e-01,-4.083002373101400351e-01,8.658815569815972446e-03,7.886597122714562869e-03,1.274727899216438441e-02,4.946460202336311340e-02
-5.212646839180762326e-01,-3.760702141878780047e-01,-5.302783493319923602e-01,3.505339662351877189e-02,-2.219580565701409491e-02,-1.753679518454177985e-03,1.662673205137252808e-01
-4.626703802197322246e-01,-3.672561827586688921e-01,-4.676805264388727568e-01,9.560382639322918472e-03,-2.879230903870469774e-03,-7.463261403183377857e-03,1.003652513027191162e-01
-2.946948581134545275e-01,-3.904554877990135120e-01,-6.111038484753770206e-01,1.209538281282438871e-01,-1.410379774550867688e-02,4.375418065109362709e-02,3.594645261764526367e-01
-4.064263856268248154e-01,-4.922079679839714839e-01,-5.447554555593252523e-01,9.613060112377252997e-02,4.085933391525470998e-02,1.776927977063750413e-02,2.197869420051574707e-01
-3.646519667623520089e-01,-5.347145948156635242e-01,-5.599377107195817604e-01,5.913349727986457610e-02,1.076757985973286064e-02,-7.618887959797475623e-04,2.113927304744720459e-01
-3.263267723116852204e-01,-4.739868192055049501e-01,-4.945852209800530863e-01,5.111738886379794955e-02,1.541049488987530566e-02,-2.061216941010531392e-02,1.873375028371810913e-01
-4.475167212890895918e-01,-4.606749683522055050e-01,-4.213441455233345456e-01,2.168065172603868534e-03,-4.947288776606177142e-03,2.102771543377362823e-04,3.591920807957649231e-02
-4.318133649979217226e-01,-4.477117066762316133e-01,-4.260016376865672916e-01,2.755376443048303692e-03,-5.188729684605240117e-03,-2.854871236289878000e-03,2.251502126455307007e-02
-4.347403568690770270e-01,-4.458384383028316522e-01,-4.683220241828682795e-01,2.391801622192336191e-02,-1.664318821085868788e-02,-1.973351070370760185e-02,6.777639687061309814e-02
-4.406052912654072617e-01,-4.535007948303761971e-01,-4.263679791026492305e-01,1.983517576201116947e-03,-2.207213161368929907e-03,-9.371926314610750470e-04,2.411733381450176239e-02
-3.562114197323289488e-01,-4.307702984675781943e-01,-5.013432055762910844e-01,5.812025471347653793e-02,-9.027666426148323389e-03,-2.165799815381183255e-02,1.660933345556259155e-01
-4.463198938296800700e-01,-4.528061394042171561e-01,-4.183600308858841932e-01,3.628223987573602621e-03,-4.579445612485700742e-03,-6.905217677850700436e-04,3.330189734697341919e-02
-3.949172760907010971e-01,-4.419975265404099685e-01,-4.141620465435497112e-01,4.300096645941112877e-03,-2.853874016916514017e-02,-5.372663227876823058e-03,6.531700491905212402e-02
-4.087324932309468473e-01,-4.637924900312754284e-01,-4.594332305375047887e-01,1.437853039288796830e-03,-2.462351098171756264e-02,-5.490681022030340953e-03,6.874723732471466064e-02
-4.321489619087121592e-01,-4.555363535298123656e-01,-4.277316319624178131e-01,2.233012667836802717e-03,-3.767423974920974458e-03,-4.166807218632944559e-04,2.697875164449214935e-02
-4.165071677970302866e-01,-4.453237522816467231e-01,-3.518164420388020242e-01,9.964975474056102581e-03,1.839169956705272863e-02,5.585739935167568539e-03,9.102592617273330688e-02
-4.616006969266158722e-01,-4.082526605885080095e-01,-4.439797928436768903e-01,1.495621938845784031e-03,-1.871443821559835548e-03,-4.553383571116185850e-03,4.791540652513504028e-02
-4.333278373596172739e-01,-4.488911339872811435e-01,-4.242256315599933214e-01,3.588578160813301731e-03,-2.137854997065234859e-03,-2.098095551423269367e-03,2.307114377617835999e-02
-4.344555798418279768e-01,-4.568850622675722506e-01,-4.354655949143472204e-01,1.514761599478858366e-03,-8.380143069660457578e-03,-2.939080794147131033e-03,2.692445367574691772e-02
-4.521524335005269735e-01,-3.971420869458094915e-01,-4.083030680567445447e-01,-1.321899750875421206e-02,1.040100725940177294e-02,-3.708809527724098165e-02,8.667228370904922485e-02
-4.310788161336798208e-01,-4.560005612372529105e-01,-4.355423252445878579e-01,6.158861095587927614e-04,-2.346905484459329248e-03,9.345517694428813081e-04,2.345335483551025391e-02
-4.647060436579065201e-01,-4.341710848004768364e-01,-4.475222175397758351e-01,-2.268661010569205608e-03,-1.845797786828178499e-03,-1.647524232043626191e-02,3.928004950284957886e-02
-4.519645794528208138e-01,-3.994639370808545920e-01,-4.441594315877245847e-01,3.767537420691806100e-03,-9.000333732808871862e-03,-8.633318066941732608e-03,5.400616675615310669e-02
-4.511157705039576804e-01,-4.283527437063546772e-01,-4.250038350907655027e-01,5.784093605304629036e-04,-2.872513569461068728e-04,-3.994292852798038765e-03,2.558742277324199677e-02
-4.483125222334710114e-01,-4.070179184532972116e-01,-4.276008108578417954e-01,1.228134143813040119e-03,-7.009692628652421228e-04,-7.859310146278847969e-03,3.834374248981475830e-02
-3.281553165334772371e-01,-4.383256054722864392e-01,-4.424334902392658142e-01,-2.326535503459855811e-02,3.109163033332233358e-02,-1.592025915284567619e-02,1.337579786777496338e-01
-4.556310872371309717e-01,-4.311088757867274635e-01,-4.339183549816738039e-01,-1.230295098311605320e-06,3.434202162294530051e-05,-1.057454848291489993e-03,2.331728115677833557e-02
-4.529594301708400605e-01,-4.459966636848845534e-01,-4.184274580430915602e-01,4.108627305963638218e-03,-2.255953951318207581e-03,-4.137267112849904796e-03,3.343292698264122009e-02
-4.498288881715789556e-01,-4.077319797243486033e-01,-4.279499807562892055e-01,9.602142740911593071e-04,-7.244005558533181703e-04,-7.809075721926204972e-03,3.894980251789093018e-02
-4.555293619804159921e-01,-4.321198032451706306e-01,-4.315881311727994274e-01,1.959234354727237403e-03,-2.266921348314094448e-03,-3.693402013294643741e-03,2.507174760103225708e-02
-4.394827165926577517e-01,-4.533113861357559449e-01,-3.977056414433009501e-01,-6.818533469376506298e-03,-5.167606498307054409e-03,1.146761625758073617e-02,5.593197420239448547e-02
-4.470028307466114015e-01,-4.197193924670317156e-01,-2.353810079594905180e-01,1.185917583378852565e-02,3.395967742539197920e-02,8.325754682323600886e-02,2.538337409496307373e-01
-4.340779210996821846e-01,-4.355339399474531525e-01,-4.291378182039561340e-01,-2.355611672474886616e-03,3.099485049266443269e-03,-2.889666036201901222e-03,1.020956132560968399e-02
-4.512663997621143563e-01,-4.428574879565024269e-01,-4.148165052896126692e-01,-3.412524244686857694e-03,1.782325442972863870e-03,-4.328800624762872348e-03,3.454681113362312317e-02
-4.551863955247023030e-01,-4.324682537683491867e-01,-4.325938331152423544e-01,3.068025578878474718e-04,2.260051973340463901e-04,-6.383286083150846836e-04,2.269217558205127716e-02
-4.666707995948213838e-01,-3.999456933905230493e-01,-3.256598786899664311e-01,1.667704707011411977e-02,2.627176547405077681e-02,7.828876375505100516e-02,1.903148144483566284e-01
-4.311007138045459541e-01,-4.284792715060793955e-01,-4.346545525623113915e-01,-3.363697211133794603e-03,5.099098899310730744e-03,-5.171418702537468846e-03,1.486588176339864731e-02
-4.250915472429960262e-01,-3.797123153274572505e-01,-4.460971091796714361e-01,6.408437857524572519e-03,8.314645378895981279e-03,7.057064764471360392e-03,6.271949410438537598e-02
-4.191392934901255196e-01,-4.128837575203020416e-01,-4.077144568877795749e-01,3.449670800005813064e-03,1.685756936167947693e-03,8.262149813716460848e-04,1.201932039111852646e-02
-5.132881262621957763e-01,-4.910983703405076284e-01,-3.489627595604116728e-01,4.815756073047423175e-03,2.233100622771071880e-02,5.252419028751804247e-02,1.835506409406661987e-01
-4.563730805880363284e-01,-4.189004973431454948e-01,-4.465839121101581877e-01,-9.786606635010534818e-04,3.893252036527354749e-03,-3.891531431815704878e-03,3.502819687128067017e-02
-4.239260654252067217e-01,-4.463453643132276327e-01,-4.181779928634411503e-01,-1.845187225047529743e-03,7.705044544144955959e-04,-3.478754865244662619e-04,2.601713500916957855e-02
-4.918836739228971133e-01,-4.509209409898876086e-01,-3.240739188322042663e-01,1.240630561001152335e-02,1.243371947263622809e-02,3.977052810771480873e-02,1.692180186510086060e-01
-4.690124118680158438e-01,-4.613256051799177193e-01,-4.387076613811878856e-01,9.896592326602947007e-03,-2.052750222124683985e-02,-1.549837961306619813e-02,5.498254299163818359e-02
-4.806334102088768989e-01,-5.336918226105196172e-01,-4.326586758985454528e-01,-1.520879788670575529e-02,5.481653483337253080e-02,-2.731730286804098795e-02,1.400336325168609619e-01
-4.359646947764420077e-01,-4.532722085304639603e-01,-4.225441479636706243e-01,-5.016337708311350597e-03,3.309067326053926651e-03,-2.107248059611220841e-03,2.887212485074996948e-02
-4.301094572940244998e-01,-4.364463553959277986e-01,-4.149925054578565975e-01,-4.090387688351839086e-03,2.648927911796546391e-03,-1.933062078689681438e-03,2.114066109061241150e-02
-4.006884019247938244e-01,-3.784203159943916317e-01,-4.230009862127160902e-01,8.572018876994868045e-03,1.040873983736649751e-02,4.573928319726750825e-03,4.581270739436149597e-02
-4.378497315695947245e-01,-4.437738279436231337e-01,-3.938381560593539055e-01,-1.184727878183550187e-02,2.126980715136428390e-02,-7.503465989857518829e-03,6.465320289134979248e-02
-4.343085246600195681e-01,-4.388347085610359022e-01,-4.271194551942708584e-01,1.455450553012179729e-03,-3.857142174006993854e-04,-4.736693378637386355e-04,1.059162523597478867e-02
-4.309966968439843393e-01,-5.225228530113315006e-01,-3.342837082707377228e-01,4.729777938296299972e-02,-1.380656140478242477e-01,-3.792379206098704658e-02,3.078870475292205811e-01
-4.530634045139561583e-01,-4.177117860955746886e-01,-7.172832830383926161e-01,2.022381441518536771e-01,-3.725525722062734274e-02,-4.291857010813284606e-02,4.612950980663299561e-01
-4.368355465215834066e-01,-4.504118816178613871e-01,-4.247189194466179374e-01,6.768510348640628671e-03,-1.440699642055896443e-02,-8.125178067678691038e-03,3.812882676720619202e-02
-4.448973521484562710e-01,-4.940354227015815725e-01,-4.164207135066608778e-01,2.826128144841617666e-03,-3.619318181665927975e-02,-3.015289956331695248e-03,9.276762604713439941e-02
-4.369748664877840527e-01,-4.454454341221553149e-01,-4.283763826387270712e-01,6.861153448861963700e-04,-1.189464537359677474e-03,-8.904083491244800617e-04,1.505170110613107681e-02
-2.776243204837656742e-01,-4.067183951062977587e-01,-3.087195570525152477e-01,-8.768624801284777281e-03,-9.898632223551442899e-02,4.888779250176705088e-03,2.081231027841567993e-01
-4.159238434324462053e-01,-4.114339308914385374e-01,-4.411768767601808028e-01,8.132738846850466954e-03,-5.289952036448977192e-03,-5.182402662431175901e-03,3.367797285318374634e-02
-4.261481024658568817e-01,-4.480942263866146691e-01,-4.285484249205121499e-01,4.106196049056151827e-03,-2.195149508262633428e-02,-1.331875091656457843e-02,4.962933063507080078e-02
-3.440616956014094785e-01,-3.310814081734304581e-01,-4.965835345681958723e-01,1.750782629869972185e-01,1.045152764772525923e-02,2.431894291826005444e-02,3.456447720527648926e-01
-2.950983165844155987e-01,-2.811719371279662871e-01,-3.866505595941068796e-01,1.449198482464975346e-01,6.753034580417809074e-02,8.234439541090989023e-02,3.269233405590057373e-01
-3.681032262077140738e-01,-3.954105695211523330e-01,-4.552045817687210283e-01,5.314894892619665551e-02,3.142276782697937809e-02,1.333701660474987533e-02,1.338807791471481323e-01
-6.738434747363170052e-01,-6.776452359965797756e-01,-7.028755676225844073e-01,8.514222563529413867e-02,-1.759938701971247299e-01,-1.438604979774524839e-01,4.213117659091949463e-01
-4.419182896971729502e-01,-4.476486826378198725e-01,-4.306611859400578668e-01,2.846206947683149833e-03,-1.216545988548409013e-03,-1.109268181913358568e-03,1.601566374301910400e-02
-4.372959718289095576e-01,-4.477041165239969978e-01,-4.189850237189342574e-01,5.966786899086752062e-03,-3.762104957640664740e-03,-2.340782577643921430e-03,2.828266285359859467e-02
-4.050405480578737061e-01,-4.079551137608367073e-01,-4.292324299386056641e-01,3.583897206358220826e-03,2.638143213831073853e-03,4.780103719940287030e-03,2.551849372684955597e-02
-4.379469117295149427e-01,-4.454812443315100401e-01,-4.286297766700372658e-01,3.842829593550567933e-03,-1.679397772693512481e-03,-1.130836786743443260e-03,1.644302532076835632e-02
-4.335156855592673386e-01,-4.825964304745445355e-01,-5.801084077228659819e-01,8.840999948904379457e-02,9.844265564414999160e-04,-7.738665504028201594e-03,2.008357942104339600e-01
-3.027195936155636646e-01,-3.773290657306994089e-01,-4.160094753231796116e-01,7.917091443811692664e-02,5.169684190375205268e-02,3.541125935513950163e-02,2.013264447450637817e-01
-3.611374766005493453e-01,-4.392072538743526100e-01,-4.653613795526185815e-01,3.540285344377559068e-02,1.814947563958048404e-02,3.987246924698217149e-03,1.166908964514732361e-01
-4.118779951476327916e-01,-3.903852562137247739e-01,-4.751196434609206154e-01,4.094992934971251192e-02,1.575624632647552523e-02,1.549734323033129593e-02,1.109804064035415649e-01
-3.235046107669689586e-01,-4.478659435437826741e-01,-4.394022282266347723e-01,4.009240662462661142e-02,3.217209930569957244e-02,1.352071272196491737e-02,1.515274941921234131e-01
-4.208463366787585369e-01,-3.580066158977706081e-01,-4.480418056005025518e-01,3.354048886165842541e-02,8.068968165940850618e-03,1.973279586453388634e-02,1.055260524153709412e-01
-4.553147129375206825e-01,-4.339115228412662173e-01,-4.409516136577326106e-01,-2.038211985564847631e-02,-2.733733663453516080e-02,1.542946769010911275e-02,6.752382218837738037e-02
-4.596988980153756121e-01,-4.478880192871417809e-01,-4.218653508245624462e-01,2.896221557426954026e-03,-8.208658868051149594e-04,-4.490396396463027136e-03,3.480952978134155273e-02
-3.654068732690967103e-01,-3.887065879583904149e-01,-4.589008987105658854e-01,4.253425143645903767e-02,8.745028624290050387e-03,1.194859644438963850e-02,1.148514077067375183e-01
-4.370201297421584807e-01,-3.248070095678323721e-01,-3.697469990978176635e-01,-5.701255408461335106e-02,2.948111557909533637e-02,-8.981011634590720105e-02,2.147668600082397461e-01
-4.535190894760360858e-01,-4.347728441287603829e-01,-4.233395233158308568e-01,2.293123178697901846e-04,6.535790742711096056e-04,-1.942140279221433487e-03,2.663136087357997894e-02
-4.294421846350913174e-01,-4.346512905318781761e-01,-4.388414408200753680e-01,-2.946965138527567196e-03,-3.000689526441418630e-03,3.064907761585365913e-03,1.215591561049222946e-02
-4.391289916839137830e-01,-4.261482848108700816e-01,-4.384498400080942271e-01,-7.774691263158178649e-04,3.875630721053562478e-03,-1.119632711352206485e-03,1.451825629919767380e-02
-4.315940937844506275e-01,-4.377838414357132502e-01,-4.406544857273914650e-01,-2.034634275693246886e-03,-1.951312913063483513e-03,2.101837650132939734e-03,1.007061917334794998e-02
-4.286810237269832458e-01,-4.330248480556706525e-01,-4.347425443143159707e-01,-8.882330868049990525e-04,-1.171078687137955786e-03,1.530920656417323342e-03,6.541633047163486481e-03
-4.289895380495843402e-01,-4.336766569124806958e-01,-4.364813684311144582e-01,-1.503999073473231626e-03,-1.506589676933148009e-03,9.274746985997623120e-04,7.691398728638887405e-03
-4.280311569486811574e-01,-4.307091148293010208e-01,-4.370897579557881940e-01,-1.808071801127744292e-03,-1.952145613495056805e-03,1.493602258636611817e-03,9.638655930757522583e-03
-4.321726089339911758e-01,-4.399735183266942906e-01,-4.396476275166614212e-01,-1.974513166186165312e-03,-1.520277895508168921e-03,1.267978221717712232e-03,9.048275649547576904e-03
-4.477676398841224925e-01,-4.591549502813954686e-01,-3.563135315063655217e-01,-4.001889102292668053e-03,9.529960054335855774e-03,4.076776786332146803e-03,9.952540695667266846e-02
-4.486462333272812630e-01,-4.288843729137412630e-01,-4.351327030762855985e-01,-1.050390687592754656e-03,1.905495613648023126e-03,-5.876573861555258512e-04,1.792575977742671967e-02
-4.470337331160876837e-01,-4.273614703778297885e-01,-4.305401058067711562e-01,-3.156469375865932851e-03,2.137040286364946286e-03,-2.981253617441648272e-03,2.012026496231555939e-02
-4.431603327652806068e-01,-4.411943808072054107e-01,-4.196695981019823996e-01,-5.333507658520687984e-03,1.972206129221490932e-03,-2.463188019435944009e-03,2.499414980411529541e-02
-4.298016288839165422e-01,-4.363899065766521645e-01,-4.363345755550945282e-01,-2.239669932281068872e-03,-1.802319135858514035e-03,2.449614209208497879e-03,9.264944121241569519e-03
-4.304599971357456756e-01,-4.337703304196555143e-01,-4.275797475262721470e-01,-2.946813463659815786e-03,1.716874496199682866e-03,-1.976618106924168169e-03,8.683541789650917053e-03
-4.297796973078986671e-01,-4.337233676273971605e-01,-4.389347860262267087e-01,-1.333710326984856613e-03,-1.516595907931050577e-03,6.776439278098465467e-04,8.767991326749324799e-03
-4.606400888434677432e-01,-3.958181413089084111e-01,-4.755886589306064227e-01,-3.235601796631433491e-02,6.593142642482132353e-03,-2.459749236187655161e-02,1.023747697472572327e-01
-4.057833234588225646e-01,-4.215435454156613582e-01,-4.535901245451068320e-01,-2.529350179907111779e-02,3.075918308666455644e-03,-5.505274688703740843e-03,6.179822608828544617e-02
-3.699279220187453587e-01,-4.277790886429216344e-01,-4.252021467483774186e-01,1.047508529678864431e-02,1.048027065859464570e-02,1.196292618316875840e-02,6.551598757505416870e-02
-4.357304027608154273e-01,-4.360982770842053435e-01,-3.939564171702050199e-01,-9.107481012574209639e-03,8.287661689898062276e-03,-8.943353980687403920e-03,4.955213516950607300e-02
-4.165552892645350558e-01,-4.275178081543604680e-01,-4.366399431206177684e-01,-1.172494407941642586e-02,1.113792760818247372e-02,-1.278287172185719155e-02,3.972632065415382385e-02
-4.357733510489908979e-01,-4.342970493492681605e-01,-4.652634297351705417e-01,-1.492721124086993784e-02,3.970446251177281102e-03,-4.181133848218965623e-03,4.103150591254234314e-02
-4.381073071936849583e-01,-4.299652575417766132e-01,-4.273514888240020904e-01,-2.790385666186508129e-02,2.628278568394424794e-02,-2.472394057297938250e-02,7.960186153650283813e-02
-4.082046138883181907e-01,-4.537649234837641266e-01,-4.397828298502318711e-01,-3.006477896582620407e-02,3.256189746031040722e-02,-1.570374548892214395e-02,9.092050790786743164e-02
-4.329460850373523795e-01,-4.303612305924244819e-01,-4.296286350628347184e-01,-1.860773221606814307e-03,-3.075625935864353152e-04,-1.072850374177970485e-03,4.820379894226789474e-03
-4.237930686061999741e-01,-4.297008558120771204e-01,-4.308038143584526636e-01,-2.826569682513281265e-03,2.940068168537800144e-03,-4.532196850691616596e-03,1.241601537913084030e-02
-4.377059303964626613e-01,-4.373496279886846527e-01,-4.293491178095512062e-01,-3.019470735514010818e-04,-6.532754895456948166e-04,1.263467372295332526e-04,8.281752467155456543e-03
-5.066094145285052752e-01,-4.761333337617059125e-01,-5.350175747580506735e-01,-6.178813262609886975e-02,3.825884696054993473e-03,-3.350830754068592765e-02,1.321636736392974854e-01
-5.221333199390301161e-01,-4.245181341860707058e-01,-5.160080990259374722e-01,-6.346050640183932556e-02,3.080180219090309160e-02,-6.844873332154358114e-02,1.948126703500747681e-01
-3.710118826859009067e-01,-3.837561452826881436e-01,-4.617006169184175723e-01,-7.980252769049503425e-02,2.803417894431899787e-02,-4.915618546245467679e-02,1.895868331193923950e-01
-4.459458755657048634e-01,-4.372921366767411055e-01,-4.301104956932187973e-01,5.638282150680696322e-04,-8.755589315958738159e-04,-8.638644794407976044e-04,1.393210329115390778e-02
-4.163963855389534729e-01,-4.201824472920329678e-01,-4.393139473446090459e-01,3.925896581594972602e-03,-1.056115154330913766e-03,-3.432535190812884603e-03,2.318863198161125183e-02
-4.357844905674602143e-01,-4.358443498932377258e-01,-4.280364122272994898e-01,9.787883802946790968e-05,6.704121239328623765e-05,-7.492573739740703790e-04,7.888376712799072266e-03
-4.372064825644584318e-01,-4.390155539869834422e-01,-4.294084181766685826e-01,9.721575919433686399e-04,-2.399483580985075260e-04,-2.389547121746400237e-04,9.020482189953327179e-03
-4.398795940145046046e-01,-4.439920717100788727e-01,-4.100919356337946464e-01,-7.783864014444065449e-03,1.143697264024416335e-02,-9.890535198118142329e-03,4.352430254220962524e-02
-4.301874710281895497e-01,-4.354104055172544063e-01,-4.153821602072545471e-01,-6.053178862646673049e-03,3.908076483963715368e-03,-1.713549845322543059e-03,2.209874056279659271e-02
-4.229014741780185438e-01,-4.288599233565742463e-01,-4.199819371085335984e-01,-5.487410698365527591e-03,5.832560582271156292e-03,-5.055137276048399762e-03,1.817903481423854828e-02
-4.213270153940744112e-01,-4.499170441962684897e-01,-4.014850548775245609e-01,-1.209210882634037011e-02,1.576304711331299666e-02,-8.610916497043850232e-03,5.643489584326744080e-02
-4.369557243831720394e-01,-4.496787813586871074e-01,-4.432544135523482365e-01,-6.221968921701552351e-03,6.709920360917827169e-03,-5.256395653993717332e-03,2.134263142943382263e-02
-4.386004589651509855e-01,-4.341863759577502258e-01,-4.282744157386874084e-01,1.656866403444182687e-03,-8.581527654119641083e-04,-4.722755789335730380e-04,9.573156014084815979e-03
-4.442172813001653564e-01,-4.339968956487669782e-01,-4.299314774326795097e-01,3.556303982047618706e-04,-1.031757884058465873e-03,-4.585183678108436752e-04,1.291269715875387192e-02
-4.306240599528723401e-01,-4.493993746642633291e-01,-4.275101165937624792e-01,-1.328873238203190192e-03,5.815688347587534557e-03,-5.706200138994009692e-03,2.500241808593273163e-02
-4.424549953988223261e-01,-4.652371561570051162e-01,-4.129863572238289260e-01,-7.033725715593288838e-03,1.505749813968737354e-02,-8.191235503671290274e-03,5.557589605450630188e-02
-4.446929236106538230e-01,-4.340672722905673520e-01,-4.296560472230787631e-01,3.425697481532681034e-04,-1.065400444379753465e-03,-4.474946578690446627e-04,1.354967057704925537e-02
-4.236120344200023924e-01,-4.427057527931310688e-01,-4.200869912887661983e-01,-3.551162883670796761e-03,3.774607171547616092e-03,-3.548459600780988661e-03,2.372029051184654236e-02
-4.093359960988552926e-01,-4.165591736069064188e-01,-4.267886022400073642e-01,2.374519741358574638e-03,1.301876427406465676e-03,7.238371402472831492e-03,2.024564705789089203e-02
-4.914581652185652794e-01,-5.192341752179902015e-01,-5.276696495348057736e-01,2.982642604809231796e-02,-4.922990671606842367e-02,-3.565124089428230170e-02,1.217768415808677673e-01
-4.292591819439259271e-01,-4.436886735748429289e-01,-4.171245948648677482e-01,6.510090067876402910e-03,-1.296088462200324296e-02,-8.312066981489169351e-03,3.699896112084388733e-02
-4.539436139816793170e-01,-4.381786761901599880e-01,-4.294305489889678751e-01,2.868873794719463497e-03,-5.843919975279566895e-04,-1.431924509458627195e-03,2.224508300423622131e-02
-4.503796377683879082e-01,-4.278472623081523429e-01,-4.336531517811370029e-01,9.769578336963141100e-04,-2.518288715675385744e-03,-2.822475198002130821e-03,2.136313542723655701e-02
-3.260022356172542768e-01,-2.992063892385407042e-01,-3.723346369110015486e-01,8.355163063707646276e-02,-6.377603614535336252e-02,-8.309348656588427806e-02,2.407583445310592651e-01
-4.596233075829920800e-01,-4.279538983457448764e-01,-4.413319933057566757e-01,4.362148887302018797e-04,8.194678423520718223e-04,-2.796652755320282180e-03,2.800531685352325439e-02
-3.728034471925556481e-01,-4.119660129995608155e-01,-4.707649319075638550e-01,5.692210575076015605e-02,-4.658818077830268606e-02,-1.588706773900391139e-02,1.558290272951126099e-01
-4.096469102026147335e-01,-4.061759403424413106e-01,-3.320326699508597823e-01,2.816392989777427580e-02,-6.774473868289797307e-02,-9.141713766200812441e-02,2.167615443468093872e-01
-4.518704911472617436e-01,-4.288725469245996402e-01,-4.251347958713219688e-01,-7.151080945390856508e-04,3.908294208825701505e-04,-3.978449494792427737e-03,2.604445070028305054e-02
-2.591335303273853974e-01,-3.673676278244009108e-01,-3.478982501047944154e-01,7.057278256163186658e-02,-1.086538395354723768e-01,-5.831798531684734971e-02,2.656085789203643799e-01
-4.568210800052367460e-01,-4.364772741993893646e-01,-4.251172723092642713e-01,1.720436421737813176e-03,-3.269426351491442587e-04,-3.086033984902166512e-03,2.849205024540424347e-02
-4.561027791252196262e-01,-4.332502520084661746e-01,-4.331069221015407811e-01,-7.864168425005098545e-04,-6.996484454001231220e-04,-6.074364403315337356e-03,2.528935670852661133e-02
-4.553952421123699801e-01,-4.319450845380039539e-01,-4.317157970413269541e-01,-7.641881725556340160e-04,6.776538193922174462e-05,-8.295606120281391258e-04,2.364676631987094879e-02
-4.223681980835588545e-01,-4.156525967159693247e-01,-3.178749189459869062e-01,1.502097181055529751e-02,4.129875668699020674e-02,4.883084900181857563e-02,1.523457169532775879e-01
-4.097178801754393085e-01,-4.189736505376228104e-01,-4.068610178714626713e-01,1.054618232572532982e-02,1.041290753400116696e-02,1.382774597814580113e-02,3.678103908896446228e-02
-4.076887377114017941e-01,-4.190551568819917971e-01,-4.055154005633794800e-01,5.138694373654030534e-03,5.319023830593074334e-03,3.817752843159886739e-03,1.914268173277378082e-02
-4.641756662125487987e-01,-4.405688860244429406e-01,-4.288029858627320223e-01,-2.450396277745037991e-03,1.854085138980952289e-03,-1.891716091645546938e-03,3.182033076882362366e-02
-4.527378664420373400e-01,-4.354077532522228622e-01,-4.268747636346199581e-01,-2.920481587941046488e-03,1.220791970922593343e-03,-3.459925458667622959e-03,2.422796562314033508e-02
-4.087321417968874937e-01,-4.190625131208483012e-01,-4.269074655071835589e-01,1.151046902681922019e-03,4.750814881343681968e-03,6.428716391535352001e-03,2.109435386955738068e-02
-5.075195186578539408e-01,-5.105122473124334981e-01,-3.980333447879918496e-01,-1.927619506379648837e-02,1.750938703778157773e-02,-4.864572788464728570e-02,1.464838236570358276e-01
-4.448753848603737571e-01,-4.345630517744910604e-01,-4.315002994506528244e-01,-3.569550180814772770e-03,7.455235390249416493e-04,-1.312500275512638393e-03,1.386972423642873764e-02
-3.795486156091908425e-01,-4.196711855511632283e-01,-4.011632486321184965e-01,4.790783542603881812e-03,7.130455235196514127e-03,1.115410118464149093e-02,4.247829318046569824e-02
-4.501244780688991587e-01,-4.347505928298774913e-01,-4.257786806090934628e-01,-2.380969876425511299e-03,8.397641440780005120e-04,-3.343193403705855150e-03,2.252638898789882660e-02
-4.423595099471975267e-01,-4.206936469405979095e-01,-4.363805071165680616e-01,-2.345611446245792972e-03,5.151659871968819471e-03,-3.419000885938904867e-03,2.251246385276317596e-02
-4.402659770751848334e-01,-4.315723198238085589e-01,-4.397408862363582083e-01,-2.233704764240048400e-03,7.280152557362842966e-04,-2.488440425008439649e-03,1.031628716737031937e-02
-4.001106210407257557e-01,-4.315560974647986159e-01,-4.123770251244515683e-01,1.696440115870172629e-03,2.186072271011943197e-03,7.372867668367893978e-03,3.065302222967147827e-02
-3.790065256687611961e-01,-4.076588524027380256e-01,-4.368632825532789976e-01,-2.834102933720535414e-02,-6.351430013449699610e-03,4.751760872462741647e-03,7.147748768329620361e-02
-4.430787609736370203e-01,-4.286422911121597901e-01,-4.335598127062560425e-01,-8.431759192095072747e-04,5.359584979276222098e-04,-3.164062344692024960e-04,1.284122094511985779e-02
-4.760213713460559881e-01,-4.690693991465643142e-01,-5.283296695620089967e-01,-4.427057587846299630e-02,-4.548484113755283179e-03,-1.118362047739568203e-02,9.728860110044479370e-02
-4.439533581953634678e-01,-4.350023324737244956e-01,-4.337660053513648917e-01,-3.600656133360673888e-03,9.643893812410906296e-04,-1.281297363846521957e-03,1.180361118167638779e-02
-3.852935333762120829e-01,-4.331577309873964610e-01,-4.243298837759534314e-01,8.078915139958427541e-03,5.906217450675293155e-03,1.161144097586582283e-02,5.149085447192192078e-02
-4.401828807144145816e-01,-4.289805639976500551e-01,-4.375080548712359518e-01,-7.274403896275041847e-04,2.584279612428008353e-04,-3.888929371333102458e-04,1.024323794990777969e-02
-3.874977812432287561e-01,-4.499246483302025146e-01,-4.562504116016378730e-01,-3.148479517513205501e-03,-8.120335628242092039e-04,2.503356452653282029e-03,6.620078533887863159e-02
-5.234816057604096962e-01,-4.021648359099481151e-01,-5.156136041437487938e-01,-3.969206530673395628e-02,-2.877395992532252519e-02,3.413523111544305988e-02,1.566237211227416992e-01
-4.362950075686308771e-01,-4.302604258558056505e-01,-4.361222577716267756e-01,-7.804720170275922719e-04,2.557707500990805041e-04,-1.172164557029089366e-03,6.445860955864191055e-03
-4.358870361134021265e-01,-4.134192094431652920e-01,-4.548741512239911078e-01,-4.973489255615713700e-03,2.332194021686553702e-03,-1.450494894653372308e-03,3.726592287421226501e-02
-4.389195812228094407e-01,-4.289790421482464478e-01,-4.385488076361743759e-01,-4.666747160728983677e-03,4.912453972049083371e-03,-5.964817036634095793e-03,1.843191310763359070e-02
-4.384114372299077744e-01,-4.294676552474069875e-01,-4.376617346422646548e-01,-5.957877836975725150e-04,-2.533600419354866047e-04,-3.365622828013536722e-04,8.685931563377380371e-03
-4.343993695556806478e-01,-4.223844421153370443e-01,-4.615405919548726810e-01,-2.660198582319747360e-02,2.967734107738561646e-03,-9.348537837225742372e-03,6.015570461750030518e-02
-4.347976952282614493e-01,-4.159236137065241423e-01,-4.531915078927118978e-01,-4.362465657501535254e-03,-9.352406587070339564e-04,-1.839735370166545694e-04,3.318958356976509094e-02
-4.647328730120106610e-01,-3.717796916594716117e-01,-4.810964070366630652e-01,-3.777511819412689154e-02,-8.443986944461375974e-03,-1.719254783910450146e-03,1.221996322274208069e-01
-4.857509878675406734e-01,-4.153038414566596614e-01,-4.320933474085736914e-01,1.041610190677716083e-02,-1.918367138768757585e-02,-5.662192246425531289e-02,1.229209750890731812e-01
-4.546837991961024672e-01,-4.315240852218871770e-01,-4.303706305738667637e-01,9.550261674306618782e-04,-1.544857435377909030e-04,-1.474769317671035867e-03,2.395306155085563660e-02
-4.537663184088785995e-01,-4.338383746308617228e-01,-4.291983851171189968e-01,1.335994178738805511e-03,6.576168340315635122e-04,-1.306694112129165499e-03,2.286683768033981323e-02
-4.534309828275795984e-01,-4.342581199670250691e-01,-4.308382854990999156e-01,7.172547325056161278e-04,4.904018877049237251e-05,-1.738003829733523109e-03,2.134184911847114563e-02
-4.519778214082117995e-01,-4.288669486820207988e-01,-4.250845159899995784e-01,1.990488347291134545e-03,-6.300974533193067157e-04,-4.378949980075526847e-03,2.657889015972614288e-02
-4.516002348064248051e-01,-4.249655309100368594e-01,-4.287037186367791963e-01,2.212811930595327272e-04,-2.272950645205559967e-04,-3.783825341654065057e-03,2.582769654691219330e-02
-4.557006147623087200e-01,-4.375127293220635871e-01,-4.471522029427628109e-01,-6.229027097413301212e-03,6.181480532236323204e-03,-5.982729465469705313e-03,2.422417327761650085e-02
-4.165408702730374335e-01,-4.459659464161004339e-01,-4.636926812670620901e-01,-3.486720483670017242e-03,1.073231805488038910e-03,-9.230437864213308528e-04,4.176321253180503845e-02
-4.281713699777370263e-01,-4.278193249596258796e-01,-4.453084062428825374e-01,-3.282988877152401633e-03,1.505668266442528784e-03,-3.147885414868743532e-03,1.920150220394134521e-02
-4.467249084619669408e-01,-4.304003243287768954e-01,-4.383254320893613665e-01,-9.877031095552549905e-04,1.632569351429825075e-03,-2.467473035058156006e-04,1.452688779681921005e-02
-4.388913033819031861e-01,-4.381741723813503131e-01,-4.433803497497725843e-01,-5.850279104286573197e-03,3.874768099233597256e-03,-5.023187699963983614e-03,1.572580821812152863e-02
-4.353260985559104790e-01,-4.293463674037631406e-01,-4.364471702067116987e-01,-9.539385374665438049e-04,1.018352005503087715e-03,-4.687372268297468748e-04,7.086462806910276413e-03
-4.375826875508177505e-01,-4.208235343601102740e-01,-4.337375774681360152e-01,-1.719368348144663253e-03,4.014715142665812621e-03,-2.929874271757006068e-03,1.772535778582096100e-02
-4.386067508235772516e-01,-4.303881682147473464e-01,-4.458372383148972995e-01,-3.406183427860531745e-04,1.636263396046319435e-03,-8.886060747362134297e-04,1.378399133682250977e-02
-4.413524657273997787e-01,-4.275397181463408969e-01,-4.381799713946686881e-01,-8.433035098500702570e-04,3.159045137889048352e-03,-1.091296161520566733e-03,1.388095133006572723e-02
-4.351588924554127269e-01,-4.298123554027947768e-01,-4.375035018667391418e-01,-9.273015521176714102e-04,5.751599679657827232e-04,-1.704959305804838949e-03,7.675346452742815018e-03
-4.435381849838416213e-01,-4.326538522963696565e-01,-4.327429211934483155e-01,-3.661633301485515014e-03,1.430241839942235403e-03,-8.859235964267454973e-04,1.289268024265766144e-02
-3.942764076537860207e-01,-4.447592382782318832e-01,-4.339630301130903978e-01,-3.126544381238703652e-02,2.783929456361279586e-02,-1.412243439384800077e-02,8.930870145559310913e-02
-4.249702523240017626e-01,-4.323331374329834054e-01,-4.271953452010198715e-01,-1.469628590731752961e-03,2.725651521012857365e-03,-3.525999890407167416e-03,1.043288037180900574e-02
-4.249355763188840673e-01,-4.304008611180408228e-01,-4.311208638958807793e-01,-2.755891442966269898e-03,1.613947417635510717e-03,-2.857630178187467278e-03,9.456225670874118805e-03
-4.325686991313834051e-01,-4.269698107705470758e-01,-4.326672762376147507e-01,-5.817284837209708555e-05,1.434924158473141692e-03,-4.409995754827656322e-04,6.219309289008378983e-03
-4.400241006821749568e-01,-4.293589922018008487e-01,-4.357150284321280598e-01,-9.163662713560305831e-04,1.374850603974510268e-04,-1.906198575098015007e-04,9.436144493520259857e-03
-4.635857559254838445e-01,-4.864094176208511033e-01,-3.160874569143465873e-01,3.425262470906199983e-03,-9.535934014098282341e-02,-4.938304030009208617e-02,2.455088198184967041e-01
-4.383754367125175522e-01,-4.370872793233145925e-01,-4.379142739725875311e-01,-3.664131722361198794e-03,1.944500418793501445e-03,-2.835503634691290912e-03,8.776049129664897919e-03
-4.382879855933919377e-01,-4.274612282482649905e-01,-4.324952700133034011e-01,-2.015938225109043924e-03,1.236155939393185485e-03,-1.034504019853835265e-03,1.039445865899324417e-02
-4.417896259538409698e-01,-4.297277928847158535e-01,-4.162581085032416306e-01,-8.368059172971344453e-03,1.126978122221560831e-02,-1.554016713164966916e-02,4.248501732945442200e-02
-4.400818846843971288e-01,-4.259042142667258668e-01,-4.305086444351817199e-01,-3.463311001289523777e-03,4.729897429889101147e-03,-4.242180481415731841e-03,1.772045902907848358e-02
-4.356196057189560267e-01,-4.361242184221293394e-01,-4.285477040010083338e-01,-4.743823957797980995e-03,1.581176114371375110e-03,-7.752044869846726801e-04,1.143021322786808014e-02
-4.408785438976211557e-01,-4.286112034659825265e-01,-4.383761631124637459e-01,-7.443567524574633623e-04,2.764310883478908378e-03,-6.908758292765503984e-04,1.233168132603168488e-02
-4.406251573920818010e-01,-4.281207563688576578e-01,-4.354938650251855004e-01,-5.118580195191717785e-04,6.294761061393443994e-04,4.908201999620639698e-06,1.097730640321969986e-02
-4.385258874584163635e-01,-4.389027060657114676e-01,-4.433563329744563131e-01,-2.971522506419122227e-03,-3.688690106459231299e-03,2.939173302250119683e-03,1.071822550147771835e-02
-4.278185610368557268e-01,-4.415180296195491128e-01,-4.454838309797025109e-01,-7.209943265917588204e-03,-5.489907327887459838e-03,4.089137578997470261e-03,2.354278229176998138e-02
-4.369610393560948158e-01,-4.434112283863432813e-01,-4.353918138446947195e-01,-6.309785365251749899e-03,-6.251658170135961090e-03,4.380686704901207672e-03,1.866682432591915131e-02
-4.312941230590814912e-01,-4.417421933534955714e-01,-4.347477638475702455e-01,-2.640660367433041861e-03,-2.112585217891119367e-03,3.452871825712114286e-03,1.245316024869680405e-02
-4.299357271266694425e-01,-4.157108279898384384e-01,-4.465949387653730396e-01,-5.137239511949022279e-03,-3.516567806723620154e-03,1.981229699250199559e-03,2.906717918813228607e-02
-4.311264310645671061e-01,-4.366055130336918277e-01,-4.494642808254926125e-01,-3.966807196193866854e-03,-2.500859409814826847e-03,2.670199419411529215e-03,1.879313588142395020e-02
-4.415819658587484264e-01,-4.053420462605049623e-01,-4.393150581961152712e-01,-3.251401152976619770e-03,6.418476627771960499e-03,-9.138745520866244434e-03,4.052373766899108887e-02
-4.316885373211405419e-01,-4.172903190031838627e-01,-4.423306069585492550e-01,-3.961790690430692409e-03,-5.837739096622901296e-03,3.518836991720654828e-03,2.569554001092910767e-02
-4.287391523640687874e-01,-4.359529389417128309e-01,-4.417361934448376104e-01,-4.699148898725093800e-04,-4.180302310248961068e-04,1.238810073399617025e-03,1.153232716023921967e-02
-4.498973615253901714e-01,-4.319193818879346058e-01,-4.205685120152022893e-01,-6.117438069541389356e-03,2.304923260708545852e-03,-5.483567441649368941e-03,2.957247756421566010e-02
-4.455169540045317289e-01,-4.291260568576772960e-01,-4.353155693096201206e-01,-1.063376761343782281e-03,5.997058939400031494e-04,-5.079285887517755285e-05,1.449133921414613724e-02
-4.313720056224635835e-01,-4.213116734951104503e-01,-4.400112714009393189e-01,-3.395245528545975510e-03,-4.154533693723527592e-03,2.191710012357004668e-03,1.906660385429859161e-02
-4.297941495819119773e-01,-4.410519854810350804e-01,-4.516493613504968807e-01,-7.696588837309898366e-03,-3.573983616724369684e-03,4.076106534549559478e-03,2.498446032404899597e-02
-4.307352909838276789e-01,-4.276704277397742060e-01,-4.519931893986141036e-01,-3.110132812467150676e-03,-4.282802925736474507e-04,4.710404555731462542e-04,2.359404228627681732e-02
-4.213288545803078322e-01,-4.348771329767028848e-01,-4.478587367464573754e-01,-4.429893265299601583e-03,-1.555272071000831421e-03,4.610252743795310512e-03,2.564854919910430908e-02
-4.211134468347547677e-01,-4.358531500773051293e-01,-4.438329000929149837e-01,-2.834085795951063816e-03,-2.235434115655393367e-03,4.408219589999101337e-03,2.226969227194786072e-02
-4.305876357108739949e-01,-4.383067495774684574e-01,-4.468529233935182865e-01,-2.002502366518917022e-04,-9.967100501576244085e-04,1.637926618219660195e-03,1.448239292949438095e-02
-4.507682540566385621e-01,-4.284611656880977781e-01,-4.363722653924594908e-01,-6.319670795843256635e-04,1.633419687387258328e-03,-2.140846001802613249e-03,2.016606181859970093e-02
-4.500709070039585757e-01,-4.292255932856388068e-01,-4.317023387299584458e-01,-8.905657675590635718e-04,6.464446820606737070e-04,-6.326311462474685978e-04,1.984607055783271790e-02
-4.327920215855543540e-01,-4.440463019013166646e-01,-4.424627480765038201e-01,-3.774129505603011046e-03,-8.253175525429420206e-03,6.122186405709995928e-03,2.169942669570446014e-02
-4.447090518833980988e-01,-4.385154095598282620e-01,-4.531284743186220210e-01,-8.844729768107162035e-03,-6.050144605558637444e-03,4.668135930749263592e-03,2.390125021338462830e-02
-4.281585361058665162e-01,-4.336762389526458983e-01,-4.441751637247365880e-01,1.391140880352435881e-04,-1.026229537146719495e-03,4.459797240651662705e-04,1.422731857746839523e-02
-4.571905171746228347e-01,-4.340003799143671293e-01,-4.360237014946378165e-01,6.154897796653408491e-04,1.426133821860152851e-03,-4.484237992165196647e-03,2.371747046709060669e-02
-4.285325215187002490e-01,-4.282512143166464780e-01,-4.457913428956675195e-01,-2.662080268561523543e-03,-2.866192704209831552e-03,1.917594102770310387e-03,1.896675489842891693e-02
-3.731811968584280437e-01,-4.869197036804039924e-01,-4.800979305110927853e-01,2.931382213402266082e-02,-2.004729353323475918e-02,-6.049605140810457478e-03,1.268875896930694580e-01
-3.688923770986651252e-01,-5.384287569607126844e-01,-5.338595747663843483e-01,3.185500408531764110e-02,-2.007463728954389168e-02,-1.690731411448117769e-02,1.819329261779785156e-01
-2.196690706055272613e-01,-3.988909519019624983e-01,-4.152205875664772838e-01,6.514052492018360119e-02,-3.791750525503207597e-02,-1.611704052804701498e-02,2.305127382278442383e-01
-4.628855998621386192e-01,-4.102274454100504619e-01,-4.462797830530170207e-01,-1.269400958337707757e-03,2.921412935854171469e-03,-3.245033357374048355e-03,4.728880897164344788e-02
-4.287856595603966037e-01,-4.285015438386928777e-01,-4.347149981826975429e-01,1.447304277894345291e-03,-3.793195876112798702e-03,-1.970531386940686715e-03,9.900528006255626678e-03
-4.220951335963437079e-01,-4.220750708153601649e-01,-4.351750626258346633e-01,-7.164416159599223705e-05,-8.420713463751005939e-04,-2.224392426679475067e-04,1.317719463258981705e-02
-3.363823998383612679e-01,-4.668804894578492681e-01,-4.858083235101482433e-01,3.957181614525893953e-02,-6.269515733028482862e-02,-3.381223492869526309e-02,1.994434595108032227e-01
-3.706370458826490077e-01,-4.772304252521231693e-01,-4.876125046564953602e-01,5.302605971181249302e-03,-4.968390705209274616e-02,-1.055186141420409555e-02,1.428301334381103516e-01
-3.143913315273533238e-01,-4.394362140899291114e-01,-4.353210951479377644e-01,6.864911827384373270e-03,-1.704672529043212495e-02,-1.721963979412761145e-03,1.271244734525680542e-01
-3.887875815710251648e-01,-4.636982188326541632e-01,-4.580558789891015503e-01,-1.196894873672760436e-02,-3.068801675788774674e-03,4.794387016168215527e-04,7.536230981349945068e-02
-1.437131926529432446e-01,-4.101980497604710840e-01,-3.827134581071081620e-01,-2.780873966052409187e-03,-7.791857859113751616e-02,-1.041853626274789543e-02,2.881112694740295410e-01
-4.544699012875815236e-01,-4.414395481448348812e-01,-4.373589547145411704e-01,-6.331518687144352224e-03,5.811231596845106359e-03,-9.024699599873557687e-03,2.656170539557933807e-02
-4.493487516912966218e-01,-4.480502013186277166e-01,-3.933116158306237398e-01,4.769630949244997239e-03,-3.250154839819109544e-03,-2.669117504292947609e-03,5.648354813456535339e-02
-4.135097838201717835e-01,-4.140272099962111763e-01,-4.423039920380498202e-01,3.465537968857154965e-04,-1.297802633953998915e-03,2.375841648232388645e-06,2.863369509577751160e-02
-4.458205135061564794e-01,-4.584467949845302259e-01,-4.126939299876170586e-01,3.791946426647067967e-03,-3.812080249554996702e-03,-2.346084560026333483e-03,4.216993972659111023e-02
-4.264644301581649311e-01,-4.546299366001040898e-01,-4.496064712081686010e-01,-1.254606949013830838e-02,9.741605744197580699e-03,-8.260045884797720048e-03,4.048006609082221985e-02
-4.342739811155433283e-01,-4.387414229567969670e-01,-4.274911320068483511e-01,3.408404730779322658e-04,-4.392436275232506162e-04,-9.171762449358788864e-04,9.985891170799732208e-03
-4.557054964038085854e-01,-4.366657057621453619e-01,-4.493702486220224057e-01,-6.716252002223801684e-03,6.171791312291717915e-03,-8.080104170321749171e-03,2.697199583053588867e-02
-4.410088586569674840e-01,-4.276885538731510783e-01,-4.325914574660488232e-01,-2.288139058317203729e-03,1.518197542172148532e-03,-2.001422442886873973e-03,1.306902430951595306e-02
-2.421444531353869334e-01,-4.763514980587675307e-01,-4.582387694465242522e-01,-5.998170655557863787e-03,-2.558983175736051843e-02,-8.136902180541199722e-03,2.306728512048721313e-01
-4.426286334429091474e-01,-4.278093320970985380e-01,-4.329802765872812209e-01,-1.580350948158373544e-03,1.365365826000006352e-03,-1.513603375093012290e-03,1.377239078283309937e-02
-4.505842346559979505e-01,-4.274315188851196545e-01,-4.299427055739054593e-01,2.030741947008529724e-03,-1.988158928638474130e-03,-2.457085911177134523e-03,2.294679544866085052e-02
-4.543102564427835555e-01,-4.356767819400628183e-01,-4.325438641405144335e-01,5.197731571479853379e-04,4.312765858784300217e-05,-1.654082883976736723e-03,2.060152217745780945e-02
-4.474634484184266681e-01,-4.294494972888332485e-01,-4.311434439884948011e-01,-2.917098599776884755e-03,1.607895322750646332e-03,-2.384355157082694403e-03,1.863322407007217407e-02
-2.391898706003597885e-01,-2.048785247373439700e-01,-3.448777895439668617e-01,1.516941190284992746e-01,7.220255318671206513e-02,8.706511042196707351e-02,3.512654900550842285e-01
-4.521727434754955754e-01,-4.357191164233518155e-01,-4.317967608856452810e-01,4.435905217470321885e-04,-3.011614789272817563e-05,-9.663056448174267134e-06,1.874131895601749420e-02
-4.489847760961051537e-01,-4.278637703173600038e-01,-4.394331220158927964e-01,-3.314321172704389265e-03,4.584454235696178680e-03,-8.027320439943407340e-03,2.499819733202457428e-02
-4.321752097863515996e-01,-4.399048966002822580e-01,-4.275883750509754111e-01,-2.870351333467823386e-03,-2.184898784768623408e-04,-2.173759594135717392e-04,1.188459619879722595e-02
-4.443776240132745747e-01,-4.275277393645168234e-01,-4.101666470882154858e-01,-3.433592300084650772e-03,1.781320600430491867e-03,-7.531625832448399400e-03,3.305938094854354858e-02
-4.080372509367604095e-01,-4.384957353119748324e-01,-4.353938785982856552e-01,2.298455260799528704e-03,-2.112614224283036225e-03,-6.569834519402102148e-03,3.164789453148841858e-02
-4.463289053336201295e-01,-4.245153209515715731e-01,-4.249102914929855923e-01,-2.075610750953899627e-03,9.948943888381299536e-04,-4.531719378973822834e-03,2.334258146584033966e-02
-3.996151432021229910e-01,-4.183480976035451882e-01,-4.551277632660472583e-01,3.367411072087933988e-03,-1.038784690268447063e-03,1.252859276558128333e-04,4.929464310407638550e-02
-4.636691219910108464e-01,-4.640928318246511641e-01,-3.775277190335906696e-01,5.316618673817662816e-02,8.063207689541347645e-02,7.269470840065500594e-02,2.264842391014099121e-01
-4.770363889732956442e-01,-4.871575051137791434e-01,-3.513494257909577922e-01,3.679462661089158426e-02,8.358688396747047944e-02,6.354490409931769224e-02,2.330395728349685669e-01
-4.100703609617130097e-01,-4.138474462644649021e-01,-4.536048608066515220e-01,7.693083220012077866e-03,8.251985055553984032e-04,-5.787454875865782932e-04,4.388261586427688599e-02
-5.185432940113184896e-01,-5.253115847136462513e-01,-3.543822008767151810e-01,1.034766722979368978e-03,3.996081367420933894e-02,3.864565652652701688e-02,1.933391690254211426e-01
-3.594780994957815223e-01,-4.489520834888089396e-01,-4.579003437502698892e-01,7.744214699641731835e-03,1.735725595757769751e-03,-7.783227194221084945e-04,9.527368843555450439e-02
-4.171015279143264198e-01,-4.149234511115001411e-01,-2.925432759098910429e-01,1.672756036026247506e-02,3.674689753296147415e-02,3.439727144212349763e-02,1.539095789194107056e-01
-4.987551017187119018e-01,-5.024977725481055701e-01,-3.583657552546496983e-01,1.753322523343717187e-02,4.193254085409594406e-02,5.615338092615860394e-02,1.894873827695846558e-01
-4.188244285735588934e-01,-4.643008607070958083e-01,-4.679581736545128656e-01,-3.937626878197738982e-03,-4.803949224005909374e-03,2.538360720187787366e-03,4.881476983428001404e-02
-4.071160657632342250e-01,-4.033898783365962304e-01,-4.490880580483931905e-01,1.692012971833539974e-03,8.057451473333426470e-04,1.127442170336102412e-03,4.411663860082626343e-02
-4.287883515183304461e-01,-4.395388246082060912e-01,-4.325146239271648319e-01,3.494902991302423212e-04,-1.661924391070304999e-03,-3.290376006687326278e-03,1.142500434070825577e-02
-4.713895353933950649e-01,-3.993771142872301616e-01,-4.652768929332074532e-01,7.762562900231197507e-03,-2.852342138896909064e-03,-7.998763848907720908e-03,7.197282463312149048e-02
-4.451123174402201177e-01,-4.295311583103276210e-01,-4.325101506601006229e-01,1.758378327484823875e-03,-3.805417931115329978e-03,-1.480144455751015347e-03,1.626414991915225983e-02
-4.501960239468095204e-01,-3.608154206160754107e-01,-4.337873810947006636e-01,1.316577680015378234e-02,-5.881248745577395340e-03,-2.387269462247639668e-02,9.552495926618576050e-02
-4.556573105193005291e-01,-4.457450355113854457e-01,-4.419885920197014761e-01,1.107576524954994104e-02,-6.570131442556866042e-03,-1.791318457729773259e-02,4.012185335159301758e-02
-4.340604797579079577e-01,-4.220222754050007019e-01,-4.494470806821492248e-01,7.370374673568252932e-02,4.115302534511618843e-02,5.338214972264590519e-02,1.746232956647872925e-01
-4.499215457052047618e-01,-4.321492006204730174e-01,-4.349691546409938936e-01,1.215000657247495511e-03,-4.288150040588246427e-03,-1.796705653502755169e-03,1.851942203938961029e-02
-5.293534492547117276e-01,-4.583268455351913739e-01,-5.011176207140757288e-01,2.452815436559352760e-02,-3.041801123461941245e-02,-5.179407147464649280e-02,1.283163279294967651e-01
-4.449577937165076214e-01,-4.426594842858975754e-01,-4.449832204643399680e-01,7.656963829510187239e-03,-1.688651565565382415e-02,-1.867756161434454970e-02,4.564258828759193420e-02
-4.457371006599397667e-01,-4.374830142236957320e-01,-4.288256183149603551e-01,7.711438546627653228e-04,-7.633103937037937501e-04,-1.144257549949281947e-03,1.489963848143815994e-02
-4.392067107425113304e-01,-4.337308552739024825e-01,-4.288874968547013444e-01,6.950053104441164357e-04,-9.548099750316620029e-04,-5.580568436969721201e-04,9.224045090377330780e-03
-4.346636136178178011e-01,-4.353671377626098238e-01,-4.279115346388192576e-01,1.549652394768318291e-04,-7.916202746890398925e-04,-2.391728721249206547e-04,7.277321536093950272e-03
-4.405564923164685953e-01,-4.195652243040787210e-01,-4.393082062821176970e-01,2.594821462065650692e-03,-4.542320661874666050e-03,-1.301914226571105129e-03,2.243146672844886780e-02
-4.603166170023647030e-01,-4.081040486993450234e-01,-4.193204487715381790e-01,5.330296849277416614e-04,-9.827971588361204824e-03,-2.947542883280451428e-02,7.185641676187515259e-02
-4.341678629131296430e-01,-3.476573586451955356e-01,-4.296094928784756073e-01,2.349352125596719520e-02,-7.934548855902282677e-03,-1.875569603769995652e-02,1.000526621937751770e-01
-4.297649380446993961e-01,-4.926665301826889665e-01,-4.309644911816550295e-01,-4.273947981228242050e-03,-2.539340032943815037e-02,3.147173658227032846e-03,7.682176679372787476e-02
-4.326252052986311880e-01,-4.583044884546650377e-01,-4.368836277729389872e-01,-1.623099057093321199e-03,-5.743066580958097397e-03,-9.601053360458355781e-05,2.598241716623306274e-02
-4.278042549670389993e-01,-4.299004870887310759e-01,-4.278260285951644981e-01,6.399918741699378447e-04,-2.066178791338702143e-03,-5.987415310654373591e-04,4.411411006003618240e-03
-4.273980598949940757e-01,-4.335351620417711715e-01,-4.300900145491163840e-01,8.469912017301670310e-04,-1.480165354881123269e-03,-1.723791339377211788e-03,6.784472148865461349e-03
-4.393723065702822006e-01,-4.239970040552841768e-01,-4.647801360504313917e-01,1.355437737322909807e-02,-6.093513297342638413e-03,-6.201605521463916977e-03,4.528296366333961487e-02
-4.392324770629021935e-01,-4.574946542314006215e-01,-4.216240485451079323e-01,-6.858422421034157494e-04,-9.717396240162719245e-03,-3.176469692729937122e-03,3.577843680977821350e-02
-3.729400427472014390e-01,-4.531662007911054779e-01,-4.490148443854485860e-01,2.485004472586347735e-04,-2.065219197990383719e-03,3.605096241986442077e-03,7.856458425521850586e-02
-4.418352034529273165e-01,-4.561919826815178935e-01,-4.273086394570827506e-01,2.918289300496317625e-03,-2.710002979019269283e-03,-8.128985424915315637e-04,2.598570473492145538e-02
-4.105934125900443932e-01,-4.056085507140970714e-01,-4.523348998578332059e-01,1.841249899575393874e-03,1.886696853779828292e-03,1.020633419227355045e-03,4.471298307180404663e-02
-4.465233493528891207e-01,-4.372933987290690272e-01,-4.383524974501460947e-01,-6.139418703201523705e-03,4.007080944859708373e-03,-7.377549796876013699e-03,2.002674341201782227e-02
-4.367302832245534283e-01,-4.600074812969613403e-01,-4.370794550004105661e-01,2.999537780380505370e-04,-6.271921781928015138e-03,9.604441758947181379e-04,2.559043653309345245e-02
-4.400489194531269077e-01,-4.564472843474067787e-01,-4.110639797410244878e-01,2.628696631919137053e-03,-1.368235994874864719e-02,-3.851214990922918312e-03,4.702324420213699341e-02
-4.366856640796167865e-01,-4.287884574786106628e-01,-4.387774321058913185e-01,-2.780102635793060893e-04,3.204380093268078644e-04,-1.260184025579663301e-03,9.410875849425792694e-03
-4.209635920584962610e-01,-4.345987580475939027e-01,-4.406896953844002818e-01,-3.210665429265228965e-03,-2.624352571334270193e-03,4.973945821059508159e-03,2.078161202371120453e-02
-4.290073892360266039e-01,-4.395781407710270261e-01,-4.453835986336694419e-01,-1.015183049040363147e-03,-1.025444186512278850e-03,3.413016886052192174e-03,1.574816368520259857e-02
-4.299446882157872962e-01,-4.363549677199608512e-01,-4.355292817421113072e-01,-1.073128702095844152e-03,-4.890252897042880395e-04,3.416827264810127704e-04,6.403362844139337540e-03
-4.319797829953505031e-01,-4.433823079629998776e-01,-4.544678368934807478e-01,-7.253516768171398670e-03,-4.167401589951805554e-03,4.810483459489413478e-03,2.566464617848396301e-02
-4.287580297256496364e-01,-4.360243370371740257e-01,-4.371293165917083945e-01,-1.507129044787181623e-04,-7.236254238464919592e-04,5.823551972047257518e-04,8.043990470468997955e-03
-4.288319819473368488e-01,-4.354164771709801984e-01,-4.400651245777419396e-01,1.342282695765920769e-04,-5.546517443638959060e-04,5.486448746152172056e-04,9.871904738247394562e-03
-4.383533865846037103e-01,-4.283297695012881490e-01,-4.400592712823512276e-01,-7.441298001178263269e-04,2.626699079685723866e-03,-6.906651831242378078e-04,1.201136782765388489e-02
-4.344941068919630500e-01,-4.551203326220127909e-01,-5.532952688352885673e-01,-9.575065430684411016e-02,-1.721017244342420635e-02,3.697649639275200212e-02,2.111484259366989136e-01
-4.455912609556824666e-01,-4.280820825155970955e-01,-4.372992997341230703e-01,-1.173925880916407887e-03,3.017747619792337990e-03,-7.472615983736071062e-04,1.622567139565944672e-02
-4.288399502327441826e-01,-4.345959893961506282e-01,-4.413409937512386971e-01,-2.581953803529780803e-04,-1.236027815162150673e-03,4.296319478180236993e-04,1.108100265264511108e-02
-4.468884702493234884e-01,-4.330879527735858603e-01,-4.331898490358368492e-01,-4.000834065276645188e-03,-4.892151586156261514e-03,3.336656353315835266e-03,1.850074902176856995e-02
-4.644394826255177633e-01,-4.611503848640004510e-01,-4.023625826792246452e-01,4.101730576588840521e-03,-2.949059254246303233e-03,-3.975636293834027696e-03,6.151555106043815613e-02
-4.541608548645288401e-01,-4.377066681163194195e-01,-4.425609733257180323e-01,-6.429867810554645673e-03,3.712794768176451432e-03,-9.455857033463148723e-03,2.545691840350627899e-02
-4.630480579317577949e-01,-4.458340018241444547e-01,-4.296511892564660040e-01,-5.265214381846038995e-03,2.804025485249352339e-03,-3.296422003467380270e-03,3.124313242733478546e-02
-4.406563361128275624e-01,-4.288749928398876698e-01,-4.547003751910869140e-01,-9.966308309120438993e-04,4.116374496577009448e-03,-1.070748703200812306e-03,2.363780140876770020e-02
-4.602996345987330762e-01,-4.243577861527082495e-01,-4.481800502381260709e-01,-2.307701137265703254e-03,4.220362545756342100e-03,-4.465789892434279644e-03,3.365027904510498047e-02
-4.457820059597039641e-01,-4.223551041096088587e-01,-4.204562886370587504e-01,-3.410979595122234226e-03,-2.894648731320430528e-03,4.938795992635161732e-03,2.702082507312297821e-02
-4.308762206311496645e-01,-4.233564922608270553e-01,-4.264320668801052094e-01,-9.744442949932699202e-04,-2.586299294976984915e-03,2.955263433312039535e-03,9.591360576450824738e-03
-4.541133481492676260e-01,-4.219226668177752382e-01,-4.470038771962788759e-01,-2.127902307324889587e-03,3.021083697016859089e-03,-4.391658488850704381e-03,3.093138523399829865e-02
-4.332553465378637392e-01,-4.339449149713460185e-01,-4.296490849644315491e-01,-3.281102855411472709e-03,-1.312738213596265384e-03,1.501425634042805914e-03,7.758671417832374573e-03
-4.546330093995478161e-01,-4.269861758088550618e-01,-4.364771053541917634e-01,-1.058330951640956480e-03,6.012568639969916181e-05,-1.976006742648071714e-03,2.463972009718418121e-02
-4.379254210507315115e-01,-4.238305479732244474e-01,-4.276375441499225549e-01,-1.302437405702709531e-03,-3.267640195257622612e-03,1.528022686836326936e-03,1.426974218338727951e-02
-4.379046602935587340e-01,-4.151049280536415753e-01,-4.247341118010902750e-01,-2.723653023975793931e-03,-5.091222719873476216e-03,3.410931552303722580e-03,2.297664061188697815e-02
-4.420802648193447038e-01,-4.160601443348299622e-01,-4.285744303122109300e-01,-8.111439260808582866e-03,-7.554982744363046045e-03,1.256202504904042373e-02,3.674321621656417847e-02
-4.406418883895321104e-01,-4.135630729468278699e-01,-4.340092142976754719e-01,-3.962802785843144542e-03,-6.031455764843403691e-03,9.486142682638693327e-03,3.199776634573936462e-02
-4.383581577230990511e-01,-4.484747392820202516e-01,-4.267736597772934237e-01,3.547323091867918016e-03,-1.395439219914096102e-03,-9.844972096375321363e-04,2.000603079795837402e-02
-4.472051394964917104e-01,-4.080394720747757553e-01,-4.291697729635848835e-01,2.510493128783682863e-03,-1.491094731488554941e-03,-3.720120535809980523e-03,3.492781892418861389e-02
-4.413274252902040784e-01,-4.425677850116078171e-01,-4.287102018599294184e-01,1.673546232152783690e-03,-1.430131948995231423e-03,-1.270564179566448801e-03,1.399156264960765839e-02
-4.340661081191922732e-01,-4.758663201463405046e-01,-4.187059991681474913e-01,4.652641164238417899e-03,-2.621812133698167915e-02,-5.170583064385266513e-03,6.951662898063659668e-02
-4.124190804825846324e-01,-4.176160178465009865e-01,-4.538028056473503713e-01,4.420014499822723895e-04,-7.425239302807389767e-04,-1.822858141321955774e-03,3.920153900980949402e-02
-4.406727403641826912e-01,-4.591802210829902253e-01,-4.314613018742733952e-01,5.214106811480032078e-03,-8.155563786148839825e-03,-4.175269725773943230e-03,3.051650337874889374e-02
-4.488656485295536847e-01,-3.906631506219774841e-01,-4.707907925485744771e-01,5.229186504815361985e-02,-1.749887697925184976e-02,-3.035239551852105672e-02,1.304994076490402222e-01
-4.247420986984946079e-01,-4.486122831283508305e-01,-4.267402414685360634e-01,1.701154551633359728e-03,-4.210727188388128928e-03,-1.421573031024881860e-03,2.437246963381767273e-02
-4.371510406601601395e-01,-4.485342350644576648e-01,-4.279781166625290512e-01,3.758460685250123931e-03,-7.075899150453740689e-03,-3.815205739168674084e-03,2.354543097317218781e-02
-4.329744708017458366e-01,-4.470792235998755082e-01,-4.151074868754221492e-01,2.313564671637412945e-03,-5.397427507422513510e-03,-1.273639561240023877e-03,2.963955886662006378e-02
-4.399527185665228490e-01,-4.604805512955700286e-01,-4.299990010847835054e-01,8.653777843563937103e-03,-1.417940388997371119e-02,-5.619258343688095583e-03,4.058761894702911377e-02
-4.284406011633127842e-01,-4.527143738539954887e-01,-4.299145161831012807e-01,1.556460495591228987e-04,-5.011014312660081252e-03,-3.503274288909048826e-04,2.512732893228530884e-02
-4.356140165134676501e-01,-4.541713793929987308e-01,-4.308775728498964730e-01,3.260176368969807878e-03,-5.404443437857485606e-03,-9.500868742557274337e-04,2.401923760771751404e-02
-4.295560378811340008e-01,-4.499133446597323727e-01,-4.290208211899135815e-01,1.625341808487071544e-03,-5.540220204178775663e-03,-4.889039543733796241e-03,2.444007806479930878e-02
-3.919971029168100585e-01,-4.137723835142480544e-01,-4.485708738547362073e-01,4.818259234665918725e-03,6.433352058493533839e-04,2.807621548759741369e-03,5.037242546677589417e-02
-4.352262801102368961e-01,-4.489551547957272848e-01,-4.277843591887949271e-01,6.369831511011953950e-04,-1.508701261556688296e-03,-6.587801046366924089e-04,1.885155588388442993e-02
-4.413573556589615587e-01,-4.363423276421038999e-01,-4.345358521349056424e-01,4.329041507096096828e-04,-2.252591591420186230e-03,-5.127451329899956412e-04,7.351655047386884689e-03
-4.850394290968907396e-01,-5.584136376774256894e-01,-4.585473797357915715e-01,-3.547124602099799295e-02,6.545115367219765667e-02,-3.352237340695411044e-02,1.674122810363769531e-01
-4.048939390734457300e-01,-3.752651223123326663e-01,-4.419089047211228749e-01,1.283733119884032832e-02,6.298403685693665204e-03,1.308968068576386520e-03,6.295415014028549194e-02
-4.037037391388977325e-01,-4.223204911080022939e-01,-4.579000361358281923e-01,2.992528879972127225e-03,-1.383600170277813138e-03,-2.303128394969361243e-03,4.820150509476661682e-02
-4.334572523430517688e-01,-4.977173508677151803e-01,-4.275510114935689998e-01,1.719895545975495431e-03,4.323916427576270094e-02,8.501457500409485141e-03,1.018742099404335022e-01
-1.553807150414785732e-01,-4.172349459624218326e-01,-3.734774465721600323e-01,-4.616549552304920201e-02,9.351423245073617330e-02,-2.403480933329217584e-02,3.055908679962158203e-01
-4.305984854053471755e-01,-3.842597104042484446e-01,-4.459869435177649666e-01,6.586590893203080749e-03,-3.601473480196020534e-03,1.405193878997106745e-05,5.715094879269599915e-02
-4.195622919856621391e-01,-5.432369242541505994e-01,-5.324700952737222437e-01,-4.991748202543697110e-02,3.661359855154002613e-02,-3.200790314973927381e-02,1.692637205123901367e-01
-5.730920215007730967e-01,-3.491464587312386181e-01,-4.458460179697632531e-01,-2.112611973534942247e-02,-6.170039362134899924e-02,1.490689241597316084e-01,3.424490690231323242e-01
-3.786389343537449603e-01,-4.539169233181399310e-01,-4.301703220861420873e-01,4.281697146189643722e-04,6.981575919507198094e-03,-2.022539732376849551e-03,6.783899664878845215e-02
-4.389273105906686956e-01,-4.259698338197353551e-01,-4.550981757002152683e-01,-2.198706478773645220e-03,4.932049103606586833e-03,-1.798702665733842949e-03,2.713136374950408936e-02
-3.266153851944086361e-01,-5.341091621267016754e-01,-4.741383316984326690e-01,-1.177025596470070018e-01,1.155145856414569738e-01,-2.972180188422863384e-02,3.441646099090576172e-01
-3.286829963193280135e-01,-5.947996301633997618e-01,-3.585720552978106657e-01,-6.481127239088782521e-02,1.696071084980396160e-01,-1.948188597778984649e-02,4.047187864780426025e-01
-4.518846056187151294e-01,-4.033887079384662067e-01,-4.611516155048650534e-01,-1.111165566505287888e-02,5.725269127096635144e-03,-6.131031882952833571e-03,5.889527127146720886e-02
-4.474102709348267704e-01,-4.659671240669879255e-01,-4.126946450549482948e-01,-6.679991398735537350e-03,1.368164678154701851e-02,-9.295413067196466039e-03,5.611049383878707886e-02
-4.377012200281965582e-01,-4.316053914697336458e-01,-4.514470390514156994e-01,-5.764302921428525749e-06,2.277641674983356054e-03,-4.557757132797240281e-04,1.805782504379749298e-02
-4.341034414106596517e-01,-4.283046228620707163e-01,-4.440663515685548401e-01,-7.688033451825628493e-05,6.131092623377102854e-04,-8.483152719597089695e-04,1.392707228660583496e-02
-3.157182788802873064e-01,-4.423345430963563918e-01,-4.162639148102009190e-01,-1.173148525507787185e-02,3.679874609717661421e-02,-6.648929175713740904e-03,1.342324167490005493e-01
-1.677615966526688762e-01,-3.929858301268061016e-01,-2.711098212130719776e-01,6.935389536258528172e-03,1.493387958313937558e-01,3.930440229540244773e-03,3.243873715400695801e-01
-3.838463484161326322e-01,-4.323139111142090818e-01,-4.295485565900160618e-01,2.104980026822346473e-02,2.050774124512168978e-02,1.261100974963166171e-02,7.273801416158676147e-02
-3.807805968371408833e-01,-4.528010696232235843e-01,-4.543060041057665477e-01,-2.613530430693772073e-03,1.644251059848359561e-03,-6.958481583402807702e-03,7.396934181451797485e-02
-4.067438602452005947e-01,-3.897501494540321909e-01,-5.018038149509104207e-01,6.817567895650050724e-02,3.544526583204168912e-02,1.761112782917667249e-02,1.719997972249984741e-01
-4.316270841815424419e-01,-4.343252188455680174e-01,-4.458114351828669775e-01,-5.307770149881195412e-04,8.745919367586080500e-04,-3.524575836174742138e-03,1.451248675584793091e-02
-4.400012577237181755e-01,-4.232809023785700786e-01,-4.607570245242929574e-01,-4.396413709806343967e-03,2.448777453981285362e-03,-1.689605673015884615e-03,3.379282727837562561e-02
-4.310829576208773939e-01,-4.410715363152484247e-01,-4.640611070617973177e-01,-2.693077441746792675e-03,-1.537651290930766796e-03,1.930714671612722508e-03,2.996596880257129669e-02
-4.055122643626000167e-01,-4.382072395273017285e-01,-4.053273550948935378e-01,4.968851008532049890e-03,6.704279322546104897e-03,5.532324965965246949e-03,3.709139674901962280e-02
-3.990127001854256727e-01,-4.316718375953313980e-01,-4.018093583675070857e-01,1.904683739296351031e-03,3.481116757590317981e-03,5.297227066905773295e-03,3.338448703289031982e-02
-4.006813333359731111e-01,-4.301924608998644040e-01,-4.086691085660649203e-01,2.355517868667857378e-03,3.253609575611174799e-03,5.740114560237612532e-03,2.909008413553237915e-02
-4.193406574569543688e-01,-3.881932243124699977e-01,-3.859465756505361389e-01,9.206049896660333659e-03,8.917730817133616428e-03,1.533225830168384943e-02,4.736299812793731689e-02
-4.443659361113578843e-01,-4.246218739349121307e-01,-4.451706275965653936e-01,-1.748649300785336431e-03,5.106388722102456722e-03,-2.164379259691157163e-03,2.253477275371551514e-02
-4.008505115177157241e-01,-4.010693499793012706e-01,-3.841602319387861786e-01,1.401587950230935749e-02,8.107392179551276348e-03,5.798290439246536060e-03,3.420015051960945129e-02
-4.560110383121986910e-01,-4.309751898576506535e-01,-4.365513157678181932e-01,-3.776506042826660516e-04,1.451114530792470617e-03,-6.168403971947981120e-04,2.293840423226356506e-02
-4.123113135710490540e-01,-4.218930931984358201e-01,-3.904718340184502590e-01,9.359880235452394670e-03,6.586217961969878000e-03,4.937463956897034274e-03,3.527218475937843323e-02
-4.517560771945738907e-01,-4.128260659744333871e-01,-4.392474288098567325e-01,2.235060919038283495e-03,-3.835588043728412836e-03,-4.945299573774918425e-03,3.629793226718902588e-02
-3.988495757482425907e-01,-4.133028938699190302e-01,-3.939253275715498548e-01,8.549006265561426635e-03,8.551534447874759373e-03,9.443259008261139023e-03,3.178815171122550964e-02
-4.585435765088378135e-01,-3.924303759537035585e-01,-4.424468650224067656e-01,-1.293724014253772904e-02,4.329944039706128643e-03,-2.733461902768724583e-02,7.978571206331253052e-02
-4.185577307130196045e-01,-4.048440325713312249e-01,-4.217408935204576270e-01,2.343554002294048408e-02,1.861600051760189944e-02,2.334334832751293679e-02,6.755684316158294678e-02
-4.038219086355244181e-01,-4.033897789502393083e-01,-4.399575888024608861e-01,1.315550173928180635e-03,1.386401283827989753e-03,3.310455523665908287e-03,3.695165738463401794e-02
-4.164555134766614319e-01,-4.138569555568219482e-01,-4.141042278657418030e-01,1.030783842889453289e-03,2.045800316477325645e-03,6.140292934275496045e-04,4.800586961209774017e-03
-4.538910752509414115e-01,-4.144588547491608876e-01,-4.421243919502914066e-01,2.113331692066210306e-03,-3.029515246257620618e-03,-4.606961866194208069e-03,3.652359545230865479e-02
-4.576851593925960193e-01,-4.655507992114177318e-01,-3.437126148768682166e-01,-2.672711749224310120e-03,1.183753576898480958e-02,7.080904262242038042e-04,1.199641302227973938e-01
-4.019649182527285092e-01,-4.198804187275286814e-01,-4.064537045827818496e-01,2.137796916325421324e-03,3.114476104032192286e-03,4.027765064838035973e-03,1.876631565392017365e-02
-4.047026095126099454e-01,-4.166961566381177651e-01,-4.408258583671119113e-01,2.924839950402440165e-03,-2.534782253913616428e-05,-2.678561764771699404e-03,3.259874880313873291e-02
-4.347677828931755806e-01,-4.313034180070804413e-01,-4.536734391449839254e-01,-3.345212010141356690e-03,2.569994970792157524e-03,-1.152486810327547559e-03,2.218766324222087860e-02
-4.400756131477545074e-01,-4.192897700010189133e-01,-4.389541772584480417e-01,2.619692428874598883e-03,-4.676530314004506347e-03,-1.310921218690941272e-03,2.239090390503406525e-02
-4.319401630339150255e-01,-4.482508883807362343e-01,-4.301177609853695794e-01,2.169731009603280674e-04,-1.519785773915812788e-03,-7.282469511906720103e-04,1.754272356629371643e-02
-4.325391829102157581e-01,-4.270882354749044874e-01,-4.535398420266796848e-01,-2.919585366696147554e-03,1.625827606820439211e-03,-8.976800677663135950e-04,2.492254786193370819e-02
-4.324427511021025072e-01,-4.407017187227065813e-01,-4.617273939128532789e-01,-1.270003149937884608e-02,5.184475743335565214e-04,1.781984710783446986e-04,3.418646007776260376e-02
-4.336694948023264717e-01,-4.500045528723423116e-01,-4.335645534007245283e-01,7.123538217189607667e-04,-1.203488872168357020e-03,-2.062006395531090861e-03,1.694645918905735016e-02
-4.363778222633346582e-01,-4.366478835272175618e-01,-4.610406047772432347e-01,-4.556994568699189278e-03,-1.232594930281819673e-04,1.740519192130932742e-03,2.594412676990032196e-02
-4.227296546029247204e-01,-4.365897909869977944e-01,-4.638773137779814704e-01,-1.113138506443982732e-02,-2.527214003217884142e-03,-2.034618770783654974e-03,4.145146161317825317e-02
-4.207007964245234599e-01,-4.212039955327372964e-01,-4.333881384533905257e-01,9.524564858768211611e-04,-2.845642143142202742e-03,-6.682772925276007740e-04,1.353484205901622772e-02
-4.103610599955589966e-01,-4.282989306605465840e-01,-4.547675800148432423e-01,-8.754679411172238204e-03,1.218861979902968132e-03,1.969462216714865674e-04,4.161315038800239563e-02
-4.278755422787817175e-01,-4.287143599629227309e-01,-4.521062854275723075e-01,-3.088088990939580076e-03,3.192863759030056142e-04,-5.885956531967421633e-04,2.444302290678024292e-02
-5.093369609026019429e-01,-3.685976342132297745e-01,-5.009994191124748086e-01,2.437764062520256236e-02,-5.557722249966962069e-02,-1.059342963041265406e-01,2.518316209316253662e-01
-4.327352913910946786e-01,-4.493352406109573649e-01,-4.314166355842846134e-01,1.990174395452392177e-04,-1.553978709352232248e-03,-1.117619922223075718e-03,1.761526055634021759e-02
-4.094898662280966328e-01,-4.127577668518051524e-01,-4.199463641505764011e-01,-3.019760694922403801e-02,2.611463169040640492e-02,-1.602791560702411175e-02,7.508753240108489990e-02
-4.388456061679660292e-01,-4.555689790903543757e-01,-4.598135598026271142e-01,-1.462454634766266644e-02,-1.472989258447535317e-02,6.020385358925949351e-03,4.207074642181396484e-02
-4.248143498400810403e-01,-4.208287800399350131e-01,-4.331348745063946515e-01,5.065235385190341826e-03,-4.594203516693941801e-03,-4.615044429189012025e-03,1.795727573335170746e-02
-4.143009479254078919e-01,-4.170070393033283862e-01,-4.502699092308951045e-01,1.087954386758874410e-03,-1.095711242150921140e-03,-1.030321247749025129e-03,3.484380990266799927e-02
-4.567439232049976816e-01,-4.119719200761701172e-01,-4.126600768901225735e-01,2.655311786783297844e-03,2.942178118004990916e-03,7.406471467064327727e-03,4.675344377756118774e-02
-4.369651524588232805e-01,-4.053913778964851056e-01,-3.765824116167248992e-01,7.623053678187757982e-03,3.128784824198765566e-03,8.898321081924247603e-03,5.637116730213165283e-02
-4.230025766991939440e-01,-3.428188471046819119e-01,-3.398503956489791200e-01,2.679863255268351632e-02,2.481050429784246308e-02,7.144857900794207572e-02,1.612208038568496704e-01
-2.878843833410255626e-01,-5.393239051612183088e-01,-3.616604206266507693e-01,4.924393892710235421e-02,1.615882019363966693e-01,7.787635624104688285e-03,3.686510622501373291e-01
-4.259258262904040970e-01,-4.756720953120441853e-01,-3.903189102559559975e-01,-7.753906234810234270e-03,2.889379463733344339e-02,-1.615130016495179566e-02,9.477009624242782593e-02
-3.746548341404675186e-01,-5.475149276273263421e-01,-4.921342899368179036e-01,-9.047937679352994686e-03,7.105151870592962826e-02,-1.172169834718335413e-02,1.979324817657470703e-01
-4.355268513797369567e-01,-4.320953306377666725e-01,-4.577160385736242509e-01,-1.386978725004967819e-03,1.649893125287549582e-03,-6.107689366994176064e-04,2.439948171377182007e-02
-4.264916360911817916e-01,-4.508269803682828925e-01,-4.252462813151873244e-01,-3.931188080449055902e-04,-5.549441159301483906e-03,1.396511117360711826e-04,2.677642740309238434e-02
-4.206358049846762315e-01,-4.681356989185835871e-01,-4.361543889097736493e-01,-4.720805811358898263e-03,-4.355523797949960307e-02,-7.646523905883351527e-03,8.771190047264099121e-02
-4.336099029963911833e-01,-4.291385209101361009e-01,-4.489921239487989491e-01,-2.204689355785419049e-03,2.218117013665294509e-03,-1.414989299245873267e-03,1.899301074445247650e-02
-4.213159270246468191e-01,-5.040084439306290465e-01,-4.549567629197935337e-01,1.697197355286126589e-03,-3.554497646918221287e-02,-1.987004747905078694e-02,1.008530929684638977e-01
-4.326255819782343082e-01,-4.392712575330443014e-01,-4.324779824441358222e-01,-3.341931031118970490e-03,-7.976246379080163731e-04,5.914624668871134802e-05,8.977321907877922058e-03
-4.289808549330003107e-01,-4.324100765477938424e-01,-4.542606915275096413e-01,-9.585224845323068099e-04,5.338078550784528887e-04,4.551194431522075610e-04,2.384055592119693756e-02
-4.412959472361596136e-01,-4.596169933292047483e-01,-4.274916587642558774e-01,1.288280134864357249e-03,-3.050011175306008900e-03,-4.166465733161782859e-04,2.850501053035259247e-02
-4.343946841553488203e-01,-4.452326096234023312e-01,-4.317398594037040183e-01,-3.275469837793540308e-03,-1.075204689027545917e-03,5.219240532391561382e-04,1.377508696168661118e-02
-4.479296741015560412e-01,-4.677174311789853989e-01,-4.174475494921550123e-01,-2.680821726768506386e-03,-4.474435123561324064e-03,9.183731544916007164e-04,4.481116309762001038e-02
-4.226080891470755385e-01,-4.516103626868969712e-01,-3.947869577250083251e-01,-4.356707068178300273e-03,-2.018642005159199115e-02,8.929035942567394024e-03,6.277438998222351074e-02
-4.309945838451215705e-01,-4.331662615712794095e-01,-4.450664758095042584e-01,-6.615768415652583268e-04,8.997939727426089787e-04,-3.834770811721725792e-03,1.483351085335016251e-02
-3.767352676911230880e-01,-4.440900276291706028e-01,-4.046723814105611661e-01,8.280572564302768508e-04,1.262996265436475661e-02,-4.894050623538568267e-04,6.258411705493927002e-02
-5.079523620984599530e-01,-2.900404422631801538e-01,-6.493254340713960904e-01,1.789509246976244972e-01,-2.619986182386637580e-02,5.648382582466455679e-03,4.432878792285919189e-01
-4.937305433603466076e-01,-3.821168918789068503e-01,-5.552777750464834572e-01,5.746370991958684588e-02,1.225584021013076527e-03,-1.537826363547107082e-03,1.817498654127120972e-01
-4.502638080218839822e-01,-4.639005038400004777e-01,-4.137987716096659385e-01,-7.857821656345270744e-03,1.630243337158677336e-02,-5.388447698035084797e-03,5.552090704441070557e-02
-3.873887563405875589e-01,-5.586725286175270311e-01,-5.364156799964775457e-01,-1.148979814158937809e-03,4.784178235241728222e-02,-1.211914115911169945e-02,1.825715005397796631e-01
-4.262408103938232773e-01,-4.665819373376537960e-01,-4.002146644039427659e-01,2.828454397619026457e-03,2.002778345031607302e-02,3.775343774083621869e-03,6.800578534603118896e-02
-3.862063850918023844e-01,-4.666721788821571182e-01,-4.350059424800292174e-01,-1.207106970040960426e-03,7.655527871089320112e-03,7.777496843903205625e-04,7.149442285299301147e-02
-4.017465525353203226e-01,-4.624249031863449932e-01,-4.621047712135620267e-01,-3.668631624036581846e-03,4.567121483574041428e-03,-4.630787845357785433e-03,6.188557669520378113e-02
-4.005580344267780091e-01,-4.412377933998486434e-01,-4.018363867445868820e-01,7.198795592003726443e-03,1.994437661195001474e-02,1.340174113316815532e-02,5.909396335482597351e-02
-3.832729188206569493e-01,-4.700050380816335749e-01,-4.020852647356410459e-01,-2.239276717736652777e-03,3.845637185535716318e-02,9.001378339097698689e-03,1.045921891927719116e-01
-2.802704814932253097e-01,-4.119794673988211309e-01,-2.327111132049307640e-01,-2.349440552022113646e-02,1.346038821017018772e-01,-2.286611434905214124e-02,2.888811230659484863e-01
-4.564134109483365953e-01,-4.274847001927829515e-01,-4.324756770524783023e-01,3.628965815930900157e-04,6.776388043444955692e-04,-3.977521533627474161e-03,2.768812701106071472e-02
-4.639013951534169400e-01,-4.842330040360431909e-01,-3.622666594285636754e-01,-1.187481252533466140e-02,2.322317236912922744e-02,-2.946461685803159966e-02,1.321168541908264160e-01
-2.837566618702753729e-01,-3.779203976818915622e-01,-4.183854668361258744e-01,6.516964590979493210e-02,1.984704867174146362e-02,8.879862617682714523e-03,1.687426865100860596e-01
-4.111363114690584908e-01,-5.229286936708100741e-01,-5.845496947037831514e-01,5.954526162559015817e-02,-1.729564981391594480e-02,-1.845781409304421763e-02,1.890498548746109009e-01
-3.643127864719528652e-01,-4.380894947173447629e-01,-4.709574223245676095e-01,4.050896509916099980e-02,9.083385877897091204e-03,2.317794385690531787e-03,1.188896968960762024e-01
-3.564496564633496956e-01,-4.174797950834108207e-01,-4.498299276183180817e-01,1.579725935679918147e-02,1.551260038951319707e-04,3.893453395956086123e-04,8.657210320234298706e-02
-4.527876013082210438e-01,-3.960299697648450579e-01,-4.578684518924074909e-01,6.529456611208477382e-03,-3.973942495901716665e-03,-3.344764319098826426e-03,6.119200214743614197e-02
-4.736935672644474460e-01,-4.024548805663391016e-01,-4.641863576728443297e-01,-1.940086923965972029e-03,1.890417279833725992e-03,-3.910311203017161757e-03,6.749770790338516235e-02
-4.440859038004290049e-01,-3.942992903253056403e-01,-4.550210198352412361e-01,2.576088143220589197e-02,-7.371173548143881808e-03,-6.897758494113503946e-03,7.375171035528182983e-02
-3.504976006285174805e-01,-4.463017432601276702e-01,-4.708738845811795137e-01,1.052377511535712573e-02,-4.752137498546971962e-03,-1.868581604007892114e-03,1.120125427842140198e-01
-3.439345287694544062e-01,-4.581017056390476183e-01,-4.717961852796858091e-01,1.776570272794443170e-02,-5.336775478309596123e-04,-2.187819331127867882e-03,1.254879236221313477e-01
-3.015763335418645830e-01,-4.458289344674878918e-01,-4.527461865077549441e-01,3.670677966723213254e-02,3.011648812116502101e-03,2.591115519111536480e-03,1.610714346170425415e-01
-4.364062723442769243e-01,-4.035027338444069356e-01,-4.399923567191703633e-01,4.927031019963345332e-03,-8.590168595394992446e-03,-6.593462708500881682e-03,4.047368094325065613e-02
-4.945609329348673033e-01,-3.903936276826112106e-01,-5.253215781157384301e-01,4.664965544501397526e-02,-1.577595929433036129e-02,-2.262617500927021838e-02,1.543124914169311523e-01
-3.498443887046092660e-01,-4.697294443545291243e-01,-4.729376003068037626e-01,1.447342016743648554e-02,3.922066686371852677e-03,3.762829974350241202e-03,1.244363039731979370e-01
-4.360095095624820227e-01,-4.609487689792898246e-01,-4.373306626105003536e-01,1.031727336950292832e-02,-5.066239407919662097e-02,-1.817683787407331497e-02,9.798637032508850098e-02
-4.253927537835912043e-01,-4.106222962794069398e-01,-4.493044267902462363e-01,4.180532464767425758e-03,-4.669343962480212995e-03,-1.976101567555402921e-03,3.567456454038619995e-02
-4.313290268825133444e-01,-4.404784468171250578e-01,-4.243129453569060017e-01,3.074890953685903948e-03,-1.669416180591789525e-03,-1.599559589648246643e-03,1.554129458963871002e-02
-4.227456190279678672e-01,-4.435071255465179996e-01,-4.337278015512557316e-01,-1.749163857475223832e-03,-2.235848861410098982e-03,3.111643118872545362e-03,1.941299997270107269e-02
-4.297064604896808082e-01,-4.552395025679022433e-01,-4.359129010642714963e-01,4.271748044393602309e-04,-3.017279720251083916e-03,1.227043973932318618e-03,2.375632710754871368e-02
-4.187108749108335859e-01,-4.525389629863204033e-01,-4.319056161518587400e-01,-2.917365297708147953e-03,-6.530415405142912626e-03,2.993208097650169441e-03,3.244129940867424011e-02
-4.274298584711676008e-01,-4.507035877225675224e-01,-4.336157578553067604e-01,-5.322889564958922662e-04,-2.037268522125121415e-03,1.150443407186633576e-04,2.119679190218448639e-02
-4.561887812789832686e-01,-4.109753124664859980e-01,-4.429637214911075205e-01,4.341322419414592355e-03,-1.988608497847619248e-03,-4.472220733389030770e-03,4.182841628789901733e-02
-4.099974715285173432e-01,-4.181606495361748221e-01,-4.516822539391535107e-01,4.006173242032327365e-03,-1.725938599835467315e-03,-2.748225497025269005e-03,3.929021954536437988e-02
-4.298486241007161146e-01,-4.122356339274828585e-01,-4.498396426020510597e-01,4.105170601639298276e-03,-3.881061653903952573e-03,-2.014066193727229691e-03,3.420342877507209778e-02
-5.505782606556735015e-01,-3.310389262275083011e-01,-5.493380890996859556e-01,1.108713576876774187e-02,-7.168047326905735428e-03,2.587924151744107424e-03,2.201585769653320312e-01
-4.420547419908136821e-01,-2.535706218690262914e-01,-4.388984734527184850e-01,4.474689430112962357e-02,-1.054109733676324850e-02,-5.819502576182972869e-02,2.268071919679641724e-01
-4.334287143067683257e-01,-4.425793955673441582e-01,-4.248720494201360665e-01,5.032995772019358341e-03,-1.589679434853026293e-03,-1.952774424281454374e-03,1.817319914698600769e-02
-4.097278874874967225e-01,-4.112951572932178612e-01,-4.493782436257506285e-01,2.238943914768509822e-03,-1.098882427501805901e-03,-1.322282324217073093e-04,3.913027048110961914e-02
-4.027366989676178788e-01,-4.342775407960530742e-01,-4.276683365721781205e-01,1.259503584485024801e-02,-1.283293992152246578e-02,-1.189040417411102273e-02,4.716088995337486267e-02
-4.253749841232588591e-01,-3.678002776417959030e-01,-4.543460702182064992e-01,1.052570614313149550e-02,-3.122686566716681347e-03,7.990666782827913388e-04,7.864930480718612671e-02
-4.616209433873320611e-01,-3.878965069009476241e-01,-4.445244486325132804e-01,1.133045424029498639e-03,-4.002747852615754116e-03,-2.494793967905856863e-02,7.991413772106170654e-02
-3.645076626696960864e-01,-2.501089778802152996e-01,-2.321662417344130813e-01,-2.223379709913091834e-02,2.712032765514631877e-02,-1.175439435242680714e-01,2.461725473403930664e-01
-4.301575875171069763e-01,-4.286532804393882734e-01,-4.527213377822861817e-01,-1.085079798828321061e-03,-3.887928190991190983e-05,-8.374493324042625196e-04,2.347273379564285278e-02
-6.241375328551022061e-01,-3.105863092498600819e-01,-7.098930357707933236e-01,2.606188648165216198e-02,-6.986555377607876760e-02,-6.917128276184562885e-02,4.044655263423919678e-01
-5.659349932945887396e-01,-3.899730113147600319e-01,-5.713601506109426964e-01,-3.358486027875745485e-03,-2.514874594299813804e-02,-3.037677820297796788e-02,1.914318054914474487e-01
-4.322784976583992078e-01,-4.316080766558400561e-01,-4.561284390543358658e-01,-9.840246868975689992e-04,-1.709654096439183692e-04,1.787046228034786454e-04,2.425586618483066559e-02
-4.337506585924078006e-01,-4.377749558155809573e-01,-4.359566882778800889e-01,-1.798642926244956204e-03,-4.984617687294398691e-04,-1.294460002127306242e-04,4.762859083712100983e-03
-4.768152920475491330e-01,-2.701884014592833005e-01,-5.744160991214569689e-01,8.656065555847759774e-02,4.827205339847704876e-03,-4.715500215304919973e-02,3.187577128410339355e-01
-4.585463698659335008e-01,-3.210423903060262152e-01,-4.369074606957332740e-01,-2.535119290038966369e-02,1.513973927184589794e-03,-7.062465737921844178e-02,1.824790537357330322e-01
-4.275012836902113422e-01,-4.342252289511068786e-01,-4.327586938912330039e-01,1.419873725281709138e-03,-2.619968195902936097e-03,-3.778030035192704150e-03,1.034227386116981506e-02
-4.080388550702011008e-01,-4.323627460925534849e-01,-4.438412475766925769e-01,3.227290187315318918e-03,-4.719187468899778935e-03,-8.463616527980891840e-03,3.627073764801025391e-02
-4.138657186565736779e-01,-4.266403298846335179e-01,-4.399687167861851544e-01,1.281840383597039092e-02,-4.179375963404653727e-03,-4.206988380707117788e-03,3.330966457724571228e-02
-4.626096665984862355e-01,-3.948392228453338482e-01,-4.628207165241846610e-01,-4.593328244617909083e-03,5.929124906489166959e-04,-2.884828940900058692e-03,6.853099912405014038e-02
-4.330102899915521109e-01,-4.357277335426072984e-01,-4.494773002574780074e-01,4.165815140347549350e-03,-3.725349178728586813e-03,-4.958923225886815826e-03,2.003168128430843353e-02
-4.348326792616214465e-01,-4.220153478497191135e-01,-4.218650962525024584e-01,1.565428768204819637e-04,-1.277749388146538030e-03,-1.550288472460537308e-04,1.308724284172058105e-02
-4.178149303596748187e-01,-4.304077260892268386e-01,-4.425045704288282367e-01,1.520288135004000665e-03,-1.946132701776736706e-03,-4.898803144667513397e-03,2.339949086308479309e-02
-4.195647288764560168e-01,-4.301408177365644847e-01,-4.279552880294461015e-01,2.219094054515766915e-03,-3.316268013943976436e-03,-4.553555589515228229e-03,1.426486857235431671e-02
-4.396551957881853490e-01,-4.406018595187445874e-01,-4.273761861471752632e-01,3.817800584898949686e-03,-4.816980389483092699e-03,-4.093557661198843345e-03,1.808045059442520142e-02
-4.393534054094140329e-01,-4.403036675199040739e-01,-4.264832558109047378e-01,3.723030348702532129e-03,-8.389805354876749477e-04,-5.947483305667330359e-04,1.495090220123529434e-02
-4.535721860732214172e-01,-4.431194595046603624e-01,-3.879419923000608783e-01,-6.361215743604283109e-03,1.447653042594873943e-02,-1.699353842060745065e-02,7.312327623367309570e-02
-4.307568802483285331e-01,-4.437633871873432057e-01,-4.273138924014321383e-01,1.828366455131170704e-03,-2.215086057327650664e-03,-2.994368997124331744e-03,1.665688864886760712e-02
-4.476437910175360968e-01,-4.579331531505808073e-01,-4.379049553487620594e-01,4.560528505734653265e-03,-6.514385648753913578e-03,-5.994047203850245455e-03,2.446252293884754181e-02
-4.348314821973275346e-01,-4.468029891648371277e-01,-4.251877084395525030e-01,2.502388095913389565e-03,-4.559844358556169527e-03,-4.066052106882250133e-03,2.196657843887805939e-02
-4.363485692156674478e-01,-4.427189874551498150e-01,-4.220438224127823212e-01,4.834199077937201793e-03,-3.106395358975601491e-03,-2.121643691113899929e-03,2.118718624114990234e-02
-4.342833363420127712e-01,-4.467036642370560973e-01,-4.256064511106031345e-01,2.716990638763451277e-03,-1.413725814765661197e-03,-1.399860832653756441e-03,1.927027292549610138e-02
-4.309031303673171442e-01,-4.348085674223766683e-01,-4.574436031444570339e-01,-1.621891855542936453e-02,-4.195768159667546439e-03,2.533995693215141797e-03,3.843479976058006287e-02
-4.282900513512933882e-01,-4.343363639154189659e-01,-4.771347434208747518e-01,-4.476807238274471690e-02,-3.507427346558591313e-02,1.698382588454566341e-02,1.126744747161865234e-01
-4.588756852062600422e-01,-3.468327739477143346e-01,-4.646203170671953098e-01,4.388316750619078790e-03,-2.199589749592339213e-03,1.122059690694141108e-03,1.153530403971672058e-01
-4.234696188364884262e-01,-3.925599877164464568e-01,-4.547879166217536628e-01,-2.424752396716198591e-02,-3.863914845316492128e-03,9.598973351087811395e-04,6.867066025733947754e-02
-4.209884457520050027e-01,-3.857083382700887131e-01,-4.466016392975277749e-01,-2.611581541595661693e-02,-7.677152559737002212e-04,-2.185555117524927773e-03,6.976076215505599976e-02
-4.198226097958096537e-01,-4.355027224127362984e-01,-4.412106807467669478e-01,-6.379036154411862891e-03,-5.386600543559261038e-03,4.933145043155509439e-03,2.549663931131362915e-02
-4.091566676790804880e-01,-4.268937187077678774e-01,-4.594897260656278792e-01,1.720699062189929435e-02,-4.027943169511190649e-03,-2.856882073847498687e-03,5.400610715150833130e-02
-4.222339930883479142e-01,-4.099805332725886542e-01,-4.351356142159057971e-01,-6.473811051566891704e-03,-4.205908276226495192e-03,2.868772648289613300e-03,2.604184858500957489e-02
-4.290131197875776126e-01,-4.217764774389251570e-01,-4.533577152048465786e-01,-1.506250199285273997e-02,-1.040231158362831324e-02,1.260602911122397050e-02,4.799165204167366028e-02
-3.908076904816183972e-01,-2.029813889556681128e-01,-4.154870751201917289e-01,1.099957079809583821e-01,3.146096753440440902e-02,8.748983308951256699e-02,3.205513656139373779e-01
-4.337041945644383723e-01,-4.284004651318547019e-01,-4.452806145087090939e-01,-1.549036289415763002e-03,-3.379111080769007982e-03,2.004219239229092925e-03,1.664468832314014435e-02
-4.282080228537245015e-01,-4.291640396830613824e-01,-4.436809435540672308e-01,-2.915272189059017575e-03,-1.919107257833991761e-03,2.736715526351825214e-03,1.686852239072322845e-02
-4.128272497072086322e-01,-4.081528316127011613e-01,-4.659899644297516019e-01,8.812024910300232661e-02,1.561461381536093616e-02,4.470750911003388423e-02,1.819887310266494751e-01
-4.012290747304024796e-01,-3.968841886596970459e-01,-4.444451102771798667e-01,5.210307930985183869e-03,6.512283969354950046e-04,7.521480573081197390e-04,4.646163806319236755e-02
-4.102626397850369089e-01,-4.293627811599836641e-01,-4.018450015450224511e-01,4.016047900376955304e-03,2.587790641628384073e-03,2.269068570890174497e-03,2.608394250273704529e-02
-4.332149149019759449e-01,-4.391407159591773635e-01,-4.297561863673796112e-01,9.664333341976503967e-04,-1.623679011330894173e-03,-2.283613475352305570e-03,9.691713377833366394e-03
-4.266503949215575964e-01,-4.262987078413471576e-01,-4.364653257817913135e-01,2.153169487253487908e-03,-1.815416239995778927e-03,-3.227024394787937362e-03,1.244769152253866196e-02
-6.015317284912811147e-01,-2.665257517119252739e-01,-6.198594471074765355e-01,3.512063966438688789e-02,-5.938476025508337280e-02,-7.944935926767336676e-03,3.649303913116455078e-01
-4.010512031985993264e-01,-4.061556214334964277e-01,-4.513397690711923316e-01,6.115709413071641551e-03,-9.184152086293654194e-04,-1.519577598722533719e-04,4.912338033318519592e-02
-4.307023552696186419e-01,-4.273190024278091803e-01,-4.289787696975191356e-01,1.972537713632014928e-03,-3.199071827065148085e-03,-1.868714593333074131e-03,7.838208228349685669e-03
-4.130162865938948324e-01,-4.086694747277039297e-01,-4.496133859980876446e-01,2.592092822009367525e-03,-2.125871626739841980e-03,-1.012672449575150379e-03,3.942225873470306396e-02
-4.320899238678935772e-01,-4.260748090696617751e-01,-4.289143300942031556e-01,1.218249108945822440e-03,-3.947294584410056435e-03,-1.366587054497853115e-03,9.163128212094306946e-03
-4.183425611563733049e-01,-4.001831922260472019e-01,-4.587221251985456050e-01,4.912195939466960232e-03,-9.656585804908093817e-04,-1.619583754270665472e-04,5.261943116784095764e-02
-4.356431130499006099e-01,-4.341686711839304880e-01,-4.278395397999039673e-01,1.094144584891627555e-03,-1.171989146685271802e-03,-4.197511755973396203e-04,7.733338512480258942e-03
-4.333824603206882231e-01,-4.251691238943406947e-01,-4.330083484822268014e-01,2.392080079156603135e-03,-6.624761884866521046e-03,-4.073678785333293036e-03,1.622156798839569092e-02
-3.914227973219236989e-01,-4.430715108785207579e-01,-4.475907259640146685e-01,3.814651576561481350e-02,4.388190852338810094e-02,2.418943992517451347e-02,1.217339187860488892e-01
-4.165762873170858471e-01,-3.979719124702654764e-01,-4.537923792199992090e-01,4.624122556476920574e-03,5.050725326125342710e-03,3.298327217462657893e-04,5.064134299755096436e-02
-4.657238853518301802e-01,-3.283951145137067318e-01,-5.442323417554467690e-01,1.663939698873773687e-01,6.581184599196519824e-02,1.107881844696301382e-01,4.107076227664947510e-01
-4.201384322675867922e-01,-4.426307922872407818e-01,-4.356287297509646161e-01,3.618599198633875528e-03,-3.700958431985240400e-03,-5.421174757243628871e-03,2.379041165113449097e-02
-4.036057156308692218e-01,-3.977574458093213194e-01,-4.377674069954626268e-01,5.537305255051805375e-03,4.271914272893097796e-03,2.350061073877209115e-03,3.955137729644775391e-02
-4.319016358598421479e-01,-4.345986698981828544e-01,-4.319299539431101786e-01,3.082273160218401004e-03,-3.597587218842488582e-03,-3.841988883569698917e-03,1.090000849217176437e-02
-4.362006608580382694e-01,-4.420549840815026776e-01,-4.283353908722850600e-01,2.567889226732811628e-03,-3.804438532273932225e-03,-4.079913762412009509e-03,1.597879640758037567e-02
-4.283720788050922601e-01,-4.313184452672929048e-01,-4.516356127458275305e-01,-5.129486226402413902e-04,-6.593138621447020052e-04,-8.358019929474235323e-05,2.198737300932407379e-02
-4.392586389745271602e-01,-4.445677353032376766e-01,-4.301478649226312401e-01,1.643328445324197980e-03,-3.805616267367314433e-03,-4.131087248528753433e-03,1.619598828256130219e-02
-4.412317175088593668e-01,-4.336786736462949210e-01,-4.267929904841217814e-01,2.587600755719681508e-03,-1.591262265320142347e-03,-1.683483453800932970e-03,1.388001069426536560e-02
-4.397276117263427819e-01,-4.339879285178062651e-01,-4.285147018535346852e-01,2.686928571413751705e-03,-3.198458507132785362e-03,-2.550984320057906457e-03,1.289133355021476746e-02
-4.389559403761737477e-01,-4.300527567819807939e-01,-4.256310579029936592e-01,3.926998948723891235e-03,-4.944230583212561557e-03,-4.182677683418242233e-03,1.761448010802268982e-02
-4.075077619871999013e-01,-4.537880574087183594e-01,-4.623995938834865038e-01,2.012830491351314671e-02,-7.448252695486238736e-03,-1.023432332573463027e-02,6.565567851066589355e-02
-3.135988879452370481e-01,-3.844756233403370804e-01,-4.632086609618501494e-01,9.202238304453039253e-02,-7.202692537839532061e-02,-5.143071614589321550e-02,2.563319802284240723e-01
-3.712032193793465829e-01,-4.826822603590347760e-01,-5.672349363537693145e-01,9.682477821753554537e-02,-7.884212591860569053e-02,-1.903396045996256017e-02,2.772414386272430420e-01
-2.331313473234170597e-01,-3.941711922280286551e-01,-4.485194551408903108e-01,9.143608818217816014e-02,-1.798794812641283519e-02,-1.958284898045548755e-02,2.546421885490417480e-01
-4.566309862512486495e-01,-3.507076092864274131e-01,-4.413097267304117999e-01,2.168134131696738097e-03,-3.064313331420514663e-03,9.441136917055645977e-03,1.007040292024612427e-01
-4.012665134197132000e-01,-4.494761246361080875e-01,-4.776980901339800689e-01,2.996539729981811603e-02,-1.253264434304512086e-02,-6.338909100933472728e-03,8.812909573316574097e-02
-4.259622514531484772e-01,-4.232966301439474166e-01,-4.511421969601995818e-01,-5.051402713570992201e-03,3.713544959969209531e-04,-5.488092147113357843e-05,2.802192233502864838e-02
-4.271058257012049220e-01,-4.190515588310865236e-01,-4.299321552447386008e-01,-3.297501801347977549e-03,-4.808677154490395220e-03,3.044800316670121833e-03,1.501420885324478149e-02
-4.297170017927231522e-01,-4.451091342546603657e-01,-4.350950387137579867e-01,-1.049525449490193050e-03,-3.661917865149967718e-04,4.657485312030588487e-04,1.369011029601097107e-02
-3.182580967511907111e-01,-3.846529262062098886e-01,-6.183188297238642051e-01,1.634197319349767474e-01,1.849374105633591267e-02,-1.480042702356579483e-02,3.953776359558105469e-01
-4.327212615560611098e-01,-3.980617518486889717e-01,-4.480452960497086079e-01,-4.318120638054208371e-03,-3.221685503486044263e-03,-9.903118871271061625e-04,4.535691440105438232e-02
-7.417390324818022851e-01,-4.014335957874735628e-01,-5.257342068655797007e-01,-5.491621310436758940e-02,-5.343917282177251815e-02,1.787143451925361226e-01,4.498769938945770264e-01
-2.661330486219570246e-01,-3.921798858775578100e-01,-2.963710582514466063e-01,-1.201927245639517784e-02,-1.021349117701866455e-01,2.830246198095777432e-03,2.115248888731002808e-01
-3.595559734960086518e-01,-4.486547440897593608e-01,-4.651119950935265202e-01,5.661468162238649654e-02,-1.305354643833660407e-02,2.715534552663113541e-03,1.408003121614456177e-01
-4.416976175168678687e-01,-4.479298980498380156e-01,-4.288068632820912218e-01,2.683047804632461390e-03,-3.765034678155386233e-04,-1.236343441774362525e-03,1.766235567629337311e-02
-4.290623843526557568e-01,-4.503329977125523631e-01,-4.333720193608572857e-01,-1.739055846975827782e-03,-1.779311835420376324e-03,3.205220839307318902e-03,2.070590481162071228e-02
-4.192712663851957955e-01,-4.390397563165735484e-01,-4.332467994357215302e-01,-1.846995632802093208e-03,-2.934157976428404015e-03,5.721909534867676041e-03,2.107406780123710632e-02
-4.384931703598966002e-01,-4.247907605037158918e-01,-4.592808342373836950e-01,-3.400382946478216518e-03,-1.385176040419138855e-03,7.622394362775131984e-04,3.077192045748233795e-02
-4.191799293338562826e-01,-4.351076279436040806e-01,-4.333956891031923164e-01,-1.878194684445698816e-03,-3.968370464314599499e-03,5.191974246421326294e-03,1.918467134237289429e-02
-4.287813111535103139e-01,-4.424657515173606170e-01,-4.363786299494287202e-01,-3.752617524945323405e-04,-4.969471698125609016e-04,1.465867220073705391e-03,1.219129748642444611e-02
-4.655628697006901628e-01,-3.448282474658158625e-01,-4.630624650630019712e-01,1.563387174884988936e-03,-1.650424016156045197e-03,7.856854163358758733e-03,1.203408092260360718e-01
-4.646452239667419604e-01,-4.369582206103101440e-01,-3.767086219615735088e-01,-3.180485182155279398e-03,-4.833306688265938053e-03,1.336463740984536464e-02,8.185954391956329346e-02
-4.556307605198641197e-01,-3.942611618237477633e-01,-4.539876290852855045e-01,-1.889610110758623094e-03,-6.288156685951841809e-03,4.847465508867423480e-03,6.219258531928062439e-02
-4.307756645668301965e-01,-4.437942561045429279e-01,-4.387510958346859669e-01,-4.195960674343819814e-03,-6.793246676324630161e-03,4.844131810681539911e-03,1.977174915373325348e-02
-4.511521984696577059e-01,-3.444148633157461115e-01,-4.396196788769080599e-01,5.757575747331147506e-03,1.801467937563170502e-03,8.579142210687902559e-03,1.030771434307098389e-01
-5.032288135737131851e-01,-4.962228411641271264e-01,-4.557246019965651151e-01,-3.282130628482575474e-02,-5.720016275518585019e-02,1.880668011146984300e-02,1.268120110034942627e-01
-4.335388481603615340e-01,-4.155673700094337231e-01,-4.096856779402899829e-01,1.340472493018748977e-03,1.808274784751651805e-03,2.117466276571766063e-03,2.217931859195232391e-02
-4.394219348375720813e-01,-4.469578589595913365e-01,-4.180592325319819058e-01,-9.963135372281920268e-03,-1.171386315790082060e-02,1.054538579718100610e-02,4.143904522061347961e-02
-4.365391231297734986e-01,-4.531453892833176011e-01,-4.461572861141467894e-01,-5.631905739591208139e-03,-9.591843341735647663e-03,6.997708542163318633e-03,2.695597521960735321e-02
-4.406115679025639498e-01,-3.461643682109928344e-01,-4.514010688797829851e-01,9.316781823412946875e-03,2.025775785366707490e-03,5.751895397011889434e-03,1.021160930395126343e-01
-3.945785958846386166e-01,-4.163015680406434993e-01,-4.538673066971681269e-01,4.860759249229871203e-03,-1.612306534678130502e-05,1.564428325675911238e-03,5.270043388009071350e-02
-4.314319567016438595e-01,-4.073325961309385845e-01,-4.433353821459178334e-01,-6.595863169086607115e-03,6.429698056343002496e-03,-4.807247579157776160e-03,3.651306405663490295e-02
-4.270363944242883680e-01,-3.760802293355768322e-01,-4.408809304722568490e-01,-1.258838372136663296e-02,-9.017477476727119023e-03,8.558159394250206345e-03,6.657882034778594971e-02
-4.268745455541665956e-01,-4.126348601934596294e-01,-4.457935428199661931e-01,-6.694178458830533744e-03,-3.381134504340440119e-03,2.185261339951134058e-03,3.183011338114738464e-02
-4.090773587819642731e-01,-4.047186006939945679e-01,-4.480472018370819098e-01,9.513002527006268055e-03,4.647104644724862031e-03,3.766262148439778086e-03,4.567647352814674377e-02
-4.260481108559165397e-01,-4.108215432224982533e-01,-4.453743132438506835e-01,-6.414346402279395148e-03,-3.281751744437079975e-03,2.733371927782336265e-03,3.282951936125755310e-02
-4.391996708930687165e-01,-4.236093877150475806e-01,-3.748095851900754560e-01,8.739890861388864909e-03,6.183443995214722537e-03,6.543111844600458041e-03,6.210941448807716370e-02
-3.828695677566685274e-01,-4.062174660750133559e-01,-4.385973799377085869e-01,2.334931436833083060e-02,1.603932403307477619e-02,1.841546084659459112e-02,7.598897814750671387e-02
-4.323058228308182538e-01,-4.287506260405273828e-01,-4.561241250842267836e-01,-3.444819687895150570e-03,1.010876415460215644e-04,-6.936593465323613292e-06,2.646244131028652191e-02
-4.339930448328072621e-01,-4.457770338716798286e-01,-4.290496241506751574e-01,4.450115084416479813e-04,-9.286550994091623441e-04,-9.385456295337063536e-04,1.507902331650257111e-02
-3.820069126057535902e-01,-3.062400468365836792e-01,-4.141388862597469855e-01,6.659604570325289297e-02,2.890802162346756479e-02,4.248370073892805687e-02,1.744543910026550293e-01
-4.280093170500540722e-01,-4.199228584792656371e-01,-4.385982174102907027e-01,-4.410237255782679770e-03,-4.340938196217723408e-03,2.701687066425867336e-03,1.999803632497787476e-02
-4.603061261817124050e-01,-4.652874079754207859e-01,-4.718587562518562484e-01,-2.016597802590788108e-02,-1.462435167745791860e-02,1.289215858446943024e-02,4.960814118385314941e-02
-4.106298480291132869e-01,-3.951517085421778486e-01,-4.393110819970472147e-01,2.852651117084106618e-03,5.402179879796105769e-03,1.771533487925275535e-03,4.034224525094032288e-02
-4.274404171768118599e-01,-4.331988873473540669e-01,-4.484521110687342271e-01,-5.993569019739886615e-03,-4.376636682563371863e-03,4.530017720450308684e-03,2.409258484840393066e-02
-3.636138744061541139e-01,-4.617114255564023217e-01,-4.636746634668178491e-01,-2.772621068210912466e-03,5.283373750901530904e-04,-7.688885021476539851e-04,9.922321140766143799e-02
-4.352410263914991417e-01,-4.408617558615292031e-01,-4.224649534683868612e-01,6.244412462928458987e-03,-3.986551312207818262e-03,-2.623985488349245710e-03,2.125895582139492035e-02
-4.414670789761889202e-01,-4.397357520752405713e-01,-4.264659292518004352e-01,3.419434308902978125e-03,-1.064021496935834343e-03,-1.750864051108379661e-03,1.580286957323551178e-02
-4.243317220082397645e-01,-4.287821713172965121e-01,-4.118729221058374801e-01,-1.026136408157262911e-02,-1.157040911016479073e-02,9.857265012560312636e-03,3.520628437399864197e-02
-4.011894253553065504e-01,-4.201191624256258583e-01,-4.354613524702274918e-01,1.324203238257086294e-02,9.526864755461095929e-03,9.788915130616309898e-03,4.438409209251403809e-02
-3.781121513083723906e-01,-4.576214148745896826e-01,-4.541555420850482139e-01,2.218073342241727672e-03,-2.135518031583977499e-03,-5.562306966544144568e-03,7.860931754112243652e-02
-4.437531547658985498e-01,-4.342121079704500120e-01,-4.257635740130641389e-01,2.999909996677309950e-03,-1.520773975795834329e-03,-1.361013469053927970e-03,1.680805906653404236e-02
-4.444394437273537779e-01,-4.307297313010396422e-01,-4.266986789381751466e-01,4.571562411214371083e-03,-6.141482108391421030e-03,-5.199670781123038633e-03,2.272511459887027740e-02
-4.266961636223983168e-01,-3.947417298419621523e-01,-3.962699383398594066e-01,8.916625847249608217e-03,8.579592532770621491e-03,1.209607558845401942e-02,4.327678680419921875e-02
-4.409942742198264543e-01,-4.343713441998627300e-01,-4.160215679509589037e-01,5.734540868847930878e-03,-2.778113408866401696e-03,-5.757669411173937761e-03,2.689549513161182404e-02
-4.493323538769524172e-01,-4.384996349754169964e-01,-4.325443841795931776e-01,2.318525613810963528e-03,-3.056365487311257009e-03,-2.772151193977203699e-03,1.686800643801689148e-02
-4.361604454423535504e-01,-4.313892993773178475e-01,-4.357813681148548501e-01,6.111441990234754880e-03,-6.866225847527570800e-03,-7.210036742115200417e-03,2.074938826262950897e-02
-3.368972371925627041e-01,-4.733084232908998934e-01,-4.777737156920678352e-01,6.037518736299698693e-03,-1.946656171782399671e-03,-4.455297830203533947e-03,1.393461078405380249e-01
-4.105630583172525383e-01,-4.457193401388280241e-01,-4.465602525093355646e-01,-7.304893189734045118e-03,-4.226368546903887073e-03,7.831701133885525870e-03,4.079107940196990967e-02
-4.515531813283565343e-01,-4.293972344712113642e-01,-4.064103014740905739e-01,6.058155716886916980e-03,-5.596778440081554701e-03,-2.080147086775876661e-02,5.505235120654106140e-02
-4.510873247082931026e-01,-4.140857659414346470e-01,-3.969171398289732533e-01,-1.614266582469710536e-03,-7.755297936958357877e-04,6.559594399731461661e-03,4.937458783388137817e-02
-4.516758018123848140e-01,-3.657822427372022789e-01,-4.237970018627257862e-01,-2.003832119999167816e-03,-3.348772082034638057e-03,3.583510327017647851e-02,9.827753901481628418e-02
-4.334757351770699985e-01,-4.352845393991026657e-01,-4.369854470495732057e-01,-6.045318826056784870e-04,-7.197024335300811800e-05,7.751629775920717766e-04,3.486548084765672684e-03
-4.356821266036718932e-01,-4.339070972568656037e-01,-4.518055216552256947e-01,-6.635946801270024495e-03,-4.851767655164001061e-03,5.352525195316459525e-03,2.409167960286140442e-02
-4.421658687227450479e-01,-4.179641196560985317e-01,-4.515860740399932349e-01,-3.699960281653217210e-03,-4.385167549171837924e-03,1.604333236997251355e-03,3.176366165280342102e-02
-4.298842999892875660e-01,-4.355512723477428794e-01,-4.358701988924937321e-01,-7.642933481104131985e-04,-8.614375141837489090e-04,2.343447244466144235e-04,6.177948322147130966e-03
-4.502822011491734999e-01,-3.984861171629457965e-01,-4.383620280770901823e-01,1.501721597968913070e-04,-5.827089323569979544e-03,5.133761412588581062e-03,4.887234047055244446e-02
-3.570381174311494377e-01,-3.333234748569529615e-01,-4.388167601492545811e-01,-9.597197681717652140e-02,-1.011118643398508515e-02,-2.312706611557551438e-03,1.927280426025390625e-01
-4.426405177022541548e-01,-3.752156770669241026e-01,-4.440689516544691351e-01,-1.397977150826000678e-03,1.384438380704941735e-03,-4.454144784832661692e-03,6.867017596960067749e-02
-4.294412369803058960e-01,-4.413562594440619824e-01,-4.340685701176314470e-01,-2.263357612124088092e-03,-2.120874355613505246e-03,2.419892129383607871e-03,1.243686117231845856e-02
-4.587907269496472873e-01,-4.510985939747538254e-01,-4.055937302256599208e-01,6.126289648436123413e-03,-4.489140531784237276e-03,-7.839945417453092133e-03,5.326665565371513367e-02
-4.309620075255186644e-01,-4.394558899830503518e-01,-4.346688278757604995e-01,-2.274874144257497087e-03,-8.861946292190834998e-04,1.130252438569857507e-03,8.724382147192955017e-03
-4.332307580268107139e-01,-4.267655570577501001e-01,-4.295652721566790011e-01,-1.667783832599971329e-03,-3.610950084186458076e-03,2.107024299750259212e-03,9.608150459825992584e-03
-4.408393587272085301e-01,-4.058650376393752590e-01,-4.042898180892243176e-01,2.524750176129342098e-03,1.368289018530750682e-03,1.302806017002766702e-03,3.620232641696929932e-02
-4.343165924014822377e-01,-4.257295687397427697e-01,-4.288107056544165352e-01,-4.139408213807153208e-03,-3.903695429692763137e-03,4.003268405620629897e-03,1.421167422086000443e-02
-4.399678069312341067e-01,-4.323583133636440534e-01,-3.549461171014788308e-01,8.912580196214575645e-03,2.777371729458933888e-02,3.642087754017146045e-02,1.147671639919281006e-01
-3.680450741581992036e-01,-4.472527742275251850e-01,-4.454085894840024706e-01,4.846996671797578621e-03,6.657170814079455337e-03,9.684160577574645046e-03,8.133861422538757324e-02
-4.993154266202795566e-01,-2.759668351721146773e-01,-6.104955518397440217e-01,8.143001398509398803e-02,-2.513247858720408286e-03,-3.853589612184907948e-02,3.338324129581451416e-01
-4.161662669632217315e-01,-4.291405799471991189e-01,-4.275810425601481723e-01,-8.736354450534696350e-03,-1.239166153217102773e-02,1.033717415469865251e-02,3.406954556703567505e-02
-4.404066216641793763e-01,-4.027665997460550540e-01,-4.161680559233357224e-01,2.144446254175274517e-03,6.416438166181604938e-03,2.498518473921393802e-03,3.532668948173522949e-02
-4.152678629588494319e-01,-4.465035309427393129e-01,-4.717312349482224998e-01,-3.291270873591928964e-02,-1.366411801432423044e-02,7.341164811902564126e-03,7.982261478900909424e-02
-4.047575427289614169e-01,-4.128018876060353670e-01,-4.125153285399800196e-01,1.483790360949201106e-03,2.546207247716463645e-03,7.531069036364287060e-03,1.608396135270595551e-02
-4.339128825161216452e-01,-4.226524862440794172e-01,-4.454673753840003303e-01,-1.382802877758193029e-02,-9.732329070588756695e-03,2.009183348817466727e-02,4.959086701273918152e-02
-4.068905751819799632e-01,-4.088110126139518075e-01,-4.373889787193409040e-01,8.657062078078465008e-04,1.021624369638501721e-03,3.075634841313995300e-03,3.015009872615337372e-02
-4.137400169318113941e-01,-4.183737563716349861e-01,-4.161504213712337030e-01,6.471295574023532005e-04,1.491513908325280309e-03,2.589153627969641852e-03,6.644826848059892654e-03
-5.302854775138463594e-01,-4.907364055842888817e-01,-4.586684091955978704e-01,-1.666382107217329600e-01,-1.052936135195055856e-01,9.004798395597850280e-02,3.804625868797302246e-01
-4.159750396543697160e-01,-4.204298131803170246e-01,-4.103663809783605898e-01,3.088969072374598505e-03,1.644831469410387974e-03,1.927649063011345736e-03,1.114344876259565353e-02
-4.170333039557642674e-01,-3.985247666247169196e-01,-4.431921285200888794e-01,2.110951928422844480e-03,7.048593427775023436e-03,1.867270769557791924e-03,4.103520512580871582e-02
-4.105772393013997212e-01,-4.106709687630581418e-01,-4.260330365691635812e-01,3.387953890738330180e-04,3.296139507099238048e-03,6.196105458220716074e-04,1.647821255028247833e-02
-4.347761864798694864e-01,-4.577104241549004304e-01,-4.728154358557788428e-01,-2.528554646395684072e-02,-1.864381644371068333e-02,6.587731132968390087e-03,6.474263966083526611e-02
-4.001575500465866519e-01,-4.063984953108494280e-01,-4.397380529523801096e-01,4.284502034332536742e-03,2.184789317633449839e-03,4.984326405586298782e-03,3.876167163252830505e-02
-4.331556577833006183e-01,-4.354466574431111181e-01,-4.539007077426227554e-01,-1.091074212060059436e-03,-2.602178907450082221e-05,2.060112431434045022e-04,1.979342289268970490e-02
-4.332507981669708186e-01,-4.557490720895134850e-01,-4.726875385767924653e-01,-4.933884074987653079e-02,-3.748039961911935058e-02,2.258501751764374274e-02,1.192548722028732300e-01
-3.556418805442302933e-01,-4.145198425224498884e-01,-4.053451877991109398e-01,-8.024225793599547296e-02,-8.432497821343193367e-02,4.293387406660779254e-02,2.217862010002136230e-01
-3.633541268078328557e-01,-2.345279097387149569e-01,-3.320926469751310783e-01,-1.045948684499953818e-01,-7.132508930154259075e-02,9.872032697187417549e-02,3.014388084411621094e-01
-4.528885534966653470e-01,-4.286354715816396710e-01,-4.315009450170848027e-01,-1.925337543341252471e-03,1.206847646807209613e-03,-5.208269264721328805e-03,2.497588470578193665e-02
-4.399575954398323718e-01,-4.210465278110572251e-01,-4.422039505834706730e-01,-1.631818712034924018e-03,-5.606847637373410867e-03,1.690251352889276864e-03,2.271618694067001343e-02
-4.238033916607955587e-01,-4.452902488018574134e-01,-4.470121369469703954e-01,-2.093129263089935251e-03,-2.134444192680585994e-03,5.087759900663811619e-03,2.461940050125122070e-02
-4.556199470037441412e-01,-4.311248379343038950e-01,-4.294907722454551213e-01,-2.801823353176774079e-05,1.352643933358988566e-03,-4.734301435194222460e-03,2.674769610166549683e-02
-4.303410369796201729e-01,-4.377344653430416677e-01,-4.354012379183946901e-01,-1.340082979305942798e-03,-6.436301776624435292e-04,6.689722879499853531e-04,7.129446137696504593e-03
-4.405668555229270700e-01,-4.215929900134847697e-01,-4.432512867179960736e-01,-1.627191377771319489e-03,-5.341344773986031989e-03,1.638369317122421618e-03,2.279766835272312164e-02
-4.538596115500388439e-01,-4.292852430426313259e-01,-4.337126217144869345e-01,5.928051400245351664e-05,7.499094479935801590e-04,-8.344935256357467962e-04,2.277033217251300812e-02
-4.569165742365156047e-01,-4.267822593280929944e-01,-4.070554160860378468e-01,-7.508917681731415612e-03,4.019080597377380597e-03,-2.258177721522821105e-02,6.032495945692062378e-02
-4.499461234588360559e-01,-4.299788694605347072e-01,-4.313570814354580341e-01,-8.607977905386175917e-04,5.397405898970586424e-04,-1.345237456380804020e-03,1.953451894223690033e-02
-4.318034299286724886e-01,-4.393297421246149526e-01,-4.379668903674936442e-01,-1.241524434338612745e-03,-1.179741332648967609e-03,1.990130697837507942e-03,8.302221074700355530e-03
-4.410161203670985852e-01,-4.517380864001589447e-01,-4.393679609139661268e-01,-5.169630382929593995e-03,-6.360879517683199098e-03,3.196592710350604997e-03,1.917187310755252838e-02
-4.446076152469502496e-01,-4.470679421284027288e-01,-4.145912461056685538e-01,-9.267514183797077518e-03,1.429997709973390881e-02,-1.408121018467766578e-02,4.946570098400115967e-02
-4.505765687365220762e-01,-4.302327197580492202e-01,-4.316544459083717089e-01,-1.005721978598419098e-03,5.015518183535455556e-04,-1.340688526183753072e-03,1.990355551242828369e-02
-4.337379147380303612e-01,-4.043377932358607207e-01,-4.107201252549904646e-01,1.512249711935037197e-03,4.388198034504963395e-03,1.119640502305648119e-03,2.803302183747291565e-02
-4.498166481198787037e-01,-3.972610317327184837e-01,-4.349956624492054003e-01,3.424533492013115800e-04,-6.417957440564299627e-03,5.600657200998701395e-03,4.920216277241706848e-02
-5.991406454873116072e-01,-1.801576372504602452e-01,-5.242185707532056593e-01,-3.349423946469599206e-02,-1.145787813281129441e-02,3.167721329857973306e-02,3.956498205661773682e-01
-4.397657195657514451e-01,-4.351807405867795242e-01,-4.237907338261363566e-01,-5.481425468791419585e-03,-1.053243764779820350e-03,3.563667002847604602e-04,1.722858846187591553e-02
-4.731006290294960115e-01,-3.412443844645077773e-01,-4.683640992891691113e-01,8.984816257480127133e-03,8.843063619468432245e-04,2.782673127790688886e-03,1.305822283029556274e-01
-4.374453110824525481e-01,-4.238407308650035676e-01,-2.734977750522619155e-01,-7.711995752900037589e-04,5.805321007185861720e-03,3.114834814954102818e-02,1.668741703033447266e-01
-4.770829988206763961e-01,-4.823877367839043973e-01,-3.789301089519279131e-01,-1.166321995703319386e-03,-7.107936185334347290e-03,8.376005908030217592e-03,1.027079671621322632e-01
-4.738884307954685515e-01,-4.639035813359608240e-01,-3.469223755165311562e-01,-2.134910339146848472e-03,2.238698075035840725e-03,5.780262480761209909e-03,1.228058710694313049e-01
-4.440543948977441202e-01,-4.393233292071684337e-01,-3.310583669552797370e-01,-8.833693116016973906e-03,-2.037685079522180698e-02,1.914138153746200444e-02,1.217982843518257141e-01
-4.610938436329064527e-01,-4.592260934710028497e-01,-3.663365415776305700e-01,-7.260099143844196863e-03,-1.184303117409834551e-02,1.313305231588694950e-02,9.950769692659378052e-02
-4.504521950145734532e-01,-4.179209934809658966e-01,-4.109724527714478937e-01,-2.121589026974700365e-03,-3.108949428068442846e-03,5.131557801572639993e-03,3.813271969556808472e-02
-4.427264273770691316e-01,-3.887493176316853538e-01,-3.954902002102093084e-01,5.087961362665597426e-03,5.340767481326694384e-03,1.412469248150485281e-02,5.793849006295204163e-02
-4.511936090994955184e-01,-4.446029135883042827e-01,-3.610392613873456003e-01,-7.167851925866073302e-03,-1.549998820791045895e-02,7.319803557362813615e-03,9.280455857515335083e-02
-4.679200516018767741e-01,-4.501636913687100949e-01,-3.890194426352051038e-01,-4.885468467593338630e-03,-6.563217051987401893e-03,1.404881778503838663e-02,7.702302187681198120e-02
-4.619298861738776463e-01,-4.467381131771473446e-01,-2.974011629209235563e-01,-6.775301523567178394e-03,1.304462109065866911e-02,2.561781203667727602e-02,1.655838936567306519e-01
-4.518307239618039040e-01,-4.131081258526620448e-01,-3.810550475880356003e-01,5.599092365657567551e-03,2.235575521540511361e-03,9.638397653825566541e-03,6.446515768766403198e-02
-4.510661358848042646e-01,-3.989936343590946288e-01,-4.181530923161287383e-01,3.768866887761189812e-04,-2.341985374581081851e-03,4.016944961360621041e-03,4.632750526070594788e-02
-4.456926804764027583e-01,-4.108556613791060075e-01,-3.807425082693797203e-01,5.495780934853536186e-03,3.173606846721235917e-03,9.349788918343619401e-03,5.960330739617347717e-02
-4.532334355558468308e-01,-3.801425472297957353e-01,-4.307408670093971770e-01,2.699249503378947385e-03,-2.535229312867734279e-03,7.605373602683214440e-03,6.647448241710662842e-02
-4.474415756721460968e-01,-4.085342333137577664e-01,-4.055275998801603499e-01,2.104337789088799471e-03,1.072030720152371622e-03,1.016364141211931540e-03,4.073859006166458130e-02
-4.473388311078779767e-01,-4.025028580519386390e-01,-3.982966344817982507e-01,3.943238408771519514e-04,8.465094314269541211e-04,7.513308755622139304e-03,4.887241125106811523e-02
-4.276457480186479088e-01,-3.950353654491829403e-01,-4.303177336359002014e-01,3.390849057440241399e-03,8.037749753943196351e-03,3.924595507863145975e-03,3.784479200839996338e-02
-4.551123780150047593e-01,-4.641160679276120082e-01,-4.055535136699044974e-01,8.154791378664266385e-03,2.136859787348605044e-02,1.378512841559492372e-02,7.157375663518905640e-02
-4.440749613734876200e-01,-3.987043545189466465e-01,-4.161368981436744385e-01,2.289810047363951932e-03,7.510236930628247203e-03,1.309086562351350919e-03,4.197072982788085938e-02
-4.387252015755981338e-01,-3.747062122903254688e-01,-4.238152620207727983e-01,3.951500897876959566e-03,8.180843122635549428e-03,5.499931146201020478e-03,6.086532026529312134e-02
-4.068257816299953311e-01,-3.996859987170268136e-01,-4.454873630920436756e-01,5.265385535392645179e-03,4.582745448484202080e-03,2.104996275943320314e-03,4.451067373156547546e-02
-4.090513175892072639e-01,-4.093460233554210848e-01,-4.138160339153855727e-01,2.002788956700388319e-03,1.892117881559170298e-03,2.617219872263105550e-03,8.044160902500152588e-03
-4.119732256025874784e-01,-4.131322862035815002e-01,-4.109073651606255928e-01,4.219487490681291669e-03,4.332297810849424641e-03,3.830341275913460609e-03,1.254783105105161667e-02
-4.438191363163423442e-01,-4.079617832818382417e-01,-4.108890040857416381e-01,1.374810579022837237e-03,2.915617350406791812e-03,8.630447771116147356e-04,3.496803343296051025e-02
-4.459814267159122325e-01,-4.142663490054818154e-01,-3.808308546286766627e-01,5.008789897096162583e-03,-3.462328574991369382e-03,1.487723232460471355e-02,6.292384862899780273e-02
-4.418563515814883935e-01,-4.010943518860708989e-01,-3.970349204303979529e-01,3.350123019142262418e-03,1.719092186153010080e-03,4.868237427492907478e-03,4.423940554261207581e-02
-4.108978968020968181e-01,-4.187649482233657405e-01,-4.122159151449614201e-01,1.828464343319991274e-03,1.479370802765504062e-03,3.504307997600512089e-03,1.032931450754404068e-02
-4.181449246137064479e-01,-4.004194985899373616e-01,-4.288127579797222366e-01,1.937978296479888089e-03,6.777565126542676663e-03,2.116427042999272264e-03,2.792125567793846130e-02
-4.141186620850576539e-01,-4.113942492284611840e-01,-4.191820471773538559e-01,1.966494440540404124e-03,3.988706280050854751e-03,1.768146679866901662e-03,1.075010281056165695e-02
-4.325103303197724847e-01,-3.855676135069963650e-01,-3.517370486295998688e-01,6.297214790955180455e-03,8.249628484990490646e-03,3.735631717964049692e-02,9.718971699476242065e-02
-4.478897634607758027e-01,-4.049268276058906046e-01,-4.065810245175744964e-01,6.257091823553168368e-04,1.081708478954398946e-03,1.435370819890327337e-03,4.228884726762771606e-02
-3.900047920054362516e-01,-4.227120713339113656e-01,-4.129358625213189748e-01,1.278861036742117048e-02,1.802866695319476492e-02,1.606436853878636523e-02,5.554748699069023132e-02
-4.532385126127359554e-01,-4.123161190738852122e-01,-4.078676322122901099e-01,7.214172455855983202e-04,-4.494259505055366250e-04,2.075085803398262797e-03,4.349206015467643738e-02
-3.969058460425058388e-01,-3.934117865204760367e-01,-4.415111177828472955e-01,1.642634096420987969e-02,-2.077085043583423545e-03,-3.078126983881717890e-03,5.485010147094726562e-02
-4.056311849947492054e-01,-4.190687562906879049e-01,-3.998225942318974768e-01,3.473651456024545725e-03,2.308003841573855186e-03,7.128248695807913246e-03,2.229297161102294922e-02
-4.717322417866824935e-01,-3.931534344926194691e-01,-4.623353904691144267e-01,3.677544185673679855e-02,-1.286856686680909467e-02,-1.173272591688268723e-02,1.024285405874252319e-01
-4.426309902857510359e-01,-3.747391593135003252e-01,-5.074449341965066029e-01,4.640957213119133173e-02,-2.197719085157858604e-02,-2.837044805939382963e-02,1.534133851528167725e-01
-3.881539900468754523e-01,-3.976990751009241154e-01,-4.550859074519104097e-01,-8.297089152569490922e-02,-4.516871365986152576e-02,1.711922527872924982e-02,1.777201890945434570e-01
-4.301698399107209414e-01,-4.364937155784913148e-01,-4.408808822351134582e-01,-2.629207518157265734e-04,-5.468662825795414907e-04,5.573047422408575376e-04,9.434981271624565125e-03
-4.344260416941838066e-01,-4.339473509567395304e-01,-4.405753448084270274e-01,-5.550863764283740310e-04,-1.999738921544554678e-03,4.487912529179991319e-04,7.383234798908233643e-03
-4.374468293617650438e-01,-3.830178591358646689e-01,-4.450275228001627781e-01,-9.661645527524747798e-03,-8.155568398338150851e-03,8.510365198256744992e-03,6.426079571247100830e-02
-3.910232867268012003e-01,-4.515084346014852645e-01,-4.325802627853461146e-01,1.840149999063003458e-03,6.936109241321829037e-03,-4.443672405393366410e-04,5.501759052276611328e-02
-4.048101504755381996e-01,-4.884502510796806529e-01,-4.355282238910130332e-01,-6.825118623304540603e-03,5.606512773325170867e-02,4.703231770177304302e-03,1.224990114569664001e-01
-4.284106915320649578e-01,-4.364376230217979491e-01,-4.356772093400419488e-01,-9.674598713557778368e-05,-6.168920590147491034e-04,1.023074039781488335e-04,7.752884645015001297e-03
-4.011510620680750483e-01,-4.499446863340196279e-01,-4.129570331609846989e-01,4.045513665225414939e-04,6.629878045054042601e-03,-5.824459785532762899e-04,4.557978734374046326e-02
-4.171705108128944128e-01,-4.551735564571362525e-01,-4.158065036177407414e-01,1.569918544841337332e-02,2.925555747773931486e-02,1.567929685204622753e-02,7.444800436496734619e-02
-4.303289949091155253e-01,-4.319917033056997480e-01,-4.303424381083972294e-01,-6.169478554547102840e-04,-1.674123707035346520e-03,4.238150486471796213e-04,3.582070581614971161e-03
-4.453790278103266775e-01,-4.055919072040944373e-01,-4.389475363299374933e-01,-8.450561780537553525e-03,-9.111893194822485650e-03,4.100173679281611354e-03,4.338477179408073425e-02
-3.575220564237500120e-01,-4.975430774782486076e-01,-4.353338234826626962e-01,7.414856667039169610e-03,6.130013740837723935e-02,1.738037643006613495e-02,1.646498292684555054e-01
-4.312928934899151190e-01,-4.314281288611821474e-01,-4.361872668093313421e-01,-7.054140687569618404e-04,-3.226900164345518959e-03,9.069485243996067234e-04,7.649211212992668152e-03
-4.433635910641179345e-01,-4.290786784076012772e-01,-4.394937397398323009e-01,-1.588665402259479371e-03,-3.232336838105777203e-03,1.305988408284841380e-03,1.441479753702878952e-02
-4.443475002064616874e-01,-4.118416316755823536e-01,-4.260686667148061435e-01,1.529805606824043672e-03,-3.420220087061796432e-03,-7.251051781484513931e-03,3.156621381640434265e-02
-4.443182520079801967e-01,-4.048031723064895449e-01,-4.237473158661849704e-01,1.442938526257050037e-03,-1.327005098158848912e-03,-8.274923019950940206e-03,3.726519644260406494e-02
-4.351350348390347622e-01,-4.225000017791584184e-01,-4.218474514718240642e-01,-1.051877237139033560e-03,-2.531736867554663668e-03,1.232300654795585350e-03,1.397923380136489868e-02
-4.404675033972618170e-01,-4.085616475048902685e-01,-4.123352154184807272e-01,-1.429694946696509180e-03,-2.529559893895710725e-03,2.246195884149867344e-03,3.085917793214321136e-02
-4.493583531499910078e-01,-4.266091544415370196e-01,-4.208362754132571326e-01,-2.826757716101361857e-03,-9.300046499225193483e-04,1.623265209110870367e-03,2.677035517990589142e-02
-3.683452123687656621e-01,-4.685998302864137766e-01,-4.363026335014024149e-01,1.141928449239161883e-03,1.483727819870177961e-02,4.318739221959414648e-03,9.260915219783782959e-02
-4.505160117870098402e-01,-3.987780619266412807e-01,-4.180532149274412967e-01,-3.212003839543487848e-04,2.252689646315153733e-03,4.425829832072721536e-03,4.610192403197288513e-02
-4.509235200772770402e-01,-4.161241577770415367e-01,-4.115399385738840454e-01,-2.863694410501242335e-03,-4.143553781109184618e-03,2.509333026169438020e-03,3.855565190315246582e-02
-2.717636588463307468e-01,-3.806539064153545704e-01,-3.785253147568351517e-01,7.565490106602804077e-02,-8.069987004825811272e-02,-5.051747224563405553e-02,2.366310954093933105e-01
-4.940518212726042746e-01,-5.263667051209657277e-01,-3.936795260854984990e-01,-1.957109122692989034e-02,-4.738996270055637061e-02,-6.933991902248328809e-04,1.491654068231582642e-01
-5.823824890959812262e-01,-5.251725118122501090e-01,-3.399641344505818230e-01,-1.237896839360366763e-02,-1.436299058282878849e-01,1.512972993916985275e-02,3.334756195545196533e-01
-4.646722190554102849e-01,-4.017386116650042971e-01,-4.285003343416369237e-01,-2.474979078101266754e-03,-3.927389276418036777e-03,1.506348538945905327e-02,6.113912537693977356e-02
-4.623727846975465572e-01,-4.654248733561604512e-01,-3.463022961642038267e-01,-6.351870998068337958e-03,-1.955344446583974841e-02,5.739374730544695262e-03,1.232996433973312378e-01
-4.424227618978303633e-01,-4.603667291560974428e-01,-3.752657260799268091e-01,1.138715474557938298e-03,-2.515099227429029929e-02,-5.292211718706091826e-03,8.956978470087051392e-02
-4.517305407859255051e-01,-4.066380957136865315e-01,-4.084489317809419373e-01,3.038558103091307789e-06,6.161710069729725396e-04,1.081012445088390525e-03,4.426734149456024170e-02
-4.499931253488957950e-01,-4.064414223994719522e-01,-4.090661298006361690e-01,5.719962791171710704e-04,1.819986832517276470e-03,1.537280650087678811e-03,4.251279309391975403e-02
-4.573553171868837142e-01,-4.021799701543886663e-01,-4.215222549432938171e-01,-5.221030506920379139e-04,-7.961558593308442179e-04,4.065809370917936212e-03,4.902588576078414917e-02
-4.506027736621421864e-01,-4.198799967411952494e-01,-4.429492068063822785e-01,2.732526222274188083e-03,-7.210855835366733642e-03,-2.997299032309600018e-03,3.118762746453285217e-02
-4.438555258444968343e-01,-3.962612068743783800e-01,-4.015543764165779295e-01,2.138142959326388233e-04,1.142887065163246093e-03,5.961974736141757887e-03,4.638968780636787415e-02
-4.341836247712809183e-01,-4.715499197758396543e-01,-3.449619184486532042e-01,-3.251313092147684047e-03,-9.003161723514772896e-02,-6.458421026440245606e-03,1.927811205387115479e-01
-4.991178432691121825e-01,-5.005968265419110663e-01,-3.784516401494038007e-01,5.262125421477362001e-03,-4.032801683905002516e-02,-1.006783555910387672e-02,1.414467543363571167e-01
-4.379524391439189035e-01,-3.939754070452617940e-01,-4.078866172624246444e-01,1.949299445880492724e-03,5.204722412598171075e-03,2.251197654796850342e-03,4.029389098286628723e-02
-3.983891030526122701e-01,-4.304116373453730215e-01,-4.126249703509305977e-01,8.739233567717094586e-03,1.542882772028588388e-02,1.086433065750736990e-02,4.549289867281913757e-02
-4.576840160867429175e-01,-3.350208745462069926e-01,-4.566738104898406814e-01,2.006838962621722289e-03,2.556134399621965998e-03,2.331107074434357780e-03,1.223574206233024597e-01
-4.698865198599841420e-01,-2.956036562742829776e-01,-4.734722708332247398e-01,9.006466117643656399e-03,-1.006137631138724099e-02,2.619495380880895036e-02,1.833517849445343018e-01
-4.328809301420257771e-01,-4.112111442547774498e-01,-4.138856899822790369e-01,1.578788041668123402e-03,3.517070965335895600e-03,7.262225967141091145e-04,2.156258933246135712e-02
-4.272657878845375623e-01,-4.127721972353850521e-01,-4.002864835684581957e-01,8.033098376116489317e-03,3.570962100336480451e-03,4.401619647658940211e-03,2.892905287444591522e-02
-4.949799221910636815e-01,-4.046906823571338463e-01,-5.042274630443059902e-01,-5.255572391287896203e-03,-2.845723496951032497e-03,-1.190714720208678988e-02,9.800568968057632446e-02
-4.674765240824005352e-01,-3.406251529913610354e-01,-5.003449255532101958e-01,2.930217265959963319e-02,-1.947901952494617006e-02,-2.136478633726151405e-02,1.625561863183975220e-01
-4.321306244851724210e-01,-4.064832436757077061e-01,-4.039094982666722733e-01,2.456483059572076195e-03,4.395228764476345989e-04,1.001146685141310723e-03,2.742465026676654816e-02
-4.259477351965944569e-01,-4.402835696061552229e-01,-3.665238389049138013e-01,1.027894995603231311e-02,9.529932715237098353e-03,6.462728402706721317e-03,7.282400876283645630e-02
-4.266341413200748223e-01,-4.003538788501869172e-01,-4.160732050123027159e-01,1.322856185976249233e-03,7.406972178272121406e-03,1.664356277182467599e-03,2.651020884513854980e-02
-4.274035723692064526e-01,-3.987353274315647012e-01,-4.103557107425233053e-01,1.875555106935497887e-03,6.616716196256929028e-03,2.577761603622752938e-03,2.802848629653453827e-02
-4.155468380906925940e-01,-4.149930240582758167e-01,-4.208839596886680412e-01,-3.713704417104882172e-04,2.779502720629645034e-03,1.277365618982841252e-03,7.760991808027029037e-03
-4.186423959883980861e-01,-4.056676674532625482e-01,-4.150998168600918414e-01,1.691819094499864319e-03,5.097549758974689350e-03,1.287573331865483634e-03,1.504808198660612106e-02
-4.228650654700608635e-01,-3.923856476318820508e-01,-4.118291122432041207e-01,3.867422166077996541e-03,8.984410690395416149e-03,6.487197283837965386e-03,3.358122706413269043e-02
-4.147253771026705449e-01,-4.133239597533605592e-01,-4.115302219955722096e-01,3.610703495635768801e-03,2.849860269197505933e-03,3.914524955947215439e-03,1.082323491573333740e-02
-4.237956648998388309e-01,-4.176909202006167110e-01,-4.137124946874755627e-01,4.017903353027335632e-04,1.876013481348784775e-03,1.617418319447213064e-03,9.811919182538986206e-03
-4.068805735880364760e-01,-4.154965995304065740e-01,-4.245016417776731887e-01,7.602731442694346184e-04,4.398193505778650626e-03,7.305298456364258015e-03,2.127869613468647003e-02
-4.323622834219058020e-01,-4.323278098904077549e-01,-4.541337850859303304e-01,-5.184029181687219894e-04,-6.858111434292915392e-05,2.975627710152657602e-04,2.181366458535194397e-02
-4.339847751824648658e-01,-4.071685669783122186e-01,-4.048500884117118837e-01,5.730526342462513752e-03,5.535273921421185288e-03,8.700195888990396031e-03,3.470117971301078796e-02
-4.334145875344143639e-01,-3.981014014260615408e-01,-4.135636378739427910e-01,1.379945644220471933e-03,7.709239963914777533e-03,3.085232243530308584e-03,3.395065292716026306e-02
-4.234718057491000942e-01,-4.482397084495164385e-01,-4.224225781330866458e-01,3.337339469276884209e-03,-1.025025443813158861e-02,-2.554258403899650927e-03,3.176045417785644531e-02
-3.890264548274464662e-01,-4.583945093253005698e-01,-4.443364455667820345e-01,6.792187658709633591e-03,-7.163473915262102282e-03,-5.038147703989319728e-03,6.635414063930511475e-02
-4.453583434444159939e-01,-4.206770422717520108e-01,-4.578913482597773976e-01,-3.397007705530199866e-03,-5.524195331907767736e-03,2.302443460666075536e-03,3.489479422569274902e-02
-4.372154242256502399e-01,-4.247058116404557326e-01,-4.238251711392056476e-01,-7.447315728534450140e-05,-1.325056506131531671e-03,-5.788029177795169953e-04,1.321254763752222061e-02
-4.311196077617449607e-01,-4.517925514915203111e-01,-4.353894620871447962e-01,-6.104463804469392003e-04,-8.786375984279182596e-04,5.251129052014585994e-04,1.901559904217720032e-02
-4.065704612578290855e-01,-5.219837685198006616e-01,-5.349231926958305516e-01,3.748074882537150154e-02,-3.179699059469519307e-02,-1.949985981491848472e-02,1.528703421354293823e-01
-2.844557761596224754e-01,-4.075118989199055242e-01,-4.220551215988730398e-01,3.841368811564196961e-02,-1.651562216266189934e-03,-5.433179245409355818e-03,1.471989154815673828e-01
-4.288815891540653791e-01,-4.431549371727431241e-01,-4.357424489176939808e-01,-1.043322800005242780e-03,-5.378889610662585148e-04,5.954154989127649058e-04,1.257256977260112762e-02
-7.787491998942240867e-01,-5.839767152736650146e-01,-3.429579887958831286e-01,-3.556509289537486407e-02,-1.646916919917222263e-02,1.950782393214081645e-01,5.116102695465087891e-01
-4.352687620310297101e-01,-4.259594343283518159e-01,-4.529648260471683674e-01,-1.295419120831584666e-03,-2.235084502480528122e-05,6.696309741101042629e-04,2.389422059059143066e-02
-4.282882744232217043e-01,-4.834734023308431272e-01,-5.508438781570483833e-01,7.806382737634119662e-02,-1.983257645271557790e-02,-1.692383425341497175e-02,1.778289973735809326e-01
-4.893090629273108005e-01,-3.848630593131020516e-01,-4.805648809322816684e-01,-4.859248930825350865e-03,-1.012444551448246112e-02,-1.163816543096363003e-02,1.041960865259170532e-01
-5.133737757737735219e-01,-4.778624320428800365e-01,-3.204294690937808388e-01,-1.481468337679210309e-02,-1.402755659023780313e-02,2.370082617979999903e-02,1.859321892261505127e-01
-4.409211173541966455e-01,-4.410292009402025926e-01,-4.200631772887696846e-01,-4.924770271393195432e-03,-1.885622727443370724e-03,1.858372234867392524e-03,2.304576337337493896e-02
-4.235959910983982946e-01,-4.498886811110722195e-01,-4.529980832644980304e-01,1.396068115717596925e-02,-1.283814312842656430e-02,-9.179603261294657507e-03,4.598564282059669495e-02
-4.568768766111850343e-01,-3.934701402837631479e-01,-4.402813760499080797e-01,-1.071181652194073096e-03,1.148972824224408698e-04,-1.051185728482527393e-02,5.982087925076484680e-02
-4.502712188814755323e-01,-4.454093239614281829e-01,-3.514993176525487706e-01,-9.287031006379205386e-04,1.056815276252768285e-03,7.723395901040089849e-03,9.738685190677642822e-02
-4.312038641097853398e-01,-4.254428747348966144e-01,-4.325124108730155625e-01,-2.854141617253747390e-03,-3.597853057197643138e-03,1.083250538045624992e-03,1.045141741633415222e-02
-4.283439277286511526e-01,-4.430054373232790166e-01,-4.375408000176819190e-01,-2.235716371863240726e-03,-1.808283108128983787e-03,2.121946370770589566e-03,1.424834039062261581e-02
-4.288239768535825336e-01,-4.528125238217082793e-01,-4.331050737563584829e-01,-7.238179419498759265e-04,-9.391569995130433137e-04,2.930385337844929744e-04,2.226109430193901062e-02
-4.566312966998719580e-01,-3.892418238711382594e-01,-4.409440245669298819e-01,-1.942976155258807885e-03,-2.701712253147217808e-03,-2.602117117517479400e-02,7.612359523773193359e-02
-4.301527660573258305e-01,-4.595720970422087492e-01,-4.389617612934256230e-01,1.008056536151709414e-03,-2.303509991182304227e-03,1.571495293730260394e-03,2.665176242589950562e-02
-4.801128557127520291e-01,-4.015996180101538693e-01,-4.665020373844763202e-01,-4.046736388534725656e-03,-1.534369340604213616e-04,-4.004552579844134277e-03,7.333663105964660645e-02
-4.327245789009864230e-01,-4.523814825426067943e-01,-4.279984740098213281e-01,2.353923121880530794e-03,-2.667525001284573160e-03,-1.152431204399522032e-03,2.331490442156791687e-02
-4.779256238791717015e-01,-3.810727166484170758e-01,-4.777686840834498017e-01,-2.453483490081076208e-03,-2.609995453854176400e-03,-7.511725801869713337e-03,9.784213453531265259e-02
-5.347225198056648754e-01,-4.693062037648100260e-01,-5.019510780290329377e-01,-3.332746724121387130e-03,-1.681270156276590960e-02,-5.332270596890949926e-02,1.123420223593711853e-01
-4.398407000985105619e-01,-3.348883000588823711e-01,-4.450860788030160942e-01,2.839682965402378842e-02,-2.116246696896372220e-03,-4.362449898054453733e-03,1.186705678701400757e-01
-7.580752408061107728e-01,-6.024351283678290869e-01,-4.029796322552602894e-01,-7.484807926975774184e-02,-6.322145524710480469e-02,1.754426475672236641e-01,4.649597108364105225e-01
-4.780566220478617012e-01,-3.438121918633720853e-01,-4.670628693971256573e-01,3.322521679282462032e-02,-7.569413517231988672e-03,-9.354148489862264965e-03,1.428730636835098267e-01
-5.063994321550318034e-01,-3.845339708121371936e-01,-5.130096014638232393e-01,3.158889727770362865e-02,-1.437681271255152569e-02,-2.712443120459185134e-02,1.467013806104660034e-01
-4.548103201488319369e-01,-4.126919421339535488e-01,-4.180648991357724942e-01,-8.472678080399902699e-05,-9.096469158436448028e-04,2.142703326621724167e-03,3.990994393825531006e-02
-5.074613213422014546e-01,-2.473633764525258183e-01,-5.206686004886302843e-01,1.212852956221975864e-01,-1.636212523693720416e-02,2.914848692720746134e-02,3.445910513401031494e-01
-4.210656698183814495e-01,-4.158890600973156881e-01,-4.432441780205341741e-01,1.300705882225642457e-02,1.008272460031570117e-02,8.157029581820770051e-03,4.056647792458534241e-02
-5.410801697098605034e-01,-5.873800805888084176e-01,-4.061396617394538722e-01,7.437799039596079687e-02,1.463031603741809794e-01,1.076583156190465684e-01,3.770694732666015625e-01
-4.236067434428414380e-01,-4.011505911692392345e-01,-4.545961345762731809e-01,1.870349631461916753e-02,6.689820290614223626e-03,1.071829302322158811e-02,6.073625385761260986e-02
-4.319256153578988067e-01,-4.536055338751309174e-01,-4.325986619167904168e-01,1.799737031247212809e-04,-1.022885504231980458e-03,-4.540562727090378514e-04,2.144142799079418182e-02
-4.304535635967611240e-01,-4.524464674091432936e-01,-4.353942857927731724e-01,-8.708235442601958923e-04,-7.923179536560891667e-04,3.987552077017154049e-04,2.010156773030757904e-02
-4.363234718022368508e-01,-4.597865304869706016e-01,-4.255992717899155786e-01,-2.013174694872073029e-03,-3.033893025223947243e-03,1.201242062946484114e-03,3.100398741662502289e-02
-4.356374518897076498e-01,-4.590551956360676700e-01,-4.347718328236216401e-01,2.256430307699568757e-03,-3.794516065059523255e-03,-1.458874193767514382e-03,2.518462389707565308e-02
-4.020584690675368389e-01,-3.875436181692613058e-01,-4.397226090319095171e-01,7.891779322582221159e-03,4.288184313372390109e-03,2.013941254570567746e-03,4.929636791348457336e-02
-4.362714072821582412e-01,-4.495334582861600370e-01,-4.230546997437561463e-01,2.422392205701822537e-03,-1.689890598556891650e-03,-8.526212387890890008e-04,2.354136854410171509e-02
-4.153538497303350119e-01,-4.436519340686170820e-01,-4.269084234119989718e-01,1.853533329403847171e-03,-7.422965890044063743e-03,-5.011445747376798258e-03,2.929623238742351532e-02
-5.993673263311735111e-01,-2.826123835224344516e-01,-4.701189474286655012e-01,-3.926213855147295956e-02,-3.938841041716568785e-03,-7.115119481754135500e-02,3.097698092460632324e-01
-4.318197576818148531e-01,-4.520931095786749898e-01,-4.338406209740192643e-01,2.915522003967791300e-04,-1.128376192787510727e-03,-4.061751466941213615e-04,1.946002617478370667e-02
-4.363295740233599784e-01,-4.461170695323204427e-01,-4.251015961092034501e-01,1.039172959978101234e-03,-1.257274147347021585e-03,-7.621440203390978914e-04,1.847919821739196777e-02
-4.027418057210193081e-01,-3.747999923025040481e-01,-4.382750579453569828e-01,1.366073275585801688e-02,7.118852747114928249e-03,-2.679875086962311558e-04,6.122349947690963745e-02
-4.097384210188184661e-01,-4.109490908467294812e-01,-4.501256118711314813e-01,5.701590883498012900e-03,5.337425372897316132e-03,1.719629003481562774e-03,4.213733971118927002e-02
-3.921869893400167784e-01,-4.095213300489689012e-01,-4.185898056772788811e-01,6.724897926922358826e-03,4.572001890968770133e-03,1.063012337902437439e-02,3.282215073704719543e-02
-3.055247899634702669e-01,-4.089928344684820027e-01,-3.735114405864070619e-01,4.046457827203306379e-02,5.912072344928745449e-02,3.015110127813670077e-02,1.625379025936126709e-01
-4.371660560444253774e-01,-4.483113291447344828e-01,-4.309481172886387434e-01,1.317803438340123300e-03,-1.004461473790638128e-03,-8.882289676899859975e-04,1.558152772486209869e-02
-4.376053587856078564e-01,-4.506680689817350038e-01,-4.291460777450834541e-01,3.336773832123831988e-03,-1.977070329566097003e-04,-1.282289293037515952e-03,1.977744139730930328e-02
-4.455525343877793643e-01,-4.343262735706980848e-01,-4.289633103326462860e-01,3.979543411630865018e-04,-1.343538358650501249e-03,-8.574363428660382357e-04,1.493627484887838364e-02
-4.346346692642192866e-01,-4.325598947881987844e-01,-4.299817672286331272e-01,1.378785515873749961e-03,-4.093764029477451466e-03,-7.632673915608929579e-04,8.603955619037151337e-03
-5.322112531132312530e-01,-4.873234817385767581e-01,-5.001268232186961704e-01,-3.411893914184972038e-02,1.293553486279667292e-02,-5.495169380000011067e-02,1.210680827498435974e-01
-4.307312767076994509e-01,-4.461444753967804822e-01,-4.353999079960340635e-01,1.431783484325386060e-03,-1.751963518788118195e-03,-3.206886906476972849e-03,1.528446190059185028e-02
-4.082142618013696045e-01,-4.357508652068233235e-01,-4.386592385836904917e-01,3.171498228964822821e-03,-3.030252348625346245e-03,-6.643204352840344391e-03,3.220137953758239746e-02
-4.323318635722067649e-01,-4.430052753968160006e-01,-4.237001819732620911e-01,2.397265399784764741e-03,-1.537365559762694052e-03,-1.178548471578172744e-03,1.757996529340744019e-02
-4.367589402117384445e-01,-4.394379716739977848e-01,-4.306835764694929569e-01,1.825649843446407921e-03,-2.196714417672477118e-03,-2.836487055273633276e-03,1.043915562331676483e-02
-4.360880616203900995e-01,-4.359129659277772295e-01,-4.276805745780595247e-01,9.978815492720188689e-04,-3.869008127830465675e-04,-3.260859774859899834e-04,8.543989621102809906e-03
-4.374728637469820214e-01,-4.324761135554193170e-01,-4.268834954613092703e-01,5.160587960202976492e-04,-1.566434970117556828e-03,-2.737656449288080902e-04,9.621577337384223938e-03
-3.912522223126533860e-01,-4.106115720450737583e-01,-4.234915135825424448e-01,5.924339407970057730e-03,3.913544764312635454e-03,1.034173463544066709e-02,3.552632778882980347e-02
-4.384015153424075106e-01,-4.347041098207485299e-01,-4.279691721269966442e-01,1.548612452063982811e-03,-1.063899133645296530e-03,-7.801498657045690668e-04,9.815708734095096588e-03
-4.371509456449952924e-01,-4.385553939914209609e-01,-4.281736777997706134e-01,1.110497210134677023e-03,-4.378259372398570436e-04,-6.053195004744193900e-04,1.002725493162870407e-02
-4.177718007495764829e-01,-4.470819727977214941e-01,-4.415895892924658339e-01,-8.492688792523297179e-04,-3.216052543450897191e-03,-7.876426549132608049e-03,3.078273497521877289e-02
-3.849202405576590547e-01,-4.145979046741639085e-01,-4.391910651473067140e-01,1.243038850003507292e-02,3.815118613914893902e-03,9.954144594123708403e-03,5.495378747582435608e-02
-4.106228251762073511e-01,-4.326041803730257818e-01,-3.990390047611002688e-01,5.610784947178403155e-03,4.055604451575032555e-03,2.345449915722291282e-03,3.212915733456611633e-02
-4.149645204280640320e-01,-4.445205860747906690e-01,-4.281480512368633362e-01,1.090353754422102896e-02,1.400019827346421671e-02,1.258432058506307565e-02,4.557945579290390015e-02
-4.119387973017225035e-01,-4.289896517927004882e-01,-4.077836579999319366e-01,6.844643996350961018e-03,5.530573846084306348e-03,4.392222640942190261e-03,2.586560510098934174e-02
-3.800610598346071400e-01,-4.165005423681193975e-01,-3.952598187934774354e-01,1.770662135087920988e-02,2.857777402796413471e-02,2.355000740992092140e-02,7.784248888492584229e-02
-4.216913194234560569e-01,-4.062473451521043111e-01,-4.076170327514067049e-01,6.859425820284233491e-03,7.791266580168138174e-03,7.017666737272663588e-03,2.627258189022541046e-02
-6.979629059536370805e-01,-7.456062649042131119e-01,-5.392866182877023018e-01,-7.678137810533929020e-02,-1.508319934918041505e-01,4.955586100445213450e-03,3.478772938251495361e-01
-4.310977496630907790e-01,-4.257333112213803061e-01,-4.342026832129518565e-01,-1.710202350707767157e-03,-3.479726165591130911e-03,1.175389690626913505e-03,1.021364331245422363e-02
-4.396231999137733548e-01,-4.348485867790444770e-01,-4.225293555268345158e-01,-5.493703330926052140e-03,-1.285362435305651514e-03,7.648591629840833725e-04,1.818333752453327179e-02
-2.665721280752299527e-01,-3.883648525826964848e-01,-4.113110985916620388e-01,5.880139643528409232e-02,-6.026952406353839470e-02,-2.903559453259377601e-02,2.048266083002090454e-01
-4.346874744504185539e-01,-4.406313128438524296e-01,-4.346984232949304694e-01,-4.681749124975933922e-03,-4.848091655135591295e-03,4.694977208885867288e-03,1.541625708341598511e-02
-4.315483188827183292e-01,-4.301936588207059264e-01,-4.381655552009925958e-01,-8.496620343482193076e-04,-3.372597402938871253e-03,8.353045421935424882e-04,9.642056189477443695e-03
-4.246268480783694788e-01,-4.521838961565832204e-01,-4.381009080934004096e-01,-8.231366819566955694e-04,-3.122343015524259042e-03,2.918478433421793205e-03,2.502934634685516357e-02
-4.361268184372011913e-01,-4.189498146245760890e-01,-4.328844168787248092e-01,-1.452534360576530556e-03,-5.718740010796983901e-03,2.466159527390114105e-03,1.930169016122817993e-02
-4.332088526139117324e-01,-4.039322181227970043e-01,-3.996058392561666062e-01,4.684019650002139989e-03,3.463200738014103434e-03,4.115638962274049961e-03,3.398701921105384827e-02
-4.245022728093612030e-01,-4.439750873861320057e-01,-4.047816042190787167e-01,-3.336145352970591553e-03,-7.337475273373542974e-03,6.490189808220086934e-04,3.671894595026969910e-02
-4.320516352631743051e-01,-4.353089951664169677e-01,-4.366675318584720134e-01,-8.051102675764158258e-04,-2.711837878390044657e-03,-5.514387598028590450e-05,6.395090371370315552e-03
-4.295577723638049905e-01,-4.481498616873664242e-01,-4.288740290363346475e-01,-2.536440938672854771e-03,-2.043443057282898732e-03,6.175968782103781040e-04,1.979437656700611115e-02
-4.480185056565695323e-01,-4.297260583960413882e-01,-4.267727213436752765e-01,-1.867052649616724033e-03,-4.594829604386499108e-03,6.823005184543326843e-03,2.471466735005378723e-02
-4.145579919125284563e-01,-4.666363777564543902e-01,-4.483119325003837585e-01,1.431047067258314385e-04,-4.316709341759442965e-03,-1.614030071663660651e-04,4.636461660265922546e-02
-4.537963313329645421e-01,-4.398747309865881916e-01,-4.490123006462706234e-01,-7.640048220325447101e-03,-6.165498948096677714e-03,7.668498577478120165e-03,2.481260336935520172e-02
-4.361626536201493876e-01,-4.561835860443404500e-01,-4.288711558710666116e-01,-3.682527586044429674e-03,-1.329920851740038585e-03,1.152930426177633041e-03,2.549437433481216431e-02
-4.070608484442654884e-01,-4.054413663098624943e-01,-4.290729925670854761e-01,-1.717630699639038536e-04,1.668120935613485708e-03,7.431788961240623709e-04,2.308460138738155365e-02
-4.440468076485794557e-01,-4.213383132775893603e-01,-4.117392987069959376e-01,-2.678908166508898060e-03,-5.955241464260743354e-04,2.865001124548328081e-03,2.954681403934955597e-02
-4.330284312092136934e-01,-4.242981368278320731e-01,-4.264685423687901711e-01,-4.192843327874139214e-03,-1.948210012212479207e-03,1.532659756141604643e-03,1.153923477977514267e-02
-4.280338238874369372e-01,-4.363168527778272798e-01,-4.393878770912082454e-01,-1.056309639898208490e-03,-1.234010376129375487e-03,2.343938355000000587e-03,1.130818296223878860e-02
-4.415574749763586104e-01,-4.528749045565464426e-01,-4.056291002310746796e-01,3.619952235946621681e-03,-3.904492556536517684e-03,1.920919856541727293e-04,4.371163621544837952e-02
-4.387293962840801420e-01,-4.370879137112507196e-01,-4.305380912951513039e-01,-4.139954121228257844e-03,-1.996210461854241482e-03,1.736409941156448304e-03,1.134740654379129410e-02
-4.338378074433702491e-01,-4.519488868135991821e-01,-4.221536097975786550e-01,-3.250990693855092457e-04,-2.794855415283516512e-03,2.077519691649091030e-04,2.645799145102500916e-02
-4.366049724239325913e-01,-4.320192943308909794e-01,-4.175896840053764381e-01,-6.438379279772585458e-03,-2.039216005951686572e-03,1.903100636514045482e-03,2.105018869042396545e-02
-4.378248536348978703e-01,-4.187543152875436991e-01,-3.986515519824307408e-01,-6.130957048308740935e-03,-1.904682976524949651e-03,9.146720173892699396e-03,3.906166926026344299e-02
-4.304402036568544254e-01,-4.525085069531023518e-01,-4.306746896318096596e-01,1.015670757178367732e-03,-5.816100031998275386e-04,-5.070137399665432861e-04,2.206288836896419525e-02
-4.465221366005965309e-01,-4.640396780053100967e-01,-4.094978115451794465e-01,8.394824680439305544e-04,-3.938204021407896126e-03,-1.347553262315775036e-03,4.878862947225570679e-02
-4.712099000545973970e-01,-4.186029376180511741e-01,-4.505276539981075690e-01,5.844200791931989058e-05,1.013360591932537967e-03,-2.831242904035009486e-03,4.619909450411796570e-02
-4.613576135125155853e-01,-4.297722231933768788e-01,-4.396895669090270520e-01,-1.290553266354590404e-04,4.183085524638237599e-04,-1.850622925128545936e-03,2.817084826529026031e-02
-4.460144555897121443e-01,-4.220511313499706874e-01,-4.200180205437933356e-01,-3.321689019787586999e-03,-2.685568174459001221e-03,2.481767385427598432e-03,2.646336518228054047e-02
-4.420325447074803793e-01,-4.290863845597343573e-01,-4.337558075897559595e-01,-2.306386848560004494e-03,8.543610458952762823e-04,-8.949110468730763542e-04,1.222726982086896896e-02
-4.374186929017761516e-01,-4.381861217745864900e-01,-4.259559058255276143e-01,3.019977668604730252e-03,-1.523726795212784497e-03,-1.405858731214165887e-03,1.345498580485582352e-02
-3.524088532474842772e-01,-4.829382918831218174e-01,-4.746435109829566512e-01,2.664445217103085387e-05,6.214402398281689693e-03,-4.384887845899457758e-03,1.272696554660797119e-01
-3.657756937034954969e-01,-4.679262122746032926e-01,-4.704077605719022559e-01,2.656618754839242241e-04,4.996859808046415566e-03,7.246218917139967504e-04,1.037837713956832886e-01
-4.612227305270479860e-01,-3.953408195763362110e-01,-4.503850914232754854e-01,7.933594176744343529e-03,-4.645648099253560717e-03,-1.205604867388036100e-02,6.658448278903961182e-02
-3.631217980873552298e-01,-4.557512651612801169e-01,-4.522713247901740674e-01,-1.009060816126720016e-02,1.076019303268654220e-02,-1.060584474787751134e-02,9.623014926910400391e-02
-4.397480010764113767e-01,-4.434421550936437084e-01,-4.275584094094747045e-01,2.088598090067444492e-03,-8.150871686864705375e-04,-7.464112443251550441e-04,1.496710907667875290e-02
-4.417763972780682225e-01,-4.313298491035363891e-01,-4.151072534240722867e-01,4.893350865760586789e-03,-3.258349364574743886e-03,-5.148137752835815067e-03,2.692523412406444550e-02
-4.343976959850013864e-01,-4.365794247071328460e-01,-4.560378851860144023e-01,-8.121309012855461021e-08,-5.761039883129491761e-04,1.290789583733088861e-03,2.078073099255561829e-02
-3.444761687684196882e-01,-4.713144058950909931e-01,-4.475993290911258193e-01,-9.487443841598902682e-04,1.459643594876607574e-02,1.065214015664685352e-03,1.195309013128280640e-01
-4.436549092559698981e-01,-4.330306178703038911e-01,-4.266591053185455062e-01,1.832809974163259305e-03,-7.736270768824331841e-04,-9.218769071538632795e-04,1.534884981811046600e-02
-4.329900070902452103e-01,-4.320407897991125346e-01,-4.526821449002757514e-01,-5.215907902778209922e-04,6.800033547630999337e-05,3.017679757755643930e-04,2.021080628037452698e-02
-4.397415376099014783e-01,-4.268314769722424962e-01,-4.298017775845924260e-01,1.314779778698230107e-03,-5.110843864445137330e-03,-1.475821757832987977e-03,1.507407892495393753e-02
-4.446878385527383015e-01,-4.435983074067771370e-01,-4.131743230928099919e-01,5.126662296685616758e-03,-2.428544071505450794e-03,-2.561452888398681529e-03,3.280515596270561218e-02
-3.651836308073068693e-01,-4.570385025505567245e-01,-4.691198644176801658e-01,-5.638713117038553387e-03,1.855239403307285418e-03,-5.834701916386865776e-04,9.899364411830902100e-02
-4.212687134645070608e-01,-4.924433128785870584e-01,-5.048879922875262327e-01,-3.166491056856751696e-02,-1.597813331904559403e-02,1.976001282582762978e-03,9.945880621671676636e-02
-3.866110731805739720e-01,-4.546298028512745226e-01,-4.428668863974386527e-01,-1.011670746289691260e-02,-2.185233976681628248e-02,2.002818621415099459e-03,7.560731470584869385e-02
-7.515468967688243573e-01,-7.182440563029918179e-01,-3.219375471960600477e-01,-4.238293945308843624e-02,1.726538343014862031e-02,7.803853033212024282e-02,4.426277279853820801e-01
-4.281910869701262001e-01,-4.411216609033193903e-01,-4.357157994496307363e-01,-1.010712262401593274e-03,-5.208233158945970581e-04,2.819312631206511571e-04,1.142974290996789932e-02
-3.992701079486528637e-01,-5.071964357300202675e-01,-4.975187591991166447e-01,-5.391007842447290491e-03,-4.135545139486573180e-02,-2.134359833515492039e-03,1.262099444866180420e-01
-4.248463562397249982e-01,-3.020691576115266952e-01,-3.606797389152509581e-01,1.183245820331945905e-02,1.205525607734520173e-02,6.974807047702469287e-02,1.635964065790176392e-01
-4.912386156915491964e-01,-4.296521403734576139e-01,-2.589240567368866763e-01,3.312059379095847605e-02,1.160705058078856794e-01,1.190910460446776981e-01,3.601548969745635986e-01
-3.848728996753808529e-01,-4.521286433085691114e-01,-4.403206488833001364e-01,2.939695601211479454e-03,-2.612118991709791102e-02,1.708072718830380352e-03,7.713777571916580200e-02
-4.190131406382388013e-01,-4.909578529456269380e-01,-4.875172698961498519e-01,-8.268844006030460223e-04,-1.680857534042799056e-02,-2.606508738732590293e-03,7.622575014829635620e-02
-4.406053717816484361e-01,-4.535785192971523161e-01,-4.026500372953589757e-01,-1.158198282124489175e-03,-4.936434836242694843e-03,9.367902612830376939e-04,4.670195281505584717e-02
-3.544914359167197770e-01,-4.549492047848539555e-01,-4.531170123105275338e-01,1.080454901649941348e-03,-1.615838576420409664e-02,-3.510877237384518214e-03,1.036089956760406494e-01
-5.836393473023893108e-01,-3.892908384911165642e-01,-4.073594501897964126e-01,7.854240404020040867e-02,6.802204905165626370e-02,1.798785837677413790e-01,4.050220251083374023e-01
-3.563638478253958186e-01,-4.288495290700279905e-01,-4.440213811923338638e-01,2.866795733715104405e-02,1.909313881346376071e-02,9.673979331049022481e-03,1.020982787013053894e-01
-7.520384301047051689e-01,-4.662771553656543944e-01,-4.341259831797328883e-01,-6.091532218520055025e-02,-8.418084724223109938e-02,1.899525472045786589e-01,4.822011590003967285e-01
-4.258036234187761448e-01,-3.462736314033448282e-01,-3.750109473428137608e-01,1.247821870225001087e-02,1.119864529909821334e-02,3.383199441446642364e-02,9.561659395694732666e-02
-4.459576194821475159e-01,-4.111966349265194220e-01,-3.791203294790919109e-01,3.163226275646384509e-03,1.457214788140201401e-03,8.169056991329852468e-03,5.990666151046752930e-02
-2.018133337885100187e-01,-2.894466363985767066e-01,-4.357828495253035506e-01,1.434319796198971764e-01,-2.317864454365489886e-03,3.157967260535305375e-03,3.219969570636749268e-01
-2.920993883883817310e-01,-3.092717307429334594e-01,-4.572752335374015153e-01,1.619792710057213758e-01,9.009045792114903084e-02,4.693355939736258697e-02,3.666203618049621582e-01
-4.560820385076298500e-01,-5.252340149951610915e-01,-5.013756297702085529e-01,-1.024647701521348188e-02,-5.154198055693521435e-02,-4.983281552218842697e-03,1.098205894231796265e-01
-4.477663571451753755e-01,-4.473983400002973787e-01,-3.862727292975460247e-01,-3.786788628561904048e-03,-1.312449690408446163e-03,6.491653070932805643e-03,6.271827965974807739e-02
-3.630989185646067430e-01,-4.914476390204920442e-01,-4.909291693065068185e-01,4.881991674858184721e-02,5.630636355553741285e-02,1.424992240016627158e-02,1.835147738456726074e-01
-4.674170329857151307e-01,-4.530011498734052289e-01,-3.784919045266935678e-01,-2.854194451956251072e-03,3.055625291554094850e-03,-5.326090424359846212e-03,8.349319547414779663e-02
-3.764949572421582569e-01,-5.098730745631933070e-01,-5.406258313793607106e-01,4.405452252124807122e-02,-7.887975359859872998e-03,-6.041673216305392877e-03,1.701639443635940552e-01
-2.443124355105746603e-01,-4.197567209100098728e-01,-4.110942316943314023e-01,8.103611377426760132e-02,8.208283290450230085e-02,3.371613902855281897e-02,2.695544660091400146e-01
-3.543105312440002486e-01,-7.439059181513758556e-01,-7.273871808450614873e-01,3.951591727176164554e-02,3.062351327013007954e-02,-3.482415735255775524e-02,3.959266245365142822e-01
-4.586330197804555087e-01,-4.334491288537706266e-01,-4.141351829158185227e-01,-1.607491273124443155e-03,-7.789952005568762192e-04,-7.565546592570478179e-03,4.092605784535408020e-02
-3.096082853910815946e-01,-4.943146650343007154e-01,-4.875177104307362175e-01,1.937621491090460793e-02,3.075880610282496000e-02,5.355253603446635466e-03,1.922442913055419922e-01
-3.619975340028073196e-01,-4.599224263581860872e-01,-4.764751339186201196e-01,3.426956753453284238e-02,2.227306155021017281e-02,8.079645652902280734e-03,1.291956603527069092e-01
-4.903062924541042866e-01,-5.072438790980442480e-01,-3.990722505414281418e-01,-1.503873695430676255e-02,6.186938220180007025e-02,-3.362901666379529420e-02,1.603449434041976929e-01
-4.271825560598412341e-01,-4.529493159881178288e-01,-3.031514231638401391e-01,-2.125727529504658347e-02,8.179221994792687522e-02,-4.418124599087348142e-02,2.156965285539627075e-01
-2.471187823486685753e-01,-4.217016547382921865e-01,-4.281379098491774338e-01,1.524669936340922530e-02,-2.363395150705277156e-03,-6.676031079912142681e-03,1.802556961774826050e-01
-3.478979720770708495e-01,-4.531480328345756647e-01,-4.616621328028158167e-01,1.307079486484230904e-02,1.118626027182657856e-02,4.006639584095550780e-03,1.139397546648979187e-01
-3.136080473804310764e-01,-4.638333466386629356e-01,-4.693822698316233444e-01,1.860033301602945568e-02,2.925848747760124643e-02,-4.051547072504145877e-03,1.645823717117309570e-01
-2.902903898366821500e-01,-4.167532211818223420e-01,-4.390465799957198878e-01,3.952504228116005686e-02,-2.706240320996087948e-04,-2.072662264350544348e-03,1.549481153488159180e-01
-3.545180162975493099e-01,-4.560805476070060593e-01,-4.497527483604232268e-01,-1.419028708489241536e-02,-1.420211363932182783e-03,-4.075695958411758649e-03,1.018444821238517761e-01
-4.405711425837545159e-01,-4.614708611214261014e-01,-3.134623109344099601e-01,1.678483708047958734e-03,3.822431098480057882e-02,1.745360622419437138e-02,1.567023396492004395e-01
-4.496975171268262073e-01,-3.625804628712110400e-01,-4.691437623931657974e-01,8.044753645052476684e-03,3.019149180058686328e-03,1.979584422249729917e-03,9.947308152914047241e-02
-3.757105127854992732e-01,-4.885232616784396797e-01,-4.776468483773699258e-01,-2.121239082515700893e-03,-1.132225959750279842e-03,-2.421706021386477690e-03,1.079488471150398254e-01
-4.264514020284596030e-01,-4.536999757015757750e-01,-3.687880210571565232e-01,-1.994813909033209178e-03,3.255475700122049953e-02,-1.259808201846086351e-03,9.399431198835372925e-02
-3.615716351081693647e-01,-4.642256226529636320e-01,-4.670016546258687340e-01,1.281839640881004064e-02,1.553280041286624275e-03,-1.649710585611299666e-03,1.064840555191040039e-01
-4.532881443199140437e-01,-4.262596985519069848e-01,-4.372224823616259748e-01,1.041123574429747610e-03,-1.287461320284723166e-03,-1.560832406848824657e-03,2.387353219091892242e-02
-4.546256329613965197e-01,-4.322223283643401581e-01,-4.351900312819232952e-01,4.985101725023968842e-04,1.515557790354075864e-03,-6.564704635490302507e-04,2.128751017153263092e-02
-3.629711702281899766e-01,-4.308664910663975167e-01,-4.633649088714427711e-01,1.931265545136494691e-02,-1.429412023685535651e-03,5.508885057561212564e-03,9.533374011516571045e-02
-4.349062206293982658e-01,-4.394259358457276443e-01,-4.258747634100997215e-01,1.981221299386339528e-03,-6.838587031646197086e-04,-1.082976640176785748e-03,1.262980140745639801e-02
-4.270937885244546761e-01,-4.300017671944766917e-01,-4.219061103756501785e-01,3.261220366914238580e-03,-4.552564234036170915e-03,-3.238846491164223962e-03,1.326682232320308685e-02
-4.474736360135453395e-01,-4.096857595723920609e-01,-4.058547473948445061e-01,8.317554382311983944e-04,-6.541623296091607278e-04,2.008644635191683941e-03,4.003535211086273193e-02
-3.682601710120078087e-01,-4.657971929145621748e-01,-4.721980629181126154e-01,1.317874171251363913e-02,-9.916162733134135931e-03,-8.900539559359927147e-03,1.059832572937011719e-01
-3.528253089219719474e-01,-4.731839342215425348e-01,-4.792850536181017529e-01,1.449560285721321687e-02,3.260288649857420664e-04,-6.572015504656081525e-04,1.260544657707214355e-01
-4.358692279401610858e-01,-4.336436611521012896e-01,-4.423422523388582661e-01,3.159106647610648551e-04,-6.154236392499274830e-03,-7.409159314089037995e-03,1.843555085361003876e-02
-4.442287441602498221e-01,-4.114321657066609683e-01,-4.575348087218500392e-01,-4.338330787579061480e-03,4.314591968600829316e-03,-5.135428290381167070e-03,4.336459934711456299e-02
-4.529457545746595759e-01,-4.130157203218484119e-01,-4.580713740229076514e-01,-6.146360701699742600e-03,5.417621825271364336e-03,-3.234286268458843542e-03,4.536642879247665405e-02
-4.438195778799614022e-01,-4.346242215755559690e-01,-4.242095019379703014e-01,4.331526539590233212e-03,-1.914953028833497927e-03,-1.966058492081722720e-03,1.917476765811443329e-02
-4.653423579450343683e-01,-4.138929303790692127e-01,-5.101544523304889500e-01,3.506590302063098546e-02,-1.800125374938417802e-02,-3.185568291777114702e-02,1.211035326123237610e-01
-4.370930830967212355e-01,-4.081112252811161523e-01,-4.775478675676883555e-01,-3.628954626991146709e-02,1.241188765023860073e-02,-8.369394016110712209e-03,9.095104038715362549e-02
-4.456866060184492273e-01,-3.566016033501833715e-01,-4.060510239079412331e-01,-5.579889042990564263e-02,2.672530111730536326e-02,-9.279555782658593932e-02,2.080685049295425415e-01
-4.582660734181371875e-01,-4.292676438410391038e-01,-4.269263562957872349e-01,2.875962215976170244e-03,-4.839451063104698372e-03,-8.453127755085677528e-03,3.498177602887153625e-02
-4.452959092739401381e-01,-4.368557185984902058e-01,-4.226398693523225614e-01,-1.107896161795256587e-02,1.225770290509821218e-02,-1.033433510742206088e-02,3.914960101246833801e-02
-4.335130871593632085e-01,-4.139547873903949293e-01,-4.557647129862138491e-01,-5.522544121065885506e-03,3.582496697789872876e-03,-2.840561721863669661e-03,3.830235823988914490e-02
-4.441956016072754476e-01,-4.286364406925198267e-01,-4.644094113551843761e-01,-1.542843913016192503e-02,4.654869722386821215e-03,-6.709152219952978051e-03,4.335143789649009705e-02
-4.333774885161899570e-01,-4.298800158583019337e-01,-4.497797580834850262e-01,-6.836169515301878871e-03,4.729833133732200788e-03,-5.415855122347290954e-03,2.517819218337535858e-02
-5.336070589384213081e-01,-4.694353734329666517e-01,-3.910678453266995813e-01,1.440346189684677501e-02,3.663299654134638539e-02,9.153611070891970458e-02,2.123048305511474609e-01
-4.396473852580146668e-01,-4.085925285472521984e-01,-4.024559462790747721e-01,1.515697277058584286e-03,1.169669989880151289e-03,1.920370255929293403e-03,3.485243767499923706e-02
-4.467855175275928237e-01,-4.366804882154377565e-01,-4.530904745157827707e-01,-7.667118991573154858e-03,6.427499885620273877e-03,-7.495429223258852879e-03,2.596945688128471375e-02
-4.526016849963270805e-01,-4.555103965565751034e-01,-3.782249144803587759e-01,-1.086847670397611283e-03,-3.328673813186814635e-03,2.556008457454458233e-03,7.624361664056777954e-02
-4.723048883371748219e-01,-4.692760068125985673e-01,-3.477960440747057125e-01,9.367675102929596057e-04,1.093283719728381509e-03,1.519517941663118318e-03,1.230757832527160645e-01
-4.531150906923818167e-01,-4.405270463588405461e-01,-4.057308568109262437e-01,-6.491473557065696731e-03,-1.003206615082560598e-03,4.760551938983916681e-03,4.477359727025032043e-02
-4.246887624394130589e-01,-4.110135692795021112e-01,-3.977786583171168955e-01,7.696561295154282292e-03,1.975315950173881039e-03,3.478592017824324450e-03,2.772872708737850189e-02
-4.620987212978647785e-01,-4.262158297324555312e-01,-4.074736304947380594e-01,-3.144921541864586362e-03,-5.347795506516418891e-04,4.629904873226048552e-03,4.905317351222038269e-02
-4.462528449575502987e-01,-3.982398555194239242e-01,-4.052005700301656854e-01,-1.766257364063967422e-04,-1.161143027298751048e-03,5.988266310190729774e-03,4.616503417491912842e-02
-4.267071166656323244e-01,-4.084042054502711183e-01,-3.924052770527700629e-01,-8.634966442800288619e-03,-9.668056303528569859e-03,2.067068635554672809e-02,5.166936293244361877e-02
-4.283915955582429103e-01,-4.069205084873906975e-01,-4.091699115959004374e-01,3.585948257743063698e-03,1.323143846169136427e-03,2.446444061651178829e-03,2.189873903989791870e-02
-4.592334366413921565e-01,-4.486975158529034058e-01,-4.224780945033272395e-01,2.615949598994171330e-03,-1.743783963654019914e-03,-3.384259952064547997e-03,3.374493867158889771e-02
-4.329480725473935365e-01,-4.416240947757770208e-01,-3.896748495278510305e-01,1.032980589655452079e-02,-2.335083362106675844e-02,-1.556227288980404667e-02,7.075122743844985962e-02
-4.197877428789899001e-01,-4.369157639597313625e-01,-3.000222136815446916e-01,8.651220503009295071e-03,4.261900107517088004e-02,2.228045065114240761e-02,1.544390618801116943e-01
-4.493841440499957152e-01,-4.052969093898778352e-01,-4.071982035160169877e-01,-3.802715135213585794e-04,-1.551430073215053071e-03,2.248484011690169912e-03,4.343153163790702820e-02
-4.498984219096632264e-01,-4.323085316085117369e-01,-4.225108920411639324e-01,-4.979018511414905201e-03,-1.410683353798117788e-03,2.674320589629732188e-03,2.606789767742156982e-02
-4.563046372680337193e-01,-4.710124744367066296e-01,-3.733901705528636095e-01,-5.823393835022877725e-03,6.742737825194825181e-03,-4.935984861076897316e-03,9.285388141870498657e-02
-5.065326428053412711e-01,-4.464322671612283577e-01,-2.522848332855145426e-01,2.517795522602656044e-02,1.300213673523358329e-02,1.456184576127720898e-01,3.449590802192687988e-01
-7.094263338260032858e-01,-6.503645469997273443e-01,-4.793097188120221119e-01,-8.004213092608111757e-02,5.146359315724647471e-02,-1.539659449244808742e-01,3.756768703460693359e-01
-4.541534654561207862e-01,-4.092595712015905662e-01,-4.389402802904038836e-01,2.931751514276240318e-04,-3.560811270696214673e-03,-2.864648930278024339e-03,4.033408313989639282e-02
-4.632187422057231219e-01,-4.319754068816661907e-01,-3.626551365643968516e-01,1.552437736102605130e-03,1.878757920686728675e-03,1.597147286306715985e-02,9.343621134757995605e-02
-4.434959959593736123e-01,-4.334364730735912330e-01,-3.072102212702413349e-01,3.114810349421994785e-03,1.156473361895248367e-02,3.425629283896906158e-02,1.457904428243637085e-01
-4.579085747019011610e-01,-4.553508042947325696e-01,-3.336101081423473724e-01,5.811757512761773006e-04,8.078889603239613332e-03,9.629058639157981117e-03,1.249547898769378662e-01
-4.725041305450994322e-01,-4.558406565750652284e-01,-3.641504468640255343e-01,4.790240938762451968e-04,2.567184487944434122e-03,8.669627350436370089e-03,1.022672504186630249e-01
-4.588760716619592062e-01,-4.661071118158658377e-01,-3.856954230196736333e-01,1.482993916540760811e-05,-5.051315434423753713e-03,1.796389593419792824e-06,7.754621654748916626e-02
-4.296242002556323047e-01,-4.260520889239909348e-01,-4.567347991959865294e-01,-4.358881874380391222e-03,-1.489954198662122057e-03,2.741016635435574583e-04,3.014086000621318817e-02
-4.264430014037206007e-01,-4.161282996212018470e-01,-4.099891260997315379e-01,3.588434515625044986e-03,3.373406504332026245e-04,9.522244797090834330e-04,1.578285358846187592e-02
-4.631916729216812301e-01,-4.810945904491513714e-01,-3.269624834345083997e-01,1.967654634532386634e-02,4.244913746716511699e-02,3.631250655771175312e-02,1.784401535987854004e-01
-4.640691942173077456e-01,-4.659912253482867972e-01,-3.457746517814553888e-01,1.000361908182578361e-03,1.189095060575917281e-02,7.500303690632789504e-03,1.217399239540100098e-01
-4.488211530085014500e-01,-4.171338326998695889e-01,-4.319674881724871462e-01,-1.441387357978707578e-03,3.400030163447458759e-03,-4.911845217010421538e-03,2.945126220583915710e-02
-4.598981364388441961e-01,-4.293343922459525452e-01,-4.390459459887072757e-01,1.907562133225669282e-04,1.735233060449222593e-04,-2.101807284638101958e-03,2.729629166424274445e-02
-4.386189972450645902e-01,-4.268823785062212384e-01,-4.313739838661198034e-01,6.309356277937702056e-04,-4.360405601223607715e-03,-1.745019849714350745e-03,1.313679572194814682e-02
-4.519764506122601055e-01,-4.328637292012310067e-01,-4.307963722761039005e-01,1.251981665652713606e-03,-4.628122169684498389e-05,-2.269646951639007926e-05,2.034190855920314789e-02
-5.355130189861694312e-01,-4.840526975049303515e-01,-4.683821183908871144e-01,-1.371747947975494007e-02,-5.334801092562258332e-03,-4.108187670726443086e-02,9.702161699533462524e-02
-4.422172400582159435e-01,-3.814701621541587984e-01,-4.104979265220348728e-01,-5.352194872644247883e-03,2.205374284270667732e-03,-3.047861877244257764e-02,7.521192729473114014e-02
-4.529790110662129665e-01,-4.048410833640163631e-01,-4.396630359011460820e-01,-2.191659125940668799e-03,2.821623553102025651e-04,-3.002508123316433106e-03,4.353465139865875244e-02
-4.606650047024181682e-01,-4.443461307417028716e-01,-4.091360220050308527e-01,1.265339263776274785e-03,-5.625532574247026811e-04,-4.339311419995059774e-03,4.629134014248847961e-02
-4.545790382228559467e-01,-4.313541405568154796e-01,-4.335521752018335895e-01,-4.391441321224535846e-04,2.890374246194813584e-04,-1.056376067633119087e-03,2.230145782232284546e-02
-4.488236364259746702e-01,-4.328388263031754390e-01,-4.295702377554666551e-01,1.600911527070106527e-03,-5.238088944392325962e-04,-5.368007032873924446e-04,1.810585334897041321e-02
-4.522865334483621713e-01,-4.389304900552202238e-01,-4.305500858876967207e-01,2.241024206027035590e-03,-1.231659333495998144e-03,-1.698085573571327589e-03,1.971831917762756348e-02
-4.521103508732440268e-01,-4.274552120625384477e-01,-4.325924370499004135e-01,1.464635993929335476e-03,-4.470447005944587059e-04,-3.046159574442704014e-03,2.329120598733425140e-02
-4.387077479198697172e-01,-3.729755066961610854e-01,-4.058074772812241271e-01,6.148021675504600214e-03,1.170122434475398890e-02,9.236104915554536887e-03,6.340831518173217773e-02
-4.561832768947097216e-01,-3.787299360806172244e-01,-4.274391187099192413e-01,1.789209217713070980e-04,1.419284717148561279e-03,6.819225055868283897e-03,6.888076663017272949e-02
-4.524730450093889522e-01,-4.339158443920418384e-01,-4.300845172249508352e-01,2.841898981520648865e-03,-2.907291216718687482e-04,-1.351115285754964351e-03,2.145009860396385193e-02
-4.596256657247664856e-01,-3.493083272995840538e-01,-3.744399565448176537e-01,1.261060888583649120e-01,1.131385572105346599e-01,1.622477668206414037e-01,4.184630215167999268e-01
-4.687166502938366341e-01,-3.390177461420268434e-01,-4.329707464106971604e-01,6.463911479790155658e-03,2.392031369735079550e-03,4.479670800575393658e-02,1.400932520627975464e-01
-4.464355817329817566e-01,-3.471205935020243993e-01,-4.575667228988137825e-01,1.200408926287644708e-02,6.783940761855930361e-03,1.208377449592274409e-02,1.100057810544967651e-01
-4.467269081666441211e-01,-3.792833914375547399e-01,-4.497648880720550579e-01,4.210431414043170999e-03,-5.318338539838600616e-03,-1.960909903372615257e-03,7.008796185255050659e-02
-4.564996764260916828e-01,-4.276648327710063646e-01,-3.476324011592792917e-01,4.267854744655701429e-03,5.023744514619514663e-03,4.072851796092132048e-02,1.210419535636901855e-01
-4.495337734789210393e-01,-4.194892262655193771e-01,-4.010971017518419335e-01,-5.533812118618601608e-05,9.687140828782633568e-04,4.653422818232048029e-03,4.314296692609786987e-02
-4.479802149958271862e-01,-4.131110833957412631e-01,-4.158509998274720898e-01,-1.451596084840276824e-03,-1.758959402990851453e-03,1.700499396372120737e-03,3.394264727830886841e-02
-4.770682228878437847e-01,-4.416162827689396053e-01,-4.515997139386249692e-01,5.503558315808986662e-02,5.569321693814122121e-02,7.855928334026811288e-02,1.947028785943984985e-01
-4.445606070567635348e-01,-3.905007925428818361e-01,-3.917455321582195005e-01,5.121489174728311583e-03,7.310392687289375344e-03,1.888675998472066561e-02,6.454352289438247681e-02
-4.657649252408599949e-01,-3.541943882893343054e-01,-4.482235123818705258e-01,1.902975266592128907e-03,1.078283015518819712e-03,7.964185326659618119e-03,1.048962250351905823e-01
-4.597832272970966416e-01,-4.568200956166718618e-01,-3.449126261115765257e-01,5.761633761605500481e-05,1.759644123724682504e-03,3.864176939716353759e-03,1.136562898755073547e-01
-4.906141446578350940e-01,-3.279004541269563422e-01,-5.135225677864151406e-01,6.038163708000663515e-02,1.220100664429151979e-02,3.169164987823021307e-02,2.124277651309967041e-01
-4.656723992345549457e-01,-4.115613282819333141e-01,-4.175831801470032967e-01,-8.539997195650415917e-04,-2.472470008359471693e-04,3.654071422432834948e-02,8.152585476636886597e-02
-4.518980431440074441e-01,-4.250724553347141610e-01,-3.784853793669706867e-01,-2.826938544095230436e-03,1.042199698729035515e-03,9.931492156321665779e-03,6.680441647768020630e-02
-4.419575527232643686e-01,-4.162829708100741488e-01,-3.954971172291943393e-01,5.511571476710119995e-03,1.770936486942057287e-03,2.923405668010955593e-03,4.184595122933387756e-02
-4.658429822168750900e-01,-3.683097087871399222e-01,-4.366343346305275874e-01,2.536309256744256110e-03,2.717021192005490086e-03,1.508016180973108938e-02,9.077856689691543579e-02
-4.566395637519095607e-01,-3.673936932217941598e-01,-4.375404992100530577e-01,8.776988785039048198e-04,3.877225733272116840e-03,1.216727454198003253e-02,8.436008542776107788e-02
-4.857224417045646891e-01,-3.056117241458183309e-01,-4.583448838358684663e-01,4.659651512800178086e-02,2.382158719761113402e-02,9.234222392467153484e-02,2.491099685430526733e-01
-7.375698195191613404e-01,-3.326773884041708818e-01,-7.423091160554167178e-01,9.392203109317230625e-02,-2.114330823380473207e-02,7.761199158534382025e-02,4.601687490940093994e-01
-4.216942686927568351e-01,-3.502949461642977380e-01,-4.439698536993436084e-01,4.209977410914629570e-02,-2.466208327058410851e-03,-6.355568187505082449e-03,1.124327629804611206e-01
-4.544430276890971121e-01,-3.937972892320440454e-01,-4.690191071736692918e-01,2.642027486429547253e-02,-6.037769218304075459e-03,-3.726836990696576288e-03,8.378227055072784424e-02
-4.473478276967107758e-01,-4.357814230584873272e-01,-3.243688627558252713e-01,2.249452131339138225e-03,7.169695724123081176e-03,7.316886416439675155e-03,1.190175935626029968e-01
-4.365330933588240092e-01,-3.726435886738144188e-01,-4.563756901938564869e-01,1.087494082815445434e-02,-5.804001734048305251e-03,-8.155500269259948962e-03,7.999199628829956055e-02
-4.524548878514910721e-01,-3.749189944326267732e-01,-4.667788476855010416e-01,1.276095926564353202e-02,-4.304608633160898409e-03,3.662696471840389033e-04,8.872502297163009644e-02
-5.061161894132438777e-01,-3.602953556963309767e-01,-5.445363588320046855e-01,4.296341649479159391e-02,-8.534349700532352714e-03,-1.121270197297966065e-02,1.856758743524551392e-01
-4.613527456275033356e-01,-3.569910475331047328e-01,-4.929430509456367293e-01,3.234074284774598323e-02,-8.380397612816116795e-03,-5.183330725122880893e-03,1.364375054836273193e-01
-4.595464037383176770e-01,-4.578663642995504102e-01,-3.451616568657068784e-01,-6.952364181581188718e-05,1.563006515650809626e-03,4.157795179671608908e-03,1.138144433498382568e-01
-4.261410171497783672e-01,-4.293988740283062877e-01,-4.331257419352745885e-01,2.083659072889935265e-03,-1.871532689197954102e-03,-3.357442878960881488e-03,9.695094078779220581e-03
-6.398689550563589901e-01,-5.390340382843196165e-01,-3.754566820853507680e-01,2.201566105663548684e-02,5.972475133745835940e-02,1.688585040036796048e-01,3.887342810630798340e-01
-5.424163907897611159e-01,-5.477458806890214138e-01,-4.102930573222011712e-01,-1.382520859156890353e-02,2.922783004105809768e-02,-1.740368292267079342e-01,3.349504172801971436e-01
-4.357408471901511593e-01,-4.359085762927144558e-01,-4.301367586668093379e-01,2.413124666280044752e-04,-1.258425483755487573e-03,-3.907484195285179434e-04,6.144718267023563385e-03
-4.377591466146345534e-01,-4.394203089612662150e-01,-4.379166389203820731e-01,2.829927603082963653e-03,-2.960343150672422718e-03,-3.843892728983618057e-03,9.857258759438991547e-03
-4.321045144424615070e-01,-4.305419320651723281e-01,-4.306091701588876663e-01,1.983805369066907621e-03,-2.161934447636686737e-03,-8.016479957266035503e-04,5.486106965690851212e-03
-4.505771096987474800e-01,-3.937955810906529353e-01,-4.152415558738153378e-01,-2.917165052316862423e-03,6.813937406706117297e-04,1.426441514662276158e-02,5.571067705750465393e-02
-4.608057147994906178e-01,-4.080897965668975891e-01,-3.737370683716537689e-01,-1.208226116032200519e-03,-6.017018305937010814e-04,3.051430766221572416e-02,9.256806969642639160e-02
-4.693968400909671601e-01,-5.133739584833445502e-01,-3.959654213775005704e-01,-6.745320565526896107e-03,-2.411550291962164319e-02,-1.397410011998837659e-02,1.141159906983375549e-01
-4.551414964227247784e-01,-3.700237911748485709e-01,-4.308183419898667377e-01,-1.608636360752980750e-03,-2.474815558780570426e-03,1.719194673697289552e-02,8.172597736120223999e-02
-4.425858436967528564e-01,-4.198450880735714041e-01,-4.086853020802204695e-01,8.582986158090007145e-03,7.944199582177343538e-03,1.271598486302884072e-02,4.231887683272361755e-02
-5.844090595465333271e-01,-3.163177063749253448e-01,-3.855264916261459951e-01,-4.473305199747364125e-02,1.320479140984850107e-02,1.622581458306371349e-01,3.789695203304290771e-01
-4.547489198432886348e-01,-4.319528033461859096e-01,-4.314764561329106907e-01,1.051024474204914280e-03,-3.175993188126309780e-04,-1.035993007475748129e-03,2.318588085472583771e-02
-5.143255594391521468e-01,-4.877552794934168490e-01,-4.131279769614599751e-01,-2.072346996296824465e-02,-5.606717584992322589e-03,-2.824170775575639281e-02,1.096975728869438171e-01
-4.425457070982445340e-01,-4.543364626211023882e-01,-4.048606843864019367e-01,-5.431468375485537688e-03,1.080033631264924743e-02,-9.427751263059364062e-03,5.204430222511291504e-02
-4.511013533738426617e-01,-3.344315071654188065e-01,-4.343006101808977171e-01,-1.526722481430674468e-02,-9.283658664937768229e-03,3.825552210599662828e-02,1.314619928598403931e-01
-4.608730981983581998e-01,-4.436318155946368247e-01,-4.085237136774800826e-01,-2.969335251222482951e-03,3.711458707808429651e-04,-4.284692566474328050e-03,4.708597809076309204e-02
-4.650305200391109395e-01,-4.388696252800582953e-01,-3.911864878051690142e-01,-2.038501745849508311e-03,-6.700137956120321044e-04,2.922459906351259490e-02,8.235017955303192139e-02
-4.082593604284169286e-01,-4.538832735150948872e-01,-4.417792867083876751e-01,4.171888751001365920e-04,-4.275754648973605423e-03,-3.140755701319421494e-05,4.160754755139350891e-02
-4.420741390231047174e-01,-3.903622792093189853e-01,-4.521461891905201314e-01,4.968568823224889762e-03,-7.246728072483700489e-03,-1.763297084989964110e-03,5.947554111480712891e-02
-5.504012178375272679e-01,-3.931615523633509857e-01,-4.848655332846332766e-01,-2.050593124801817005e-02,-7.197979729386298937e-03,8.396124408383055793e-02,2.031743377447128296e-01
-4.591112778776735293e-01,-4.363446641442698115e-01,-4.256609419157127427e-01,1.628391293340484582e-03,-7.477473859201886409e-07,-2.659278223102200071e-03,3.008094243705272675e-02
-4.545702186980972170e-01,-4.291461998297549929e-01,-4.331326614738446046e-01,4.397841799735228226e-04,1.505994163178279348e-03,-2.379519211820899007e-03,2.419279515743255615e-02
-4.014927949690850761e-01,-4.068459987968627289e-01,-6.856303579718803221e-02,-1.134969589608184753e-02,3.646118077704643690e-02,9.417524356331054974e-03,3.424819707870483398e-01
-4.630086557644220724e-01,-4.317466000660569181e-01,-4.424559701221785768e-01,-1.063834494686972639e-03,2.395291147275084402e-03,-1.986277717568329243e-03,2.810076810419559479e-02
-4.536632465507541290e-01,-4.282119880022058345e-01,-4.380983389723598909e-01,-5.728126220433884955e-04,2.154020977440206010e-03,-2.093996673399425943e-03,2.284610830247402191e-02
-4.843609475355239447e-01,-4.744604784192788527e-01,-3.961043700551669655e-01,-1.449597304458711449e-03,-9.950839350552373105e-03,-4.231239716270751398e-03,8.585181087255477905e-02
-3.994423740280839685e-01,-3.536261064927337383e-01,-4.445228252446878914e-01,6.532084336950771952e-02,4.750179413573955844e-02,5.711419430016299176e-02,1.885539442300796509e-01
-4.690674883295284370e-01,-4.704968937164464848e-01,-3.794094838649492152e-01,-7.758943549165991027e-04,6.674691927658461072e-04,-3.054454325641713856e-04,9.040011465549468994e-02
-4.315607351049152718e-01,-4.389283393003443057e-01,-3.477912629804868483e-01,-5.585136000770514822e-03,-2.818550464747215933e-02,1.179784767754070256e-02,1.028746962547302246e-01
-4.479809704553568972e-01,-4.024800803795500759e-01,-4.085369299445045788e-01,4.566344362830165556e-05,-6.274437100642407932e-04,6.761038947166397861e-03,4.438182711601257324e-02
-7.792450484175863501e-01,-3.884844981793582064e-01,-7.748523006492078480e-01,-3.989416653915776878e-02,-4.622212454927029229e-02,-1.018437227302891462e-01,4.396556615829467773e-01
-5.245371384361411371e-01,-5.218629995983803394e-01,-4.136696496072037599e-01,-2.131518419280825291e-02,2.948985779806463994e-02,-4.218414979399684461e-02,1.459888666868209839e-01
-4.199307320129359034e-01,-4.028210499542280165e-01,-4.185515873692812749e-01,2.785970660692378871e-03,4.512522940825975867e-03,2.491104598926309217e-03,1.934003084897994995e-02
-4.973203186701171674e-01,-5.209328595875928336e-01,-3.285582590088952926e-01,-1.951984590988782792e-03,3.429996781107272352e-02,-6.594966250213879846e-03,1.915579885244369507e-01
-4.537585697682590125e-01,-4.149609923129622402e-01,-4.189672710678396528e-01,-1.383003075328750886e-03,-1.039229179186393391e-03,2.601120552931348879e-03,3.735162690281867981e-02
-4.443217914031422633e-01,-4.014707336531920245e-01,-4.060873508668642051e-01,3.288993430953573213e-03,2.213654007416609223e-03,2.688005150966061955e-03,4.157557711005210876e-02
-4.736769523867221943e-01,-4.778743056852203241e-01,-3.718216606056808926e-01,-4.862678072016739413e-03,1.289011426919546219e-02,-1.115612325212815906e-02,1.084546893835067749e-01
-4.663709639156122799e-01,-4.638635573944821511e-01,-3.497346412346827860e-01,3.853297176310510348e-03,1.691130547055720232e-02,8.053510460861629944e-03,1.200623214244842529e-01
-4.697613820061166123e-01,-4.367815584377608973e-01,-3.950325015478965973e-01,3.398983149984896308e-04,-8.614158036711805268e-04,8.183585536064644228e-03,6.641547381877899170e-02
-3.808989292252916159e-01,-4.235944900491064868e-01,-4.315423423273412884e-01,5.192964694503686765e-03,9.775746339257868414e-03,1.084360633532423061e-02,5.427490174770355225e-02
-4.712765192757170096e-01,-4.692089232709436009e-01,-3.545800451681795362e-01,-7.837035588676389761e-03,4.260119765366585098e-02,-2.212908157917083465e-02,1.431048363447189331e-01
-5.348480440113394518e-01,-4.968332740788635737e-01,-3.658811237596265586e-01,-1.128760214275439586e-02,-1.517233352992649296e-02,-1.493788001068550690e-02,1.591036021709442139e-01
-4.806981469974231369e-01,-5.273089292290555896e-01,-4.108870618272691955e-01,-3.037358498503017062e-02,6.051330075627403549e-02,-4.544656243949145302e-02,1.739238798618316650e-01
-3.391018648628354448e-01,-2.908068111416711732e-01,-2.233486456216610405e-01,6.458539000822564879e-02,8.958866262752630816e-02,1.274566136017936113e-01,3.089800775051116943e-01
-4.495205674660441297e-01,-4.111074392164654201e-01,-4.069327679428072497e-01,2.588550043848540801e-04,9.145734194615975227e-04,3.626061331452741423e-03,4.117661714553833008e-02
-4.173928907580527481e-01,-4.039345555089032258e-01,-4.100495211439376675e-01,2.449364133330002736e-03,5.034254250082398525e-03,3.503499612452399756e-03,1.634243503212928772e-02
-4.782946746216480971e-01,-4.519997256509957761e-01,-4.620341248938078516e-01,-2.453837208995651720e-02,1.546995147782903243e-02,-3.182953884245579707e-02,7.805108278989791870e-02
-4.500540654265732798e-01,-4.510728529552189281e-01,-3.755028234136577048e-01,6.241701342446878686e-03,5.492394541315288002e-03,5.080862982320372839e-03,7.693957537412643433e-02
-4.218290139445974307e-01,-3.907114930854007628e-01,-4.218669036573963194e-01,4.180660643748317779e-03,1.157698455355541702e-02,5.250618965382604017e-03,3.881624713540077209e-02
-4.396759486053946619e-01,-4.536550749378803205e-01,-3.996026963640923468e-01,-1.316778467307072424e-02,1.500126784895271584e-02,-1.945649508025467864e-02,6.850125640630722046e-02
-4.576465554986146600e-01,-4.568269415873466022e-01,-4.060761747029113522e-01,-1.668293645658698240e-02,4.838912590655121415e-02,-3.524370326683200216e-02,1.191794797778129578e-01
-3.542899698384238683e-01,-4.599227325204564010e-01,-4.465274727234467278e-01,7.373258211200552428e-04,9.054050507958554678e-03,-7.357857362074922978e-04,1.008559241890907288e-01
-4.018666107421878242e-01,-4.091920425497761471e-01,-3.803419926964912712e-01,-2.860117247906935473e-02,3.670117248654118647e-02,-3.208849018857497931e-02,1.012850999832153320e-01
-4.612374814243399013e-01,-4.420241079646370919e-01,-4.462917014347557165e-01,-4.323767144748317560e-03,2.933657364055338498e-03,-9.433956281483187739e-03,2.557877451181411743e-02
-4.353300324402173960e-01,-1.834488642050780272e-01,-4.058083259822710676e-01,4.139692886359314095e-02,1.621408879527286642e-02,9.340667960009511883e-02,2.983017265796661377e-01
-4.584089999035552143e-01,-4.341361211608847359e-01,-3.975503554410400597e-01,-7.780281321549569092e-03,1.837421752698981461e-02,-3.410292711272405741e-02,8.659789711236953735e-02
-3.681010911562117571e-01,-4.446934206580426263e-01,-4.489870061142428037e-01,6.721083192666246764e-03,7.062334842575852811e-03,7.120579244131740142e-03,8.155325055122375488e-02
-4.431977330655959002e-01,-4.260753558425202092e-01,-4.329687646779935006e-01,-8.704868147097817588e-03,8.153405522735588176e-03,-1.241103547303525588e-02,3.333951160311698914e-02
-4.456516389725379002e-01,-4.572164328058508365e-01,-3.549315691700881681e-01,3.895148661779950904e-03,1.236345890236373486e-02,8.011171547083705685e-03,1.005467697978019714e-01
-4.112060521549218972e-01,-4.670311314369001154e-01,-4.112122430191340605e-01,-1.535172292341645262e-02,2.718890111280832661e-02,-6.757047912220023010e-03,7.859899848699569702e-02
-4.484432482744797888e-01,-4.286721881048335958e-01,-4.274591861919012081e-01,-3.144281086781997459e-03,5.431982866902762379e-03,-5.330001589253126337e-03,2.489486150443553925e-02
-4.449264570621908055e-01,-4.455529402686430052e-01,-4.052472435861640965e-01,8.294114946468728045e-03,-4.058416925015861237e-03,-8.056823256425758514e-03,4.527932405471801758e-02
-4.252625016454914531e-01,-4.419329437083397982e-01,-4.370637276046395181e-01,-1.142245145987920820e-03,1.331480949655129394e-03,-2.858396252059646619e-03,1.594317704439163208e-02
-4.112753777746115391e-01,-4.439709669447233220e-01,-3.861188169374756840e-01,-4.442364165860857028e-03,1.185704528381966057e-02,-6.161128803751082274e-03,5.584992095828056335e-02
-4.674976934329561629e-01,-4.726819791261761550e-01,-3.650007879224883567e-01,-6.831598320050264427e-03,7.726812731489925493e-03,-4.832696150409499132e-03,1.070189401507377625e-01
-6.171839861160901552e-01,-7.016439636734566054e-01,-3.514034958857464863e-01,-5.633297973158951644e-02,-1.187713117841665417e-01,-6.821962755118102240e-02,4.074584841728210449e-01
-4.823481556771493928e-01,-4.758760894554904253e-01,-3.928582651073115883e-01,4.102710907766785216e-03,-1.134747214662213191e-02,-7.645068958037744278e-03,8.990704268217086792e-02
-4.614533053741040614e-01,-4.393303656878735919e-01,-4.319660079989709467e-01,-2.254559255570815976e-03,1.020728893905626213e-03,-1.862226836352816458e-03,2.711748331785202026e-02
-4.653845277328679808e-01,-4.329551052523873955e-01,-4.490001158203792975e-01,-3.565988381955687014e-02,2.819768043979599750e-02,-4.472166686682201020e-02,1.139696091413497925e-01
-4.839616418491901606e-01,-4.769724826393302308e-01,-3.905252233680722718e-01,2.407588718985686962e-03,-8.184167524846928943e-03,-1.007252005118919541e-03,9.136490523815155029e-02
-4.662897135639811896e-01,-4.578598204770334967e-01,-2.042184308292179784e-01,3.736109576933908244e-02,1.035346309439869050e-01,7.971312195699124803e-02,3.492156267166137695e-01
-4.511274676479758439e-01,-4.319575756512439302e-01,-4.307132540968330869e-01,-2.551793754474067973e-03,1.021882708004140990e-03,-3.229332504015897717e-03,2.113859169185161591e-02
-4.780676442918790903e-01,-4.764925221293370150e-01,-3.742959778387346947e-01,-7.054515421195077865e-03,-8.458561763434234090e-03,-2.389815638542960689e-03,1.048268154263496399e-01
-5.194920344803857226e-01,-4.992006418871921536e-01,-1.947093600749573439e-01,-5.207737261996118854e-03,8.281914658874772739e-02,-6.709094919469987817e-02,3.653316497802734375e-01
-4.114479454065312902e-01,-4.018154343871902512e-01,-4.257339732187477299e-01,3.524139954462448664e-03,9.065529280211514704e-03,3.509779692989932129e-03,2.748184837400913239e-02
-4.093431360130099228e-01,-4.137891128253783912e-01,-4.102817851382160041e-01,1.682341677598621701e-03,2.223268135698388322e-03,2.210064699361790133e-03,7.378841284662485123e-03
-4.165583125743446136e-01,-4.153448272195290336e-01,-4.111718975391736586e-01,1.823581254804871763e-03,4.033818747080295517e-04,5.666558203636368326e-04,5.947896279394626617e-03
-4.132772352245447922e-01,-4.127188583969733648e-01,-4.122838125486043559e-01,1.594036278155340838e-03,5.134730016221726329e-04,1.001282384001068180e-03,3.487905720248818398e-03
-4.168895962848911396e-01,-4.073133918635130080e-01,-4.229319260724636598e-01,2.600404610839870609e-03,6.402267338901545396e-03,3.254833150677257942e-03,1.900292746722698212e-02
-4.451417939473319985e-01,-4.573258258169168866e-01,-3.548097368644432259e-01,3.956699051105187076e-03,1.244608654329921321e-02,7.954292023021662661e-03,1.005506515502929688e-01
-4.384097113230656095e-01,-3.770551546274645838e-01,-4.704907765493123173e-01,-2.911390471510842334e-02,-1.397713398820867557e-02,2.602208296587203359e-02,1.091891974210739136e-01
-4.457986042736378218e-01,-4.300457102494383843e-01,-3.881208648653041715e-01,6.276237847752972471e-03,5.098637188350445965e-03,5.803741338165322415e-03,5.443800240755081177e-02
-4.179504134638767354e-01,-4.137434953949542527e-01,-4.161027889768023624e-01,-2.166728722948289268e-04,1.841421057389056601e-03,1.382284560141117634e-03,5.420750938355922699e-03
-4.222901163990804285e-01,-4.158795869332794770e-01,-4.126107558828478461e-01,1.050544259108363715e-03,1.158289761228796858e-03,1.044248543632414050e-03,9.129199199378490448e-03
-4.182291973226216486e-01,-4.089794894907674006e-01,-4.089417752988313004e-01,2.825287169356591795e-03,1.137243725474993902e-03,8.911036394087408757e-04,1.077572628855705261e-02
-3.839124497574830652e-01,-4.676787809097420201e-01,-4.466011796658720390e-01,2.459461039812580602e-02,3.570146394502528991e-02,1.441182399129449683e-02,1.093482524156570435e-01
-4.540662255904763245e-01,-4.817872398303958414e-01,-3.868294445697131878e-01,7.124273596303123610e-03,3.310072204275972541e-02,1.067656610572230609e-02,1.045672893524169922e-01
-4.465319227393601542e-01,-4.636601358601711298e-01,-3.511972734564403620e-01,-2.125374267506947336e-03,1.005855347671818882e-02,1.141120562512936646e-03,1.064704880118370056e-01
-4.347419393563613510e-01,-4.361179442423051000e-01,-4.016890500593046087e-01,7.473364672181970376e-03,4.266925505871291442e-03,4.844421322100204812e-03,3.784767538309097290e-02
-3.693949547982201542e-01,-4.316267563489187831e-01,-4.432901820843532792e-01,1.051064498447398105e-02,5.619804825810547494e-03,9.220253603863233158e-03,7.359263300895690918e-02
-4.325277404042605633e-01,-3.867767239533548285e-01,-4.646936129073353516e-01,6.806462970789306684e-03,1.432086096038392249e-03,9.484777981659659168e-04,6.890033185482025146e-02
-4.134874402793501935e-01,-3.845484214421613367e-01,-4.272752018351923531e-01,5.163158480076481330e-03,1.258590176419512735e-02,7.417678067170380835e-03,4.633388295769691467e-02
-3.907227370954838852e-01,-4.148314344445097612e-01,-4.088896344240199321e-01,4.794547080160579261e-03,6.599157265592561425e-03,1.037228464483310603e-02,3.155388683080673218e-02
-4.003529174512855393e-01,-3.964842742182642099e-01,-3.979368407775147332e-01,8.188999155974761510e-03,5.640607294566523690e-03,7.513478868244720561e-03,2.185045741498470306e-02
-4.221278908450329936e-01,-4.289817022449072259e-01,-4.192255132152072905e-01,4.314581177115666376e-03,3.005723153203502043e-03,4.673874582218595988e-03,1.495914906263351440e-02
-4.420543748358494174e-01,-4.433065710342085075e-01,-3.689825959081481921e-01,-3.956841012886539062e-03,6.889328677457325599e-03,-6.452717021302007642e-04,7.498773932456970215e-02
-2.920498050207736007e-01,-3.828928890090151360e-01,-3.399892453246486368e-01,7.246177045507691539e-02,1.221081644418277323e-01,7.172213535707654131e-02,2.865505516529083252e-01
-3.895312516472048125e-01,-4.638483855607659079e-01,-3.990362091905819697e-01,5.498306484198334926e-02,9.689668825790805073e-02,5.511740800656130673e-02,2.264003157615661621e-01
-3.629504873706607682e-01,-5.059992056737390165e-01,-5.129869626791445647e-01,6.655508006086485739e-02,6.175109517338594339e-02,2.043245507541010392e-02,2.179269194602966309e-01
-3.502535689583944345e-01,-4.123588232177468060e-01,-4.196182287927275323e-01,3.657744041096810256e-02,3.070969862931911473e-02,2.024375406384255546e-02,1.115034595131874084e-01
-3.984449895855863288e-01,-4.453544371415981140e-01,-4.036764196998808285e-01,1.545046037691967826e-03,4.604786728652220627e-03,3.347872742842073878e-03,4.568215087056159973e-02
-3.657473385480777273e-01,-4.311744941844909973e-01,-4.332174888583836259e-01,6.922379368804229549e-02,4.371288062301088156e-02,3.197868349026665447e-02,1.661165654659271240e-01
-3.374763167467297320e-01,-6.027849822337791874e-01,-5.002945145177164488e-01,6.669597097552192044e-02,1.665174259790007660e-01,3.670390477261525897e-02,3.927749097347259521e-01
-4.547793598888200672e-01,-3.874829289917411379e-01,-4.402303522475431996e-01,4.060310550479731377e-03,-3.659112290175957951e-05,-1.479244853100876271e-02,6.683785468339920044e-02
-4.462825373655617822e-01,-4.246905468719193166e-01,-4.434586179224419000e-01,-1.689729203164326348e-03,5.140395292455323707e-03,-2.107592014774014623e-03,2.267987839877605438e-02
-4.435178508959475296e-01,-3.205506758099589959e-01,-4.496985548937533772e-01,-7.925042709795661246e-04,-6.379838923154642662e-03,-1.321045286430594032e-02,1.287116557359695435e-01
-4.446008023235575868e-01,-4.165521607832969875e-01,-4.209891708121285547e-01,-3.863134613749142493e-03,-3.919806238096438036e-03,5.369374916367641165e-03,2.931412495672702789e-02
-4.728087394306209612e-01,-4.070842094711037973e-01,-4.143464509391270312e-01,5.253400234049688568e-03,-1.867255137406456612e-03,-3.006455425794437447e-02,8.185373246669769287e-02
-4.431135995764761137e-01,-4.262778905563219256e-01,-4.086592655455911216e-01,-2.229434307826934272e-03,2.656514895824654051e-03,-8.091520834557231964e-03,3.351088613271713257e-02
-4.554934197059697376e-01,-4.149178554497445215e-01,-4.371481823729131411e-01,-7.399590580481676125e-04,2.049078607598609630e-03,-5.660138951958267745e-03,3.672745823860168457e-02
-4.471259989330144680e-01,-4.320308161077859865e-01,-4.198158019593580814e-01,-3.191528516257119853e-03,8.643256019148233115e-04,-2.514454128416871489e-03,2.476338297128677368e-02
-4.578620725865367724e-01,-4.093914883483180667e-01,-4.286434087825299888e-01,2.153225311754833251e-03,1.824795710724349531e-03,-1.042376269383997467e-02,4.622494429349899292e-02
-4.646889844284265436e-01,-4.133257379548777033e-01,-4.438985383643797578e-01,1.916597928836886880e-03,-3.718712693355306757e-04,-5.400278175758989503e-03,4.584195464849472046e-02
-4.308686690915288775e-01,-4.268793434838238365e-01,-4.324260854948704935e-01,-2.004758688729906587e-03,-2.862978296427328827e-03,2.158414274579296358e-03,8.670448325574398041e-03
-4.148188350781206735e-01,-4.316455596917652127e-01,-4.712760177286142160e-01,-5.060069106240697168e-02,2.459180658119046806e-02,-2.848573007644156566e-02,1.202099546790122986e-01
-4.509688401327801577e-01,-4.299554691102301929e-01,-4.322469460136079134e-01,-1.156874132111527240e-03,5.976282666977643550e-04,-6.594361321657772439e-04,2.012590691447257996e-02
-4.398241904490837739e-01,-4.298541061777957362e-01,-4.513338091032989552e-01,-1.576078350621574814e-03,3.523138481355192128e-03,-7.495045097608488876e-04,1.982424408197402954e-02
-4.410471234002369401e-01,-4.291919340403988481e-01,-4.382921948469424844e-01,-5.124550735575439386e-04,1.154414405556708750e-03,4.912625635536963950e-06,1.096635125577449799e-02
-4.437074246463169613e-01,-4.039434063753002957e-01,-4.068984787640151923e-01,-1.762691588299525021e-03,-3.145984745959343014e-03,6.386602545618623103e-03,4.042008146643638611e-02
-4.342597416158012757e-01,-4.234112170168141676e-01,-4.478565442942653019e-01,-3.061847471132652168e-02,1.573669787383638261e-02,-1.497971829199703890e-02,6.840065121650695801e-02
-4.367269681773944257e-01,-4.285376199833962896e-01,-4.184866987240537517e-01,-5.209769264297600677e-03,2.549152701453776849e-03,-4.758339647143260305e-03,2.047539874911308289e-02
-4.213929168523385949e-01,-4.290052076834645067e-01,-4.227912515316976649e-01,-1.642610066253940779e-03,3.318534904947881108e-03,-2.863828947772816946e-03,1.072356570512056351e-02
-4.216331869836285606e-01,-4.385966231268667026e-01,-4.294344471164477928e-01,-1.043200950765566307e-03,2.357447339302337023e-03,-4.623703931084119367e-03,1.733075454831123352e-02
-4.541773396712940891e-01,-4.367442716073942632e-01,-4.314426444830166130e-01,-5.405221828728459972e-03,4.768528355609723268e-03,-5.932504938444289194e-03,2.618954889476299286e-02
-4.234326126954916503e-01,-4.661980627699169322e-01,-4.417624135684861675e-01,-5.019124850804164775e-03,1.640398714360656596e-02,-9.490273149637275252e-03,5.033911392092704773e-02
-5.071738501101236141e-01,-4.908801259430547459e-01,-3.309035575191208167e-01,-2.656533020609966669e-02,-2.095154842788133839e-02,7.017772810484559920e-02,2.160402685403823853e-01
-4.304687885048559259e-01,-4.195508699814166631e-01,-4.024987385470650270e-01,5.412665448252012429e-03,2.002782241430054594e-03,3.566237065114761986e-03,2.709664776921272278e-02
-4.545505225809921557e-01,-4.520330103534875854e-01,-4.094730095791399571e-01,5.860977374263007592e-03,-3.636437530487258464e-03,-8.167132719261312526e-03,4.762002825736999512e-02
-3.974875161652762223e-01,-4.278266165879316407e-01,-4.104950137587525805e-01,2.473569061517909371e-03,3.174338233341050548e-03,6.611280017730179932e-03,2.957587130367755890e-02
-4.438562541945186846e-01,-4.138623236573862885e-01,-3.821983592423285891e-01,-7.491722028509374687e-03,-6.369342413731671378e-03,1.150815863118998320e-02,5.949256941676139832e-02
-3.910400148630864270e-01,-4.289120194832262700e-01,-2.591510552351319330e-01,-1.432980402767737409e-02,-6.069028555141560421e-02,1.389058642029322894e-02,1.899175941944122314e-01
-4.899280697302256238e-01,-5.006218324162573508e-01,-3.806635156095090622e-01,-1.163331347537349333e-02,-1.315222652798959078e-02,1.539720109818062781e-02,1.218922287225723267e-01
-3.996000333299733476e-01,-4.495134456731723627e-01,-4.143631961187415058e-01,2.519936070449131302e-03,4.103490695518924140e-03,1.646727387998707989e-03,4.527826234698295593e-02
-4.625335657237621967e-01,-4.891187946016677390e-01,-3.741989857481622939e-01,-1.268607742636931705e-02,-2.899127332213242633e-02,-3.836756939329383567e-03,1.179263368248939514e-01
-4.797176514725657870e-01,-4.766741405559219436e-01,-3.793140525899452720e-01,-3.432904148683080248e-03,-7.129518625277936686e-03,8.485839609527054059e-03,1.009377986192703247e-01
-4.603592685124075490e-01,-4.260278802116660435e-01,-4.098319054612761803e-01,-2.286571989087695256e-03,-1.026163313764631756e-03,2.659270084313729646e-03,4.513362050056457520e-02
-4.218739066463191856e-01,-4.443076931018712927e-01,-4.458074330062167245e-01,-1.676800607840182693e-03,2.543184114275236392e-03,-5.479124238311315273e-03,2.563336864113807678e-02
-4.715428407565206426e-01,-4.711564204417249546e-01,-3.719585926528067299e-01,-2.328297728942008323e-03,-4.276627079487441661e-03,9.979319568180778852e-03,1.012352854013442993e-01
-4.278320138285368057e-01,-4.397470913799176317e-01,-3.804141857140226346e-01,7.253728359859095733e-03,7.483089819888751569e-03,5.169890640862909517e-03,5.797783657908439636e-02
-4.076317207201808901e-01,-4.304738107746278186e-01,-4.061561678353666216e-01,1.167927181975057880e-03,3.966613766355029259e-04,1.602247624964297113e-03,2.387276291847229004e-02
-4.804036503276053471e-01,-4.948526791699990879e-01,-2.519781874998440196e-01,-1.696410921826218068e-02,-4.936705251039492232e-02,-1.743358806089022111e-03,2.527276575565338135e-01
-5.183363780763170503e-01,-5.240283103213777549e-01,-3.557314347672165256e-01,1.466298016524202898e-04,4.149822529050806695e-03,2.925189965701333397e-02,1.732542961835861206e-01
-1.734926972160414638e-01,-4.106414980062439990e-01,-3.692768081586312867e-01,-6.188185981285576620e-02,9.125379617936338339e-02,-3.778454941702165393e-02,2.981507778167724609e-01
-3.743611891511002820e-01,-4.602934586740131673e-01,-4.471317597214358730e-01,-7.828947473662393325e-03,2.651952219224263524e-02,-3.637197432255457989e-03,9.359481930732727051e-02
-4.463889056411521339e-01,-4.533807202810253845e-01,-3.291936567132694447e-01,6.854073083248686396e-04,8.203666905352440669e-03,1.271375032301563920e-03,1.217011809349060059e-01
-4.668506465674771566e-01,-2.677627930298773773e-01,-4.672823756277978413e-01,5.338075828843791976e-02,-1.854855467232794167e-02,-4.844176659938612128e-02,2.373659312725067139e-01
-4.193574162100138225e-01,-4.436991403280992063e-01,-4.010625528537917206e-01,5.042069442189112301e-03,4.077443075609232456e-03,2.108583465224818983e-03,3.888486325740814209e-02
-4.777808155923049527e-01,-3.806111125849750421e-01,-4.819784378663422575e-01,-2.047431310187987005e-02,-1.866344123300497232e-03,2.332271339559782112e-03,1.056021451950073242e-01
-2.529473874560433933e-01,-3.870912424081486836e-01,-3.875821667905954282e-01,-8.121983541159158437e-02,9.344948762844526580e-02,-3.781138891420086912e-02,2.614157199859619141e-01
-4.223817889467663123e-01,-4.501467684570961691e-01,-3.543952321767327440e-01,6.023610289320708655e-04,1.942848760237131725e-02,1.817973686730477026e-03,9.178297221660614014e-02
-4.552911959958769184e-01,-4.479688780284682426e-01,-4.277517772538638186e-01,-4.299196670570481875e-03,1.005799374681099010e-03,-2.054202681502459698e-03,2.610607072710990906e-02
-3.715848573830231039e-01,-4.436259830751465572e-01,-3.950295538156638475e-01,2.062423612936272257e-02,3.717502340188709453e-02,2.307926682922504039e-02,1.052168086171150208e-01
-4.594363121947729334e-01,-3.564923813442087419e-01,-4.610778759546578787e-01,5.441875591222740567e-03,-6.535648351993133230e-03,-8.850138702707451704e-03,1.059296801686286926e-01
-4.513513170808640118e-01,-4.164005463840338983e-01,-4.037239084157729363e-01,7.064600540652050129e-04,-2.829423628445628292e-04,3.601098305894584028e-03,4.319667816162109375e-02
-4.460996925625497767e-01,-4.210029978104205539e-01,-4.539451916590899749e-01,-3.385056298376120255e-03,3.218305722318765428e-03,-2.670106665389373156e-03,3.122705221176147461e-02
-4.492828737719204435e-01,-4.124169059850964492e-01,-4.017539787943840701e-01,-1.274915349085329165e-03,-1.327560401500696983e-04,3.518283687373808134e-03,4.368020966649055481e-02
-4.412400521414719390e-01,-4.279076988133609927e-01,-4.356318921518109177e-01,-4.461725819297506944e-04,1.132076980918004031e-03,-5.019926939463523544e-04,1.181656122207641602e-02
-4.471037680746746124e-01,-4.297747500897305395e-01,-4.408846460402032208e-01,-1.176090828812358016e-03,3.849196986555447619e-03,-7.486386413670675661e-04,1.677739433944225311e-02
-4.503507534324093786e-01,-3.622030290384443685e-01,-4.603218457455799939e-01,1.156187235648472277e-02,-4.865674467994050151e-03,-1.079874724490045325e-02,9.782774001359939575e-02
-4.496226909098736124e-01,-3.436716995647131068e-01,-4.635678488234747374e-01,5.249377792682041050e-02,-1.684287081206309713e-03,-4.780639588304336392e-03,1.457444578409194946e-01
-4.980811027964126003e-01,-3.289433792852438643e-01,-5.154340049538221891e-01,6.002206902402593830e-02,-6.669145941618074332e-04,1.691693894073352175e-02,2.085942327976226807e-01
-4.361449857809289732e-01,-4.343186055754263974e-01,-4.404490172267167547e-01,-4.591587103187395750e-04,5.358058513308924841e-04,-2.153845244272033308e-03,6.718038581311702728e-03
-4.322789696531630921e-01,-3.058919397632205439e-01,-4.520765825037850183e-01,3.763946823384068524e-02,3.178825221360800056e-03,3.522214990075707257e-03,1.522678881883621216e-01
-5.128814861705749406e-01,-3.460875375644159591e-01,-5.351560667155761397e-01,5.706567415129016468e-02,2.238290455578499389e-03,2.992260566660622303e-02,2.109555304050445557e-01
-4.922601719069967241e-01,-4.802598445830177920e-01,-3.636263804161656843e-01,-9.470355425881787914e-03,-2.231186789942306292e-02,-2.158483330174597314e-02,1.353042870759963989e-01
-4.352867708906261179e-01,-4.319851004747889411e-01,-4.339648897779936898e-01,-2.387743603493080926e-03,3.458741441801085285e-04,-9.778528461551786680e-04,5.349338054656982422e-03
-4.468509871982958015e-01,-4.326552013042912481e-01,-4.293672816249383128e-01,-2.896852771559630096e-03,1.425038942489875640e-03,-1.663776224734673636e-03,1.727938838303089142e-02
-4.922884056764028071e-01,-4.912898197643842946e-01,-3.496097123015772801e-01,-8.147523583118036761e-03,-4.717086154193769407e-03,-4.015370274148799892e-03,1.432829350233078003e-01
-4.403693093636810718e-01,-4.267080400134483642e-01,-4.361122778997179039e-01,-1.304877650140516369e-03,2.238536386237667021e-03,-9.556450888159120655e-04,1.301833987236022949e-02
-4.585179688203556703e-01,-4.274136879338666928e-01,-4.269292967892074908e-01,1.855558538435515565e-03,1.697907411849759827e-03,-1.248363669417947713e-02,3.833117708563804626e-02
-4.607020462164285735e-01,-4.496418857847713779e-01,-3.903804970265554730e-01,-2.619568977870040220e-03,1.181441010909842996e-03,-1.290645773889047276e-02,6.938432157039642334e-02
-4.548315950853922263e-01,-4.336899002346461529e-01,-4.180061310012745945e-01,1.217392243962971653e-03,-1.214375779957567025e-03,-1.057619454690167729e-02,3.699961304664611816e-02
-4.365663270546903951e-01,-4.271698950896047897e-01,-4.332267816184194875e-01,-1.849496545164830766e-03,1.156446467292382733e-03,-1.278514558236520503e-03,9.340423159301280975e-03
-5.094117961758043434e-01,-4.754666794402466201e-01,-4.177677488580178733e-01,-6.283258293372611693e-03,-1.861238583052856471e-02,-2.558842753893946290e-02,9.778567403554916382e-02
-4.055707258971932849e-01,-4.493701275917353355e-01,-4.141752502807241609e-01,9.915248508563206942e-03,2.248691679391733381e-02,9.900473785471656379e-03,6.100435554981231689e-02
-4.454819597825724342e-01,-3.965125428896698057e-01,-4.005969276515257693e-01,-7.373613883583237066e-05,6.215409544755362212e-04,5.560572022079616518e-03,4.804800823330879211e-02
-5.366252984415219585e-01,-4.890690802494248590e-01,-4.344252307109984779e-01,4.158327149231806630e-02,-6.130565805801656970e-02,-1.141129097489711058e-01,2.517421841621398926e-01
-4.149779060834759004e-01,-3.179144133072399070e-01,-2.717503667732238393e-01,6.144765258615370171e-04,-9.680960235888387555e-03,-1.209414286398897698e-01,2.453488707542419434e-01
-3.951287306384269615e-01,-4.382802071817632483e-01,-4.466573860486888203e-01,-3.253887132042365335e-03,9.813346515139608622e-03,-4.945096901040601893e-03,5.184346809983253479e-02
-4.188632009156780800e-01,-4.050859316154206691e-01,-4.033429089807106793e-01,6.227017021402288417e-03,1.970758651358769844e-03,3.026449026944232502e-03,1.929565891623497009e-02
-4.035977309080694408e-01,-4.210433742474831154e-01,-4.147885164019700088e-01,2.277747026614379208e-03,2.911074936068540862e-03,7.459432322343604281e-03,2.103023044764995575e-02
-3.816190721291985999e-01,-4.038274535145884303e-01,-4.248388302085007173e-01,2.308679023779815556e-02,1.746879971122190095e-02,1.720191790543745478e-02,6.930737942457199097e-02
-4.116091303625338815e-01,-4.340529053436736340e-01,-4.145650121877418881e-01,1.191302502343001600e-03,5.590722275699372629e-04,3.542285521859062526e-03,2.211239002645015717e-02
-3.912621170202093546e-01,-3.046409371876522831e-01,-2.134418472737515948e-01,4.673465257450765131e-02,8.146632445503780573e-02,1.429892736163617117e-01,3.339472115039825439e-01
-4.127089831933095643e-01,-4.260694358130665549e-01,-4.427638735937903802e-01,1.324251514105726293e-02,1.219727856585963582e-02,1.092625455824744810e-02,4.484209790825843811e-02
-4.141237030467572189e-01,-4.002483359444147237e-01,-4.349515517765895067e-01,2.431214165029471110e-03,7.961340119863258985e-03,2.241984442073242847e-03,3.373840451240539551e-02
-3.948508607268320092e-01,-3.290157898001920267e-01,-3.732620193063138081e-01,5.397482254425241266e-02,4.135872914889425489e-02,6.234094199650189877e-02,1.700284928083419800e-01
-4.240205957027391448e-01,-3.603550549412004034e-01,-4.405741590812464747e-01,1.422820642596694940e-02,1.064215195842984664e-02,5.820484645831771643e-03,8.018690347671508789e-02
-4.186935968034360411e-01,-3.635281042731594581e-01,-4.216685441942889523e-01,1.180786711760429403e-02,1.181460672322644928e-02,1.074593121726043904e-02,6.632988154888153076e-02
-4.072673913254811207e-01,-3.820407265743707148e-01,-4.354386674713587313e-01,8.404748711949211470e-03,8.175722100678970219e-03,4.447427038779407961e-03,5.111221224069595337e-02
-4.079694610914034736e-01,-4.396054252611811264e-01,-4.105381597935475746e-01,4.691819866301179080e-03,6.099005338618596062e-03,5.940816081020068064e-03,3.478048741817474365e-02
-4.053186890961766875e-01,-3.752864390655159532e-01,-4.375444189251645466e-01,9.903513494819446775e-03,8.634424584035576763e-03,6.712679282326963932e-03,5.967682600021362305e-02
-4.262192314720499309e-01,-4.310004375041589508e-01,-4.480947342533598832e-01,-6.880892577182037839e-03,-3.866811700966315320e-03,6.051745504235599322e-03,2.633579075336456299e-02
-4.139331986261532981e-01,-4.127850123859718723e-01,-4.144236979492179063e-01,5.858134127103965891e-04,1.216808889834182679e-03,7.572828127093764313e-04,3.051874926313757896e-03
-1.862257389919612094e-01,-4.521093105663667733e-01,-4.615421100246904773e-01,9.263005262160669412e-03,4.549852692215103009e-03,-1.725360813075094493e-02,2.729535698890686035e-01
-4.254469362784026876e-01,-4.448668312166599859e-01,-3.986582497302384454e-01,-5.601696882675104641e-03,4.651126009098044585e-03,-1.347737119013603553e-03,4.218393936753273010e-02
-2.796015065542388212e-01,-4.070146520701622417e-01,-4.195389960786096162e-01,-5.924464660212289124e-02,-6.275356147178412503e-02,1.200307509666887797e-02,2.018979191780090332e-01
-4.326625183794634566e-01,-4.735185162736217368e-01,-4.975589581475453049e-01,-2.049765442896429174e-02,3.395002376498414007e-05,-6.684819034677731003e-03,6.799909472465515137e-02
-4.452691729973001777e-01,-4.519433042808012613e-01,-4.858334803001528313e-01,-1.643819090048697154e-02,-4.300049959812669680e-03,-2.981601639345590315e-03,4.808387532830238342e-02
-4.136018142279302423e-01,-4.146378535358997697e-01,-4.113222264196517708e-01,1.621858688993525321e-03,5.409027684519577802e-04,1.011631234641128608e-03,4.524471238255500793e-03
-3.714041201326935271e-01,-4.574206089066502612e-01,-4.608262368780740026e-01,-5.688733359567006882e-03,4.437670581222067333e-03,7.304386579547886629e-04,8.866306394338607788e-02
-4.036365665193792918e-01,-4.478449819772686857e-01,-4.056066855250201608e-01,4.609133917302158073e-05,2.288811580730546087e-03,7.856117109708108401e-04,4.345967620611190796e-02
-4.182442490878254260e-01,-4.568995787469609104e-01,-4.639055469187463587e-01,-8.864615194437888701e-03,-6.358869832725163630e-03,3.876102578359830273e-03,4.707715660333633423e-02
-5.095242061736978689e-01,-4.495902994221959159e-01,-5.238244176449021738e-01,-6.438142532971136145e-02,-4.476930747453670284e-02,3.192085961213819711e-02,1.617350876331329346e-01
-4.054840946290405590e-01,-4.138366087711816133e-01,-4.313991098017204151e-01,2.611916525295038087e-03,1.550133541965639881e-03,7.160381956900393509e-03,2.657790854573249817e-02
-3.796558050571300913e-01,-4.575418532334796229e-01,-4.296175054374403723e-01,6.970099416786935259e-04,7.157607625902282118e-03,-1.518693062806450141e-03,6.952092796564102173e-02
-5.006878012016856561e-01,-4.978021389533429653e-01,-5.081977846902928642e-01,-4.707229652605871006e-02,2.315826242570479324e-02,-4.662898119149581910e-02,1.219241693615913391e-01
-3.837800198539299545e-01,-4.547558177650554700e-01,-4.069758187118982518e-01,-1.504890791714528619e-03,1.719621421025620267e-02,5.990076927022523409e-03,7.021990418434143066e-02
-3.779842340698932324e-01,-4.584598629121803826e-01,-4.396675423332558341e-01,-8.214099628344165641e-03,1.344238978462132875e-02,-5.418899508806538159e-03,7.842037826776504517e-02
-3.696947693988736905e-01,-4.676851593564826937e-01,-4.644944767297763399e-01,-7.444955409584753762e-03,6.543568797179297007e-03,-8.369723573534725708e-03,9.901785105466842651e-02
-4.240079792001658077e-01,-4.507254932286753335e-01,-4.672592369224657927e-01,-1.410656912062998106e-02,5.240162061750301518e-04,-3.399488827756149203e-03,4.540275409817695618e-02
-3.990841747528225958e-01,-4.124519114537866793e-01,-4.334151566371622910e-01,3.399243099356575194e-03,6.127474960465563794e-03,8.753201617562534481e-03,3.571474924683570862e-02
-4.358979048221877095e-01,-4.405457433525316047e-01,-4.248739852834388375e-01,-5.012930424121628085e-03,1.312166169239745725e-03,-6.817590215552287282e-04,1.662271842360496521e-02
-4.380522537475118883e-01,-4.260014188881277586e-01,-4.598063121129716269e-01,-8.989997126793819807e-03,-1.036456163391965375e-03,2.018460112069289745e-03,3.374198824167251587e-02
-3.712624147587226808e-01,-3.172478447518382039e-01,-4.357948629978986022e-01,5.918818915820710930e-02,2.117871073412798746e-02,2.105962029733229532e-02,1.541219204664230347e-01
-4.436652665023162467e-01,-4.303402241349032487e-01,-4.357731840186111483e-01,-2.014482399429450617e-03,3.202336554324570258e-03,-2.728794917199702571e-03,1.414063852280378342e-02
-4.716364034239717840e-01,-4.677049358950765567e-01,-3.868219463756698007e-01,1.465181850607064074e-02,2.615393513580532847e-02,2.555338490807142204e-02,1.073803603649139404e-01
-4.368615151789419504e-01,-4.308167750929980944e-01,-4.386640415680789773e-01,-1.534260243948010844e-03,1.316140567277617824e-03,-1.607945820053427238e-03,8.408257737755775452e-03
-4.361700765467062535e-01,-4.285830505656197942e-01,-4.366046560521131270e-01,-8.105799338122529390e-05,-2.683362245230924334e-04,-3.340879361927919108e-04,7.849812507629394531e-03
-4.591383598535848098e-01,-4.554197520593380455e-01,-3.557233671058523394e-01,1.275109364088003808e-02,2.459569182861180703e-02,2.484076869308190702e-02,1.203234642744064331e-01
-4.221431179415153778e-01,-4.265206444253510920e-01,-3.479779125770460779e-01,1.440735170233691485e-02,1.638413924320815743e-02,1.376513339631998435e-02,8.854813873767852783e-02
-4.647715992431173393e-01,-4.445616662689609866e-01,-3.966578634690711702e-01,9.584394453593549426e-03,2.632201482971865264e-02,2.651780159466573736e-02,9.019455313682556152e-02
-4.349406496993572513e-01,-4.310686584462929960e-01,-4.315729016213118441e-01,-2.745200744459353262e-03,-2.274207533759067584e-04,-6.566481643573335346e-04,6.111567374318838120e-03
-4.359868455757139327e-01,-4.292785152908977220e-01,-4.358067585882484662e-01,-4.142897175270249146e-04,1.924052177622224643e-04,-7.264575402424638430e-04,6.784926634281873703e-03
-4.275969873603841509e-01,-4.147262959990096198e-01,-3.445193447071487891e-01,1.326116744048940962e-02,1.292905786240352607e-02,1.427290351549056514e-02,8.739843964576721191e-02
-2.465592092954921599e-01,-2.889500415330331085e-01,-3.579048829200531801e-01,1.381774082306349016e-01,9.465132289234054475e-02,8.580666964343024172e-02,3.401746153831481934e-01
-4.026773621857118735e-01,-4.020826709000118182e-01,-4.327837631805063756e-01,8.275048910945759922e-03,8.161343079975390616e-03,6.525373783065295009e-03,3.817913681268692017e-02
-3.921757669222886156e-01,-4.517636039937507064e-01,-4.051754479153167887e-01,4.929003303761962662e-02,5.894452417246041909e-02,3.591428672172217867e-02,1.566093266010284424e-01
-3.842708918271764973e-01,-4.367328268802492808e-01,-4.606615634769082868e-01,9.296300687723976774e-02,6.716411650053961957e-02,5.138636254151664196e-02,2.279501706361770630e-01
-4.465918223066411841e-01,-4.152746097678655102e-01,-4.151441289551523472e-01,-9.998970211624979947e-04,1.760767557254289692e-03,-1.122949840210601610e-02,3.708741441369056702e-02
-4.260896271428491477e-01,-3.988207343477180311e-01,-4.520540710215895097e-01,-2.230409848438951945e-02,1.112067485080707636e-02,-1.358329400120460682e-02,6.739963591098785400e-02
-4.050296291282176608e-01,-4.279879100959803617e-01,-4.030992530382584427e-01,3.160207678326944474e-03,1.593918795024251234e-03,1.741850750248832977e-03,2.493615262210369110e-02
-4.123902357888616366e-01,-4.203618985899541527e-01,-4.101753715210891271e-01,1.016437190528744934e-03,-4.344518496253940514e-04,1.344307140274458596e-03,9.756861254572868347e-03
-3.655347541808619538e-01,-4.492474046353351347e-01,-5.191253812962546288e-01,9.517290792002632005e-02,2.634396221886955644e-02,6.483171016089129407e-03,2.170764058828353882e-01
-4.089240336859958358e-01,-4.177526379396236389e-01,-4.095409629982514343e-01,2.919959890010633951e-03,9.493567326052887662e-04,1.833112709597178999e-03,1.054710708558559418e-02
-6.654488444659297786e-01,-3.881458562149728286e-01,-6.308721680039770519e-01,-9.664214877679101756e-02,-5.638165229960172969e-02,-6.065368629919433430e-02,3.421939015388488770e-01
-4.203523989757556034e-01,-4.504273329384602675e-01,-3.968884229311128720e-01,3.729794345973644083e-03,5.262213255962064004e-03,1.174594202849762103e-03,4.785063490271568298e-02
-4.594096353511400999e-01,-3.657689154243013441e-01,-4.296125230616585355e-01,6.919991333605859420e-03,-2.113610168654566149e-03,-1.986318678290164771e-02,9.059210121631622314e-02
-4.511155528417025162e-01,-4.298491114272260938e-01,-4.110861030848055875e-01,-1.963854873705546834e-03,8.085621284599426358e-04,-7.876009271172955406e-03,3.745611384510993958e-02
-5.079168037842597405e-01,-4.526277926715423505e-01,-4.649156454969061714e-01,-2.747874121470410963e-02,1.118884059870769694e-03,-4.460393087897909781e-02,1.037594079971313477e-01
-4.511215794600975659e-01,-4.042278261587461397e-01,-4.415404028240268453e-01,-9.667494408012929433e-03,5.033056939385882611e-03,-2.127719170396113677e-02,5.963269993662834167e-02
-4.579254710178987664e-01,-4.200880426902879883e-01,-4.400532915997962813e-01,-3.634632651601141587e-03,1.252591752697049906e-05,-6.780836459416131161e-03,3.538954257965087891e-02
-4.095175547882679568e-01,-4.483462596467719941e-01,-4.046322975147620404e-01,1.432981411103814674e-03,2.343493619360096508e-03,-5.276241395864451336e-04,4.176953062415122986e-02
-4.264626384499357603e-01,-4.398537647970230391e-01,-4.309675742419488143e-01,-4.666269645660566260e-04,2.086086138459600572e-03,-9.109087288575282463e-05,1.237028371542692184e-02
-4.633543860032359740e-01,-4.627826832718116012e-01,-4.125047993730246998e-01,-6.387843762642183600e-03,4.842752654286065078e-03,-1.230978263918884943e-02,5.660652741789817810e-02
-4.670556496537502933e-01,-4.582807097873324298e-01,-3.869892044366234907e-01,-5.746198554817647658e-03,1.908722572334160098e-05,-2.294770190995151348e-03,7.681088894605636597e-02
-4.577431283402130235e-01,-4.404803111425013573e-01,-4.001377838927465680e-01,-1.034687170524306067e-02,3.934617223759644990e-03,-9.177556964925672259e-03,5.694075673818588257e-02
-4.431976410766920726e-01,-4.476567720390568494e-01,-3.236285879773045937e-01,-5.068553991184889321e-03,2.215498589780910688e-02,-9.503273380015390265e-03,1.291137188673019409e-01
-4.249410417344965385e-01,-4.441035284997957855e-01,-3.963432536923842675e-01,7.757584847091804348e-03,1.270830317707466635e-02,4.880131522319669513e-03,4.969435930252075195e-02
-4.208625278931027447e-01,-4.813459963054561586e-01,-5.099101746915908340e-01,-5.643765304530564547e-02,3.537933842596276829e-02,-3.204116758317432367e-02,1.503078490495681763e-01
-4.194509144256380884e-01,-4.470029056761882225e-01,-3.977761068794249399e-01,5.345745735052058120e-03,4.403770394048327382e-03,2.216025538032866463e-03,4.455038160085678101e-02
-4.778417884597357945e-01,-4.683415956770354271e-01,-3.610071433604147284e-01,-9.885841168640531907e-04,-3.676940469488410718e-02,-1.455717590398843651e-02,1.316254884004592896e-01
-3.856024789234901995e-01,-4.815827108989499394e-01,-4.860926203874352813e-01,-4.156102223614388524e-02,5.305396378424904330e-02,-1.124112545036827504e-02,1.538525968790054321e-01
-4.218073779946256430e-01,-4.483408060875123669e-01,-3.525046339284987340e-01,2.381962212421109403e-03,1.905183897517545577e-02,2.640275681630824571e-04,9.193410724401473999e-02
-4.456004474484470679e-01,-4.342197018244050022e-01,-3.512743207473858487e-01,-8.894822862961348359e-03,1.667723779102213422e-02,-1.522595302630005282e-02,9.859346598386764526e-02
-4.257828757927651919e-01,-4.214000660920342867e-01,-4.501743577194484147e-01,-1.015327723682499760e-02,-3.123442798022981609e-03,4.777615180211945874e-03,3.358672559261322021e-02
-4.148039488434882571e-01,-4.458414376327678452e-01,-4.147805021085663180e-01,5.558953582602939249e-05,4.385845184302677809e-07,1.177769063948912970e-05,3.104937449097633362e-02
-4.400659771567919099e-01,-4.054989548357006424e-01,-4.604952488788759402e-01,-3.833956294492385248e-03,1.436418876396949656e-03,-1.837214755837368325e-04,4.867034032940864563e-02
-4.203947750802188854e-01,-4.201461476119048299e-01,-4.512714910618169650e-01,-9.971232582951700812e-03,1.088057762792558197e-03,-1.345049290350305068e-03,3.561412170529365540e-02
-4.217189144835790660e-01,-3.711883430013214191e-01,-4.634070856412930706e-01,-9.467010280019438895e-02,1.788138135735092143e-02,-4.050212821749060721e-02,1.979028880596160889e-01
-4.452311417622898948e-01,-3.922565295488792403e-01,-4.802730658940628228e-01,-3.987779401023850562e-02,-1.778839971659988348e-02,-3.886462330102394020e-03,1.079624444246292114e-01
-4.427051483375310514e-01,-4.255622578627029640e-01,-4.200880925952011347e-01,-3.857114200366513774e-03,-2.745261936367771223e-03,2.829245550652814776e-03,2.255977503955364227e-02
-4.605748966246377973e-01,-4.314817212925972645e-01,-4.756954265437460805e-01,-1.244016718320602177e-02,-1.047939466329191743e-03,-1.933812849157905264e-03,4.465125128626823425e-02
-5.364654728399909089e-01,-4.700958497818759629e-01,-3.806438433737511229e-01,-2.947484758156383028e-02,-3.865580262582236915e-02,7.254853778205712367e-02,2.030331641435623169e-01
-4.259911307265261682e-01,-4.475639850107006046e-01,-4.382241844919306240e-01,-1.001478549934565511e-02,-1.285311732271641853e-02,1.140214841717531596e-02,3.921296074986457825e-02
-4.371073372554655778e-01,-4.280858610799499475e-01,-4.375192301808811246e-01,-3.540809533737588293e-05,3.491726823634528753e-04,7.385357307124288404e-05,9.255185723304748535e-03
-4.175318677099165710e-01,-4.410753063942064456e-01,-3.942852662268555575e-01,-1.355711333404084964e-02,-2.213503180459110153e-02,1.376732066948714583e-02,6.505294144153594971e-02
-3.931774368656697494e-01,-4.594579167573444312e-01,-4.585620383994370441e-01,-2.941392015720895644e-03,-3.050652137644779306e-03,3.489585601786171151e-03,6.652016192674636841e-02
-4.416875881958819972e-01,-4.297815586028017054e-01,-4.242579994458453574e-01,3.598323223264248728e-03,-2.769806350571998605e-03,-3.922835615608625225e-03,1.860247552394866943e-02
-3.499347635848870652e-01,-4.945905367994032908e-01,-4.892322291010775537e-01,-8.865395750788412216e-03,-9.635854952169502219e-02,-8.629614741461698324e-03,2.202112674713134766e-01
-4.106168193352232043e-01,-4.092760887562876815e-01,-4.248258695781989558e-01,3.248643635996541299e-03,4.948536351380572115e-03,4.402768157557471022e-03,1.964747719466686249e-02
-4.101158859847055527e-01,-4.623172745957926377e-01,-4.631147220891387306e-01,-2.248956502708911263e-03,-6.417440959634371916e-03,3.853910058975854470e-03,5.431878939270973206e-02
-4.240480716110242576e-01,-4.020970627959565280e-01,-3.803282034498216557e-01,-9.521918693373118345e-03,-1.158569075751856442e-02,2.538761655934854838e-02,6.357560306787490845e-02
-4.507417651451200991e-01,-4.184881196529749992e-01,-4.322243211181484579e-01,-1.330276836495184129e-03,-3.752129517779348358e-03,2.747234431529745839e-03,2.925960533320903778e-02
-4.794008904248696634e-01,-3.427733697609092189e-01,-4.863266925058217227e-01,-1.761934502382967588e-02,-1.321314006743160886e-02,2.287950255652581449e-02,1.506213843822479248e-01
-4.446227110764247592e-01,-4.036868561413540779e-01,-4.173771323963768598e-01,3.331391511238605873e-04,-5.093715846609959616e-03,4.770727288432922292e-03,3.806829452514648438e-02
-4.178799640084159273e-01,-3.894310763759213367e-01,-4.603492862997770607e-01,1.564157786757882501e-02,2.613670431675098240e-03,8.438277358416486915e-04,6.765940040349960327e-02
-4.185037082009891996e-01,-4.167044566946156436e-01,-4.448477212193561736e-01,-1.154179380853541208e-02,-2.191864750801264874e-03,3.224227311236409991e-03,3.449467569589614868e-02
-4.021528926237169510e-01,-4.368753072613108523e-01,-4.074087409634506995e-01,2.128870256405907078e-03,4.473020550888848722e-03,6.034289137270243755e-03,3.512310236692428589e-02
-4.925958017950456402e-01,-4.518493731080612252e-01,-4.989771174409594057e-01,-5.063348923333704094e-02,-2.358964019426330536e-02,2.031213437671925554e-02,1.120688244700431824e-01
-4.226876085029944163e-01,-3.619742778559779106e-01,-4.825606244403946032e-01,-8.719062568458929574e-02,-2.550106315713372880e-03,-3.339162011265599250e-02,1.925541609525680542e-01
-7.549471730899562916e-01,-5.078477301972695868e-01,-3.610316494976741342e-01,-3.746152302398775280e-02,-1.518496106653967857e-02,2.144260846546969801e-01,5.115942955017089844e-01
-4.091000611259923980e-01,-4.501740245993737788e-01,-4.080420464583233708e-01,4.139533706763124515e-03,8.214607810466786203e-03,3.896021586565148829e-03,4.506695270538330078e-02
-4.239449547110237804e-01,-4.133895564609593176e-01,-3.931747283760527734e-01,9.189272312818620031e-03,3.410443572900624058e-03,4.121324541404610374e-03,3.275070711970329285e-02
-4.120721588425309556e-01,-4.154004910818118179e-01,-4.341913919633924590e-01,9.726505966206827961e-04,1.680411617322144068e-03,3.188374823092244865e-03,2.164543420076370239e-02
-4.444118189216916259e-01,-4.099864279738729134e-01,-3.782232171492181938e-01,3.594102558888697535e-03,1.282877350190042304e-03,8.078662351518781440e-03,5.938816815614700317e-02
-4.404866773527584822e-01,-4.008366336219521542e-01,-4.487891452347402277e-01,-1.021567312952079837e-02,-8.955389019157881242e-03,1.153686962382136430e-02,5.406685918569564819e-02
-4.055421236780364369e-01,-4.501398153994613516e-01,-4.091264409149355519e-01,-2.325283400113546228e-04,1.745534170321720461e-03,-4.121471844560505005e-04,4.303209856152534485e-02
-4.608465369824633617e-01,-4.107371885467536732e-01,-4.599886805566736903e-01,-9.737289839431584673e-03,-6.698390573159725657e-03,1.161125915892835883e-02,5.737778171896934509e-02
-4.326007779937884878e-01,-4.295714159436583301e-01,-4.539148427735250069e-01,-1.098618997519419486e-03,7.188176943868007304e-04,-1.092946458875565605e-04,2.309201657772064209e-02
-4.294494894642906790e-01,-4.618204219693201606e-01,-4.087596741527294575e-01,-3.730735616297940413e-03,3.426890821334530914e-03,-1.430776751230793424e-03,4.721039906144142151e-02
-4.479365293995221653e-01,-4.210747080304257373e-01,-4.657113914487593376e-01,-3.222463380905532006e-03,-4.019864642066996521e-03,9.469006617288925785e-04,3.996609896421432495e-02
-3.843501702843726275e-01,-4.029603858087876800e-01,-4.253340595872625030e-01,2.331954577359329761e-02,-8.373271907600935218e-03,-8.587011428577316294e-03,5.767364427447319031e-02
-5.276335438758962271e-01,-4.116368232870501465e-01,-4.530347675344795766e-01,-1.280099799147478914e-02,2.584045641428694626e-02,-1.082403143123709527e-01,2.191111296415328979e-01
-4.098872321718241007e-01,-4.269070576709028120e-01,-4.596955790877708115e-01,1.492691396625816548e-02,1.061544462415279014e-02,8.935618599689899508e-03,5.629257112741470337e-02
-4.308487048156859345e-01,-3.589562777661752246e-01,-4.568618398638464861e-01,1.852698424124490234e-02,9.982085978467915982e-03,2.076704398965621787e-03,9.516807645559310913e-02
-4.215826884380209361e-01,-4.351986637745554609e-01,-4.209654280429185880e-01,-5.261016388250867523e-04,1.016447879727657008e-03,-2.468265141582430110e-03,1.471010688692331314e-02
-4.258246840261171728e-01,-3.695030646010857844e-01,-4.538446092089934436e-01,9.069661587639589462e-03,4.948474212046347076e-03,4.484959630452391849e-03,7.691522687673568726e-02
-4.112260457924298285e-01,-4.407502682048158871e-01,-4.477901626055618145e-01,3.554712811395261112e-03,-5.078449850975090378e-03,-7.854801332908955408e-03,3.780820965766906738e-02
-4.112103527269156400e-01,-3.841190690891750359e-01,-4.230903508831017623e-01,5.978190914196003167e-03,1.073881343509416018e-02,6.684915557565453484e-03,4.223935678601264954e-02
-4.050701818990131708e-01,-3.468999946724604655e-01,-4.294652223472928410e-01,1.745572889968530564e-02,1.275363573557742811e-02,9.849505579363740729e-03,8.420845866203308105e-02
-4.105520679107914073e-01,-4.499444213617354027e-01,-4.055079242729404676e-01,1.011110948967035121e-03,2.416672864994355574e-03,-2.081963075184836427e-04,4.238655045628547668e-02
-4.055612744461713493e-01,-3.906587470236373427e-01,-4.007862704046655233e-01,2.504982275445439069e-02,2.448545753741770623e-02,3.057718564702385441e-02,8.160706609487533569e-02
-4.217823751289194734e-01,-4.235019317154006813e-01,-4.301268410798502750e-01,3.882805268846689292e-03,5.575189576350263881e-03,6.147565134615555482e-03,1.760944724082946777e-02
-4.083190075217238979e-01,-3.771603108377815650e-01,-4.508794573027313790e-01,1.422639289564129293e-02,4.618395795587278314e-03,1.682503385931362295e-03,6.919563561677932739e-02
-4.160433423576923584e-01,-3.515561780768350353e-01,-4.336286434089895447e-01,1.569825819981331139e-02,1.432008376029014068e-02,1.137339370735532089e-02,8.569962531328201294e-02
-4.403786371210708928e-01,-4.279761371279692250e-01,-4.349052673684444814e-01,-3.111779626445768804e-03,2.931240852185229822e-03,-2.210552591384049980e-03,1.361550483852624893e-02
-4.164745195450633708e-01,-4.204285819278236747e-01,-4.282659806184843099e-01,2.199559188811660987e-03,5.548060570536592420e-03,6.750112896826509709e-03,1.875095069408416748e-02
-4.219489892826978061e-01,-4.046932528256397266e-01,-4.051768263623671817e-01,2.922452931895063149e-03,6.287037160721841746e-03,3.380444521694258350e-03,2.163642272353172302e-02
-4.341593444182272887e-01,-4.298095706419224893e-01,-4.531153208214944161e-01,-1.208911905370675579e-03,5.968921872794858818e-04,-2.112562621119076634e-05,2.159070037305355072e-02
-4.339512757394290432e-01,-4.322441019059349854e-01,-4.553160631554725168e-01,-5.292838961144326251e-04,5.423117859452408063e-05,6.753633800982826061e-04,2.231724932789802551e-02
-3.668200222833655211e-01,-3.765020567028680154e-01,-4.982974301650849869e-01,8.158762880954295582e-02,-3.660590905982215922e-03,-1.643777649898354315e-02,1.921653151512145996e-01
-4.162261344898708360e-01,-4.381029597667672193e-01,-3.934139197585529435e-01,-3.034030900956060251e-03,2.490328438779860955e-03,-2.041255609506050731e-03,3.945596143603324890e-02
-4.119855621385845601e-01,-4.454243567143504334e-01,-4.219622045888017925e-01,-1.789074821186760608e-03,4.248358645384159998e-03,-4.866371218177924056e-03,3.191977739334106445e-02
-3.686523396158307708e-01,-4.335817432537181215e-01,-4.195978330015135982e-01,1.880828654124882269e-03,6.241673364246963854e-03,-4.180808725840021167e-03,6.069049239158630371e-02
-4.065168538472383464e-01,-4.462083678828356881e-01,-4.022142986119549013e-01,-1.570858456029560965e-03,5.450339388200491943e-03,-1.602743137036966633e-03,4.323113337159156799e-02
-4.243683053242990888e-01,-4.078698322685714861e-01,-4.129520739625036074e-01,2.147674501573321529e-03,5.101327149290610374e-03,2.671734338471112944e-03,1.809702254831790924e-02
-4.174012204352802735e-01,-4.068557720864308669e-01,-4.102719547067199546e-01,1.920141430843661737e-03,4.616862180988448409e-03,3.046864765432834559e-03,1.377348322421312332e-02
-4.363577935108503003e-01,-4.281228290269825099e-01,-4.355457648369330803e-01,-3.971667598728571944e-04,1.805594141940740078e-04,-7.128677353939235489e-04,7.992657832801342010e-03
-4.042914578522975311e-01,-4.231067696179935389e-01,-4.108644786325182374e-01,4.274633778234484573e-03,3.338513535948039622e-04,5.205959582527051356e-03,2.024858072400093079e-02
-4.381068477261387817e-01,-4.286086280142521465e-01,-4.364635120016625014e-01,-1.721281603410755676e-03,1.605605866812532959e-03,-1.273650243082470688e-03,9.939661249518394470e-03
-4.358111708033095555e-01,-4.284796578129652089e-01,-4.394799425993620723e-01,4.170516512231877771e-04,4.366911120455747603e-04,-4.895952290822556648e-04,9.793958626687526703e-03
-4.388083325214974795e-01,-4.298992315833126687e-01,-4.407420220736686933e-01,5.800303914361619311e-06,1.131828788833381082e-03,-5.363062644543562657e-04,1.024913415312767029e-02
-4.187586061922108915e-01,-4.147645330910700312e-01,-4.117911323915702249e-01,3.818845278048365113e-03,5.384375403525004482e-03,5.049455519209332215e-03,1.561684813350439072e-02
-4.119710144418556319e-01,-4.209336279981495399e-01,-4.175523532102377589e-01,6.489590247560035130e-04,1.269094689298531356e-03,5.765328758021063572e-03,1.293324027210474014e-02
-4.768688162320070534e-01,-3.855890228168873946e-01,-4.816321626369177711e-01,-5.824158873911864168e-03,-6.387559894012426707e-03,-1.696187745500263300e-02,9.938193112611770630e-02
-4.914876946136881308e-01,-2.936672011069625388e-01,-4.420576627547789794e-01,1.603977716968427170e-02,-1.532909954442308528e-02,7.886571290350029295e-02,2.278907001018524170e-01
-4.618050009313080517e-01,-3.332912683584140501e-01,-4.473989364443755612e-01,1.943047076761478514e-03,-6.385322290337026689e-03,2.514659329398095250e-02,1.300101280212402344e-01
-4.737532180616371713e-01,-2.853475445880291894e-01,-3.491514056034248914e-01,-4.198286201793060418e-02,-1.663095140578550735e-02,1.162325919702234533e-01,2.723859548568725586e-01
-4.413246785635216440e-01,-3.333581990565654407e-01,-4.485447442973222731e-01,3.136610952621569914e-02,7.979132313350473932e-03,2.963601969674354783e-02,1.351509988307952881e-01
-4.356855575751132914e-01,-4.326435340841473520e-01,-4.512021429440116194e-01,-5.623538742382356084e-03,2.033157682888838205e-03,-3.901969707488545970e-03,2.121721021831035614e-02
-4.262609070188014826e-01,-4.493227637980112821e-01,-3.751597121073446672e-01,-1.750649539897190386e-04,7.124569949217346952e-03,1.026812839054432915e-03,6.691190600395202637e-02
-4.337230325584315316e-01,-4.298407071750655617e-01,-4.411468317721181087e-01,-2.864290353661845274e-03,2.640298574655667359e-03,-2.996001105579417477e-03,1.309430878609418869e-02
-4.350458119467962570e-01,-4.289814643481232870e-01,-4.409820765521729191e-01,-3.245565999209787671e-04,2.670085521914342358e-04,-1.306421847050081653e-03,1.066138967871665955e-02
-3.936407246755028178e-01,-4.384921091349739397e-01,-4.073255109339447011e-01,6.629112387589190716e-04,3.397091047861340411e-03,6.922630039649151079e-03,4.201006889343261719e-02
-4.182817872780644208e-01,-4.273772348440445512e-01,-4.328021244810069668e-01,-3.335708286387017128e-03,3.257126300010606580e-03,-4.957560230857117022e-03,1.733314990997314453e-02
-4.140697470219955045e-01,-3.849343708752975268e-01,-3.674844267498846295e-01,2.375570176092354699e-02,2.029496069035121794e-02,2.831137324505490771e-02,8.363635092973709106e-02
-4.396502457288798960e-01,-4.372020799389748635e-01,-4.595385264129046576e-01,-5.786167286643439066e-03,2.347868115327696528e-03,-2.738244229507615091e-03,2.428369037806987762e-02
-4.323898210829619226e-01,-4.302972805103543741e-01,-4.447068195374581090e-01,-1.655738230301837194e-03,1.154365619458097092e-03,-2.971575728973576119e-03,1.485172938555479050e-02
-4.327328268751716722e-01,-4.486487431384355018e-01,-4.022556891903036336e-01,-4.811808047495249804e-03,5.240705923162895102e-03,-1.612125150373671257e-03,4.274220764636993408e-02
-4.185469482192201163e-01,-3.999093814107101408e-01,-4.539231685118577664e-01,5.204402148375664519e-03,1.569764109493198981e-03,2.009304477436381180e-03,4.856875911355018616e-02
-4.550642444617351567e-01,-4.312301311249953084e-01,-4.324076757846735952e-01,-1.244331247592986040e-03,5.515668044472983068e-03,-9.578163224159070427e-03,3.020798414945602417e-02
-4.104678667246826618e-01,-4.214673793697431559e-01,-4.082917881998454623e-01,7.885409470982275223e-03,5.981769481146607427e-03,8.348066143818297022e-03,2.554632537066936493e-02
-4.654888376215767232e-01,-4.490462900816203362e-01,-4.185782875581686713e-01,-2.689671125232172104e-03,4.342342081183339468e-03,-5.907418633366801064e-03,4.338884353637695312e-02
-3.766080826392387837e-01,-4.265539495396852288e-01,-4.438019162649689542e-01,6.343381334938262388e-03,5.176174207650150079e-03,8.616022993534396338e-03,6.385411322116851807e-02
-4.650376140369914535e-01,-4.676803205420387854e-01,-3.378905448868066430e-01,-1.851516619054058115e-03,-1.093905808487276657e-02,-7.002710797816620591e-03,1.304827928543090820e-01
-4.570310175062956559e-01,-4.444734215678270428e-01,-4.136093978660470571e-01,-5.037706774348474532e-03,2.213014362560254949e-03,-5.530709276236571784e-03,4.099332913756370544e-02
-4.190664532985132196e-01,-3.796250829043375519e-01,-3.822119261017958292e-01,1.237901338476048337e-02,1.153928548462715073e-02,1.703696070153529543e-02,5.648224800825119019e-02
-4.040349426874370597e-01,-4.592990791477667423e-01,-4.178743726605922970e-01,1.403239428092790519e-03,3.909762893913698925e-03,3.801392641534553571e-03,5.075379833579063416e-02
-4.598580895162758253e-01,-4.523695549631989721e-01,-3.715530729295842827e-01,1.235546765308880197e-03,3.936219596852776889e-05,-1.943826557026953269e-02,9.127268195152282715e-02
-4.533424337140177229e-01,-4.650010811246928499e-01,-3.682652139766023902e-01,-1.061467753516191249e-02,7.965770767219618187e-03,-9.910904634027040833e-03,9.585924446582794189e-02
-4.234506770952602972e-01,-4.252858171297878576e-01,-4.587337943140438745e-01,5.625059076056611491e-03,-4.584427562628557752e-03,-2.451445529742109566e-03,3.687167167663574219e-02
-3.636408075122492534e-01,-5.059624445135521009e-01,-5.229071694878294485e-01,1.351910842687570335e-01,1.348947013483159374e-01,6.875400409944545932e-02,3.828251957893371582e-01
-4.216115650373720714e-01,-4.206294101557207510e-01,-4.472033506046866891e-01,4.990059763079295746e-03,-4.397496260970704986e-03,-3.355046596448520331e-03,2.911227010190486908e-02
-4.327319754174502320e-01,-3.385045906031766139e-01,-3.332310727384904525e-01,-3.716322750115190650e-03,-1.440319698664889979e-02,-9.880241724813608462e-02,1.983760595321655273e-01
-4.710377519993696471e-01,-3.312656509054467402e-01,-5.256093195728817058e-01,1.248209909351196134e-01,-5.896733959386587370e-02,-3.005516054023024686e-02,3.000401556491851807e-01
-3.840207412160959732e-01,-2.442841829360969386e-01,-4.230943036845535854e-01,8.569272255470625210e-02,-2.625156959674973187e-02,-4.994968267009355228e-02,2.410293072462081909e-01
-4.498404041812616994e-01,-3.961028237655252471e-01,-4.690736926152300756e-01,2.332585588190837569e-02,-3.705229747917991416e-03,-8.944494290517301938e-03,7.876980304718017578e-02
-4.182236950050638447e-01,-4.400317291867020808e-01,-4.246217621186973434e-01,-1.280160046232969731e-03,3.732421302839832727e-03,-4.621367723641762321e-03,2.208567038178443909e-02
-4.368513842389299962e-01,-4.257772516470332835e-01,-4.491881963113655840e-01,-1.153743909879051703e-03,2.596927706869840181e-03,-5.022991844388708564e-04,2.089103311300277710e-02
-3.488397376438018838e-01,-4.485680201988825888e-01,-4.492546333772835521e-01,3.593807544681319049e-02,2.680241897476166868e-02,1.043884268055031948e-02,1.279504895210266113e-01
-3.413678071850901885e-01,-2.592778178452121995e-01,-4.202452585866863211e-01,1.140107589943991362e-01,-2.387716716014996049e-02,-2.860031434833560857e-02,2.501901686191558838e-01
-3.577125875087101559e-01,-3.026038876443370440e-01,-4.954905052754299266e-01,1.797389701769763481e-01,1.989289848093056534e-02,3.731137590508444568e-02,3.631726503372192383e-01
-4.358730529852722357e-01,-4.355842293049777547e-01,-4.364573254838905458e-01,-4.659526967909426859e-03,2.822662927611233139e-03,-4.266858243910464851e-03,1.201031357049942017e-02
-4.245501726033416023e-01,-4.309406984232670434e-01,-4.330818686476914370e-01,-2.524941904193393934e-03,1.102685827328083162e-03,-3.313421689669547587e-03,1.071525365114212036e-02
-4.306405073592636246e-01,-4.375435756426848122e-01,-4.221225850772794552e-01,-3.661684198934258942e-03,1.934921447978486591e-03,-6.279323700929370818e-04,1.521990820765495300e-02
-4.630237979690961514e-01,-6.705653148011455622e-01,-4.417939478238370743e-01,8.011746605050084832e-03,1.752684378401995480e-01,6.059366801319627030e-03,3.746865987777709961e-01
-4.072756323535133838e-01,-3.767418812486509339e-01,-4.760645571006875132e-01,6.860087197220615662e-02,-2.569815673873114548e-02,-2.160562075817245090e-02,1.589479297399520874e-01
-4.059312165379595494e-01,-5.060436996743489235e-01,-4.685759521502906311e-01,3.338938931758280403e-03,-2.388772214434507074e-02,-1.161078109246232830e-02,9.912163019180297852e-02
-4.367048187073108156e-01,-4.276966125451563405e-01,-4.442812803503080055e-01,-1.463371445797845023e-03,3.309714150828256627e-03,-8.165858022295498144e-04,1.575081981718540192e-02
-5.200377474216678619e-01,-4.828343104156653243e-01,-4.978773364614305641e-01,-4.252492994350440952e-02,2.280894643838468974e-02,-5.795441799551630940e-02,1.345835477113723755e-01
-3.073081932392492943e-01,-3.483347813971688911e-01,-4.279978533355535131e-01,-1.016298565451501379e-01,-6.779711437537984907e-03,-1.004203496929179096e-02,2.066978365182876587e-01
-3.880652443563943343e-01,-3.662468562736132527e-01,-4.300723287494299107e-01,3.137849383698620293e-02,1.691151146345816828e-02,1.667459880754633764e-02,8.833526074886322021e-02
-4.449358968011828397e-01,-4.301533003009843648e-01,-4.279728986697952098e-01,2.123906845427436015e-03,-3.071238708125691771e-03,-1.632966562782216247e-03,1.747402362525463104e-02
-4.344234895875498936e-01,-4.370109065092265266e-01,-4.262599672785748472e-01,1.871027624192583621e-03,-1.099755891214930850e-03,-9.815606192865051344e-04,1.055846922099590302e-02
-4.161713546274787290e-01,-4.262097449574447361e-01,-4.276706317668157453e-01,-3.230171739299180032e-03,3.341555329487653700e-03,-3.920353971846284556e-03,1.511542126536369324e-02
-4.377240473477020388e-01,-4.047230103355763942e-01,-4.461054242049360963e-01,4.675941091898170796e-03,-7.062120018140601724e-03,-5.120471157745012068e-03,4.159064218401908875e-02
-4.229027310703508125e-01,-4.451293012644674807e-01,-4.241011138644515954e-01,-3.014343506036057298e-03,7.136625873705591122e-03,-6.837577347270442502e-03,2.809147723019123077e-02
-4.454701070680067154e-01,-4.149437128584743673e-01,-4.393813141848803561e-01,3.152892331463558444e-03,-6.233605667244026226e-03,-2.700355590841160489e-03,3.084374777972698212e-02
-4.344246214922508620e-01,-4.398857180239495457e-01,-4.252372439102311552e-01,3.504082483705512219e-03,-2.427743437309221389e-03,-1.292508076952992744e-03,1.496442314237356186e-02
-2.693267875977887194e-01,-3.385630671691048366e-01,-3.677649834306918053e-01,8.731437985128658041e-02,-9.049693617416133817e-02,-6.207124481071822630e-02,2.582000195980072021e-01
-4.257194117432407388e-01,-4.270785635497166277e-01,-4.416676734281334005e-01,-2.316575929914509516e-03,3.087498179528662488e-03,-2.918111445798497218e-03,1.745742931962013245e-02
-4.350829068045342085e-01,-3.742712623219166534e-01,-4.101005332460636033e-01,-7.585557012762694784e-02,4.113836607045199406e-02,-6.257294277755569289e-02,1.920634657144546509e-01
-4.341327207735605209e-01,-4.320801740636954213e-01,-4.366912203381196345e-01,-5.068690940577780203e-04,9.023282506834367752e-04,-3.132784499963888868e-03,6.976149510592222214e-03
-4.394270179573247503e-01,-4.287197976828654999e-01,-4.371640750445856538e-01,-5.599725997588582979e-04,4.257225925351898195e-04,-4.211304300882473799e-04,9.876848198473453522e-03
-4.153798278172667335e-01,-4.262509056797310625e-01,-4.302118103219186307e-01,-3.561653417243552770e-03,5.053315598192486061e-03,-5.460713093121466986e-03,1.952051930129528046e-02
-4.158856962865736251e-01,-4.434440217531368522e-01,-4.306291338802938351e-01,-1.820284782753319765e-03,3.903696934896199421e-03,-4.910227529507334328e-03,2.642940916121006012e-02
-4.393878537915658078e-01,-4.331134165613081954e-01,-4.327219319929288543e-01,-3.377033099425254693e-03,6.728600142501260954e-04,-1.176752278259898289e-03,9.039008989930152893e-03
-4.014980468559146143e-01,-4.177323979758689743e-01,-4.588333913663280583e-01,4.904702489491741778e-03,2.888190758474250535e-03,3.122262547478365808e-03,5.240737274289131165e-02
-3.987967512328984832e-01,-4.193685805686093726e-01,-4.534020156661022205e-01,5.392691557349048662e-03,1.791259185888694535e-03,-1.359745584168315161e-03,4.882643371820449829e-02
-4.974543950463525266e-01,-3.758898203964533002e-01,-4.581849000675210504e-01,1.336692210088963051e-01,9.537614730983623446e-02,1.517504563819829233e-01,4.018993377685546875e-01
-3.701373245757719754e-01,-4.499754679156462989e-01,-4.238804689023498162e-01,4.198100346780904955e-03,8.172793672457354802e-03,1.414626418564638669e-03,7.232538610696792603e-02
-4.282853249826152342e-01,-4.331680220058375386e-01,-4.290484689878780733e-01,-1.360852527279340267e-03,5.396926355700054070e-04,-2.047204592139403433e-03,6.300763692706823349e-03
-4.308516689787340037e-01,-4.302861464295568150e-01,-4.312758574268717449e-01,-7.429470791038232235e-05,-5.169537521483170538e-04,-9.831190991806564895e-04,2.111277310177683830e-03
-4.374877969052913818e-01,-4.335569514868865548e-01,-4.346091669628970311e-01,-1.701565029150289322e-03,-4.136385337027627287e-04,-9.885306698451945540e-04,4.955143667757511139e-03
-3.764243468480588106e-01,-4.614647158152661022e-01,-4.319674782770877020e-01,3.893536462816219769e-03,8.330456069409481606e-03,4.492875944582143746e-03,7.686170190572738647e-02
-4.201035771269454600e-01,-4.157939151928199406e-01,-4.521605970655555029e-01,1.769399712546333627e-03,-1.843049100109798956e-03,-1.580864910274361063e-03,3.480604663491249084e-02
-4.470603087567315281e-01,-3.959584808735222006e-01,-4.052678740306575600e-01,1.781452962331343294e-03,3.396707827567785353e-04,4.193620941015599977e-03,4.780126363039016724e-02
-4.310315596571468455e-01,-4.297905390870070397e-01,-3.796586643110632098e-01,1.107890948365285524e-02,-2.883114725449409735e-02,-2.588682185335920358e-02,8.630917966365814209e-02
-4.373741263136116109e-01,-4.523424660723627255e-01,-3.941830005145285920e-01,4.867421875896219517e-03,-1.617529260948251391e-02,-4.922010886909825196e-03,6.053674966096878052e-02
-4.443174997177527508e-01,-4.126392932350836928e-01,-3.865295417269229983e-01,8.584895728986416744e-03,5.242396262261233425e-03,5.112148195208068846e-03,5.379860103130340576e-02
-3.847452723909671746e-01,-4.422956868434966826e-01,-4.273800175648976296e-01,4.005847708450967042e-03,6.678105922533313782e-03,9.338438647467610029e-03,5.585405603051185608e-02
-4.428185425532289998e-01,-4.006060165427973163e-01,-3.740988109394768335e-01,-3.987959765392910740e-04,1.134380901674629863e-03,1.413193880260528099e-02,6.486091017723083496e-02
-4.443494159629959861e-01,-4.080340880977645357e-01,-3.974545878110977148e-01,5.682248479514059522e-03,1.389207212330516392e-03,4.374052392794709754e-03,4.444071650505065918e-02
-3.400927630442842076e-01,-4.903086758761259767e-01,-6.218114096656870426e-01,1.764610404000279131e-01,9.643452762157495028e-02,5.686838257041553629e-02,4.366096556186676025e-01
-4.496038224649608894e-01,-4.067008020287401493e-01,-4.031244353213157550e-01,-1.840542503425816358e-03,9.126054256523581220e-05,2.156616968747014987e-03,4.506703093647956848e-02
-4.595090424813049745e-01,-3.917309722020106411e-01,-4.200147845806365132e-01,4.387245881340451695e-03,-4.119194199131323043e-03,1.401950846745142303e-02,6.461505591869354248e-02
-4.361102033710417825e-01,-3.805298209526710163e-01,-3.976001941597270828e-01,4.427682778032442784e-03,4.942222103529069453e-03,1.031182203465984444e-02,5.369254574179649353e-02
-4.358428561849519989e-01,-4.539474245888884818e-01,-4.312867957726338464e-01,4.785415194407108470e-04,-1.823331336105477084e-03,8.386334780919587955e-05,2.101666666567325592e-02
-4.182430625885674158e-01,-4.614098686017941153e-01,-4.467391338908210940e-01,2.947145229751005737e-04,-4.495741497432600466e-03,-1.421874207901857460e-03,3.888798877596855164e-02
-4.524403040285773780e-01,-4.013654435441379453e-01,-4.185013622972396652e-01,1.472263280960868200e-03,2.022210133955224930e-03,3.753862304773241971e-03,4.569585993885993958e-02
-4.324584600619950092e-01,-4.532614295784585523e-01,-4.299494800051669174e-01,1.139199153652050312e-03,-1.316435219663374210e-03,-8.749911174700745055e-05,2.236890792846679688e-02
-4.044040875737493490e-01,-4.229913379191649336e-01,-4.503136005647699891e-01,1.537905828356608308e-02,-2.235612777645161475e-03,-5.558040198386394320e-03,4.916353523731231689e-02
-4.488474809329124349e-01,-3.983026932618617399e-01,-4.074552146884629078e-01,-5.437018673003480261e-04,-1.682146817125688108e-03,7.871014295075392034e-03,4.869462177157402039e-02
-2.511304743865301337e-01,-6.462088597683164348e-01,-5.165762768978823249e-01,8.017798095477243758e-03,9.575625155898546959e-02,-4.934022495438242228e-02,3.958289027214050293e-01
-3.332468199801595921e-01,-4.619679057730801675e-01,-3.467303943318070791e-01,1.249994246461077763e-01,1.846630371768711865e-01,1.167403828237586622e-01,4.528533220291137695e-01
-3.502315608671099922e-01,-4.264457940905619360e-01,-4.537027723942297919e-01,1.450940739697925003e-02,7.652790142772456644e-03,6.517314032686416687e-03,9.779372066259384155e-02
-4.347828777451622217e-01,-4.372957482258246764e-01,-4.304020358803103408e-01,7.102205333243415174e-04,-1.072388755226891515e-03,-1.930354528363730600e-03,7.256506010890007019e-03
-4.337891956192364007e-01,-4.361240631030898762e-01,-4.296212536830159578e-01,2.850075175362819842e-03,-2.419049966397902179e-03,-2.965736456350072815e-03,1.004320196807384491e-02
-4.337098502724083260e-01,-4.361259680638432390e-01,-4.295866534581319063e-01,2.513898351508705477e-03,-2.179926970105945227e-03,-2.958230874518213548e-03,9.605685248970985413e-03
-4.357641705797776210e-01,-4.362272045910667306e-01,-4.268908104321298413e-01,1.105211631086022240e-03,-3.413492457623587746e-04,-1.234892517760756816e-03,9.573322720825672150e-03
-4.361783837436928324e-01,-4.365056465406215724e-01,-4.288808477383118101e-01,8.321071173340471080e-04,-1.671386645543798937e-04,-1.455819614329319797e-04,7.614062167704105377e-03
-4.387064242158512650e-01,-4.390783486953327430e-01,-4.305839539735142329e-01,1.677132521324600465e-07,-3.624923408785581938e-04,-3.515282901875921490e-04,8.360545150935649872e-03
-4.352913259480440944e-01,-4.363933302655960689e-01,-4.301736579889650636e-01,2.284275144662972139e-04,-6.514198817999176765e-04,-1.021257576855797095e-03,6.132137961685657501e-03
-4.373221427435195485e-01,-4.384199955084898681e-01,-4.300211881427512539e-01,3.522834359273316145e-04,-4.492068610749863872e-05,-2.104757726948179022e-08,7.931138388812541962e-03
-4.208734005824358859e-01,-4.452443544690576904e-01,-4.418201804690194967e-01,-1.220339627651301781e-03,3.221066506270969451e-03,-5.953137666405432411e-03,2.577073872089385986e-02
-4.225137363156037940e-01,-5.564299898810000089e-01,-5.600892720885539688e-01,-4.347182113860394159e-02,-5.636805605696685456e-03,-1.476399626311405457e-02,1.576566994190216064e-01
-4.373412827346899179e-01,-4.046519922089590326e-01,-4.535498694464910607e-01,-3.798113148965626823e-03,1.428930256009000588e-03,-1.480038217750412680e-03,4.378503561019897461e-02
-4.708774419621845619e-01,-4.626735830771057101e-01,-4.035008213021459289e-01,2.219204838727394623e-03,2.837657792643563572e-03,-1.101426697252231787e-02,6.676104664802551270e-02
-4.338334530489373897e-01,-4.289032954481150073e-01,-4.474874845342453611e-01,1.041257148250429316e-04,5.463084506060080338e-04,-9.569539933333722328e-04,1.678483560681343079e-02
-4.612577973569697010e-01,-4.715851932818173053e-01,-3.867812468051408104e-01,-1.881749650466579740e-03,-3.662822684207315844e-03,4.120605231511925682e-04,8.046080917119979858e-02
-4.899012424471164140e-01,-4.884157049868892431e-01,-3.815696782261482900e-01,-3.060438247026233630e-03,-9.876772165937186543e-03,-1.541436946979817240e-03,1.091094985604286194e-01
-4.212815806404447971e-01,-4.445270125923075355e-01,-4.555088752609215974e-01,-5.558029967698318100e-03,3.225171274427053765e-03,-4.695432049079302506e-03,3.326035290956497192e-02
-4.353390959553363748e-01,-4.178423876261205816e-01,-4.428875864487146763e-01,-3.923386879002452483e-03,7.094932128915600392e-03,-4.264590367148764043e-03,2.733023092150688171e-02
-4.237912448990225345e-01,-4.474712790351826341e-01,-4.618367988402267144e-01,-7.367750589973350722e-03,2.005820237617752903e-03,-6.672172359019066731e-03,3.762662783265113831e-02
-3.616621110451380128e-01,-5.428430935683918879e-01,-5.205607947032128147e-01,-4.234245747455717308e-03,3.884213673679695611e-02,-1.039503544752398180e-02,1.849054098129272461e-01
-4.140184986611747386e-01,-4.466860877675397079e-01,-4.553371414292078367e-01,-2.700325207084850951e-03,2.413476005882833186e-03,-2.144725603382786980e-03,3.844178095459938049e-02
-4.258625760508911173e-01,-4.358923808175049763e-01,-4.540930397046029077e-01,-1.060793670947604529e-03,1.175749926859061528e-03,-5.483914520896707818e-04,2.495666779577732086e-02
-4.549147343587908732e-01,-4.496420576347031073e-01,-4.756760617193246388e-01,-2.192193851403251986e-02,5.834665685079060485e-03,-5.181670393417271182e-03,4.682622104883193970e-02
-4.749869502901684637e-01,-3.823856507035512386e-01,-4.797234022643432905e-01,-4.451095883786013174e-02,-6.684920778812881818e-03,-1.657995376198004647e-02,1.262476146221160889e-01
-3.297717779806950689e-01,-3.874213519634211456e-01,-4.319484412308484123e-01,5.254663371918112669e-02,-1.157941448188481645e-02,-6.243509658840734958e-03,1.291345804929733276e-01
-3.850960619449227962e-01,-4.148130414046597991e-01,-4.471402366311435506e-01,8.453518493446282242e-03,2.056054157484695400e-04,-2.914382047014899869e-03,5.593573674559593201e-02
-4.797456609314575959e-01,-3.785715663923569507e-01,-4.951987152654775959e-01,-4.614493151673135229e-02,-5.390841131343911824e-03,-7.266993897852310966e-03,1.366459578275680542e-01
-4.231262982015436824e-01,-3.615217514429688306e-01,-4.362798915334953898e-01,1.308733397930459709e-02,9.711635318226838690e-03,5.982754735252952122e-03,7.538316398859024048e-02
-4.079624003550816891e-01,-4.466985597768873273e-01,-4.153642600507157501e-01,7.910329398422958486e-03,1.349934047624310254e-02,1.020125677227934693e-02,4.811622947454452515e-02
-3.788948034077024851e-01,-1.914824866274000559e-01,-4.038426051335377576e-01,-6.757879630746856103e-02,-5.591184579737184385e-03,1.602972228219546463e-02,2.344922572374343872e-01
-3.758800458421970303e-01,-4.315185446253996249e-01,-4.585944643400965415e-01,7.589143391646729388e-03,4.121396462437486134e-03,4.536655844401953422e-03,7.497131824493408203e-02
-4.273879864448877908e-01,-4.051461264464898959e-01,-4.613476241948256673e-01,4.005964517839633032e-03,-2.838840366636956498e-03,2.614538007973536082e-06,4.975543171167373657e-02
-4.601544243663365230e-01,-4.601336922386878303e-01,-4.305544593195111958e-01,7.354718978046735287e-03,-1.038178062627947637e-02,-1.656115105466570911e-02,4.673306643962860107e-02
-3.475368373924959675e-01,-4.576836652380174009e-01,-4.472100075135831965e-01,6.348586978244563292e-03,1.061768531086617999e-02,4.009809524670205315e-03,1.076835021376609802e-01
-3.740918330182744223e-01,-4.238066703881764319e-01,-4.388085464566266469e-01,6.321792196213176472e-03,5.260580722676828913e-03,7.386457981668011555e-03,6.171736121177673340e-02
-4.318196501126636000e-01,-4.555878134676594193e-01,-4.338816558771597665e-01,1.130615527708704387e-04,-1.120402417340783620e-03,-1.028489849777009934e-04,2.289111912250518799e-02
-3.705768583395549487e-01,-4.232229180815990643e-01,-4.503204261234828865e-01,7.412177737354102951e-03,4.222855635841599176e-03,1.939796062001112936e-03,7.184752076864242554e-02
-4.130836559469369118e-01,-4.128400753892583208e-01,-4.539583069560765849e-01,7.714651297574928561e-03,1.306035499709190355e-03,1.135409455314521313e-03,4.322366043925285339e-02
-4.499171702654896077e-01,-4.257872452045847744e-01,-4.256805708317342174e-01,-1.911197300457396706e-03,8.862745473839367264e-04,-4.204323724376668285e-03,2.551827207207679749e-02
-4.173624199754157882e-01,-4.170320899974880313e-01,-4.429494848910222049e-01,1.757865242248780120e-04,4.069715423344904171e-04,-9.788037401032426751e-04,2.582097798585891724e-02
-4.721845689477927044e-01,-4.026024282114436526e-01,-4.598026081017733135e-01,-1.829575745466310160e-03,-2.788707923313972232e-03,-1.419834647767330774e-02,6.907659024000167847e-02
-5.153804791047065237e-01,-4.708570609339152724e-01,-4.442309050611890076e-01,-1.095360155387172137e-02,-1.088098237492612745e-02,-3.396369079923521744e-02,8.973573893308639526e-02
-4.320523396140991124e-01,-4.447331660701961398e-01,-4.541556213483295412e-01,-7.447080370510689856e-03,-4.522295214216486524e-03,5.247104040174888420e-03,2.606525085866451263e-02
-5.312412935615302700e-01,-4.642233893467552219e-01,-4.754004732881587647e-01,-4.594656315623287836e-03,-5.769684225707535745e-03,-4.146441094992218968e-02,9.585590660572052002e-02
-4.583153284255436777e-01,-4.461512359075903156e-01,-3.956269381178680877e-01,-5.774587124643417411e-03,4.541953109883260960e-03,-1.326767629130011159e-02,6.328721344470977783e-02
-4.567279289839780709e-01,-4.106325300625991437e-01,-4.503377888779546145e-01,-2.821666511210683178e-03,7.744739498297769850e-03,-6.837050156809847123e-03,4.706514254212379456e-02
-4.514905205711733371e-01,-3.923321550092765397e-01,-4.294693312579974664e-01,2.259404296186561835e-03,-3.043838451287688308e-03,-3.158101222937562125e-02,7.561149448156356812e-02
-4.088985652507166613e-01,-4.446205443960821735e-01,-3.777898136300196219e-01,1.682510674459651015e-03,8.937782219674283990e-03,5.617887270849018571e-04,6.003475189208984375e-02
-4.750877671390624779e-01,-4.012226951448524814e-01,-4.623136174178895108e-01,-1.978343004531244939e-02,-8.349719798579183921e-03,2.478802381143158096e-02,8.889492601156234741e-02
-3.552387511979814283e-01,-4.618693134461168137e-01,-4.640103340792105513e-01,6.045431384015041536e-03,1.591148879100328468e-03,-1.848833333789146527e-03,1.083072051405906677e-01
-4.643731432946892612e-01,-3.369943914743430136e-01,-4.319791656824065740e-01,2.123982454063528050e-02,1.214312988808701615e-02,4.473145161787520085e-02,1.447303593158721924e-01
-3.524671376531487987e-01,-4.786988300861559353e-01,-4.662347032099471988e-01,9.449402573338800239e-04,1.330836954016123390e-02,4.045374380733751619e-04,1.226822510361671448e-01
-4.291004851560122901e-01,-4.344451336678638032e-01,-4.444130207902236007e-01,-4.449016865440166119e-04,-1.273763943518805425e-03,5.693911841182945415e-04,1.369791012257337570e-02
-5.146440245588355111e-01,-3.521663547165618247e-01,-4.833313465422189870e-01,-4.975676862048402337e-03,3.605666671610001980e-03,2.906750427084694999e-02,1.579237133264541626e-01
-3.510362326526128562e-01,-6.688963743585349953e-01,-7.532300856744673645e-01,1.113869364585223648e-01,1.339011054462870866e-02,-3.141563969045678417e-02,4.191341400146484375e-01
-5.736875247858086446e-01,-3.111363397274464759e-01,-4.561846240215756132e-01,-2.847333071622021317e-03,2.445658429664875413e-02,1.214558005550264719e-01,3.129900395870208740e-01
-4.246417093574486601e-01,-4.367443424111798200e-01,-4.554504639614034844e-01,-1.752525959137575572e-03,4.055438765459041281e-04,-2.781840529322378080e-04,2.706890553236007690e-02
-4.686853716916151713e-01,-5.089216241431346877e-01,-4.857551561748335578e-01,2.882791475159226027e-02,-5.900831105757078920e-02,-3.117212115392256275e-02,1.306816786527633667e-01
-3.888647042178834390e-01,-4.581876463009601497e-01,-4.458778604165332671e-01,2.473509423753716182e-03,-1.147884058913114722e-02,-5.192752294352755843e-03,6.781143695116043091e-02
-4.376427081133787977e-01,-4.267556432533988753e-01,-4.547296805052222779e-01,-2.796126420840071465e-03,-2.548040799752857802e-03,2.376249867601863111e-04,2.529074251651763916e-02
-4.012720183277552755e-01,-4.909361543913162707e-01,-4.603922231436822776e-01,-4.036746096910226282e-03,-2.516772749754861427e-02,5.179626866223921260e-03,9.090384095907211304e-02
-4.078659085466601608e-01,-4.586872966588241285e-01,-4.775372288708641944e-01,-2.332904915996161094e-02,-7.533297269577923783e-03,1.263359183878664908e-02,7.859975099563598633e-02
-4.422840816536474096e-01,-4.599095558389615368e-01,-4.226706970708664080e-01,-8.591447154608168602e-03,-1.284770729850054534e-02,9.542907930101691624e-03,4.506515711545944214e-02
-4.686168748877762580e-01,-2.334764159995546262e-01,-4.381938737341531942e-01,-6.573196394274063992e-02,-1.037152826676668652e-02,1.138614004167213672e-01,3.181838393211364746e-01
-4.322333781399695929e-01,-4.331271049297053533e-01,-4.535879438903051009e-01,-1.415447472705287039e-03,3.024920663431476808e-04,-3.199760371129721742e-04,2.107897587120532990e-02
-4.249015296914238071e-01,-4.358709893779162958e-01,-4.549420101653834370e-01,-1.742586006998258054e-03,1.320761040785597929e-03,-1.316461337455477948e-03,2.669782564043998718e-02
-4.385675803229538428e-01,-4.354655398683364154e-01,-4.560426586303542029e-01,-4.597930583395911514e-03,2.931710367008231229e-03,-1.391530379858148822e-03,2.154590748250484467e-02
-4.281066739315788072e-01,-4.264564772937191606e-01,-4.513582181429113271e-01,-3.810380371509039608e-03,-1.561545290608625392e-03,7.808258950107341105e-04,2.518786303699016571e-02
-3.845764387619411417e-01,-4.322494000318527485e-01,-4.389439356922510971e-01,-2.869186569698243573e-03,2.639332222528003279e-03,-4.914687396029178250e-03,5.248555913567543030e-02
-4.272062895330682730e-01,-4.311131638331911486e-01,-4.512247590915008377e-01,-2.236680369857974547e-03,-4.590499329682830895e-04,1.558128634342771223e-03,2.283061668276786804e-02
-4.254791019371605976e-01,-4.586447651119454627e-01,-4.434273588656840737e-01,-2.499720830508094307e-02,-2.541740431302564468e-02,5.441461686956382271e-03,6.876320391893386841e-02
-4.314181904937742784e-01,-4.305942352607147194e-01,-4.536240661304594690e-01,-1.139392755069057114e-03,1.607794501172307602e-04,8.400772038978493157e-05,2.271717041730880737e-02
-4.749116324042084725e-01,-4.980658655879342533e-01,-4.721236801130178629e-01,-1.996166976241163862e-02,-4.332976877811006711e-02,6.900316580169002338e-03,8.705801516771316528e-02
-5.277654374940305981e-01,-5.969129794082534968e-01,-3.572202116094915225e-01,-4.990701823896199346e-02,-6.637551071074274112e-02,2.971355916632454838e-02,2.626743018627166748e-01
-4.697912407673259239e-01,-6.614672133832044665e-01,-6.346046666406659487e-01,-2.364623452530704474e-03,-1.319495727238842175e-01,-9.385738209698513135e-02,3.331498801708221436e-01
-4.221187128491171170e-01,-4.311030190797905948e-01,-4.475949408586510914e-01,-1.118312565057292618e-03,1.334655766289712152e-03,-2.374416099459164282e-03,2.295384556055068970e-02
-4.339057729268920860e-01,-4.450271255931075864e-01,-4.278579093598632865e-01,8.706540488134900365e-04,-4.807245533118334447e-04,-1.093744771554333670e-03,1.529960148036479950e-02
-6.301756884593448516e-02,-3.732270539893656203e-01,-3.578149735890499006e-01,-5.076097137780974378e-02,4.391556458142598096e-02,-1.707821677714561892e-02,3.256950080394744873e-01
-3.411919506383381817e-01,-4.777004526782334670e-01,-4.887241603281570201e-01,-5.661515695437297803e-03,3.620353123468574713e-02,-9.593825357560545677e-03,1.567331850528717041e-01
-4.129596141059983516e-01,-4.299824815978151027e-01,-4.582475980997868792e-01,-8.966925914286669533e-03,2.079014849800340462e-03,-2.635131606671077282e-03,4.295188188552856445e-02
-4.054929514733622287e-01,-3.976127930845995140e-01,-4.460237854766498367e-01,7.251976023414830226e-03,1.298989530978850691e-03,9.967461460465443929e-04,4.679797962307929993e-02
-4.333236148791197451e-01,-4.501698168902036334e-01,-4.275186944438680303e-01,1.296312892413481856e-03,-1.042726649284036154e-03,-2.472026919797518964e-04,2.058564871549606323e-02
-4.395395835379694582e-01,-3.952445135930934272e-01,-4.175851332973080088e-01,-1.760202524820162276e-02,-1.037598525489928647e-02,2.004492101369759541e-02,6.268533319234848022e-02
-4.296049458105489216e-01,-4.431483690642880613e-01,-4.620247807783001703e-01,-1.013352252205326418e-02,-7.242131379164688104e-03,4.029040201724791610e-03,3.618707135319709778e-02
-4.099205120891608600e-01,-4.104882222993606056e-01,-4.191487271825442007e-01,8.798814420786204562e-04,2.225243398611087293e-03,3.668571488126500402e-03,1.173866447061300278e-02
-3.158082169855829791e-01,-4.772795779555706330e-01,-5.202418051679986721e-01,3.938996242162253608e-02,8.356615714150977467e-03,1.305327986573180362e-03,1.993119120597839355e-01
-3.502280738912575409e-01,-3.901329438280141115e-01,-1.729262640725308386e-01,3.007753140847946663e-02,9.044716656136474187e-02,6.745254222547465706e-02,2.846210002899169922e-01
-4.694865649443378253e-01,-5.214232584107147961e-01,-3.437610135034986913e-01,-3.047979391399383855e-04,5.736544477670009468e-02,1.306124301986401337e-02,1.881981790065765381e-01
-3.662340511778879315e-01,-4.418321065070523468e-01,-4.459769980812682832e-01,6.656392410270781448e-03,7.106630515883968421e-03,6.202380904656226192e-03,8.028347045183181763e-02
-4.321010781236839238e-01,-4.303970425335149064e-01,-4.523782651930318144e-01,-7.611331621848732706e-04,4.560010617266905858e-04,-4.700934943508596050e-04,2.125196158885955811e-02
-2.394203344802831035e-01,-3.116107722588634110e-01,-4.161263799847850775e-01,1.418505114892874841e-01,7.481732454980835612e-02,5.124569411973480676e-02,3.297210335731506348e-01
-4.842885196513860846e-01,-5.902244353963334023e-01,-2.513114879739734020e-01,3.066402001631719776e-02,1.111865173211315366e-01,5.341756098736340219e-02,3.723571300506591797e-01
-5.496214384861742852e-01,-5.972970785461211296e-01,-3.386613327470665569e-01,-3.418888745994076023e-02,-4.318189180381845627e-02,3.596846911005696645e-02,2.642284035682678223e-01
-3.297045866263851321e-01,-4.580631181725443590e-01,-4.575559162324337459e-01,6.204500923437663087e-03,8.023679211339692849e-03,2.778631861588045098e-04,1.293055415153503418e-01
-4.823008335401766100e-01,-5.205569678614080376e-01,-3.865013565646950866e-01,-4.123125603427963901e-03,-2.667835329719167245e-02,-1.982024090414593806e-02,1.329312622547149658e-01
-4.722023069714288979e-01,-4.760491759634689068e-01,-3.573366748368532742e-01,-3.267764901557146905e-03,8.379346063999423139e-03,3.318284635520668546e-03,1.180105656385421753e-01
-4.211827782407313037e-01,-4.414729695417618505e-01,-4.597209156324407187e-01,-3.016137788867294736e-02,-1.239564317726485169e-02,1.993719466514074900e-03,6.570342928171157837e-02
-4.343099692791803079e-01,-4.265846023657929309e-01,-4.507331177796717325e-01,-1.979049917999503323e-03,-2.761208336996858175e-03,2.799694004840298659e-04,2.216153964400291443e-02
-4.632745000974762828e-01,-4.802123753868255962e-01,-3.537180400435275263e-01,-4.008306733506347350e-03,1.617182290030643593e-02,-4.163805043135411499e-03,1.225967332720756531e-01
-4.046431865845935283e-01,-4.396699485525747964e-01,-4.508421154694862709e-01,4.221362534047251938e-03,-1.244262501318304408e-04,-6.318592097220984347e-03,4.377552121877670288e-02
-4.299515785018331870e-01,-4.413751388108224094e-01,-4.142494158793620929e-01,3.833844078191330027e-03,-4.918444935512292747e-03,-1.287605485649838096e-03,2.603982388973236084e-02
-4.479125167780918515e-01,-4.223766478468957697e-01,-4.520355917459693562e-01,1.728363442467184888e-02,-9.241430344455797349e-03,-1.372194877402357384e-02,4.991619288921356201e-02
-4.050378626549481775e-01,-8.166013607011410880e-01,-8.260851280530701057e-01,-7.386217385055041107e-02,-9.373553770615308811e-02,-3.346690654308847462e-02,4.684694707393646240e-01
-3.580965231848140529e-01,-3.050924395887494867e-01,-4.034462524503839020e-01,9.176530200776072954e-02,-6.986562260106016220e-02,-7.268233304935571570e-02,2.510460913181304932e-01
-4.401117671686731181e-01,-4.047866937774600160e-01,-4.612786585871462286e-01,-4.449893147449548135e-03,4.665383302548565679e-05,5.138467054378705393e-04,5.003821849822998047e-02
-3.869917908451774302e-01,-3.964449575129426195e-01,-4.428761436739186985e-01,-3.283488886597016321e-02,-7.493770590846477939e-03,3.167143392479599903e-03,7.821183651685714722e-02
-4.015472171956214198e-01,-3.770520968477188983e-01,-4.645204425937811132e-01,3.556772431226342540e-02,-4.192657099504980452e-03,-3.502425740518730519e-03,9.996449202299118042e-02
-3.376968224235761262e-01,-4.568054456374444627e-01,-4.603698502801332193e-01,2.490225792839856692e-03,5.853744591393235733e-03,-1.287560780665477668e-03,1.214516237378120422e-01
-2.031424494977008000e-01,-4.842981619928222736e-01,-4.731015666938628295e-01,-5.833626583153828787e-02,1.118180677341518714e-01,-7.645193616994322601e-03,3.520233929157257080e-01
-4.326683970084421738e-01,-4.492151856240589325e-01,-4.121454090659240066e-01,-6.128665557711491726e-03,-6.581375450443108580e-03,2.925241656923912269e-03,3.609536215662956238e-02
-4.319100073388012495e-01,-4.320912538489187216e-01,-4.545797618002180296e-01,-9.280063735742831530e-04,-1.026091022178643469e-04,1.123835978126534225e-04,2.263834886252880096e-02
-4.118756795778853452e-01,-4.329695214233008072e-01,-4.498179341768177575e-01,-4.493993670514653295e-03,2.379913492215935539e-03,-2.210357185446925644e-03,3.429947420954704285e-02
-5.377992555487394188e-01,-5.786113293971033578e-01,-2.346370688419649464e-01,-4.179023451958392005e-02,-3.174951305040773358e-02,5.541887796447856479e-02,3.513157069683074951e-01
-4.722404233331363166e-01,-6.311740536698677850e-01,-4.451452976268319150e-01,-7.762015950160346123e-02,-1.151511713951433175e-01,1.020685356314401417e-02,2.974339425563812256e-01
-4.310319334131808566e-01,-4.310866112517519055e-01,-4.524637941083135551e-01,-9.416224650665704641e-04,-5.913333176768842403e-04,-1.528323859715716420e-05,2.149105630815029144e-02
-4.199610457413954223e-01,-4.658562136173333701e-01,-4.506502513285169376e-01,-1.639275944767920080e-03,-4.672537900190789142e-03,3.244693757025539794e-03,4.177141562104225159e-02
-4.308291924432780529e-01,-4.316879648565224992e-01,-4.512856252147039449e-01,-8.699209896674162069e-04,-4.737265875153159086e-04,3.674249396767766953e-04,2.012422122061252594e-02
-5.011981790911701484e-01,-5.333310553820791444e-01,-4.188131819423800417e-01,2.261247688431821876e-02,-7.308491373752473708e-02,-4.851511853682161091e-02,1.873136758804321289e-01
-4.304520069576714403e-01,-4.352571705648385358e-01,-4.454888126855658381e-01,-5.080381808472087804e-04,-8.765875879643596691e-04,5.995592640146133910e-04,1.345729362219572067e-02
-3.978837130951377588e-01,-4.561341901832292045e-01,-4.255559518462245783e-01,-1.084025424049709372e-03,-2.672763906927575622e-02,4.809288547639851107e-04,6.851473450660705566e-02
-4.087043477595360130e-01,-4.098192162933838589e-01,-4.503790591111960784e-01,2.567931688433739562e-03,6.203628545239613101e-04,-6.326784666209582519e-04,4.139687120914459229e-02
-4.590955328259304080e-01,-4.629354076937920448e-01,-3.605106768680574336e-01,-3.763971884319879547e-03,-5.342493448157010875e-03,4.466010900509386969e-03,1.014900803565979004e-01
-3.988862253355143217e-01,-4.219309863862881760e-01,-4.512639829563718230e-01,4.770906045990077303e-03,1.211186586733897742e-03,-1.312381763355381344e-03,4.631749168038368225e-02
-3.646736945475929637e-01,-5.326190045643226512e-01,-5.275308725772922536e-01,-6.801623454711443542e-03,-3.165371515389533985e-02,-1.448684362169684429e-02,1.764971762895584106e-01
-4.464334567495479855e-01,-4.812720355975533271e-01,-4.560358400503394249e-01,-1.264025751551223729e-02,-4.564751689296858012e-02,5.810629434850824934e-03,8.833518624305725098e-02
-4.287008513482261085e-01,-4.502856817054640692e-01,-4.277139796584760179e-01,1.597381192076515431e-04,-4.413642888908177942e-07,-2.412861079870106708e-04,2.210048586130142212e-02
-3.984726958002804409e-01,-4.543764817382365262e-01,-4.595765714875879038e-01,5.515554475140347843e-03,-3.279277751244664713e-03,-3.737416498760430007e-03,6.007003411650657654e-02
-3.904148801537434821e-01,-4.366706466727748870e-01,-4.567855459774999849e-01,7.738543680906807137e-03,1.999561315529997977e-04,-2.922360661464421579e-03,6.066325679421424866e-02
-4.408562751265492352e-01,-4.547591675163345504e-01,-4.258331178910295667e-01,2.416305054050562739e-03,-3.204265937972718570e-03,-3.344530164476394924e-04,2.600969374179840088e-02
-4.564547768611358913e-01,-4.650606784915797820e-01,-4.534827385760783480e-01,3.280307234195947719e-02,-4.137673325823181675e-02,-2.562327214373214326e-02,1.021878421306610107e-01
-3.817757061634124982e-01,-6.819989787935870629e-01,-6.465684241328439885e-01,-7.711071927374137103e-02,-1.612690932154066947e-01,-6.536808544383933273e-02,4.352385103702545166e-01
-4.636811095987102838e-01,-4.630381439454585024e-01,-4.036829088261848497e-01,1.914798858917112889e-03,-1.964830825217343466e-02,-1.501336985975541827e-02,7.353225350379943848e-02
-4.049499478114381157e-01,-4.207850943349089046e-01,-4.069587022518147967e-01,6.067968875842808842e-03,2.104689692555814211e-03,3.038071625263765070e-03,1.934987306594848633e-02
-4.340728575674880352e-01,-4.321778614470617730e-01,-4.446045415547610347e-01,-1.162944675005467927e-03,-3.265288111032751007e-03,1.260796269799806637e-03,1.323923468589782715e-02
-4.158736785171723849e-01,-4.148210003046122196e-01,-4.110052229603190499e-01,2.929462577339660319e-03,1.857554766162746286e-03,1.670929029500574760e-03,8.009860292077064514e-03
-4.149353760383694967e-01,-4.561889541096795786e-01,-4.438541680212372831e-01,-7.720416029558234026e-04,-3.899496215530258696e-03,-2.620383934831537701e-03,3.759197145700454712e-02
-4.103937109739834166e-01,-4.513663068188266125e-01,-4.405078920748433657e-01,-1.343248215602209274e-03,4.055458443692048012e-03,-5.276572791752118935e-03,3.860105201601982117e-02
-4.129225684668738627e-01,-4.196246969829480200e-01,-4.088762850129886162e-01,3.114273012788418196e-03,5.207404869391307322e-04,1.568252687656717824e-03,1.121148932725191116e-02
-3.662598314063887917e-01,-4.446885253071365396e-01,-4.614845346121476122e-01,1.050531621143727806e-02,1.717364601557626932e-03,-2.372983410933019333e-03,9.004044532775878906e-02
-4.137498868932424911e-01,-4.210028134031648106e-01,-4.089883258482046036e-01,4.710129092511922133e-03,1.811408680890413091e-03,1.528111273332253715e-03,1.390027254819869995e-02
-4.156671776143807673e-01,-4.262340423145361545e-01,-4.030956888142333550e-01,1.394956321684086460e-02,1.110161778981887983e-02,8.967756301323131715e-03,3.996639698743820190e-02
-4.593068714836429089e-01,-3.963780211884376237e-01,-4.569494212505018083e-01,-1.487747712182513251e-03,-5.240451044135910341e-03,4.659472219953090036e-03,6.301908940076828003e-02
-3.517597420177978607e-01,-4.346587062690117076e-01,-4.172693529405612223e-01,6.877725025526763326e-03,1.299283786587465857e-02,9.588155586518765094e-03,8.159177005290985107e-02
-4.637290193822178885e-01,-4.529048821911682010e-01,-4.046464650410157016e-01,5.102755119402822316e-03,-4.559938620423276481e-03,-1.038788800015191111e-02,5.858848616480827332e-02
-4.408219594713121414e-01,-4.300366847671771575e-01,-3.595695122979586933e-01,5.165155452427155902e-03,-1.639976091278934692e-02,-2.159754869128607466e-02,9.015657007694244385e-02
-3.561073190634519436e-01,-4.469819458756343900e-01,-4.543115156394318954e-01,-2.782520939291775785e-04,8.256944963639494808e-04,4.606971306623398725e-04,9.476764500141143799e-02
-3.213361498870072053e-01,-6.513005405369625134e-01,-6.377487755755545384e-01,-1.475163019469661607e-01,-2.023654034936236967e-02,-7.621037239357900117e-02,4.341939091682434082e-01
-4.265666291018006540e-01,-4.370491370585980473e-01,-4.545216389892576814e-01,-2.547959782978260167e-03,-3.304759167014235336e-04,-2.789489010342354500e-04,2.486693300306797028e-02
-4.278332232579363792e-01,-4.343883298335902143e-01,-4.429499367306440893e-01,-5.495919155190606177e-04,-1.482353312864423010e-03,1.153055362762620559e-03,1.356022339314222336e-02
-4.135341879545120225e-01,-4.461422558448844833e-01,-4.649799814851464097e-01,-5.598812177335070125e-03,-6.629666077233741959e-04,2.593995102025482228e-03,4.634601250290870667e-02
-4.417889005043322270e-01,-4.545470709100368767e-01,-4.132300176628738164e-01,-5.910700758693441907e-03,-2.699247754105264015e-03,6.011183951920026983e-04,3.834697976708412170e-02
-4.384829253049227216e-01,-4.479681710261764205e-01,-3.991237183683156164e-01,5.892313958515311978e-03,-1.252649912275133511e-02,-1.235340677484484230e-03,5.091094970703125000e-02
-4.564455101434777839e-01,-4.675953013759356902e-01,-4.010349647353943503e-01,-5.477176172684933460e-03,-1.658284747822053040e-02,-1.431506258236130537e-03,6.880102306604385376e-02
-4.851719637126879481e-01,-3.927645445709055938e-01,-5.311006290591028245e-01,5.349416518232671947e-02,-1.527368221350332463e-02,-2.870383239841551790e-02,1.632457822561264038e-01
-4.623160476172926137e-01,-4.656895254565996400e-01,-3.899582441156982937e-01,3.729790133198540494e-03,-7.378089671083196827e-03,-6.375181025251884515e-03,7.627647370100021362e-02
-3.495196157550786165e-01,-4.640475883836836513e-01,-4.581758409685495748e-01,-6.957405491131492953e-03,-1.733919291893278383e-02,7.919593881715615829e-04,1.163086220622062683e-01
-5.367763253272792578e-01,-5.342408918812441287e-01,-4.349603466709541788e-01,-5.604911454790458512e-03,-1.308135929288850932e-02,-4.262695586169870654e-02,1.271753013134002686e-01
-4.282233421498570780e-01,-4.270852477104178924e-01,-4.488279075553184838e-01,-3.283428251359940368e-03,-1.570904907275569263e-03,8.811721190096493024e-04,2.216683700680732727e-02
-4.492890716369813409e-01,-4.429549584185920597e-01,-3.121375283525917865e-01,4.002635051429254132e-03,8.203101636581300662e-03,1.699317346010947860e-02,1.381961405277252197e-01
-4.296558994183469760e-01,-2.970985090432340381e-01,-4.732535549004067699e-01,7.129156334749835178e-02,-2.662961424808882316e-02,-4.796243288809266814e-02,2.225476652383804321e-01
-4.504380522946707655e-01,-4.924190349775227071e-01,-5.457407477727074241e-01,-9.554783199323556298e-02,-4.304759191168899823e-02,4.913596489402385220e-02,2.168745845556259155e-01
-4.233191266927431307e-01,-4.253737450690758815e-01,-4.434518975659345053e-01,5.408184136764874724e-04,-6.530770615269690209e-04,-2.602803412380155952e-03,1.976525969803333282e-02
-4.246579325681454908e-01,-4.003586054168313257e-01,-4.349991954511297498e-01,6.179101748823205911e-03,-8.938393016951574899e-03,-7.162790709295775368e-03,3.816844150424003601e-02
-4.545554073688223284e-01,-4.603065170406792639e-01,-3.851196368993420882e-01,1.527714866887938715e-03,-5.381334303120996823e-03,-1.555683730535457844e-03,7.317699491977691650e-02
-4.666489831378681785e-01,-4.682481931680751996e-01,-4.081878533430994827e-01,4.165340702798842683e-04,-1.367802975040086251e-02,-4.974321606196094488e-03,6.441871076822280884e-02
-4.716776438101623059e-01,-4.810984993067902171e-01,-3.731141599914388762e-01,-3.778517645562676133e-03,-8.640531589619058345e-03,-2.099338593205240643e-03,1.049385294318199158e-01
-4.158557252639034085e-01,-4.270003648517494144e-01,-4.501668164266635075e-01,2.914866349041963633e-03,-1.585506102887286291e-04,-5.110566443353240819e-03,3.198417648673057556e-02
-4.712098583497402737e-01,-4.914969946817802637e-01,-4.026919697421721400e-01,-3.147474498545325960e-02,2.569954864863983890e-02,-3.703028357110216273e-02,1.247533783316612244e-01
-4.237706381264951805e-01,-4.311572157156382534e-01,-4.389542103708644616e-01,1.680609736754191518e-03,-1.565341214909391756e-03,-5.096300292592076224e-03,1.633060909807682037e-02
-3.297136269052954316e-01,-3.575716359896169427e-01,-2.478645336908451013e-01,-5.502544527138623215e-02,8.297667146328742416e-02,-8.953775079527692693e-02,2.520819306373596191e-01
-4.160314308187976207e-01,-4.542305462587846732e-01,-4.434652965991090490e-01,1.363597562822154146e-03,-5.988247876338703354e-03,-3.528003117993781454e-03,3.625377267599105835e-02
-4.855454562739278113e-01,-5.214678588311815188e-01,-3.726320389043333847e-01,-5.676825775883930815e-03,4.984659778198507335e-02,-1.734748443881024144e-02,1.629402190446853638e-01
-3.866357523402866869e-01,-4.727677703011752275e-01,-4.660912578646666526e-01,8.828452774261554481e-04,-1.534041385713239437e-03,-1.359858854606651101e-03,8.308540284633636475e-02
-4.202217917496154365e-01,-4.690339939520656865e-01,-4.470620040148308161e-01,-2.362279598698137622e-03,-4.403664514118142866e-03,-4.783285974218067188e-05,4.321831837296485901e-02
-4.479196956624322268e-01,-4.547104283677975145e-01,-3.474279621318176470e-01,-1.224613871016933843e-02,2.518311662516119209e-02,-1.620960484421242812e-02,1.181856170296669006e-01
-4.258935183246569389e-01,-4.529389063222661327e-01,-4.272447471067814528e-01,1.232560133188934440e-03,-9.669603350416182755e-03,5.919247722355101907e-05,3.133378550410270691e-02
-4.624754478370104449e-01,-4.632797164034125337e-01,-4.061898178956097616e-01,1.293503467382564826e-03,-3.880085082007931827e-03,-2.868029166077964119e-03,5.734848976135253906e-02
-3.611070043057545975e-01,-5.350145930708209985e-01,-7.001504623238981040e-01,1.809454794603428396e-01,1.714796799062688268e-02,-1.806216462433431896e-02,4.316442608833312988e-01
-5.023574456023215395e-01,-3.404755971197804820e-01,-4.642425183058354610e-01,-3.770495001100312993e-02,-8.347335807579781691e-03,-8.488969414298373761e-02,2.181310802698135376e-01
-3.965861458865386213e-01,-4.529779507555848350e-01,-4.550895359675332097e-01,5.368036152600310501e-03,-3.834172364400989259e-03,-4.682878003591755059e-03,5.916002765297889709e-02
-4.549202124918313439e-01,-2.258204858162079776e-01,-4.841612459147037195e-01,1.561605448571888322e-01,-4.021573611917812763e-02,2.269471971633910470e-02,3.736258149147033691e-01
-6.471684923081344465e-01,-3.131789494775153448e-01,-5.137428445953704514e-01,-5.302412343343523154e-03,-1.165166106409554030e-02,-8.040799858761846219e-02,3.235376477241516113e-01
-5.040897965988602181e-01,-4.653314960998264360e-01,-4.523862021747826478e-01,1.114038164348510416e-03,-4.562682972012974646e-03,-4.464921846714022674e-02,9.065517038106918335e-02
-3.958237968906972992e-01,-4.558435824029551386e-01,-4.581160864855319814e-01,-2.801565618338455309e-03,-2.794743456828649702e-03,3.241848737156086038e-03,6.182589381933212280e-02
-4.252844816075876944e-01,-4.500243668483088211e-01,-4.344826963835760614e-01,-9.344968905409070138e-04,-2.340484754675447449e-03,2.158753311666445924e-03,2.240848913788795471e-02
-4.968260920068562347e-01,-4.942483468593779627e-01,-4.408241855600630310e-01,-3.243596635597267852e-02,7.934221779955671211e-03,-5.145183911538329241e-02,1.195219904184341431e-01
-4.330246140830553703e-01,-4.216763220822169478e-01,-4.498380343143382198e-01,2.524823789378860279e-03,-4.287043869057926247e-03,-1.388535681006664241e-03,2.612131275236606598e-02
-5.246930061083553420e-01,-3.998611569483800920e-01,-5.225181584558574732e-01,-6.641481610511831704e-04,-1.626648157542735437e-02,-5.425992844090190420e-02,1.579359620809555054e-01
-7.352545380104636985e-01,-5.559919828590222934e-01,-7.060465678889628061e-01,4.839530680723329314e-02,-1.028077773607924267e-01,-1.852468692966081631e-01,4.116261899471282959e-01
-4.213260636614354349e-01,-4.344364340159569959e-01,-4.392535431744776231e-01,1.545025445663262154e-03,-2.089563891248518573e-03,-5.607462092078955261e-03,1.930884458124637604e-02
-4.551717644717576117e-01,-3.535051251038969222e-01,-4.030312343647001194e-01,-3.124779965714134800e-02,9.938462987085878650e-03,-8.590169483890350288e-02,1.819799095392227173e-01
-4.226110109554284677e-01,-4.257294770812657947e-01,-4.433421008791157969e-01,-1.017680538487433090e-02,9.832029605091467325e-03,-5.083692128169905143e-03,3.245140984654426575e-02
-3.104968965252546398e-01,-2.612692262183823333e-01,-3.514598476422017281e-01,9.139483133241999013e-02,-5.962991881205431666e-02,-7.600568209899478955e-02,2.432584166526794434e-01
-4.290628135082871775e-01,-4.370518995068959356e-01,-4.375587950113249414e-01,1.013224059850724814e-04,-3.987007644237597798e-05,2.813777502556432286e-04,8.270741440355777740e-03
-4.350907737626764082e-01,-4.329597256712371944e-01,-4.459300055153594955e-01,-1.105311665201090488e-03,-2.883729177892691703e-03,1.128066890504335904e-03,1.332515198737382889e-02
-4.238511523250868551e-01,-4.348856468797577812e-01,-4.569819894825877249e-01,1.259890818663870760e-01,-8.936551024171610069e-02,-6.937047521580158582e-02,2.947354018688201904e-01
-6.257644407704899825e-01,-4.887077798108834248e-01,-6.046189971533593166e-01,2.914237610606874515e-02,-1.314973894085861017e-01,-1.586281125631542332e-01,3.824195265769958496e-01
-4.296945168321556485e-01,-4.328982613737836771e-01,-4.476891155843290004e-01,-5.349906205345082710e-04,-1.384979559033627490e-03,8.633319609162151470e-04,1.688989810645580292e-02
-4.503955395799070782e-01,-4.271199666330272593e-01,-4.715684989167812646e-01,-4.899202239718118690e-03,-2.738540288634805971e-03,7.951880776087954031e-03,4.203643649816513062e-02
-4.300024965623076567e-01,-4.409818728665216292e-01,-4.528763077982899121e-01,-1.855266845677501497e-03,-8.444957614030605122e-04,3.861583744158543410e-03,2.120893262326717377e-02
-4.215979315370745883e-01,-4.250309032094543027e-01,-4.433758768757617985e-01,-6.457093035407843878e-03,-3.442393879704064991e-03,4.457595607691733700e-03,2.513053826987743378e-02
-4.717273934727949092e-01,-4.639835102299392777e-01,-4.322993759385955759e-01,1.564663138639402554e-02,-1.434636899110417613e-02,-3.552319081089171798e-02,8.029201626777648926e-02
-4.286665703258936699e-01,-4.373168104738527351e-01,-4.422370102370976053e-01,-7.994831644620711613e-04,-9.775135960376972293e-04,2.434758237129098883e-03,1.281265728175640106e-02
-4.257333774661830050e-01,-4.367829509048503644e-01,-4.446992274882275442e-01,-1.376920697343460114e-03,-9.385761177714253096e-04,2.397729824224311551e-03,1.725716702640056610e-02
-4.573406873874255596e-01,-3.446664113122059891e-01,-3.647099624797052742e-01,3.221510030159135951e-02,-5.665455326883099552e-02,-9.809451714619002449e-02,2.290176898241043091e-01
-4.844307720673386997e-01,-4.921334774188732553e-01,-3.585119217649667123e-01,-3.724240649446853690e-04,1.119128848352426335e-03,2.892714636624359355e-03,1.300541460514068604e-01
-4.361878267181139579e-01,-4.434258510085734017e-01,-4.303994035725753897e-01,2.814055539012343208e-03,-1.560856705349706599e-03,-1.825695331520382552e-03,1.299448404461145401e-02
-4.450204371927628522e-01,-4.360064788122647861e-01,-3.410867534419982361e-01,-8.525677292854326461e-03,-1.646879434382311075e-02,2.831043626718008493e-02,1.156839504837989807e-01
-4.320704671395820817e-01,-4.507423862678567317e-01,-4.307368547340926224e-01,1.480050964521821468e-03,-1.063920446990317256e-03,-2.358683702244837241e-03,2.004938386380672455e-02
-4.202592009688443375e-01,-4.293715455408180781e-01,-4.429778459902355969e-01,3.116141379927170676e-03,-1.958759637650093772e-03,-4.884854135804790262e-03,2.245836518704891205e-02
-4.263360319057204473e-01,-4.274963956159952838e-01,-4.339411763146093226e-01,2.441683161055644997e-03,-3.800884526109693171e-03,-2.301628976395607169e-03,1.129061728715896606e-02
-4.168925394095223114e-01,-4.559398088272185179e-01,-4.443853712482391249e-01,1.159165664268735048e-03,-5.985600591532462544e-03,-3.107396854918721002e-03,3.670839220285415649e-02
-4.272041400684103429e-01,-4.402498401343435952e-01,-4.305486099334834837e-01,8.521689978194761780e-04,-1.762899784768452976e-03,-4.921035296197227155e-03,1.489619445055723190e-02
-4.803736024403462701e-01,-4.498367076389852559e-01,-2.797695021019298567e-01,3.031578818831860353e-02,9.274399833777906277e-02,1.607903358524955806e-01,3.757269978523254395e-01
-4.309123655402344877e-01,-4.352332175740981635e-01,-4.303361956920305209e-01,4.977380725091812329e-04,-1.225140341082096374e-03,-3.733775485258529914e-03,8.280135691165924072e-03
-4.453587127120475220e-01,-4.348838708575717971e-01,-4.298767061663653077e-01,2.918495136173769860e-03,-8.981340505939767929e-04,-1.470963578763551018e-03,1.488983724266290665e-02
-6.105272707978616209e-01,-4.823262544287914566e-01,-2.174187490138990708e-01,-3.412577559010476075e-02,2.188373882718691252e-02,1.097846581385716475e-01,4.020712673664093018e-01
-4.417995935199678370e-01,-4.373516021857438152e-01,-4.683997333203368529e-01,4.941217139293268418e-02,-2.327085164249164187e-02,-2.526665121666296296e-02,1.082135215401649475e-01
-4.045264286517271657e-01,-3.556329564761065432e-01,-1.287929998673374155e-01,9.352337304916967173e-03,3.673595228679139152e-02,9.817911470413441533e-02,3.133150637149810791e-01
-4.257080710467281426e-01,-4.578246273854434945e-01,-4.380978668323984304e-01,-2.661940668954816463e-05,-2.317297982954388737e-03,3.285790566412197765e-04,2.834604494273662567e-02
-4.034009880029516548e-01,-4.485738945138321720e-01,-4.391971788755591466e-01,-3.280664169387123661e-03,-4.290638274863141192e-03,3.106399659834753815e-03,4.267794266343116760e-02
-4.333725692947770769e-01,-4.359510366457309272e-01,-4.020987920124733384e-01,-2.098376390680340223e-02,-2.892890021177555587e-02,2.393129102922427615e-02,8.133298903703689575e-02
-4.290252181708558155e-01,-4.555362153957675520e-01,-4.278984561217247795e-01,4.972354886668210299e-05,-5.186181756810743192e-03,-1.043982475030905176e-03,2.859966270625591278e-02
-5.041766558177115387e-01,-4.827114501670664581e-01,-4.318212608625766058e-01,-4.208068623815368337e-02,-4.931361417683630122e-02,3.992365196005560890e-02,1.467394977807998657e-01
-3.728189374640241693e-01,-3.127605288149457596e-01,-4.331355113012479996e-01,6.368892108673261665e-02,-3.550081054050572681e-03,-1.994638405447750427e-03,1.519414335489273071e-01
-4.613605778309138872e-01,-3.704392207496237654e-01,-4.766092896926705791e-01,1.245515386647206083e-02,-8.307183783969059043e-03,-9.166446500304768069e-03,1.039718315005302429e-01
-4.470806559031316740e-01,-3.584798905216686760e-01,-4.591448800252364015e-01,2.608632898891550395e-02,-4.941544429740132340e-03,-2.023547931380824394e-02,1.113899052143096924e-01
-4.228481172827490142e-01,-4.517716456781417089e-01,-4.355441749724420220e-01,7.171443919115505928e-04,-2.227946442328602311e-03,-1.062029509677539030e-03,2.550222352147102356e-02
-4.350412630263539859e-01,-4.531346802826653475e-01,-4.296759153671000919e-01,1.285534458686103491e-03,-1.037385524012004187e-03,4.977633421583340257e-04,2.149804122745990753e-02
-4.319905572609377131e-01,-4.459474622835333801e-01,-3.890603721125486247e-01,2.638657991370168231e-03,-1.717031670283515610e-02,-3.082624945315363268e-03,5.975636467337608337e-02
-4.298998093247106134e-01,-4.611870487999861767e-01,-4.398203164111438301e-01,-1.102442263197952934e-03,-9.802239707886804647e-04,1.231856344460973123e-03,2.789271622896194458e-02
-4.382303643814030591e-01,-4.607410972258872972e-01,-4.266535134868700285e-01,6.987315069176138307e-05,-3.370714770608885646e-03,7.065753120525698500e-04,3.060976229608058929e-02
-4.343009477416061026e-01,-3.487282212189560804e-01,-4.321951888572099221e-01,2.386154227931995553e-02,-5.482904037127734297e-03,-1.590124427268610821e-02,9.850779175758361816e-02
-4.300213250814062804e-01,-4.580358552948294304e-01,-4.407266876316045523e-01,-1.742577587723092777e-03,-1.985071021448464243e-03,4.484923787283677521e-03,2.609191089868545532e-02
-4.131876570773060364e-01,-4.556563885826189209e-01,-4.401044518976010567e-01,-1.765695185060697737e-03,-4.479942644206383329e-03,-9.216115829113096306e-05,3.813886642456054688e-02
-4.499255527017017586e-01,-4.088208355927808180e-01,-4.270847070749725916e-01,4.032970363182819193e-03,-2.147699843717732707e-03,-6.675009524160308017e-03,3.832408040761947632e-02
-4.291115111711498731e-01,-4.458185877817057996e-01,-4.325341796759695767e-01,-1.262633491127246495e-03,-5.755396979150384984e-04,8.214678935448939878e-04,1.553895696997642517e-02
-4.294255280967293475e-01,-4.395044762491590595e-01,-4.198292610541083381e-01,-4.707022581251610154e-03,-3.857034691425332423e-03,2.000478245635884441e-03,2.033464796841144562e-02
-4.263103040651582964e-01,-4.329698975353770130e-01,-4.425294512537460978e-01,-7.734794674913981170e-04,-1.901082395414600704e-03,2.620873878273552535e-03,1.525260880589485168e-02
-4.407955216377374419e-01,-3.726398097725799885e-01,-3.650546897517842337e-01,4.810227312806824424e-04,1.713636738942832640e-03,3.920331165471074852e-02,9.919630736112594604e-02
-4.512595532871856441e-01,-5.068326062278575295e-01,-4.433397687864696901e-01,-3.293562520444080766e-02,-5.132109782386989200e-02,8.951771491268736489e-03,1.224232316017150879e-01
-4.282111463146090480e-01,-4.351686070682085905e-01,-4.388978394985109666e-01,-2.206778836060078487e-04,-1.193270393154191025e-03,5.137786403435685339e-04,9.667942300438880920e-03
-4.738261257004184879e-01,-4.805536911722005922e-01,-3.487476842640636621e-01,-1.235970505312800581e-03,1.317713507320285131e-02,6.887751368440228096e-03,1.311455965042114258e-01
-4.371855043190061574e-01,-4.687747675993440555e-01,-3.342312635500093165e-01,2.479205471141718645e-02,5.153230647312755097e-02,5.677844561701335391e-02,1.852883100509643555e-01
-3.964142056105498524e-01,-4.926547414131980940e-01,-2.532714617433675652e-01,6.754554885834103406e-02,1.436688177864196281e-01,1.180483576947625179e-01,4.011780917644500732e-01
-4.272937046179718368e-01,-4.438988687943671296e-01,-4.350011675981974024e-01,-1.107934150506496894e-03,-8.936661207655286453e-04,3.678419574201000162e-03,1.593184098601341248e-02
-4.276287386752309350e-01,-4.398046894939781626e-01,-4.473819744589964120e-01,-1.101475483910621840e-03,-1.130495056558820802e-03,3.327379309631017107e-03,1.840157248079776764e-02
-4.304099298143539420e-01,-4.325169060525524967e-01,-4.312515587280346674e-01,-2.362964117177360213e-03,-7.864976973107996394e-04,1.693539473713529539e-03,5.530384834855794907e-03
-4.060366324067586907e-01,-4.291946510685594740e-01,-2.045400433450764166e-01,2.069896977293023480e-02,7.722646591041000541e-02,7.062694854716858317e-02,2.827455699443817139e-01
-3.690487870860526542e-01,-3.636942165732182097e-01,-1.655785799704423411e-02,-1.563681370104320206e-02,2.001448632225352048e-02,-3.245971974588368614e-02,3.570535778999328613e-01
-4.470999103673050090e-01,-4.298303752605501793e-01,-4.139670287179056385e-01,-5.368982305598627575e-03,-5.516157198182001023e-03,1.486589396950813678e-02,4.079928249120712280e-02
-4.088753154108051291e-01,-4.115331829787798879e-01,-2.321038179366059495e-01,2.953876890605095298e-02,7.021776381150618418e-02,8.286284037864519170e-02,2.640701234340667725e-01
-4.271345528326027652e-01,-4.368751517958991970e-01,-4.392758508356129354e-01,-5.927439639641240857e-04,-1.089763160459477622e-03,2.583955261574966307e-03,1.219320017844438553e-02
-4.342632139363714616e-01,-4.411723348930386979e-01,-4.343971110487340748e-01,5.376268589867271583e-04,-1.240114385662188226e-03,-2.103543962959771203e-03,8.098409511148929596e-03
-4.329306141314730461e-01,-4.512339331627587269e-01,-4.260427684109260871e-01,2.701230606063125244e-03,-2.898919667436788365e-03,-1.631301397306792486e-04,2.357340231537818909e-02
-4.346654830091523092e-01,-4.390381548663813138e-01,-4.276524299709798527e-01,3.829715998222721091e-04,-3.322180538338286807e-04,-1.217769255295969967e-03,1.020729821175336838e-02
-4.327017813500388388e-01,-4.383252780427216999e-01,-4.275193386220338954e-01,6.886262845513524411e-04,-1.412311042043820327e-03,-1.809119445840725541e-03,1.023963373154401779e-02
-4.297042335796733559e-01,-4.316320952439402503e-01,-4.350516689192008846e-01,2.488527077603733479e-04,-1.357886561929848995e-03,-2.217914881084413845e-03,6.517468020319938660e-03
-4.235007537964733948e-01,-4.216570134508228485e-01,-4.355232130599346885e-01,4.593117387322426595e-03,-2.762174046465515516e-03,-1.266942128363359290e-03,1.615857705473899841e-02
-4.379791056516748049e-01,-4.414736170661165970e-01,-4.292211337207084698e-01,4.285726818344430208e-04,-7.858998990199349451e-04,-6.063609093668662206e-04,1.109168492257595062e-02
-6.589136686472720772e-01,-4.923374002558979501e-01,-8.075709101565157200e-01,1.290395134534731703e-01,-8.916518099792730689e-02,-9.978011872648254177e-02,4.222351014614105225e-01
-4.800113825909595455e-01,-4.910084138935303377e-01,-3.416741169746844164e-01,4.292630774736654574e-03,-2.025903340344544987e-02,2.985017564979240440e-04,1.485471874475479126e-01
-4.679303597648604152e-01,-4.666537574592205528e-01,-3.660566540952066017e-01,-1.218763811276289298e-03,-6.275237261768327850e-03,2.989860119465133532e-03,1.019766628742218018e-01
-5.223128421319942483e-01,-5.183913934568513682e-01,-3.308369882234302173e-01,9.625724951422650515e-04,2.210882505202611467e-02,3.432986747560291124e-02,2.023173719644546509e-01
-4.305618091772259182e-01,-4.463294948138558649e-01,-4.239482745005484499e-01,2.884645709186310723e-03,-2.741805403689664966e-03,-7.322098015974374575e-04,2.111310698091983795e-02
-2.281978016731056047e-01,-2.836975506779522149e-01,-4.128603244086340718e-01,1.428271446572035586e-01,-2.077144274714359459e-02,-1.922621298635274201e-02,3.008883893489837646e-01
-4.351279608854980441e-01,-4.502381342557020272e-01,-4.300144693833934384e-01,1.166999700444912519e-03,-3.763136985427873349e-04,-8.692689972721593565e-04,1.839859411120414734e-02
-3.393668394858966320e-01,-3.423110517386399043e-01,-4.334467579964597639e-01,6.574666801113281112e-02,-9.235141467312068045e-03,-5.867729802286857956e-03,1.480193734169006348e-01
-3.605192926508433704e-01,-4.869299525130886819e-01,-5.140367780986961899e-01,1.557553578298364293e-02,-3.120928587121129388e-02,-2.609285411702455884e-02,1.607276797294616699e-01
-4.320860613109339665e-01,-4.500796487790676981e-01,-4.287505093375356124e-01,5.001206892637511661e-04,-6.789025147347858271e-04,-3.209950489202206022e-04,1.993378624320030212e-02
-4.395448712500445443e-01,-4.397438166097010215e-01,-4.328212714594510402e-01,1.388745138756499386e-03,-1.289443703064130494e-03,-1.922031451155954002e-03,8.272874169051647186e-03
-4.090308058074311748e-01,-4.469502504327391157e-01,-4.293574524939513526e-01,2.032060877623130014e-03,-4.636161580209301365e-03,-1.721542333709642552e-03,3.414736688137054443e-02
-2.972830711514768409e-01,-4.548941498704403563e-01,-5.010476912359702606e-01,1.445551328750746822e-01,-1.778414468482843527e-02,-1.772913094269058798e-02,3.143661320209503174e-01
-4.350217795974429258e-01,-4.158190924742160011e-01,-4.636271251602868682e-01,1.707589606180135236e-02,-3.864538610072999324e-03,-4.911427155080176458e-03,5.223253369331359863e-02
-3.355551941216321499e-01,-4.131430611316135870e-01,-4.685041369353056817e-01,7.625495050167786781e-02,4.335625242271735728e-03,1.576163706936346137e-02,1.778375804424285889e-01
-4.344664141568888027e-01,-4.449971204092888488e-01,-4.295864035853010354e-01,7.490123253702305047e-04,-7.181052082198972940e-04,-8.165798228387659849e-04,1.383223477751016617e-02
-3.842310260728635796e-01,-4.326391816842481974e-01,-4.644234550663230987e-01,6.657689556288462832e-03,-4.686950773745856723e-04,9.479243001492828691e-04,7.091217488050460815e-02
-4.323960862167181562e-01,-4.546570971695712560e-01,-4.344834004012746997e-01,2.989767992766251964e-04,-7.152457804542624014e-04,1.575335794878956032e-03,2.151026949286460876e-02
-3.707520159845486551e-01,-4.502456284571102474e-01,-4.656155353884982029e-01,2.426871887254537091e-02,-1.821134150046603215e-02,-5.660631041754658928e-03,1.031274795532226562e-01
-4.263091550763124515e-01,-4.534350752062926149e-01,-4.367942532721604265e-01,-9.318322785666274257e-05,-8.283157520540452732e-04,-5.219067465500494682e-04,2.375366166234016418e-02
-4.271489071120717629e-01,-4.458940523312903137e-01,-4.094651270859945846e-01,-4.161284301346867068e-03,-6.151290231377843330e-03,2.704476095404666734e-03,3.439459577202796936e-02
-4.698766081742793421e-01,-4.854115148669422841e-01,-4.664079387367575658e-01,-3.551645287306129384e-02,-4.322391160413872890e-02,3.236891217660382847e-02,1.133122444152832031e-01
-4.299970794388673356e-01,-4.540054151415253147e-01,-4.348098845327896256e-01,4.949868391311509111e-05,-5.223525323233893774e-04,1.094949133284170385e-03,2.210064418613910675e-02
-3.959851189170794927e-01,-4.526277472251330480e-01,-4.358521443362187719e-01,8.341898915827266822e-03,-3.244445425621852314e-02,-1.376002587919756236e-02,8.046302944421768188e-02
-4.317756788634143361e-01,-4.535165508536494472e-01,-4.382658338091342531e-01,-8.830095855172703312e-04,-7.750326066811106650e-04,2.037547870735359045e-03,1.975555531680583954e-02
-4.288524247124014255e-01,-4.499233982186112146e-01,-4.330453908872594071e-01,-1.030307899431960822e-03,-2.094281310638723215e-04,6.007144776751408921e-04,1.943233795464038849e-02
-1.861590245598239157e-01,-4.569077639873471153e-01,-4.561112248330578822e-01,1.260669983376275748e-02,2.733534824723256405e-03,-2.079799777956077220e-02,2.736544013023376465e-01
-4.517214539584195054e-01,-4.326748640360913445e-01,-4.222309312941639470e-01,3.342137618380444739e-03,-1.799272402506140161e-03,-3.812150949024699798e-03,2.752433344721794128e-02
-4.407823469362051605e-01,-4.305822900272154863e-01,-4.324715395157941455e-01,-2.771944108857871212e-04,-3.603331055468904625e-03,-9.486271832462349817e-04,1.141149178147315979e-02
-4.294384531514722214e-01,-4.449159434599076479e-01,-4.404455200016429983e-01,-8.146798043514810479e-04,-6.846592299763317390e-05,4.731242134056540261e-03,1.610917784273624420e-02
-4.277865631862294293e-01,-4.430000987285194203e-01,-4.274272390920178522e-01,-2.398303579722311021e-03,-2.284386247525178534e-03,1.921016113246537364e-03,1.676392368972301483e-02
-4.416535432358034696e-01,-4.633466123402489867e-01,-4.186487872834296908e-01,5.061724146829309212e-03,-7.897762975216075440e-03,4.612653751716835378e-05,4.198625311255455017e-02
-4.393678869722577596e-01,-4.202912081869798477e-01,-4.306189511121293889e-01,2.156455720723748741e-03,-5.063109304586755656e-03,-3.680567648881140266e-03,2.012607268989086151e-02
-4.298520072111177148e-01,-4.457375130130953877e-01,-4.378471200442774491e-01,-6.568222948962979674e-04,-2.596939111693536404e-04,1.835107053421340152e-03,1.417265459895133972e-02
-4.403674924480635577e-01,-4.335025834480402129e-01,-4.286991092407201887e-01,2.589906287535327905e-03,-1.928698908065291755e-03,-2.131387928071444993e-03,1.216908730566501617e-02
-4.301242253022719009e-01,-4.385204994557101998e-01,-4.408401410389851116e-01,-2.048949201475652184e-04,-6.559610406304227899e-04,1.181894808001280857e-03,1.004798151552677155e-02
-4.285374126099192882e-01,-4.333070030277694218e-01,-4.335634559265559296e-01,-2.679143488461400383e-03,-1.098819007232223078e-03,7.051731899396926828e-04,7.119366899132728577e-03
-4.408384729563875615e-01,-4.312418933315983471e-01,-4.356525640428047796e-01,4.712566008334891435e-03,-5.014727590690688276e-03,-6.588119193063316989e-03,1.847967132925987244e-02
-4.266460387944857602e-01,-4.318350284720571808e-01,-4.422570642105702055e-01,-7.619581992078460451e-04,-1.409293756690027958e-03,2.027337053205835720e-03,1.447945553809404373e-02
-4.493667310686565441e-01,-4.319418320383014986e-01,-4.339577164663834807e-01,3.638028314955066116e-03,-4.504482047434870025e-03,-7.080159277795281501e-03,2.288071438670158386e-02
-4.287625183637048254e-01,-4.379948843855663299e-01,-4.376840099617848034e-01,-4.429846929400932712e-04,-4.110174299883015414e-04,1.387588581789879006e-03,9.451710619032382965e-03
-4.285231064043644733e-01,-4.374988366088857772e-01,-4.367761349312078156e-01,-2.412474673876778661e-04,-3.707221436387195495e-04,9.432967604508335317e-04,8.823581039905548096e-03
-4.557513214126445167e-01,-4.496692244847394493e-01,-3.832321010869241817e-01,-4.792816840573121615e-03,-1.397246138213635407e-03,5.552604571312379396e-03,7.086765766143798828e-02
-4.519894572350657280e-01,-4.519152997678685391e-01,-3.827468529941470132e-01,-4.583444285027706185e-03,-1.967033794055497546e-03,6.041928735413733612e-03,7.052343338727951050e-02
-3.768970080233410291e-01,-5.073034501781099603e-01,-5.210231483661666996e-01,-2.568175169684979581e-02,-1.328926625901659907e-02,-2.361377412178196356e-02,1.521989107131958008e-01
-4.764695906053880159e-01,-4.279984459080107273e-01,-3.482169660681794232e-01,-2.950474647140610696e-02,-3.692610939483455951e-02,6.429307657032455603e-02,1.780017912387847900e-01
-4.606424503137769300e-01,-4.645596019588101866e-01,-3.467349772882867276e-01,-3.442541495140931211e-03,2.255423849359946848e-03,6.105176463795213525e-03,1.166151091456413269e-01
-4.054983654998121634e-01,-3.250325267154166031e-01,-4.251555092804931713e-01,5.089233248687800859e-02,2.632089114964546173e-02,2.924263120074209465e-02,1.444186121225357056e-01
-5.546235486458216402e-01,-4.951133369482877411e-01,-3.291778943400134327e-01,6.241227417589828574e-02,1.004531895035486733e-01,1.607071387786247751e-01,4.004867672920227051e-01
-4.585724014657733272e-01,-4.615641828127898250e-01,-3.733286542522508134e-01,2.237666905389108871e-03,-1.037884574495499335e-03,-1.301111567681560808e-03,8.691265434026718140e-02
-4.431405598217627584e-01,-4.287570211767778305e-01,-4.124780608894771383e-01,7.085283134231254096e-03,-1.024202549849744306e-02,-1.143788540574128612e-02,3.954511880874633789e-02
-4.300119235916010640e-01,-4.356237443743428694e-01,-4.447425673825371462e-01,-2.780111061078640775e-04,-1.016111809681786993e-03,4.720259062777632788e-04,1.303136255592107773e-02
-4.091874893216361220e-01,-4.411106783768300454e-01,-4.567095158518993947e-01,-5.627307137500326892e-03,-2.705768284863184687e-04,4.567981987121219113e-04,4.308391362428665161e-02
-4.311909072054407321e-01,-4.539551644717980672e-01,-4.336377664637710017e-01,-1.099978009031902767e-03,-4.981875289646787866e-04,2.507449488283861099e-05,2.174566499888896942e-02
-2.949642984071440543e-01,-3.904951753634723355e-01,-1.999530418182853542e-01,-1.384421750158839389e-03,1.382628834353511194e-01,2.079048441780220215e-04,2.908359467983245850e-01
-6.762483480139730441e-01,-5.984284892807655298e-01,-5.430588869094469251e-01,-1.697631587086038674e-01,-1.384068039676490391e-01,1.290248310714450508e-01,4.553028941154479980e-01
-3.661077861592260674e-01,-4.531356925277697512e-01,-4.586091522426603562e-01,-2.710756281388199563e-03,4.614607458922132671e-03,-5.180689856074388935e-03,9.081082791090011597e-02
-8.095738047172346130e-01,-5.743718388808096709e-01,-6.685799219332492216e-01,-2.138201335424298397e-02,-7.317677545992379295e-02,-2.253981697306214615e-01,4.603110849857330322e-01
-4.249525953751933649e-01,-4.456269495916246326e-01,-4.527851931168120903e-01,-3.236510484244467176e-03,-1.647780626053913519e-03,4.316700906984805540e-03,2.687254548072814941e-02
-4.569637539218295852e-01,-4.362460681884630098e-01,-4.164531394640459405e-01,4.062763724463952855e-03,-1.942783342001155487e-03,-6.759642296780246813e-03,3.780166432261466980e-02
-3.624471947295448415e-01,-4.722976960269755775e-01,-4.804700781985375979e-01,5.354957585334030627e-04,-2.507638531715888734e-03,-3.628222816572691800e-03,1.144153773784637451e-01
-4.380159738641570266e-01,-4.288329034888428426e-01,-4.538291672611157179e-01,-1.622435308305858904e-03,-1.656897265108360452e-03,8.106208251587254340e-05,2.226549014449119568e-02
-4.591469421782482518e-01,-4.332444360374875236e-01,-3.499411044391144698e-01,6.456573436108683194e-03,5.341226352707721670e-03,4.170859505564264436e-02,1.232786253094673157e-01
-4.230357454848480692e-01,-4.430301186316797368e-01,-4.469478233967763559e-01,-2.085734514162908108e-03,-2.129881211841871871e-03,4.710990548448758600e-03,2.422180399298667908e-02
-3.839811094147457804e-01,-7.120665648121167202e-01,-7.734782778554344373e-01,5.473710061589025233e-02,-7.349756286064711153e-02,-4.571273605007739743e-02,4.037608802318572998e-01
-3.580186513729365361e-01,-4.699147103360925004e-01,-4.650113038462821979e-01,4.033662442476826371e-03,7.092005947535554326e-04,-4.921890659832746980e-04,1.097594946622848511e-01
-4.520116389295120718e-01,-4.439867255119956946e-01,-3.518163379101615917e-01,4.001285746994991295e-03,5.985751372848655688e-03,9.573320290725816431e-03,9.864027053117752075e-02
-4.596862917763480105e-01,-5.377435431404292698e-01,-3.936837959599582826e-01,9.719799271610227165e-02,1.590715260498090644e-01,1.111074789408185853e-01,3.960927426815032959e-01
-4.796795865800993486e-01,-4.457079470299840640e-01,-4.502910429837190809e-01,-2.724844221456996975e-03,1.400619063190225162e-04,-1.628777774560875510e-02,4.286712035536766052e-02
-4.413915283023613911e-01,-4.006242234757695919e-01,-3.734049467457236648e-01,-1.846085646544097904e-03,7.265092076160860725e-04,1.458094137246660968e-02,6.451462954282760620e-02
-4.508392907539008898e-01,-7.531736814361579269e-01,-7.585738216472402984e-01,-1.522870660621016559e-01,5.547766634440064876e-02,-7.784696723398486229e-02,4.359537959098815918e-01
-4.858956336078074645e-01,-4.325325034602775509e-01,-4.725173990179168393e-01,7.657338531357268593e-03,-3.089841388026956515e-02,-5.450851684175405526e-02,1.194415017962455750e-01
-4.341243097754552971e-01,-4.310817829478352237e-01,-4.285111164555884811e-01,-2.515403307946143668e-03,-2.202711564139432209e-03,3.337302932198690959e-03,9.520344436168670654e-03
-3.287331838039969645e-01,-4.554370985066665822e-01,-4.569830995676801288e-01,6.387432593214695427e-03,8.083453216979777020e-03,-1.985388095954351546e-04,1.287272274494171143e-01
-4.083148710496272704e-01,-3.695136467975005390e-01,-4.329632844889209631e-01,3.738731156811760103e-02,-2.304234148220214370e-02,-2.317389443783223618e-02,1.023075655102729797e-01
-4.301657016315469928e-01,-4.353013101665230700e-01,-4.488143863478044615e-01,-3.800163085964421844e-04,-1.910836607589099650e-03,1.718613914369305443e-03,1.728072948753833771e-02
-4.392930578917826345e-01,-4.406905629957203474e-01,-4.182210056493676498e-01,-4.613939326226822527e-03,1.934743985291013111e-03,-2.445264563337273041e-03,2.384251728653907776e-02
-4.163416306783688792e-01,-3.970474410332393567e-01,-4.357488133458905510e-01,9.352810509863701202e-03,-4.952208857754684598e-03,-2.107008268912193786e-03,3.837534412741661072e-02
-4.337261200449080700e-01,-4.009547937964105802e-01,-4.483524450835681963e-01,5.320803865186535080e-03,-3.742047204332250420e-03,-6.575273268949402431e-04,4.353678971529006958e-02
-4.285762890184443563e-01,-4.331839108119005521e-01,-4.407501813191962436e-01,1.402129697956948102e-03,-8.432219166332972698e-04,-5.453232105338638985e-04,1.105731632560491562e-02
-4.587155831572514164e-01,-3.828836296550842677e-01,-4.553197108718125552e-01,3.186213269073701060e-03,-5.534273760529848443e-03,-2.103375169126724988e-03,7.510069757699966431e-02
-4.335484631751004292e-01,-2.903277883944989646e-01,-4.054724755300129768e-01,-4.920687534897132814e-02,1.349642281186844324e-02,-8.160909652970411987e-02,2.122967392206192017e-01
-3.874501793675820815e-01,-4.163983621285912706e-01,-4.595357404855284211e-01,1.095604353809651564e-02,-7.817752035062452368e-04,2.392815539171853391e-03,6.577761471271514893e-02
-4.497977598736535021e-01,-4.198280910808073751e-01,-4.146057679940108875e-01,-3.138855572876717275e-03,-1.482140386430593751e-03,5.393627550268326361e-03,3.471866995096206665e-02
-4.698647837719826525e-01,-4.516094713751069856e-01,-4.264292955693353426e-01,6.402680213661663669e-04,7.133881979121438344e-04,-4.785139304163296865e-03,3.870941698551177979e-02
-4.520249706716896743e-01,-1.468761015545044235e-01,-4.455589036338096776e-01,7.333822286148317104e-02,-1.051455348238140852e-02,1.543367559572478460e-02,3.291903436183929443e-01
-4.821526771372368070e-01,-3.726552814078121223e-01,-4.773386439874542919e-01,-6.882729598643127014e-03,2.766647213029271423e-03,5.205957720118563510e-03,1.083148866891860962e-01
-5.006715750123765796e-01,-4.766953251879511022e-01,-3.366043388197852426e-01,2.526991759093916851e-02,-3.052540007879033998e-02,-9.394194982992920551e-02,2.339777350425720215e-01
-4.409032945439708140e-01,-4.175700130418716904e-01,-3.979719653124318413e-01,-5.264945009202786144e-03,-6.853799715883447836e-04,7.536587564147860345e-03,4.050655290484428406e-02
-4.454230156301473009e-01,-4.402340975712027427e-01,-3.618745887026734720e-01,1.410546624932876997e-02,2.951765394429703773e-02,3.255311695383034803e-02,1.138579100370407104e-01
-4.487548346098330088e-01,-4.084239344004202410e-01,-4.166683954034639537e-01,-1.213532833148361955e-03,-4.206524993060536260e-03,6.612691357601162626e-03,3.937933221459388733e-02
-7.060869396999195358e-01,-3.917459380924070422e-01,-7.628286028098838489e-01,6.733537368969266801e-02,-7.466844815295893556e-02,-8.372450859485788821e-02,4.137919545173645020e-01
-4.226156899887718588e-01,-4.525357582425439396e-01,-4.455629020376757898e-01,1.952029489618767929e-03,-3.583107614693977882e-03,-4.315850032404634946e-03,2.900051325559616089e-02
-4.678008784143032894e-01,-4.367801100177134965e-01,-4.234011857170831838e-01,-6.633147121642190940e-03,-5.937910408686437359e-03,1.648473950925818249e-02,5.108150839805603027e-02
-4.637174078127087595e-01,-3.749056456171098173e-01,-4.539993737910799632e-01,4.359762406045727089e-03,-5.849718085556482100e-04,-1.984965138707869402e-03,8.478657156229019165e-02
-5.203822975894966119e-01,-5.173330663602478952e-01,-3.913847622003380211e-01,-2.745494830231737758e-03,-2.800817772926417204e-02,-1.248244803733098915e-02,1.382018178701400757e-01
-4.260980236920697828e-01,-4.542854433342616294e-01,-3.660832710986404726e-01,-3.294192449786458553e-03,9.437638106799321053e-03,8.043453188514970015e-04,7.993537932634353638e-02
-4.434602789403213619e-01,-3.887065152967945081e-01,-4.496347872934601808e-01,1.114803684454984678e-02,-6.246022657274988288e-03,-6.865997595235679308e-04,6.217286735773086548e-02
-4.441793411362865429e-01,-1.819285004587364030e-01,-4.051945818062146487e-01,1.546944132583465831e-02,-2.337746507729997550e-02,-6.921975129099469659e-02,2.771336734294891357e-01
-4.298252491843517209e-01,-4.309010237327857706e-01,-4.389303161873205905e-01,-1.041977586110329678e-03,1.010848337063340301e-03,-2.793034062458437088e-03,1.019756123423576355e-02
-4.165632446420312052e-01,-4.436479069414355214e-01,-3.710531162366034197e-01,-1.461277759653261017e-02,3.910061900594731521e-02,-2.137252896199611646e-02,1.031256839632987976e-01
-4.440210941784784038e-01,-3.589279385021568736e-01,-4.613349715731582812e-01,1.006488052494335615e-02,-2.714403997010704245e-03,1.978051473687537313e-03,9.670396149158477783e-02
-4.290012369876696208e-01,-4.348704057501611153e-01,-4.435117597111826182e-01,-3.126336961213397572e-04,-6.481098433774553410e-04,4.083911291363250332e-04,1.272365543991327286e-02
-4.346434030758616895e-01,-4.066111911009795965e-01,-4.036363854486638703e-01,-4.496947641729646256e-03,-3.986590386317656609e-03,1.031677261819795646e-02,3.613445162773132324e-02
-7.211153805504886272e-01,-4.615678088715239324e-01,-5.522447423797193222e-01,-4.994315303523668911e-03,-8.206445126726108485e-02,-1.231431626703417131e-01,3.432543277740478516e-01
-5.414229094599517511e-01,-7.569884454999843415e-01,-7.182932845581064818e-01,2.141605343852759358e-02,-1.604218829514170441e-01,-7.697542364266454773e-02,3.687568306922912598e-01
-4.084942120320360082e-01,-4.810061509096563159e-01,-4.836511558992776516e-01,5.138993661960713361e-03,-1.394640572456034081e-02,-5.551977888729889635e-03,7.881611585617065430e-02
-4.412124041378033823e-01,-4.170681962018430444e-01,-4.546410619112052909e-01,-4.749452948553575457e-03,-3.783741297788353192e-03,1.906356504244829161e-03,3.477097302675247192e-02
-5.153512741297647803e-01,-3.549541086624313224e-01,-5.239994239789209640e-01,3.810602364791292745e-02,-1.611510641493306070e-02,-2.067590714997406126e-02,1.833219975233078003e-01
-3.545004214164217959e-01,-4.460561048122717587e-01,-4.474631809029924190e-01,1.796417313029513574e-02,1.709381319583666602e-04,-1.740735524814596927e-03,9.741951525211334229e-02
-3.554225556296640720e-01,-4.848904857437487115e-01,-3.965687410855632256e-01,1.404937569222745354e-02,8.487033347633878011e-02,6.173181146568058712e-03,1.882637590169906616e-01
-3.539850470111678971e-01,-4.623406506312475184e-01,-4.692829682473472208e-01,6.087643987730831374e-03,-2.656890653827790813e-03,1.604778227479689012e-03,1.126119568943977356e-01
-3.318413281203862475e-01,-7.355654718342492515e-01,-6.765863832169611847e-01,-5.501957432227804617e-02,-1.711966816307707584e-01,-4.032853337459060133e-02,4.945158958435058594e-01
-4.137665730109338358e-01,-4.180952252943859748e-01,-3.945808140236466421e-01,7.631523758425565705e-03,6.626362101985619826e-03,4.156901874105028115e-03,2.877785637974739075e-02
-4.598542347330263347e-01,-3.335475010584192379e-01,-4.660127528456677881e-01,1.002139672930680431e-01,-2.935940874042964124e-02,-9.484090406957236541e-02,2.765285074710845947e-01
-4.308786301444226252e-01,-4.347916559505719536e-01,-4.481323428544899956e-01,-3.640374321771508892e-04,-1.150697948905988945e-03,1.014115899118282977e-03,1.590419188141822815e-02
-3.527928677091233256e-01,-4.800413584498388619e-01,-4.860353407599855013e-01,3.879623935527646422e-02,-1.373426685320413947e-02,1.758411061014240190e-03,1.485982537269592285e-01
-2.073163386815722042e-01,-4.484172099164336900e-01,-4.517910047098773196e-01,5.072934668221237842e-02,9.017891011075369889e-03,-8.075545870400645601e-03,2.590645551681518555e-01
-3.896965334704691197e-01,-3.882555505341302449e-01,-4.266376035305461945e-01,1.715238271908742576e-02,1.242182353443721521e-02,1.193098052438592432e-02,5.650233104825019836e-02
-4.062194528670809990e-01,-4.145354846576760344e-01,-4.688530200749139176e-01,4.749449829924286964e-02,7.352923171883001680e-03,4.716643133523204176e-03,1.023101955652236938e-01
-3.914493003327345622e-01,-4.664168786634629860e-01,-4.783199678217417983e-01,1.395097722320842726e-02,-3.443090192730267722e-03,-4.870757359694537041e-03,8.570177108049392700e-02
-6.913312389558282645e-01,-7.360746734458911700e-01,-3.220103302844565807e-01,-1.828682263152604445e-02,1.140909647546687611e-01,4.293543035422187071e-02,4.477816522121429443e-01
-4.721998060793836660e-01,-4.020946042217770078e-01,-4.757541148500880057e-01,-6.514730905677134677e-03,4.113190005341433100e-03,-9.861448359749674149e-04,7.319525629281997681e-02
-3.635246385541581748e-01,-4.513766818318243335e-01,-4.663512051352042276e-01,5.456250566383560874e-03,-3.272332340938095114e-04,-3.493855222888455226e-03,9.687112271785736084e-02
-4.586505414676191883e-01,-4.416525743213859934e-01,-4.309163891749120956e-01,1.316081229948637800e-03,-3.026970369171515761e-03,-1.230000863612899786e-02,3.276040777564048767e-02
-3.223313349332923572e-01,-4.457827250197362035e-01,-4.198567429976534648e-01,-1.224707829410862613e-02,4.136607367901643656e-02,-7.378192188058627261e-03,1.358622312545776367e-01
-4.209191590468448485e-01,-4.499742088595115597e-01,-4.014100108084935892e-01,7.914496297508483158e-03,1.557064628603786922e-02,6.563048803085921694e-03,5.325519293546676636e-02
-4.034332441021231674e-01,-4.932177732145721083e-01,-4.883175548684275946e-01,-1.148935837064344635e-02,-6.208005251617750020e-03,1.791637363224932774e-03,9.036909788846969604e-02
-3.603974041898412306e-01,-4.171155493095042299e-01,-4.355134729370117586e-01,-4.591550674257852821e-02,1.243471665151391070e-02,-7.243208679122655792e-03,1.074471399188041687e-01
-4.317887108864171819e-01,-4.678642641504680566e-01,-4.222978657090585841e-01,-3.716362404732090254e-03,2.960810964153139623e-03,-2.979409103135382316e-03,4.275830835103988647e-02
-4.541571361926895478e-01,-4.018729005088515494e-01,-4.449113844651167993e-01,-4.102053462140420152e-03,2.338363411834509190e-03,-1.001596137718799642e-02,5.199577659368515015e-02
-3.904315386284850087e-01,-4.749763155339992160e-01,-4.680983908149966011e-01,-1.256404602906963791e-02,1.600809563019919488e-02,-6.075571911576963316e-03,8.925645053386688232e-02
-4.350444157996442018e-01,-3.951574933016653302e-01,-5.214002577579784914e-01,-6.728560706176250905e-02,2.779050781706325288e-02,-6.490897076126421472e-02,2.025618106126785278e-01
-4.420200950641338111e-01,-3.143518084559606129e-01,-4.370223554515043629e-01,-5.819398641530379446e-02,8.616220794240231698e-03,-5.500990315077241427e-02,1.874745935201644897e-01
-4.287011665358619883e-01,-4.522532021256012169e-01,-4.310954222476684472e-01,-1.656135726480425282e-03,-5.746773806681435351e-03,1.837966873186102539e-03,2.492950484156608582e-02
-4.490392082870677815e-01,-3.974058660134759946e-01,-4.613415167497867397e-01,-1.076191294524159354e-02,4.004292242027107998e-03,-1.003079941075374348e-03,6.205752119421958923e-02
-4.451641133601006439e-01,-4.448611183263992408e-01,-4.231444373755247068e-01,5.244255328837902838e-03,-2.699258041002187709e-03,-2.429553987748522825e-03,2.450222335755825043e-02
-3.830580353927788284e-01,-4.376766540017242857e-01,-4.496443686596427458e-01,-1.186977539680622931e-02,2.927728610806576860e-03,-2.887005061215815616e-03,6.521865725517272949e-02
-4.276674171852576367e-01,-4.484282884758364340e-01,-4.581891406723284099e-01,-3.245889417114618952e-03,-1.675731503100142891e-03,5.652618941355781398e-03,2.940781787037849426e-02
-3.939731869348699345e-01,-4.577776692019370208e-01,-4.504096533763119470e-01,-1.856067751446003385e-03,-1.411453699596815171e-03,2.323651338997650626e-03,6.072640791535377502e-02
-4.276389964671117871e-01,-4.396218920837255961e-01,-4.380440893579240491e-01,-1.479920837236785183e-04,-7.433607367664559883e-04,2.831096076773920948e-03,1.236694678664207458e-02
-4.356044223516083447e-01,-5.532046446684057983e-01,-5.353252187287641517e-01,-1.908574309584002565e-02,-5.280226609951698541e-02,-1.176139312542486340e-02,1.480502933263778687e-01
-4.417119630364382266e-01,-4.548173760433820156e-01,-3.469344749661785743e-01,-3.380699669839527951e-05,1.003105142952798699e-02,2.068177440781786541e-03,1.034955233335494995e-01
-4.733632157486425407e-01,-4.172059701335275039e-01,-4.991583638447264493e-01,-2.412020164819558485e-02,3.251516108786467549e-03,-3.453173919289164676e-03,8.414542675018310547e-02
-3.841064545149165399e-01,-4.407537200753784967e-01,-4.269769836037175526e-01,3.972406473871871804e-03,6.664098062043860744e-03,9.026301029681773128e-03,5.516602098941802979e-02
-2.973912219990536565e-01,-7.052590351029207616e-01,-6.897154150484432478e-01,3.532226778263139466e-02,6.647669231275339652e-02,-3.833110235672989446e-02,4.262232780456542969e-01
-3.200288024096322737e-01,-7.110313461372984589e-01,-6.243501903507540085e-01,-8.918630982256146086e-04,1.415363875225208456e-01,-3.481143291072637258e-02,4.361646473407745361e-01
-1.804631135405493358e-01,-4.375277568631956715e-01,-4.354516863952131445e-01,4.062787630336646416e-02,8.548603236245574943e-02,5.684587490265036527e-03,3.041796386241912842e-01
-4.295485286995980312e-01,-4.580293832237724017e-01,-3.755219596470797949e-01,4.300942649670120091e-03,8.482654761792572662e-03,1.920336325810633165e-03,7.450621575117111206e-02
-3.865558251258247036e-01,-4.825127689418883814e-01,-4.713269590070517379e-01,1.382366029886448189e-01,1.366677427482632101e-01,8.796136206468022078e-02,3.805698156356811523e-01
-3.979752589130286511e-01,-4.434981800775718019e-01,-4.002881366923883300e-01,1.975518750881316218e-03,4.594149661502656967e-03,4.406061525055485380e-03,4.588751122355461121e-02
-4.580880456840132342e-01,-4.170730615855633427e-01,-5.617729362166204998e-01,-1.134617956748499024e-01,3.690892178168015542e-02,-2.740721246411603404e-02,2.482869923114776611e-01
-4.274721786085168840e-01,-4.442860414762645482e-01,-4.313861235253807491e-01,-2.785493194053487252e-03,-4.170824550882362355e-03,4.036562330862812457e-03,1.888285391032695770e-02
-3.698873663245065835e-01,-4.808462908759228438e-01,-4.730551505904735388e-01,7.028249688116600244e-04,-1.099160923114676260e-02,-9.028796317405085245e-03,1.100753098726272583e-01
-2.624551100087211264e-01,-5.756865692798015521e-01,-6.729972198898658275e-01,-3.119089888597516985e-03,-7.771255275043766064e-02,-2.603026855879994605e-02,3.977985680103302002e-01
-3.143713669509605180e-01,-5.387584402071778911e-01,-6.696495261128077026e-01,1.816901914002662932e-01,5.318494860018453674e-02,8.372365916740492214e-03,4.523079395294189453e-01
-4.472894323530633987e-01,-3.656423951392483995e-01,-4.471211007292510975e-01,-1.477837070203166271e-02,7.849996098548013210e-03,-1.152491586417029625e-02,8.883164823055267334e-02
-4.710917662739614875e-01,-4.083442463615153395e-01,-4.558922002433724585e-01,-3.527132662702707044e-03,3.777368464258384472e-03,-9.357355097491642723e-03,5.964352935552597046e-02
-3.652005719573205855e-01,-4.472399501014444057e-01,-4.608933276954078062e-01,7.627526703402145482e-03,6.233549741376526697e-03,1.839331427607394194e-03,9.131400287151336670e-02
-3.679699363220850228e-01,-4.500970944058533263e-01,-4.668170488479286284e-01,7.644138078628201147e-03,6.127954555932833315e-03,3.206659696194292478e-03,9.336161613464355469e-02
-4.524834290983780205e-01,-4.399983677768147805e-01,-4.045923120388540406e-01,-1.039423669818828914e-03,1.372368578879458586e-03,-4.371565438419093563e-03,4.379195719957351685e-02
-4.285750388138212519e-01,-4.363440603434655118e-01,-4.603956987848170646e-01,-1.510424201965702637e-02,1.102861097322433651e-03,-8.941095657578253600e-03,4.187588393688201904e-02
-4.653449782052250239e-01,-4.672154448501228408e-01,-3.498163249882214609e-01,-2.307823948729831754e-03,1.813204222493935720e-03,3.930890646150040843e-03,1.167846620082855225e-01
-4.744889764735035209e-01,-3.669477372227220036e-01,-4.772695785614694541e-01,-1.125195864441705211e-02,-2.887852158204059008e-03,-2.249361123990505432e-03,1.108688265085220337e-01
-4.272296185775963928e-01,-4.443846818539858301e-01,-3.788938522814419008e-01,8.162409029122236551e-03,5.950822621967380086e-03,5.106264186240138010e-03,6.200144439935684204e-02
-4.634896668562997757e-01,-4.616026659118371289e-01,-3.664353039151069247e-01,3.200757584394677870e-03,2.493429596462256968e-05,-2.799113482293708326e-04,9.628572314977645874e-02
-4.245757381539349562e-01,-4.411099204113327343e-01,-4.184014115590766747e-01,-3.345654919016255446e-03,2.773080529948666797e-03,-2.881661742588628814e-03,2.225198782980442047e-02
-6.969918860295624130e-01,-7.064112410691466559e-01,-3.356115129083911963e-01,-2.908796550759874810e-02,9.436037820207980598e-02,6.207531682350188318e-02,4.182086586952209473e-01
-4.477161377947452281e-01,-4.464955815128923700e-01,-3.733194594167812408e-01,7.315256386602109716e-03,5.471860018003782758e-03,5.589020305205990788e-03,7.608958333730697632e-02
-4.207984951239726046e-01,-4.594913732712059828e-01,-3.916976599671341819e-01,8.092494730437212224e-04,1.353219933850336766e-02,8.678030637147143844e-03,6.517087668180465698e-02
-4.099429202505215364e-01,-4.542314463576067607e-01,-4.192344276457628527e-01,-1.017352671989917544e-02,2.195590104368360870e-02,-6.035476598957690425e-03,5.917994678020477295e-02
-4.213562894517823287e-01,-4.352119600171533986e-01,-4.224157116611593765e-01,-3.355609813841121513e-04,-2.534110618615955345e-04,-2.126097745038853389e-04,1.338241528719663620e-02
-4.544855471444787520e-01,-4.417438415067758140e-01,-4.062703654928913055e-01,2.672807619072936278e-03,-2.064840669312673288e-04,-4.367175071026062685e-03,4.417564347386360168e-02
-4.106165405560726622e-01,-4.525211673575115778e-01,-4.121215297742064076e-01,-1.960751975185016233e-03,8.034878382517894602e-03,1.109978550602094046e-03,4.363604262471199036e-02
-3.553527912894860474e-01,-6.289752729394906261e-01,-5.156488969320027760e-01,5.608582549540564594e-02,1.633166815723083032e-01,2.087581839277014364e-02,3.840114176273345947e-01
-4.500091419456124786e-01,-4.551213881045980125e-01,-3.794069483920436969e-01,3.117097056878513281e-03,-5.028156398113078733e-03,-2.358630687405799886e-05,7.400498539209365845e-02
-4.110193960534757052e-01,-4.401063817310840176e-01,-4.287278926712269622e-01,-5.251033424065586035e-03,8.645419088401388313e-03,-5.843044126614748562e-03,3.246429190039634705e-02
-4.174348764947687362e-01,-4.380698843272010090e-01,-4.320127416235477469e-01,-1.739210069784340347e-03,2.535505886188022234e-03,-5.286227055457405274e-03,2.120605669915676117e-02
-4.192207900028580569e-01,-4.398900680371040095e-01,-4.440538043483308606e-01,-5.349505667862597749e-03,5.136134348998704600e-03,-4.492655914303752412e-03,2.749837003648281097e-02
-5.990208830567340659e-01,-5.879332103224046424e-01,-5.296817052850840701e-01,-1.613938476241239539e-01,4.142720185188463605e-02,-1.994452133054175069e-01,4.547414481639862061e-01
-3.899718418326117986e-01,-4.372167594127572277e-01,-4.506161009357630420e-01,-2.606035394884400822e-03,4.992309379723703332e-03,-2.323567583894400185e-03,5.617842823266983032e-02
-7.371697752724509778e-01,-8.092860959704065715e-01,-4.870178772448757742e-01,-4.522683920462697293e-02,-1.757455056163571283e-01,-4.308369011646363822e-02,4.360977411270141602e-01
-4.449684490762783051e-01,-4.349803220135627368e-01,-4.414598424651005604e-01,-2.332095700795906723e-03,3.908791531821205999e-03,-4.542030007469105915e-03,1.417993940412998199e-02
-4.229237460426434891e-01,-4.498780549291052644e-01,-4.014385390202555026e-01,-3.987653069058801937e-03,3.259532005162308396e-03,8.269003670858332891e-04,4.299880191683769226e-02
-3.947941695715404542e-01,-4.621432033108869297e-01,-4.538520960858470343e-01,-1.098721965908981907e-03,-1.134737861905057814e-02,1.563894848824512549e-03,6.665946543216705322e-02
-4.503852940963172236e-01,-4.214311106547290464e-01,-4.249027416412128888e-01,3.334494415281713444e-03,-1.581668042600397001e-03,-9.074422054299887894e-03,3.221452608704566956e-02
-3.815732622248791950e-01,-4.704037330197833877e-01,-4.650983311492665750e-01,6.267269444188778432e-03,-1.150633123621538868e-03,-3.909231258664976581e-03,8.726610243320465088e-02
-4.860117825867852348e-01,-3.550123555466431768e-01,-5.166300377690931089e-01,-1.179021705400823579e-02,-7.100866981752551599e-03,-3.165067947202319237e-02,1.602588295936584473e-01
-4.520290245468865375e-01,-4.484200863143978366e-01,-4.200183314631907860e-01,3.825816360958717889e-03,-3.158994799807417816e-03,-2.690637996005510336e-03,3.190221264958381653e-02
-4.568650592507514374e-01,-4.290838005144247957e-01,-4.362717174516630991e-01,1.345116246991432231e-03,-1.247646741862100872e-03,-2.182255435572223821e-03,2.545898035168647766e-02
-4.457967663908646294e-01,-4.190151567896613360e-01,-3.940371742538589239e-01,-4.486963079986186140e-03,4.944296984081115141e-03,-2.307215430522206734e-02,6.116219609975814819e-02
-4.518961940609164118e-01,-4.249107060701964866e-01,-4.291697405924647657e-01,3.632186830565345154e-04,-7.439316812368453394e-04,-4.059662257322348665e-03,2.613278478384017944e-02
-4.587464855168180144e-01,-3.913329848446716608e-01,-4.513688020101754850e-01,2.311073760295356046e-03,-3.170986804501191563e-03,-1.452662498158901506e-02,6.914413720369338989e-02
-4.380702730633918018e-01,-4.385867071778100090e-01,-4.167750306827553430e-01,-5.627809986102639758e-03,2.490281222845718880e-03,-1.880014999214452663e-03,2.426883205771446228e-02
-4.384197870526220786e-01,-4.096732335441613526e-01,-4.109270418348733300e-01,5.397849839108447359e-03,5.287749696084966151e-03,7.146124880247742978e-03,3.341236710548400879e-02
-4.632461472813705905e-01,-3.974700559844135395e-01,-4.590452426144602804e-01,-3.442670431537573033e-04,-5.735644326717671609e-04,-3.830282404387231558e-03,6.413406878709793091e-02
-4.210914053585483874e-01,-4.174063933033701490e-01,-4.161839374919463763e-01,4.475752154023627562e-03,6.120657012446292095e-03,4.010391304056049738e-03,1.550201885402202606e-02
-4.619947587616071161e-01,-4.510784063755961526e-01,-4.470954728571406855e-01,-2.148215455463256193e-02,2.319753502560501987e-02,-2.593363256691796556e-02,7.207631319761276245e-02
-5.167042573592546262e-01,-6.809696843645562936e-01,-7.102736020962893138e-01,-1.977758669971864391e-01,6.873370957189191277e-02,-1.197456540537097103e-01,4.551827907562255859e-01
-4.274936934912864639e-01,-4.048001835139324323e-01,-4.041140017321986910e-01,4.044233234943568449e-03,1.758714501588603965e-03,1.507061002684904026e-03,2.441717684268951416e-02
-4.246245883202942051e-01,-4.122713964554114430e-01,-4.089116689387227166e-01,2.790739131682113544e-03,1.676959989845541472e-03,1.098182554260138284e-03,1.551811024546623230e-02
-4.460409462684009618e-01,-4.547924721575854479e-01,-4.172917282111844317e-01,3.622508022655721461e-03,-3.600828538372639366e-03,-2.272867705168180822e-03,3.533368930220603943e-02
-4.366075612519379479e-01,-4.680885939262345863e-01,-4.663502024569698978e-01,2.728567057343606397e-02,-4.857225882058489874e-02,-1.084740970910307543e-02,1.029741019010543823e-01
-4.293596946959070682e-01,-4.073372075140251347e-01,-4.057417375130011328e-01,1.502379164222000883e-03,1.628001695433867408e-03,6.363025383684256259e-05,2.318202890455722809e-02
-4.054728644454341779e-01,-4.552048563166634088e-01,-4.162072243418295514e-01,1.896745882865968078e-03,6.844050025495391348e-03,-8.365069089934294537e-04,4.699012264609336853e-02
-4.162171371745091997e-01,-4.370368471913173569e-01,-4.575891797287010010e-01,1.434424877663892720e-02,-1.199923941547323056e-02,-1.555856430963525015e-02,5.530982464551925659e-02
-4.490218495008584387e-01,-4.520475190124542131e-01,-4.173582200452705115e-01,3.585132379042710836e-03,-2.800630596625976621e-03,-3.049738924254210247e-03,3.460544347763061523e-02
-4.519878085736695472e-01,-3.782487999945312596e-01,-4.550501569562647175e-01,-2.958341583766357485e-03,2.781617512613209810e-03,-1.058756715977880215e-02,7.783566415309906006e-02
-4.773994513054033995e-01,-5.578399242185839713e-01,-6.408559993232811891e-01,2.179351172743208137e-02,-1.589639839153007550e-01,-5.951683831349846576e-02,3.284820616245269775e-01
-4.563288565845104450e-01,-4.042686129141069284e-01,-4.215438666640405896e-01,9.809615538718366619e-04,1.976436336154721335e-04,4.304810050547812524e-03,4.656122624874114990e-02
-4.911977804795133462e-01,-4.162644580547186779e-01,-4.170107633576122796e-01,1.262656917552826795e-02,1.300057213004827787e-02,4.311798428906791353e-02,1.101020127534866333e-01
-4.301243658347200793e-01,-4.241465937628434713e-01,-4.161125078354582230e-01,9.105419391529399192e-03,7.057944044267201039e-03,8.082313779857153505e-03,2.724788710474967957e-02
-4.616078981273831761e-01,-4.491746945709096939e-01,-3.565618371891131622e-01,3.569063566886832538e-03,6.833097695145054148e-03,1.283676916560658361e-02,1.027415990829467773e-01
-4.288624436438008281e-01,-4.351181390163892937e-01,-4.474155040397872485e-01,-4.238062391206360397e-04,-7.728706040343319298e-04,2.551167650492227809e-03,1.700422540307044983e-02
-4.495337369243551096e-01,-3.809385083537960015e-01,-4.535142482181820367e-01,-5.329741570599245623e-03,-4.602451770811750824e-03,4.946821570874057779e-03,7.222446054220199585e-02
-5.023068073624915586e-01,-4.915470157178862820e-01,-3.734013403974464351e-01,1.275570282102858827e-03,-2.497090672592853014e-02,-5.711689988679713448e-03,1.316008567810058594e-01
-3.266449979470961718e-01,-4.932316850431916477e-01,-4.734805589232481404e-01,-5.978928793770012934e-03,-6.580013344864368841e-02,-2.179686425656385609e-02,1.984250098466873169e-01
-4.242593515501260071e-01,-4.521920738436071008e-01,-4.686786736531161623e-01,-6.168875836414748105e-03,6.781468312895126173e-04,-5.233430250076255346e-04,4.035996645689010620e-02
-4.385854416101197528e-01,-4.230059520745261814e-01,-4.303866155780561864e-01,-1.020634808063503995e-03,-3.834638581957015152e-03,5.825115113144514658e-04,1.518104504793882370e-02
-3.788813071902539242e-01,-3.641565982129207901e-01,-3.303081090682568610e-01,4.539185911558350078e-02,5.632883279574054519e-02,6.233536311444348721e-02,1.709330677986145020e-01
-4.248362880751738735e-01,-3.726502157579758556e-01,-4.346597434995952414e-01,-1.513639322824719517e-02,-8.193240544003596582e-03,5.234572514325187310e-03,6.560072302818298340e-02
-5.846389794181972022e-01,-4.214155027023129274e-01,-3.952992588838208921e-01,5.713827237555820643e-02,5.521182434029030944e-02,1.705595844283744889e-01,3.712113201618194580e-01
-4.375685063917350015e-01,-3.751888115188796724e-01,-4.264915058584021201e-01,4.349846366300639221e-03,8.422556126202062135e-03,6.013296457704748674e-03,6.083590537309646606e-02
-4.436222284271271188e-01,-3.919010315189134785e-01,-2.406723331446387337e-01,2.786830499907811537e-02,5.159306062946417137e-02,9.837059648681795165e-02,2.696529626846313477e-01
-4.181870589237622338e-01,-4.460246586735088781e-01,-4.191555360609802161e-01,4.375610189313360390e-04,-9.507586520596298871e-03,4.738585014686867952e-04,3.195841610431671143e-02
-4.228538275218564624e-01,-4.448255534771219932e-01,-4.440305465297378906e-01,-3.202588800073144157e-03,-2.705812772568409567e-03,4.747626400638586125e-03,2.421311475336551666e-02
-4.620128184910207159e-01,-3.383048701636610089e-01,-4.630958374172260972e-01,2.555194012750965429e-03,-2.724026663954781397e-03,2.315908844026019851e-03,1.244859248399734497e-01
-4.494594270803391467e-01,-2.860731981999039553e-01,-5.184283940454317285e-01,1.622597704762698545e-01,-2.841543849027829138e-03,3.840897101251559975e-02,3.551830947399139404e-01
-5.793339401661239396e-01,-5.310155381060186475e-01,-2.861274193936256260e-01,3.576472851479937237e-02,9.145894108614616158e-02,1.792769481875185200e-01,4.466426968574523926e-01
-4.438430311534993233e-01,-4.002596891254215361e-01,-4.226459476567987483e-01,-1.133595189268386382e-03,-3.661053411408093840e-03,7.836997880916957496e-03,4.066085442900657654e-02
-8.112612794584230791e-01,-5.937922560310343600e-01,-4.777542140460487863e-01,-7.180408303560094352e-02,-9.758024664114707536e-02,1.843824664357236187e-01,4.816805422306060791e-01
-3.775946069779476666e-01,-2.944198341714961975e-01,-3.609404703117192192e-01,-7.598771701879583618e-02,-5.734538688705431708e-02,7.743328214473936544e-02,2.258003950119018555e-01
-4.262433406244003908e-01,-4.212244718665237864e-01,-4.239499566193675739e-01,-5.401910405998751330e-03,-4.896196025635689113e-03,7.219465704511569305e-03,1.829646527767181396e-02
-4.358621564330524278e-01,-4.557740185362077479e-01,-4.243293311773430609e-01,1.588766074779794039e-03,-1.829441504288006328e-03,-4.140398061918389248e-04,2.787930704653263092e-02
-4.106707553126712762e-01,-4.423003399883521647e-01,-3.778399675896677579e-01,4.746481245700393502e-03,1.018451390589927320e-02,2.633873172459959625e-03,5.929829180240631104e-02
-4.355097497037415666e-01,-4.239017201641219756e-01,-4.193431401175182760e-01,-2.932774574179660820e-03,-1.694101708645676801e-03,2.798750178993253835e-03,1.632040366530418396e-02
-4.284618175826178099e-01,-4.302909461904819155e-01,-4.464354696323034055e-01,-3.464701048482718860e-03,-2.588020887436541257e-03,2.184704872939462889e-03,1.907738484442234039e-02
-7.354908448086220352e-01,-4.925366908591337078e-01,-6.611300659897301202e-01,-1.526327851776771993e-01,-9.251429627498976294e-02,9.274599267946349868e-02,4.097101688385009766e-01
-4.312834182610011946e-01,-4.570721390608230017e-01,-4.384778645063397984e-01,7.798720057170907853e-04,-1.966642437457151015e-03,1.250550450789272025e-03,2.343932352960109711e-02
-4.480095751166441875e-01,-4.180900816259622843e-01,-4.113372075488683777e-01,-3.223973068960473386e-03,-9.570384568974022984e-04,3.153098177852072057e-03,3.473579883575439453e-02
-3.577709237443727486e-01,-4.569873880272009581e-01,-4.478603210769417919e-01,6.369446390555266908e-03,8.124121411953061714e-03,2.806497443764400905e-03,9.677291661500930786e-02
-4.271033126656622048e-01,-4.045631205582972956e-01,-4.526238486553670892e-01,-2.763614484391543544e-02,-1.144877376666043889e-02,1.685988262152803355e-02,7.260754704475402832e-02
-4.243388180908416740e-01,-4.407705394238281560e-01,-4.459229738557799472e-01,-2.804357785929939128e-03,-1.794164499176761560e-03,3.228903691821012785e-03,2.111256122589111328e-02
-6.735743564678084994e-01,-3.638703354048148375e-01,-5.193555091946890911e-01,4.037356328046255022e-02,-4.702965229274940102e-03,1.922900677087295840e-01,4.333828389644622803e-01
-4.283206276240729693e-01,-3.818002505465557528e-01,-4.406714074719812468e-01,6.635042982240293291e-03,-4.799249615463274318e-03,6.004292469821883704e-04,5.561925470829010010e-02
-4.350401377578909656e-01,-4.311350417027616233e-01,-4.546810668231212604e-01,-3.007855040787667765e-03,2.792740751686080287e-03,-1.516037144437834116e-03,2.313331887125968933e-02
-4.453121132015445127e-01,-3.256413516821485832e-01,-4.320525612178703345e-01,2.549414518239025325e-03,-8.558442092110448915e-04,2.630251550774797067e-02,1.225042417645454407e-01
-4.455834288290975165e-01,-4.078722907990796620e-01,-4.014028032031519144e-01,-8.002057444349097801e-04,1.355327034578192660e-03,6.715677102836809138e-03,4.301963001489639282e-02
-6.857227355813548808e-01,-3.628890432807478361e-01,-5.352089621265199160e-01,4.828262729924870378e-02,4.999263326410933322e-03,1.729945672648990074e-01,4.184913933277130127e-01
-4.058128358699140681e-01,-4.472175221006068901e-01,-4.087591088652060001e-01,1.222037650476201802e-03,1.044416068574431991e-03,1.503667140169198278e-03,4.019421339035034180e-02
-3.897459766624931654e-01,-3.479599216511407578e-01,-4.621470861716869272e-01,8.039336083980203052e-02,3.072125993405963595e-02,2.146312201914510331e-02,1.833467036485671997e-01
-4.806712190295659992e-01,-3.612763765014392892e-01,-4.747714609839862598e-01,3.600360625305940032e-02,2.317792196083453236e-03,-1.929866344083367227e-02,1.364102065563201904e-01
-7.654052601785898968e-01,-2.953191088303397382e-01,-7.316799113575607194e-01,-8.776624231611910437e-03,-4.958402686529689990e-02,9.397113542663375341e-02,4.902684092521667480e-01
-4.835162607899715081e-01,-4.949100606164529847e-01,-4.851117231793790618e-01,2.639953873349057401e-02,-4.182470060694736674e-02,-5.176181560401981602e-02,1.244619041681289673e-01
-4.369477788628024495e-01,-4.482843936859128853e-01,-3.952680272906506920e-01,5.541188356017747244e-03,-1.159766979881977043e-02,-3.068730229051781864e-03,5.349870398640632629e-02
-4.288890142376792225e-01,-4.515164210549528767e-01,-4.295068948715691781e-01,6.040047325375736765e-05,-2.355763861949676432e-03,-1.875909120981029488e-04,2.269726060330867767e-02
-4.363772560099929421e-01,-4.562452007648322150e-01,-4.161192412804138874e-01,3.271083978466744844e-03,-6.683290218237163301e-03,-2.133773072454631103e-03,3.724735602736473083e-02
-3.868877147837266328e-01,-4.127272275869274254e-01,-4.406223026434963330e-01,7.505780165240434273e-03,-2.546972360969768177e-03,-5.496713792497886185e-03,4.945426061749458313e-02
-4.507761343542814880e-01,-3.079666570506450762e-01,-4.494463872708908680e-01,1.254826068000602229e-02,1.874171938876686679e-03,2.683753190485197240e-02,1.511624604463577271e-01
-4.784196064215910926e-01,-3.042741533645483831e-01,-6.136434665429009172e-01,9.497036257323586417e-02,-1.318327377988140481e-02,-2.676939991190594240e-02,3.192022144794464111e-01
-4.863867443101515531e-01,-7.128596990497161334e-01,-7.107955569394410755e-01,7.977377949004080260e-02,-1.452579730665975177e-01,-8.666827541293274650e-02,3.946544826030731201e-01
-4.704544758966396900e-01,-2.611073764589498247e-01,-5.645322355204642761e-01,1.034438322621757111e-01,2.276917635294924136e-02,8.333097821363474877e-02,3.561756312847137451e-01
-4.451125569309860586e-01,-4.446512351830309018e-01,-3.760332178414706461e-01,8.854946899164710394e-03,6.652238385493193344e-03,6.071287763423533455e-03,7.224173843860626221e-02
-4.096960733435273116e-01,-4.125854216288719623e-01,-4.506799838987664009e-01,8.792920049981904976e-03,5.575352049125213011e-03,3.992753800030947667e-03,4.407537356019020081e-02
-4.651579919602022439e-01,-4.429424664524918009e-01,-4.351533390668756995e-01,4.710013200076631351e-03,-2.378889725598039469e-03,-1.255123543801058353e-02,3.582415729761123657e-02
-4.790307394232565796e-01,-3.855470538029442951e-01,-4.918932709870494357e-01,5.548605775424952837e-04,-3.518691015956999617e-03,-1.281791587518192610e-02,1.031408980488777161e-01
-4.294593689372678269e-01,-4.475835090021127449e-01,-4.072036441903594262e-01,2.009994786035459134e-03,-6.375175457788355253e-03,-1.582641558386215603e-03,3.699636086821556091e-02
-5.227250385425484813e-01,-3.275938990822963026e-01,-6.188465151787840846e-01,1.482011573249256975e-01,2.388706078328034499e-02,6.809898020585862521e-02,3.841701745986938477e-01
-4.239103328085905842e-01,-9.443402004123119253e-02,-4.183463506211249072e-01,-2.555464074465546923e-03,-9.849127800822679926e-03,2.854402770703360140e-02,3.309188485145568848e-01
-3.895488142099960971e-01,-4.635969793671961270e-01,-4.600451375040256474e-01,8.374585142918240105e-03,-3.134932135701936663e-03,-3.546459815436794113e-03,7.423176616430282593e-02
-5.644838420743485408e-01,-5.756540580698388254e-01,-7.438522600605665946e-01,1.419500877830553731e-01,-1.142123581653888276e-01,-1.056201896468074719e-01,4.041583538055419922e-01
-4.459166007597432646e-01,-4.293973230808699193e-01,-4.296177463298447297e-01,-3.171662982710447311e-03,1.603418055687308831e-03,-2.609668314709472341e-03,1.810017041862010956e-02
-4.105122701480058423e-01,-4.147944403902404931e-01,-4.510155562656764650e-01,2.939855677471320261e-03,7.710171429132457255e-04,2.623293287795748561e-04,3.890153393149375916e-02
-4.225047271317371456e-01,-4.406612565018434013e-01,-4.452712763111035255e-01,-3.155671426919424809e-03,-2.194544350198720378e-03,3.633825422900437141e-03,2.277170866727828979e-02
-4.827188097473229522e-01,-4.890183361654387162e-01,-3.890419199917654614e-01,-4.796240704873093279e-03,-1.563313679789332319e-02,-6.362064023672262892e-04,1.010374948382377625e-01
-4.273060431905810752e-01,-4.381856151182265680e-01,-4.425937992315046587e-01,8.204570720685571989e-04,-1.559914450803441153e-03,-3.373657649494870604e-03,1.514002867043018341e-02
-3.325944070886240889e-01,-4.532171470218797626e-01,-4.472751588481277407e-01,2.463570189867210925e-03,5.780149118298640032e-03,-3.790274617204763153e-03,1.184480935335159302e-01
-4.494170970039576551e-01,-4.290847573043406471e-01,-4.373552421181898242e-01,-6.051319118957490875e-04,3.456702359353305224e-03,-2.136689440485334181e-03,1.908632740378379822e-02
-4.304654212294906634e-01,-4.341054243020316949e-01,-4.437406387165783173e-01,-1.524034108780487071e-03,-1.914752966816780965e-03,1.330902623591464617e-03,1.282341498881578445e-02
-4.358776788613757391e-01,-4.355147919218354535e-01,-4.281258123121517989e-01,4.463378165428140963e-04,-8.789002304842417771e-04,1.249291193955472745e-05,7.766955066472291946e-03
-4.438370580904778540e-01,-4.289385786467101447e-01,-4.309983164666588706e-01,-2.558896405981824721e-03,1.179309845202353765e-03,-3.064318745141631894e-03,1.573234051465988159e-02
-4.687785455509993482e-01,-4.816776977897066492e-01,-3.447183502982256176e-01,-3.844396931183343032e-04,6.125349500926220193e-03,2.844243898474547571e-03,1.315099447965621948e-01
-4.177566243376365507e-01,-4.554884841717136146e-01,-4.003712242197685067e-01,7.227784725278018100e-04,3.396269235437237785e-03,-4.266553849739280211e-04,4.917973279953002930e-02
-4.520258378711097813e-01,-4.502127351397155475e-01,-3.302485624159761102e-01,2.247098199487733948e-03,8.541143179284012288e-03,9.907199506639504868e-03,1.230473741888999939e-01
-4.427129878059368751e-01,-4.320439823347198560e-01,-4.449429026417762723e-01,-4.791122471123592484e-03,4.655533874840247013e-03,-3.752871453588576059e-03,1.785300672054290771e-02
-4.656389313647843475e-01,-5.673912731882690963e-01,-3.576631805792104268e-01,8.025783325980581639e-02,1.743421228965865155e-01,1.087978105397426759e-01,4.231069087982177734e-01
-4.234123086645587009e-01,-4.229204285994455081e-01,-4.102168883791890153e-01,3.535003799333337905e-03,1.641801516360569344e-03,1.614994936870674811e-03,1.487516146153211594e-02
-3.124601518417985946e-01,-5.199423004370721246e-01,-5.253597996680587912e-01,1.328767471976510274e-02,2.240434216757785507e-02,-5.466651396222452740e-03,2.152380794286727905e-01
-4.782466016279044441e-01,-5.204978862050196886e-01,-4.600992482659442828e-01,-3.439439836330551031e-02,-5.997125414587487630e-02,6.550879696213085350e-03,1.317139565944671631e-01
-4.443343081616104584e-01,-4.260820356121728936e-01,-4.284847264003276979e-01,-4.895963492543020830e-03,5.778207817885464698e-03,-5.542707269360944156e-03,2.364958822727203369e-02
-4.532807123542397232e-01,-4.719408326427580458e-01,-3.969344632498202907e-01,-5.020115465130354712e-04,-1.136222056150272552e-02,-2.364186383981665366e-03,7.056452333927154541e-02
-3.955293571202805336e-01,-3.906679337992123302e-01,-5.075459274973965762e-01,-1.055545550575506253e-01,2.740502231078184928e-02,-4.416664876443607626e-03,2.210267484188079834e-01
-4.128341871767486349e-01,-6.650151348606452295e-01,-6.677718160734974484e-01,-1.301006908058782996e-01,2.371009492710456426e-02,-1.065547311427627042e-01,3.883617222309112549e-01
-4.431121528956476485e-01,-4.296616351947728507e-01,-4.344413629450959990e-01,-2.052437817301452916e-03,2.234563007254944215e-03,-2.388398789805928468e-03,1.357214339077472687e-02
-4.298349750332061681e-01,-4.325982085201481864e-01,-4.485283952028627508e-01,-3.799306590861036871e-03,-2.025634203623286316e-03,3.118023262071391213e-03,1.975361071527004242e-02
-2.616495138748795024e-01,-3.931464690187708166e-01,-2.261829996315677938e-01,4.258018893730350363e-02,1.505033990937764132e-01,5.219148528156134642e-02,3.236942291259765625e-01
-3.607233457250333952e-01,-4.407204671731215773e-01,-4.389347800441702474e-01,-3.087217429855636176e-04,1.605220334822163308e-02,-1.108243459348985356e-03,8.388604223728179932e-02
-4.458817170089742210e-01,-5.417568481751317000e-01,-5.163513236659430516e-01,-5.527004788834817550e-02,4.142028551939629100e-02,-4.182945455765293280e-02,1.642013639211654663e-01
-4.272217944961990144e-01,-3.987313628888066730e-01,-3.394039276424168361e-01,1.025812332423188707e-02,8.242537537465462194e-03,1.859951024142103559e-02,8.705770969390869141e-02
-3.779081128495332953e-01,-7.547914360320784333e-01,-5.958487978626391124e-01,-6.963325539783070395e-02,1.743083863204679951e-01,-7.531303796976922260e-02,4.797017276287078857e-01
-4.124213473637275973e-01,-4.599950136448173188e-01,-4.271700968624069228e-01,-3.433935203279353358e-03,3.688346115915560469e-03,-3.732994630772395149e-03,4.355594515800476074e-02
-6.293167014982091745e-01,-4.641352323644422628e-01,-6.836502757494004046e-01,-1.791862908263431031e-01,-1.142163421542367052e-01,6.620278069790291875e-02,4.333816766738891602e-01
-6.919290190408167174e-01,-5.877062463944559001e-01,-5.862003024147335317e-01,-1.623309823779142680e-01,-1.615060070685022664e-01,1.193525289974793624e-01,4.594162702560424805e-01
-4.512373937716149808e-01,-4.085491854357637398e-01,-4.036684004081541044e-01,3.061619472862839395e-03,1.352445217836867114e-03,1.605210849718856705e-02,5.348902195692062378e-02
-4.339939852602358039e-01,-4.348256489732622021e-01,-3.602247291820084296e-01,9.984108087176684493e-03,1.399295319409189949e-02,1.306866697540491964e-02,8.308292180299758911e-02
-4.516987791668513608e-01,-4.074236876636506688e-01,-4.260945343907980298e-01,-1.718323278581998731e-03,-3.190022351344577820e-03,4.481396613139364271e-03,3.977268189191818237e-02
-4.430471701463226664e-01,-4.268624611897979815e-01,-3.623060398996540976e-01,9.496031065134233340e-03,1.135453654522045226e-02,1.622953962767868102e-02,8.319734036922454834e-02
-3.667463556721765605e-01,-7.068468291417534521e-01,-7.193556716077701418e-01,-1.679838422406674803e-01,8.061278384454731785e-03,-6.848940457127135339e-02,4.679766297340393066e-01
-4.286419266389087102e-01,-4.150541077541984869e-01,-4.424841927096109240e-01,-5.289836054459789993e-03,-6.452316578179496942e-03,4.029230050392807946e-03,2.866830490529537201e-02
-4.317317442489222445e-01,-4.288540331819599705e-01,-4.400868676396352819e-01,-2.162148577544960228e-03,1.011685369287515946e-03,-2.969958144951493923e-03,1.207021437585353851e-02
-4.752875169721835769e-01,-3.818787428908666515e-01,-5.026351910903623654e-01,-2.650419642638784587e-02,-1.225161957729575769e-03,1.034564175144486384e-02,1.202523335814476013e-01
-4.507819346818017769e-01,-4.527830204486210097e-01,-5.025880250711137753e-01,-5.820283535101558603e-02,1.377100352817364065e-02,-2.568512794496853949e-02,1.236730217933654785e-01
-4.353933118975721328e-01,-1.862991641102795248e-01,-4.400536781004129594e-01,-2.341066159869571381e-02,-1.251584312799420250e-02,7.308192289377291040e-03,2.559391260147094727e-01
-4.284334674686949285e-01,-4.282672917679364866e-01,-4.166258582746372174e-01,-6.947389603709588392e-03,5.296551210137999920e-03,-3.245365233286096659e-03,1.995097286999225616e-02
-3.998242509134544709e-01,-4.608334536234763856e-01,-4.330577478683089732e-01,-2.078233202194665688e-02,3.603462573309226119e-02,-1.424989836984712557e-02,9.273304045200347900e-02
-4.594589161091323648e-01,-4.574731516294361366e-01,-3.891128872211623291e-01,-1.862373021885212459e-03,1.073540826378795469e-03,-3.396812980928460776e-03,6.972298026084899902e-02
-4.370394836417430540e-01,-4.255773021015902269e-01,-4.030911023676804761e-01,-8.432500815776478378e-03,-6.143852710542963870e-03,5.775556058355058899e-03,3.635085746645927429e-02
-4.542179654750143625e-01,-4.355373770122476507e-01,-4.282914500926851553e-01,-4.518444366352345528e-04,1.151372022634005897e-03,-1.851384169035678439e-03,2.348826080560684204e-02
-4.291120022341015083e-01,-4.067503695539484432e-01,-4.071842714995716483e-01,-4.246475885766331365e-03,-5.119996422225083811e-03,1.192901860544132338e-02,3.240637853741645813e-02
-4.719785170257884688e-01,-4.015623448056510614e-01,-4.376342969545236605e-01,2.917508680578819943e-03,3.853740425152570623e-04,1.594573139891152999e-02,6.714428216218948364e-02
-7.652750823494604004e-01,-6.851073576324858694e-01,-5.972878095411449095e-01,-1.323010751104013449e-01,2.632125770927237762e-02,-2.052530620939409522e-01,4.496165513992309570e-01
-4.417915701424675601e-01,-4.078248851604744929e-01,-4.269799292630349075e-01,8.870614639199714616e-03,8.690760661390975472e-03,1.206043323125525514e-02,4.205985739827156067e-02
-3.574015385969633862e-01,-4.784650356913749958e-01,-4.376809800906810710e-01,2.081180106364586418e-02,8.214178191480253632e-02,-2.553348064817373138e-04,1.814487725496292114e-01
-4.452236584499751904e-01,-4.458312685579556289e-01,-4.149957448664078896e-01,-8.652214775928885465e-03,9.258827341855098772e-03,-1.022193129488403913e-02,4.156544804573059082e-02
-4.582539413951657870e-01,-3.777253888293369277e-01,-4.521473240438002028e-01,3.095842102027295158e-03,-2.494219260163110016e-03,-4.363114375529631231e-03,7.832565158605575562e-02
-4.160997222661500516e-01,-3.543547476975740240e-01,-3.744164822823259908e-01,7.108524627944845520e-02,5.858092621476910372e-02,7.813766573536003179e-02,2.162110060453414917e-01
-4.557896833510340917e-01,-4.320198022834919049e-01,-4.420761680813446448e-01,-9.572774390549561047e-04,3.681316698684764140e-03,-1.780830117158631060e-03,2.190932631492614746e-02
-5.995767705286023652e-01,-6.490210229004929054e-01,-6.471360752484953682e-01,9.684751690060190710e-02,-1.570012652677902076e-01,-1.621104312691196703e-01,4.281132817268371582e-01
-4.588730341343571495e-01,-3.954335994265990584e-01,-4.323702952196439298e-01,4.555217487275023576e-03,4.294292160326574834e-03,1.582114786237587972e-02,6.256306916475296021e-02
-4.293033506859071369e-01,-4.065287626158571865e-01,-3.836484145436544480e-01,8.573413049977844994e-03,5.372789976499126562e-03,7.554105432615629279e-03,4.518392309546470642e-02
-3.854502597363133054e-01,-4.394040268573774499e-01,-4.048420050108338386e-01,1.994596475570923309e-03,-3.343634935014125342e-02,-2.222498053287085516e-03,7.497674971818923950e-02
-7.321394264251711581e-01,-7.020813996910214572e-01,-4.097290233392990033e-01,-4.504294100399217765e-02,3.392264899793914767e-02,-1.446782621081791342e-01,4.092617332935333252e-01
-4.657361030393687429e-01,-3.957643727543047052e-01,-3.870736541926057539e-01,1.070790695758291715e-02,9.757558620743438799e-03,3.442407320787124747e-02,9.881464391946792603e-02
-4.531086193451424049e-01,-4.546613533175532518e-01,-3.903189764182649624e-01,-5.789456002579529588e-03,-1.414689030420984966e-03,6.240792727213008775e-03,6.531344354152679443e-02
-4.296189817675879485e-01,-3.800167392841596326e-01,-4.584702855981154790e-01,7.632806678465530077e-03,4.988938856052478089e-03,2.594129867842062242e-03,7.066474109888076782e-02
-4.863901821821204896e-01,-4.804146373275062221e-01,-3.668775389851426927e-01,-1.176312052842897480e-03,-4.596156226523207721e-05,1.217294896680315257e-02,1.185475662350654602e-01
-4.161817528477546047e-01,-4.112004193444410149e-01,-4.112183371474413263e-01,2.315113875273607652e-03,3.658658049581909287e-03,3.394322666481594704e-03,1.074828486889600754e-02
-4.277157259482722296e-01,-4.041805172566555471e-01,-4.086841251995851354e-01,3.000477471262775857e-03,4.721183566546149728e-03,7.833409386937083664e-04,2.374685928225517273e-02
-4.344611492062006031e-01,-4.871026220038248700e-01,-4.157344720788230252e-01,-7.887358480139274606e-04,-2.449062387946913943e-02,-6.791274803408315491e-03,7.776384800672531128e-02
-4.554819253183405858e-01,-4.726201296711590727e-01,-4.011539425310383655e-01,7.818320837936333732e-04,-2.615059382217203160e-02,-1.623325890370420216e-02,8.378712832927703857e-02
-4.322574305602659983e-01,-3.801815528723644366e-01,-3.104811635773523371e-01,2.238350721658066006e-02,2.783405694220727686e-02,6.057152608262691973e-02,1.613497734069824219e-01
-4.562438882310020927e-01,-4.514885684869454074e-01,-3.629976556446813385e-01,-9.467952954355289205e-03,-1.164970102116820103e-02,1.106381087282895526e-02,9.652644395828247070e-02
-4.285751710601541919e-01,-3.972553703933848213e-01,-3.996770847317729913e-01,2.818807875853787497e-03,5.610713093989431501e-03,4.071187421801673000e-03,3.284734487533569336e-02
-4.246506010513050322e-01,-5.009552747569504527e-01,-5.009130608942617968e-01,1.178593441204834336e-01,-7.053471023117723060e-02,-9.888166191735195398e-02,3.029023706912994385e-01
-3.970578082949675069e-01,-3.508965931450935272e-01,-1.163299944949238718e-01,-6.612740166077462310e-03,-1.772201200420478462e-02,9.113175712166902975e-02,3.065429925918579102e-01
-5.377069385460953033e-01,-6.604795851613125546e-01,-4.365161416636487712e-01,-6.039616798875396819e-02,-9.312864200242761126e-02,3.212486506265507889e-03,2.733661234378814697e-01
-4.643903580402538034e-01,-4.332222256633222468e-01,-4.405944684971010439e-01,7.630082207871527120e-03,-1.446528282792887941e-03,-9.339716613250136079e-03,3.519440442323684692e-02
-6.192927236198207952e-01,-6.361585913310745521e-01,-6.125475017137791411e-01,-1.191298340053317667e-01,-1.391181170194625560e-01,2.190526023725318169e-02,3.201882839202880859e-01
-4.334465513554157656e-01,-4.578235856535242121e-01,-4.367584811453990024e-01,-1.924182809978902068e-03,-5.274429453121992802e-03,8.197466298430669106e-04,2.492099255323410034e-02
-4.473564429818704946e-01,-4.646956126681754951e-01,-4.113692161862145258e-01,8.006206605739603745e-04,-3.916440219203730887e-03,-2.511629646072510952e-04,4.762188345193862915e-02
-4.078922810592466308e-01,-4.704820883903201301e-01,-4.610623228713623956e-01,-5.231056729517410443e-03,-1.453688066725636850e-02,1.185658454746041411e-03,6.431879103183746338e-02
-4.351677084315525024e-01,-4.320835836722427548e-01,-4.561194470826349101e-01,-4.237846129443495827e-03,1.622395870904555937e-03,-1.648654054560004783e-03,2.414608933031558990e-02
-1.631014759554695603e-01,-4.261666820293817382e-01,-4.342933831048815807e-01,-2.202647758904984626e-02,1.683215477652445433e-02,-1.295551725342239391e-02,2.724264860153198242e-01
-7.030593847986522649e-01,-7.350973613002229623e-01,-6.329879477208198990e-01,-1.159276221902886539e-01,-1.909397653648688686e-01,7.555878540172331070e-02,4.183304905891418457e-01
-4.381083783692927835e-01,-4.107869094769761031e-01,-4.069658978559915763e-01,4.279893781362341040e-03,4.873066670857239234e-03,7.761626397949504715e-03,3.424003347754478455e-02
-3.432775779501383573e-01,-4.482355243928009547e-01,-4.342896064255855060e-01,-4.410324990563162066e-03,-2.297000578194089218e-02,-1.778033559779139102e-03,1.067596599459648132e-01
-4.689983745228252232e-01,-4.574706145967414872e-01,-3.971295955142479794e-01,-5.913240638255225917e-02,-7.283677782173519910e-02,8.895111634055709315e-02,2.336919754743576050e-01
-4.330300385042867850e-01,-4.604267348043699637e-01,-4.123270909220957403e-01,1.305227361972260709e-03,-7.392690940731430627e-03,-2.589461295510749484e-03,4.399506375193595886e-02
-5.943230746054701807e-01,-7.395727609932754021e-01,-5.647372166615206579e-01,-8.106600168482831770e-02,-2.337183404936135633e-01,8.102804847707643573e-03,4.583175480365753174e-01
-4.369163218598209886e-01,-3.956167652395712331e-01,-4.008574131556636999e-01,3.067532155638468244e-03,3.818572874100339531e-03,6.434250077271911825e-03,4.138663783669471741e-02
-4.395440123742777594e-01,-4.206238107528061931e-01,-4.480003180055933121e-01,-4.497218099422819679e-03,4.935367825378921859e-03,-3.396694362752256634e-03,2.752888016402721405e-02
-4.375596377324286190e-01,-4.505645659876594822e-01,-4.026074713987577436e-01,-6.021201367702080920e-03,5.890636872099772915e-03,-7.827265581712057889e-05,4.536754637956619263e-02
-4.348654962770058807e-01,-4.302671577116366497e-01,-4.449885905860852531e-01,-5.167955264500061078e-04,4.010376346908247746e-04,-1.066028885046660640e-03,1.322362106293439865e-02
-7.592606697725331477e-01,-4.825359088009117392e-01,-8.160701377483077223e-01,-1.865134639744087941e-01,-4.078937541501337360e-02,-1.000950676227816277e-01,4.847006201744079590e-01
-6.622615689260640259e-01,-3.987825203008327213e-01,-5.801519875171995411e-01,-1.298729940727934573e-01,-9.588005134984148303e-02,5.829915600766954337e-02,3.780282437801361084e-01
-2.815718719680042059e-01,-3.668331153742481754e-01,-3.350271400646041009e-01,-8.984206256102936217e-02,7.824783534285870146e-02,-6.992897380787241324e-02,2.506440281867980957e-01
-3.699855928983276088e-01,-4.519630570426104166e-01,-4.432224417516487658e-01,-8.429774920225799328e-03,7.824298832963150208e-03,-5.848800645417004916e-03,8.111496269702911377e-02
-4.855771986561931985e-01,-3.493415285412214688e-01,-4.230381845188050938e-01,-8.290923083488901946e-02,-7.266505035023469727e-02,8.218476111575483134e-02,2.658509016036987305e-01
-4.174573001528018024e-01,-4.020284172969915693e-01,-4.411690729986645354e-01,2.916120447559600402e-03,6.270317947530242714e-03,2.102655395671348265e-03,3.637128323316574097e-02
-3.835870814374870985e-01,-4.231943453304031211e-01,-4.418093697798658459e-01,6.538361539773150134e-03,3.065757697482836795e-03,1.030164323073615509e-02,5.592283234000205994e-02
-4.465644936473983639e-01,-4.204138994680434172e-01,-4.503632973617334168e-01,-2.680281834590707811e-03,5.071887468411817763e-03,-3.488236376151646750e-03,3.054263815283775330e-02
-4.644141791269494890e-01,-4.709630273824401137e-01,-3.308751913607220763e-01,5.251132358919487902e-02,1.473986483293258098e-01,7.616736591475738172e-02,3.310678005218505859e-01
-4.107001521506186692e-01,-4.379872287394270813e-01,-3.451374546130256959e-01,-5.114367074147005247e-03,4.114251077187058847e-02,-7.634441153813036583e-03,1.102882996201515198e-01
-2.911790607644642592e-01,-4.619137866036859275e-01,-3.325653973798082252e-01,8.102348025438464371e-03,1.126100157025534676e-01,-8.610332070776950328e-04,2.490769028663635254e-01
-4.338752695554327077e-01,-4.278772919314794421e-01,-4.443980531701378078e-01,-3.043343779078028872e-04,4.631451343844017574e-04,-1.553223411476385794e-03,1.476411242038011551e-02
-4.357794686711355947e-01,-4.305352640143406684e-01,-4.390541510483565446e-01,-8.412722518546468433e-04,6.835269452937006848e-04,-1.867399438109123904e-03,8.329749107360839844e-03
-3.337783581105076558e-01,-4.497871742275105778e-01,-2.329335231860040767e-01,-1.576031612700305728e-02,1.242181636783755566e-01,-4.645898159897961927e-03,2.871010005474090576e-01
-8.212494787444797328e-01,-3.636010306939206904e-01,-7.981522372121534481e-01,8.742483460631632342e-03,-6.244971036518811441e-02,-8.795709678705344869e-02,4.842971265316009521e-01
-7.970360997871285269e-01,-3.686242876453647010e-01,-7.948284215780537787e-01,-7.046307022639573814e-02,-4.044199074911197095e-02,-6.453182724211442567e-02,4.635629653930664062e-01
-3.952355712282301092e-01,-4.593422633260734744e-01,-2.378886720347249684e-01,-7.427019937429297364e-03,8.983769505411506873e-02,-6.284683631117377219e-03,2.518950402736663818e-01
-4.644277204852674257e-01,-3.503934053136541493e-01,-4.556034586543317721e-01,-2.358364205574320534e-03,-1.008857711530731626e-03,6.302516536992600537e-04,1.099834293127059937e-01
-4.480085467485372397e-01,-2.899887383762138615e-01,-4.461106066145266169e-01,2.387541867913854296e-02,1.195791382042792929e-02,3.822926309413823137e-02,1.766280382871627808e-01
-6.711877588320692700e-01,-3.429559092633990836e-01,-6.892915443978634427e-01,1.152475751198035470e-01,8.970301549374172859e-03,8.355224977452484214e-02,4.183736145496368408e-01
-4.451349369799476041e-01,-4.282311472389039309e-01,-4.358138104451895201e-01,-1.433525741076717300e-03,2.501118048586211968e-03,-1.082959090102866015e-03,1.560478471219539642e-02
-4.394854902883876258e-01,-4.792498554522852672e-01,-4.294388881657149604e-01,-2.451188676340326431e-02,3.304490241620245544e-02,-2.987757127651212430e-02,9.918688237667083740e-02
-4.759273368748829780e-01,-4.462891234435877874e-01,-4.558775915701001602e-01,1.439229328167270471e-03,-3.808819190644916267e-03,-1.416204517053422200e-02,3.657326102256774902e-02
-5.011988412257692982e-01,-3.856118424970977898e-01,-5.073344647156760034e-01,-2.587277148294448229e-02,-8.405722471523697928e-04,-1.838433093754542752e-02,1.308872401714324951e-01
-4.630755094569447561e-01,-3.433077498473249833e-01,-4.605774934679995325e-01,1.591194747066748943e-03,-2.402497606274671925e-03,7.812544132310044256e-03,1.194127053022384644e-01
-3.494634552960476648e-01,-4.751632175945039727e-01,-4.397390228575842053e-01,-1.385475342325019968e-02,3.529792960011861325e-02,-1.417049226707299547e-02,1.323578208684921265e-01
-2.895456854796978896e-01,-4.448983105670841209e-01,-4.318206353231766603e-01,2.512294951060781503e-02,4.334681123993399526e-02,-3.023982465093759007e-04,1.726395487785339355e-01
-4.495660145037773670e-01,-4.288433395927804814e-01,-4.089994664624087006e-01,2.172272737269689467e-04,9.881230288296028071e-04,-6.237811660389004989e-03,3.679984062910079956e-02
-3.767629023887479889e-01,-4.656532559539105498e-01,-4.504842892362369566e-01,-1.877144367334212388e-03,7.772731920572747109e-03,-6.991025702604590280e-04,8.352544903755187988e-02
-7.442441663294803167e-01,-3.968453320401769124e-01,-7.302961132801151223e-01,-1.050812107762114089e-01,-2.415458213490429343e-02,-7.165732984873149358e-02,4.078183472156524658e-01
-4.771699454196127177e-01,-2.801229041067962999e-01,-5.873371996102733084e-01,1.231774619010153060e-01,3.082188195314845489e-02,7.287883918500941138e-02,3.701006472110748291e-01
-4.530934369679777696e-01,-3.171356034648171729e-01,-4.661953795025177705e-01,-6.151800105991170331e-02,5.289577290931645262e-03,-5.043107478549749279e-02,1.987579315900802612e-01
-3.914483369988135397e-01,-4.492099458853645033e-01,-4.367531009008001619e-01,-1.329540883194599852e-03,4.922314924149994927e-03,-9.213271213261705478e-03,5.571977049112319946e-02
-4.463950577643577833e-01,-4.298984549037778713e-01,-4.188714554607365081e-01,-2.728608126393417422e-03,7.656903929500277371e-04,-2.041248845857835878e-03,2.474339306354522705e-02
-3.574810177259017396e-01,-4.652323928027649602e-01,-4.562545845058579852e-01,5.726214702856940487e-03,-8.430480407780691771e-03,-3.097472819245676058e-03,1.051853597164154053e-01
-4.064465362094842882e-01,-4.609265708226145120e-01,-4.526377336293878617e-01,-9.689632731575576266e-03,-2.500131392513154152e-02,7.281680915344244205e-04,6.887421756982803345e-02
-4.380999460107539711e-01,-4.321284011124876256e-01,-4.413040101229442347e-01,-1.538963963864790679e-03,2.761207064523635464e-03,-2.143430690554761799e-03,1.043165847659111023e-02
-3.484062425566316623e-01,-4.766012787735198764e-01,-3.984681197159971044e-01,1.720903068907107467e-02,-9.661511322535021318e-02,-3.998056694569319947e-02,2.149644196033477783e-01
-4.521984682466632655e-01,-4.058452526836557883e-01,-4.443406086473565830e-01,-1.911607479758274664e-02,-1.328099686788854032e-02,2.003632487466991755e-02,6.838069856166839600e-02
-4.123420357018915405e-01,-4.401735599978029434e-01,-4.131485555915830332e-01,9.068369159172332819e-04,-9.405681903489344475e-04,-1.339725939076956765e-03,2.762794308364391327e-02
-4.240569923657667162e-01,-4.341411818064340733e-01,-4.270346341133849921e-01,2.905256127577603587e-03,-2.806630070948817630e-03,-6.643298387926145805e-03,1.618281193077564240e-02
-4.316047683940559265e-01,-4.342391595677932425e-01,-4.585956014998040509e-01,-3.644963073152194567e-03,5.038646515612187418e-04,1.734499765134784113e-03,2.672049961984157562e-02
-4.113651182796194683e-01,-4.411922658501212791e-01,-4.144918906412037307e-01,-1.260003568806720032e-03,4.245754912031346300e-03,-4.037215849910257004e-03,3.023098036646842957e-02
-3.952588204502707758e-01,-4.537885512282499034e-01,-4.446093265911719161e-01,-1.139053309995892785e-03,5.179829415075539421e-03,-7.255738734631336957e-03,5.670142546296119690e-02
-4.244722029395672780e-01,-3.877055522026267576e-01,-3.873508242111056155e-01,9.046617502215277898e-03,8.487782232887880127e-03,1.470537214551665556e-02,4.975288733839988708e-02
-4.450984720464340461e-01,-4.391872443178058694e-01,-4.011201608171153232e-01,-8.960522556885161527e-03,-1.545034287501988353e-02,2.089452955061570430e-02,6.305414438247680664e-02
-4.561413200613577690e-01,-4.746187673736004253e-01,-4.106058785700845704e-01,-5.214519901592228751e-03,2.345663021015560734e-02,-1.120859485636721206e-02,7.324877381324768066e-02
-4.423951060830085269e-01,-4.106364287670009050e-01,-4.063549970856472071e-01,1.510858487896017763e-03,1.277622606864404174e-03,1.724207159963386891e-03,3.440320491790771484e-02
-3.750556762213547168e-01,-4.588594754961239364e-01,-4.338378803769368797e-01,-2.755858378685240202e-03,1.681107571730486305e-02,-1.970159594191002797e-03,8.021544665098190308e-02
-4.349507484107442146e-01,-4.301143452459950667e-01,-4.430545254478836514e-01,-2.674309011331265067e-03,2.897991024098234628e-03,-3.124977605080782057e-03,1.428994163870811462e-02
-6.206749565677935898e-01,-7.347825555881372095e-01,-6.381458010712414142e-01,-1.524495196417495479e-01,9.975713158099737410e-02,-1.770367443880295766e-01,4.526977539062500000e-01
-4.116029222963649703e-01,-4.284590199503718333e-01,-4.448619445810443329e-01,-7.251107775539949660e-03,2.032602657378955197e-03,-5.414572365977727599e-03,3.298114985227584839e-02
-3.516037718510135468e-01,-4.372157997699963050e-01,-4.386574896232058873e-01,-2.678584568877480365e-02,-1.999420369410362039e-02,6.272196601748215340e-03,1.045212596654891968e-01
-4.202608746624788560e-01,-4.299260102728025834e-01,-4.455143069028092984e-01,-4.769287078462781937e-03,-2.899099236848264559e-03,5.641871595063538934e-03,2.600033953785896301e-02
-4.848298353759181167e-01,-4.445994370259040429e-01,-6.074083528691501810e-01,-9.621994076589923672e-02,-1.025501539054337295e-02,3.156000507615898051e-03,2.229250222444534302e-01
-4.502877835959402386e-01,-3.748073099430213606e-01,-4.535873194940135411e-01,-1.516102973450864045e-03,3.894724738192881838e-03,3.374627952651569011e-03,7.774192094802856445e-02
-3.809373141581718913e-01,-4.619104667591076296e-01,-4.351108225993411960e-01,8.250621171208288515e-03,3.319855333214803694e-02,-7.417845737328551952e-05,9.281964600086212158e-02
-4.428606791899598050e-01,-3.362781682729907295e-01,-4.590252061903634662e-01,1.665548278501283869e-02,6.659997626311878194e-03,3.918823871562504557e-03,1.198137402534484863e-01
-4.591326275579587501e-01,-3.555753170810209696e-01,-4.659876669709110408e-01,1.076334547567614486e-02,-3.033987417848354150e-03,1.770866154308763313e-03,1.089291945099830627e-01
-3.975404103745778239e-01,-4.112974739345097164e-01,-4.436796396474596560e-01,3.579308237931505543e-02,-2.114392387719941577e-02,-2.437016544287191888e-02,9.300371259450912476e-02
-3.558689886136827685e-01,-4.595140426652609689e-01,-4.583669741890544769e-01,1.040952107453551418e-03,1.065820229692332087e-03,1.786882419224056795e-06,1.031085997819900513e-01
-4.057950688246765303e-01,-4.388884754570369084e-01,-4.095149054750393258e-01,-2.515184819766829675e-03,1.849631732992952160e-03,-1.776695345898622689e-03,3.200969472527503967e-02
-4.378831475469043832e-01,-3.833399149510250403e-01,-4.742614624365968368e-01,3.726276438946485997e-02,2.143392390364362837e-03,8.505047445664137493e-03,1.033386066555976868e-01
-4.591591955855510720e-01,-4.406773020203030855e-01,-4.267922732227064642e-01,-2.831449793817182874e-04,2.312197725868123197e-03,-1.323245363022107143e-02,3.650436550378799438e-02
-4.607890471507060104e-01,-4.689281143551314868e-01,-3.945319186213321894e-01,3.242002163073535483e-03,-5.019721831783231260e-03,-9.719632518097653939e-03,7.338979095220565796e-02
-4.453658755979674755e-01,-4.566387107267302348e-01,-4.443150998849533240e-01,6.123987734341506013e-03,-2.155937496010535900e-02,-1.705548871301517180e-02,5.019586533308029175e-02
-5.455519593064548367e-01,-4.670101106787942769e-01,-2.848676027540081868e-01,1.477185060954239702e-02,7.652667387250504383e-02,1.040914161885174022e-01,3.230777084827423096e-01
-4.205339573247949270e-01,-4.469273131517850217e-01,-4.246141964714403305e-01,-3.091817967516451355e-04,2.130759706292480096e-03,5.902547633102099784e-05,2.488943561911582947e-02
-4.316925346011657449e-01,-4.257576361881236782e-01,-4.390832810827975941e-01,-1.089728386383768607e-03,2.613142474205665342e-03,-5.839153131832976098e-04,1.260081026703119278e-02
-4.469690699893808516e-01,-4.471986432976574610e-01,-4.245070698000989462e-01,4.576397671903835798e-03,-2.627833744246374156e-03,-2.259628883940375827e-03,2.467013150453567505e-02
-4.465122323117458047e-01,-4.189399123916819900e-01,-4.320453985154751320e-01,2.897805067833293929e-03,-6.707821416662040903e-03,-5.240913477749602721e-03,2.851694077253341675e-02
-4.149734198449600564e-01,-4.402707726953023482e-01,-3.216432810596405178e-01,2.898445786665164794e-02,-7.891546783352490491e-02,-5.379782826833290343e-02,2.039542645215988159e-01
-4.099316478625985027e-01,-5.968845608075513676e-01,-7.014859127789007109e-01,1.461448656311854499e-01,-5.708548741771276441e-02,-6.487587113579351694e-02,3.897771537303924561e-01
-3.759618413668852632e-01,-5.973925191922297984e-01,-4.352560602867037165e-01,-7.188578044621096730e-02,1.420039042799459417e-01,-3.285119505500763010e-02,3.444610536098480225e-01
-5.482152699249932537e-01,-4.198847253978493788e-01,-5.343686707774216726e-01,-1.518800072608240959e-02,-1.616629982554863496e-02,-4.871684798012083234e-02,1.532304883003234863e-01
-5.290185259697124387e-01,-3.260568146760909336e-01,-5.331266229050894978e-01,1.688314677566198421e-02,-1.300499801172605614e-02,6.487472656482268056e-03,2.086453735828399658e-01
-4.370837152131772374e-01,-6.952770266932404297e-01,-6.435866761910611356e-01,4.776061358588701983e-02,-1.776875277072772485e-01,-8.485440140448155533e-02,4.232637286186218262e-01
-4.756489397507732697e-01,-4.744687121023869469e-01,-3.249295538346749779e-01,-1.057396249168688664e-03,-4.581661799993170386e-02,-7.378470747171325672e-02,2.125399559736251831e-01
-4.521207332896486353e-01,-4.297780161649772390e-01,-3.795683740292358221e-01,4.480043799537324761e-03,3.797923195577391012e-03,7.346922775214389731e-03,6.638856977224349976e-02
-6.867467372047504348e-01,-4.048994811493370483e-01,-3.922798610600182201e-01,1.369382474496436825e-02,6.374194267211358636e-03,1.730807603101787717e-01,4.167844057083129883e-01
-4.467852874324421131e-01,-4.692615921955861635e-01,-4.170339765409789012e-01,3.815169962111162423e-04,-4.199088570462463851e-03,-8.132191240717588426e-04,4.598197340965270996e-02
-5.552590543565846248e-01,-6.504843694157946832e-01,-3.401523413683720243e-01,2.827074109486665127e-02,1.435863761261570726e-01,6.425733487740610539e-02,3.904590010643005371e-01
-3.543562747250086353e-01,-3.598185684939593232e-01,-4.489299146663732754e-01,7.253349179154858217e-02,2.734164437255371533e-03,-1.435566986927077054e-03,1.557862460613250732e-01
-3.963882950875687872e-01,-1.789781073756745999e-01,-4.354187422179832123e-01,7.414821817250148717e-02,-3.418989821743917152e-04,1.251966978315634249e-02,2.724713385105133057e-01
-4.287303065339089780e-01,-4.471352661598851364e-01,-4.357528071965363625e-01,-9.279967767404633406e-04,-9.778953556108932726e-04,3.430403986461252365e-03,1.730793528258800507e-02
-4.120156857198489786e-01,-3.353383058042509468e-01,-4.475658500434276377e-01,3.462732589678003264e-02,9.680352087667891750e-03,1.358937352593979873e-02,1.195885613560676575e-01
-5.417334009312699816e-01,-3.967791151237919922e-01,-5.351167038668565024e-01,-8.055978464977686659e-03,-5.829403433165188109e-03,-4.007163118684160114e-02,1.587773859500885010e-01
-4.403271318683434354e-01,-4.292157192103088770e-01,-4.418410199019049966e-01,-6.891057201162364455e-03,7.305887389552438542e-03,-4.645667314332666692e-03,2.258121781051158905e-02
-5.400421617206242475e-01,-7.662023638018976568e-01,-7.009436918911703396e-01,1.981299007268697010e-02,-2.085693575661959620e-01,-1.129844756882042861e-01,4.589399695396423340e-01
-4.477946051368290048e-01,-4.065858559120819060e-01,-3.990335291890640401e-01,-4.040485050707100863e-04,9.655902606208431604e-04,5.293564168337945748e-03,4.640875756740570068e-02
-5.636270416305247943e-01,-2.639122295588082201e-01,-5.333748320130237142e-01,-6.397430099333038800e-02,1.833079347248297436e-02,1.913824240592968545e-02,3.099389076232910156e-01
-3.948543707528853197e-01,-4.708497286547356775e-01,-4.522214073285136249e-01,2.037329406858078527e-03,-2.725427638489505075e-02,-4.471352545697727075e-03,8.371057361364364624e-02
-6.200123516979296756e-01,-3.130379488937152788e-01,-6.439750776476742544e-01,1.140090208574677522e-01,1.706430326929883265e-02,8.565305667969809467e-02,4.050191640853881836e-01
-5.716225947835168464e-01,-3.000537564969262272e-01,-4.855646790432120996e-01,8.824497363869293620e-02,4.170699041299932852e-02,1.684255984138239293e-01,4.140850603580474854e-01
-4.439889847223773556e-01,-3.169188681693098086e-01,-3.395541623108526696e-01,1.119381627240898514e-01,1.082662844183921586e-01,1.394692453606101445e-01,3.806483149528503418e-01
-4.322698762939897743e-01,-3.613598346105416637e-01,-4.510650072531559585e-01,1.673799522338993359e-02,4.906599010633461329e-03,4.462886337769231965e-03,8.767389506101608276e-02
-5.437947109970767690e-01,-7.205421498163661065e-01,-7.904775038837117407e-01,-1.613773859573008340e-01,-4.326315177493905012e-02,-4.932984379697342298e-02,3.735436797142028809e-01
-4.538903027653964362e-01,-5.018415021914659491e-01,-5.188500593651206305e-01,-5.099434602452609933e-02,-1.872598044458734928e-02,5.782839447544311194e-03,1.111655086278915405e-01
-4.525098825297593219e-01,-4.350211992865177235e-01,-4.403175283356007830e-01,-3.232875454912254205e-03,3.574333330655252595e-03,-2.555541455248663569e-03,1.818113587796688080e-02
-2.279152192832507584e-01,-3.261758754346986144e-01,-3.518523739019572827e-01,-1.003451605798284380e-01,-6.211016292131828903e-02,3.415061917857203921e-02,2.410740405321121216e-01
-2.216811061808657002e-01,-2.663749892905176719e-01,-3.898891648971020141e-01,1.428498322970259693e-01,-2.676448953541834402e-02,-2.718799886876104716e-02,2.972514331340789795e-01
-3.786000345537967604e-01,-4.517913381021571584e-01,-4.702218419512546044e-01,9.222927152570814177e-03,-1.021375342103327671e-02,-8.318622914028114823e-03,8.843839913606643677e-02
-4.329047007883136677e-01,-3.933575612976979996e-01,-4.468125213539882457e-01,5.667382401728223926e-03,8.364376309309407703e-03,4.460661805752138068e-03,5.170451477169990540e-02
-6.552194511230904350e-01,-5.793004389278593180e-01,-7.011882735944622302e-01,-1.615299443700276838e-01,-9.820672635765556602e-02,4.280982508363410238e-02,3.522417247295379639e-01
-3.607079440308936236e-01,-5.119514166566047075e-01,-5.212905718213156625e-01,3.576771398822990722e-02,-2.559441837136062353e-02,-2.366734188058908575e-02,1.784879118204116821e-01
-4.298539964406141722e-01,-4.672343983578360893e-01,-4.648781733237193903e-01,1.334012126194733701e-02,-1.464384952364758408e-02,-1.446813563709010812e-02,5.585654824972152710e-02
-4.011353011172197891e-01,-4.457770103718454169e-01,-4.460939680685709341e-01,2.010634976736003915e-02,-8.126991430909134839e-03,-1.113309155734685738e-02,6.156224012374877930e-02
-4.265159853377604726e-01,-4.512569123572129359e-01,-4.215250216135729699e-01,-3.192548159869592304e-03,6.370151871925863003e-04,-6.701763215105430984e-04,2.817172557115554810e-02
-6.309347406723450069e-01,-7.637478646389174175e-01,-3.867514214554907404e-01,-3.922420858766371976e-02,1.453280781888493800e-01,-3.680460331437977045e-02,4.263046681880950928e-01
-5.811191959797284978e-01,-7.165424527460424464e-01,-3.856834494530141377e-01,-6.679473559368134805e-02,1.475454370062437848e-01,-5.478011084474509323e-02,4.131552875041961670e-01
-3.928399546069821779e-01,-4.342326602698312610e-01,-4.359977751924289935e-01,7.498483440193744534e-03,-8.943838509500959613e-03,-1.063471429299267870e-02,5.037344992160797119e-02
-4.582811632914657318e-01,-4.338032077316183455e-01,-4.346577664365203209e-01,-1.373270977746207768e-06,1.234707235575902354e-03,-5.502703648228649859e-03,2.596912533044815063e-02
-4.391741748793703826e-01,-4.243160308313508877e-01,-4.104493839619177131e-01,-5.493057682433289540e-03,2.666346061813403782e-03,-7.308127727786688753e-03,2.985224314033985138e-02
-4.536518410432531234e-01,-4.301117013106021680e-01,-4.339109182553770871e-01,-1.792708439527113009e-04,2.112302920691043571e-04,-1.257455713591861587e-03,2.200254425406455994e-02
-4.828370880925680342e-01,-4.559289423549987008e-01,-4.143905620335423534e-01,-3.088162895850034111e-03,4.220358489963329032e-03,-3.146992438310118601e-02,8.136534690856933594e-02
-4.583118017926902099e-01,-4.424074268638687468e-01,-3.868866303331328083e-01,-6.090717611715557381e-03,1.038005768111368091e-02,-1.981863027919402581e-02,7.636355608701705933e-02
-4.553353150715045428e-01,-4.314670917341312251e-01,-4.360163499002031595e-01,-2.769286985666213289e-03,2.013549588898506243e-03,-3.967252683650713402e-03,2.375273406505584717e-02
-4.670145616503807440e-01,-4.153359666136335893e-01,-4.480031654168169508e-01,1.668265050088191129e-03,2.910467755708380662e-04,-3.040736623338481139e-03,4.567241668701171875e-02
-4.609870292423425275e-01,-4.444856116266752699e-01,-4.091667804110253881e-01,-4.080147892829905283e-04,-6.658621112997461415e-04,-3.786309988384352083e-03,4.633967578411102295e-02
-5.283777998862326797e-01,-3.608570595282304949e-01,-5.228776215611982137e-01,-3.196011381515307531e-02,-1.398285173733561891e-02,1.067117275212459832e-02,1.765349358320236206e-01
-4.869102058400525124e-01,-4.151676647651755814e-01,-4.709331388249725081e-01,-1.088029799905895073e-02,5.709431300213134788e-03,-1.910995088072231507e-02,7.618746161460876465e-02
-4.367541473684460884e-01,-4.562105700721096335e-01,-4.282787219096632070e-01,-3.419981382949196982e-03,-1.012550589163214304e-02,-1.656222879203181017e-04,3.095214627683162689e-02
-4.206428368698684195e-01,-4.408649484967407384e-01,-4.225814498725052881e-01,-1.233528082289459329e-03,8.908271321684470452e-04,-2.252655219220558048e-03,1.989115402102470398e-02
-4.443973676208829438e-01,-4.310496111896279237e-01,-4.288817108639498832e-01,1.850349958128953611e-03,-3.668966954149931008e-03,-2.266722231654668632e-03,1.666938513517379761e-02
-6.642032721705977139e-01,-2.888278604532121818e-01,-5.645576605718515273e-01,7.178863755977596232e-03,-1.548860683850818674e-02,1.716539455994387300e-02,3.393960595130920410e-01
-4.507964873119379989e-01,-4.071947343496113980e-01,-3.527756250389604831e-01,2.827456705535010516e-03,-1.044992411622665089e-02,-8.651910570856183313e-02,1.733308285474777222e-01
-4.314961827563563723e-01,-4.334212842368405649e-01,-4.512968058010617400e-01,-5.374426426443048048e-04,-9.199553531820712322e-04,6.198751993870421249e-04,1.903183385729789734e-02
-7.682439669654621550e-01,-7.692658697143126556e-01,-3.668277867174106199e-01,-6.700720825565065208e-02,-9.092528752050864360e-02,-1.241515694176490853e-01,4.960435032844543457e-01
-8.411179878047525538e-01,-7.816075671071498476e-01,-4.479282334160548662e-01,-8.314194980593746231e-02,-2.596583367172059648e-02,-1.631846632626698657e-01,4.872257411479949951e-01
-6.311903432504114564e-01,-3.464632249832833577e-01,-7.361787629074327821e-01,1.318202050124277769e-01,-3.608132355314935119e-02,-4.004497386257831366e-03,4.219816923141479492e-01
-3.753610655659097572e-01,-1.800208195035949421e-01,-4.129899977678300749e-01,1.203844576996811605e-01,1.483990963113381370e-02,3.262617828623414623e-02,3.070106208324432373e-01
-7.563697536253293219e-01,-5.593792274006835763e-01,-6.591722179908513501e-01,3.319315669103596600e-02,-1.080919510597098815e-01,-1.846630435057614317e-01,4.120241701602935791e-01
-5.143824638592223719e-01,-3.561744415430296851e-01,-5.057641197406826938e-01,-2.730299720459287635e-02,-7.436473884179073575e-03,2.246108615984942353e-02,1.663019210100173950e-01
-4.883232051853498845e-01,-3.842343504993472880e-01,-4.443397790403508241e-01,2.813929004142910143e-03,8.188431505196982476e-04,3.521705623865842294e-02,1.092581152915954590e-01
-6.315060586762129002e-01,-5.931200365454039058e-01,-6.739796523385623850e-01,-1.986899561745289200e-01,-1.241415698859107408e-01,5.508256084238735695e-02,4.227015972137451172e-01
-4.491503009904178612e-01,-4.264577197014350340e-01,-3.762198858284154790e-01,-2.641854787136280972e-04,1.691510599663934413e-03,7.644375048192098010e-03,6.605241447687149048e-02
-4.642036405719311420e-01,-3.841387134779603030e-01,-4.320153061796984661e-01,2.343743343318378195e-03,-5.775017373963252203e-04,7.480162035931612122e-03,7.109615206718444824e-02
-4.816790116815428124e-01,-2.310686553980920710e-01,-4.463487637850695466e-01,2.347558636816184791e-02,1.583187741954063948e-02,1.253321065970862680e-01,3.236190974712371826e-01
-5.777190154591768101e-01,-3.064356856777933347e-01,-6.256228903462922597e-01,-5.777985238581431759e-02,-5.297110091063726711e-02,5.265514030476589613e-02,3.400529325008392334e-01
-4.312809151507791539e-01,-4.555671204860896051e-01,-4.323038161322627082e-01,-1.942617092726315990e-03,-4.056344358770613834e-03,1.916006057223096967e-03,2.525311894714832306e-02
-6.504380888561047680e-01,-7.247442311886005406e-01,-5.875755700346251276e-01,-1.284256343945168188e-01,-1.790306949808508907e-01,6.196948720754560241e-02,4.138843119144439697e-01
-3.938441623902819155e-01,-5.015422373620617158e-01,-5.493274059495275585e-01,-8.189253597393154893e-02,-2.755167782127752527e-02,3.071471818526583589e-02,2.103694379329681396e-01
-7.018817891482370674e-01,-7.124840910767524793e-01,-4.370721288036191199e-01,-8.948728413995755970e-02,-1.470206210374474520e-01,9.626390353113818688e-02,4.355611205101013184e-01
-4.297048250075761189e-01,-4.468438164822011172e-01,-4.306706874846041866e-01,-2.175377457697422971e-03,-2.408963005887795102e-03,6.961771029685046800e-04,1.764041185379028320e-02
-4.560873652853320581e-01,-4.000595524331719832e-01,-4.161150129723825142e-01,1.505837084844026223e-03,2.874475623629013047e-03,5.788579219985080793e-03,5.127820745110511780e-02
-3.090784961222481364e-01,-4.035120790301657268e-01,-4.336328460405665663e-01,5.397976045285782232e-02,1.629398006000556259e-02,1.022083314114228744e-02,1.500689685344696045e-01
-4.463240370858357897e-01,-4.436418447001557741e-01,-3.638229311387432552e-01,1.675256722787327787e-03,3.303369269250636987e-04,-1.179105934577790978e-03,8.127275109291076660e-02
-4.311652933484402817e-01,-4.507145369884543729e-01,-4.366361614904237243e-01,-4.550796079458797254e-04,-1.042904434576330530e-03,4.989538741878718356e-04,1.760065555572509766e-02
-4.255480157562893662e-01,-4.386700601198695315e-01,-4.125613334490225714e-01,-5.369667824744019449e-03,-5.995016219460197124e-03,3.051584694524574985e-03,2.708340808749198914e-02
-4.270082669430226296e-01,-4.447147640130696411e-01,-4.127473284991310387e-01,-5.098001787984513151e-03,-5.015416540116728224e-03,2.716392658546017396e-03,3.074043057858943939e-02
-4.394439025027943035e-01,-4.288471508451534575e-01,-4.427633296091225690e-01,-1.585947736914861909e-03,3.460379466461309655e-03,-1.625985546237617297e-04,1.421381626278162003e-02
-4.508443291852055057e-01,-4.370793858141576171e-01,-3.722134536384196779e-01,-1.045315429664349198e-02,-6.148383876354056483e-03,1.403883256565214427e-02,7.951363921165466309e-02
-4.301961399692763588e-01,-4.406395546431021715e-01,-4.323662748585357374e-01,-2.543968122599849294e-03,-1.630184928195701740e-03,1.832267530471857900e-03,1.133888121694326401e-02
-4.242199446456173528e-01,-4.319098477268866199e-01,-4.298490308658067804e-01,-3.649877280823302702e-03,-4.776063406029274969e-03,3.054177234417156193e-03,1.356153562664985657e-02
-4.464267199031438094e-01,-4.181426103986597975e-01,-4.306244439799468138e-01,-1.253885701152431193e-03,-3.196697859246041152e-03,3.130627421864669042e-03,2.583651058375835419e-02
-4.102393488914733988e-01,-4.478609862861747115e-01,-3.989092698748625265e-01,-7.498240804443034521e-03,-2.617635010452579181e-02,9.663233825063751933e-03,6.689113378524780273e-02
-4.662685973366621495e-01,-4.651102190664591629e-01,-3.357191280605111294e-01,3.321975026728692625e-04,-4.562275195393216548e-03,-4.621656496815753495e-03,1.304612308740615845e-01
-6.848802425601339117e-01,-7.376214148096612577e-01,-4.422345613926523256e-01,2.143175827646115472e-03,-1.802174382643898787e-01,-9.927161695327019197e-02,4.488533139228820801e-01
-4.224105635759597965e-01,-4.428512753936769686e-01,-4.386261567308578080e-01,-2.551248981568537272e-03,-2.546336961932583673e-03,5.075699995089448698e-03,2.157721482217311859e-02
-3.583151644535678138e-01,-4.456390623479411506e-01,-4.551669159936027609e-01,5.498278600199225929e-03,-1.262646782289435221e-02,-2.530898941821560152e-03,9.558475017547607422e-02
-4.280249783796410412e-01,-6.755021274116287389e-01,-7.063933560823565383e-01,-5.946315760758016239e-02,-9.632182401216973777e-02,-6.168639313873637564e-02,3.459783196449279785e-01
-2.835314193803830651e-01,-5.206801538166253573e-01,-4.679339047217153658e-01,5.616111270069823469e-02,-5.077903124045557437e-02,-1.446423498441402715e-02,2.536500990390777588e-01
-4.311633604008175968e-01,-4.503102931290834388e-01,-4.336013080603922654e-01,-1.453324860349574765e-03,-2.559150597800560734e-04,-1.130698912761454820e-04,1.823295652866363525e-02
-4.485962108999936304e-01,-4.162504649404732970e-01,-3.992896317805446627e-01,5.473826383844362757e-03,9.117900323502032417e-04,3.029437290886177834e-03,4.474866390228271484e-02
-3.163162814537057166e-01,-3.987230702154523909e-01,-3.365541717978501879e-01,1.031295424312635434e-01,1.696974569504527408e-01,1.004290682062753126e-01,3.925423324108123779e-01
-4.354468721154747812e-01,-4.291994065727273711e-01,-4.480998924574426390e-01,-1.250991284218590412e-03,2.270964322620040374e-03,-5.205579260510499132e-04,1.729620620608329773e-02
-4.214717874366525341e-01,-4.286733668174741441e-01,-4.410832504736155735e-01,-6.180727525280178738e-04,3.098530045104287874e-03,-3.770517276353939871e-03,1.917909830808639526e-02
-3.740488422326057050e-01,-4.045739301352986317e-01,-2.272013392318877056e-01,3.621594475412492214e-02,1.072974819580516936e-01,8.201844279978413865e-02,2.926304936408996582e-01
-4.412740035154213425e-01,-4.648315468045631782e-01,-3.742292775417567774e-01,4.985335842307350197e-03,1.372432445363442818e-02,1.028968706427972959e-02,8.710124343633651733e-02
-4.538365609809014711e-01,-4.649301129396525289e-01,-3.662581878203383656e-01,3.282753615189017583e-03,8.495571606380382043e-03,1.394519105498772185e-02,9.796352684497833252e-02
-5.226681577745688756e-01,-4.342582454342951426e-01,-2.440451732166429577e-01,3.280895395396073166e-02,6.391071535483280885e-02,8.394664447615263203e-02,3.121508955955505371e-01
-4.588520420755675122e-01,-3.767704769121276165e-01,-4.317159070088555928e-01,2.569946315370133690e-03,5.603340985088948838e-03,8.074708092219586020e-03,7.453848421573638916e-02
-3.192248392550398051e-01,-3.945635331952799252e-01,-2.599030646144510071e-01,5.547904672157952244e-02,1.264403718005406851e-01,6.994023643584945660e-02,2.924626469612121582e-01
-4.668541541637038494e-01,-4.650395397279481480e-01,-3.109201556356216978e-01,2.461660189654059881e-03,2.937962972813847398e-02,5.184364482197677954e-03,1.634749025106430054e-01
-4.482790784154807029e-01,-4.699930875547222997e-01,-3.665935864635665453e-01,1.892253383990063478e-03,1.276433534338195300e-02,6.460905800971464144e-04,9.704904258251190186e-02
-4.516032004876586736e-01,-4.443030659165380092e-01,-3.674305564005264091e-01,1.237472193910037731e-02,1.100567920265265245e-02,1.348006699892228231e-02,8.883561939001083374e-02
-4.337044899928128028e-01,-4.547915601396342877e-01,-4.137218233397264022e-01,-7.382959995368371196e-04,-6.348811344119131839e-03,1.523602651456552317e-03,3.734794259071350098e-02
-4.540365237866609283e-01,-4.402302771352950561e-01,-4.017297321316957159e-01,-6.672083266460034252e-03,-1.137122888256165195e-03,5.281630254689427366e-03,4.925006255507469177e-02
-7.087575219092621115e-01,-4.143591269050226344e-01,-4.669248995485645315e-01,-6.778107068066091187e-03,-3.778646299718304517e-03,1.925693689127631336e-01,4.305668771266937256e-01
-4.344877524905526589e-01,-4.314108489344464781e-01,-4.377079753571058718e-01,-4.939596091446863194e-03,-4.207435288674659518e-03,5.520312944791294120e-03,1.573128812015056610e-02
-4.116854858063473954e-01,-4.437024102757509691e-01,-4.311350664972629088e-01,-1.603638981398557801e-03,-5.878250160781643002e-03,5.577472449409368212e-03,3.139036521315574646e-02
-4.540153926110651605e-01,-4.749929292941025283e-01,-4.261350224105112661e-01,1.150533900708643328e-03,-8.383238584833493587e-03,-2.840840382758313834e-04,4.491417482495307922e-02
-4.715599030600404196e-01,-4.029263895369357695e-01,-4.348792548559994309e-01,-1.444347203490214601e-02,-1.419392208735726670e-02,6.091676901060005811e-02,1.261003911495208740e-01
-6.581388670842505118e-01,-3.257012573771590480e-01,-5.431900684991736172e-01,6.026003047699219489e-02,1.687453509820269551e-02,1.403275267308292940e-01,3.953962624073028564e-01
-4.303219477889082545e-01,-4.516795947090843644e-01,-4.257369114471274418e-01,2.488882746506659426e-03,-3.777020502624376438e-03,-9.311061472072191918e-04,2.528001926839351654e-02
-4.136968485758380498e-01,-4.419453837656718842e-01,-4.401636370617174610e-01,-7.674670225495166566e-03,1.124695297106493956e-02,-6.044856211019320434e-03,3.763810545206069946e-02
-4.480554789946709082e-01,-4.499465248843742549e-01,-3.030169733857870917e-01,-3.241352074923149577e-03,2.987318626272791877e-02,5.658420465603091615e-03,1.553023308515548706e-01
-4.338777703461763613e-01,-4.517656177733628819e-01,-4.122369370156666601e-01,1.868603931663887028e-03,-7.141118642569249664e-03,-6.519317540889686940e-04,3.660799935460090637e-02
-5.568524498325433392e-01,-5.599122061369539161e-01,-3.765799833675679276e-01,-1.115793645555836384e-02,7.010158242147663740e-03,3.207116981898928271e-02,1.914829462766647339e-01
-4.526229844127578894e-01,-4.559426126546428093e-01,-3.949187804379674649e-01,7.317189637851503371e-03,-3.192878231625682905e-02,-1.769317639818462906e-02,8.769527822732925415e-02
-3.948000308295960270e-01,-4.400275754837916775e-01,-4.008506260487023631e-01,2.782139468378245356e-03,4.911739285648499681e-03,2.445135834529607068e-03,4.384084045886993408e-02
-4.486943630349873313e-01,-4.652674319180933327e-01,-3.517713635777304781e-01,-2.215716001188037469e-03,7.880789585899439231e-03,3.846433968632293962e-03,1.073334962129592896e-01
-7.018337002708077144e-01,-6.775502714478144339e-01,-5.971152188773525271e-01,-1.369672788003481745e-01,5.898313461340345260e-02,-1.900230482020778544e-01,4.290176331996917725e-01
-4.606674649719891823e-01,-4.656286157692152705e-01,-3.942271261549248895e-01,-3.817349593874500187e-03,-1.670860706530446008e-02,3.659618143631138132e-03,7.543195784091949463e-02
-4.194443927133707506e-01,-4.302348438322913804e-01,-4.401491763090723541e-01,-3.046180802420975046e-03,2.556597012224830386e-03,-5.435267664611090691e-03,2.139580808579921722e-02
-4.537109705416981220e-01,-4.589271417821008670e-01,-3.107791595859176748e-01,4.957995265096620113e-02,1.216362657061402647e-01,1.351719526949275441e-01,3.574595153331756592e-01
-7.653382742708088049e-01,-6.654164736988188444e-01,-3.184238201568502791e-01,-4.419570927342041794e-02,-3.055478190562678498e-02,7.995018006498114116e-02,4.392004907131195068e-01
-4.621770412648471549e-01,-4.600915238411880104e-01,-3.539345025279332924e-01,-2.944570601932558571e-03,3.309449921357963346e-03,-9.481625680933900013e-03,1.087365075945854187e-01
-7.226211934172794837e-01,-7.297531071583576168e-01,-3.326422739621223146e-01,-4.990937773877297812e-02,-1.705212117941509384e-02,-7.596773189222051637e-02,4.249401986598968506e-01
-5.282937645318539488e-01,-3.300330606909002151e-01,-5.055041346314941286e-01,2.921904635784236190e-02,-6.275559053346769708e-03,4.368390637337649790e-02,2.090756893157958984e-01
-4.648459556067348064e-01,-4.532310750474269345e-01,-3.054142239314673324e-01,-3.530981781296687813e-03,-1.448354128299923597e-02,2.652460331500708715e-02,1.627236604690551758e-01
-4.352170338561355267e-01,-4.532305754452566893e-01,-4.356885214928059580e-01,4.566039183127999779e-03,-7.086791524120922281e-03,-6.521534219462010902e-03,2.563244104385375977e-02
-4.728582682432675433e-01,-5.089771970544709756e-01,-4.815519313206484964e-01,8.008343797745804543e-03,-6.228605543723289562e-02,-1.595784841252807437e-02,1.168810054659843445e-01
-5.226583641116284706e-01,-3.974729362821901590e-01,-5.159449654850701839e-01,1.576937438357169444e-02,-8.285371382495434339e-03,-4.825854847547959847e-02,1.510452479124069214e-01
-5.145915554957759541e-01,-3.993215312379480575e-01,-4.681274849919617176e-01,3.364203487753631718e-04,-7.995077184895062541e-03,-2.502495640596660506e-02,1.102770268917083740e-01
-5.323320716257131657e-01,-6.099146231870288259e-01,-3.763874864961437305e-01,4.986076207786302450e-02,1.553954080815888872e-01,8.382659294134346684e-02,3.787063956260681152e-01
-4.589236275050987968e-01,-4.587818588433993372e-01,-4.044953782959952449e-01,-5.111445910784799193e-03,4.491023205052927132e-03,-2.175897173456568540e-03,5.574791878461837769e-02
-4.190812436307531086e-01,-2.823926016244268089e-01,-4.150199513355369296e-01,4.356433645691289852e-02,-3.371591691119259215e-02,-7.744423348051938938e-02,2.127012461423873901e-01
-4.470461814358319130e-01,-4.285935312376911166e-01,-4.341969581499394160e-01,3.462220042960441335e-02,-4.000092287342923297e-02,-2.393332908443777246e-02,1.018981114029884338e-01
-4.306209632812565413e-01,-2.472742414958534196e-01,-3.294661235991813708e-01,-1.426952553262081543e-02,-7.523155317107651022e-03,-1.144754048235703675e-01,2.557272315025329590e-01
-5.890957809906247622e-01,-4.699258302262466769e-01,-6.052308548214557771e-01,1.943278532390559782e-02,-5.050132740264714343e-02,-1.903942000803406642e-01,3.659488260746002197e-01
-4.082636187845858911e-01,-3.866013473997231276e-01,-4.117143775452144494e-01,1.770768562016738004e-02,1.866539097278968953e-02,1.584026666696476335e-02,5.739801377058029175e-02
-4.534997087354561418e-01,-3.182479318519840228e-01,-4.457272226039366569e-01,-9.059407269313158803e-03,-7.654761259465186693e-03,2.590075882063491014e-02,1.404875963926315308e-01
-7.625430723781185804e-01,-7.377947675020570806e-01,-4.499984648902823348e-01,-6.142112991877583805e-02,-4.437040255329038896e-02,-1.368096930250458643e-01,4.048903584480285645e-01
-7.363261537689377301e-01,-5.436356287681591848e-01,-4.083444958591597729e-01,-8.792364338936065060e-02,-1.946895898926993829e-02,-1.342056067277742348e-01,3.998310863971710205e-01
-3.679514558191177009e-01,-4.804044858371210869e-01,-4.784922026157015229e-01,5.279245554367019855e-04,-4.017228854763726237e-03,-1.398558475323094519e-03,1.117560639977455139e-01
-3.681140585984754576e-01,-4.771889518742256087e-01,-4.783948765649995161e-01,5.681950982436932002e-03,-6.509562559714171699e-03,-1.122463358095175667e-03,1.107162088155746460e-01
-4.186694343277602148e-01,-4.369954750706623314e-01,-4.508141670840353776e-01,-3.764860366438286046e-03,-1.680465783585850846e-03,2.645898396803347385e-03,2.918970212340354919e-02
-3.902080632576375718e-01,-5.266975346278082171e-01,-4.968725679584051758e-01,-1.725477569553525090e-02,-1.713048864203224608e-02,-1.156893034055586460e-03,1.312465965747833252e-01
-3.955434910426546269e-01,-7.430291474155713560e-01,-6.366126556777120804e-01,-5.111486309036641223e-02,1.486680196492200789e-01,-6.007952151679658154e-02,4.243417382240295410e-01
-4.120107576716107167e-01,-4.370292991605971289e-01,-4.339881943319037760e-01,-4.158069723575436895e-03,6.506729581845249223e-03,-8.161037044258970946e-03,3.062320314347743988e-02
-3.534741870441868716e-01,-4.816254594496781061e-01,-4.703804241497484551e-01,-4.385258965780961286e-06,6.503914096276069111e-03,-4.315817507444249385e-03,1.236564442515373230e-01
-3.491135795728657620e-01,-3.427334988945542338e-01,-4.383730996391680401e-01,-8.461216932295070881e-02,1.501578775007111378e-02,-2.869112206076734548e-02,1.822116076946258545e-01
-5.579276079100200514e-01,-6.259818377664136957e-01,-2.446031325215653751e-01,-3.144797840687324486e-02,1.965617944482177248e-02,-6.149620701331078021e-02,3.736281991004943848e-01
-2.897893058222592577e-01,-4.417767681910942934e-01,-4.433377031654184286e-01,3.043113620632332920e-03,1.252170261309672357e-02,-2.440510525866436669e-03,1.544535458087921143e-01
-3.142584501030777355e-01,-4.375976503492129410e-01,-4.183389873276401882e-01,3.343601586858595872e-03,3.903310752336727751e-02,-5.551304342610139005e-03,1.338090002536773682e-01
-4.282639690313791991e-01,-4.600410014379882062e-01,-3.515184047721836014e-01,6.621450153262004729e-03,4.036422930292285494e-02,1.827866765279669709e-02,1.239357888698577881e-01
-4.651851181981530581e-01,-4.256435556548788246e-01,-5.518065213993390561e-01,7.877632683884229492e-02,2.088188056750128752e-02,2.389395042219001966e-02,1.847430616617202759e-01
-3.750635804240026183e-01,-4.700053125843819957e-01,-4.698651036551597104e-01,5.871973099137289256e-04,-5.042600894792157416e-03,-5.269388825039140372e-04,9.528268873691558838e-02
-3.826790885161098221e-01,-4.687090707915851362e-01,-4.717588137702534157e-01,-7.631167477739514080e-03,-5.382850342265005188e-03,-2.176353770942015316e-03,8.915529400110244751e-02
-3.740988085922221651e-01,-4.700237246674084934e-01,-4.703147762366196027e-01,-2.264465720655898379e-02,-1.564676299097162229e-02,-3.425844944042442681e-03,1.074132546782493591e-01
-3.682139026233551826e-01,-4.848092446174372960e-01,-4.738218518229312948e-01,-8.484685419421598637e-03,-1.719299116362030255e-02,-3.465019816466373848e-03,1.165028065443038940e-01
-3.597342601755769698e-01,-4.567107099304285045e-01,-4.584453045987620934e-01,-7.269624599320041215e-03,-2.630004394314523330e-03,-1.847809548672504302e-03,9.881898760795593262e-02
-6.626398810415954355e-01,-7.398900697535903959e-01,-6.102068241132758697e-01,-1.675127793781086838e-01,1.093737245225330640e-01,-1.605492608438875146e-01,4.584374725818634033e-01
-4.267285920043524805e-01,-4.578518069905624932e-01,-4.822217572651792405e-01,-6.022921831154966557e-03,-1.289520415199057156e-02,-2.640978396883592819e-03,5.431049689650535583e-02
-4.301889628163566570e-01,-4.349980981576092587e-01,-4.443448470430577113e-01,-3.045442321512505188e-03,-3.329418548671102263e-03,2.635178879553168752e-03,1.540620066225528717e-02
-4.140536400457882626e-01,-4.462559638023731456e-01,-4.518799350589252084e-01,-3.073329054070750559e-03,2.262873318716298460e-03,-4.720387039476443315e-03,3.688180819153785706e-02
-4.325411455579571962e-01,-4.459293726806926594e-01,-4.605015464873365993e-01,-1.200943163383744010e-02,-2.965734605161476738e-03,3.385066110277305026e-03,3.286533802747726440e-02
-3.959501917511789038e-01,-4.538525494214000200e-01,-4.314211307737046419e-01,-1.795486648101630252e-04,5.406255611768969252e-03,6.899232785447156685e-04,5.144149065017700195e-02
-4.083722858545307255e-01,-4.112781990846124947e-01,-4.240999024846392462e-01,1.874878185517719420e-03,2.262663898295917079e-03,4.274474671748953666e-03,1.705335825681686401e-02
-4.103433123659512849e-01,-4.114592916716902082e-01,-4.242918557186021733e-01,1.027091365867461052e-03,1.624176891026742585e-03,3.094648027385697199e-03,1.483408641070127487e-02
-4.050535738895696958e-01,-4.048879467552470857e-01,-4.281153507531121338e-01,1.479502813927273614e-03,2.738311996778860623e-03,1.644672876523864142e-03,2.393468841910362244e-02
-4.373927768759241497e-01,-4.586406614612087429e-01,-4.778934962176621948e-01,-1.621994592494138687e-02,-4.101157313071276608e-03,-6.170810844008838177e-03,4.674592241644859314e-02
-4.796192223559817558e-01,-3.604975956225110467e-01,-5.172453929680036477e-01,-1.119269750646090800e-01,4.887536852494888534e-02,-5.587778173605999904e-02,2.724043130874633789e-01
-4.499645817106869838e-01,-4.341392196562007255e-01,-4.267685618132260328e-01,3.035061314273322782e-04,-1.287897599254881481e-03,-1.965103384822981369e-03,2.093440480530261993e-02
-6.427190976053024363e-01,-6.443192259723394821e-01,-6.996657446614182874e-01,-1.698363049495048849e-01,5.193002732526177251e-02,-1.239219965333044626e-01,3.792725205421447754e-01
-4.133278013615137580e-01,-4.090736392196724358e-01,-4.324698004423728759e-01,1.376638337570213659e-03,7.049525503167418383e-04,1.650515216005583831e-03,2.193846181035041809e-02
-3.410792006485472427e-01,-4.603069019051368449e-01,-4.550207053764428466e-01,5.083059515698060658e-03,1.382292178333064184e-02,1.925517173590672289e-03,1.194771230220794678e-01
-3.952725778225771869e-01,-4.412748498203333813e-01,-3.934649299629283115e-01,8.433936674725174554e-03,1.249164134816076015e-02,8.563861517299591053e-03,5.571506917476654053e-02
-4.114894545338387832e-01,-4.408412826357774317e-01,-4.494489101181916024e-01,-3.539637555076166012e-03,2.298343821116459983e-03,-3.467503960517868619e-03,3.574598953127861023e-02
-4.328478460253715188e-01,-4.350281348427658679e-01,-4.529616100279984514e-01,-3.019307739164894398e-07,2.304544677333839791e-04,-9.326563200450567774e-05,1.912194490432739258e-02
-5.064804012517584164e-01,-6.468549261549678686e-01,-3.472545016283158370e-01,-8.043883877119253900e-02,1.226500495650638678e-01,-3.681132938899640134e-02,3.688017129898071289e-01
-4.190639857495854215e-01,-4.411691253930415391e-01,-4.431471539361974132e-01,-2.198937631158119025e-03,3.473997145736963665e-03,-5.561418388591545491e-03,2.607248537242412567e-02
-3.904484388227816294e-01,-4.806184783104461289e-01,-4.462121594869678520e-01,8.886622884390221050e-03,3.358933000788900253e-02,4.323434944822038446e-03,9.944713860750198364e-02
-3.328851390411931011e-01,-4.676152810252880987e-01,-4.499526129416273612e-01,4.217593832625151501e-03,3.886486829595052483e-02,3.790016253643100665e-03,1.439179629087448120e-01
-4.848166726770667401e-01,-7.454423519291617506e-01,-6.201685312177135367e-01,-1.087737433096643697e-01,1.435583136651623626e-01,-1.018551130168192792e-01,4.235743582248687744e-01
-4.466358593512972375e-01,-4.232601995547274343e-01,-4.463056796968565276e-01,-2.524191613189370655e-03,4.722251807475715858e-03,-2.436410074867885727e-03,2.535023167729377747e-02
-4.333733575462730969e-01,-4.742908854574555688e-01,-3.991301752301378847e-01,2.905945948394678818e-02,4.770851094111944191e-02,2.354870208016772784e-02,1.235850825905799866e-01
-4.474654240607592315e-01,-4.114144133701010397e-01,-4.467224584380243280e-01,-5.703017080384092941e-03,6.363521398255874914e-03,-5.046568125330954356e-03,3.960937634110450745e-02
-7.528271436468275679e-01,-7.385882861373777031e-01,-5.110968507276312245e-01,-9.437037168124427777e-02,5.693935993118186961e-02,-1.589082999534046914e-01,4.091374278068542480e-01
-3.713375337315265035e-01,-4.658834796513883769e-01,-4.631404490106623695e-01,-6.027783288376621293e-03,8.626084571051238423e-03,-2.928217445112611585e-03,9.510558098554611206e-02
-4.608727302399019399e-01,-3.880466021460986514e-01,-4.820022353587367636e-01,5.648841889546989820e-03,-9.056003128582438069e-03,-8.650686030582974834e-03,8.862926065921783447e-02
-3.335361473117416375e-01,-4.303706324612792122e-01,-4.540408525010452556e-01,4.740866634233892318e-02,5.469724834808871450e-02,2.320281243776020977e-02,1.719375252723693848e-01
-3.068654557327351595e-01,-4.669339881034261786e-01,-4.687640128067293577e-01,2.736074672684664713e-02,4.335470292342535198e-02,9.506319293172976401e-03,1.845915615558624268e-01
-4.394934617792499720e-01,-4.260550664143213928e-01,-4.407247594979714078e-01,-4.631023437477509684e-03,4.147757511051357662e-03,-5.610395847216257011e-03,2.022458054125308990e-02
-4.419041611759849664e-01,-4.287065659492379499e-01,-4.418747497423316517e-01,-7.646090114821346576e-04,2.067297596550062011e-03,-5.592220040036574927e-04,1.375872269272804260e-02
-4.159222177534588893e-01,-4.932452652944990801e-01,-4.855175840461183334e-01,1.648432583865643009e-01,1.400333942998396031e-01,1.119388395597436942e-01,4.282287955284118652e-01
-4.065702912647581324e-01,-4.652407416689082753e-01,-5.134195115455275626e-01,6.632583145836851157e-02,-2.684391868521952482e-02,-2.071361709387485248e-02,1.588596403598785400e-01
-4.402491340412678644e-01,-4.283052911069465951e-01,-4.383667815951011182e-01,-5.972984627762773814e-04,3.954212032987240136e-04,-3.778178820785633128e-04,1.121087558567523956e-02
-8.083235895428866336e-01,-5.949950974318769514e-01,-7.082596038202170208e-01,-5.406835230572820672e-02,-5.760273620092666580e-02,-1.807953584677218506e-01,3.885365128517150879e-01
-4.449327964616496267e-01,-3.658729590820600786e-01,-4.609597285258357768e-01,7.284236907099414168e-03,-5.556882103125682440e-03,8.388882219922655890e-04,8.960098028182983398e-02
-4.632264329595717767e-01,-3.120251019416087068e-01,-4.532446705488746841e-01,4.653352408512807792e-02,2.498136418932644237e-02,8.716389312628033958e-02,2.293756008148193359e-01
-4.502017348257045803e-01,-4.359892827453883402e-01,-4.312445491404298115e-01,-4.405347838219016328e-03,1.513557201748600258e-03,-1.947965136657552965e-03,1.919422112405300140e-02
-4.488660153694751798e-01,-4.307995647152423335e-01,-4.336604753330275952e-01,-2.876523404086764237e-03,2.646894754486268930e-03,-3.248562109617143465e-03,1.898409239947795868e-02
-4.303538266231777265e-01,-4.480550783285845995e-01,-4.282873483179411300e-01,1.228576931707755105e-03,-2.640877642819108948e-03,-2.625798325240025384e-03,2.000797912478446960e-02
-6.568628661791161560e-01,-5.480174612837412917e-01,-6.455861192362328804e-01,6.747290887468211651e-02,-1.088950258815195582e-01,-1.517267112888859015e-01,3.592244684696197510e-01
-4.295261773969380470e-01,-4.372316110173865011e-01,-4.280817880211807980e-01,-4.666687845175206822e-03,3.981401982279000190e-03,-4.171518631471248482e-03,1.541696861386299133e-02
-4.512189879923302338e-01,-4.391561736505620317e-01,-4.302662688445981765e-01,2.378413934691045711e-03,-1.231282911083201930e-03,-1.697567176660097227e-03,1.902480237185955048e-02
-4.537524770555844134e-01,-3.281423560524895366e-01,-4.567286057173866598e-01,6.717015223511137341e-03,4.827774548845312902e-04,6.901378267481070826e-03,1.282167434692382812e-01
-5.112390503860294588e-01,-2.208368832624868494e-01,-5.283522171356501707e-01,-3.660672089455391243e-02,2.529953341102681233e-02,-1.386547150939340493e-02,3.100211024284362793e-01
-4.460595461107413895e-01,-4.301734419789572939e-01,-4.384660913502905766e-01,-1.259222887855600184e-03,2.771414657362230335e-04,-1.208043606002499491e-03,1.409836485981941223e-02
-4.446305357754209986e-01,-4.306830370360541504e-01,-4.381487924044968341e-01,-1.160925690173940719e-03,1.541590513803101645e-03,-7.318695622192087925e-07,1.254250202327966690e-02
-5.243382005522745359e-01,-4.258201870442044346e-01,-5.027634368262762221e-01,-4.580509517440320422e-02,4.658330185091488079e-02,-8.938002136717797252e-02,2.116989940404891968e-01
-7.665224079491704812e-01,-4.379796716480225394e-01,-7.831275025015103086e-01,-1.151870745263648826e-01,-2.695009842820606655e-02,-4.882114678472076336e-02,4.034912288188934326e-01
-5.063716249625920263e-01,-3.436243016194718836e-01,-4.781366643068238331e-01,-2.953534334947188755e-03,3.075196295839218667e-03,-1.760812540555187211e-02,1.538616865873336792e-01
-4.744471564475825076e-01,-3.574620784929992690e-01,-4.733624706009583183e-01,6.468060913035393687e-04,6.821444564080209483e-04,2.701605808398601684e-03,1.165518760681152344e-01
-4.540123641000837762e-01,-3.638566637692293160e-01,-4.291550183511957384e-01,-1.197685512931202095e-02,-5.631354658438448603e-03,2.351394193528706655e-02,9.321531653404235840e-02
-7.492852435279759860e-01,-3.479414679777174113e-01,-6.003210268810709183e-01,-4.157013892305803232e-02,-4.552717982203272756e-02,1.458041927436753427e-01,4.457132518291473389e-01
-7.889171960699649100e-01,-5.846248650923578927e-01,-4.883235743620431557e-01,-9.921997914113937778e-02,-7.544617489661770149e-02,1.734196122820747255e-01,4.555394351482391357e-01
-4.101326690238628059e-01,-2.307243445329151266e-01,-3.723566796445659244e-01,8.473068148733582661e-02,4.795554984552496958e-02,1.217204883118149644e-01,3.157874941825866699e-01
-4.782853575256598710e-01,-4.441348986451056913e-01,-4.394417032963147118e-01,-2.281676445856532440e-02,-2.453260772992056291e-02,2.986293388988322389e-02,8.597266674041748047e-02
-3.642456308070473048e-01,-2.381114170213310954e-01,-3.903642912422150002e-01,1.133606298770565568e-01,5.105173527889599744e-02,8.891110958581974200e-02,2.999546229839324951e-01
-7.163870953945119524e-01,-4.896533024203615359e-01,-7.555766514756762087e-01,-1.367913653068941471e-01,-7.812548838721335154e-02,3.677188873443448802e-02,3.746098577976226807e-01
-4.195736701213345632e-01,-4.002273478809835749e-01,-4.022095241970893298e-01,8.435666030992541517e-03,8.557617219449064824e-03,1.031082985418456388e-02,3.304513171315193176e-02
-7.253107425933542629e-01,-2.963246221685886250e-01,-7.199073158718434229e-01,4.646069995053797586e-02,-2.251465095687710249e-02,8.151616224736554783e-02,4.578989744186401367e-01
-4.438473301740395449e-01,-4.208512871304597724e-01,-4.586635269891606304e-01,-4.020926540577703448e-03,-2.988748203211207682e-03,6.210030961587048766e-04,3.413956612348556519e-02
-5.146878746562418838e-01,-4.050806011071237389e-01,-5.217167022951064714e-01,-2.718466345214346977e-02,-1.464576117356674971e-02,-2.601538151527003559e-02,1.331333220005035400e-01
-4.582360996811880582e-01,-3.874014964008693496e-01,-4.620059301949088204e-01,-3.007414781625180299e-03,-6.026973654379256216e-03,4.878181903697863600e-03,7.420434057712554932e-02
-4.673179570488525392e-01,-3.823151497083454586e-01,-3.817038091888906304e-01,3.166353790359227507e-03,-5.813593009373045455e-03,5.663656874832055654e-02,1.305081993341445923e-01
-4.212917806967538259e-01,-3.823819231468234547e-01,-3.937870107058602520e-01,-1.332961914397479478e-02,-1.062792748516467115e-02,3.056309997402313974e-02,6.981752067804336548e-02
-3.762818181716979238e-01,-1.545556909489816944e-01,-2.623307379547613061e-01,1.388535393797481025e-02,2.248798574694753014e-02,1.528944967325465421e-01,3.303136527538299561e-01
-4.587341369138026592e-01,-2.884102990212280559e-01,-4.214287614285820993e-01,7.744943731811269882e-02,5.768313223705560239e-02,1.441470065881798046e-01,3.381719291210174561e-01
-3.916495727615612044e-01,-2.323553648299820917e-01,-2.784594141912956067e-01,6.593455128772390816e-02,5.431547657929319123e-02,1.394407230470769699e-01,3.168278336524963379e-01
-3.103747997999590225e-01,-4.327637580144679808e-01,-4.094074949503265226e-01,3.349390747944147421e-03,3.897681628423768641e-02,-6.138836136536706366e-03,1.317964792251586914e-01
-8.198848272322409869e-01,-3.741170418257032670e-01,-7.960079693464741091e-01,-4.288194066198858928e-02,-6.236854858857275585e-02,4.444161865747427165e-02,4.601594805717468262e-01
-3.736759545247070324e-01,-3.284901773298528616e-01,-3.005431793793078565e-01,-6.571493309859548215e-02,-8.672120013065773292e-02,9.052107063392161868e-02,2.533472776412963867e-01
-7.455904610089291173e-01,-3.646687485406728824e-01,-6.179325739753711577e-01,-1.791302043108240760e-02,-3.785161353176042659e-02,1.275281284281532534e-01,4.084376990795135498e-01
-4.329597855962819541e-01,-4.336325957320560365e-01,-4.320536599656551457e-01,-3.043561661890127092e-03,-3.185519721023967899e-03,3.164424772714199800e-03,9.495080448687076569e-03
-4.317830620957008314e-01,-4.507667710065138000e-01,-3.585534035538380793e-01,5.090116511073255329e-03,1.458077744779021946e-02,4.176976038526541979e-03,8.877500146627426147e-02
-4.414177419088805010e-01,-4.196239885067514219e-01,-4.230319722427365869e-01,-3.667897351712730378e-03,-3.524386135887581147e-03,1.773730626008080931e-03,2.234663255512714386e-02
-6.102404830202247110e-01,-5.713948925223477637e-01,-4.292574342608104221e-01,-1.347366126781065210e-01,4.576845404247863180e-02,-1.336219751656241572e-01,3.762234151363372803e-01
-4.363358700610185381e-01,-4.575787156762018415e-01,-3.744636910703135202e-01,-4.991962470433135984e-03,1.144566022824163379e-02,-5.565748433130818240e-03,7.845041155815124512e-02
-6.007109702707772447e-01,-6.972141831100581166e-01,-3.394112803123249256e-01,-5.285157492038107530e-02,1.419419357908548451e-01,-2.001092300964656123e-02,4.157287180423736572e-01
-6.258593349311261100e-01,-7.291565809659091846e-01,-4.023158243601099304e-01,-6.356626684448157816e-02,1.435684038413945207e-01,-4.375527273369946707e-02,4.042705595493316650e-01
-4.184726179208505537e-01,-4.355644901311481743e-01,-4.585368038710885830e-01,-8.500002469029445049e-03,5.221810914964104171e-04,3.715829575534268167e-03,3.835999965667724609e-02
-4.473534841765646752e-01,-4.358705367897655614e-01,-4.279142845798550865e-01,2.393699759281196510e-03,-7.119354978567352414e-04,-8.872646112944446639e-04,1.753832772374153137e-02
-3.837901554814410199e-01,-5.124418703196075286e-01,-4.595271252257537298e-01,1.710943535307126590e-02,8.219147839602154726e-02,1.903846842488190333e-02,1.864820867776870728e-01
-6.160264014609153627e-01,-6.245355333416207078e-01,-6.359009996372799733e-01,6.353848262293992910e-02,-1.378770315372004063e-01,-1.693892285800843167e-01,3.943578004837036133e-01
-4.335396131138181675e-01,-3.923465435250020894e-01,-4.641835279049549845e-01,2.143887535045365875e-02,-1.332789391048124807e-02,-1.244600589107286090e-02,7.921312749385833740e-02
-3.051938084626147352e-01,-3.860488269242022819e-01,-3.117177113501390928e-01,1.044946096578259626e-01,1.723906753313556028e-01,7.723860236698214254e-02,3.819201588630676270e-01
-3.522073892068343648e-01,-4.578602853149590923e-01,-4.515930304647863824e-01,5.570437022399869851e-04,-1.155689449950334825e-02,-2.066159639897326237e-03,1.046617552638053894e-01
-4.393000181037033935e-01,-4.114006960958431214e-01,-4.704530673234356697e-01,1.685030002007585279e-02,-5.292206448062327512e-03,-7.337693701907922576e-03,6.095390766859054565e-02
-4.321585027824237923e-01,-4.202959524643036793e-01,-4.366737783227061520e-01,4.142258594762564944e-03,-4.678222241415251614e-03,-1.218064712666791505e-03,1.833722367882728577e-02
-4.543269442600988972e-01,-4.376337796640065170e-01,-4.244730597438304276e-01,2.205645130365533040e-03,-7.454910272590407345e-07,-2.655901271792269688e-03,2.659542113542556763e-02
-5.137006700939965587e-01,-3.386608320575649755e-01,-5.316031028763081867e-01,-3.776912822042123499e-03,-2.888084403570339437e-02,6.044296796502919610e-04,1.914138942956924438e-01
-4.064693257605981325e-01,-3.648205345960232049e-01,-4.712619096300740829e-01,8.566253334109374951e-02,1.559183833275193864e-03,3.054854667929357299e-03,1.751591563224792480e-01
-3.946236614410807420e-01,-3.980071448447105031e-01,-4.397714118191764499e-01,1.529543470142810148e-02,-3.846235415513546679e-03,-2.208718121902982206e-03,5.155460536479949951e-02
-4.234447903121408285e-01,-3.712118387104490491e-01,-5.871862872121234034e-01,1.779129077340809162e-01,4.279256954865487406e-02,6.600259808503013137e-02,3.893763124942779541e-01
-4.453025649560687915e-01,-4.164533796031717472e-01,-4.213224452192100289e-01,8.972986955701577408e-03,-5.043323012528322727e-03,-1.545372641559701957e-02,4.183080792427062988e-02
-6.120972216469801053e-01,-3.383878590321777180e-01,-6.708944896409535508e-01,1.173113729022608048e-01,5.723480630706141367e-03,7.162652704907301882e-02,3.888991177082061768e-01
-4.475749529886842160e-01,-3.330084656866075798e-01,-4.559367664776522999e-01,1.216095718722889386e-02,2.282379787770039484e-03,6.130109144274580903e-03,1.213483139872550964e-01
-4.506112823135362544e-01,-3.458912737087080913e-01,-4.453015739201005019e-01,1.299759861935253016e-02,8.545823815247106936e-03,1.120488452883361408e-02,1.074290201067924500e-01
-3.338309843439010716e-01,-4.684648195133369608e-01,-4.601841042551961802e-01,1.448952249767010148e-01,1.160676950589333151e-01,7.157163419127218762e-02,3.685735762119293213e-01
-4.261982580070418081e-01,-4.528690621651887405e-01,-3.378123121879369473e-01,2.509908933964647305e-03,3.635827244137969372e-02,6.216521557500358404e-03,1.223982721567153931e-01
-5.188919396371496351e-01,-4.594869687525943713e-01,-5.156920319304040268e-01,2.825218110739708202e-02,-4.454024764922157736e-02,-4.923042240840422301e-02,1.377173215150833130e-01
-6.048583505519627979e-01,-7.375608950318290891e-01,-6.619705546118709316e-01,5.518263942392565014e-02,-1.762317078174976681e-01,-1.076821360574332087e-01,3.877981007099151611e-01
-4.347683189993985509e-01,-4.515980782442077235e-01,-3.992091548180863314e-01,-6.503243319000799431e-03,-1.765864221417334096e-02,8.544963506995024993e-03,5.854533240199089050e-02
-4.203853252465719059e-01,-4.206963680604963174e-01,-4.464120542256935775e-01,2.531538664554365808e-03,-3.132749359397721430e-03,-3.820049992135483852e-03,2.760142646729946136e-02
-4.197813397749067810e-01,-4.572039024851421440e-01,-4.011191208022614196e-01,-5.600766977665001334e-04,-2.318866525362561076e-02,-1.464083462473790304e-03,6.377796828746795654e-02
-4.334063733630840742e-01,-4.312099998786351196e-01,-4.464568238654056942e-01,4.646697197512092599e-03,-7.441317150877701202e-03,-8.847846836588690173e-03,2.587566711008548737e-02
-4.401915146910799770e-01,-4.005235151494226931e-01,-3.964922852621238225e-01,4.987676459484041876e-03,-8.472845394864163618e-03,-3.124902309541673084e-02,7.049265503883361816e-02
-4.508585871052728788e-01,-4.289696171964292315e-01,-4.291437290081585032e-01,3.909026034100051140e-04,-8.386930531088893580e-05,1.427311889995987873e-05,2.181344293057918549e-02
-4.934904501091160189e-01,-4.521691905888861607e-01,-4.859681757558800275e-01,9.313126355595099720e-04,-1.547485157245990367e-02,-4.957424089599170303e-02,9.770891815423965454e-02
-4.752325396825772819e-01,-5.276381182804711356e-01,-4.814869959649398234e-01,-2.478239958294694602e-03,-4.456175112302154101e-02,2.241468532384514444e-03,9.191539883613586426e-02
-5.735866739763633149e-01,-3.882684573710971643e-01,-7.446315783891561679e-01,1.490541239033967569e-01,-5.053337825102503095e-02,-3.533889377237876828e-02,4.163600802421569824e-01
-3.893885621725165502e-01,-4.159030017096266851e-01,-4.412237675409595994e-01,9.256151992643754309e-03,-3.586172516897836917e-03,-6.318160100316584649e-03,4.930406808853149414e-02
-3.236741911860389065e-01,-4.223266034779631917e-01,-4.204791620245494355e-01,2.183482634208191650e-02,-2.094176382438642584e-02,-9.259641477393457110e-03,1.120563745498657227e-01
-6.945548770723464216e-01,-2.815802273718392978e-01,-6.777842759968115693e-01,3.632560832291190783e-02,-5.246783888792589529e-02,-1.624529758274338709e-01,5.052659511566162109e-01
-7.215433797844701402e-01,-3.719526314316071169e-01,-7.579182000087882898e-01,6.865696134861638822e-02,-3.752440822467432296e-02,-5.175688934567695271e-02,4.033051133155822754e-01
-4.016105829219752121e-01,-5.420164612476713328e-01,-5.379003883888274773e-01,-1.146298672619278092e-02,-1.445993470091901378e-01,9.781882552297753095e-04,2.868393659591674805e-01
-5.477894036795700750e-01,-2.921801340384092560e-01,-6.128343334589891889e-01,-8.199363763497398427e-03,-4.381289677252007964e-02,-1.532798827385581097e-01,4.032835066318511963e-01
-7.717082684743153953e-01,-4.731841277031791915e-01,-7.279862955855145312e-01,-1.074561163331227837e-01,-3.741542338318940703e-02,-1.410283443496018196e-01,4.200992584228515625e-01
-6.956739394580355729e-01,-5.760062134125584210e-01,-7.908745622169535139e-01,-1.686606011260649851e-01,-2.648454774324045247e-02,-6.091057243119404885e-02,3.651708364486694336e-01
-7.565357821724988385e-01,-3.485952295350242536e-01,-7.268386471451659947e-01,3.273611081566479321e-03,-3.336249762258094304e-02,1.023381086660250967e-02,3.985828161239624023e-01
-4.397232837499183700e-01,-3.397586485530654232e-01,-4.214937966865766605e-01,1.406769886454902092e-02,1.015418599836323370e-02,1.263491156031950648e-02,9.942275285720825195e-02
-7.986462592609971933e-01,-3.517735874196186718e-01,-7.314229531684048879e-01,-5.790222810676017712e-02,-6.376004905286801472e-02,7.345720816987354185e-02,4.611028432846069336e-01
-5.776137294080957441e-01,-5.734232925054872920e-01,-5.010852486177586051e-01,-5.478046868222927884e-02,-2.120790229881596434e-01,2.446311552500699676e-02,3.889524936676025391e-01
-4.390645464739363346e-01,-4.256038643747431793e-01,-4.303105056520017402e-01,-1.493231152372276934e-03,-3.392711380890469849e-03,8.243252756146728956e-04,1.353687793016433716e-02
-4.416727244253300655e-01,-4.408918700416425418e-01,-4.113004306125437881e-01,6.039277719597765937e-03,-2.038542224706718035e-03,-2.280957217723610965e-03,3.220036625862121582e-02
-4.402932448304491264e-01,-4.276898511750447662e-01,-4.322645493809151307e-01,-1.035988597530978095e-03,-4.602266487518630702e-06,2.337966815109456843e-03,1.190524362027645111e-02
-3.791942172388070853e-01,-4.257384254374271260e-01,-4.433950396271190697e-01,1.650260184660654050e-02,-1.545923326902772909e-03,-9.081081229839580923e-03,6.611737608909606934e-02
-4.633229594436489851e-01,-5.243822388024198533e-01,-5.033062449105938363e-01,-2.469369017638273212e-02,-5.381909586161541525e-02,-3.624870977974887359e-03,1.159473508596420288e-01
-3.617930516430505894e-01,-4.570852435527255619e-01,-4.537953772456509993e-01,4.133780752449012371e-04,-2.844165474223217627e-05,-4.999916561642651740e-03,9.409271180629730225e-02
-4.048881610444572399e-01,-3.984585757175278520e-01,-4.478696338417519907e-01,5.336997034341042605e-03,2.232950310502773705e-03,1.185612319285088336e-03,4.764163494110107422e-02
-3.334831081019984933e-01,-4.300583142092928579e-01,-4.166332179978933792e-01,-1.082101083338504396e-02,-2.792392535592577718e-02,4.259180706460018520e-03,1.046681106090545654e-01
-5.102796868343461023e-01,-7.497326584283885431e-01,-7.062407444422420522e-01,-5.623323875921332161e-04,-1.511703077482036972e-01,-6.394317532659640757e-02,3.600549101829528809e-01
-3.112822173871322429e-01,-6.739629378072165000e-01,-6.381147154618028727e-01,-9.094114126667949063e-03,1.035727571704210814e-01,-9.250495991416220198e-02,4.218086004257202148e-01
-3.881544263456008226e-01,-3.904700680581033034e-01,-4.222905526354794881e-01,1.504733943897045012e-02,8.975109892594385769e-03,8.912904105454498571e-03,4.744296520948410034e-02
-3.284586570339619316e-01,-4.566258934413252035e-01,-4.561143087416371644e-01,6.067164151204818522e-03,5.571059084847902743e-03,-3.279951809567806264e-05,1.287053972482681274e-01
-3.657481907784176367e-01,-4.637858607973996961e-01,-4.609204591855546318e-01,5.301694137087407423e-03,-5.124133445454480060e-03,-2.826680813487622568e-03,9.759990870952606201e-02
-2.511610717727801867e-01,-5.065407811994977472e-01,-5.963905471056074603e-01,4.646009615227734979e-02,9.146683093018043165e-02,2.499719133453835295e-03,3.575339019298553467e-01
-2.183615395233459433e-01,-3.907571376403459196e-01,-4.515438781256383427e-01,1.153974561809228971e-01,3.078221904385019733e-02,1.337739378874088468e-02,2.953368425369262695e-01
-2.956053732717329185e-01,-4.481367277464639587e-01,-4.671386840770168636e-01,1.701919492706925885e-01,1.365918212446649016e-01,1.012044106533101784e-01,4.473479092121124268e-01
-4.147458472853948752e-01,-4.166076073985385819e-01,-4.405533938716670872e-01,6.386586132226888812e-03,6.279297332880156256e-03,6.080238804683725864e-03,3.119311109185218811e-02
-3.925023983619352341e-01,-3.967397904794709440e-01,-4.394817265954933383e-01,6.961704834781311767e-03,1.571779821780600311e-03,3.600963216393286530e-03,4.709194600582122803e-02
-4.080498458316618171e-01,-4.019633776525795010e-01,-4.353343979791256535e-01,4.275725196421845120e-03,5.184475807021311777e-03,2.536428006187247623e-03,3.320151567459106445e-02
-4.114405162605194177e-01,-4.072479032193325188e-01,-4.437562335097605115e-01,9.841858760363032289e-04,2.786803435574728219e-03,1.656586828073941704e-03,3.509712964296340942e-02
-3.947330247387245694e-01,-4.616818421837732833e-01,-4.593714849369037179e-01,-1.227575525673598247e-02,7.276924826413579649e-03,-6.140627860990197605e-03,7.111168652772903442e-02
-4.053265105287478520e-01,-4.063914881684951297e-01,-4.472839005655888656e-01,7.106688034311180961e-04,1.009505043391070635e-03,2.430820820893036475e-03,4.170338436961174011e-02
-3.044973027680326072e-01,-4.527528910828744757e-01,-4.605874392833920195e-01,6.102497465694762396e-03,-8.461161627467855047e-04,-2.368592219441631192e-03,1.527524590492248535e-01
-4.055398899924826939e-01,-7.287017064228600294e-01,-7.365449055610517881e-01,-1.033180468320528678e-01,1.994510135120966185e-02,-6.153038811136208458e-02,3.893647789955139160e-01
-3.971820653563958303e-01,-4.541262830569128273e-01,-4.709541163558057519e-01,-1.684147902958049031e-02,-4.026807528854357311e-03,-3.760971861511719925e-04,7.337604463100433350e-02
-4.356620788403600120e-01,-4.320779230302802532e-01,-4.305797885958526638e-01,-1.982308001475764289e-03,-7.543145537238686929e-04,8.230447739522022289e-04,5.998995155096054077e-03
-7.208264400120439896e-01,-4.360311145806260447e-01,-4.703629867018855326e-01,7.831650963162241699e-03,3.108738601859185099e-03,1.962948210974787555e-01,4.339556097984313965e-01
-4.058559289221841393e-01,-4.041417343101711968e-01,-4.399370069854178777e-01,6.949007145071536698e-04,1.271606331577821618e-03,1.720891121404974182e-03,3.518613427877426147e-02
-4.441244145405277011e-01,-4.208681538628719632e-01,-4.112963009656964708e-01,-2.306558869484704941e-03,-5.170547024136390533e-04,3.287652294410164499e-03,3.007105179131031036e-02
-3.883141302054823329e-01,-4.051198860983554750e-01,-3.924520247577942822e-01,1.401859371668047645e-02,1.079657115663401959e-02,1.274764221695878601e-02,4.070359840989112854e-02
-5.134848299066393507e-01,-4.649487108040081251e-01,-3.863289128306209852e-01,-1.201385578971122942e-01,-7.787050853542842876e-02,1.407058338506361472e-01,3.650183379650115967e-01
-4.301369409783785680e-01,-4.395405996750321731e-01,-4.261451567490016079e-01,1.454288815519341705e-03,-2.806027728190835322e-03,-2.749760224451427894e-03,1.394812855869531631e-02
-4.443345559033689551e-01,-4.373549146411163102e-01,-4.298766968602962257e-01,1.334188257245302140e-03,-9.360621758349699402e-04,-6.724920601162362194e-04,1.289030443876981735e-02
-4.074653618399630695e-01,-4.208345771824968939e-01,-4.012431949088653971e-01,4.783094999778738851e-03,3.489379029571681393e-03,2.188669775196480649e-03,2.049802243709564209e-02
-4.446414608734650109e-01,-3.841365072375229062e-01,-4.034600039222437373e-01,4.048882232644527082e-03,1.963840686942299602e-03,1.103951381693748894e-02,5.737109482288360596e-02
-4.111896865079743280e-01,-4.218758594793151628e-01,-4.098978166274160895e-01,7.854454255438752044e-03,6.260276535875049578e-03,8.041914807237659363e-03,2.502670697867870331e-02
-4.453986590759131392e-01,-4.278831166001066388e-01,-4.382029480425537749e-01,-1.373239281188461895e-03,4.210354668084073659e-03,-1.928998666275251461e-03,1.739360392093658447e-02
-4.075022984829582140e-01,-4.206886756140487682e-01,-4.096272000001616731e-01,3.753602519641908043e-03,5.889319157019902787e-03,4.712042224473010979e-03,1.906060986220836639e-02
-4.106641540494316289e-01,-4.254152159305708003e-01,-4.113129466737218687e-01,9.420281323782289575e-04,9.748937274841013934e-04,2.946919539597229847e-03,1.549228467047214508e-02
-4.332571245484126976e-01,-4.369865192198835735e-01,-4.404309890070164379e-01,-8.688134413377104816e-04,-3.534780092499690586e-03,2.250319246885823174e-04,8.861093781888484955e-03
-4.134260607610110161e-01,-4.329369981701239323e-01,-4.075217432069885293e-01,1.015059798803157531e-03,2.212466497038626141e-03,1.813734101665149395e-03,2.363009378314018250e-02
-4.076521045781255626e-01,-4.354973581384451453e-01,-4.032418344111812769e-01,2.551825386567798358e-03,9.889994127824639804e-04,5.283091202218887861e-04,3.067443333566188812e-02
-4.591133997677575573e-01,-5.406209762609626157e-01,-6.140223300598557366e-01,-9.880128839051328937e-02,-1.192982345338004617e-02,1.132248861320726656e-02,2.193414121866226196e-01
-3.747608645677891204e-01,-4.585376653889371434e-01,-4.555045978433365228e-01,2.464516371724023713e-02,2.392886778673140868e-02,1.028860027595978471e-02,1.031074300408363342e-01
-4.452068462836538121e-01,-4.345454427349023097e-01,-4.294350192665554178e-01,-2.926714300371145890e-03,9.899988349661669167e-04,-1.207560431640222363e-03,1.507574599236249924e-02
-4.136726032893007776e-01,-4.331089766283219289e-01,-4.527143779340552232e-01,-6.703390629180619974e-03,-4.006672863428834691e-03,4.830681109513341835e-03,3.736542910337448120e-02
-4.267912725788627348e-01,-4.388969108237978922e-01,-4.503909252756856385e-01,-2.332463599979006479e-03,-9.173188483020433851e-04,3.813275648846248950e-03,2.191506326198577881e-02
-4.403161519530971457e-01,-4.353429117532022219e-01,-4.574701746647817924e-01,-6.651009685197005299e-03,-4.594076125141922755e-03,2.580493363574808390e-03,2.490594238042831421e-02
-4.330816822461898141e-01,-4.350299227783650524e-01,-4.584887700502788821e-01,-1.238026408999693372e-02,-3.619823731180477587e-03,3.779272734098240933e-04,3.315670788288116455e-02
-4.432989737257337359e-01,-4.066634554606257113e-01,-4.381378926960461384e-01,-1.445548322885496784e-02,-9.372937391326458673e-03,1.249548378094063328e-02,5.038421601057052612e-02
-4.414480559208949773e-01,-3.129842880807183758e-01,-4.428366148015908665e-01,-1.132588262121123068e-02,-6.669274440351248730e-03,2.617779261159767709e-02,1.387708336114883423e-01
-3.923751224483243982e-01,-3.101001816707693592e-01,-3.466873263386570092e-01,-9.696857255204749393e-02,-7.776618729680895292e-02,8.989259730755717881e-02,2.751201093196868896e-01
-3.670946567439440922e-01,-5.981290674283197273e-01,-4.035885445456109943e-01,2.091534180593876760e-02,1.870441899637433070e-01,2.028069744306117486e-02,3.921482264995574951e-01
-4.360108108513878200e-01,-4.262389132339884923e-01,-4.184646325653290089e-01,-3.495657679851036682e-03,-1.413443657054427698e-03,1.896078872966946820e-03,1.689190790057182312e-02
-4.240381459852125001e-01,-4.271789343742193878e-01,-4.489657659064399398e-01,-5.673413159372336055e-03,-2.882071521671507146e-03,2.932468279980451290e-03,2.646201848983764648e-02
-3.687940800627216298e-01,-3.861102067012257555e-01,-4.198207501690390808e-01,5.292526617499800079e-02,3.629425415764022528e-02,2.692952035365514529e-02,1.286493390798568726e-01
-3.687088882025569836e-01,-5.035275357805854002e-01,-4.797022154140700434e-01,-3.520991728796224463e-02,2.686032191210745851e-02,2.363461013838039082e-03,1.463967859745025635e-01
-4.471470743084037802e-01,-4.189064259468936458e-01,-4.534793895313168899e-01,-2.967916490609110326e-03,4.425782645226541967e-03,-1.735195812458192226e-03,3.332689777016639709e-02
-4.508149429849528378e-01,-4.197808440730100288e-01,-4.465318998583052701e-01,-4.052647738393802199e-03,5.811846534112907400e-03,-3.034140742670195581e-03,3.204312548041343689e-02
-3.590288262812103004e-01,-4.517298016317205511e-01,-4.291112644125208986e-01,-5.789602578838860120e-04,1.685788892053775509e-02,-2.597611636876810941e-03,8.878131955862045288e-02
-2.897151053898529560e-01,-4.735891279385752717e-01,-4.833612919384632223e-01,3.984394621934739429e-03,1.729013251855895938e-02,8.561517811826359001e-03,1.920061707496643066e-01
-3.808120121309381267e-01,-5.468009885628005717e-01,-5.398149824168568811e-01,-2.591131463723714626e-02,-1.916190076357430355e-02,-1.333435534719615637e-02,1.734666675329208374e-01
-2.084219292723505090e-01,-4.689694697322078221e-01,-4.754654244361171123e-01,3.190318303543971355e-03,2.238576261661179290e-02,-5.919951688603602644e-03,2.669433653354644775e-01
-4.292079418381775646e-01,-4.467742206957350248e-01,-4.369509109295313110e-01,-2.858935891583699613e-03,-2.367686852902220560e-03,2.978690490795934259e-03,1.733403466641902924e-02
-3.048142107664167932e-01,-6.019153915252334341e-01,-6.480532482093239732e-01,1.999848277614058381e-02,5.266059152721101061e-02,-4.287623298531090948e-02,3.451662957668304443e-01
-4.562376512696009190e-01,-4.568808413873956531e-01,-4.030150027889606856e-01,-4.376534982279968802e-03,4.492038123517248793e-03,-2.169840958900053247e-03,5.476694554090499878e-02
-3.984880533366882971e-01,-4.588949137008240808e-01,-4.508806731298934944e-01,-1.309430833292620335e-03,-1.256756068148861573e-02,2.724911106887915185e-03,6.107660382986068726e-02
-4.166801219266887957e-01,-4.552330568199801641e-01,-3.973502216291353584e-01,3.542362595801444060e-03,6.204437137830274250e-03,1.715420947599511118e-04,5.252062901854515076e-02
-1.678825425407531602e-01,-4.326876059183971668e-01,-3.686766989303347231e-01,2.216961660134222911e-02,1.000904747671400308e-01,-1.131605176290283957e-03,2.979955375194549561e-01
-3.448074302888765597e-01,-5.138222525796740658e-01,-5.104411858929241985e-01,9.646780222934267165e-03,2.340169297399992757e-02,-1.629581881074014180e-02,1.752847731113433838e-01
-4.297242210408005469e-01,-4.325580391895075816e-01,-4.300183583382644059e-01,-8.244910503569859465e-04,-1.059719496114483597e-04,-8.340278183822534466e-04,3.382804105058312416e-03
-4.329680201517182581e-01,-4.364363391359415423e-01,-4.382797356027267055e-01,-8.374064320052128103e-04,-2.000445638153690482e-03,-7.705028299799063663e-04,6.140924524515867233e-03
-4.270195555708609092e-01,-4.393758930373890537e-01,-4.327211941567881692e-01,-2.159458562826074759e-03,-1.872972224370835371e-03,1.047388786716198054e-03,1.193906646221876144e-02
-4.276199449163821664e-01,-4.386096577401231156e-01,-4.345899677304316255e-01,-2.291116634476187894e-03,-1.247787608872012255e-03,1.144710080700094565e-03,1.082155760377645493e-02
-4.665417925866939264e-01,-4.315475811143414386e-01,-4.415415290162365558e-01,-1.706183953103219617e-02,7.011201138684663471e-03,-3.885385176826855469e-02,8.077374845743179321e-02
-4.282226417989711820e-01,-4.349803394032880077e-01,-4.185736714558844218e-01,-5.716828728289770692e-03,-4.631350356236158851e-03,2.025687160712448531e-03,1.945967040956020355e-02
-4.320402596052046462e-01,-4.413606186708367574e-01,-4.336075058271369742e-01,-3.926020011785573069e-03,-1.539145704960891755e-03,1.656706293759088700e-04,1.132025662809610367e-02
-4.258257815184106065e-01,-4.333562173544731055e-01,-4.353996387066370044e-01,-7.816642151218045412e-04,-1.141079013049392217e-03,1.546842383254681992e-03,9.443951770663261414e-03
-4.365809624650740517e-01,-4.345138012760350055e-01,-4.306934989699789385e-01,-3.129089336124511300e-03,-1.297863265819216910e-03,1.213944163358266154e-03,8.100183680653572083e-03
-4.140657450938452500e-01,-4.154840823081674128e-01,-4.160012077981177225e-01,-8.704380722855141798e-05,8.067318871433253654e-04,1.620537305501835274e-05,2.233500359579920769e-03
-4.311249302776712922e-01,-4.346125308201351789e-01,-4.325103295135910852e-01,-2.122847231760835104e-03,-1.143804352491519048e-03,1.047163382239240384e-04,5.169929470866918564e-03
-4.393253450874349264e-01,-4.342645470616505188e-01,-4.307596087313911859e-01,1.152968479736892881e-03,-2.182151378123682334e-03,-1.527769539471747007e-03,8.994979783892631531e-03
-3.761219450356080851e-01,-2.593766759756094831e-01,-3.822077651256152175e-01,1.050963772236687410e-01,5.959683908439347005e-02,1.050602374774569081e-01,3.021275103092193604e-01
-4.284289787875975586e-01,-4.375405874359513669e-01,-4.495658335700283836e-01,-1.514364173514816912e-03,-1.219523508479737400e-03,5.027905542966223246e-03,2.060044743120670319e-02
-4.291458593510910635e-01,-4.374160321780330984e-01,-4.392079048046945156e-01,-3.438960712247926673e-04,-6.658484764232350901e-04,1.272150053437660325e-04,9.389306418597698212e-03
-3.716015003798238125e-01,-3.027425488125919939e-01,-3.224528359537669475e-01,9.785118743258382212e-02,7.927874597830175674e-02,1.291034538397534126e-01,3.183643221855163574e-01
-4.300534936910082040e-01,-3.456399894795236238e-01,-4.873944898524344427e-01,7.238499467104310414e-02,1.359505509530208045e-02,4.964071739629476870e-02,1.972810775041580200e-01
-5.524645407318528045e-01,-4.076472864491395010e-01,-5.990335304490864710e-01,-1.521356668066247420e-01,-1.324104597831594343e-01,3.382292537143711392e-02,3.941447138786315918e-01
-4.322896393745909727e-01,-3.698962807015234167e-01,-4.651772435602357647e-01,2.630415763431498410e-02,9.446491428719581973e-03,8.729467727433413288e-03,9.797213226556777954e-02
-4.287444291447074507e-01,-4.457120272643222414e-01,-4.373152518597068217e-01,-9.350776325014773871e-04,-7.585310354055655293e-04,5.641769798741645562e-04,1.487401127815246582e-02
-4.270853231979055420e-01,-4.364970127875029693e-01,-4.121946348656703729e-01,-5.374266076813481730e-03,-4.855237251562382131e-03,4.310351506921833963e-03,2.575974725186824799e-02
-4.302107058854507948e-01,-4.388347304348475530e-01,-4.200142587873359479e-01,-4.792377475123723793e-03,-4.955457975458672955e-03,1.991904971317508700e-03,2.051217108964920044e-02
-3.584690955455614447e-01,-4.277236024795101899e-01,-4.498925320908147008e-01,1.502676787271634354e-02,4.733941562680960176e-03,5.899810277595068583e-03,8.759001642465591431e-02
-4.276830317111310897e-01,-4.429471055619860764e-01,-4.291767482007043388e-01,-5.001931147070243396e-03,-4.627519537761461306e-03,5.026120736195217008e-03,2.067627571523189545e-02
-4.259445427523629868e-01,-4.420481735213394603e-01,-4.362338625879331189e-01,-1.085042603629868783e-03,-9.496867492406288903e-04,2.146252250909191830e-03,1.481750607490539551e-02
-4.290045254299141297e-01,-4.443152922940942773e-01,-4.349386946821316435e-01,-7.963237849837846109e-04,-7.140827832295673552e-04,3.091160253011821695e-04,1.350911054760217667e-02
-1.503614368178537442e-01,-4.008147230492499213e-01,-3.027287168302187914e-01,2.659171026424343286e-03,1.346922556016756922e-01,-3.345553619471710281e-03,3.197851777076721191e-01
-4.906763405315782145e-01,-3.718810485736159244e-01,-4.519769157639812462e-01,-3.740757595604737862e-02,-2.064660129671214844e-02,3.734035016298736104e-02,1.437789648771286011e-01
-3.703461420526335535e-01,-4.449564004006750784e-01,-3.341701836207633391e-01,-7.081838962318886491e-04,7.531795979874135460e-02,7.597183332315300686e-03,1.636078506708145142e-01
-4.721595710027876036e-01,-3.358545448183921645e-01,-4.724479737158431836e-01,-4.207770084534359113e-03,-1.763378233921237322e-03,4.794346051319777098e-03,1.369301080703735352e-01
-3.976339781995994471e-01,-4.504755360263297259e-01,-3.981934046514142844e-01,-1.658415865264137139e-03,1.615730205219198870e-02,-2.518891320037234659e-03,5.977828055620193481e-02
-4.122408281452556444e-01,-4.110664365824553412e-01,-4.086571361711979211e-01,3.311453811131397952e-03,1.401080371973764801e-03,1.515200605300021227e-03,7.462381850928068161e-03
-4.108760969654416950e-01,-4.050715110455709866e-01,-4.301699033099632419e-01,1.760762670175209299e-03,4.897418837773863907e-03,3.008254337231813791e-03,2.502679638564586639e-02
-3.982787674264859357e-01,-4.362182229564772751e-01,-5.234688232211046621e-01,9.426046292998158105e-02,2.472613139805006702e-02,2.895298506223829491e-02,2.082459777593612671e-01
-4.375778056988980924e-01,-4.354161228043659237e-01,-4.311279475856850119e-01,6.777111187575776685e-04,-1.905813268741099811e-03,-1.133018957757991581e-03,6.961065810173749924e-03
-4.518260239820660606e-01,-3.241792814392305822e-01,-4.278266633676657826e-01,2.119991612561111533e-03,6.858905501028393429e-06,4.243542657780741134e-02,1.386434286832809448e-01
-4.572031384832919709e-01,-3.610754685225788241e-01,-4.372902039510925820e-01,5.409822503460151068e-03,1.062187397487801728e-02,2.209684280831647127e-02,9.805076569318771362e-02
-4.959131904295786542e-01,-4.065803249704890709e-01,-4.588501120402204148e-01,3.115850467643700109e-03,2.359342866624922382e-03,3.563687130039300960e-02,9.949304908514022827e-02
-4.421024005227750520e-01,-3.713709427997076151e-01,-4.385389786390292421e-01,-1.214281709790961984e-02,-7.635532666100558821e-03,1.697205428293131063e-02,7.902525365352630615e-02
-4.411772075643424773e-01,-4.302992534978334893e-01,-4.618716337432424157e-01,-2.818568295949024863e-03,-8.164480474894470537e-04,-5.646654346577645355e-04,2.825759164988994598e-02
-4.342634330127099207e-01,-4.187421760252050262e-01,-4.527539698261033863e-01,-4.472963550450403947e-03,2.247910771591504439e-04,-1.388736655213388543e-03,3.059028089046478271e-02
-1.282327172600894460e-01,-4.895562300030509295e-01,-4.644622025728945003e-01,-1.235026970050169710e-02,5.236612827205153198e-03,1.168330654895636395e-02,3.508086204528808594e-01
-4.530133900492614440e-01,-2.959190850083367463e-01,-4.516090457917885104e-01,2.197073398294526608e-02,9.852093565644590763e-04,3.275926350677037940e-02,1.706767082214355469e-01
-3.753927201915612244e-01,-4.532389217143856786e-01,-4.351657524198788707e-01,-1.238142480696600121e-02,2.825365907246503439e-02,-3.819485129211127108e-03,8.875931054353713989e-02
-4.251384762323511812e-01,-4.206704560112244917e-01,-4.425632668508586165e-01,3.592463215828509311e-03,-2.909827182266185898e-03,-1.894382012065336154e-03,2.182488329708576202e-02
-4.178524026579030215e-01,-4.330927136291113921e-01,-4.502561958548166876e-01,1.902298271391025721e-03,-6.655887873312453908e-04,-4.139320319288906230e-03,2.918931655585765839e-02
-3.425560693197846063e-01,-6.319260282485478220e-01,-5.402013202252189394e-01,-5.995651790209095139e-02,1.469884149504075421e-01,-9.182689996101126018e-02,4.080486297607421875e-01
-4.341129254719149344e-01,-4.319513193307154553e-01,-4.553685937376848458e-01,-4.445691308984733511e-03,6.853193059125110235e-04,-5.565378979793649808e-04,2.374980039894580841e-02
-1.711880671932741182e-01,-4.336716570661278136e-01,-3.858789493751161315e-01,1.142634972136080153e-02,1.091674809086678882e-01,-7.786946472594372809e-03,3.081609904766082764e-01
-4.117176052895341054e-01,-4.103944501263596667e-01,-4.197895263439017088e-01,-6.006739092861471639e-04,1.017820895928920905e-03,7.335808727138154461e-04,9.131910279393196106e-03
-1.922289274911435086e-01,-4.399796004149689743e-01,-4.329787945357206347e-01,-1.038340698534973711e-02,4.659071471690263977e-02,-1.651781392043716323e-02,2.595168650150299072e-01
-2.594125144690634377e-01,-4.666847308715602050e-01,-3.522542771136308315e-01,-1.647386769831340331e-02,1.218001296853334636e-01,-3.018087675589498087e-02,2.835321426391601562e-01
-5.110583172899191284e-01,-5.210303279121483166e-01,-4.934348952231044638e-01,-5.988517459614022681e-02,-6.802088069404060855e-02,3.576365784448572865e-02,1.704761236906051636e-01
-4.636529117921873167e-01,-4.671805092048778585e-01,-4.148503548613803882e-01,-1.208756998748456227e-02,-1.826893964841234258e-02,1.285647279999310895e-02,6.709505617618560791e-02
-5.024936026964073044e-01,-5.057287005047792494e-01,-4.854816182596252139e-01,-4.547613231539419931e-02,-6.537275502709502528e-02,3.319536788673504990e-02,1.506178379058837891e-01
-4.384521754712442654e-01,-4.143230236996003901e-01,-3.542142317323015432e-01,-1.138666834511619687e-02,-1.493196271232021845e-02,3.584559150683227363e-02,1.027532741427421570e-01
-4.513022265290193014e-01,-4.488701426970701513e-01,-4.038960902968820044e-01,-9.924534490873717155e-03,-1.194269620890725699e-02,7.838557903962917878e-03,5.518752709031105042e-02
-4.667697428479453126e-01,-4.497008182628905448e-01,-4.004561686497235540e-01,-9.882696397195861113e-03,-1.189753676775588860e-02,2.208361611671051661e-02,7.574729621410369873e-02
-4.417752314537443104e-01,-4.645126687284708566e-01,-3.953152402354144224e-01,1.040434190369798374e-02,-2.828899084878888984e-02,-1.267946078945274974e-02,8.330523222684860229e-02
-4.785919368528669948e-01,-7.772865836168092457e-01,-7.827891262370811898e-01,-1.171373080355305324e-01,-1.003589781199942799e-01,-2.625229446719374096e-02,4.053876101970672607e-01
-3.582628907318213263e-01,-4.626885912607853757e-01,-4.629162588951152291e-01,1.058230680179835697e-03,1.123338059750666204e-03,-1.183399714627523516e-03,1.045939773321151733e-01
-4.193762375936680442e-01,-4.500196025460154181e-01,-4.588450913997015324e-01,-4.307374521868900623e-03,-2.284374967958175892e-03,3.224972016589446825e-03,3.728088736534118652e-02
-4.147595922500569299e-01,-4.164360335905147870e-01,-4.228147887791295356e-01,-8.160271914172133366e-04,1.018082606473271140e-03,2.208220892130323063e-03,8.598167449235916138e-03
-4.280219610726740398e-01,-4.398748487833736287e-01,-4.564437492127073615e-01,-1.914881419650118913e-03,-1.294535676898327624e-03,2.333777206457226736e-03,2.537274174392223358e-02
-4.647736078310716334e-01,-4.540109759211732321e-01,-3.659652815260488468e-01,-7.660994074487670119e-04,8.490869976196647019e-04,4.524535923914053438e-03,9.423810243606567383e-02
-4.057429716171740419e-01,-7.385134283676855205e-01,-5.667539679343174264e-01,-2.839444028541097953e-02,-1.332504895117044563e-01,-9.444133536304578913e-02,4.068468213081359863e-01
-3.978313024831712785e-01,-4.115446960987662606e-01,-4.414419802774914303e-01,-2.447848327999391227e-02,-9.589053691866250215e-03,9.155276355943407079e-03,6.178020313382148743e-02
-4.215820164065008369e-01,-4.433086418146229835e-01,-4.288109388367554176e-01,-6.132713560737468534e-04,-3.114591685225374593e-03,2.491282597576901636e-03,2.039836533367633820e-02
-4.253506539892136784e-01,-4.423118533640497119e-01,-4.204060187753139721e-01,-3.377549770036901520e-03,1.751520412339864843e-03,-1.675918886497275743e-03,2.116250805556774139e-02
-3.206152030052406565e-01,-5.013293410949094531e-01,-4.770889278033755287e-01,1.601541020378815031e-02,1.853174380746829344e-02,-8.823262948589937621e-03,1.757780313491821289e-01
-4.337271407375765109e-01,-4.125857114109097168e-01,-4.533146416961851832e-01,-7.611286703548371564e-03,-1.806538636790139827e-03,3.494927620814663126e-04,3.779801726341247559e-02
-4.333462653215649496e-01,-4.380376659869648082e-01,-4.276041121731832817e-01,8.896916802035172156e-02,8.656498585441785298e-02,8.230456305727520960e-02,2.581299543380737305e-01
-4.031870872454019206e-01,-4.133226167605695278e-01,-4.292864482392146352e-01,2.371736259866271453e-03,2.694192977845501387e-03,7.702639626464579704e-03,2.712965384125709534e-02
-4.503351883774582842e-01,-4.150351824443733184e-01,-3.954834712417681364e-01,1.766981282323206587e-02,1.889497239077939789e-02,3.354594417717053634e-02,8.776248246431350708e-02
-4.396415966032223288e-01,-5.948065337609508285e-01,-4.088614261018891360e-01,6.211380841113963575e-02,1.828090263257150516e-01,7.066207477499464318e-02,3.957407772541046143e-01
-4.235166752218951780e-01,-4.241559714551013105e-01,-3.815378417580224668e-01,9.269225592979962736e-03,5.127592686023732874e-03,4.343660556738077570e-03,4.671940207481384277e-02
-4.457665986394540591e-01,-3.665072695774562184e-01,-4.307319873932584642e-01,2.426095119162593062e-03,6.684051741389550327e-03,1.267791882316651741e-02,7.713834196329116821e-02
-3.790100166617410005e-01,-4.487489100283291732e-01,-4.048474555928067709e-01,8.947933822662638460e-04,1.293365115404477086e-02,3.906345989854181563e-03,6.541582942008972168e-02
-4.998893305791790587e-01,-5.501746368765714212e-01,-3.484720316005608387e-01,4.770467510001407015e-03,-4.589994384702489327e-02,-5.849049934732161032e-02,2.229842543601989746e-01
-4.433596841210739048e-01,-4.544834595237748909e-01,-4.161913324263907810e-01,-7.927012473711829085e-03,4.262338659100238861e-03,-3.636199594506821058e-03,3.803621232509613037e-02
-4.368371356816975193e-01,-4.374016987821083835e-01,-4.258946084484957484e-01,3.341138003929189880e-03,-9.016014855829337015e-04,-8.212586524477849840e-04,1.281354948878288269e-02
-4.371044014015659229e-01,-4.385381835052944433e-01,-4.280970359034729777e-01,1.747201635547651925e-03,-1.019983746876496761e-03,-6.170693278588674797e-04,1.046539656817913055e-02
-4.024991320615016188e-01,-3.724530337431254390e-01,-4.436405503447604648e-01,1.493289276912973876e-02,-9.411017763965767637e-04,-1.124369433396030525e-04,6.710582971572875977e-02
-6.114200625567683955e-01,-5.255349715403098143e-01,-4.767999205226751691e-01,-3.841619726665782691e-02,-1.533419150027643674e-01,1.657151616602306129e-02,2.995487451553344727e-01
-4.678629339864832648e-01,-4.732730769521301117e-01,-4.049930925114466618e-01,-6.468045075445405523e-03,-1.700172454607795300e-02,6.241391363767957376e-03,7.369917631149291992e-02
-4.556525645656433476e-01,-4.633270907615726908e-01,-4.039254397028430033e-01,1.397933669747018770e-03,-1.008580193982153671e-02,-1.664268599237835999e-03,5.874450877308845520e-02
-4.153958772090763363e-01,-4.138765561333304088e-01,-4.176659397075683788e-01,5.265186921416896816e-04,1.149961615580983015e-03,1.560341430800633313e-04,3.972708713263273239e-03
-4.294590837302877384e-01,-4.435999876564991062e-01,-4.269279468352221163e-01,-7.557804823485141620e-03,-1.033525896949312288e-02,6.300536283954773567e-03,2.920733951032161713e-02
-1.915783217769921887e-01,-4.009431952240583574e-01,-4.249721497110776069e-01,7.488473465828573983e-02,-2.792333797783726548e-02,-2.330064657487743163e-02,2.650149464607238770e-01
-2.641456938804002674e-01,-3.973074681630616167e-01,-2.998043750841341559e-01,-1.447259880195755563e-02,-1.020494110802549759e-01,5.423103517079208742e-03,2.149745821952819824e-01
-3.857513071829742346e-01,-3.761259454670098368e-01,-4.051001156298363326e-01,4.164922705825533505e-02,-3.459665100544366545e-02,-3.513837632236053998e-02,1.146827712655067444e-01
-4.493580624918313005e-01,-6.917397044577289211e-01,-4.683046001004733117e-01,1.749770352055080372e-02,-1.476928724045750430e-01,-1.565040202417611603e-01,4.408561289310455322e-01
-4.067046503303056726e-01,-4.028429183133542257e-01,-4.198683223632835304e-01,2.108882079001482297e-03,4.772767502765130551e-03,3.312156862417423627e-03,1.880481466650962830e-02
-4.331214300291035824e-01,-4.543533650812606184e-01,-4.176844496330084366e-01,7.997090150844996317e-03,-1.203705480492722225e-02,-6.509343196653166741e-03,4.207730293273925781e-02
-4.183196374615473778e-01,-4.536591307332689116e-01,-4.367351718763774482e-01,1.847171880357023968e-02,-3.704379509914200452e-02,-1.983116629041994233e-02,8.519027382135391235e-02
-5.135577577158981777e-01,-5.347969617610046633e-01,-4.745175316440349289e-01,1.001282961500526113e-02,-5.859782600103027872e-02,-2.604453409722253324e-02,1.242628917098045349e-01
-4.088930148778139873e-01,-4.110079155763731729e-01,-4.175434704616792225e-01,7.996107969615999815e-04,2.749210024156917547e-03,1.742514712815561046e-03,9.731906466186046600e-03
-4.089241236678047842e-01,-4.070197606757733899e-01,-4.215430225316036394e-01,4.193249337588761546e-04,2.352020777666230696e-03,1.803030259612140333e-03,1.462088990956544876e-02
-4.761289934645039912e-01,-4.222290312911384791e-01,-4.138320606058163431e-01,-2.831477420125930872e-02,-3.080651522958698443e-02,7.618692061996738818e-02,1.615362316370010376e-01
-4.558498169264036948e-01,-4.192830995017662321e-01,-4.127509025883124294e-01,-2.276471700672168252e-03,-3.495502408941920849e-03,1.899386289174265913e-02,5.247054994106292725e-02
-4.322897537516302569e-01,-4.409467763788713635e-01,-4.347769030474074037e-01,-3.412681876524945382e-03,-1.020770134983824086e-03,4.068783532408204543e-05,9.882748126983642578e-03
-4.280124797177343177e-01,-4.360655353812986634e-01,-4.393774619551465976e-01,0.000000000000000000e+00,-7.767975536677380367e-04,8.761809417383188952e-04,1.032497081905603409e-02
-3.999590117569830072e-01,-4.714035098726202522e-01,-4.480563539028017406e-01,-1.042893185150320090e-01,-9.079744400159013573e-02,4.366342946996234348e-02,2.589636743068695068e-01
-4.508833179521130607e-01,-4.280745413753888062e-01,-3.451474319794254897e-01,-6.859689142661860167e-03,-4.074267938027571756e-03,3.973659739779915323e-02,1.192332506179809570e-01
-4.184192026326114533e-01,-4.164043001934569221e-01,-4.240978726083898254e-01,1.754449913011931839e-03,1.433637048728476741e-04,2.011116029469419385e-03,8.317379280924797058e-03
-4.433490635699904314e-01,-4.416944699003362840e-01,-4.639775564477907066e-01,-8.619862343784496367e-03,-6.103398838005385033e-03,9.179124381830773907e-03,3.240113705396652222e-02
-4.018148564831043323e-01,-4.580598607273866363e-01,-4.227827397019465749e-01,3.034926606566731595e-03,2.095545168218813925e-02,2.769710945408670501e-03,6.157802417874336243e-02
-3.950057643472650870e-01,-4.537517872767825033e-01,-4.143453649330334776e-01,4.990887073848452151e-04,5.659559330017925084e-03,-9.580793100503188879e-04,5.280704051256179810e-02
-3.946580541267287745e-01,-4.494700140598928972e-01,-4.177988827533071770e-01,1.192162415441652083e-03,6.314386809849248383e-03,-1.113288626274762990e-03,4.898010939359664917e-02
-3.861847006732824772e-01,-7.417585323536276531e-01,-5.402883394194287758e-01,-7.875608132187265908e-02,1.716384887626193623e-01,-7.501945268644999443e-02,4.682478904724121094e-01
-4.563216715230133946e-01,-4.294484369953855962e-01,-4.587858936523063202e-01,-3.690746796230439525e-02,-1.218348219927810165e-02,3.557058595786928568e-02,9.550947695970535278e-02
-3.608474963338510477e-01,-4.795463232699047618e-01,-4.861907258833080836e-01,3.257379971164733184e-02,-7.733324142984495525e-03,-1.662070693731143578e-02,1.382517814636230469e-01
-4.071569099770895317e-01,-4.504166512498605224e-01,-4.138809629302389603e-01,5.593380371672308175e-04,3.456717328241903486e-03,3.894870461491515504e-04,4.077962413430213928e-02
-4.701458009079563793e-01,-3.663367887589207839e-01,-4.525627181592642989e-01,-1.310802357726899292e-02,-1.864950560187327933e-03,1.216111161466619343e-02,1.011423096060752869e-01
-3.969018712298130747e-01,-4.453493734762315470e-01,-4.039614764364286570e-01,9.270351878654239453e-05,5.410009618607249104e-03,1.368333687297920568e-04,4.629108682274818420e-02
-3.916576148932341961e-01,-4.629695638734519503e-01,-4.429771664573078360e-01,1.664799787526917820e-03,1.139801363087066324e-02,-3.329081660128575294e-03,6.701269000768661499e-02
-4.232860026050467850e-01,-4.381529169751642305e-01,-4.371288277071551653e-01,-1.172340398157822481e-03,-9.430773581245239156e-04,2.967912284104899830e-03,1.549405325204133987e-02
-4.438864645877808601e-01,-3.974229094428813891e-01,-4.005423139983643188e-01,-3.153554201555253643e-03,-3.403451486854504240e-03,1.246076266506142109e-02,5.053761973977088928e-02
-4.556915418166825882e-01,-3.604671655372025385e-01,-4.538294998918471768e-01,-8.850527054922188719e-03,-6.699480031903141432e-03,3.506161816653337662e-03,9.643837809562683105e-02
-4.166171961394042333e-01,-4.562576610062912263e-01,-3.836215383277061797e-01,4.438214103579826361e-03,8.643962731603649016e-03,6.821414885448012257e-04,6.521262228488922119e-02
-4.264833122029783596e-01,-4.332738388100079718e-01,-4.395666179546291463e-01,-1.132503479135146037e-03,-1.492695192896455365e-03,1.556585442161742853e-03,1.209308020770549774e-02
-4.523814381827536146e-01,-3.888275416281140595e-01,-4.498904201943378367e-01,-1.815018727781029075e-03,-2.506680122897043516e-03,4.762981589386653530e-03,6.311719119548797607e-02
-4.518789321251950875e-01,-4.017649836696498555e-01,-4.421525785526642660e-01,-9.837037790953169145e-03,-5.977852313557103538e-03,1.004485413930763377e-02,5.309225246310234070e-02
-4.293521432686301376e-01,-4.481947714960921592e-01,-4.351825574667784191e-01,2.402685199342439310e-04,-2.853370696615294025e-04,1.279869078602207094e-03,1.686741411685943604e-02
-4.156099077109682849e-01,-4.034124558556812512e-01,-4.156263169595132423e-01,-1.085307291382529328e-02,-9.448374990361817563e-03,1.265254757929168590e-02,3.536130860447883606e-02
-4.253641710810624477e-01,-4.401757136254743630e-01,-4.359621018280966931e-01,-1.117864305144702789e-03,-1.187850804538233621e-03,2.483170190691693594e-03,1.418472640216350555e-02
-4.284791218129396229e-01,-4.334794197385671843e-01,-4.384379898048684776e-01,-1.468716531975104494e-03,-1.950773750191246844e-03,1.900006746174039531e-03,1.015395205467939377e-02
-4.014667283543873477e-01,-4.534882451695810834e-01,-4.085419392992244436e-01,1.186055770549751488e-03,5.024039747533099766e-03,1.214849865461148761e-03,4.972528666257858276e-02
-4.238538750471456673e-01,-4.408258184578711658e-01,-4.444052160942280616e-01,-3.262677677769700024e-03,-9.376773625798842356e-04,3.463388852619703542e-03,2.078861184418201447e-02
-4.272559291785847368e-01,-4.347308110300893147e-01,-4.426204959380919957e-01,-1.350698263522163729e-03,-1.855414600402575205e-03,2.327486562327459475e-03,1.446194574236869812e-02
-4.330677007193726169e-01,-4.402474647067883273e-01,-3.967907797268078185e-01,-8.240218891967358156e-03,8.592539602575407706e-03,-5.570813225069061458e-03,4.632844030857086182e-02
-4.280814055706769761e-01,-4.392582177366601837e-01,-4.339519130902004251e-01,-1.814002100937588255e-03,-1.254421889816671439e-03,8.385793534683524562e-04,1.051059551537036896e-02
-4.282803192891997957e-01,-4.342426886504667238e-01,-4.434762100180065225e-01,-1.197853108364822349e-03,-1.631710523916369898e-03,2.553367965396661880e-03,1.441223360598087311e-02
-4.256036957168927715e-01,-4.378544355319480275e-01,-4.347076243603235635e-01,-7.744129426862134168e-04,-1.801275890671178055e-03,1.585758078467478004e-03,1.185365300625562668e-02
-4.260090989697810637e-01,-4.407708471945614992e-01,-4.328463019108913512e-01,-2.271182956454099577e-03,-1.549059822770288732e-03,1.337583779357495901e-03,1.384804863482713699e-02
-4.517893574816294056e-01,-4.401612028350204153e-01,-4.293571180012899502e-01,2.898434322771575172e-03,-1.521501424137470561e-03,-5.131123371928169924e-04,2.026107907295227051e-02
-4.137344798234310894e-01,-4.529816250727485283e-01,-3.394544140097905394e-01,-7.290192899356044524e-03,4.251920412354179973e-02,-1.006568692645753819e-02,1.259372532367706299e-01
-5.382549153119010610e-01,-4.029686825358324009e-01,-4.711888753768907478e-01,4.449791706174391348e-02,2.759879666122593000e-02,8.989069230360076379e-02,2.149264812469482422e-01
-4.048263695982637356e-01,-4.203844183685157554e-01,-3.011994670643440841e-01,1.647161739718014037e-02,5.576499051837688348e-02,2.597436200769734707e-02,1.573529988527297974e-01
-4.491296204685444882e-01,-4.343236538675543934e-01,-4.190442748761767922e-01,4.650305219320095482e-03,-2.025023895165796450e-03,-7.544010393099716272e-03,3.044366091489791870e-02
-4.972053546372673383e-01,-3.626033466758784019e-01,-3.497806793984215012e-01,2.621650815188724878e-02,5.112986128919737999e-02,1.567448391933805307e-01,3.219000101089477539e-01
-4.464207936279232514e-01,-4.296674739434060419e-01,-4.241105151464793499e-01,1.603143884095666050e-03,-1.048087680742607530e-03,-1.447866160512887614e-03,2.054131589829921722e-02
-4.540392902295889987e-01,-4.373214837727942839e-01,-4.267258850104333479e-01,3.932472976365267506e-03,-2.049740722914173818e-03,-2.016041493783629103e-03,2.529975399374961853e-02
-4.462287409422068807e-01,-4.314225824203278270e-01,-4.293012414892907191e-01,4.244419018901089387e-04,-1.669325896663352874e-03,-1.089134472875935523e-03,1.635818928480148315e-02
-4.140371611219988979e-01,-4.518650038544289038e-01,-3.802377113662027130e-01,-3.456639098663934293e-03,3.723962802459304666e-02,6.737259031334599628e-03,9.046709537506103516e-02
-3.890205098327966793e-01,-4.643700531096576212e-01,-4.350035649120396197e-01,3.219120015528568676e-03,8.643792989975085383e-03,-2.768893039917405888e-03,6.786329299211502075e-02
-4.306123934771151629e-01,-4.442408467289464813e-01,-4.110613094091147279e-01,-8.303463913610439548e-03,6.411381752765314343e-03,-4.037480412650735172e-03,3.483524546027183533e-02
-4.421703290978258871e-01,-4.582463383836007931e-01,-4.084792053918537835e-01,-7.874715751602028024e-03,4.700568394148045386e-03,-2.213694356054696569e-03,4.692728072404861450e-02
-4.896204020440919624e-01,-5.617809368554443905e-01,-4.006524040980282697e-01,-1.072250118309155814e-02,8.615567200017057448e-02,-5.848405098622597165e-03,2.055683583021163940e-01
-3.917424635927219123e-01,-5.630160901521280570e-01,-3.230139768041609960e-01,-9.431014475200888121e-04,1.520951739613145004e-01,3.921238611907752747e-02,3.461848795413970947e-01
-4.282805914293499883e-01,-3.911632377449911213e-01,-4.446830573437087764e-01,5.340435542984834326e-03,7.285424617819681245e-03,4.423470963540752920e-03,5.058704689145088196e-02
-4.286696035656935022e-01,-3.181207477031365860e-01,-4.521195016664664723e-01,5.228848581786172539e-02,4.337893194594928496e-03,2.014092878533285322e-02,1.576038897037506104e-01
-4.347189767591441156e-01,-4.531156905507939259e-01,-4.296516393134763856e-01,-3.549031717831212240e-03,-9.417672992901248395e-04,1.094690243045486674e-03,2.239156141877174377e-02
-4.277120131390925173e-01,-4.621907724440935117e-01,-4.427089360017952280e-01,-8.112582497447635294e-03,-1.201682104601772827e-02,3.328731084002096215e-04,3.908456861972808838e-02
-3.366222137118977109e-01,-6.550383531484190724e-01,-7.376578717487514147e-01,8.405733660191806733e-02,-8.269941101193990091e-03,-3.762752149585603390e-02,4.002146720886230469e-01
-4.470342340114193957e-01,-7.457250504995615037e-01,-6.138968410907815754e-01,-3.604227903581667253e-02,-2.091068780461680654e-01,-4.311328504686101626e-02,4.559270441532135010e-01
-3.827279958785209102e-01,-4.721560844490851339e-01,-4.651519246854782796e-01,1.361265033216490497e-03,-2.127213979262214481e-03,-8.414911130984471495e-04,8.626314997673034668e-02
-4.440155324497512823e-01,-4.762962103632055189e-01,-4.856567856918574955e-01,-4.852789102614277206e-02,-1.057368428774199242e-03,-1.298658247727355053e-02,9.489997476339340210e-02
-3.970298620441740645e-01,-4.631135872910476237e-01,-4.729926590106237061e-01,-2.409915337308300102e-03,8.710962604063529711e-04,-2.215215889557202618e-03,7.177688926458358765e-02
-4.142409084177474110e-01,-4.580806927209997159e-01,-4.599552125670810510e-01,-4.407762537128981882e-03,-5.887172899350206698e-03,4.814674914043372798e-03,4.732255265116691589e-02
-4.087357305038279431e-01,-3.105607980940695567e-01,-3.128821069844998637e-01,3.325434146846623085e-02,2.785957480118791962e-02,8.096709331280033117e-02,1.863567680120468140e-01
-4.114777303851172574e-01,-4.182113380478930664e-01,-4.089626304497250286e-01,1.315773070948965786e-03,2.167771551552703443e-03,3.341477888437565085e-03,1.101774908602237701e-02
-4.163152627558425189e-01,-4.227246241550319250e-01,-4.120659929166026192e-01,8.629173449712556005e-04,7.262789512639331990e-04,1.092675796495344489e-03,9.683462791144847870e-03
-4.148817169761346846e-01,-4.189207230221986822e-01,-4.157801429189277309e-01,2.136858066174163857e-04,9.948224727115979708e-04,2.198563296766616222e-03,5.576650612056255341e-03
-4.168080074241596877e-01,-4.095219881210305779e-01,-4.086315664090728883e-01,2.855641576417937161e-03,1.577925323930953879e-03,1.134062437987974799e-03,9.806042537093162537e-03
-4.456901630021262717e-01,-3.850099330337897752e-01,-4.034999998879328365e-01,2.926317198680081395e-03,1.304917034787443815e-03,1.124054459021757955e-02,5.754858255386352539e-02
-4.212584868099107371e-01,-4.130412863614993380e-01,-4.154546635495175999e-01,1.013256480435576878e-03,2.650206605717983586e-03,1.367298178453148661e-04,8.816036395728588104e-03
-4.273014939774227305e-01,-4.069516003821430639e-01,-4.184880586231780608e-01,2.719370768951183143e-03,6.926117265440094248e-03,2.151502071247164000e-03,2.219070680439472198e-02
-4.026220332539243718e-01,-4.019058368044151064e-01,-4.199970260122546373e-01,4.375452163571047492e-03,6.421062589022389841e-03,2.115846731837491002e-03,2.256992459297180176e-02
-4.152875441203900397e-01,-4.011783791668447896e-01,-4.198127608784884002e-01,2.254089132734258833e-03,6.406781230566895718e-03,1.393006219517549339e-03,2.067843824625015259e-02
-4.332639729429219599e-01,-3.838576833779554498e-01,-4.023684533530981766e-01,4.948158383359874818e-02,4.494308358974408862e-02,6.585818134176693595e-02,1.681841462850570679e-01
-4.198052266976619040e-01,-4.104590995876010728e-01,-4.091948659290888246e-01,8.762105863051409269e-04,1.396557046437768655e-03,-2.890132667027063259e-04,1.044839713722467422e-02
-4.922564013778064629e-01,-4.812666924509593769e-01,-3.814930104374086861e-01,-2.466537205092768272e-03,3.578577599508820511e-03,1.619431993447155438e-02,1.096151620149612427e-01
-4.435610001032500027e-01,-4.133784286054283386e-01,-4.167293947165751078e-01,-1.147090994325947882e-03,-3.131384353546297350e-03,5.153730445154560379e-03,3.056342154741287231e-02
-5.233191373279733050e-01,-3.411676389521262620e-01,-3.532191430499980744e-01,8.174987141156185577e-03,-1.439008175771384554e-02,1.647543376231744294e-01,3.367237746715545654e-01
-4.359376139576227049e-01,-4.219324665310854594e-01,-4.068151551528729204e-01,9.426726569523728380e-03,9.653019143166961455e-03,1.182843148894906563e-02,4.002830013632774353e-02
-4.494761791408667384e-01,-4.069161642021867364e-01,-3.961325340135415929e-01,2.920880321285533598e-03,2.172738355244404652e-03,8.371377304551331361e-03,5.134773626923561096e-02
-4.552875917137325090e-01,-4.289400063243092309e-01,-3.878035846971747413e-01,3.879445999521621315e-03,1.477130476185838049e-03,8.213627856019901918e-03,6.102731451392173767e-02
-4.349128013750879207e-01,-4.096764472894466880e-01,-4.241433985879180524e-01,2.697118498455392498e-03,5.267931869279090552e-03,2.198615885899814996e-03,2.450819313526153564e-02
-7.285765130551635771e-01,-2.614784045719737438e-01,-6.290311486129220864e-01,-1.887149382800289502e-02,-4.589451572905401538e-02,1.184072914047731850e-01,4.806668758392333984e-01
-4.330245993516001479e-01,-4.267429724891773635e-01,-4.427046321002921503e-01,-1.524601446400091799e-03,2.419734499939079492e-03,-1.261370218096296821e-03,1.494255568832159042e-02
-4.240664152597958259e-01,-4.649102174118185937e-01,-3.571375457669229703e-01,7.379035626458159587e-03,1.524453121161022280e-02,2.102407876746217440e-03,9.876799583435058594e-02
-4.580006859517171125e-01,-4.501657696919334484e-01,-3.959632401531447132e-01,-2.069122983144056245e-03,1.703435517855486246e-03,-1.026928810860641521e-02,6.133429706096649170e-02
-4.574504744505777376e-01,-4.444672882954491255e-01,-3.976999508742678491e-01,4.497562615728882898e-03,1.216705538895553225e-02,-2.960121862260001527e-02,7.807962596416473389e-02
-4.436886039523835201e-01,-4.352003794213015198e-01,-4.175261054936512672e-01,-6.020437856279104924e-03,2.465999038829133887e-03,-1.859208807931080109e-03,2.591917291283607483e-02
-4.400795214750746198e-01,-4.317508131905549718e-01,-4.335381744507228463e-01,-3.709029855835925538e-03,3.952094214561107234e-04,-9.085408298073163920e-04,1.009411923587322235e-02
-4.702735448511221605e-01,-4.616541795783916102e-01,-3.938976450846370936e-01,-4.253859500100172671e-03,2.137504025481812547e-03,-3.594776400025404342e-03,7.318483293056488037e-02
-4.798946991465211642e-01,-4.810346044609140614e-01,-3.599323925048496520e-01,1.150983232662607277e-02,-1.878782467594118221e-03,-3.799840794575599229e-02,1.388115882873535156e-01
-4.661211722377654465e-01,-4.422729863295983277e-01,-4.327786627749693471e-01,-5.798002820709692931e-03,4.289805704652978162e-03,-1.344723968339053138e-02,3.979752585291862488e-02
-4.514008929086526511e-01,-4.290803110495460260e-01,-4.376089504359527149e-01,-5.959226921914697554e-04,2.235684251160511594e-03,-2.160849943842618921e-03,2.026449888944625854e-02
-4.472265964064986443e-01,-4.306209249302045960e-01,-4.305085233294703717e-01,-2.766794466535230524e-03,1.965075197486212868e-03,-3.009436883897311996e-03,1.842138916254043579e-02
-2.818692713672766859e-01,-5.656549916810390544e-01,-4.904517123963683112e-01,5.324071407549241935e-02,-6.202846808872652939e-02,-4.530977277386100122e-02,3.017507195472717285e-01
-4.442916211667859994e-01,-4.083696209523823839e-01,-6.285157735910726906e-01,1.781715108833351047e-01,4.735023943079325059e-02,4.068680182906697640e-02,3.857126832008361816e-01
-3.925062882330666025e-01,-4.349796179431795196e-01,-4.502306066583997568e-01,5.851250456345568653e-03,-2.911479027243354945e-03,-7.210341364458342298e-03,5.448343977332115173e-02
-3.981548674062290738e-01,-4.176619604888280879e-01,-4.490431977452536971e-01,4.251660245507913466e-03,1.647218762300667891e-03,1.497311726951982419e-03,4.523893445730209351e-02
-3.914398311902018146e-01,-4.074001714389458018e-01,-4.383809133253263046e-01,4.054722591890549781e-03,2.734411218944488801e-03,5.698497029257177694e-03,4.333790391683578491e-02
-4.147171286311210903e-01,-3.974538454043879399e-01,-4.328405575369203007e-01,2.931103470326382535e-02,2.371073103449330630e-02,2.795495483050631363e-02,8.687804639339447021e-02
-4.352891206344937647e-01,-3.972162541902290456e-01,-2.564744181319300043e-01,3.815547528682450978e-02,7.371838986986348208e-02,9.735705722057465261e-02,2.751766145229339600e-01
-1.771145393973548032e-01,-3.750254852247382753e-01,-4.420854792126283628e-01,9.940278697176746503e-02,3.005121853445216762e-02,4.792610347745363854e-03,2.989290356636047363e-01
-3.969887157992119109e-01,-4.203523858479167319e-01,-4.490533428025832996e-01,1.624819230706477796e-02,6.751808043231978529e-03,7.220916487770109859e-03,5.590494349598884583e-02
-3.851906124058416814e-01,-3.814730082987963233e-01,-4.365232260942073506e-01,1.776943106276179449e-02,4.944088147011253126e-03,5.047313135939270577e-03,6.274319440126419067e-02
-3.675740908259285677e-01,-4.317668368758598718e-01,-4.454490637496577032e-01,7.915792952396329824e-03,4.708734110614878378e-03,1.126444393664654056e-02,7.629790902137756348e-02
-4.023795934513389461e-01,-4.358509750863858723e-01,-4.146097442300162861e-01,2.400941624779323602e-02,3.185522956955133544e-02,2.245795771356808024e-02,8.454142510890960693e-02
-2.930837910437976701e-01,-4.128897047690588962e-01,-4.729031472128574221e-01,1.582665845444788111e-01,6.162463985578151698e-02,5.379011704394296572e-02,3.469335436820983887e-01
-4.295511146940783620e-01,-4.146823325533831595e-01,-4.574445229914025912e-01,2.944850116145704324e-03,-2.233379343516082079e-03,-9.820133659309499344e-04,3.818032518029212952e-02
-4.347136198460564982e-01,-3.836152047334705495e-01,-4.581804088599278901e-01,8.167901416989321525e-03,-6.941085181121120322e-03,-3.512435920355796298e-03,6.886614114046096802e-02
-4.145951270208963479e-01,-3.501308448424695352e-01,-4.156040159301622183e-01,3.477690911598865786e-02,2.294573151402838282e-02,2.807432431184115479e-02,1.086002886295318604e-01
-4.465766821758018756e-01,-3.721169977561412656e-01,-4.599468700017167455e-01,7.433427482700470136e-03,-5.229993811317313300e-03,-7.904726096195077018e-03,8.458029478788375854e-02
-4.508251929051757534e-01,-3.196505283746333692e-01,-2.675471675644550129e-01,2.667280522771425105e-02,4.244837203461919450e-02,1.429374937837849802e-01,3.091754913330078125e-01
-3.974376533045926863e-01,-1.918497048563487517e-01,-3.335910290306906556e-01,-4.445760497115259363e-02,-2.700633518641032058e-02,1.290431298462348109e-01,3.021432459354400635e-01
-6.832784461075311899e-01,-2.825581407648435350e-01,-5.622531498472654876e-01,-2.550461996232933695e-02,-2.552071397023297078e-02,9.937040711843750374e-02,4.003191292285919189e-01
-5.675015948603777671e-01,-4.257337796800091390e-01,-5.637507543886347561e-01,-5.119934042777953692e-02,-1.268756521607054821e-02,-2.026036622182260383e-02,1.707598417997360229e-01
-4.603696749995965232e-01,-3.907535323815318762e-01,-4.941395019026094682e-01,-2.634427803853867794e-02,-2.932976230014113991e-03,-1.115107361294930162e-02,1.040127053856849670e-01
-3.935519435964630053e-01,-4.660770972017349578e-01,-4.725782195933059260e-01,-3.216783660677467738e-02,9.378181613320588084e-03,2.272845085007122769e-03,9.569385647773742676e-02
-5.576672309743383460e-01,-3.862662909883063933e-01,-4.714171642499827009e-01,-1.358473618349349474e-02,-1.098769407731347084e-02,7.747739932172910404e-02,2.023810297250747681e-01
-5.229243340717324440e-01,-3.266152700983156465e-01,-5.136775850999327764e-01,4.834567495588899810e-02,-1.074734601809654153e-04,4.429236001203246814e-02,2.229460030794143677e-01
-4.213793777269885243e-01,-3.657372257675444160e-01,-4.042052198575795119e-01,-5.846652249176751553e-02,3.734733630013403749e-02,-8.239770914427739512e-02,1.929844915866851807e-01
-4.562107818307520879e-01,-3.190508702487301895e-01,-4.473038390381385287e-01,8.181152574068272648e-03,-9.230017966847017460e-03,-1.111656205920040150e-02,1.360059082508087158e-01
-4.391311013522637974e-01,-4.172992033964220693e-01,-4.603067665531973551e-01,-7.606921036036973748e-03,-3.439962362558528848e-04,-2.914850854696297757e-03,3.983447328209877014e-02
-2.860153672968284155e-01,-5.528784696749893257e-01,-5.395488951561492330e-01,1.214095582810369445e-01,1.378993390553271137e-01,5.308902534757176800e-02,4.213802218437194824e-01
-3.937670349145162563e-01,-5.138907388096425333e-01,-5.089961125682319620e-01,1.367007681642756940e-02,-4.897454091074757154e-02,-1.406815947211188106e-02,1.490488797426223755e-01
-3.603152880420614212e-01,-4.282023511495133827e-01,-4.433636464696553148e-01,1.213818174442301417e-02,8.357119881678837237e-03,9.947332995593156230e-03,8.255999535322189331e-02
-4.335976143043022146e-01,-4.369469816788248417e-01,-4.273564486178786925e-01,6.805624554121468030e-04,-1.340565225774139994e-03,-1.876668014001930430e-03,9.403236210346221924e-03
-3.448681144177078717e-01,-4.546841631166761988e-01,-4.416042768294451415e-01,6.328586862414901405e-03,1.036081829904712814e-02,2.696722794356765616e-03,1.061050221323966980e-01
-3.383097342421078069e-01,-4.476061218029539490e-01,-4.563519113783995884e-01,1.493693665627809572e-02,6.550953818787431937e-03,3.513651113893553890e-03,1.175295338034629822e-01
-3.624834335528987483e-01,-4.309066015127674398e-01,-4.539403777278104846e-01,1.264568517654178666e-02,5.112707446021944394e-03,5.814930867526695718e-03,8.630137890577316284e-02
-2.788893930127837040e-01,-3.663659923017104636e-01,-5.127061813605557905e-01,1.637668355107360363e-01,9.425517596073729187e-02,1.014932452587021666e-01,4.241254925727844238e-01
-4.891000258771829867e-01,-4.583625850775980837e-01,-4.132247733580048377e-01,3.689163565592201710e-02,5.398245318620226857e-02,7.956695130674887317e-02,1.902304589748382568e-01
-3.681957280838681901e-01,-4.490230699463391706e-01,-4.633759376371335836e-01,1.002150643929504599e-02,1.661316933314080238e-03,-1.425511232753423705e-03,9.063573181629180908e-02
-4.590969619607807584e-01,-3.685831606460313603e-01,-4.757062986395531046e-01,-1.573341558550098119e-03,-3.146355943746900058e-03,-1.001372201252771418e-02,1.015378832817077637e-01
-4.305429951565000191e-01,-4.326190889868138378e-01,-4.559179618537993472e-01,-5.579648678043662435e-03,3.606713129812319312e-04,3.686395349398118807e-04,2.626240067183971405e-02
-4.328746367128181727e-01,-4.297753401417745978e-01,-4.521522640119598480e-01,-8.448685613586565286e-04,2.432002182933734515e-03,1.328655124120482810e-04,2.146899886429309845e-02
-4.328371827983301667e-01,-3.291166279448314302e-01,-4.666336728517016530e-01,-7.914854678938854082e-02,2.551010110504532864e-03,-3.787524997805134103e-02,1.962705999612808228e-01
-5.063100664935293871e-01,-4.291802484957465413e-01,-5.306439126595513534e-01,-4.881163019916714280e-02,-2.184910529973133498e-03,1.035676697111638078e-03,1.248329877853393555e-01
-4.293989254172613790e-01,-4.301869675364675683e-01,-4.497621622154524546e-01,-3.435759134336275212e-03,1.478020916716684795e-03,-2.206706172837754210e-03,2.134972997009754181e-02
-4.273813488837454044e-01,-4.297111456535122609e-01,-4.521343441920180894e-01,-8.300315125991356187e-04,4.760912720624922647e-04,-3.296032261834951462e-04,2.373903989791870117e-02
-4.346613623633613921e-01,-4.281553980962011230e-01,-4.522166497725523260e-01,-2.251756332646812162e-03,2.960346699645733694e-03,-1.156063796501714390e-04,2.250048890709877014e-02
-5.210916932265099444e-01,-3.402963165023128456e-01,-6.646238044119060495e-01,-7.938509377203131767e-02,-2.089452403638568032e-02,-4.324106933119678531e-02,3.241349458694458008e-01
-4.285631262383206019e-01,-4.267013776152468463e-01,-3.966000616622296637e-01,9.947160499103751413e-03,4.445595696065328742e-03,5.741134532077519365e-03,3.769093006849288940e-02
-4.751712206270474748e-01,-6.180228436861637809e-01,-3.436723400198081757e-01,3.192039365061383194e-02,1.870662873601355303e-01,4.752648253140002305e-02,4.138813614845275879e-01
-4.203805227545600598e-01,-4.379219406886977195e-01,-3.774521835935242264e-01,8.712449109017536900e-03,7.562133637415568641e-03,5.120525465941048668e-03,5.815070867538452148e-02
-4.051955117891162250e-01,-4.394915382733852738e-01,-4.006657957467871789e-01,2.537457188487692809e-03,1.817606585253206397e-03,1.482113515800538312e-03,3.725458681583404541e-02
-4.154516196447829990e-01,-4.008047949221523742e-01,-4.182134318331716116e-01,1.598757613024771483e-03,6.488802382874420648e-03,8.747064683466205430e-04,1.997212879359722137e-02
-4.423293086265517871e-01,-3.444580565146461715e-01,-4.376319207485754315e-01,1.093309981674669973e-02,8.423659257991135407e-03,8.279882544458674887e-03,9.959041327238082886e-02
-3.366867156112965942e-01,-4.520428834928355566e-01,-3.712906384117843905e-01,8.323037230258083230e-02,1.441991929492869862e-01,1.033645162869925443e-01,3.545807003974914551e-01
-4.298725794608141970e-01,-3.933443466562033253e-01,-4.331336784049488187e-01,2.098232766811767777e-02,1.413866351470188451e-02,1.774627659438607688e-02,6.579771637916564941e-02
-4.209014120252168589e-01,-4.545096159546655468e-01,-3.934522024940655394e-01,1.414509882799094018e-03,2.057895281395909562e-02,1.595364371501544745e-03,6.395003944635391235e-02
-3.801314945084298125e-01,-4.364259634474900729e-01,-4.529476107573881527e-01,2.763186618923239510e-02,1.755837863881948638e-02,9.791402702680687339e-03,8.874218165874481201e-02
-4.678460756073370974e-01,-5.391133749204654046e-01,-4.159317093249473851e-01,1.768669158357105350e-02,8.808995511449319027e-02,2.641753364400788173e-02,1.943850815296173096e-01
-4.670251971412371361e-01,-4.084108418242434202e-01,-4.107796512291138624e-01,-3.530578448488202667e-03,-2.515032140559923021e-03,1.224021666640679601e-02,6.171099841594696045e-02
-5.616496439802405316e-01,-5.188856104482125753e-01,-3.341295326674533772e-01,5.126534933011604039e-02,1.139768257779287947e-01,1.569753917263560783e-01,4.057645499706268311e-01
-5.316969594217504369e-01,-5.325633291656607371e-01,-3.057995398405859433e-01,-1.028112276563990929e-02,1.165562420439464342e-02,9.304055585669194009e-03,2.284961044788360596e-01
-4.310135068623245358e-01,-4.124559110331657008e-01,-4.263580744734516426e-01,1.069313000286907685e-02,1.177927503145187287e-02,8.791976337336174577e-03,3.564888983964920044e-02
-4.171601366059682903e-01,-4.124647547455234098e-01,-4.148827217668833445e-01,6.728298108217623842e-04,2.847079870654572933e-03,1.812363942955805230e-03,7.215925026684999466e-03
-3.437239579345994223e-01,-4.385308038195339653e-01,-4.388440037791154769e-01,1.499937642604323371e-02,9.424967004896525266e-03,9.976158352322217135e-03,1.012824475765228271e-01
-4.105814574089908242e-01,-4.649903058618014562e-01,-4.267261593864848934e-01,-1.472315418483493166e-03,1.888865621640707301e-02,-2.256322465506010750e-03,5.860614031553268433e-02
-4.574178154512358874e-01,-4.392589592513507779e-01,-3.850283693855706679e-01,-5.895363252692686906e-03,1.119013196190637169e-03,8.034871436276746354e-03,6.750679016113281250e-02
-4.548331854168335409e-01,-3.791923734768427590e-01,-3.901906830638281476e-01,9.017472817289701181e-02,6.360744749457285241e-02,1.382055966044802575e-01,3.143964111804962158e-01
-4.338346413817126268e-01,-4.096106793536070101e-01,-4.121968911646753386e-01,-5.902100403162575774e-04,-2.379912114981653625e-03,5.529394362725606471e-03,2.531007863581180573e-02
-4.609257907060655413e-01,-4.616902233162112346e-01,-3.626918574258348738e-01,-1.177153727387469755e-02,-4.553046339529882164e-02,4.372655286886449957e-03,1.281316578388214111e-01
-4.309908649263964886e-01,-4.524259371875382074e-01,-4.324412172998847170e-01,-2.638912566388835232e-04,-9.640787491602928775e-04,2.915234372534074390e-04,2.082617767155170441e-02
-4.279841662991035744e-01,-4.524836982664829921e-01,-4.296095115778497675e-01,6.840614437213293417e-04,-2.304036273224829238e-03,-4.221830947147779244e-04,2.410213463008403778e-02
-4.458024412160862537e-01,-4.626096025250061028e-01,-4.072869807092366345e-01,-3.447286298365191421e-03,-4.878227383110362615e-03,1.904090107432081886e-03,5.031079798936843872e-02
-4.320899774149324357e-01,-4.558041689958353682e-01,-4.351908863675344463e-01,4.392667645906436248e-04,-8.126761310911658322e-04,1.071006512333363964e-04,2.238386869430541992e-02
-4.329772512423228914e-01,-4.571773876681408666e-01,-4.716153593888736117e-01,-3.907811818742045612e-02,-6.111244418136826950e-02,2.061839777381449870e-02,1.349234879016876221e-01
-2.867669832483399905e-01,-4.187695792317669974e-01,-3.247787680722796222e-01,-8.591493362005543991e-03,-1.026056287157296465e-01,1.141003303577229309e-02,2.145872265100479126e-01
-4.325626770262356868e-01,-4.555417017052617035e-01,-4.340137929755982227e-01,-1.031390679673668126e-03,-9.659144503372517647e-04,1.148475913707821167e-04,2.242377959191799164e-02
-4.378146274704856622e-01,-3.888514036949287656e-01,-4.401099121332754383e-01,2.519066707321348034e-02,1.817747582817024615e-02,2.398984055455269035e-02,8.447815477848052979e-02
-5.575216016270156949e-01,-4.359247520545059262e-01,-4.025762099709458974e-01,8.720137708720684944e-02,8.473957487834506141e-02,1.769894280288241695e-01,3.978484570980072021e-01
-5.053519698400600335e-01,-4.671538173046769216e-01,-3.843385371020900942e-01,-9.259865806569643476e-03,-1.758126713994022719e-02,4.359673321266899909e-02,1.355264633893966675e-01
-4.591415376205804089e-01,-4.191636843634496401e-01,-3.887742276648939455e-01,-1.476655739302780435e-02,-8.948407351301177620e-03,3.084049337814649683e-02,8.651264011859893799e-02
-5.563903425626084420e-01,-4.434437809846253353e-01,-4.215321042168482246e-01,6.830834351292321659e-03,1.354513002844602923e-02,1.093932058182065237e-01,2.286982983350753784e-01
-4.116400473629396317e-01,-4.254098538480892699e-01,-4.205590490926541247e-01,7.404715159489788645e-03,1.267520590036032464e-02,9.923241348632113809e-03,3.298829123377799988e-02
-4.686576341083091846e-01,-4.084339339605350117e-01,-4.305147382759516028e-01,4.505855478405336630e-03,9.326799620695783600e-04,1.942181463207794459e-02,6.308571249246597290e-02
-4.269854957545488605e-01,-4.348712432466436129e-01,-4.498612219312315696e-01,-2.606026210439977512e-03,-8.610144055302834058e-04,2.374863079470188303e-03,2.108577080070972443e-02
-5.423978765876731334e-01,-2.220309686956911110e-01,-4.701184366967283146e-01,1.022152541058365532e-01,9.182914857228033703e-03,1.260423009683082074e-01,4.049199521541595459e-01
-4.258155534584358026e-01,-4.327151396777107473e-01,-4.433364686963857104e-01,-2.104105133198239542e-03,-1.152067804961504679e-03,1.969778649050868326e-03,1.620504073798656464e-02
-4.461892302888146311e-01,-3.838747758142518895e-01,-4.293660267516361539e-01,-3.312171848669415598e-03,-7.117478719657307704e-03,6.302718161581419808e-03,5.849651619791984558e-02
-4.454361048114885979e-01,-3.922804802313066830e-01,-4.193079486533559663e-01,-3.446512260952968535e-03,-5.928985791902340909e-03,1.503796753760042355e-02,5.421123281121253967e-02
-4.620976896939693601e-01,-4.313672534400398439e-01,-4.283420791431803432e-01,-2.847012647527770446e-02,-2.008538626541073874e-02,2.256999131910049014e-02,7.884543389081954956e-02
-4.357346169873709818e-01,-4.232722046763369161e-01,-4.205971539283186456e-01,-3.108624998945356058e-03,-1.430032417314461984e-03,2.601987837023691727e-03,1.585061103105545044e-02
-4.073502228040367101e-01,-4.549261648350576004e-01,-4.449473611406160600e-01,-2.800281436901607725e-03,-4.677637277712006283e-03,5.045588081701144270e-03,4.531925916671752930e-02
-4.033975631890961422e-01,-4.491330204344680110e-01,-4.504453287660831196e-01,-9.847424781362194152e-03,-5.434236480844565611e-04,4.186699474685169967e-03,4.997859522700309753e-02
-3.618304014032723281e-01,-4.502955399633574718e-01,-4.542273082974419562e-01,-1.848517823882906211e-02,-3.526794492514010240e-03,1.482326299613503234e-04,9.618654102087020874e-02
-4.332346633372644584e-01,-4.035781019246352241e-01,-3.848536175280344862e-01,-3.496977122967786372e-02,-4.452303874659187949e-02,6.867367610788197019e-02,1.598411798477172852e-01
-4.381061280168817018e-01,-4.376734131745273482e-01,-4.254183771122355684e-01,3.707017773129472719e-03,-7.900390307828358914e-04,-1.184964574814632247e-03,1.424734853208065033e-02
-4.754212015442680905e-01,-4.490318413925145635e-01,-4.003616162493099928e-01,-1.030255247748946071e-02,-8.028846922646258946e-03,2.579847347530927690e-02,8.281342685222625732e-02
-4.255983913639710958e-01,-4.299429255490196944e-01,-4.477018363641342424e-01,-2.649976339130809874e-03,-1.023157008595856465e-03,2.036907495507462012e-03,2.116749249398708344e-02
-3.864190746191926706e-01,-1.877038086273596640e-01,-3.661674173128290910e-01,-4.224580792045303651e-02,-2.646994254731190391e-02,7.425636090962089986e-02,2.446869313716888428e-01
-4.468508665662850876e-01,-4.648006072586599591e-01,-4.377400161355434749e-01,-5.375781237260783552e-03,-9.287767071403673497e-03,7.215613909134606201e-03,3.271725028753280640e-02
-3.428649532728791360e-01,-4.047456622373729052e-01,-3.904164832819200237e-01,-8.325177849351461656e-02,-7.902048767911680482e-02,3.569646249432454482e-02,2.156289666891098022e-01
-5.385075644498400482e-01,-4.366781674509225275e-01,-4.657033597560019111e-01,-2.663263162723542715e-02,-1.362937414984088762e-02,6.654765403127153867e-02,1.556502878665924072e-01
-3.812905955448866457e-01,-4.342164816157426110e-01,-4.435101362073928799e-01,-1.804875421523527076e-02,-1.569675557307848024e-02,5.505625374959081247e-03,7.201922684907913208e-02
-4.161801604203563820e-01,-4.613135834720693551e-01,-4.430522421353381701e-01,-6.302049345739560784e-04,-4.460969812763422929e-03,-1.399122343005120819e-04,4.009060561656951904e-02
-4.853711694355554163e-01,-4.779596679463650188e-01,-3.202197672931230699e-01,-1.018001022312758040e-02,-1.723080488206052766e-02,2.380606313236264746e-02,1.703164130449295044e-01
-4.359451886618728178e-01,-4.425305861152456499e-01,-4.282620762169472850e-01,1.450448898266661372e-03,-3.834981393446856043e-04,-3.359752638345956310e-04,1.265248097479343414e-02
-4.732731258786027073e-01,-4.704649533082758128e-01,-3.499745170462113530e-01,-2.239629746024590119e-03,1.702943593477459182e-03,5.599676528281620318e-03,1.224010065197944641e-01
-4.624570949609752568e-01,-4.572069800777086579e-01,-3.758358377238409931e-01,7.699935689182240122e-04,2.547569512229606349e-03,-2.827349032672379393e-03,8.438758552074432373e-02
-4.054274334549052283e-01,-4.136946874080164593e-01,-9.311732998242486237e-02,-1.360520401382200005e-02,1.508121727765258241e-02,4.002990720978791966e-03,3.185492157936096191e-01
-5.641037528853601879e-01,-5.831559156125269983e-01,-3.714322848853148784e-01,-3.686965800570796148e-02,-1.673955509089223026e-01,-8.371902386136666208e-02,3.877172172069549561e-01
-4.648245101545896429e-01,-4.596711367898478340e-01,-4.008832536961514093e-01,-7.833575670330151369e-03,7.052583625873460119e-03,-1.351701983902649229e-02,6.831522285938262939e-02
-2.983419313996220623e-01,-4.341565094275800507e-01,-3.030630886226604037e-01,-5.512322878237789492e-02,1.116766307523673202e-01,-5.467504357538510718e-02,2.707867920398712158e-01
-4.161154229616705891e-01,-4.519608152767436438e-01,-4.306785059710603325e-01,-1.258412707622879115e-03,-6.022126974090419478e-03,3.799240678845136523e-03,3.364234790205955505e-02
-4.323197505920552963e-01,-4.682687579630517849e-01,-4.337089415057178710e-01,-1.225321433507509539e-03,-1.136208313973384974e-02,6.762999308255713063e-03,4.211093112826347351e-02
-4.278852762723371339e-01,-4.529169787215187593e-01,-4.343361293324385919e-01,-6.638641341526855004e-04,-1.794529125234096967e-03,1.646687648267452066e-04,2.275496162474155426e-02
-4.231324469286214529e-01,-4.491755973257859913e-01,-4.217926494491746614e-01,-1.558349557438627048e-03,-9.366059387577856457e-03,3.796724748795377719e-04,3.139777481555938721e-02
-4.463026572145391002e-01,-4.329672473548897282e-01,-4.269980987704640185e-01,1.490000352790447902e-03,-8.652777563338643696e-04,-8.435647541105713949e-04,1.743863895535469055e-02
-6.913864969018200801e-01,-6.141504744924207726e-01,-6.604135618279672881e-01,4.756928168794097994e-02,-1.395790060839253721e-01,-1.684747932240343582e-01,3.935977220535278320e-01
-4.443784907727830746e-01,-4.326611730035626602e-01,-4.280566000918938352e-01,1.571247073781666982e-03,-8.628643872355424302e-04,-9.142399495487615185e-04,1.498660817742347717e-02
-4.423962028936210267e-01,-4.358114844547757438e-01,-4.292843240649222292e-01,1.302930737877899077e-03,-2.313693549683834767e-04,-1.565163083327856446e-04,1.158744283020496368e-02
-5.337276872396001792e-01,-4.592147722025163858e-01,-5.049327128166259948e-01,2.993145192848919132e-03,-1.947423402464894607e-02,-5.330980844546421432e-02,1.180091053247451782e-01
-4.432571876972660752e-01,-4.353042305493955433e-01,-4.235009916657472284e-01,4.387459113031764307e-03,-2.332956474345334024e-03,-2.136943143501672873e-03,1.960136927664279938e-02
-4.489257378228979634e-01,-4.451364099684509967e-01,-4.200600899228258411e-01,5.966206998521414798e-03,-3.396928234249225933e-03,-3.035105508198564575e-03,3.012047521770000458e-02
-4.501141606861967515e-01,-3.780608304933801289e-01,-4.835425230553367371e-01,-4.127567974350363628e-02,4.234644533825265324e-03,-2.225613589604751724e-02,1.239702031016349792e-01
-4.240783417719918291e-01,-4.278157059252422623e-01,-4.454661907103245611e-01,-9.890451502817402055e-03,7.067706614759976420e-03,-6.498877673782568060e-03,3.100807219743728638e-02
-4.174277974682063519e-01,-4.209101510393720158e-01,-4.048631307519313660e-01,-1.155058956301206925e-02,1.645322802292404837e-02,-1.266429631869771429e-02,4.367241635918617249e-02
-4.189138112408800074e-01,-4.409369269792389190e-01,-4.429258161871517108e-01,-2.199550861602604570e-03,3.472588088828481873e-03,-5.487730454730472586e-03,2.595787122845649719e-02
-4.164904985434833562e-01,-4.551417473988243478e-01,-4.348709131033653419e-01,-1.883459277794795935e-03,3.718693071344981917e-03,-5.201961897235150498e-03,3.542092815041542053e-02
-4.743279472078271719e-01,-4.691074892539325858e-01,-2.900880953869662271e-01,-4.066164633588165156e-02,1.918823617023763389e-02,-1.068182718691566002e-01,2.707487046718597412e-01
-3.400371897390848663e-01,-3.707069739015879106e-01,-2.825454667225216765e-01,-5.930838968595722460e-02,8.530034794128196762e-02,-8.738497703028989816e-02,2.475853413343429565e-01
-4.694614652866616611e-01,-4.030051834121539112e-01,-4.597546936104304760e-01,-7.527450258349200306e-03,2.820072127106250728e-03,-2.814714954950916798e-03,6.389989703893661499e-02
-3.932803280035311322e-01,-4.527019966849903931e-01,-4.169052883823026745e-01,1.877785868757733375e-03,4.709228004493688606e-03,6.690344164315336706e-04,5.257081240415573120e-02
-4.153435479728523338e-01,-4.261356889805681947e-01,-4.124110117164744849e-01,-6.786319843154501805e-03,8.889563619439077788e-03,-6.272900621549027181e-03,2.549513056874275208e-02
-4.381859091848016030e-01,-4.392616421754629297e-01,-4.285579758900305847e-01,4.817319840218966046e-03,-6.455154186749557932e-03,-5.602618585222119210e-03,1.982438191771507263e-02
-4.528306311566431264e-01,-4.452970835926048920e-01,-3.925116221030444108e-01,-6.145218202865830939e-03,-8.109856655283135185e-04,9.476303950778829088e-03,6.021118164062500000e-02
-4.359525025766154971e-01,-4.440610194517062292e-01,-3.437979416751246742e-01,-9.380847381686905490e-03,-2.328605125188125402e-02,2.253676708371807683e-02,1.127824783325195312e-01
-4.507169307132978808e-01,-4.322182798406510873e-01,-4.232710015716815155e-01,-5.597068864550891129e-03,-1.587565552711985321e-03,2.696769546659437671e-03,2.666695974767208099e-02
-4.583523100488048341e-01,-4.513359245512644224e-01,-3.739733627019403706e-01,-7.208422460767778019e-03,-3.397539848755696135e-03,8.583236355161191419e-03,8.359743654727935791e-02
-4.613463565439839265e-01,-4.349370681852792742e-01,-3.864768181550350401e-01,-3.330082811297872033e-03,-4.919418970336992452e-04,7.366495084546373188e-03,6.724906712770462036e-02
-4.294191864291320715e-01,-4.424108228931490361e-01,-4.353016777157258099e-01,-1.248848028632327297e-03,-3.659615284250454623e-04,6.656219195276096836e-04,1.154872030019760132e-02
-4.279495851964903452e-01,-4.440671675291563147e-01,-4.337888273236976677e-01,-6.057628155481440237e-04,1.397162764990480925e-04,9.014504788419149418e-04,1.426029391586780548e-02
-4.521335055647400791e-01,-4.755943634157963618e-01,-4.894500566995172997e-01,-3.103694416917171864e-02,-1.291635315699916735e-02,1.659728715749754849e-02,7.269278168678283691e-02
-4.474057669931581493e-01,-4.109625513934943020e-01,-4.536219415742082095e-01,-5.086189629498378412e-03,5.309656981022225532e-03,-2.504233051709737860e-03,4.212226346135139465e-02
-4.534588703916191954e-01,-3.996856956245330994e-01,-4.592059391353088826e-01,-1.161163976544610926e-02,-3.372270193486184668e-03,-7.223316837922341726e-05,6.059904396533966064e-02
-4.722021734253715741e-01,-3.843630390609164560e-01,-4.655020394337279765e-01,-3.711372728249673347e-03,2.120264648407551786e-03,-5.256589875833935638e-03,8.549723029136657715e-02
-4.371609342093852879e-01,-4.252386716653767662e-01,-4.379513172938219179e-01,-1.456952520535358163e-03,3.929396908022801845e-03,-8.710911234144448406e-04,1.439281832426786423e-02
-4.671337151454755809e-01,-3.692150734337051321e-01,-4.705549995971604060e-01,-8.792747510858390375e-03,-2.878158664313306640e-03,3.067261982269676567e-03,1.010929569602012634e-01
-4.578327839800093724e-01,-3.679632486685379122e-01,-4.503121956543436610e-01,9.797703043006969243e-05,-1.007592175103676647e-03,-9.654914797466562087e-03,8.797696977853775024e-02
-8.100979679873818728e-01,-5.874747537618787430e-01,-7.390187747513419225e-01,-1.113217353600817333e-01,-2.792082747739444565e-02,-1.994323774948406347e-01,4.445509910583496094e-01
-4.565135567402817673e-01,-4.010524733801082431e-01,-4.627592878393487208e-01,-1.109525709879138726e-02,-2.161572220422556731e-04,-1.066983077143582488e-02,6.459354609251022339e-02
-4.624717785835442685e-01,-4.011090291317341849e-01,-4.531960754748518561e-01,-2.989696697919332915e-04,1.466036395382953146e-03,-1.266484548867729404e-02,6.140157952904701233e-02
-5.292596605684132260e-01,-2.018118362588393055e-01,-5.488402305838668838e-01,-6.434978929880867671e-02,-4.939568068719588090e-02,8.683020027891387438e-02,3.954466283321380615e-01
-4.435559637738449856e-01,-3.043672240431458675e-01,-4.524167301021768672e-01,-7.783336360549388162e-03,-2.742624062989232250e-03,-1.102363563529100594e-02,1.457882225513458252e-01
-4.521797885732729005e-01,-3.582452289824097358e-01,-4.262148468825335823e-01,4.542210093805438761e-03,6.427631709866596550e-03,1.733364333945769387e-02,9.025562554597854614e-02
-4.705758772078171281e-01,-3.634682572435066206e-01,-4.483840986392995109e-01,1.238247756628856402e-03,-3.260184147432060656e-03,1.251436283771924750e-02,1.004685163497924805e-01
-5.514127089626457145e-01,-3.378705982740886626e-01,-6.237951541851289861e-01,1.395264598162669067e-01,3.374621545731225358e-02,8.215670769353393410e-02,3.851813077926635742e-01
-4.149190734097540356e-01,-2.046177245483781770e-01,-3.659642373917915137e-01,3.968551842533300095e-02,2.071959390889084943e-02,1.127644943183497422e-01,2.837044000625610352e-01
-3.917284778028799486e-01,-4.078988219282105310e-01,-3.535313649091148536e-01,-5.985407007525130052e-02,-5.912524835056959249e-02,6.957885968606272731e-02,1.951838284730911255e-01
-3.917042702153689104e-01,-2.782405092523182466e-01,-3.304344485749645677e-01,7.424509862837413987e-02,6.178177087622748614e-02,1.187014651149834177e-01,2.827263474464416504e-01
-4.266817733048829386e-01,-4.222654401348209241e-01,-4.494211734955725901e-01,6.507187780895951415e-04,-2.156651942661153877e-03,-8.561175755794950791e-04,2.558186091482639313e-02
-4.188247756063366301e-01,-4.144756572762564040e-01,-4.513217292672464520e-01,8.968265012892120969e-03,-1.935043258479645029e-03,-2.043031114258216010e-03,3.848823532462120056e-02
-4.213867253990027928e-01,-4.261018505533474832e-01,-4.474449715094002133e-01,2.318323241271253148e-03,-2.285566764021348084e-04,-3.347143068982246145e-04,2.439289540052413940e-02
-3.713752687223365601e-01,-4.037694196241415345e-01,-3.694400745204892700e-01,3.158871808163961348e-02,4.704022328100947170e-02,3.489466833963079245e-02,1.200025752186775208e-01
-4.444136709329272183e-01,-4.417703693984922353e-01,-3.982378767224341587e-01,1.164729325311662442e-02,1.734394711536692626e-02,1.575805331631541586e-02,6.380829960107803345e-02
-4.206763022691717979e-01,-4.401160939255313043e-01,-3.860478452849448461e-01,1.299343055230554704e-02,1.694444640549442466e-02,8.183915106961793529e-03,6.179777905344963074e-02
-4.408550196737772708e-01,-4.023789190768570223e-01,-4.059665500958241080e-01,-1.219013755103652910e-03,-1.505698046696339479e-03,6.432746049527511036e-03,3.860885277390480042e-02
-4.934602711628987004e-01,-4.450580774121470351e-01,-3.449830366517729896e-01,4.722510501550672489e-04,2.539372088092175725e-02,6.329072503421731555e-02,1.765048950910568237e-01
-4.349693701771750742e-01,-4.109830449689256260e-01,-3.963589551355041762e-01,1.376323676505524819e-02,1.156372898095741134e-02,1.717613313636387473e-02,5.472188070416450500e-02
-4.178089545871895294e-01,-4.120300020045544187e-01,-3.936316301744094415e-01,9.324239306513307582e-03,3.760757815747659948e-03,5.145792429344896168e-03,2.934129349887371063e-02
-3.718952642082382076e-01,-4.165767218862542753e-01,-2.296802423765871293e-01,3.300937464227913370e-02,1.257614166492906638e-01,7.898816686945700494e-02,3.130654394626617432e-01
-5.002823809065177763e-01,-4.555379246682156880e-01,-4.017742265528175261e-01,-7.466144555422820663e-03,-1.773212100091204778e-03,3.227262619047970016e-02,1.029536724090576172e-01
-4.387760473709160780e-01,-4.484244279909879727e-01,-3.808746815436327982e-01,-1.315240126942332499e-02,3.042258388181978690e-02,-9.417581491246813583e-03,8.698243647813796997e-02
-4.319353001753673538e-01,-4.531723770670965656e-01,-4.275456603805246614e-01,1.282258231308864953e-03,-6.484556184115847395e-03,-1.443779546560315739e-03,2.647338248789310455e-02
-5.337457340235953751e-01,-5.216841251889151598e-01,-3.952908314963546887e-01,3.318384949899626929e-02,-6.908941939147940359e-02,-9.895172191827533714e-02,2.542501389980316162e-01
-7.663213159816408826e-01,-7.716141586078981707e-01,-3.645679439768800822e-01,-4.262529408058070290e-02,-9.545208801906164553e-02,-6.994224655040885696e-02,4.593691527843475342e-01
-4.612337707203652548e-01,-4.355627816749456649e-01,-4.377949381096531978e-01,-6.860023191678290026e-04,1.412937631354208240e-03,-4.201970655496017025e-03,2.582733333110809326e-02
-3.920121560688097917e-01,-3.667802726316564121e-01,-4.463756433916990507e-01,5.234553175602551373e-02,-1.595689629006356858e-02,-3.152851934374240744e-02,1.301149725914001465e-01
-4.553961607283897872e-01,-4.463618266556912406e-01,-3.591527136999642655e-01,-6.727463317791061411e-04,9.461023220667728710e-04,-1.136889299210550519e-03,9.210236370563507080e-02
-4.529289304234659919e-01,-4.818587712301780623e-01,-3.994618327564415372e-01,1.691250080387583137e-03,-3.271501758899320045e-02,6.510600404914887278e-03,9.267698228359222412e-02
-4.289289598287108762e-01,-4.682987197621949482e-01,-4.451592437750799269e-01,8.588142265994032354e-03,-1.877498276581828288e-02,-9.478637621184830830e-03,5.217969045042991638e-02
-4.199651420314477468e-01,-4.265518706367277812e-01,-4.346981425297869461e-01,5.759215779080965360e-03,-3.778138658076847251e-03,-6.089905155872578357e-03,2.042041905224323273e-02
-4.506918366584701796e-01,-4.294389702113450280e-01,-4.078523493273627509e-01,2.113024362342547265e-03,-5.024417968960277455e-04,-6.765828268426207250e-03,3.908868506550788879e-02
-4.644216929809570349e-01,-4.783858657708895401e-01,-4.229047002649042319e-01,6.677489238687356332e-02,-6.876592685244505010e-02,-1.098104181334781382e-01,2.573641538619995117e-01
-2.001863493996475230e-01,-3.913962576198345977e-01,-3.070449302314974260e-01,5.032177062844980092e-02,1.320428440887843613e-01,4.016308787468983454e-02,3.037919700145721436e-01
-4.313305511993538177e-01,-5.483454884982580380e-01,-4.972578861601545941e-01,-7.484370351714202119e-02,1.088905089403581078e-01,-1.356995407232114426e-01,3.434292972087860107e-01
-4.208482420092052312e-01,-4.895140690031480335e-01,-5.149731929970901012e-01,-3.775077952799797687e-02,-1.994415337451507092e-02,-1.617620306996137361e-02,1.156071573495864868e-01
-4.568964915055297449e-01,-4.764489664959092874e-01,-3.580618587208719839e-01,3.036825471608791197e-02,4.464584676412353820e-02,4.383289101779108687e-02,1.630750149488449097e-01
-4.261614509588119715e-01,-4.339717330725939015e-01,-4.128617720665445634e-01,-3.046989358513441104e-03,3.391653678533868097e-03,-1.804290609959253089e-03,2.034416235983371735e-02
-4.839153223644715451e-01,-5.489482415869215703e-01,-5.946514080319956763e-01,-1.332579209935516318e-01,2.048610842424074957e-02,-1.205360929715760115e-01,3.277333974838256836e-01
-3.678180161503376566e-01,-4.228798271816592846e-01,-4.203635055678422439e-01,9.216488597402646560e-03,9.679167774063399121e-03,1.270733767712710349e-02,6.260911375284194946e-02
-3.682288433660644844e-01,-4.297626151649891479e-01,-4.390698703488826182e-01,9.258588073344946323e-03,5.358802873645418345e-03,1.260488712737116261e-02,7.256517559289932251e-02
-4.531150735152922326e-01,-4.620102904106582198e-01,-3.325065344380319088e-01,-1.195167747588653543e-03,4.651732338582221377e-02,4.520394519145462357e-03,1.491829603910446167e-01
-3.799398430230582768e-01,-4.567445967461246648e-01,-4.273395725947913282e-01,3.389340186800948208e-03,7.987116434131257686e-03,1.933750833024383119e-03,6.886394321918487549e-02
-4.104187734838847801e-01,-5.036975920768111958e-01,-4.596201470176736192e-01,-2.396913447885070519e-02,4.715149910834991187e-02,-6.450822928413315997e-03,1.226802989840507507e-01
-4.107815809591877088e-01,-4.138813356312082692e-01,-4.190367517283501431e-01,2.035643908994807551e-03,2.466054537584800102e-03,5.364920097244929575e-03,1.300731487572193146e-02
-4.145200325444060585e-01,-4.145017520926135846e-01,-4.452913148085415052e-01,1.967010244945109707e-03,-2.633129063445750501e-03,-9.467058651738299814e-04,3.134534880518913269e-02
-4.232697276172240342e-01,-4.255945880093606193e-01,-4.444244761840753788e-01,1.214082354115555247e-03,-1.729017457066073151e-03,-2.743032602543417787e-03,2.096925675868988037e-02
-4.095385320806160245e-01,-4.146778753650736671e-01,-4.417838631652842851e-01,4.975878774717901361e-03,-6.099370564104835551e-04,-1.775941244148271109e-03,3.138965740799903870e-02
-4.247615254656386674e-01,-4.186631435039145366e-01,-4.477729856594674374e-01,2.860670797010174057e-03,-5.914980154381954073e-04,-6.809236290074576099e-04,2.709319256246089935e-02
-4.171801662160304347e-01,-4.183026893540857105e-01,-4.588099527617719997e-01,6.771882187547064585e-03,-1.980826083353351332e-03,-1.448095341012934191e-03,4.293257370591163635e-02
-4.104074614666538001e-01,-4.107894722822248990e-01,-4.348534262735526679e-01,5.487151517127458918e-03,-3.254024335512638397e-03,-1.767807338498818964e-03,2.683058753609657288e-02
-4.067067075542806776e-01,-4.099236721985607956e-01,-4.511075799268218778e-01,1.311196723000615256e-03,3.455465732158182510e-04,-3.721198884231913706e-04,4.295208677649497986e-02
-3.885911382504866896e-01,-4.244242604278051223e-01,-4.112391246982897708e-01,2.962327314310809426e-03,4.363547919807427879e-03,8.770045412289513911e-03,3.604975342750549316e-02
-3.769821988678456748e-01,-3.971130298888746468e-01,-4.125687459516784727e-01,2.170495600646443410e-02,1.383670552622281828e-02,1.604018962240530422e-02,6.094922125339508057e-02
-4.653174246921782942e-01,-4.645204238993814183e-01,-3.409361687443573374e-01,-1.310785042597578047e-04,4.734886106128937018e-03,7.486934227324192233e-03,1.249306648969650269e-01
-4.374705557753374996e-01,-4.158970718349470630e-01,-3.883417092710837459e-01,7.574070030614853122e-03,4.540011785585567131e-03,4.347901081168109062e-03,4.593284055590629578e-02
-4.461200523283860853e-01,-4.084572077156716774e-01,-4.078028422167392919e-01,6.389242885540155625e-02,6.514053335915785670e-02,9.075240320913949277e-02,2.261153608560562134e-01
-4.176774616952193542e-01,-4.223563151504070023e-01,-4.042290348759191576e-01,6.571480721622759147e-03,3.515934105209817060e-03,3.685866198682921559e-03,2.175018005073070526e-02
-4.138691301531134958e-01,-4.445620319379571805e-01,-4.062313255154704206e-01,7.184445126684577132e-02,9.781558622973388073e-02,7.170441239288188884e-02,2.466737329959869385e-01
-4.222774711997033248e-01,-4.016302277104899510e-01,-4.331382819661671602e-01,1.220798312014460991e-02,1.040885826723742316e-02,9.114261164964923903e-03,4.230671748518943787e-02
-4.379968713391597657e-01,-4.135900962770304168e-01,-4.801013774334390583e-01,8.401458347806035898e-02,5.580117227066151014e-02,7.268176543046694915e-02,2.230710536241531372e-01
-4.054054949504770078e-01,-4.394476622243823627e-01,-3.820945858816936491e-01,1.452317035482836131e-02,2.191069233936801877e-02,1.279636535392162343e-02,7.113413512706756592e-02
-4.362660719799855702e-01,-3.816138823698987936e-01,-4.105104710971509419e-01,3.508635460986378376e-03,8.656810685837590738e-03,5.337654569536746593e-03,5.089044198393821716e-02
-4.449890555237683842e-01,-3.717091226625321987e-01,-4.250951144044335384e-01,3.808630083727806287e-03,9.622956703726551209e-03,6.938662712874868466e-03,6.909158080816268921e-02
-4.557969074021716027e-01,-3.590285489799001084e-01,-4.301775682059206796e-01,1.264944987802679548e-02,2.680786439485078644e-03,3.156422449966218846e-02,1.050324290990829468e-01
-4.098249419700161766e-01,-4.408728035573008519e-01,-4.057112782328977652e-01,1.004326094088231177e-03,2.090221825349877164e-03,1.317266864355687165e-03,3.361474350094795227e-02
-5.330245197610481434e-01,-3.986690989862388124e-01,-4.053462555508482446e-01,1.112578480893860675e-02,1.416506765212308463e-02,1.073790804002779514e-01,2.297018766403198242e-01
-4.702579816034839766e-01,-4.686880010309130706e-01,-5.079446683066761725e-01,-4.270763519024435573e-02,-1.523005951386896366e-02,8.181873296584865271e-03,8.860269933938980103e-02
-4.417849153748042434e-01,-4.401379696256818574e-01,-4.336412071817833391e-01,2.563588238941207856e-03,-2.423909519059334276e-03,-2.983771685696369989e-03,1.093941554427146912e-02
-3.877266350083464763e-01,-4.984667488902711496e-01,-5.395876284570987336e-01,5.858658125475837281e-02,-8.982069040198679966e-03,-1.606419359290163495e-02,1.726887375116348267e-01
-4.142729650747779546e-01,-4.107303617878088065e-01,-4.534242654888732127e-01,5.099950045867602047e-03,-9.826721951403062302e-04,-2.136413743007630449e-03,4.217451810836791992e-02
-2.904525316127415380e-01,-2.429824526533691242e-01,-4.403231064405350725e-01,1.507366297727628923e-01,9.706501206421391456e-03,1.991724360082421097e-02,3.185377418994903564e-01
-4.235302632906202680e-01,-4.389528776682751765e-01,-4.315577883773176193e-01,1.983666935406293470e-03,-3.758348587133079899e-03,-5.754608154237427116e-03,1.822140626609325409e-02
-3.722554352844404946e-01,-4.344737445413097143e-01,-4.416628972535371900e-01,5.146089582713429117e-02,4.886193049658046905e-02,4.086102622971980736e-02,1.564803719520568848e-01
-4.058191989825642443e-01,-3.849086263526770302e-01,-4.205811406600138413e-01,2.138977357919940106e-02,1.780174011499837880e-02,1.701515676275713526e-02,6.446446478366851807e-02
-4.017403062737753827e-01,-4.060663122334013941e-01,-4.425186329395224272e-01,7.437190931327226050e-03,-5.642001043972991268e-04,-1.971839174267977623e-03,4.103332385420799255e-02
-3.790817198084911466e-01,-4.059622300324352007e-01,-4.414219590177944075e-01,1.222426238702838293e-02,5.563564255033310452e-03,5.384217741173460449e-03,5.967626720666885376e-02
-3.591405799964450529e-01,-4.687771950070996896e-01,-4.624311348153874457e-01,3.556486192563489829e-02,2.695407953750563954e-02,4.391189144128007475e-03,1.318965256214141846e-01
-4.467187670800161214e-01,-3.573129625847566992e-01,-4.516584357560824436e-01,5.612707341439757310e-03,5.497922355974269731e-03,6.822541837725149341e-03,9.372439980506896973e-02
-4.453945535355411378e-01,-3.727805661873032639e-01,-4.291465320167189845e-01,-6.318493026035251758e-03,-6.788404909192568074e-03,1.314376837399239273e-02,7.164669781923294067e-02
-5.706099417611820712e-01,-6.772761983717289214e-01,-7.606116204365053202e-01,-1.716780265501618996e-01,1.213529567086845014e-02,-9.301694837107354896e-02,3.768684864044189453e-01
-4.456557690282921258e-01,-4.094884764685099432e-01,-4.653861152487578368e-01,-1.739009924240562943e-02,-8.132896665522958493e-03,5.348385245894171115e-03,6.002039089798927307e-02
-4.571574889870309022e-01,-4.176990060885248934e-01,-4.795723968483426858e-01,-1.589512304333209544e-02,-4.147817623926661895e-03,3.532667982289117853e-03,6.157008558511734009e-02
-4.292139302010157809e-01,-4.324961261641149801e-01,-4.490204960674266665e-01,-9.078840739376365819e-04,-1.023795128444546969e-03,1.131394994866216294e-03,1.864192076027393341e-02
-4.449866613257680292e-01,-4.116711911935065360e-01,-4.611455284223481832e-01,-2.206822691718940150e-03,2.027918601936357665e-04,-1.197231736964071138e-03,4.391359165310859680e-02
-4.740096278239981920e-01,-4.122139694091413453e-01,-4.304900552445551365e-01,-1.448924556262945950e-03,-3.251396362358455888e-03,1.429423906026158590e-02,6.061620637774467468e-02
-4.280518698361477914e-01,-4.317147872622731919e-01,-4.255029399321121897e-01,4.262653371296294853e-03,-3.497864279746991899e-03,-3.664038378427774897e-03,1.267840154469013214e-02
-4.743971184139874619e-01,-4.776655689296897545e-01,-5.282130431728494502e-01,-4.583153300484853893e-02,-7.069356379360708376e-03,-9.709239618178983414e-03,9.728959947824478149e-02
-3.996393882973283129e-01,-5.011164860456936987e-01,-4.991645657030512884e-01,-4.695910088576962099e-02,4.762672481341094499e-02,-2.307347953004923805e-02,1.584956794977188110e-01
-4.908090320996406075e-01,-4.174374804137263584e-01,-5.103773353090662601e-01,-2.524092418128090834e-02,-1.215408149729933079e-02,2.319668376388495101e-02,1.056919842958450317e-01
-4.374696152950308115e-01,-4.458135935061947053e-01,-4.729443543494320501e-01,-1.315467381222331332e-02,-4.504105356035895753e-04,7.449078605242897123e-05,3.939340263605117798e-02
-4.330240753097979733e-01,-4.114587423039581249e-01,-4.482153552445606315e-01,-6.145331971995672722e-03,5.187077265133647683e-03,-1.793734657294404188e-03,3.503011167049407959e-02
-4.238011062825770559e-01,-4.122881430368992572e-01,-4.497625958418460246e-01,-7.757531222262375840e-03,7.497668861267309292e-04,-1.063991080550885648e-03,3.593134507536888123e-02
-4.305132505715123514e-01,-4.158498898887853512e-01,-4.468050419842359289e-01,-5.000021571457505774e-03,5.170734528417168276e-03,-2.070045495755821769e-03,2.978916652500629425e-02
-4.067375972920662108e-01,-4.098116211557806254e-01,-4.234836041372881943e-01,6.226227326885100562e-03,6.237605944852886268e-03,6.735929351588045878e-03,2.464832365512847900e-02
-4.230803483413206889e-01,-4.102128861012970806e-01,-4.460025094524508460e-01,-8.759370650402614408e-03,-5.272933890092283346e-03,3.331708698783450006e-03,3.650806844234466553e-02
-4.298131573201319222e-01,-4.204152682127766383e-01,-4.515808310140712600e-01,-1.173583329418662231e-02,-4.916347263821889413e-03,5.422586265395178996e-03,3.661470115184783936e-02
-4.270900174303913222e-01,-3.896013357913659658e-01,-4.549324537515484490e-01,-8.897278374577216598e-02,2.943929999717841833e-02,-5.601569254565953032e-02,1.974490731954574585e-01
-7.070031837610287750e-01,-6.033979422680869620e-01,-3.278944733371755849e-01,-2.735992040578759041e-02,6.061099148984803141e-03,1.647570658067671334e-01,4.460609853267669678e-01
-4.648860995556214903e-01,-4.470235836045340361e-01,-4.043022051798882410e-01,-7.012910603372039635e-03,-3.494841366662000508e-03,1.163286053913996365e-02,5.913925915956497192e-02
-4.404282207528051329e-01,-4.424532877836215849e-01,-4.203726077708028197e-01,-5.082790089641932123e-03,-1.891380244869547613e-03,1.866061230846102889e-03,2.335862256586551666e-02
-4.535697958542015407e-01,-4.283886014343837867e-01,-3.806707494825668503e-01,-3.462988895714931657e-03,1.669679213242770098e-03,6.573578362205142675e-03,6.547255069017410278e-02
-4.708099858295163864e-01,-3.768987911448202777e-01,-4.204832127403403397e-01,-7.158249743087641108e-03,-6.860690522163572815e-03,3.406911137109147614e-02,1.019945666193962097e-01
-4.441097907687363566e-01,-4.562790071041976647e-01,-4.170072345908754641e-01,-4.295793776967495557e-03,-3.074275579946252491e-03,3.256521276538945023e-03,3.644153103232383728e-02
-4.725562356629534611e-01,-4.272398057726369269e-01,-3.917677034607127684e-01,-3.089962310997788550e-02,-7.117661916005979528e-02,8.455966476411612420e-02,2.107914239168167114e-01
-4.405657278531681098e-01,-4.509055773139531431e-01,-3.809576218526896652e-01,-1.308284062051753849e-02,-1.854400482842125109e-02,1.794069649552619550e-02,8.238389343023300171e-02
-5.597188239669630416e-01,-3.062427281917232125e-01,-4.405706221380256693e-01,1.161417898666654118e-02,-3.434771016048972919e-02,1.888373318427741254e-01,3.989583551883697510e-01
-4.517207364681804505e-01,-3.525070504901227642e-01,-3.875745159026823261e-01,-1.284018217867967208e-02,-1.568058538629783435e-02,6.033084305551449783e-02,1.405190229415893555e-01
-4.634865363003686234e-01,-3.852550913985942627e-01,-4.325894099787557789e-01,2.155694684887334662e-04,2.073793925303600658e-03,8.302203090021021206e-03,6.983900070190429688e-02
-5.243291983642848209e-01,-4.477695031669052250e-01,-4.491266962495156223e-01,-1.857436942206805441e-02,-9.826818096141123893e-03,7.667356031982815179e-02,1.572276949882507324e-01
-3.134196087914917217e-01,-3.278374126011442402e-01,-1.807129140672388834e-01,8.161610287150376786e-02,1.261957847380110465e-01,1.204941341857523190e-01,3.620061874389648438e-01
-4.402408616367989302e-01,-4.674794460855023481e-01,-4.429011399011564820e-01,1.985886956468819586e-03,-1.768730337359624913e-02,-4.060448405792967293e-03,4.094350337982177734e-02
-4.796221591546584451e-01,-4.312759788882387091e-01,-4.242743609281993122e-01,-3.660849191451491253e-03,-1.755383105875841631e-03,1.926302693125648419e-02,6.234997510910034180e-02
-4.630675288554993996e-01,-4.383840521088828157e-01,-4.688789828297737494e-01,-1.747962059913077404e-02,-9.062038514319496404e-03,1.302481075629414488e-02,4.958229511976242065e-02
-4.399734348140334483e-01,-4.041787290139120525e-01,-4.346415410095307852e-01,-6.943415311502818855e-03,-7.250339157828033371e-03,4.819241345447686231e-03,3.861149027943611145e-02
-4.256863215931258049e-01,-4.191601922242891298e-01,-4.327499838873063998e-01,-4.113140684700760004e-03,-5.160570881966308754e-03,3.467449851152978012e-03,1.747289113700389862e-02
-4.772286786259962721e-01,-4.065944433942494940e-01,-3.864049083792749917e-01,-8.241123617975673610e-03,-1.435735665299048107e-03,3.587598888547840342e-02,1.043746918439865112e-01
-4.693397102343399574e-01,-4.685984619481007307e-01,-3.584346670290989856e-01,1.880718968395512407e-03,1.718093537596609294e-02,1.421884930650696953e-02,1.171365082263946533e-01
-4.752234629948791089e-01,-4.675335754184890558e-01,-3.572777715415695887e-01,-1.316024103341297165e-03,2.508508550750767046e-03,1.010845857045464778e-02,1.157322227954864502e-01
-4.543218649298924605e-01,-3.598278907149091155e-01,-4.344850385154287453e-01,2.809784129650727286e-03,5.766919161302989753e-03,1.389618662252234058e-02,9.028244018554687500e-02
-5.194780976241968329e-01,-3.753545644976066797e-01,-4.031942798156049057e-01,5.138770151995860312e-03,2.509359455248259471e-02,9.132451665821360309e-02,2.110049128532409668e-01
-4.517648016369690267e-01,-4.274431466878745867e-01,-3.644240720142571943e-01,-1.187444731595257204e-03,1.092727506030700892e-04,1.658925249100468707e-02,8.321989327669143677e-02
-4.603741482347442071e-01,-4.599917128762944785e-01,-3.512835091141853772e-01,-1.979384097597345401e-03,1.576108476248366808e-03,1.037759517948599192e-02,1.104603260755538940e-01
-6.442084658012685594e-01,-5.144318497253312916e-01,-2.505503551752084057e-01,-6.958456692489378356e-03,-1.960095903190227015e-02,8.508236501371746474e-02,3.791252374649047852e-01
-5.502238158348611297e-01,-6.233359617606855085e-01,-2.206997295446163632e-01,-2.545385226209790144e-02,5.561773112856669560e-02,7.763748623934915716e-02,4.090600907802581787e-01
-5.215855898717786099e-01,-4.487061612525062859e-01,-2.795938835708175474e-01,1.519855775447047884e-02,1.047254682718416242e-02,9.789227359576896381e-02,2.756916582584381104e-01
-4.860748517426961568e-01,-4.212309677305424160e-01,-4.020727374369916229e-01,-3.248136881896107608e-02,-3.224655454708660191e-02,4.749002719109081394e-02,1.373484879732131958e-01
-4.336673843852423826e-01,-3.802635370093765954e-01,-3.143091065678291773e-01,1.901526424209368932e-02,3.030270109777230200e-02,6.114497275405334636e-02,1.605609059333801270e-01
-4.431002290341593541e-01,-4.160869203354191082e-01,-4.131164739683101383e-01,-1.993411862023490837e-03,-6.733045290866268356e-04,4.983346134315113328e-03,3.010923974215984344e-02
-4.943021118683095794e-01,-4.514389430578929496e-01,-3.584047172701310124e-01,-1.860212804212780721e-02,-4.463325486323507091e-02,6.729860662213626998e-02,1.873023360967636108e-01
-6.078306955043316639e-01,-3.697404071688242255e-01,-4.448681616908613523e-01,1.053366176405456760e-02,-5.528312274768109463e-02,1.424265796423145880e-01,3.388237059116363525e-01
-4.903669343028645988e-01,-4.875534955267611381e-01,-3.360337276079957691e-01,-1.062738543110757286e-02,3.961021847168437471e-02,2.223928149564887574e-02,1.729795783758163452e-01
-4.341444304648194863e-01,-3.775251648745790445e-01,-3.494863155459089210e-01,9.347699076182866551e-02,9.704333393778200034e-02,1.721214678829864342e-01,3.859053254127502441e-01
-4.486458388917267115e-01,-4.490649266941670326e-01,-4.047882552848657278e-01,-1.041656157543752355e-02,-9.084537052063695536e-03,5.213772118529648968e-03,5.095776915550231934e-02
-4.451779641693689449e-01,-4.384332768336401398e-01,-4.058040185249249254e-01,-9.921836766789229184e-03,-9.034726073234978713e-03,4.319431492572877763e-03,4.389092326164245605e-02
-5.217204622731826946e-01,-6.228693766605120086e-01,-3.615656259373341008e-01,-1.178635678003893822e-01,-9.771348050491497628e-02,8.863848512198306551e-02,3.820598721504211426e-01
-4.616792583115812421e-01,-4.281862386274969401e-01,-4.152544525298456080e-01,-4.961537220358578845e-03,-3.396409909613558927e-03,1.426588833849879931e-02,4.940791428089141846e-02
-4.620231589935516192e-01,-3.707017172954196749e-01,-4.496546822709372448e-01,-7.018019525308638942e-03,-7.397002049397172728e-03,6.914720729822155902e-03,8.842184394598007202e-02
-4.499199395205260021e-01,-4.135640095546970207e-01,-4.225424393591807881e-01,-4.034946483209170785e-03,-5.013182958576962306e-03,7.164597338333660546e-03,3.679917752742767334e-02
-4.473681114282484494e-01,-4.130167173027817773e-01,-4.015359498219100431e-01,-2.165836263126934280e-03,-1.415838382477739143e-03,7.189035572636987177e-03,4.337441176176071167e-02
-4.182608499834525317e-01,-4.184422164855705617e-01,-3.658233378775375133e-01,1.171585784477758088e-02,1.151102466468656264e-02,9.147679196771649895e-03,6.180267781019210815e-02
-4.259971758924286367e-01,-4.358457007997173505e-01,-3.703220914895408722e-01,1.083606810940505698e-02,1.069192744912872417e-02,5.574046238951986705e-03,6.733088940382003784e-02
-4.037767745171034206e-01,-4.446140692978750031e-01,-4.148560522312338406e-01,1.963055890697180082e-03,3.951452895687330991e-03,5.479978130473883366e-03,3.855490311980247498e-02
-4.053224265386950464e-01,-4.338559720523885721e-01,-4.071153433551804590e-01,2.401584372147720094e-04,7.225577196342921260e-04,2.460057558398978834e-03,2.803773246705532074e-02
-4.077313693622118262e-01,-4.131045547128242568e-01,-3.973017766449558064e-01,1.113157195047980233e-02,9.689839374867404917e-03,1.102565159934362771e-02,3.481087833642959595e-02
-4.361350136476318529e-01,-4.083149020139147378e-01,-4.058149486098731606e-01,2.913946596897131272e-03,8.729869502110182335e-04,6.086081080299557064e-04,2.964166179299354553e-02
-4.505612773201735366e-01,-3.795732909830398794e-01,-4.113515737862969424e-01,3.414216765380590911e-04,2.436078603672317371e-03,1.135052331965634431e-02,6.479146331548690796e-02
-4.468355605746566761e-01,-4.089881295935668959e-01,-4.013336999933946880e-01,5.086679209075322360e-03,1.371796294674396208e-03,5.441055974700101210e-03,4.419052600860595703e-02
-4.535426932860133209e-01,-3.145505340903466673e-01,-4.800806908419467112e-01,5.662959070793557870e-02,1.013441121837766953e-02,3.795624137078804083e-03,1.835312843322753906e-01
-4.346861406673913075e-01,-4.025978307972162273e-01,-4.069104036594097251e-01,2.246583514838513315e-03,5.389632866374151343e-03,4.085527767881085362e-03,3.259195014834403992e-02
-4.264294912483746480e-01,-4.308211952297223424e-01,-4.196942526616589397e-01,7.691069964326864919e-03,4.063947688223525090e-03,6.382033406983217590e-03,2.105766907334327698e-02
-4.171371460254626462e-01,-4.592393123826201129e-01,-4.220990252878906723e-01,-3.075319390607038437e-03,6.125766775103816571e-03,-2.230039935871543089e-03,4.176330566406250000e-02
-3.506458607708619057e-01,-4.355792185507257330e-01,-3.801612987002584987e-01,8.690486893472321173e-03,3.888649914774549438e-02,9.860945329572490259e-03,1.031152680516242981e-01
-4.424898970824174826e-01,-4.308726672964269255e-01,-4.382411095299156290e-01,-2.320528140440132701e-03,2.043073760243963987e-03,-1.200135437532023159e-03,1.168978493660688400e-02
-4.530361062943845663e-01,-4.472502638597662949e-01,-4.552663840859008659e-01,-1.865820300245879873e-02,8.181452010992238885e-03,-1.087797332898460777e-02,4.063913226127624512e-02
-4.237919818349835666e-01,-4.424794983535690340e-01,-4.203642321659917247e-01,-3.561635581565806424e-03,4.644745285815923483e-03,-4.821434917259025989e-03,2.444471977651119232e-02
-4.236415812543950499e-01,-4.479376249517480479e-01,-4.146851489710307037e-01,-3.680514785315469085e-03,3.869418820237411315e-03,-9.441709809400437468e-04,3.124662302434444427e-02
-4.167655267709171607e-01,-2.368616898681321636e-01,-3.532665590213917017e-01,6.233828302121556530e-02,4.968949758992829979e-02,1.052107112875797501e-01,2.779334485530853271e-01
-3.214147947968039598e-01,-2.917766514694032920e-01,-3.797360782544993985e-01,1.373520397057900744e-01,7.727946097498619715e-02,8.790413956714816790e-02,3.220292329788208008e-01
-4.246399948185122786e-01,-3.877795647706014370e-01,-4.325464967573722230e-01,4.241010939937656272e-03,1.155839669755428720e-02,7.262185388035133533e-03,4.822454974055290222e-02
-4.015245024048673117e-01,-4.000249414300396933e-01,-4.508140897721501505e-01,1.474472929847303951e-02,4.131289886516851910e-03,4.523369826172032762e-04,5.665388330817222595e-02
-4.676610919219119644e-01,-3.868491463638349392e-01,-4.915728348872818732e-01,7.563485193082226943e-02,3.407666320530401000e-02,6.255255362803902042e-02,2.035158723592758179e-01
-4.217349476016487020e-01,-3.711380349034723025e-01,-4.351913142465361206e-01,5.141546752760819960e-02,3.297813911689306127e-02,4.384780647463709657e-02,1.427696943283081055e-01
-3.587735289416151274e-01,-4.632311676390079569e-01,-3.755186471135793513e-01,1.188892788848297799e-01,1.478494880186907168e-01,8.300826334984350019e-02,3.716129064559936523e-01
-3.622932550965482501e-01,-4.518916640056908074e-01,-4.295833064710786742e-01,4.955688549328311765e-04,1.744738102554149392e-02,-1.980508516689652616e-03,8.632775396108627319e-02
-4.316035826288678323e-01,-4.341415847345237444e-01,-4.580523797562486288e-01,-5.942243481523460692e-03,1.340708627415127744e-04,-3.282069829651150603e-04,2.729763835668563843e-02
-5.168919274063972225e-01,-5.339991659506602151e-01,-4.728603318335058980e-01,-3.344488864520972493e-02,-6.194669347217750255e-02,2.742863901248727282e-02,1.418081372976303101e-01
-4.224727269567310484e-01,-4.374372102262558681e-01,-4.486746060619659082e-01,-3.934890159207423202e-03,-1.829406090264074861e-03,5.898410210587768342e-03,2.606224454939365387e-02
-4.286232289832467846e-01,-4.396607575572850646e-01,-4.503429969779375042e-01,-2.028854888987946265e-03,-2.123418454314437162e-04,3.679279220366674704e-03,2.017270773649215698e-02
-7.030603190193183138e-01,-4.392736955086373185e-01,-7.248479415052985209e-01,-1.431195039609452213e-01,-7.948097234850544368e-02,5.963896719964978388e-02,4.085058569908142090e-01
-4.235801825290962386e-01,-4.258051997005201095e-01,-4.432876522507093187e-01,-6.855639755871171387e-03,-3.941495316401337143e-03,4.247368362174573815e-03,2.431484311819076538e-02
-4.184199249897064266e-01,-4.334737545957728089e-01,-4.437465782577419970e-01,-1.117104071000749564e-02,-8.874614023835868462e-03,9.585876233245728406e-03,3.705555200576782227e-02
-4.439986458195380181e-01,-4.096070355179482481e-01,-4.308908918347775230e-01,-9.112974864439208830e-03,-7.767077705235716015e-03,9.440192471073968056e-03,4.001590237021446228e-02
-4.369528440365579858e-01,-4.355885381707630954e-01,-3.856850695241529348e-01,-1.369306258430441452e-02,-2.023723696185678392e-02,2.518033527802628763e-02,7.907962054014205933e-02
-3.816981805533776195e-01,-3.674974356577381251e-01,-2.900727043855937382e-01,3.351801725691114231e-02,4.889585393793823703e-02,5.353670039629199184e-02,1.625947654247283936e-01
-4.307643642828212216e-01,-4.057491002780810319e-01,-3.989283740354195307e-01,5.090626833876893756e-03,2.175188107138599416e-03,2.828808082126056753e-03,3.096533939242362976e-02
-4.311728134815441815e-01,-4.094707005354936702e-01,-4.125873151702935115e-01,1.430225410459068239e-03,1.079068211457513042e-03,4.656440609964749362e-04,2.057518251240253448e-02
-4.899623384799222103e-01,-3.111503412650283296e-01,-4.271134710545458901e-01,4.103558545198315866e-02,2.577648032648139145e-02,8.508308420449574305e-02,2.311882525682449341e-01
-4.386131193613438395e-01,-4.205419492370836010e-01,-3.627368441497906271e-01,2.868074178745445846e-02,6.753499566539600263e-02,6.911084942406205134e-02,1.875958740711212158e-01
-3.511134164515606337e-01,-3.635813591716565152e-01,-3.706306665994746896e-01,5.565431130659474063e-02,5.526219521546913566e-02,4.587102346218187993e-02,1.583016812801361084e-01
-4.468914244649833112e-01,-4.164614353501108757e-01,-4.314694588084239113e-01,-1.744367703237778696e-03,4.213077917198298182e-03,-5.521646072964344482e-03,2.912688255310058594e-02
-2.659862169738961279e-01,-3.652666308555534425e-01,-3.692686553984672604e-01,-1.069431008694192303e-01,7.772571582390110090e-02,-7.360703524226769323e-02,2.809951305389404297e-01
-4.117767143765342364e-01,-4.494267705236522636e-01,-4.651805765922965019e-01,-2.632903592688777637e-03,-1.427591878224018654e-03,-2.356913140464588288e-03,4.798350110650062561e-02
-4.143961669884033694e-01,-4.683208755327910033e-01,-4.557324072272992965e-01,-1.069136788491138051e-02,7.208761570904653575e-03,-9.437535311866853890e-03,5.615630000829696655e-02
-4.224916664998277782e-01,-4.376854314145611213e-01,-4.273596024608259381e-01,-9.486830656933423374e-04,1.235625749975873466e-03,-3.205730711593302897e-03,1.478835567831993103e-02
-4.431621910978879031e-01,-4.285032241967738353e-01,-4.570689820800790670e-01,-1.263708073043685008e-02,5.516838884804675311e-03,-3.755748142001430739e-03,3.499791771173477173e-02
-4.476948276877092958e-01,-3.824215905731432885e-01,-4.508966020563493493e-01,-2.520121146944853674e-02,5.530165698572057920e-03,-1.655480808031836726e-02,8.543461561203002930e-02
-4.432281210537425964e-01,-4.199490454987847010e-01,-4.463724029199251375e-01,-2.788184056841495027e-03,6.674222791201341043e-03,-4.168693225245047665e-03,2.888060733675956726e-02
-6.443107137932679862e-01,-6.314951837000195578e-01,-6.108436296265405963e-01,-1.816198439600693881e-01,7.083376765970807176e-02,-1.978224740427334816e-01,4.819399714469909668e-01
-5.465590585519377598e-01,-4.053567921106131511e-01,-5.016530839988153634e-01,-1.438931003893333671e-01,-4.695789236317474830e-03,1.649167776049330000e-02,2.803775072097778320e-01
-5.008482700099752272e-01,-4.385513036619452243e-01,-4.225381052865729847e-01,-3.403989010172007307e-02,-3.390092268964263467e-02,7.085384042359017809e-02,1.646805107593536377e-01
-5.650516880127628427e-01,-3.797882365279294792e-01,-5.061045759826480195e-01,-4.141116157538949488e-02,2.427307553588696834e-02,-6.692181000162616966e-02,2.173116356134414673e-01
-4.430991142064424904e-01,-1.463406091587189650e-01,-3.979136822725008460e-01,9.651399944515063126e-03,-4.258600911000086538e-03,8.370776009909731974e-02,3.131341636180877686e-01
-4.538680391806036996e-01,-3.724573651170228206e-01,-4.469797301601701189e-01,-3.265781547678565933e-02,-2.166327584954680363e-02,2.409622786627549709e-02,1.116411238908767700e-01
-4.775675038894428570e-01,-4.132240883438715318e-01,-4.913803864012247780e-01,-1.628848899966188132e-02,-6.978395597579771341e-03,-3.640849799691051915e-03,7.874925434589385986e-02
-4.618559839217227792e-01,-4.165888033105420440e-01,-4.640335441718757004e-01,-1.618780080028219687e-02,-1.814384231989332394e-02,1.427809641142982998e-02,6.736285984516143799e-02
-3.808704949969990428e-01,-4.520412888768181592e-01,-4.533559857831388484e-01,7.342924106290584646e-03,-2.705068792230089832e-03,-5.598941947721642991e-03,7.374503463506698608e-02
-4.066493597696102524e-01,-4.569460639359276821e-01,-4.418740659390641423e-01,1.555529697547720263e-04,-4.198228913716408987e-03,-1.817779666634649662e-03,4.540608823299407959e-02
-4.254776208630845491e-01,-4.738129540982967125e-01,-4.540069112059508805e-01,-3.752237125238591479e-03,-7.789633323125501850e-03,-5.727823812540625871e-04,4.468231648206710815e-02
-3.538706140848099646e-01,-4.714897739081292949e-01,-4.648843654666557912e-01,1.019384660007445964e-03,8.911203264084232049e-04,-9.177185206244769990e-04,1.144945472478866577e-01
-2.617533103661409122e-01,-3.855961368198639327e-01,-4.072689354534473893e-01,9.403912562513290496e-02,7.387365779419993728e-02,4.057297281829110730e-02,2.575486302375793457e-01
-4.302794975316059922e-01,-4.469202030944924853e-01,-4.254775784554267193e-01,1.768852331180114810e-03,-8.176884576849883330e-04,-7.432126997241424908e-04,1.982241868972778320e-02
-3.449024283948601277e-01,-6.092628776360594633e-01,-7.597922712377993548e-01,1.823356308723167452e-01,-4.591046783984021468e-02,-7.611829282627984028e-02,5.057506561279296875e-01
-3.456026209974253915e-01,-4.627137434843794361e-01,-4.599866877594987469e-01,5.243680906784740740e-03,2.124966723787767402e-03,-5.704750689061004187e-04,1.161899045109748840e-01
-4.312755224483240113e-01,-4.243564253142406151e-01,-4.360999793293064419e-01,-1.864266616992793502e-03,-3.599500484447690999e-03,1.105634054653158171e-03,1.254962664097547531e-02
-4.343199054254350822e-01,-4.136762204651636132e-01,-4.587258126092130794e-01,-1.456717283910806578e-02,-1.150651392866189511e-02,8.926343995832827435e-03,5.290069803595542908e-02
-4.400352763854430971e-01,-4.179948213507855836e-01,-4.453425347925905053e-01,-2.522139927407533212e-03,-6.891365359055606418e-03,2.935905016994743658e-03,2.860660664737224579e-02
-6.220799961035197168e-01,-3.102077990414949804e-01,-5.246774208316693500e-01,-1.798090493452709007e-02,-6.571487936993208878e-02,1.184173071791195242e-01,3.638236224651336670e-01
-4.370189631197288760e-01,-4.266621022939148244e-01,-4.529967093761814723e-01,-2.712403434221359773e-03,-2.726405096364026455e-03,5.755369616537422874e-04,2.394571341574192047e-02
-4.300582053205069810e-01,-4.150082809734711997e-01,-4.470265575884172504e-01,-6.092050816825139541e-03,-4.567436657347196879e-03,2.127179944936148301e-03,3.094019927084445953e-02
-5.071852535164903530e-01,-5.158990036827190151e-01,-4.916878235772105254e-01,-6.138108742924035938e-02,-6.686830930889069158e-02,3.402819076244780611e-02,1.692392379045486450e-01
-4.200094587187290229e-01,-4.197225347092719550e-01,-4.495334044276191876e-01,-1.021819559899528850e-02,1.035667634927217454e-03,-1.216916575393120264e-03,3.465706110000610352e-02
-3.987758818272541528e-01,-4.041618334587219197e-01,-4.331752903557992695e-01,4.936376645428006311e-03,1.816232348201884733e-03,4.924309876475512805e-03,3.439186140894889832e-02
-4.295011490930219500e-01,-3.840533894548304739e-01,-3.690581791372665177e-01,-3.024770289352243530e-03,-3.929941268926471533e-03,3.231970528997531872e-02,7.860868424177169800e-02
-3.955620524049548448e-01,-3.782524553779401111e-01,-4.198908922069751193e-01,2.725917714707558337e-02,2.396811868834888490e-02,1.976889844214568120e-02,8.023506402969360352e-02
-4.504582688221545617e-01,-4.100838573501626727e-01,-4.075586520976606231e-01,5.377964213405084237e-03,5.462747462568207264e-03,1.094705257604856527e-02,4.768888279795646667e-02
-4.687661619705345006e-01,-4.579425217867704179e-01,-3.934618817482488096e-01,-6.677006861476682612e-03,-5.402253279694184569e-03,2.763631227993670891e-02,8.651830255985260010e-02
-3.947494029103121305e-01,-2.413317656074833173e-01,-1.634800966985113790e-01,1.247501229609430419e-02,6.436547110684955920e-03,1.483880108551564048e-01,3.289222419261932373e-01
-4.389272093134292674e-01,-3.574548520561388054e-01,-4.446406550444193528e-01,8.989524581625088842e-03,9.394788731656389391e-03,1.206760967769237615e-02,8.988869935274124146e-02
-4.594615726160871105e-01,-3.479103503426598243e-01,-4.424765023472503334e-01,5.107510303395255968e-03,3.514821929178860594e-03,8.458341014463494067e-03,1.056759878993034363e-01
-4.242384117935925625e-01,-3.866350835483105541e-01,-4.285437645496630865e-01,5.168724873827365909e-03,1.038053073795635640e-02,6.828314936136861864e-03,4.623562470078468323e-02
-4.540816011034561894e-01,-3.618667646110926284e-01,-4.604932426840497306e-01,-2.609062448132783846e-02,-2.482385627176970661e-03,1.233770093349106402e-02,1.079501658678054810e-01
-4.260995312305091987e-01,-3.788563895365735235e-01,-4.236096873544663022e-01,9.096093948914807381e-03,1.010722457236650461e-02,5.219770568316224255e-03,5.250627174973487854e-02
-4.196286993497338469e-01,-3.077960438486969097e-01,-4.382899976350344007e-01,4.931067878504254154e-02,5.271808872123414508e-03,1.202702162893869338e-02,1.508432328701019287e-01
-4.524576871701719294e-01,-4.442229525726636430e-01,-3.654240705899221009e-01,-9.444731346572676420e-03,-1.727485550442794601e-02,3.963375671199420580e-02,1.131429970264434814e-01
-4.044290902505353613e-01,-3.998423755687617320e-01,-4.268853342085736635e-01,4.509016319827881432e-03,5.712939570661096714e-03,2.604584739703986497e-03,2.841794304549694061e-02
-4.481138103802522199e-01,-4.280188395458138229e-01,-3.798414053022452497e-01,-7.434570997861211783e-03,-6.560948742191040871e-03,7.404619966312808721e-03,6.443942338228225708e-02
-4.520394211481751912e-01,-4.235084688545106557e-01,-4.109812468806407493e-01,-1.729133937439086095e-03,-1.960517961182525661e-03,3.016530292777587236e-03,3.709661960601806641e-02
-4.535737587715502617e-01,-4.540602498892263861e-01,-3.598686702565411233e-01,-8.021997042453373611e-03,-6.592588196070068088e-03,1.242258563025376919e-02,9.804525971412658691e-02
-4.494811466106374831e-01,-4.513157367812919984e-01,-3.952134922103766601e-01,-1.080546109009908676e-02,-1.379659430672822845e-02,3.450765699128324412e-03,6.328458338975906372e-02
-4.491764320141365951e-01,-4.244293390985466874e-01,-3.577657983450927004e-01,-9.997474832210109970e-04,2.185676973994354465e-03,1.645469360992742741e-02,8.680884540081024170e-02
-4.394284766932491371e-01,-3.939210826057524262e-01,-4.781966077913525348e-01,1.440432209801017008e-02,-8.637866586613808864e-03,-1.308016180534759751e-02,8.183941990137100220e-02
-4.363327469693409899e-01,-4.267028812143210392e-01,-4.457461353729443299e-01,1.041247738704971504e-02,-6.811558941309603724e-03,-8.136173090989143319e-03,3.057840466499328613e-02
-4.336410604352283205e-01,-3.931126434148762838e-01,-4.553138016428862067e-01,6.534508182479333363e-03,-5.079612730354788643e-03,-2.364661857830692004e-03,5.668248236179351807e-02
-1.102042636375797635e-01,-3.096422018232605766e-01,-3.452257720670626195e-01,1.226222155467835973e-01,7.390825514174827193e-02,3.905174681102643874e-02,3.379488587379455566e-01
-3.444865483083635049e-01,-5.419400636990441278e-01,-5.156767338326975203e-01,5.861187749303615330e-02,-1.160442382331892952e-01,1.924526530503275178e-03,2.919037938117980957e-01
-3.573718503076624420e-01,-3.186628601225507396e-01,-4.536926703701184005e-01,9.999404614256951485e-02,-5.771657801176205416e-02,-5.361591304440855438e-02,2.512341737747192383e-01
-4.509607019444153986e-01,-3.865250149955322123e-01,-4.474511454221128948e-01,6.069247898296062371e-04,-5.019480000693398239e-03,-1.345361680910204215e-02,6.751165539026260376e-02
-4.048633615090266313e-01,-4.086875205353584506e-01,-4.226040530317627941e-01,2.904704188275863790e-03,2.821178257752931118e-03,6.729877935114455048e-03,2.113234251737594604e-02
-4.580122070215111862e-01,-4.446632073306375221e-01,-4.070591859554307801e-01,-4.155521130217693961e-03,3.760403479079021082e-03,-3.124245381310299108e-02,7.153134793043136597e-02
-4.623598182029607373e-01,-4.112707660294406264e-01,-4.414149599448949357e-01,-1.860884561608799545e-03,-8.716473747431827991e-04,-5.433320595295191777e-03,4.560653865337371826e-02
-4.338892519968358119e-01,-4.303760168485863402e-01,-4.359862389103761338e-01,1.897206696796643194e-03,-2.434800909404714712e-03,-1.448617716076767243e-03,7.680221926420927048e-03
-4.654226219595609670e-01,-3.302535170008990550e-01,-4.999832391163833156e-01,4.647917524064509864e-02,-6.060311125196561101e-03,1.829356116537929344e-02,1.781340390443801880e-01
-4.354730370342101420e-01,-4.116078617883745516e-01,-3.889996997863024997e-01,9.117987678492768186e-03,-9.444188939397248420e-03,-2.612501163369665425e-02,6.468974798917770386e-02
-4.632254894498140652e-01,-4.118815215911159067e-01,-4.304698104473149711e-01,2.234822358045123955e-02,-3.671509854060059364e-02,-4.159820893650223450e-02,1.129641011357307434e-01
-4.590814433334177713e-01,-4.420350935630574796e-01,-3.970590193905694232e-01,-7.005975938779897792e-03,-1.126928316222897478e-02,2.217201036004831996e-02,7.129613310098648071e-02
-4.132896857496189402e-01,-2.962655640108361466e-01,-2.763732093076022300e-01,-5.487838514472804380e-02,-5.069409056157107851e-02,1.224347535006938686e-01,2.795239388942718506e-01
-4.934303222876997852e-01,-4.445538053789956368e-01,-3.745505400348682068e-01,-8.675598087750415952e-03,-1.718746273825480855e-02,4.008992047329414804e-02,1.290136277675628662e-01
-4.767236201671485318e-01,-4.492296136236355042e-01,-3.990061662189982594e-01,-5.378647370450687776e-03,-4.357370398479413695e-03,2.664876828573704490e-02,8.326691389083862305e-02
-4.425739100373693446e-01,-4.254003243055400896e-01,-3.659058094297754082e-01,-6.911822332051392216e-03,-6.153522092372645802e-03,1.327332024098281521e-02,7.511141151189804077e-02
-4.469040700943084365e-01,-4.006092004263324124e-01,-4.267019069528935060e-01,1.024454116647719587e-04,-5.699681083135761141e-03,1.012348396952301652e-02,4.495587944984436035e-02
-4.341567089719063355e-01,-4.135935466339754618e-01,-4.206159908063675235e-01,-4.309957929877014475e-03,-6.007650740534991630e-03,4.928866081473251386e-03,2.376212738454341888e-02
-4.708637146303393806e-01,-4.321039212516880057e-01,-3.151937217022510174e-01,-1.001035610574775928e-02,-1.170261984744472121e-02,6.664199147043176064e-02,1.836754530668258667e-01
-4.359997502076047859e-01,-4.242387458201603567e-01,-3.707831993532262338e-01,1.033276703386527828e-02,6.264069324860545296e-03,1.141129329755283424e-02,6.673210859298706055e-02
-4.285867790071490324e-01,-4.162460980200506366e-01,-3.974396706526205914e-01,8.070938783790480159e-03,8.855914039926518141e-03,7.362288596328748352e-03,3.648794069886207581e-02
-4.346068806287798347e-01,-4.069196682385518571e-01,-4.232257638929919907e-01,1.081649301249731909e-02,9.494563922520821153e-03,1.233893344416960892e-02,4.073300585150718689e-02
-4.003619868806818638e-01,-4.207346051771363449e-01,-4.555697312528192988e-01,4.442158018165473510e-02,3.290987928022319486e-02,2.413151632204775521e-02,1.151269450783729553e-01
-4.447908426167910267e-01,-4.029399093466737858e-01,-3.967554211890784166e-01,1.829660698685283988e-03,1.221474028294769910e-03,5.437787763422784540e-03,4.638752713799476624e-02
-4.594434011505696969e-01,-4.319363505161157857e-01,-3.816191664818188167e-01,2.734030237769855595e-03,2.827541842249017747e-03,6.736799944331847007e-03,6.967853009700775146e-02
-4.437520500128740442e-01,-3.995427152643630797e-01,-4.059409851355506027e-01,2.325634803803011599e-03,4.836447504299271408e-03,5.020151851771158420e-03,4.329601675271987915e-02
-4.582580285295792533e-01,-4.488176233478060606e-01,-3.594484997895301959e-01,7.011850695330693224e-03,9.483192309581115614e-03,8.029877119456558729e-03,9.762361645698547363e-02
-4.666383623481192289e-01,-4.744219737995578612e-01,-3.331688849695981780e-01,-3.884437665025186528e-03,8.253709879170382027e-03,-1.422272693214759933e-03,1.384531259536743164e-01
-4.240527410901969718e-01,-2.585786627314704544e-01,-2.422798668603911576e-01,4.566366706209182280e-02,5.065351919497562694e-02,1.662927297910591906e-01,3.567309975624084473e-01
-4.339305506936319556e-01,-4.162684299172829672e-01,-4.212560157205062494e-01,-1.148653077800680655e-02,-1.222168895467899002e-02,1.555637242943076239e-02,4.264583811163902283e-02
-4.341518892404312990e-01,-4.493995262789180489e-01,-4.173946572012543488e-01,-3.773286019574629505e-03,-4.396500293521343750e-03,1.822354917578025485e-03,2.965581044554710388e-02
-4.357003511933559281e-01,-4.543585973187355687e-01,-4.255511495531788535e-01,-2.864632190147770562e-03,-1.981797362142045937e-03,1.328417291150679877e-03,2.611891552805900574e-02
-3.892990050660574131e-01,-4.439498272019686831e-01,-4.247008318717046538e-01,-1.028610957305756655e-02,-2.504701352717512292e-02,8.784166710851522980e-03,6.882018595933914185e-02
-4.388529310595437050e-01,-4.549632271552208618e-01,-4.249172181391864256e-01,9.200735026861450814e-04,-3.423514182108743781e-03,8.056217585464380817e-04,2.679369784891605377e-02
-4.294007117143212038e-01,-4.565248713567160443e-01,-4.351896487075698206e-01,-5.609450153236865237e-04,-2.533254837016878525e-03,1.886546112497502730e-06,2.514772117137908936e-02
-4.105771198088131735e-01,-4.406125024012197966e-01,-4.308088266550619827e-01,-5.725450382182382079e-03,-3.788468086196627223e-03,5.897922189234718927e-03,3.081453219056129456e-02
-4.296292577990305506e-01,-4.493942061836199708e-01,-4.294881453823058970e-01,-2.728417967363966183e-03,-2.930205404314198403e-03,1.269193998761575888e-03,2.112784609198570251e-02
-3.156797760393552643e-01,-5.054942511856934662e-01,-4.680328093416129542e-01,-5.823433910526788077e-02,-7.169126865172308072e-02,-3.481049052780158231e-03,2.365399599075317383e-01
-3.570024578776908042e-01,-4.195407371705010546e-01,-3.776198546073570861e-01,-7.079819165165787687e-02,-8.835207465478001065e-02,4.333790985671132773e-02,2.171098291873931885e-01
-3.746000447645379539e-01,-7.062292946858133025e-01,-7.684848627419084144e-01,-1.404821515150484479e-01,-4.973256347608845385e-02,-5.829345558325142035e-02,4.596950709819793701e-01
-4.098757299585570890e-01,-4.094357971433252308e-01,-4.087124856613739143e-01,1.873703976500364294e-03,4.489395320344542750e-03,2.401407600223989369e-03,9.451534599065780640e-03
-3.861113039183485807e-01,-4.573097164128119285e-01,-4.533561308438612825e-01,-1.422585028572110992e-02,-1.659163725244212906e-02,3.675762062415433452e-03,7.922664284706115723e-02
-4.294556792434517933e-01,-4.562203314141229371e-01,-4.331757150844909865e-01,-4.326557360858863596e-04,-3.763357635335625416e-03,9.818104571915930220e-04,2.601080201566219330e-02
-3.964763508144569237e-01,-4.556588977816796171e-01,-4.489567283050069912e-01,-6.884885702580253834e-04,-1.274045782740497110e-02,2.225038584704493519e-03,6.044893339276313782e-02
-3.659399756535971493e-01,-4.676258941264329616e-01,-4.652557653761318912e-01,-1.865495872403653442e-03,8.083665288817273994e-04,3.836873306436317920e-04,1.005856692790985107e-01
-4.835005262478921373e-01,-3.504695110454865148e-01,-4.717928340004329257e-01,-1.361985357125011656e-03,1.463955206334180068e-03,7.171375557333796100e-03,1.282307058572769165e-01
-4.511886046013275364e-01,-3.938844340508194097e-01,-4.616380877583933229e-01,-1.398481415047518259e-02,-8.006386203157590462e-03,4.415654088476089062e-03,6.949305534362792969e-02
-4.530018213332986377e-01,-3.835112541097845384e-01,-4.510551752010387161e-01,-2.900437219188882823e-03,-6.665640554271816398e-03,8.054714015979628355e-03,7.106771320104598999e-02
-4.433893534927076940e-01,-2.057257049423134310e-01,-4.409358929354393331e-01,-6.525223703367327710e-02,-1.686663778638744157e-02,2.055007453477942364e-02,2.660843133926391602e-01
-4.721757355477187446e-01,-3.739810202563570440e-01,-4.735750418835951714e-01,-8.938104759668866542e-03,-6.979382225452771156e-03,1.002919753734382580e-02,1.023187339305877686e-01
-4.573691516127695866e-01,-4.027249595967160589e-01,-4.661493263332309733e-01,-2.287509242138369842e-02,4.560824742896474153e-03,-2.182478714583350240e-03,7.203726470470428467e-02
-4.404460517347846826e-01,-4.232958330664369773e-01,-4.588405972821089640e-01,-1.450485596423656785e-02,4.159305682655806309e-03,-8.985087963685847376e-03,4.328079521656036377e-02
-3.827906838849423066e-01,-1.879399951631856025e-01,-3.190983022042523376e-01,-7.055582806485818925e-02,-3.924162002523806647e-02,1.137764496834694911e-01,2.966518700122833252e-01
-4.668441220462473118e-01,-3.671960694609920361e-01,-4.790180627801732260e-01,1.041995493241238725e-02,-3.226383924576623364e-03,-3.799412892483998438e-03,1.081263646483421326e-01
-4.965217893639483071e-01,-3.639519240790464183e-01,-4.833374862867569344e-01,-2.839555313681362686e-02,2.073093153037060266e-03,-8.748968568173577393e-04,1.357750594615936279e-01
-3.975530970741208425e-01,-1.193640503538656583e-01,-3.930439539765746559e-01,-1.693951659469464244e-03,-4.974579446686829692e-03,-4.636046110997760206e-02,2.875514030456542969e-01
-4.275974803869951324e-01,-4.405392696927304952e-01,-4.384872822881215604e-01,6.068918038736351335e-03,-5.985958008663755901e-03,-3.544122064051754596e-03,2.002041414380073547e-02
-4.303413185959236720e-01,-4.299063512848469437e-01,-4.292951277041868741e-01,2.511491827755408949e-04,-6.362900160603767374e-04,-2.231037744960890669e-03,4.143074154853820801e-03
-4.335474561689396378e-01,-4.182352106434895078e-01,-4.371632363305394398e-01,1.680092357961674842e-03,-5.458601542626584716e-03,-1.444167497082212304e-03,2.017469704151153564e-02
-4.345070895259257604e-01,-4.199548885091433648e-01,-4.289368070038724889e-01,2.259385560024300410e-03,-5.377411814144546394e-03,-4.054556387871586370e-03,1.769511587917804718e-02
-4.197454769593998991e-01,-4.220552217749582447e-01,-4.259786815593169518e-01,8.614968393315367012e-03,-3.972355417469833339e-03,-4.882843179827674011e-03,1.926937885582447052e-02
-4.327089073195833913e-01,-4.422628586879975288e-01,-4.333050726149699217e-01,6.982419102623346361e-04,-1.333804252690797172e-03,-3.949782221557127451e-03,1.181269343942403793e-02
-4.344530562307775123e-01,-4.374067539282318062e-01,-4.340323389761318595e-01,8.978652300863544525e-04,-7.590244291163400795e-04,-2.297022640419553235e-04,3.801201703026890755e-03
-4.366179247886453063e-01,-4.354959123184637404e-01,-4.302988775689228218e-01,6.546016140555986759e-04,-1.342558471618309282e-03,-4.070106805119211410e-04,6.425658706575632095e-03
-4.360910032449465401e-01,-4.410527448522224558e-01,-4.298811976014961789e-01,5.066201120162803096e-04,-5.035742359690615786e-04,-5.222332864313143077e-04,9.815342724323272705e-03
-4.364911917231186766e-01,-4.278527268577125842e-01,-4.373647482199990444e-01,1.614036276822312585e-03,-4.258641600753388518e-03,-1.712704844220210888e-03,1.240789517760276794e-02
-4.792301391339796046e-01,-4.336093818266176791e-01,-4.520186920817440002e-01,-3.157527502479583192e-02,2.972094347241919718e-02,-4.265841375777335714e-02,1.126078516244888306e-01
-3.698712907571039543e-01,-4.317950536578015752e-01,-3.836960631688226542e-01,-3.861413706465164752e-03,3.159203901771021061e-02,-2.900129171900366325e-03,7.895396649837493896e-02
-3.068035030687739639e-01,-3.959340517518944447e-01,-3.100992452201451477e-01,-7.863789119563577290e-02,9.758003118902740247e-02,-7.511602244809111040e-02,2.677796781063079834e-01
-3.738050082683183617e-01,-4.905799808478238933e-01,-4.729267098912120493e-01,-8.233113153631606285e-02,1.099462213099225150e-01,-1.048214736432884903e-01,3.185105323791503906e-01
-4.694453205976400478e-01,-6.136074137487921298e-01,-5.868330308833790143e-01,-1.852632293276507136e-01,4.883288903897189254e-02,-1.385905365500977038e-01,4.305613636970520020e-01
-3.554550470577287347e-01,-5.231063837542828665e-01,-4.772159041433956528e-01,-5.927953807404728881e-02,1.194957306114708545e-01,-8.060408702944302228e-02,3.088531196117401123e-01
-3.498943634890452348e-01,-4.279189023115428370e-01,-3.918864562650522521e-01,-4.546956456446313473e-03,2.981626622545992603e-02,-8.323809538922921636e-03,8.666984736919403076e-02
-4.553257692017999569e-01,-4.568939448767350142e-01,-4.938723456085915564e-01,-5.110179631845786219e-02,2.503528094941023796e-02,-2.774410899370024011e-02,1.159807443618774414e-01
-4.699204463949910315e-01,-4.524619061134020903e-01,-4.225791663965762224e-01,-9.688591670867795214e-03,7.442885366856291651e-03,-1.127949687986481118e-02,5.048727616667747498e-02
-4.317068079591006025e-01,-3.659312946639307618e-01,-4.352256395235240549e-01,-6.735085980147112461e-02,2.555074732561596687e-02,-7.113728000438289401e-02,1.879327744245529175e-01
-4.183641861206429668e-01,-4.029809458080380047e-01,-4.196876599633287408e-01,8.576859775648811718e-03,8.273525757955719345e-03,1.000139189247485280e-02,3.138279542326927185e-02
-4.553066952225436892e-01,-3.847242403524545051e-01,-4.375775434812510523e-01,3.116807017648368094e-03,-2.546858068274797209e-03,-1.286830437063665386e-02,6.775116920471191406e-02
-4.432853460840613935e-01,-4.230844054862991643e-01,-4.362982562720499335e-01,-1.935365763813923223e-03,4.586319079595502224e-03,-2.613020475152167798e-03,2.026265487074851990e-02
-4.490623624937651881e-01,-3.978128654611038373e-01,-4.589807544291314434e-01,-1.180148215570872919e-02,4.779624533961549133e-03,-1.335761429598852348e-03,6.103204190731048584e-02
-4.492728146091338748e-01,-4.042887760449694889e-01,-4.281822130475363419e-01,-6.746246620185422128e-03,4.807578120137031251e-03,-2.215959749059435643e-02,5.655664578080177307e-02
-4.571462243634094036e-01,-2.153810797735430937e-01,-4.298691295710027616e-01,3.361028800175391851e-02,-2.041397048840996875e-02,-8.162699856085726957e-02,2.778989374637603760e-01
-4.146775543706625600e-01,-4.213387542093143812e-01,-4.160282420117750735e-01,1.206785835061854016e-03,6.616387949822949020e-05,2.455772654005809741e-03,7.724851369857788086e-03
-4.176836524526431060e-01,-4.236029008923168915e-01,-4.144361111199501013e-01,5.537807223817236939e-04,1.257514881018230316e-03,1.914674247027126509e-03,9.026018902659416199e-03
-4.105372760963878487e-01,-4.243417437131680181e-01,-4.076616759772067611e-01,2.661883500627898382e-03,6.875506668975339295e-04,8.561475477660690763e-04,1.622968167066574097e-02
-4.503546961092207424e-01,-3.998518487218175044e-01,-4.747423480319167277e-01,8.998133673708434699e-02,5.387360116938334775e-02,6.237483184520586227e-02,2.214629054069519043e-01
-4.008365384774846829e-01,-4.180607522880557259e-01,-4.131492853212025418e-01,1.309641343525496521e-02,1.436696842317075791e-02,1.614739719734488432e-02,4.639172926545143127e-02
-4.197373108410016318e-01,-4.023986794204402195e-01,-4.064986731838116651e-01,3.610925098681985832e-03,4.218563907753150252e-03,1.802529853335926207e-03,1.867089606821537018e-02
-4.230988355669488277e-01,-4.174909099027121484e-01,-4.039451128391516321e-01,6.620561543520246672e-03,1.179844313988745799e-03,2.362869080021403213e-03,2.105522155761718750e-02
-3.732655519206943273e-01,-4.274839258112524965e-01,-4.331594762173694990e-01,4.931510264313685582e-02,3.078245769941802962e-02,2.242803387701785070e-02,1.221770420670509338e-01
-4.054689400187407866e-01,-3.879175542434437629e-01,-4.051182667561792350e-01,5.306756222973768068e-03,9.146338084488992576e-03,5.153000646087011610e-03,2.677930332720279694e-02
-4.181835108205037010e-01,-4.079382040020887445e-01,-4.177750331560852737e-01,9.095192752638574935e-03,8.084324048246046418e-03,8.990750195657233948e-03,2.806573361158370972e-02
-3.987396810135565572e-01,-4.256159418546661688e-01,-4.028407458160931376e-01,2.843524675078118891e-03,5.119280777851050422e-03,5.890175139282911691e-03,2.891178615391254425e-02
-4.209939808880211465e-01,-4.326346288188629430e-01,-3.249325786559962292e-01,2.817473654314538514e-02,6.035684188583317206e-02,6.846474213010783627e-02,1.945612281560897827e-01
-5.301907032912194229e-01,-2.769562998726562419e-01,-3.440027476164869702e-01,6.624779715950045167e-02,6.450246048198789162e-02,1.471028756963174422e-01,3.771076798439025879e-01
-4.055976547644813968e-01,-4.015564265806109701e-01,-2.480997849210425099e-01,4.766804086147628794e-02,9.403003026611461701e-02,8.819828873813741199e-02,2.843658030033111572e-01
-4.611170245061794182e-01,-4.544216181153336032e-01,-3.973092915630747068e-01,8.369944973832152760e-03,1.765214278789577207e-02,2.473675980917406508e-02,8.166836202144622803e-02
-4.072012086402213016e-01,-3.264511112771792400e-01,-3.414728701728068083e-01,1.334472540485219516e-01,1.038715100567668276e-01,1.366940471675491264e-01,3.839028477668762207e-01
-4.090706283454704772e-01,-3.140104851896107219e-01,-4.196174645439942341e-01,1.022194975471688305e-01,6.160689618402252071e-02,1.275608985199900569e-01,3.189017176628112793e-01
-3.992354436240536653e-01,-3.246129962957344239e-01,-2.500341692345635636e-01,5.440031241430840631e-02,8.293863832320903795e-02,1.273013725306696708e-01,3.079404532909393311e-01
-5.219980993800048541e-01,-4.249241541502843944e-01,-1.907226329921749564e-01,6.651321448111515745e-03,6.183459294352335739e-02,2.133800634457704570e-01,4.849793612957000732e-01
-3.976262722347945200e-01,-4.131838405350053978e-01,-4.192041814946191880e-01,5.624474885697372181e-03,9.259538504679837301e-03,7.077983784835994302e-03,2.956956438720226288e-02
-4.551617188847424944e-01,-1.797626343705488461e-01,-4.023575728083857439e-01,3.180523309355828138e-02,1.637247839002891345e-03,1.018546715477847281e-01,3.134590983390808105e-01
-4.991046135676027173e-01,-3.905465313357855961e-01,-5.026860068831947581e-01,7.225092533173313458e-02,3.333931710549645211e-02,7.207015261407916096e-02,2.162496596574783325e-01
-3.915891240672301765e-01,-4.350454621738884531e-01,-4.612639363464589026e-01,6.290331314690477370e-03,-1.156817859933599027e-03,-1.533896484730818072e-03,6.200805306434631348e-02
-4.337622769508483467e-01,-4.025045010589456407e-01,-4.151339960501675419e-01,2.410631382175357912e-02,2.171865381834878206e-02,2.857025560881382154e-02,7.968063652515411377e-02
-4.519869908198657082e-01,-4.029181016402411109e-01,-4.081496013452516891e-01,2.209238831725933438e-03,2.961472177478751897e-03,4.521553700552882402e-03,4.775675013661384583e-02
-2.782945996474114336e-01,-2.455873729010322748e-01,-2.612076613301823058e-01,1.169548456806418085e-01,1.045417115140117176e-01,1.244106650912677470e-01,3.479354977607727051e-01
-3.793900331890570077e-01,-3.204144680626255237e-01,-3.222936688970198804e-01,7.302280863786043963e-02,7.865603260366892113e-02,1.185851933525720048e-01,2.830467522144317627e-01
-3.028611590043845947e-01,-4.296907384015403730e-01,-4.122629526966413160e-01,1.209902012068932164e-01,1.105216159154446820e-01,8.483764406852724316e-02,3.410753011703491211e-01
-4.017897650757072947e-01,-4.156463119293917208e-01,-3.344660549778544212e-01,9.028691037740396719e-02,1.518632669639713439e-01,1.262282766330314610e-01,3.835369944572448730e-01
-3.554292940428335767e-01,-2.629969326833553334e-01,-3.626872360738900292e-01,9.943697899476851287e-02,5.971984728110010798e-02,9.646432326068325736e-02,2.784706652164459229e-01
-3.892332408306605207e-01,-1.726582432569745695e-01,-4.118331534037854014e-01,9.277605502818457583e-02,1.424054318892541832e-02,4.292238646445464822e-02,2.902888655662536621e-01
-4.089974889911347500e-01,-4.182639324367639633e-01,-4.116078774278947860e-01,2.126479885579522604e-03,2.767623827645511025e-03,4.358440095709590310e-03,1.272890623658895493e-02
-4.169871996084643651e-01,-3.993843591710852237e-01,-4.440380616205693021e-01,4.611337929029032598e-03,5.586598304222839539e-03,2.988311118156976396e-03,4.125523939728736877e-02
-4.027931513034689881e-01,-3.972013242680839662e-01,-4.429752535605184782e-01,4.968989205536195747e-03,5.205512252185875294e-03,2.641070101539268883e-03,4.524214565753936768e-02
-3.157141354904611785e-01,-3.263419252303919049e-01,-4.036440597074199554e-01,1.038922932335852450e-01,4.260701679203902220e-02,5.345893776937043346e-02,2.308908700942993164e-01
-4.121823793469233665e-01,-4.127312174457571925e-01,-4.109117018096221652e-01,3.688609086084414148e-03,3.110690927021961521e-03,4.456775720526516549e-03,1.149123534560203552e-02
-3.658207114725376408e-01,-2.231585556851574392e-01,-3.987574474740432362e-01,1.036414030195241531e-01,4.138999616384570618e-02,8.431862754686947348e-02,2.912542819976806641e-01
-4.455320221149872140e-01,-2.911124830226931026e-01,-4.400141288996349820e-01,2.107939753205681152e-02,3.309299050269662919e-03,3.178883326042468427e-02,1.655935943126678467e-01
-4.494995012327115957e-01,-5.274281680047275822e-01,-5.104855665934606712e-01,6.632858001244048424e-03,-4.611095500100794581e-02,-2.276998427027429953e-02,1.144800260663032532e-01
-4.357831650077721997e-01,-3.294691563008110835e-01,-4.489460753756281952e-01,1.539339467077509467e-02,4.926861141441235721e-03,6.243490281513505193e-03,1.173710674047470093e-01
-4.668448933037057103e-01,-3.495252557217754519e-01,-4.681514335970148322e-01,7.111941592815435725e-03,2.324278163131575890e-03,1.170106894086369795e-02,1.204058900475502014e-01
-4.621880035240359952e-01,-3.492884399872648871e-01,-4.779161754304910859e-01,1.394099603030366646e-02,-8.120098471932357415e-05,-3.724116478515581080e-04,1.239067390561103821e-01
-4.328595987855161087e-01,-3.551744620069509084e-01,-4.936336665084583575e-01,6.758061418585775693e-02,3.788369978164402106e-03,2.772700856149369619e-02,1.746440529823303223e-01
-4.586021970804709524e-01,-3.079189289786386508e-01,-4.669000416181323665e-01,5.422271712373907121e-02,1.406350047772744229e-02,4.501305367435981530e-03,1.830275654792785645e-01
-4.166105088448601723e-01,-3.535553471853188356e-01,-4.486075378136278879e-01,1.936449002489961865e-02,-7.509771562472437705e-04,1.619253404571339289e-03,9.028759598731994629e-02
-2.283133400741274022e-01,-2.672165740912697540e-01,-3.968016855304868362e-01,1.545615697608239969e-01,5.472013502885141739e-02,4.981482027106296645e-02,3.338297605514526367e-01
-3.566387554712542318e-01,-4.436934219844115290e-01,-5.123242872614852672e-01,4.485010762688282360e-02,-2.879854342680090735e-03,-2.422188743241554705e-03,1.560141891241073608e-01
-4.337622592762225282e-01,-3.584003383623662886e-01,-4.570310041893468345e-01,4.251264399803958427e-02,1.963299071646695468e-02,2.462777134550704974e-02,1.279544830322265625e-01
-3.470250576937707332e-01,-4.606553248677224821e-01,-4.571255794473216283e-01,1.084778325433915017e-02,1.346061569261528500e-02,2.253996367339003264e-03,1.159096211194992065e-01
-3.608542699101260909e-01,-4.592042362696173718e-01,-4.528546180790320452e-01,8.240282326180729811e-03,-1.626399126694513114e-03,-1.463606537285156578e-03,9.647081047296524048e-02
-3.861088724854976340e-01,-4.329908471766402700e-01,-4.617146314912806693e-01,6.476946424988500907e-03,1.151160670898447721e-03,2.390537835253319938e-03,6.720546633005142212e-02
-2.176290154164807755e-01,-3.762683732648113288e-01,-4.196356848619988700e-01,8.867195430022739577e-02,-2.366170001836685396e-02,-1.535869856445899219e-02,2.447496205568313599e-01
-3.452853866047955744e-01,-4.464295630427366213e-01,-4.191282884409733844e-01,5.171113651915318354e-03,1.860186139849863071e-02,5.936553576868461649e-03,9.715027362108230591e-02
-3.901559715483427504e-01,-4.195405617187862313e-01,-4.439411542813611056e-01,7.315581152049738939e-03,-2.841492076704833607e-03,-7.191942401969960569e-03,5.015766993165016174e-02
-4.626537326919492599e-01,-3.471624737058968679e-01,-4.560898211895434984e-01,1.655219064483957545e-03,-2.597723084682927470e-03,1.379882792937915485e-02,1.149909943342208862e-01
-4.362661646285068695e-01,-3.690167218986194486e-01,-3.970667726950086185e-01,2.332402139697692563e-03,6.777052559693496833e-03,1.116790642318723180e-02,6.285868585109710693e-02
-4.349923144205788406e-01,-4.307089114620027415e-01,-3.330752836893011715e-01,2.088783765337439563e-02,4.963013442457264723e-02,5.215453701709603374e-02,1.637910902500152588e-01
-5.174707880613428346e-01,-4.031960564985154760e-01,-5.275805343122259572e-01,-3.247784901372963162e-02,-2.112384628715653287e-02,4.322584875031868640e-02,1.562840789556503296e-01
-3.552660099675274963e-01,-3.501300351496308694e-01,-4.270258132452759425e-01,1.512614540357391235e-01,1.161573870686933990e-01,9.017660914732673894e-02,3.729042410850524902e-01
-2.058026289653014373e-01,-4.398706488275835325e-01,-4.556530584346961676e-01,6.202099333665762881e-02,7.539189421873043750e-02,2.008471239017704454e-02,2.975447773933410645e-01
-4.065485573177338718e-01,-4.265078428579138770e-01,-4.573758875248802869e-01,1.583342181938337395e-02,1.831476889382344748e-03,-1.030691323112390388e-03,5.227480456233024597e-02
-3.740994035345094337e-01,-4.248114804069862416e-01,-4.589435978725850407e-01,1.832027546393105027e-02,-1.049884006171870193e-02,-7.393616564602978510e-03,8.348172158002853394e-02
-2.977098967483642333e-01,-3.467651046729764430e-01,-2.705231841239573165e-01,1.013435952288877645e-01,1.264278420463726960e-01,1.135406966653890043e-01,3.491664528846740723e-01
-4.120527256327962684e-01,-4.117154295912148765e-01,-3.174834408056214086e-01,2.506154335356670579e-02,4.430276663503748130e-02,4.229892815820968099e-02,1.484978497028350830e-01
-4.352519685505156777e-01,-3.627796295042780561e-01,-4.142091481088375771e-01,4.617800921585168278e-02,5.311566225023608284e-02,7.594386666881906833e-02,1.906134188175201416e-01
-4.410968339103595315e-01,-4.291126476736119022e-01,-3.724463514959013288e-01,7.742027988841566205e-03,5.232207463828015929e-03,8.803776799136440318e-03,6.729230284690856934e-02
-2.431945116207008817e-01,-4.311699905050664916e-01,-4.434359111284196242e-01,7.252639979133340686e-02,8.414268201901159427e-02,3.370918968481775857e-02,2.796784937381744385e-01
-3.504978964821105492e-01,-5.203312568124048854e-01,-4.751650565329749720e-01,-3.545431384328228026e-03,3.390363781739910709e-02,-6.527709155561963079e-03,1.637880951166152954e-01
-4.244580112685624185e-01,-4.282490609029104278e-01,-3.825020861824364182e-01,1.103232696776039121e-02,5.580649508808353115e-03,8.520356501326384682e-03,5.108899995684623718e-02
-3.924584731814194094e-01,-3.940745984211085351e-01,-4.134441010649463899e-01,8.681047069945222253e-03,8.761676543033253273e-03,8.055108471256034255e-03,3.255963698029518127e-02
-3.604068178702447001e-01,-3.845971305621584957e-01,-4.223468948798781986e-01,5.766944984308802757e-02,5.349796157296712873e-02,4.522614638338848941e-02,1.662016808986663818e-01
-4.234446954714614075e-01,-4.487926637103442085e-01,-3.748023014275220222e-01,8.904424137514929324e-03,7.804094281585141624e-03,5.406545272630043121e-03,6.891921162605285645e-02
-4.415740057079424741e-01,-4.459990955036869931e-01,-3.785797521681169009e-01,8.418921952536129183e-03,9.897812539076679753e-03,5.063056915762935775e-03,6.964230537414550781e-02
-4.011283446193352753e-01,-4.453512747376077718e-01,-4.360415067181904747e-01,7.972600941509528152e-03,-4.149134789157345009e-03,-4.918582982931823944e-03,4.410832747817039490e-02
-4.549796383284175905e-01,-4.469932368962322156e-01,-3.201022572810630074e-01,4.665241908231568604e-03,-8.465954127688245234e-02,-6.766525188114319578e-02,2.290879189968109131e-01
-4.667586115262151725e-01,-4.422299025435159625e-01,-4.402579893264961797e-01,1.010637185796242968e-02,-1.779165106702893656e-02,-1.140153333328842306e-02,4.795773327350616455e-02
-3.950921784498629408e-01,-4.422748745403418669e-01,-3.952611944150735690e-01,-2.445553369488508415e-03,1.482209177531965474e-02,-1.113402796319221599e-03,5.384241044521331787e-02
-3.941705069070758349e-01,-4.340124302312904359e-01,-4.348696245835245722e-01,-2.009537554866533404e-03,9.587569015334009015e-03,-6.709586519247646638e-03,4.522389546036720276e-02
-4.198377199827086903e-01,-4.517432056503823401e-01,-4.480532528406918069e-01,-8.828954748663572077e-03,1.273299410320956858e-02,-7.670001358258733519e-03,4.255080968141555786e-02
-4.316100844353203403e-01,-4.388530723487373275e-01,-4.438740533799207522e-01,-2.215577015163323112e-03,-3.034662481782624682e-03,2.411615347717239750e-03,1.318482309579849243e-02
-4.382706338491330622e-01,-4.336291231233825316e-01,-4.212405010840730157e-01,5.747724469185620973e-03,-2.613318714160115051e-03,-3.776801510228433925e-03,1.987243071198463440e-02
-4.167786363539732197e-01,-4.299355448514196043e-01,-4.416810566538620919e-01,-3.293464211871872330e-03,2.881180735373754190e-03,-5.816088069745631653e-03,2.499041520059108734e-02
-4.528832031151807658e-01,-4.468369558328972313e-01,-4.655064621472470576e-01,-2.156836844526251531e-02,1.152814050433329483e-02,-1.479943930460249531e-02,5.218788236379623413e-02
-3.729649377713780134e-01,-4.323920308127873757e-01,-2.982554284231655473e-01,-5.620425872890500579e-02,9.354827428343667761e-02,-7.890128597314295666e-02,2.606908082962036133e-01
-4.374409336997211462e-01,-4.514633835887013058e-01,-3.966569898494402002e-01,-1.085849958033635251e-02,2.932240257045310231e-02,-1.445600361635642622e-02,7.740741968154907227e-02
-2.664303799321086075e-01,-6.161326163223542762e-01,-5.080143545553575946e-01,-1.002010234413505153e-02,1.493403198700392065e-01,-7.037889747780227967e-02,4.221852421760559082e-01
-3.621123883295577772e-01,-5.253363337649181730e-01,-3.834316215326257216e-01,-1.127653887370952922e-02,1.518726844745231508e-01,-8.030346313652564350e-02,3.354699909687042236e-01
-4.938224203718395433e-01,-3.311018634102497193e-01,-4.467410044683436943e-01,2.461436438638723873e-03,7.120434093422477358e-03,4.758014352880156339e-02,1.673182994127273560e-01
-3.661313507511263499e-01,-4.604508302727618463e-01,-4.656819931184178474e-01,5.076929724914162542e-03,-9.887156927914360989e-05,-2.391387669482585715e-03,9.752661734819412231e-02
-5.070544625824363605e-01,-4.369890746476444710e-01,-4.634960729301587090e-01,2.523063415827731665e-02,-2.574587748528914949e-02,-4.420912922792613609e-02,1.162592098116874695e-01
-3.916809410665555435e-01,-4.107785316445247137e-01,-4.419176548034249863e-01,2.436948579783570004e-02,-7.214715370040897247e-03,-1.005517030640803999e-02,6.457659602165222168e-02
-2.985222193136818913e-01,-1.978319601033388386e-01,-3.966198300765572116e-01,1.422209877050612525e-01,3.901933343569207596e-02,5.920709734003399421e-02,3.246591091156005859e-01
-2.875237811698984070e-01,-1.886692621622947930e-01,-3.793343717592770892e-01,1.434790794837096928e-01,4.586746011010264801e-02,7.179529437555980109e-02,3.328831493854522705e-01
-4.422692039872256897e-01,-3.974683027016587822e-01,-4.556792090740430234e-01,1.167092374914007261e-02,-2.823319753061932606e-03,-5.732734768121237369e-03,5.760960653424263000e-02
-4.730755370541004368e-01,-4.735756609637516434e-01,-4.122416050178398517e-01,7.355686153519221159e-04,-8.159107129166893188e-04,-1.330984199438154866e-02,6.531858444213867188e-02
-4.134268330893400289e-01,-2.937596511937808352e-01,-4.314126832086143670e-01,3.863080069471816480e-02,-3.800980742271183998e-03,4.113065040945152167e-04,1.460031121969223022e-01
-4.342591955270008741e-01,-4.462253547476121573e-01,-4.353717875008030758e-01,-3.386101279333157601e-03,-1.973199645023381629e-03,2.135965693538578215e-04,1.331644970923662186e-02
-4.259586344138167613e-01,-4.398393997800471023e-01,-4.343899248670783364e-01,-7.485476043092912073e-04,-5.360393488912194989e-04,1.730120343311802736e-03,1.257984433323144913e-02
-4.279080994669384741e-01,-4.363370153706861432e-01,-4.385978702368146798e-01,-1.776675791472976914e-03,-1.347449007361620557e-03,4.310339882184260375e-03,1.287898793816566467e-02
-4.225230874359697797e-01,-3.914145594952596063e-01,-4.129367084971243829e-01,2.991845795037402153e-03,9.204553084359721332e-03,4.012353038607587366e-03,3.302639350295066833e-02
-4.121337827693283273e-01,-4.084411430694728784e-01,-3.987919776606990152e-01,4.509677934391541701e-03,5.098621883688478525e-03,3.229872781079375609e-03,1.768243499100208282e-02
-4.328373648543397678e-01,-4.094634429803850062e-01,-4.000807217100028068e-01,5.836693500942234311e-03,2.785845308073256910e-03,3.954196062874743706e-03,3.203244507312774658e-02
-4.317134287304456031e-01,-4.033682609173065425e-01,-3.980355270434449144e-01,5.280302425068261578e-03,2.003818367475383548e-03,4.599191112079056842e-03,3.379633277654647827e-02
-4.223285812947472073e-01,-3.957154756748403890e-01,-4.147139820172022207e-01,4.588836561655845747e-03,8.996657572012274270e-03,5.025347211278476806e-03,3.074647113680839539e-02
-4.433055944618927713e-01,-3.732639810767625077e-01,-4.059121594505976649e-01,2.343416362648849394e-03,3.652904716790045074e-03,1.239681867030537413e-02,6.482706964015960693e-02
-4.366613001650055392e-01,-4.029551963486712185e-01,-4.052979189997529264e-01,2.825613874543234094e-03,4.905257719367721314e-03,4.506628768941424792e-03,3.492408618330955505e-02
-4.218939880801045317e-01,-3.806329025656626786e-01,-4.092154317426441312e-01,7.487066207738444189e-03,8.812975305917254004e-03,5.167160421575165037e-03,4.267745092511177063e-02
-4.313653774719591882e-01,-4.515485719957109678e-01,-4.303295600845564173e-01,-3.053704706925097420e-03,-2.226781315269491229e-03,2.944794071628188117e-04,2.173594944179058075e-02
-4.267000130702088834e-01,-4.505972173157120619e-01,-4.253650027670737299e-01,-7.372939408568718800e-04,-5.376328909484343402e-03,-1.293219752836038199e-05,2.632693760097026825e-02
-4.314758667014633176e-01,-4.561466396186326100e-01,-4.354986650628457356e-01,2.218385700435430690e-05,-4.677068547952903908e-03,9.327241243478590592e-04,2.436843700706958771e-02
-4.161673631980905563e-01,-4.488634614315323290e-01,-4.293531586317346216e-01,-1.121685837924947613e-03,-6.036933203328562723e-03,3.166159748590456537e-03,3.090239316225051880e-02
-4.253708768456712086e-01,-4.495892681435437188e-01,-4.237079800781057837e-01,1.309858504241892064e-04,-4.736564614067806551e-03,5.264842156174199921e-04,2.641508169472217560e-02
-2.148914413979691185e-01,-5.440959378619778519e-01,-5.192236766672728709e-01,1.134523823442212115e-01,7.528881293480103876e-02,-1.314641930523960216e-02,3.961618244647979736e-01
-4.340484376137409006e-01,-3.613139073852948413e-01,-4.561064410925638746e-01,1.567164512710011656e-02,3.620766699375045378e-03,4.202811214426900588e-03,9.061107784509658813e-02
-3.866019756527374618e-01,-5.321722887113571332e-01,-4.847989088372010591e-01,2.848818918651661175e-02,7.687435722182983655e-02,1.658594708071769661e-02,1.937209516763687134e-01
-3.976891746826968221e-01,-4.546225084923180004e-01,-4.155404330756898301e-01,1.806793530508924665e-03,4.186531298509570641e-03,1.704720609836867917e-03,5.113543942570686340e-02
-3.815362453921913866e-01,-4.404745644408566418e-01,-4.047247879411282612e-01,-1.695946114301875027e-04,1.304466022713763815e-02,-1.257672007814685140e-03,5.621442198753356934e-02
-4.393823311313922453e-01,-4.239262238422384366e-01,-4.453079567686390461e-01,-1.075610807144513487e-02,9.029989525707705217e-03,-1.051433347778731042e-02,3.590193390846252441e-02
-4.085488276553867482e-01,-4.653025035050157854e-01,-4.417184380606280492e-01,-3.540253359404563985e-03,1.248744432673949863e-02,-7.853725977641074635e-03,5.593887344002723694e-02
-3.357309510301399458e-01,-5.359602290492926358e-01,-5.617150240870590894e-01,4.141170592967026443e-02,7.825610646894898964e-03,-1.283748157122317594e-02,2.274529635906219482e-01
-3.302937488301797564e-01,-4.326453651847025350e-01,-4.429904202488446630e-01,2.316192136084879727e-02,-1.371110924031071487e-02,-3.443776271640846490e-03,1.176889687776565552e-01
-4.106070395792115746e-01,-4.475532992471714655e-01,-4.293788043619249373e-01,-8.664919237680415373e-03,2.040214091774378291e-02,-1.451921733785161567e-02,5.594878271222114563e-02
-3.214470908921633896e-01,-3.263077138993472071e-01,-2.552712464922367031e-01,-7.927490190335778619e-02,8.990705093328983655e-02,-1.086534253343373058e-01,2.885213792324066162e-01
-4.311358333664854769e-01,-4.290190421068904580e-01,-3.496484245469443364e-01,-1.157380856370907041e-02,2.121519618460216208e-02,-1.923039807997531728e-02,9.661120176315307617e-02
-4.284349223769948201e-01,-4.419118894309155832e-01,-3.740485923638445787e-01,-6.356987001925598277e-03,1.126930348474608490e-02,-5.753473734961611153e-04,6.614894419908523560e-02
-4.399033085991110315e-01,-4.479641580361339859e-01,-4.125844658408954202e-01,-8.344707901371688913e-03,4.381419487176010583e-03,-3.876610951151328224e-03,3.664815053343772888e-02
-4.175549501617432657e-01,-4.485093059926986703e-01,-4.527211381230200615e-01,1.688805376719965112e-02,-1.899714851541827593e-02,-7.470398520766339395e-03,5.667451769113540649e-02
-4.509913923138367808e-01,-4.393921543040985589e-01,-4.226113203862931766e-01,-6.904267475201713439e-03,7.218549002819933409e-04,-2.447705534374227700e-03,2.780876308679580688e-02
-4.369004872304039777e-01,-3.351342438746627295e-01,-4.388167030358884890e-01,1.098000605937840268e-01,-4.823490879707587747e-02,-7.122610652091945771e-02,2.625309526920318604e-01
-4.938891171011242087e-01,-4.763851631614651749e-01,-3.625710817293322230e-01,1.447824297050526350e-02,-5.643165234734400654e-02,-1.046089603080504471e-01,2.413789331912994385e-01
-4.188673186433868323e-01,-2.973049545205467270e-01,-4.201093649755378023e-01,6.634137059332015363e-02,-5.086854922241272614e-02,-8.402717200805290276e-02,2.389100193977355957e-01
-7.388299228865562451e-01,-8.192275132067139420e-01,-5.942079046744990212e-01,1.715785860619216049e-02,-2.366690803102553808e-01,-1.573839485228953616e-01,5.312585234642028809e-01
-3.398729054096234492e-01,-4.013624037775399556e-01,-4.474180219739879449e-01,4.540276504376401095e-02,-1.197262176468745498e-02,-1.047087128729125814e-02,1.252086162567138672e-01
-4.386671780768585105e-01,-4.511359361468659235e-01,-4.249462147760925124e-01,2.679558039121434244e-03,-2.214506830615302867e-03,-9.554216921691616399e-04,2.353314310312271118e-02
-2.861578701361155996e-01,-5.471192507811318828e-01,-5.221573068311495813e-01,6.412152728504906529e-02,-2.310244526865239470e-02,-2.259928451001263702e-02,2.787075638771057129e-01
-3.374398793107902250e-01,-4.566388250027004214e-01,-4.590622912349823226e-01,1.444696111118512136e-02,5.177389730495107235e-03,1.065326254634364929e-03,1.233414039015769958e-01
-3.033196141529659329e-01,-3.951365836910058493e-01,-3.951233526620098191e-01,4.476898558991651567e-02,4.924017319430271100e-02,3.041333604673844906e-02,1.564948111772537231e-01
-3.521909122279464621e-01,-4.711605432551595474e-01,-4.647374398264166873e-01,1.670497216228736606e-02,-1.112239499043059070e-02,4.085662838630025120e-03,1.211991906166076660e-01
-4.484356914849124132e-01,-4.647828158235603468e-01,-3.725589708704855618e-01,-4.426734244564239223e-02,-9.091537340665742373e-02,3.383015159757973844e-02,2.034057974815368652e-01
-3.421223430807911470e-01,-4.848660367921399650e-01,-5.035373410120562720e-01,2.582682955488836349e-02,-1.459856447098209498e-02,-8.515450574825359983e-03,1.620109826326370239e-01
-4.362589440065728907e-01,-4.471231796189428231e-01,-4.159285323069349394e-01,4.731096985814014361e-03,-4.317871825789488041e-03,-2.485893250688079974e-03,2.989736571907997131e-02
-3.350232252170726177e-01,-4.722648167842042333e-01,-4.922362700419679049e-01,1.091003842964622939e-01,-9.176020213634643319e-02,-1.635174050153648251e-02,2.893884181976318359e-01
-2.895723820976661145e-01,-5.224842564473373141e-01,-6.627958932217006272e-01,9.616478552592049034e-02,-7.768907140786592697e-03,-3.509700000080435978e-02,3.717996776103973389e-01
-3.172015487242256793e-01,-6.277368843181384550e-01,-7.257244378779263982e-01,1.686036138468844647e-01,6.206425186430704864e-03,-3.443867030572033555e-02,4.747815430164337158e-01
-3.820176799115501121e-01,-4.249152400110359773e-01,-4.416984432610818190e-01,6.231724846210835896e-03,-4.766427739635647164e-03,-5.895276441399201553e-03,5.595317482948303223e-02
-4.492352916021022380e-01,-3.822632136987776930e-01,-5.069231116368296819e-01,8.935936198594435220e-02,1.663051477900796132e-02,2.643317545083736370e-02,1.963613033294677734e-01
-3.410151596477896119e-01,-4.395060285268084788e-01,-4.459816195075259615e-01,-2.953635850749452077e-02,1.899659978288011780e-02,-1.303450514686215617e-02,1.207876950502395630e-01
-3.616261518063379476e-01,-4.207948757489475833e-01,-4.511752067473316918e-01,1.782371205613655224e-02,1.518201145002820353e-03,-1.511502088008518079e-03,8.478378504514694214e-02
-3.324439921316013069e-01,-4.648015756542746568e-01,-4.727523241832348733e-01,7.104478137507534014e-03,-1.468651559621408313e-03,-3.071555836741312641e-03,1.371870338916778564e-01
-3.558256295255393109e-01,-4.997283802980260758e-01,-5.246730430749648733e-01,7.505051434027669444e-02,5.622281773843009617e-02,2.124484456909817021e-02,2.294659614562988281e-01
-2.690883414425397913e-01,-6.259329468197353252e-01,-6.216929308596871318e-01,1.110134300377233346e-01,9.775502244780895356e-02,1.043737290207599755e-02,4.379611015319824219e-01
-4.341776249178118108e-01,-4.509920376187692703e-01,-3.756689795257309172e-01,-1.045487402318638105e-02,1.296871685542623498e-02,-1.452426911254560676e-03,7.435441762208938599e-02
-4.306237741854281875e-01,-4.620008164624916924e-01,-3.736364419093086142e-01,-3.571978501457007387e-03,2.939521024389968318e-02,-5.177913168502322472e-03,9.344042837619781494e-02
-6.371228767318676267e-01,-7.159932049838596546e-01,-2.578796980657433457e-01,-3.851240756760038880e-02,1.522111220565049439e-01,-1.888417945579506333e-04,5.038961768150329590e-01
-3.882108960794719010e-01,-4.397521532718358661e-01,-3.346102694874933947e-01,-8.643496239843544843e-03,5.545446955678113438e-02,-1.669568965196730620e-02,1.363016366958618164e-01
-4.652184694051557101e-01,-4.701076182121027291e-01,-3.683663344939431816e-01,-4.889678863446584797e-03,2.900812072434884488e-03,-9.308509870989958510e-03,1.011665984988212585e-01
-4.532858536013626982e-01,-4.755084590159878166e-01,-3.587726496951397226e-01,7.737499585554741526e-04,9.854294942141652441e-03,5.674306273594455739e-03,1.091633215546607971e-01
-3.141069273915436111e-01,-4.371728854058484215e-01,-2.194405739723971904e-01,-5.089757392158617520e-03,1.442111284490794898e-01,9.120012457831899819e-04,3.134133219718933105e-01
-4.276506333163935247e-01,-4.320965436669176318e-01,-4.525555798657349693e-01,-1.626395185750721976e-03,5.642393021164014656e-04,-2.534851243340420588e-03,2.361068315804004669e-02
-4.484661538678769155e-01,-4.377678923535462396e-01,-4.551442720382095630e-01,-9.216385061755828431e-03,6.732057561856896570e-03,-7.813013037448674966e-03,2.836213819682598114e-02
-4.194886725386229864e-01,-4.957370455356781558e-01,-5.128838476408039693e-01,3.736696731361492663e-02,-3.569078038682473725e-02,-2.882815624479259306e-02,1.338611096143722534e-01
-4.515424113965229025e-01,-4.488670574472624630e-01,-4.821836604227958678e-01,-4.585608625014674783e-02,-9.811493080728371161e-03,8.960963111158991095e-05,8.732228726148605347e-02
-4.393639655626455642e-01,-4.075902758766752898e-01,-4.462852218932081838e-01,-4.664069257447686287e-03,5.491878375043804557e-03,-5.039217131320604913e-03,3.884982690215110779e-02
-4.567897919012242069e-01,-3.837860884789889848e-01,-5.016467580369220469e-01,-4.335808185406440224e-02,4.513530296843924414e-03,-2.057344925773901476e-02,1.326163560152053833e-01
-3.591425921397081167e-01,-2.737114392086666959e-01,-4.658746359658802461e-01,1.664828683283468558e-01,3.751486476514740570e-02,1.004114002855501786e-01,3.813496232032775879e-01
-3.029854482743988275e-01,-4.286577954098809706e-01,-4.669075716853082758e-01,1.221893967779436319e-01,1.200337407544909557e-01,7.473745624669159149e-02,3.561398983001708984e-01
-4.452146500893152115e-01,-3.771032093495552129e-01,-4.601647801124745807e-01,1.493167066723803671e-02,-8.238668269328576141e-03,-3.348484536323639241e-03,8.238372206687927246e-02
-4.076521895734544487e-01,-3.945053324206473921e-01,-4.479890606162104105e-01,1.104627711388772061e-02,-3.729366716005988892e-03,-2.028717942264418161e-03,5.244366824626922607e-02
-4.287167180650655052e-01,-3.177965311384223224e-01,-6.277666615493550095e-01,1.431243274852361802e-01,-1.447223859785520296e-02,-2.828711942510017674e-02,3.721362054347991943e-01
-3.983259612468518784e-01,-1.472775097761194474e-01,-4.205423548874699935e-01,6.253947002777132669e-02,-3.645875063257316296e-03,2.159340387548474086e-02,2.868249416351318359e-01
-4.569217687383565485e-01,-3.492133423661342162e-01,-4.646510554785922009e-01,6.314549810253441628e-03,-4.467624279968919476e-03,2.229741894817439691e-03,1.126400083303451538e-01
-3.918166891164694410e-01,-4.601962540917701738e-01,-4.770659455385833914e-01,-3.282417341133062744e-02,-1.596150620513753996e-04,9.667141361534428018e-03,9.811528772115707397e-02
-4.041366678675762381e-01,-4.609850584618174207e-01,-4.718719038658081844e-01,-3.470885558458348518e-03,-8.811332069834053315e-03,1.907304473675996721e-03,6.518539786338806152e-02
-4.102540401057101493e-01,-4.468830365840851249e-01,-4.546882333482948346e-01,-8.633995048473811981e-03,-5.449990281015430586e-03,8.745423606414781670e-03,4.723021388053894043e-02
-3.395626479349637683e-01,-4.250916689372708501e-01,-4.294034407092937045e-01,-1.930279207088792318e-02,-2.199423389131734130e-02,4.902397372717505475e-03,1.017040759325027466e-01
-3.665493237941664928e-01,-4.604194575823385982e-01,-4.621631694886112474e-01,-8.760638848977760768e-03,4.707541726113845357e-04,-1.736562423904876784e-03,9.601189196109771729e-02
-4.427421381089395314e-01,-4.394829463604180697e-01,-4.300958265442608730e-01,3.752998552845181104e-03,-4.950402247562997460e-03,-6.120273830890434440e-03,1.890720613300800323e-02
-2.908078462840870682e-01,-4.917392389633087890e-01,-4.914721336683745001e-01,2.797170642632171300e-02,-1.024392277471056559e-02,-8.666878097987768328e-03,2.078634947538375854e-01
-4.300309803148916754e-01,-4.368023702199796965e-01,-4.515516643380890760e-01,-1.216959756113023200e-03,-7.640396238935480379e-04,1.468002316843439225e-03,1.938880980014801025e-02
-4.274561872776688753e-01,-4.260891512277386051e-01,-4.496590744243602611e-01,-3.916814647738508029e-03,-1.612557085943008275e-03,7.625922272040729175e-04,2.409894391894340515e-02
-4.273192063740544056e-01,-4.348956893874560414e-01,-4.476371389268434808e-01,-2.186879173559369647e-03,-8.057098416061713028e-04,2.581306399620687895e-03,1.877677440643310547e-02
-4.303901091666829104e-01,-4.389421488772096147e-01,-4.585071938008222214e-01,-2.502820510114591411e-03,-6.194789693137204558e-04,2.109640216639356060e-03,2.562312968075275421e-02
-4.280385465387924748e-01,-4.327420305497623465e-01,-4.495904887154177909e-01,-9.756425667892483283e-04,-7.532222293341907498e-04,4.877217607469801555e-04,1.976135186851024628e-02
-4.315154184441188923e-01,-4.319758312933779099e-01,-4.530325974795841870e-01,-9.466947466109604335e-04,-5.847315687435835968e-04,3.021957820596322800e-04,2.138416655361652374e-02
-4.249781176841918029e-01,-4.454646363432567813e-01,-4.521723482644840475e-01,-3.072667462500858638e-03,-1.549045970521959002e-03,6.177273946451746454e-03,2.742457203567028046e-02
-4.409261522688076584e-01,-4.470954556663736534e-01,-4.800652662346771016e-01,-1.547061422288186806e-02,-3.168208875606142762e-03,-1.200242617287915464e-03,4.561714082956314087e-02
-4.429145576697658404e-01,-4.407513325448021435e-01,-4.042601201882552453e-01,-8.966209824675651710e-03,-6.761600315308050925e-03,4.969940161580124229e-03,4.321648180484771729e-02
-4.359450837026345171e-01,-4.422282612958070569e-01,-4.322499630738346199e-01,-5.631401911911417327e-03,-6.589971029554437046e-03,2.641854242759262249e-03,1.796409487724304199e-02
-4.424757853462749635e-01,-4.420416887583206722e-01,-3.993397559441057565e-01,-7.703532049187215847e-03,-8.931532192030961284e-03,1.591772461586150877e-02,5.495136231184005737e-02
-4.442051221509820125e-01,-4.819540621401579017e-01,-4.557136062209582450e-01,-2.598340301163303695e-03,-1.388138867249627539e-02,2.551054230669213847e-03,4.172350838780403137e-02
-4.422784927258155419e-01,-4.303328364466429967e-01,-3.838596369370315675e-01,-6.658499742406939759e-03,-1.178414860292882312e-03,1.253234114368613830e-02,5.887241661548614502e-02
-4.419535909865895396e-01,-4.367040250148801483e-01,-4.060310707719113066e-01,-7.959034758352379405e-03,-6.151122924278590483e-03,4.329542424838664708e-03,3.859002888202667236e-02
-4.292762269415850152e-01,-4.416613395949485210e-01,-4.372097232592253024e-01,-2.169109831302965929e-03,-1.879577219582498565e-03,1.722592860907713828e-03,1.231623534113168716e-02
-4.234020220272223800e-01,-4.402068068410502355e-01,-4.306468990584516598e-01,-7.778948364881508627e-03,-1.090680588476591537e-02,9.306191287415740629e-03,3.180200234055519104e-02
-4.193143635366437527e-01,-4.765414045132888576e-01,-4.356472843373609960e-01,1.279903727485712586e-02,-4.260884121387465556e-02,-9.607608511376977342e-03,9.392506629228591919e-02
-4.056878303453473888e-01,-4.600753065641560169e-01,-4.525333077077462463e-01,-1.773606207221528272e-02,-1.959810824166519430e-02,8.427787965227319681e-04,6.857682764530181885e-02
-4.169937384241851341e-01,-4.239581893360450660e-01,-4.416712855726119269e-01,5.218440978050105719e-03,-3.242658769398190383e-03,-3.167937373704275868e-03,2.507922798395156860e-02
-4.814838420155307386e-01,-4.891376092380388396e-01,-4.985162351794140134e-01,-3.846934015159120257e-02,-4.581501917915901251e-02,2.751956488812380350e-02,1.150087714195251465e-01
-1.131861318156773821e-01,-4.008741231459108656e-01,-3.765774172644050788e-01,-4.084705113348840316e-02,7.108599764061580839e-02,-1.902468436470340640e-02,3.124352097511291504e-01
-4.433912781758069244e-01,-3.386508789072845138e-01,-4.544436769835685785e-01,-2.134487533774992798e-02,-6.189124370600655907e-03,-4.991599020584738984e-03,1.175023987889289856e-01
-3.887491307801917984e-01,-4.632564099113236633e-01,-4.690700223549495451e-01,-2.665648448623306535e-03,1.753900791326103679e-03,-3.046180223984741239e-03,7.795301079750061035e-02
-4.309905061573932605e-01,-4.332101295198921287e-01,-4.532716772100439107e-01,-3.635386025881252002e-03,-1.600381806071721419e-03,1.496677317764724983e-03,2.249385230243206024e-02
-4.320470569741543532e-01,-4.335452028998630358e-01,-4.573611103196403294e-01,-4.655768692796439373e-03,-2.111132113312789646e-03,4.063889339956722928e-04,2.615370415151119232e-02
-4.446415110001873949e-01,-3.981075862660607978e-01,-4.513297905439381252e-01,-8.467234005889182069e-03,-7.021516968255108251e-03,4.612912345742134837e-03,5.429728701710700989e-02
-4.201861530945359968e-01,-4.340890834394072750e-01,-4.457536344870495770e-01,-4.434569693782194205e-03,-1.157823354408132064e-03,4.709903653965729318e-03,2.492172084748744965e-02
-4.361249383311531225e-01,-4.426927954087081507e-01,-4.289469389368310570e-01,-8.162217401998433930e-03,-7.858110885846437618e-03,5.207036978738447883e-03,2.466291375458240509e-02
-4.497969729133524663e-01,-4.275019756083026090e-01,-4.276379385236451780e-01,-2.011523337301529459e-03,1.436444791361087166e-03,-3.363220780164723721e-03,2.337341755628585815e-02
-4.763013173550533219e-01,-4.391799995672042711e-01,-4.592445820149583247e-01,-2.139863673134614550e-02,8.019126545021886682e-03,-2.118026744024154723e-02,6.283463537693023682e-02
-4.512920825828764526e-01,-4.337272404298202488e-01,-4.254398410067656844e-01,-2.454876521558001148e-03,-1.197019258540915794e-03,-1.782847562595882588e-03,2.355175092816352844e-02
-4.479472085016585337e-01,-4.380701007740076536e-01,-4.053137197977720874e-01,-6.057715307818046201e-03,6.572730582162404807e-03,-3.771715977618197036e-03,4.214787855744361877e-02
-4.329893384163966963e-01,-4.295712668019329716e-01,-3.931646941745438051e-01,-7.414282074621861979e-03,8.403116669898859012e-03,-6.294556690125622210e-03,4.424000531435012817e-02
-4.573340667862200171e-01,-4.276074553380269649e-01,-4.045380046335145252e-01,-1.001247942480331700e-02,8.735846025370665874e-03,-2.014934810865096071e-02,6.204297393560409546e-02
-4.506401110223358097e-01,-4.382217910781942560e-01,-4.006883735951476400e-01,-6.355692437584090082e-03,4.706330895888105777e-03,-5.291494663310972874e-03,4.796568676829338074e-02
-4.937435956268588777e-01,-6.183101046081094232e-01,-3.334175945949888753e-01,-1.091990940951137884e-01,1.273106472574798143e-01,-2.484241261632750067e-02,3.839808106422424316e-01
-4.781989728823664021e-01,-3.880501062243589816e-01,-4.287552638688754136e-01,-5.247909035314254900e-02,2.272533148221497767e-02,-7.948893266996623352e-02,1.867649853229522705e-01
-5.857701909188995915e-01,-5.115575847245166230e-01,-3.797079218550412083e-01,-1.019128628522832786e-02,6.599575643943207670e-02,-1.035913175011362736e-01,2.797286808490753174e-01
-6.515235837602260105e-01,-6.376344130425501966e-01,-5.200358216638081288e-01,-8.705540507163549158e-02,-1.683177324057817366e-03,-1.296863787515812882e-01,2.980868816375732422e-01
-4.157934550847055544e-01,-3.266512968145834916e-01,-3.271161892586195163e-01,7.481924023365563864e-04,-5.308254867410138605e-03,-8.780121907764618094e-02,1.764042824506759644e-01
-4.079029756088162761e-01,-4.377796778828271784e-01,-3.832956204636736031e-01,-1.379285617412161213e-02,2.728304273404015198e-02,-1.491719584640703762e-02,7.552956789731979370e-02
-4.166283805813610908e-01,-4.313157049436706081e-01,-4.044352683273461091e-01,1.160995555458238515e-02,-1.958824212760031450e-02,-1.022873645213701575e-02,4.912052303552627563e-02
-6.567805314588752719e-01,-3.581047546229224054e-01,-5.842641652327207336e-01,9.046031232652230331e-03,-1.159730331184978674e-01,-1.273034547115484416e-01,4.025173187255859375e-01
-4.677299946377201367e-01,-4.434505176462246179e-01,-4.309898097084366997e-01,-1.715494583688006048e-03,9.043279319699829748e-04,-1.418720414850454040e-02,4.077271372079849243e-02
-4.425723694389399610e-01,-4.411620856782629274e-01,-4.103971234328118722e-01,-8.149326041708097185e-03,8.473577474301954848e-03,-1.191992319069181197e-02,4.281065240502357483e-02
-3.537505450052302325e-01,-5.324340204123462206e-01,-5.327598373201617443e-01,2.010104633805817609e-02,9.347457056009589099e-04,-8.213062514854235774e-03,1.827655583620071411e-01
-3.623329051075643292e-01,-4.808658349257275977e-01,-4.869768863239659074e-01,2.142315104072767002e-03,-1.014689756846337109e-04,-2.464969107832693743e-03,1.218350902199745178e-01
-3.019075600346118882e-01,-6.940267977954739376e-01,-6.185091119739750676e-01,-2.952281792579160031e-03,1.218500243299135144e-01,-4.593490394701855301e-02,4.251434504985809326e-01
-4.000636017499158426e-01,-4.076473114492837890e-01,-4.466583928143931237e-01,7.783703434255865965e-03,7.425414732069402033e-04,-3.808182596287043305e-04,4.537701234221458435e-02
-4.520689306903223348e-01,-4.790918172794975116e-01,-4.857786776946237950e-01,-4.833070911285015925e-02,1.432849912470837012e-02,-1.483469781271514951e-02,9.612150490283966064e-02
-3.691605001077875037e-01,-4.466776196206191374e-01,-4.291089686301996498e-01,-7.487447652954416603e-03,1.624923054815066367e-02,-5.731666893175791852e-03,7.755349576473236084e-02
-4.445442895522213611e-01,-3.645768521949407925e-01,-4.345743207301466793e-01,5.181067440695341468e-03,1.119872629979060293e-02,1.189121954657285096e-02,8.110417425632476807e-02
-4.368666460153280973e-01,-3.719439075357409696e-01,-4.296779846932196611e-01,8.310887148147599532e-03,1.574726265492988608e-02,1.434131211789370190e-02,7.326726615428924561e-02
-4.410751959828654312e-01,-3.890562584737170537e-01,-4.281328152590994640e-01,6.842205430315204118e-03,1.179359101909317233e-02,5.490209525097120534e-03,5.337009578943252563e-02
-4.484971805703804049e-01,-4.028302076068822624e-01,-4.416730821175099408e-01,1.711628412464366936e-02,1.810286500821108729e-02,2.147402142120233975e-02,7.117477059364318848e-02
-4.132608795116176625e-01,-3.467383057907739152e-01,-4.061525668501911879e-01,2.992819223542797502e-02,2.128864404603692320e-02,3.274123475453745435e-02,1.061394959688186646e-01
-4.470559061589427507e-01,-3.213285495063037955e-01,-4.311952958144009140e-01,2.511485777221879323e-02,2.587976059072743390e-02,6.434502968167174486e-02,1.743192970752716064e-01
-4.169698321540388775e-01,-3.562966482148998693e-01,-4.434542810732711726e-01,3.502699777463422898e-02,9.645418194517925425e-03,2.161502240296078042e-02,1.065408810973167419e-01
-3.866245177765130214e-01,-4.020485884935781074e-01,-3.881429617314703373e-01,4.242075015980125569e-02,3.779602108631327506e-02,4.149051107033163016e-02,1.227409988641738892e-01
-4.010725093707684930e-01,-4.455994109456934971e-01,-3.962360756025938291e-01,1.275031582114266116e-03,5.923099538861795708e-03,1.073555922359937685e-03,4.832154139876365662e-02
-4.366873915387059490e-01,-4.850961101799489139e-01,-3.517716921150110254e-01,-1.781516447155510191e-02,4.416173316562345408e-02,-1.421193004995909351e-02,1.451674699783325195e-01
-2.514783443326634171e-01,-4.977681636630975626e-01,-3.581108520477289670e-01,8.252502728022130529e-02,1.532831574124469964e-01,4.116482450589484948e-02,3.765217363834381104e-01
-3.508746668986814643e-01,-4.322139758954207656e-01,-4.182698585436839811e-01,9.331436665993158436e-03,1.064346890658050479e-02,9.483490081080892670e-03,8.091479539871215820e-02
-3.565415865535478401e-01,-4.481727689058293551e-01,-4.252173161877427776e-01,5.712449754588739236e-03,1.445195551792645069e-02,4.525270137913348784e-03,8.721065521240234375e-02
-3.749657508216177604e-01,-4.656965110241181316e-01,-4.007347024305324412e-01,6.686153777789652364e-02,1.064734380762011740e-01,7.001863093993088150e-02,2.620821893215179443e-01
-3.480063168007773711e-01,-4.281648855412697463e-01,-2.531494365890341602e-01,3.965223042824772559e-02,1.238250024958789386e-01,6.453702234245729807e-02,2.936608493328094482e-01
-4.000675285048643226e-01,-4.383839569154631688e-01,-3.814488248475895182e-01,1.594981445255123920e-02,2.334753335466096744e-02,1.479083149089261730e-02,7.471964508295059204e-02
-3.202715844680675272e-01,-5.468606609948252206e-01,-3.817232614290869686e-01,-6.052657221043410488e-03,1.457242943399582324e-01,2.439388819156318444e-02,3.267972469329833984e-01
-3.834851582123490754e-01,-5.882755329337370220e-01,-4.734286019532180090e-01,-7.543093309655210521e-02,1.470326832378577864e-01,-3.998861808522130579e-02,3.439941108226776123e-01
-3.733085596366703118e-01,-4.328119822008981710e-01,-3.940624510798809710e-01,1.609599416535402797e-02,2.796146224480969278e-02,1.539310658884470231e-02,8.105596899986267090e-02
-4.072369442160854724e-01,-4.039067217270339571e-01,-4.219630024012376857e-01,5.859229006786952770e-02,3.802066482648640972e-02,3.836452809261086533e-02,1.390265524387359619e-01
-3.898419469200581355e-01,-4.360086187079603715e-01,-3.876517559727974960e-01,7.167212808600295290e-03,1.505899728751203259e-02,5.367572935816568476e-03,5.619725957512855530e-02
-3.775009896630504569e-01,-4.448297325586403894e-01,-4.223511634015873484e-01,5.153385220817370375e-03,5.870100951425369536e-03,7.304029085999979784e-03,6.219393014907836914e-02
-4.062714053879190601e-01,-4.314288148642291265e-01,-3.804807264265616662e-01,9.086984394194511441e-03,7.195793592277574882e-03,3.803363715556549486e-03,4.892173409461975098e-02
-4.062252254795708506e-01,-4.345478683858767233e-01,-4.009552822611163747e-01,5.039817855200681360e-03,3.502994979751739100e-03,2.119026010216791805e-03,3.325185924768447876e-02
-3.532947016324298195e-01,-4.516176604855839383e-01,-4.444423440655168034e-01,3.819848864723562106e-03,6.393051020839788517e-03,8.338512079727923229e-03,9.689360111951828003e-02
-3.978166726693521671e-01,-4.636148230248597346e-01,-4.737247406828259400e-01,-3.791816700429355078e-03,1.129332171908884949e-03,-8.680956381165747058e-04,7.173591852188110352e-02
-3.737930534143649175e-01,-4.692584723562797655e-01,-4.671520165098946853e-01,-1.945116351817114493e-03,3.887812618831261446e-03,-1.477460455302332179e-03,9.476409852504730225e-02
-3.585046659864890572e-01,-4.332834172097103642e-01,-4.301650793936504513e-01,2.301991916684419451e-02,-1.251972304295495553e-02,-3.403638752019744283e-03,8.638943731784820557e-02
-4.019956659024255252e-01,-4.232177124744071484e-01,-4.441590179072473776e-01,5.842688728373041963e-03,-5.206049876211792061e-04,-5.435298131524009431e-03,3.905358538031578064e-02
-4.159340464689957884e-01,-4.444207698071783730e-01,-4.400554231992799270e-01,2.994078428364967473e-03,-4.122023146319508426e-03,-7.181423914846819974e-03,3.063952550292015076e-02
-3.815712643577400809e-01,-4.318031915838033696e-01,-4.456974847601665735e-01,8.733876610888393482e-03,-5.887230235656194452e-03,-1.050021658128252010e-02,6.385780125856399536e-02
-2.726833667884014933e-01,-4.443617228991967316e-01,-4.552593627370446483e-01,8.783403502858588840e-02,1.279852977307110451e-01,6.266283666810841535e-02,3.398943245410919189e-01
-4.137634113606405983e-01,-4.518174614417375667e-01,-4.324070550050491124e-01,3.984324615958828239e-04,-5.514046988117769776e-03,-1.230642639040509419e-04,3.432150557637214661e-02
-4.372116081534349608e-01,-4.582568682573811558e-01,-4.401289301274715626e-01,1.623722659540336810e-03,-4.894561130128765800e-03,7.312788554854555067e-04,2.171179093420505524e-02
-4.332760287400660437e-01,-4.540214973132193910e-01,-4.316562592431755774e-01,6.968942181534602343e-04,-1.079026258205831573e-03,7.280259223543084730e-04,2.175180241465568542e-02
-4.206027780502906155e-01,-4.551285351080738284e-01,-4.359553237546491822e-01,-1.492945385221464399e-03,-2.869753474523956214e-03,2.916104856594445532e-04,3.048472665250301361e-02
-4.152852266197171738e-01,-4.582765985022445587e-01,-4.389549011420574853e-01,-3.102758449499481205e-03,-3.227576197631848443e-02,1.656663390772366087e-02,7.326892763376235962e-02
-4.257474846568250482e-01,-4.508192055161808764e-01,-4.298881211521442536e-01,-5.315293051583106073e-04,-2.498706216625210235e-03,1.797275460880126251e-03,2.389962226152420044e-02
-3.924618327519975303e-01,-4.313023054020644342e-01,-4.379336033495909719e-01,8.701450628656745914e-03,-7.788779625974581212e-03,-1.049808474208579340e-02,5.049642920494079590e-02
-2.999169761197282291e-01,-3.698284876672563448e-01,-2.506987275835912965e-01,3.013210474218495222e-02,-1.240799610458446500e-01,-6.203892540914148629e-02,2.668497860431671143e-01
-4.426209034294127931e-01,-4.784591523416374947e-01,-4.551937702829686461e-01,-1.502700336544518425e-03,-1.959196564002177454e-02,-2.841117173382515151e-03,4.663038626313209534e-02
-4.149022978603502665e-01,-4.419869243759018129e-01,-4.240303519870172733e-01,4.382411587614043480e-03,-6.842204500841999985e-03,-5.695815223618084892e-03,2.941188961267471313e-02
-5.014776927636702686e-01,-5.087311460355207204e-01,-4.370054154392326584e-01,-2.262620340558674573e-02,-4.653535838732812679e-02,1.586927880705103419e-02,1.160383149981498718e-01
-5.351441287251235135e-01,-5.437578176275938979e-01,-4.332539410031286398e-01,-1.698787658272413181e-02,-1.355877479426992882e-01,3.883945782887760888e-03,2.596085369586944580e-01
-3.710397858806225857e-01,-4.800532580201828381e-01,-3.990468209534863697e-01,5.721005777760993644e-02,1.144246987532824417e-01,4.031006169655249050e-02,2.521664202213287354e-01
-3.630085395047786267e-01,-3.502521595359050499e-01,-2.804657130940276799e-01,8.582607087203908414e-02,1.141690271724765116e-01,1.106004024124611490e-01,3.222149610519409180e-01
-2.784491657505593354e-01,-2.787853174602712980e-01,-2.719794362138132082e-01,1.340739550952377013e-01,1.229170829297170642e-01,1.277084364798341531e-01,3.850010037422180176e-01
-2.971635116412220112e-01,-3.116344050674798583e-01,-3.510906440215122992e-01,1.408002447724958361e-01,1.074591957693188382e-01,1.149449108133031583e-01,3.689047694206237793e-01
-3.414813646868823382e-01,-5.399938270588410250e-01,-4.880041802433189857e-01,3.129090371532235702e-03,3.990834664888160549e-02,-1.016253907336509346e-02,1.921113282442092896e-01
-3.974514838522016924e-01,-4.257216279405862114e-01,-4.688018413641717452e-01,2.080757298843709246e-02,1.142030346446730070e-03,1.362919868575465437e-03,7.198152691125869751e-02
-4.329476186255827308e-01,-4.514311044927447059e-01,-4.279822878835672917e-01,4.373821178134688903e-02,5.344994663278535701e-02,4.298929204724723230e-02,1.425205022096633911e-01
-3.679165787121919662e-01,-4.341378659451413657e-01,-4.648030197982743195e-01,3.370172843716284089e-02,1.113621045772726637e-02,5.547453731127179564e-03,1.059626564383506775e-01
-3.891686981754843844e-01,-3.847175814070242783e-01,-4.215772381754150921e-01,1.095287297578220742e-01,7.397716005428994768e-02,7.163769758647391128e-02,2.627122998237609863e-01
-4.390997782840839192e-01,-4.031673700670059257e-01,-4.005264022052952844e-01,2.468358718897138357e-03,1.385050983335728899e-03,1.408505990086066952e-03,3.772259503602981567e-02
-4.327421952105041103e-01,-4.058408882450954547e-01,-4.070968218360922486e-01,5.646574630088100960e-04,2.993285081072345061e-03,8.626931818687506252e-04,2.686149440705776215e-02
-4.430937238827273306e-01,-4.092789927407760597e-01,-4.117557181671914202e-01,1.501415438471569901e-03,1.201660363862188004e-03,2.067425292168227451e-03,3.301117941737174988e-02
-4.352174131259191059e-01,-3.910833617893150205e-01,-4.121962133238947223e-01,6.328485564715589408e-03,9.099563838996295798e-03,8.130910863179408032e-03,4.504066705703735352e-02
-4.386191637923986253e-01,-3.771977396778593006e-01,-4.081554153005647612e-01,4.947075018452449201e-03,7.473024432724248781e-03,1.099037862030512354e-02,5.859034508466720581e-02
-4.479556900148456977e-01,-4.128907751681293870e-01,-3.530875673030454687e-01,6.092225374097501832e-03,3.013915302960314645e-03,1.951878147482305481e-02,9.046828746795654297e-02
-4.382264717621212613e-01,-3.995697859770057647e-01,-4.173944404381743079e-01,1.081529606341934818e-02,9.922478153077205626e-03,1.581357390066405466e-02,5.019463598728179932e-02
-4.355516327987928316e-01,-3.821654800509127758e-01,-3.724918153126707265e-01,1.398443253824997561e-02,1.032284765598347198e-02,3.383993133034762790e-02,8.832836896181106567e-02
-4.334773167463864540e-01,-4.216312655775576457e-01,-4.643432450131519951e-01,1.728840314710815285e-02,-5.940643313823575425e-03,-7.198822231464612788e-03,5.115352571010589600e-02
-4.577423277526807555e-01,-4.008330255274682452e-01,-4.607829605596738820e-01,6.990263294550502944e-03,-2.488848042395596250e-03,-7.954844118717845428e-03,6.144890189170837402e-02
-4.287167410270207313e-01,-2.613013937779766760e-01,-4.679027107951652109e-01,1.309990872359124148e-01,6.903423039342339307e-02,8.051421396060075286e-02,3.483544886112213135e-01
-4.604815444095176069e-01,-3.473544674814677546e-01,-4.943336038511790820e-01,7.497975200177330046e-02,2.517294274145431832e-02,4.927030426749147429e-02,2.093391716480255127e-01
-3.798696756624970750e-01,-2.083275129233322642e-01,-4.453303754864426089e-01,9.221295970067609760e-02,1.138020078311871054e-02,2.199890088871576943e-02,2.688701450824737549e-01
-4.088590234320694794e-01,-2.832567625997108873e-01,-5.632810978055233786e-01,1.408750809948483285e-01,-9.002832901022307655e-03,5.934981861423879734e-02,3.596742749214172363e-01
-3.972603316742664425e-01,-2.192015603438852434e-01,-4.266459339209036639e-01,9.243291558147959108e-02,3.484311339628577697e-02,9.178812120892372584e-02,3.038908243179321289e-01
-4.113834202477330004e-01,-4.585519531228323120e-01,-4.267703664487055293e-01,9.429800221225876494e-03,1.527951289794820568e-02,8.542361854336044669e-03,5.405477434396743774e-02
-3.972540089802457652e-01,-4.473137842122937302e-01,-4.137130798782542862e-01,2.729639129633613156e-03,3.049731620944597793e-03,4.537931416685354012e-03,4.544203355908393860e-02
-3.841741030955375114e-01,-4.358661422481727166e-01,-4.090118795190447742e-01,4.120305714184184336e-03,8.494058988868333215e-03,7.610470242911937348e-03,4.945909976959228516e-02
-4.011391737717787676e-01,-3.155534543698037542e-01,-3.734687898802439565e-01,5.137125698601555102e-02,4.135020857967091484e-02,6.465352158805805216e-02,1.769439131021499634e-01
-4.165022837131277522e-01,-4.338004598395766576e-01,-4.123765449332870703e-01,1.195270132522734336e-03,1.979230435384026800e-03,1.454294977421249262e-03,2.024844102561473846e-02
-4.070649429386464790e-01,-4.363907582905009463e-01,-3.766200601256099456e-01,8.063967329458585423e-03,7.839776615887191630e-03,4.788981397931234285e-03,5.592841282486915588e-02
-3.889921043390415223e-01,-4.200907025407677464e-01,-3.884638143538401978e-01,6.244243600872625109e-03,1.374140068889008644e-02,8.199023422320662544e-03,4.323138669133186340e-02
-4.253305487825136955e-01,-4.310952070490700616e-01,-4.448538000385256486e-01,-2.415852041228151986e-03,-1.237087784193408556e-03,2.734522946336475410e-03,1.861120015382766724e-02
-4.332723218190220327e-01,-4.823476998767079471e-01,-4.806426777178884335e-01,-4.844841443126508829e-02,-3.144625030742104893e-02,5.725786264643862450e-03,1.115093082189559937e-01
-4.308736496713199693e-01,-4.325986023601456898e-01,-4.494755567211065617e-01,-5.648065838727412248e-04,-5.190568716182029051e-04,7.590535689942222745e-04,1.790007762610912323e-02
-4.332534374920095077e-01,-3.926675779669187016e-01,-4.350845125635272592e-01,-9.350371793499748230e-03,-9.279144579026163409e-03,7.854435663273437798e-03,4.930063709616661072e-02
-4.182217212391606820e-01,-4.394437778826655316e-01,-4.492080885839293547e-01,-4.998320365659882254e-03,-2.718702173089277644e-03,3.856275935058373332e-03,2.991107478737831116e-02
-4.391843560416183179e-01,-3.976500666482990498e-01,-3.995019015248887362e-01,-2.385240579738182216e-03,-2.965050058083339244e-03,1.343684642589461353e-02,4.729377478361129761e-02
-4.573809658937323941e-01,-3.783539602660771495e-01,-4.399082410039916735e-01,-1.770946388781165920e-03,-2.834019587989437643e-03,9.198272009109477454e-03,7.387201488018035889e-02
-4.389899406779771973e-01,-3.581415894239721176e-01,-3.799741567899511119e-01,-6.929889715507901726e-02,-4.967045600524258586e-02,8.554921085836508787e-02,2.213875949382781982e-01
-4.410611430506988784e-01,-4.406737227400032708e-01,-4.556195796228305617e-01,-5.459395872760119083e-03,-6.343781635451841046e-03,5.868458634770543428e-03,2.304778806865215302e-02
-4.041260469314335024e-01,-4.232113411269770586e-01,-4.501570664270357902e-01,2.888591705914109534e-03,-2.032057482935414622e-03,-5.012221157284468299e-03,4.144121706485748291e-02
-4.240231700753801514e-01,-4.375210628796820655e-01,-4.618846512088930489e-01,1.346557818163852949e-02,-5.042387390425995090e-03,-7.173797952506755747e-03,4.335051402449607849e-02
-4.029511054711301110e-01,-4.100951963914014620e-01,-4.501370507009138100e-01,7.230720622993430657e-03,1.671726182054386438e-03,2.815940244407130993e-04,4.589033126831054688e-02
-4.142226378636482131e-01,-4.100765590934879468e-01,-4.535555479446358729e-01,1.319478565186121312e-02,-7.488168188148243420e-03,-6.748471642136735088e-03,5.054201930761337280e-02
-4.210123374162795251e-01,-4.238307145257245723e-01,-4.464682451357728787e-01,6.735545134111071974e-03,-2.535526535011659727e-03,-3.032000804595352990e-03,2.769784443080425262e-02
-4.192756778042812660e-01,-4.083164488215335064e-01,-4.530819898893150843e-01,2.191983585401197782e-03,3.668325915087829354e-03,2.637063786715688075e-03,4.134137183427810669e-02
-4.209951078978398376e-01,-4.465019543824667037e-01,-4.506843962324471597e-01,-4.093955569240866933e-03,-2.427207712334439500e-03,5.704491547912539026e-03,3.066515922546386719e-02
-4.857887324849028410e-01,-4.060353615915211489e-01,-4.329654654246455903e-01,-7.302276837844979933e-03,-1.022856835481038978e-02,4.400175855235953504e-02,1.059262454509735107e-01
-4.233725865090057772e-01,-4.598214866291703284e-01,-4.481898399001348898e-01,-2.884600580795068907e-03,-4.660715196561556264e-03,2.351490921365022822e-03,3.386111184954643250e-02
-4.214027987876401982e-01,-4.515050074804133340e-01,-4.339310627768128148e-01,-9.081918189665097669e-04,-4.185294106725099238e-03,3.204153166671539366e-03,2.778122015297412872e-02
-3.833214512104108906e-01,-4.560940789937303896e-01,-4.523334895022221303e-01,-1.947173444016004826e-02,-3.207999028258377849e-02,8.317364030224665486e-03,9.730718284845352173e-02
-4.685259594671956629e-01,-4.832878468521412674e-01,-4.712461571635377933e-01,-3.416080737525222649e-02,-3.549103424029101395e-02,3.271090273699645782e-03,8.658510446548461914e-02
-2.593424208112283802e-01,-4.427810431877506336e-01,-3.597665275041193600e-01,-1.842738580815221627e-02,-1.157160953084211269e-01,-1.375841624075615187e-02,2.589793503284454346e-01
-4.561735420652898720e-01,-4.878218360900938855e-01,-4.270730733171245186e-01,-2.740592050302106258e-02,-4.929206456118055690e-02,1.703981607974120599e-02,1.148166954517364502e-01
-3.909485054309178587e-01,-4.343686064798154556e-01,-4.465952305554441448e-01,8.243866397804952909e-03,-2.685583424024529531e-03,-8.757511478829339835e-03,5.496617034077644348e-02
-3.941996152195470504e-01,-4.240172959097185945e-01,-6.472959688823394231e-01,1.407774295311597368e-01,-9.655668518761317820e-03,-9.946401093821258255e-02,3.831630647182464600e-01
-4.316856326970960334e-01,-4.491326084026338039e-01,-4.285116055771658328e-01,3.707290421971536293e-04,-7.164782544796012304e-04,-5.149226443787048146e-04,1.930275559425354004e-02
-4.063489380525792671e-01,-4.236365941837904048e-01,-4.854548211763534682e-01,4.223271905045587749e-02,-1.180179530883005562e-02,-8.836962647747574617e-03,1.057921499013900757e-01
-3.917328832420764462e-01,-3.094302490242641923e-01,-5.755874611118027007e-01,1.543912973075677042e-01,4.809485584686629123e-02,2.686526128900555699e-02,3.692188262939453125e-01
-3.873170176905299522e-01,-3.992965778581406555e-01,-4.245908251406927403e-01,3.396124808651635602e-02,-2.415770497480898213e-02,-2.059155107107985688e-02,8.700139075517654419e-02
-5.120200415697693241e-01,-5.297732952056263267e-01,-4.421146436494984844e-01,-1.922946403439134561e-02,-4.558945800693565281e-02,1.200477930053787078e-02,1.192470043897628784e-01
-5.074581083733361586e-01,-4.673783827585771267e-01,-3.811838415166466376e-01,-7.646758495261187991e-03,-1.426096513156351747e-02,3.923492428674679039e-02,1.337692737579345703e-01
-4.745773956035975183e-01,-4.598924348038739285e-01,-3.817026587539602556e-01,-2.870158611330197659e-03,-5.605630924748421402e-03,8.618642111014540586e-03,8.842696994543075562e-02
-4.652360468327430554e-01,-4.487779286518905897e-01,-2.769687424687962141e-01,-1.110738249567012545e-02,-3.161243351431090171e-02,4.353428979626743772e-02,2.041342258453369141e-01
-4.321886783447946301e-01,-4.297403612648847404e-01,-3.449671452687896878e-01,1.181819359152262369e-02,1.103558235715305404e-02,1.409959969065336348e-02,9.370592981576919556e-02
-5.570192336355688223e-01,-5.517378940489864325e-01,-3.608939638433303898e-01,-2.141716298147461686e-02,-1.685183097303242020e-02,1.056765934100842991e-02,2.000506818294525146e-01
-4.146406762221048758e-01,-3.885973670880090158e-01,-2.796323992859026664e-01,9.200922056601401611e-02,9.633744673794515656e-02,1.334994402318617490e-01,3.494217097759246826e-01
-4.274516387483765500e-01,-4.610835583337397070e-01,-3.256304788676428474e-01,1.459545125246731329e-02,9.275003176549417860e-02,5.783126703683044018e-02,2.267228513956069946e-01
-4.383612954024370123e-01,-4.508755803890211467e-01,-3.744063708454122841e-01,1.182939713687272687e-02,2.598438745628648891e-02,2.535160358263033667e-02,9.706013649702072144e-02
-5.371192490329406155e-01,-3.784866322051130827e-01,-3.116289502946947843e-01,5.617128217880314883e-02,4.714949216084694111e-02,1.550163287950753754e-01,3.584203124046325684e-01
-4.423306273377364817e-01,-4.081758038492105944e-01,-3.445658589888063172e-01,5.728235524142283319e-03,6.145576007501205203e-03,1.922194023796470683e-02,9.330356121063232422e-02
-4.749186514652137814e-01,-4.410714255828729891e-01,-3.846886084522449512e-01,2.485668040340081007e-03,5.209285554676715280e-03,3.502508452176481685e-02,1.000663489103317261e-01
-4.724798884124254417e-01,-4.544656358084256942e-01,-3.533707152874862034e-01,1.507318448116486088e-03,-2.194530301957599207e-03,6.679533646646471264e-03,1.118970885872840881e-01
-4.134275970686795421e-01,-4.112219929512900829e-01,-4.406387616993403533e-01,7.365506155103430062e-03,4.943096011226956119e-03,5.107548087693432326e-03,3.346109762787818909e-02
-4.060730924481341653e-01,-4.054938777532713923e-01,-4.297559818160188172e-01,5.740144420632939263e-04,1.566640248422901610e-03,1.258684845062625927e-03,2.424946613609790802e-02
-4.119743931487322985e-01,-4.083252134016431278e-01,-4.323940254519011428e-01,6.921830332272389634e-04,2.945398115683735274e-03,1.272926893448402897e-03,2.317579090595245361e-02
-3.802887364071477205e-01,-4.037858416718710375e-01,-4.248081699879417972e-01,6.653360780548643605e-03,4.288463839530398496e-03,8.362734526303788885e-03,4.342575743794441223e-02
-3.893224286491180908e-01,-4.121187343873815023e-01,-4.241847389405924429e-01,5.041635562283397834e-03,3.238774215628731270e-03,8.169943240509014437e-03,3.533111140131950378e-02
-4.050603994542132935e-01,-3.967565622986564122e-01,-4.299198846245636529e-01,6.395172298871334982e-02,4.668916209228440167e-02,4.544370436565602772e-02,1.609281450510025024e-01
-4.116561108446118444e-01,-3.922077698181869465e-01,-4.137145275619641405e-01,4.956057803113868634e-03,8.865040236162465698e-03,4.058373680454207405e-03,2.795305661857128143e-02
-4.933323240796533837e-01,-3.967779474225625602e-01,-4.412649093862036076e-01,-8.324646476409672258e-02,-1.097092549975954290e-01,1.246869852191022227e-01,3.324834406375885010e-01
-4.606141884233267425e-01,-3.782075723295397207e-01,-4.402828252206770210e-01,-6.196282700525621891e-03,-5.641483138605718137e-03,1.376531630579366436e-02,7.942221313714981079e-02
-6.502664824751185346e-01,-4.350287256937852565e-01,-6.276373606607427158e-01,-1.240854357446879164e-01,-9.555343243624714322e-02,2.137094100130096028e-02,3.419383466243743896e-01
-4.826908706076090683e-01,-3.900127310435896333e-01,-2.773359943309568476e-01,-2.823627115489244985e-02,-1.577410296042543875e-02,1.449623033913262637e-01,3.129033148288726807e-01
-5.007892883709939014e-01,-3.761790146102429455e-01,-5.028418038021543746e-01,-2.819836755802536399e-02,-1.914113199743541424e-02,1.094903439494928320e-02,1.401140093803405762e-01
-5.042953173612644280e-01,-3.918100098093179606e-01,-4.964261713793015618e-01,-2.802562576391051663e-02,-2.186670589586701963e-02,3.476011991488706793e-02,1.387273222208023071e-01
-4.375734919791889332e-01,-3.949671036375081989e-01,-4.350176035447499423e-01,-8.491265169327929727e-03,-8.445308179763556800e-03,7.423468168330170022e-03,4.804724454879760742e-02
-4.042435109578027541e-01,-1.638880922692010356e-01,-3.043306083259781358e-01,1.479628344913729888e-02,-2.775957048678319525e-03,1.362905733875239833e-01,3.164553344249725342e-01
-4.987375370450974899e-01,-4.030446675610364626e-01,-3.471972131476191437e-01,-2.401773430585923269e-02,-3.622484894314077081e-02,7.895456394777645992e-02,2.049122005701065063e-01
-4.488308567793961590e-01,-3.501167020709653466e-01,-2.401523790993268237e-01,-3.533617233868546759e-02,-7.660697558697544818e-02,1.162125762912438603e-01,3.075054287910461426e-01
-3.996903827036714651e-01,-3.192851152272269677e-01,-2.925318885126205748e-01,-7.946678800413385646e-02,-7.906833129668341953e-02,1.102167322878682271e-01,2.889209985733032227e-01
-4.685667400502046553e-01,-4.292679911085308664e-01,-4.420729441614161259e-01,-8.652806708845637435e-03,-6.486253774071391170e-03,1.273355427618374711e-02,4.519289359450340271e-02
-4.511029850610646097e-01,-4.045002194950738095e-01,-5.084585958132051831e-01,-8.706626205806500263e-02,-2.640259278721096906e-02,7.800802723625757315e-03,1.820710450410842896e-01
-4.284469300744990217e-01,-4.108072044466103412e-01,-4.183837877689906004e-01,-4.073609545819041611e-02,-3.453440511004085556e-02,3.231383989427517867e-02,1.091953888535499573e-01
-4.364086134532262351e-01,-4.493721538346048816e-01,-4.658549301447903468e-01,-1.132122960064932231e-02,-4.255082675875428849e-03,4.941953075322006242e-03,3.413952142000198364e-02
-4.413605020259023237e-01,-4.189009832731303562e-01,-4.480261260916468813e-01,-3.093466799226069017e-03,-6.141949408273348135e-03,3.415465527957006146e-03,2.958788163959980011e-02
-4.890255683770245998e-01,-4.119161859881536047e-01,-5.761408305632652604e-01,-9.015913718753348904e-02,-7.886007264687483476e-02,5.120796025375879551e-02,2.667617499828338623e-01
-4.340940227167153220e-01,-4.222786605945425542e-01,-4.520826226869692488e-01,-1.013285332553355220e-02,-3.255851477304296925e-03,2.930857332649671517e-03,3.226964548230171204e-02
-3.139041644241244433e-01,-3.443753075121694929e-01,-4.225315632154324486e-01,-8.970756462336071380e-02,-2.453143863758778034e-02,1.118576680076893877e-02,1.890541762113571167e-01
-4.805756270488080739e-01,-3.772164885400262624e-01,-4.446725198223639430e-01,-4.653708140583198705e-02,-4.723877471378670756e-02,6.412375229623511197e-02,1.838162243366241455e-01
-4.341981471458620789e-01,-4.028931025867056870e-01,-4.190664908795001531e-01,-6.348492311741698278e-03,-7.860982435346153957e-03,6.994732055654790705e-03,3.447244688868522644e-02
-4.546894448832070057e-01,-4.568968836020715907e-01,-3.374953114320528580e-01,-3.607063640635275494e-03,-1.647334417843347026e-02,1.639215521352840876e-02,1.251291036605834961e-01
-4.292960246452532380e-01,-4.381983060963122178e-01,-4.373640368250684696e-01,-1.893035630003934598e-03,-1.108596371993918845e-03,7.730300002095571608e-04,9.420730173587799072e-03
-4.333091515730408960e-01,-4.417365919290563436e-01,-4.288683303250605539e-01,9.095667921880376061e-04,-1.400356564108762259e-03,-1.854462646077422111e-03,1.211814489215612411e-02
-4.430216859099440074e-01,-4.380181688299993326e-01,-4.221505601350917791e-01,5.161893647655377108e-03,-2.361236840256035821e-03,-2.859433966801191388e-03,2.184950560331344604e-02
-4.216491957800664880e-01,-4.386971891261326473e-01,-4.314872866524887551e-01,1.165428482376285870e-03,-3.401403343143300992e-03,-5.287102427925201471e-03,1.850259676575660706e-02
-4.339205631266501162e-01,-4.535939788896715119e-01,-4.372906555361570358e-01,1.210232916515245692e-04,-1.640969311371484954e-03,-4.356549552003094634e-03,1.992888376116752625e-02
-4.576179136577964712e-01,-4.377049016450426655e-01,-5.342477666950364856e-01,6.529605116830398959e-02,-3.823215284916503531e-02,-2.950865637749286105e-02,1.660803705453872681e-01
-4.415636758048670507e-01,-4.432314653858960840e-01,-4.305120867316020727e-01,4.362684195445327810e-03,-4.213926727846987325e-03,-5.031888529258070515e-03,1.815712451934814453e-02
-4.325829280944325506e-01,-4.429190994268085713e-01,-4.260801776247554740e-01,1.809655089938611103e-03,-5.502306164869616000e-04,-8.303270252605950011e-04,1.513726823031902313e-02
-3.882692698797317044e-01,-4.251056687371858045e-01,-3.887904920412581511e-01,7.987039148657533796e-03,1.197119922785777439e-02,8.646493403900850153e-03,4.672884196043014526e-02
-3.139081243995255899e-01,-4.305859423502075289e-01,-3.970653121849633260e-01,2.283716566583548699e-02,5.843114081003895205e-02,1.638274205281804730e-02,1.530967652797698975e-01
-3.928831189870894414e-01,-4.429690110931118752e-01,-4.553294260169782892e-01,-2.846061176868634399e-02,-5.855716829091220550e-03,6.674295525368267130e-04,7.625406980514526367e-02
-4.200511011435748010e-01,-4.386518789548551900e-01,-4.537444295345486323e-01,-3.985055184890793148e-03,-1.543319736262396564e-03,3.320273022547786876e-03,3.069800138473510742e-02
-4.076221477737795307e-01,-4.082930678761183541e-01,-4.365901667657768326e-01,1.150876772512047369e-02,-3.951788481503252549e-03,-4.442940441695912741e-03,3.638111054897308350e-02
-3.628846073994327348e-01,-4.456912487560872882e-01,-4.410906179597349208e-01,-2.678921767575600209e-03,1.482176317269220944e-02,-5.179549428109766693e-03,8.519513159990310669e-02
-4.379462271034081366e-01,-4.285889939407921956e-01,-4.555083986804849272e-01,-1.496451790199917423e-03,-1.386469809754416280e-03,7.976651592623289384e-04,2.397320978343486786e-02
-3.923478053944950972e-01,-4.397611819037177683e-01,-4.426689215326461424e-01,-7.082205259373897631e-03,5.507646999473773432e-03,-6.544643326626810829e-03,5.257681384682655334e-02
-4.361047256481355161e-01,-4.072088012267299217e-01,-4.137846536114848650e-01,-1.101080399743268289e-02,1.095886110088393692e-02,-1.652689962215999481e-02,4.724001884460449219e-02
-4.273945785719180934e-01,-4.283620694381913285e-01,-4.514877721431220792e-01,-3.055289077989075362e-03,4.959584077380090571e-04,-5.605793704828195131e-04,2.424444444477558136e-02
-4.250467997768559991e-01,-4.554058798694708421e-01,-4.648740049478514713e-01,-1.261415893715930880e-02,3.136323844080645545e-03,-6.501018070353955201e-03,4.395921900868415833e-02
-3.453463785015235543e-01,-4.296634501283853602e-01,-4.459491542810807840e-01,-1.809238023918411861e-02,7.564746863149996586e-04,-1.878959303773963157e-03,9.870190918445587158e-02
-4.301964527072973943e-01,-4.415239474623613991e-01,-4.606081148487085608e-01,-2.875927852469642963e-03,8.851753230323623420e-04,1.393727607959794040e-03,2.723388187587261200e-02
-4.246027729256769412e-01,-4.263986734651882271e-01,-4.441555466793802309e-01,-1.808276390691451740e-02,7.715760231071285696e-03,-1.061960308873149093e-02,4.299194365739822388e-02
-4.513984330672646261e-01,-4.220839802818220909e-01,-3.979339680309320060e-01,-1.363042998863301172e-02,8.764365741359685102e-03,-2.509195201290420271e-02,6.947755813598632812e-02
-4.782740317627782733e-01,-4.347544164876194217e-01,-4.636500254313543068e-01,-1.157183055519903124e-03,-2.010304403794329980e-04,-1.688575013668938002e-02,4.827951267361640930e-02
-4.620579795386560717e-01,-4.366281994462957172e-01,-4.364471271525977580e-01,8.891977328568860615e-04,-1.421534483366520760e-03,-5.791488497937411807e-03,2.757479809224605560e-02
-4.845161608081312021e-01,-4.969919021981253349e-01,-2.757668065946918823e-01,2.477066660686003466e-02,1.208397665730442661e-01,2.881029914282480162e-02,3.073659837245941162e-01
-4.471379202383368168e-01,-3.086932009639767882e-01,-4.602317623031470517e-01,-5.526639889172637460e-02,9.558079240749875471e-03,-8.396079649766251263e-02,2.274568229913711548e-01
-4.544286174045250037e-01,-4.366896627682760323e-01,-4.243830832831688715e-01,2.077121004407549761e-03,-5.850036018968479646e-04,-2.934679708874657691e-03,2.691162005066871643e-02
-4.501937235897325307e-01,-4.398281842002372266e-01,-3.900964874356969148e-01,-8.356955974686476607e-03,5.725456832352589925e-03,-1.038381183455850364e-02,6.105334684252738953e-02
-4.572949411729757552e-01,-4.546949896881737896e-01,-3.951377637852634961e-01,-6.498074175290520331e-03,5.771563111034783318e-03,-4.329423107711022171e-03,6.317838281393051147e-02
-4.538249339480403544e-01,-4.548703560969920567e-01,-4.229783403493927452e-01,1.233692638609986021e-02,-4.755978540982093439e-02,-3.277839247659621036e-02,1.070071086287498474e-01
-4.450278377888853831e-01,-4.285506566055565236e-01,-4.344509789235092567e-01,-9.463484131892104531e-04,7.241501091202031185e-04,1.776619529448175033e-04,1.460976433008909225e-02
-4.531152472282337640e-01,-4.321059472420014091e-01,-4.304015092710101187e-01,-3.139431387603796100e-03,1.130918932958733993e-03,-3.849395974160472154e-03,2.362124994397163391e-02
-4.616022137503971168e-01,-4.154920330594487621e-01,-4.396937381156407199e-01,1.029406568199009859e-04,3.384165717268594522e-03,-6.767058072108725515e-03,4.204396530985832214e-02
-4.526920980671907402e-01,-4.289674967687461815e-01,-4.347612973891258337e-01,3.055057836082966010e-04,7.571920905591926964e-04,-1.094357000720359548e-03,2.155370265245437622e-02
-4.498611819820346192e-01,-4.271100776870758731e-01,-4.331869958688290834e-01,-4.047174700100911442e-04,9.675583486157104994e-04,-1.279882487258543824e-03,2.060338109731674194e-02
-4.451777916031561255e-01,-4.188705882294860294e-01,-4.366381490333637316e-01,-3.327697139765661404e-03,6.777169058183085508e-03,-3.718045842538181701e-03,2.743761427700519562e-02
-4.961301238882567244e-01,-4.977735405190188978e-01,-4.292760518113830637e-01,-3.014872501581032996e-02,1.864996614857237708e-02,-6.499565944542851081e-02,1.450022161006927490e-01
-4.516166123531814569e-01,-4.286592060074484456e-01,-4.275734453898306642e-01,-1.252956501728961277e-03,8.371354651773216032e-04,-3.302612618045408597e-03,2.434504963457584381e-02
-4.461301619481241598e-01,-4.306549624717353475e-01,-4.360300538756278765e-01,-1.414072081354743630e-03,6.291805093999553941e-04,-2.660781876563551862e-04,1.387773733586072922e-02
-4.161904824698056116e-01,-4.148839404152903088e-01,-4.555498633215895321e-01,9.668765859947820590e-03,-8.727088988393533501e-04,-1.892883691616761409e-03,4.354057461023330688e-02
-1.385936591737637058e-01,-3.258532855984536680e-01,-3.686278822673944577e-01,1.285942644194951190e-01,9.093431419182544662e-02,4.353802322426210403e-02,3.535662293434143066e-01
-3.241086043034737685e-01,-5.048219356374935574e-01,-4.937513967020430439e-01,4.192263422338612239e-02,6.867058201997250193e-03,-1.124529535923988154e-02,1.912397295236587524e-01
-3.594272855589396021e-01,-7.251272127926108313e-01,-6.246251425435188631e-01,7.753117226590311309e-04,1.545549921303149832e-01,-3.443578924490785925e-02,4.269713163375854492e-01
-3.260618592826773909e-01,-4.368680084427597476e-01,-4.863615975165791472e-01,7.555686477048931260e-02,5.382629410405034842e-02,1.053478397240719538e-02,2.153208851814270020e-01
-2.885530485764206676e-01,-4.407385988139205790e-01,-4.360928673938997413e-01,-9.564933043788382064e-03,1.629762554058416732e-02,-7.329687823191382776e-03,1.539723575115203857e-01
-2.592535607920809504e-01,-5.218653532587070876e-01,-5.456281315349741368e-01,7.314754977177441442e-02,-2.220516339565268768e-02,1.020013615687634552e-02,3.059624731540679932e-01
-2.110903537950810094e-01,-4.974116153890578707e-01,-4.181205046684303706e-01,1.039016638144374220e-02,1.341897213465387817e-01,2.488375365026011116e-02,3.489503264427185059e-01
-3.060953203778500331e-01,-4.621113089339856650e-01,-4.549151942050139730e-01,-3.622013570585131109e-04,1.166807291295526676e-02,-2.027231081098595719e-03,1.539195179939270020e-01
-4.390666444106825494e-01,-4.390554573138679695e-01,-4.297230801611686690e-01,5.330023611227582713e-07,-6.442107685474024632e-04,-6.291438963119370823e-04,9.467327035963535309e-03
-4.381927032566494407e-01,-4.369965282367602177e-01,-4.292024428346868370e-01,6.071662457138838308e-04,-1.313452336311985901e-07,-1.625813444945145873e-04,8.525663986802101135e-03
-4.350113827139617251e-01,-4.407167624726793798e-01,-4.276883086715967397e-01,2.939252974694150423e-04,-4.193306838017652502e-04,-1.275720110953609083e-03,1.155979093164205551e-02
-4.342084072779678894e-01,-4.391785392591092130e-01,-4.258447426497393162e-01,1.668006080342478853e-03,-5.709826699039892038e-04,-9.305497560267441629e-04,1.217144913971424103e-02
-4.361134085791594228e-01,-4.344798517100328383e-01,-4.331292938268550552e-01,1.340249507008516288e-03,1.606597615986489816e-04,-7.385499120768190384e-04,3.715015016496181488e-03
-4.304914696178142597e-01,-4.329637226016853080e-01,-4.367743883849777298e-01,8.457957602330046839e-04,-5.098225446062648689e-04,-2.215705905997239142e-03,6.907102651894092560e-03
-3.580447154485472683e-01,-4.384316345996109865e-01,-4.168956350155129109e-01,-7.576011759180151586e-03,2.558173618642068173e-02,-1.062306239305819272e-02,8.757086098194122314e-02
-4.095423113818080219e-01,-3.815896871797360701e-01,-4.445385763345742203e-01,1.565702266327204800e-02,4.324280436913113985e-03,3.317213035238276552e-03,6.171597912907600403e-02
-3.773718442700830233e-01,-4.782563966623168406e-01,-4.743180187732131126e-01,-9.789086024087479201e-03,1.118457070105793351e-02,-8.627199811991412151e-04,1.022784337401390076e-01
-3.568668577340142756e-01,-4.516861248317080579e-01,-4.437445176360429455e-01,-1.135639488737613841e-02,5.619901588688714159e-03,-5.305235993161564433e-03,9.416387230157852173e-02
-3.891206229440716813e-01,-4.511527513492739061e-01,-4.494821650733121787e-01,-1.411481424678219260e-03,-8.387433198917300511e-04,-1.081046105233119357e-02,6.407675892114639282e-02
-4.221149559399175466e-01,-4.490588932273044676e-01,-4.559039612542626907e-01,-1.170102068224525629e-02,9.896463985383447889e-03,-9.130019599279722703e-03,4.372524842619895935e-02
-4.283847278093905198e-01,-4.263152513563419066e-01,-4.513646785957912688e-01,-3.632577024584672954e-03,3.840998360233170966e-03,-1.580947061176542863e-03,2.590872719883918762e-02
-4.257991798536157058e-01,-4.221143372990980303e-01,-4.509860438015488859e-01,-5.794784619264223106e-03,1.457112367685548448e-03,-5.253729714927487388e-04,2.913248911499977112e-02
-3.919367850685983035e-01,-5.627308006543437768e-01,-5.661647132082818779e-01,-2.697352519681784841e-02,-1.077850178606394246e-02,-5.669572626789708136e-03,1.799904257059097290e-01
-4.057363267633372073e-01,-4.233334627411551310e-01,-4.493341860439270530e-01,-1.060677559895666262e-02,-2.717275516407974766e-04,4.343765181280779208e-04,4.220821708440780640e-02
-4.926339665435355286e-01,-4.568652156202088754e-01,-5.232786561818286719e-01,-4.798955059622316693e-02,-2.037338943570134869e-02,1.367323830117134036e-02,1.096800416707992554e-01
-3.581077599026147862e-01,-4.071986717858855354e-01,-4.416639427302185283e-01,4.070731890854846491e-02,-2.266578445005432499e-02,-1.385790308710984145e-02,1.112578064203262329e-01
-4.166157923058223522e-01,-4.147464312454585134e-01,-4.496043668361121015e-01,7.627665418815386504e-03,-3.254499463177374600e-03,6.417538160668271848e-04,3.689122945070266724e-02
-3.963692028914732046e-01,-4.927552393836356348e-01,-5.005722806231253097e-01,4.848996819005114978e-02,-5.161458825532434097e-02,-2.976679784501970460e-02,1.667604297399520874e-01
-4.215555023612501118e-01,-4.503441751367492918e-01,-4.374294215198943347e-01,2.893952569334109787e-03,-6.123305244409269626e-03,-8.290032527115092156e-03,3.110568039119243622e-02
-4.449435576545970328e-01,-4.514088035361246698e-01,-4.082582239304280991e-01,5.209801229540103953e-03,-6.413758342153287779e-03,-3.545241717593804014e-03,4.321265965700149536e-02
-4.468162027991513519e-01,-4.403639759706997059e-01,-4.882943029336004881e-01,2.693617148829262342e-02,-1.363541265771672263e-02,-2.131679621664624505e-02,7.827740907669067383e-02
-4.019465496157893503e-01,-4.234688438208967232e-01,-4.346693430193711571e-01,-3.181975356249564652e-02,2.717709159040840317e-02,-2.724394039519296290e-02,9.115750342607498169e-02
-4.264824312979049736e-01,-4.379444932992620498e-01,-4.249999498299190659e-01,-4.853038026954298659e-03,4.126645750396306690e-03,-6.790512329513702199e-03,2.026439271867275238e-02
-4.379354353562217583e-01,-4.369694401475160972e-01,-4.385745463111345721e-01,-5.037048468916841687e-03,3.528890562727817273e-03,-3.799764499559107368e-03,1.259953994303941727e-02
-4.172977056185455669e-01,-4.406133013986228697e-01,-4.264342796788852530e-01,-4.273866320345309604e-03,2.974444990547225106e-03,-7.778002953843655976e-03,2.601732313632965088e-02
-4.497659604820115620e-01,-4.249335366446518880e-01,-4.218085723770710893e-01,1.697661684802276348e-03,-2.775378244159661459e-03,-9.518172309128908326e-03,3.174202516674995422e-02
-4.356773620358592169e-01,-4.276204034016478084e-01,-4.389115623299545410e-01,-7.822040607724955368e-04,1.984770236469448907e-03,-1.012200375314396307e-03,1.087012235075235367e-02
-4.853745957593237903e-01,-4.844194371807895028e-01,-5.255008189305540034e-01,-5.942826306133477260e-02,1.757343965456803145e-02,-3.564616901528975396e-02,1.303185820579528809e-01
-4.205931682330787957e-01,-4.392715621993970032e-01,-4.445153353386686601e-01,-1.319605751845598016e-02,6.117275029123422567e-03,-4.165688991314199854e-03,3.407425060868263245e-02
-3.967120027372852409e-01,-4.394885076182705186e-01,-4.397297549967732477e-01,-4.732952452481641037e-03,7.261725519115175449e-03,-8.553396106478376032e-03,4.780260846018791199e-02
-4.090067570992130808e-01,-4.417969436375090431e-01,-4.367029406344131170e-01,-4.096658684284291106e-03,3.710225458942060291e-03,-6.401547725645189389e-03,3.389242663979530334e-02
-4.406246959884603798e-01,-4.259378583525139095e-01,-4.335338947995315828e-01,-8.514206447855304999e-04,1.861043511269336271e-03,-1.409490143703854160e-03,1.343005616217851639e-02
-4.436690068365183870e-01,-4.306213284167775268e-01,-4.361293019962043660e-01,-2.037725829760739498e-03,1.910268558631227987e-03,-1.326785687227293332e-03,1.254586968570947647e-02
-4.475907634513592859e-01,-4.280001018331573981e-01,-4.351365399707399773e-01,-7.303346311309301961e-04,2.591249130565757754e-03,-1.581311765596874917e-03,1.800446398556232452e-02
-4.496594002485650998e-01,-4.293770274343396420e-01,-4.391114814170957725e-01,-2.958179309939953602e-04,3.901324184037455265e-03,-1.641738317117366879e-03,1.904483698308467865e-02
-4.452265234636413882e-01,-4.275891945581631326e-01,-4.309455236767399389e-01,-1.522191413865601290e-03,1.355905616430783068e-03,-5.167452237793041013e-04,1.662562415003776550e-02
-4.356688527967483848e-01,-4.258306874379934048e-01,-4.177651719024618737e-01,-6.056213757637052449e-03,4.017847067389979619e-03,-4.668163377214851716e-03,2.156454510986804962e-02
-4.416518323080595998e-01,-4.288301373863741550e-01,-4.179261340710443973e-01,-4.487247628020740210e-03,3.063872458392729627e-03,-4.184543268447560825e-03,2.375289984047412872e-02
-4.465539174762910846e-01,-4.334508375437577943e-01,-4.247033405411397289e-01,-4.365846312208291821e-03,3.956508741370576114e-03,-1.950435700763129745e-03,2.187201194465160370e-02
-4.087766071079852459e-01,-3.780240336090540665e-01,-4.455031807103667640e-01,1.168893524817409164e-02,-2.103457930713620305e-03,7.015174240738937571e-04,6.203742697834968567e-02
-4.383675573506479739e-01,-4.289516541110118819e-01,-4.179176258678575784e-01,-4.917738635637736513e-03,2.149705816020149041e-03,-4.472643768680205530e-03,2.146471850574016571e-02
-4.480641188041762923e-01,-4.261337826237218684e-01,-4.385378572077885950e-01,-1.219980110578663263e-03,4.026210228134009632e-03,-1.754234151808687931e-03,2.061803452670574188e-02
-4.662245346932049062e-01,-4.678927158928498642e-01,-2.798976790686317218e-01,-1.887900538479809695e-02,1.070316527140984519e-01,-6.892556214823829241e-02,2.910671532154083252e-01
-5.178395651818133993e-01,-5.745242707186090092e-01,-5.102445834315046946e-01,-1.023887497010258774e-01,6.109183332466459893e-02,-1.715093188187701012e-01,3.668715059757232666e-01
-3.242710266876812075e-01,-4.356640693833152000e-01,-2.247881594191392107e-01,-1.238094365531357613e-02,1.254915618021473500e-01,-1.913106358337619481e-03,2.847844660282135010e-01
-2.746990941126434826e-01,-4.113954585785326024e-01,-2.665325221251236831e-01,1.949129964193209441e-02,1.345570628587888784e-01,2.847825585840190604e-02,2.788521051406860352e-01
-4.557867636366509378e-01,-4.324452013928548055e-01,-4.177444251085932758e-01,4.139487397861545646e-03,-1.736965632545763635e-03,-5.505746725551501422e-03,3.543271496891975403e-02
-4.444919808587673438e-01,-4.101794953991314552e-01,-4.458367804082882802e-01,-5.566047276066347915e-03,5.446587677596475587e-03,-4.927343224987513690e-03,3.847172111272811890e-02
-4.427786336204378448e-01,-4.266062603430026967e-01,-4.340107532877692242e-01,-1.715123896817795195e-03,2.977443692722181890e-03,-1.014841940643429301e-03,1.533408369868993759e-02
-4.292631927602266195e-01,-4.234397882388348244e-01,-3.858392478837812112e-01,8.605744546684590199e-03,6.743742592281490832e-03,4.606840460049078760e-03,4.570509120821952820e-02
-4.450982965949433212e-01,-2.773391311742710030e-01,-3.956811946206867936e-01,5.278518197837853143e-02,1.632805535223815288e-02,7.101296741326047768e-02,2.158290594816207886e-01
-4.246906302297095981e-01,-3.807452285478489795e-01,-3.597792334604233422e-01,1.780824822509484429e-02,1.681361346563893175e-02,3.442821276960567750e-02,9.299209713935852051e-02
-4.449020569594314134e-01,-4.383254362919268288e-01,-4.434607308122503477e-01,-1.051071156925445678e-02,-1.529650327537170930e-02,1.630513166832822311e-02,4.320643842220306396e-02
-5.460791564626360506e-01,-5.092905736287726137e-01,-1.684963013427420442e-01,3.577470969924586089e-03,-3.681797293852554637e-02,5.676086413755472050e-03,3.663785159587860107e-01
-3.793174613494208480e-01,-4.231594373280079258e-01,-4.454468802295779017e-01,4.693714904427086047e-03,3.430404454300961612e-03,8.341382506146398715e-03,6.087779998779296875e-02
-3.894099058416940484e-01,-3.661723456993047909e-01,-4.448824581887625418e-01,3.539773329612918434e-02,1.610704834577843941e-02,1.799882194722483494e-02,1.020559519529342651e-01
-3.889528805079023321e-01,-4.765003842752237317e-01,-4.903570639888629179e-01,6.630118559687617208e-02,5.096723790511629992e-02,3.003464811043918617e-02,1.809874325990676880e-01
-4.113964835106169726e-01,-4.056982568202763817e-01,-4.440503364089120053e-01,3.997717401184350088e-03,-2.870793725850122585e-03,-2.875409521287492116e-03,3.717911243438720703e-02
-4.078895941408817727e-01,-3.787755362767694089e-01,-4.717155464136637555e-01,3.568491433923150213e-02,-3.394815596699777508e-03,2.452397569898078205e-03,1.032107993960380554e-01
-3.815333599986130420e-01,-4.438967728908581600e-01,-4.662139711904529360e-01,1.281898551636944522e-02,-4.178319598467188783e-03,-2.047538124310896868e-03,7.960502803325653076e-02
-3.722995564991867234e-01,-4.038798055673911147e-01,-4.694881573490083948e-01,5.985200387148416346e-02,7.189562926037678867e-03,1.419455629067712440e-03,1.352094560861587524e-01
-2.708864191428586032e-01,-3.811042654471727964e-01,-4.476333898131775735e-01,1.100890674875139169e-01,5.651819968609378408e-02,3.978018687601662939e-02,2.731225192546844482e-01
-4.439310161561401125e-01,-3.918162200053931787e-01,-4.595710407459520086e-01,2.851453334651806934e-02,1.225240031785808197e-02,2.140240738325749001e-02,8.966285735368728638e-02
-4.264738673058982577e-01,-4.486812127804815642e-01,-4.516419581278147688e-01,-1.319478865369228676e-02,-8.833175923363788609e-03,9.706109192153844142e-03,4.008354246616363525e-02
-4.453693966933136572e-01,-4.544365146971087732e-01,-4.715723435125923624e-01,-2.677948442598936107e-02,-1.952556537018516544e-02,9.768875937359226477e-03,6.413017958402633667e-02
-3.550363438470394706e-01,-3.898323737221932039e-01,-4.450939238675462040e-01,-7.849334282949482766e-02,-4.245620572689122463e-02,2.160347643781924953e-02,1.774227172136306763e-01
-4.491883058855588584e-01,-4.075629585326221993e-01,-4.127401034819964676e-01,-1.478790518897409425e-03,-5.979136655755731096e-04,6.476217240110813435e-03,4.095643013715744019e-02
-4.491681635462045907e-01,-4.090472385726947602e-01,-4.207475451282034484e-01,-2.655290614777370758e-03,-4.526263243098261994e-03,7.645481949480211446e-03,3.918075561523437500e-02
-4.542130895388964973e-01,-4.171226167528226392e-01,-4.138267688024996338e-01,-5.066648664240896863e-04,-4.116295694097611702e-03,9.392335465149495230e-03,4.272072017192840576e-02
-4.497714166408230962e-01,-4.058103499408244885e-01,-4.041086581858989168e-01,2.343615880168106649e-03,1.384868228380785890e-03,8.780726848454184497e-03,4.757955297827720642e-02
-2.742306441777747072e-01,-4.234433713606688410e-01,-4.102984458891305586e-01,-4.572491626430524175e-02,-8.096137123470270591e-02,3.384147304276330370e-02,2.232668995857238770e-01
-3.767124497148965911e-01,-5.077879365694423219e-01,-4.690168122269788298e-01,-2.632133335321535164e-02,-3.779412874813764533e-02,5.427348026495028635e-03,1.416122615337371826e-01
-4.199327781565562190e-01,-4.481140613530320005e-01,-4.035342905477188324e-01,-6.967591177762828304e-03,-2.906621575361724441e-02,9.048126246132078346e-03,6.671587377786636353e-02
-3.745969776453058619e-01,-4.603757890681426934e-01,-4.624747588166885914e-01,-1.012344965593825648e-02,-8.355654359342845963e-03,-4.080306626686417022e-05,8.977396786212921143e-02
-3.908852491816267039e-01,-4.595823225107489307e-01,-4.409964695595003925e-01,-8.425247796716455254e-03,-6.708371469392276215e-03,-8.514140755850243408e-04,6.432778388261795044e-02
-3.922963215522812797e-01,-5.154244290543797957e-01,-4.921056442451614554e-01,6.725321679267865296e-03,-4.664930098866508501e-02,-1.775517950681421153e-02,1.429790109395980835e-01
-4.480112181118243719e-01,-4.420441040075254180e-01,-4.171440903384982524e-01,-6.642228223117666724e-03,3.274508123092706793e-03,-3.325278340909689455e-03,3.165273368358612061e-02
-4.504841853028246912e-01,-4.442577023855937002e-01,-3.992295760364147350e-01,-6.526918859103602102e-03,4.209802654459655208e-03,-7.538494797163474738e-03,5.194346979260444641e-02
-5.275437160431339922e-01,-5.072750897493724098e-01,-5.194031241084328121e-01,-5.110090595155789006e-02,2.504368706048221843e-02,-5.172532238108635411e-02,1.343654692173004150e-01
-4.428578364065003936e-01,-4.206455055628198769e-01,-4.249581530983103095e-01,-3.658361748207899448e-03,3.548377718110745042e-03,-6.441646388997779825e-03,2.487168647348880768e-02
-4.477631438820096621e-01,-4.422191003564325262e-01,-4.036825471960063805e-01,-1.170824597133171899e-02,2.041388805883036575e-02,-1.799748523776247694e-02,6.605004519224166870e-02
-4.703255248160969071e-01,-4.680225158021014686e-01,-3.610725771264988726e-01,-3.519787139959533896e-03,8.655180028588681934e-03,3.183213928462165498e-03,1.094632446765899658e-01
-4.558247799606727768e-01,-4.847782475230963395e-01,-4.177072380579346933e-01,-2.436129638609512565e-02,-3.184310774433934260e-02,1.461468083145426797e-02,9.411706030368804932e-02
-4.088323777283589533e-01,-4.461591459973657803e-01,-4.051075070099028341e-01,5.831214504160200061e-03,8.111363569773768004e-03,6.330204867745077048e-03,4.433741047978401184e-02
-3.836680397482305493e-01,-4.231019601653163154e-01,-2.970327988752587411e-01,1.455389531943019482e-02,5.972384014385672540e-02,2.042591932012850428e-02,1.583192348480224609e-01
-4.014157167224848832e-01,-4.384324959172782865e-01,-4.034177807418315442e-01,2.477214540363008397e-03,4.223228371343892146e-03,5.331854980635073599e-03,3.817516192793846130e-02
-2.733890819179775056e-01,-3.817791616482559824e-01,-2.281885583190735867e-01,5.964489212140182406e-02,1.459681126480306679e-01,6.415830463853132437e-02,3.250111639499664307e-01
-4.563164342963296205e-01,-4.797523611482294448e-01,-3.035630310712786883e-01,4.726430652861792620e-02,1.601418902635635966e-01,6.535579180590586623e-02,3.520155251026153564e-01
-2.966491766183146361e-01,-2.971651098276489877e-01,-1.688397341031517285e-01,8.101966415748890205e-02,1.250934828836531565e-01,1.105040666540948874e-01,3.459372818470001221e-01
-2.663817715303107847e-01,-2.007529204983410087e-01,-3.975595147425359244e-01,1.491879890717063006e-01,-1.917409996445350621e-03,-2.308591666475109071e-03,3.113229572772979736e-01
-4.267168116489894469e-01,-2.800069042808711051e-01,-4.592369347285921166e-01,6.851198153699725180e-02,-2.575811528772703474e-02,-4.039840373926034678e-02,2.198194414377212524e-01
-4.462686230755594230e-01,-3.971657342872914054e-01,-4.616133831096546625e-01,2.610620274681995853e-02,-7.555615196749735328e-03,-7.550533335115981737e-03,7.607182115316390991e-02
-4.511681873587620184e-01,-4.274181261209163973e-01,-4.280281059375025676e-01,1.285436469867843896e-03,-1.397360553311512545e-03,-2.881732079698761176e-03,2.420079521834850311e-02
-4.705052980843043575e-01,-4.315302954320297535e-01,-4.628396147284696283e-01,-1.035470744538200503e-02,6.512612329925056114e-03,-1.644085167667144742e-02,5.038700625300407410e-02
-4.292273598849365435e-01,-4.131226943402521723e-01,-4.593247570696994964e-01,3.950490202217332367e-03,-2.905732610996711405e-03,-1.069118210693305445e-03,4.153914004564285278e-02
-4.445490387825745682e-01,-3.855689915919047195e-01,-4.567928179237931152e-01,8.842706640659886777e-03,-7.180983181136860877e-03,-3.959688144868171548e-03,6.918823719024658203e-02
-4.194891021633578299e-01,-3.493268257359363194e-01,-5.146370582475947586e-01,1.503300991648035267e-01,-7.641994224891728027e-02,-2.227196129579052039e-02,3.278067111968994141e-01
-3.487113243111710781e-01,-2.638663406434064718e-01,-3.653156793141875691e-01,8.330271133504596470e-02,-5.707362293114518620e-02,-7.937533195434504085e-02,2.416086196899414062e-01
-2.861730304203625730e-01,-3.808263350064495789e-01,-3.731751423432930204e-01,-1.032088277107644780e-01,7.991348552236304803e-02,-5.391037005254006170e-02,2.610119581222534180e-01
-4.464742647521605101e-01,-6.767766824108549795e-01,-5.607952766760727625e-01,-7.405897514233672485e-02,1.163890877663995294e-01,-1.143511610503237380e-01,3.689202070236206055e-01
-3.608349468035077501e-01,-3.868399851557780544e-01,-3.565268973703741295e-01,-8.392747341389508731e-02,7.003989067392492329e-02,-7.380155660078742408e-02,2.302066087722778320e-01
-4.605668438447274582e-01,-4.918048359245302814e-01,-5.280123493554704783e-01,-5.239622370575205274e-02,-6.219354526168477566e-03,-1.099512373317975723e-02,1.101483479142189026e-01
-3.504898910817566549e-01,-5.028669514506177718e-01,-6.408696845075824156e-01,-8.127512852997303971e-02,2.719586603701772826e-02,-7.888327925538964058e-02,3.224833011627197266e-01
-3.791219732405968212e-01,-4.649456717947514361e-01,-4.640940305059419457e-01,-2.238462549979391286e-02,2.722357887028491186e-02,-9.547563739980198007e-04,1.049888581037521362e-01
-3.518566534647537547e-01,-4.529869399740389380e-01,-3.854579383660380332e-01,-5.669721055779459312e-02,5.761553322068286437e-02,-3.665233765198614574e-02,1.777380853891372681e-01
-3.769359349773955814e-01,-4.985126607211678995e-01,-4.695964234274619953e-01,-1.271875717773356396e-01,1.114537476823962286e-01,-3.937636136259268366e-02,3.202324807643890381e-01
-4.578734603527928604e-01,-3.620460331946210863e-01,-4.817550239096135556e-01,-8.827525253809910544e-02,2.480701541921194117e-02,-5.480611112068421026e-02,2.151199430227279663e-01
-5.033655529661757999e-01,-4.483139225780616299e-01,-5.571238175558651529e-01,7.058090041265720205e-02,-2.569686509404768560e-02,-2.570873077207336613e-02,1.667000502347946167e-01
-4.257054646581598378e-01,-3.845733632989017381e-01,-4.297991593011328826e-01,1.140125103619937449e-02,-1.033532503507713501e-02,-8.167471225295272821e-03,5.279711633920669556e-02
-4.345441337819946348e-01,-4.215882436195693694e-01,-4.342818985629022244e-01,3.152416372216361364e-03,-5.302983122575004662e-03,-2.917207991635845706e-03,1.744232699275016785e-02
-4.380240655449549880e-01,-4.392559722038590353e-01,-4.296357493906137748e-01,1.718053450060943793e-03,-2.131629514960058872e-03,-1.856130446906621191e-03,1.072554849088191986e-02
-4.092138168313616542e-01,-3.832476151824438237e-01,-4.421171591159877012e-01,1.226705756531786332e-02,-2.553674100948210863e-03,-6.970536148518383839e-04,5.553117766976356506e-02
-4.159345422888407473e-01,-4.213237595126097523e-01,-4.455342527947446785e-01,2.734895949951644464e-03,-7.849436859433575305e-04,-3.877812751305000864e-03,2.854937687516212463e-02
-4.188967301250006714e-01,-4.192118940224815460e-01,-4.441377948463222092e-01,3.441795285824232001e-03,-2.510385761273171198e-03,-2.257498225936312771e-03,2.643839083611965179e-02
-4.236892282668131560e-01,-4.230388471829797381e-01,-4.362147884035697532e-01,7.892735777249548475e-04,-8.872840662648890948e-04,-2.928625775513219419e-03,1.397927943617105484e-02
-4.432163553555168445e-01,-4.954230370431535468e-01,-5.034918696702793683e-01,-6.976691704117179982e-02,2.785295330176489406e-02,-4.715287504857333667e-02,1.637427955865859985e-01
-4.095149270220433957e-01,-4.216880421517074096e-01,-4.022829664206946654e-01,-3.096674831400621566e-02,3.128361705584927627e-02,-2.984699939976912658e-02,9.366890788078308105e-02
-4.162393064733473369e-01,-4.405910899697566552e-01,-4.658782783352490298e-01,-2.391703067734517185e-02,5.310745317146438847e-03,-1.266413132218939704e-02,6.426558643579483032e-02
-4.181261845843966540e-01,-4.603320514642461614e-01,-4.435987343445400022e-01,-8.099283541121233415e-03,-2.798163938069459997e-02,4.699963607366386929e-03,6.298472732305526733e-02
-3.828231787802073294e-01,-4.362223387224977711e-01,-4.459630246112093466e-01,-1.020703153650437574e-02,6.685051580291867523e-03,-7.842717501913964301e-03,6.401281803846359253e-02
-3.876476813764236917e-01,-4.324182894335994454e-01,-4.296451939973931489e-01,-1.249644387447981959e-02,5.202586165521562098e-03,-7.542667938940542799e-03,5.107155442237854004e-02
-4.368119316147717202e-01,-4.331768214567148223e-01,-4.603789485106691282e-01,-1.077740356485633148e-02,6.498119043512142791e-04,-5.960426775996728252e-03,3.332553431391716003e-02
-4.251581369004923672e-01,-4.250968907431296739e-01,-4.500185362158467539e-01,-6.965814037333337670e-03,3.911061013254882833e-03,-3.829721588388550462e-03,2.924077585339546204e-02
-4.408928841388223829e-01,-4.013133922454786839e-01,-4.554792161096613556e-01,-2.250884954701246402e-02,6.015132092275095842e-03,-1.722829918619872211e-02,6.982514262199401855e-02
-3.076898214789831609e-01,-3.933612568890682559e-01,-3.470184156569365852e-01,8.381855813947859668e-02,1.230226815294295367e-01,6.771822075373132299e-02,2.928389608860015869e-01
-3.689692271304513271e-01,-4.202646136333803017e-01,-3.434317468227844894e-01,1.565315559137052046e-02,3.550541981612911208e-02,1.410688926843830550e-02,9.852571040391921997e-02
-3.229061169151246080e-01,-4.729752537334608320e-01,-4.407735987767651964e-01,8.816215061608789760e-02,1.517435713787042562e-01,1.938899704807995131e-02,3.350358903408050537e-01
-2.696279512254455835e-01,-3.652157219328050486e-01,-3.771421244777578008e-01,9.355061812452881986e-02,1.034199383550787471e-01,6.750605708541293493e-02,2.871109247207641602e-01
-4.023564061376536105e-01,-4.272693554101935631e-01,-4.018845088231213225e-01,8.023766496841526139e-03,1.052880033452473045e-02,9.230995230771090257e-03,3.760289028286933899e-02
-3.611753603572936955e-01,-4.304858655192908556e-01,-3.777763930210428778e-01,1.775643606173776812e-02,3.874160161215255832e-02,1.664355890835986923e-02,1.010373532772064209e-01
-4.395694803411559493e-01,-4.490390439337825224e-01,-4.361611053776721092e-01,-5.253758817184127523e-03,-6.660833910454974117e-03,5.614523875408504970e-03,2.107226103544235229e-02
-3.705064151597515787e-01,-4.403056350028689558e-01,-4.224582257321156664e-01,8.118239348940580608e-03,6.971046783897778126e-03,9.288461580589581212e-03,6.743186712265014648e-02
-4.333857367848533704e-01,-4.490448829164057631e-01,-3.722326054464292766e-01,1.064832938995680447e-02,3.174775669125241145e-02,1.922096461890921565e-02,9.702977538108825684e-02
-4.078647840646945633e-01,-4.548922375882913371e-01,-4.218087528813855847e-01,-1.582725897181884228e-03,1.899804578656222667e-02,-7.121664607283742596e-04,5.331116169691085815e-02
-3.687728553571190115e-01,-4.676347635977379236e-01,-4.449774070836031159e-01,1.151384482479089408e-02,3.944410162820663479e-02,1.304055283707124778e-03,1.145312264561653137e-01
-4.318474025866921306e-01,-4.663675789275512074e-01,-4.091357154962119713e-01,-1.124260279352344181e-03,1.760301667778048362e-02,-2.692968496613342040e-03,5.870793387293815613e-02
-4.298432269370706105e-01,-4.105769554165747404e-01,-3.947988478135215917e-01,-9.262182022741510812e-03,-8.946734970851411006e-03,2.113430981327563130e-02,5.255089700222015381e-02
-4.369300952796471571e-01,-4.399875826127089828e-01,-4.123551667888519234e-01,-5.793578152920991590e-03,-2.448693318676010110e-03,4.480518225363012280e-03,2.945034764707088470e-02
-2.372396030466192574e-01,-4.354449493992444409e-01,-4.167097304244519740e-01,1.255426363550178614e-02,-4.569682931167840662e-02,-1.709545638774981335e-02,2.086555510759353638e-01
-2.424144229217088109e-01,-4.171045366855564152e-01,-4.509034912113429883e-01,6.963009744442824611e-02,-1.533843602236452733e-02,-7.281109716023346536e-03,2.301591783761978149e-01
-4.203041544282164477e-01,-4.479738529420267401e-01,-4.174274377764805588e-01,2.342448575193569003e-03,-9.139525890513960221e-03,-1.592423850222296575e-03,3.358789905905723572e-02
-3.976054205320253554e-01,-4.484210517329391688e-01,-4.606669843254792562e-01,3.266161746193002591e-02,-3.745056087418911772e-02,-1.057615708350902704e-02,1.053471341729164124e-01
-2.953965172238312009e-01,-2.817480742713777131e-01,-4.051528673614379072e-01,1.247950517280825428e-01,-4.010052584613993387e-02,-4.110805889133511970e-02,2.652280628681182861e-01
-3.809646757524902672e-01,-4.254258833152442798e-01,-4.306901841896426109e-01,9.593866354436627122e-03,-1.246318810869229826e-02,-9.012887435831859126e-03,5.678367242217063904e-02
-3.854228628106403653e-01,-4.447025448756549704e-01,-4.390556675574479595e-01,6.012491040130762444e-03,-1.234640911486927471e-02,-9.924416603394919240e-03,6.381580233573913574e-02
-4.346806700467049644e-01,-4.431775201291174304e-01,-4.280462958202852497e-01,2.618489998593943966e-03,-2.804897527499964922e-03,-2.245864387739147407e-03,1.522781047970056534e-02
-3.278156003901573357e-01,-3.095124084898493999e-01,-3.938125939477178372e-01,1.073292044091005704e-01,-6.446679177620381895e-02,-7.029602962743308758e-02,2.602877914905548096e-01
-4.407062718857227557e-01,-4.349703907850188678e-01,-4.278182605652950943e-01,4.729027165549090292e-03,-5.072818595766983261e-03,-4.381021547031551701e-03,1.808172278106212616e-02
-4.394134843932122059e-01,-4.505718025920324443e-01,-4.294470149340558485e-01,-4.087021794995975878e-03,-9.552372739978836833e-03,4.818024070798340025e-03,2.699152380228042603e-02
-4.634524531650567880e-01,-4.676531394619512505e-01,-4.000329318619811336e-01,-5.085949635041026040e-03,-1.806925019528881834e-02,2.294421946790902670e-03,7.334148883819580078e-02
-4.156471076933599407e-01,-4.611847561240213222e-01,-4.476111751986360243e-01,8.314897844426848888e-04,-4.596503277164132838e-03,3.424376885461644787e-03,4.171866923570632935e-02
-4.340653748722148042e-01,-4.294706194721659709e-01,-3.811683010350118139e-01,-1.095334789298505959e-02,-1.211450443777805502e-02,1.940499098746981468e-02,6.712701171636581421e-02
-4.584164889782751384e-01,-4.642370338326211598e-01,-4.222257694708629883e-01,-1.807782896075903548e-02,-2.520444984152548501e-02,1.252350955312149516e-02,7.007873058319091797e-02
-4.652811191594889428e-01,-3.969815827900173844e-01,-4.589928666884787178e-01,-2.229564590861333323e-02,-1.354356324409064505e-02,2.460521117088160584e-02,9.018151462078094482e-02
-4.209328339078371450e-01,-3.992794863002669392e-01,-4.312162080756344884e-01,-1.440640404450102205e-02,-9.292589017359027814e-03,1.265356642446918527e-02,4.646841064095497131e-02
-4.403869998650852824e-01,-4.486323711589201846e-01,-4.152221515611352887e-01,-6.225110179003052677e-03,-2.559136888492763353e-03,3.795297215823791124e-03,3.298280760645866394e-02
-2.520442229818659063e-01,-4.075564400715616098e-01,-4.147713832460748762e-01,9.579073460911068094e-02,1.048875093416397619e-01,4.619743707236711322e-02,3.037967979907989502e-01
-2.396000099940554517e-01,-4.410961100309638838e-01,-4.711558995245255232e-01,1.048936996971563118e-01,1.299830342748154732e-01,6.982900173430760249e-02,3.819480240345001221e-01
-4.111066942759454834e-01,-3.905143028746983491e-01,-2.920939865875762931e-01,3.990226557670067259e-02,7.382885585235411663e-02,6.822259178447691308e-02,2.173222303390502930e-01
-4.580102102028290600e-01,-4.552073130147937241e-01,-3.423959009236764994e-01,1.833423613338269753e-03,5.396916145058445156e-03,1.414388074530885560e-02,1.172522157430648804e-01
-3.968845153542397974e-01,-4.510113866229695234e-01,-3.753057575683420022e-01,5.513117869408213495e-02,7.382490463950003301e-02,6.562923197510373008e-02,2.072525769472122192e-01
-4.020167923783070085e-01,-3.837881411773708118e-01,-3.259104693328045421e-01,4.021236323388686223e-02,5.265026827417902677e-02,7.201753573723745916e-02,1.829316020011901855e-01
-3.374824665457215600e-01,-4.256137237845154520e-01,-2.846427810770139621e-01,5.667756022773890595e-02,1.237996766220471334e-01,6.428320479857195513e-02,2.884945273399353027e-01
-4.430496087944312822e-01,-4.398597561445992676e-01,-3.611998118161558469e-01,1.105247801525674062e-01,1.391732807774822556e-01,9.320825367907012438e-02,3.567444384098052979e-01
-3.684191142749644321e-01,-5.195848393419210121e-01,-3.047186745275012876e-01,5.289059613277945215e-02,1.449551196593254487e-01,7.674708246849709647e-02,3.544526696205139160e-01
-4.189222442925064627e-01,-4.504212971148447986e-01,-3.988315065680444471e-01,7.455671352790850873e-03,1.711032351546767222e-02,4.701611979862532764e-03,5.603599920868873596e-02
-4.604525113583334828e-01,-4.596456637606735618e-01,-4.165206392848677663e-01,3.760869662045505241e-03,-9.678229062534512289e-03,-3.686461601728368339e-03,4.753336682915687561e-02
-4.259893344524591785e-01,-4.486218246994512215e-01,-4.031974443779821060e-01,-1.537879500454431610e-03,-8.782921087225507156e-03,7.794965421685557836e-04,4.228326305747032166e-02
-4.614684114147660776e-01,-4.670050532688443945e-01,-4.132082836195289932e-01,3.186576144227449420e-03,-8.336803074551903114e-03,-4.324674099719593399e-03,5.405526235699653625e-02
-4.584407468687653475e-01,-4.668649401074030370e-01,-3.921857906506874270e-01,3.896788264184749585e-03,-4.780434637049173034e-03,-6.900279459715000924e-03,7.263460010290145874e-02
-7.150353404576008653e-01,-6.997378623313241786e-01,-3.243846990757909277e-01,-8.030775598581157970e-02,-7.483198791672245054e-02,-1.379244333216385343e-01,4.899825453758239746e-01
-4.534602997755729503e-01,-4.633018975461101752e-01,-4.039515066802638055e-01,1.091378473559428269e-03,-1.399855554959085480e-02,7.664962965235853042e-03,6.166790425777435303e-02
-4.761639076545042815e-01,-3.275651106823278536e-01,-5.085960351838560989e-01,1.821338079506481383e-02,-5.916149228718484143e-03,-1.867240768383798821e-02,1.734905838966369629e-01
-4.268884744500597295e-01,-4.368964566797438054e-01,-4.516501061576245202e-01,-2.080215455544179998e-02,1.157740898161139023e-02,-6.607222762728543787e-03,4.792440310120582581e-02
-4.475112173167433705e-01,-4.319719106338402725e-01,-4.140550826961893471e-01,4.584453994763725872e-03,-3.917134014571898443e-03,-6.665073092052152016e-03,3.291277587413787842e-02
-4.000352248680535405e-01,-3.696715183034736674e-01,-4.423389966226216607e-01,-3.370831131456326207e-02,-1.018512869703245942e-02,7.288760087910361313e-03,8.874346315860748291e-02
-4.559791928504627889e-01,-4.167495649777868127e-01,-4.457301835617809016e-01,-1.464507390843109921e-03,4.824319302525879871e-03,-4.788651854515355716e-03,3.724233061075210571e-02
-4.994011405505149881e-01,-5.250150310241520346e-01,-4.392735776341936127e-01,-2.825711601007703522e-02,3.760612587777865945e-02,-6.061445941859731207e-02,1.532053798437118530e-01
-4.521880486827226653e-01,-4.154285797369529076e-01,-4.360269109924188591e-01,-1.076362624604622125e-03,5.680690296378536688e-03,-6.671286706362679515e-03,3.538602218031883240e-02
-4.105373828087862109e-01,-4.325271476349520916e-01,-4.858148176884529712e-01,-2.763877608060939794e-02,1.388725013238812983e-03,-4.167007595753069622e-03,8.273144811391830444e-02
-4.561201867355681450e-01,-4.246698847542497157e-01,-4.561692567600005299e-01,-1.352038301772471099e-02,9.972862010256241042e-03,-1.618910639355143968e-02,5.122211202979087830e-02
-5.001910877361023244e-01,-4.596250199303479334e-01,-4.210683381797976632e-01,-5.277705065381055327e-03,3.237430395059191866e-03,-3.096023413624622578e-02,8.767513930797576904e-02
-5.107696222167072975e-01,-4.608883576241599167e-01,-4.418037982000007080e-01,-5.362492899114694976e-03,-1.466681077338550382e-02,-6.312756049788151302e-02,1.284180879592895508e-01
-4.490936141407070870e-01,-4.247209130312699643e-01,-4.319354520254162222e-01,-1.314780999596869889e-03,2.119555227043014127e-03,-2.418192805218277903e-03,2.250437252223491669e-02
-4.455664402782432143e-01,-4.243102816551442835e-01,-4.304771276113809608e-01,-1.346380068309924660e-03,2.580411363686494451e-03,-2.520751325221494595e-03,2.008101530373096466e-02
-4.683655110842962488e-01,-4.633407296403053155e-01,-4.142420226005686379e-01,-3.472483425936329776e-02,3.263368785269912115e-02,-5.341356877837351996e-02,1.343651115894317627e-01
-6.162735894326495378e-01,-6.633695772048560091e-01,-2.876043118637677254e-01,-7.033507347714562652e-02,-3.183843158012426150e-02,-6.519294833184545446e-02,3.954149782657623291e-01
-5.055628729216199435e-01,-4.971119481197611156e-01,-2.603505620679432697e-01,-7.158051221752028542e-03,1.934486390167112005e-02,2.853942241310939917e-02,2.486927956342697144e-01
-4.441207243623566114e-01,-4.334822157327759551e-01,-4.264715541609566118e-01,2.397165672476131784e-03,-1.682648355910240645e-03,-1.060266616092406071e-03,1.630999147891998291e-02
-4.757092447261331847e-01,-4.676018127328608331e-01,-3.623085957417323533e-01,-1.055268056229822929e-03,-8.080297505888563853e-03,-1.196046515325158881e-04,1.104776337742805481e-01
-4.356418262401257624e-01,-4.390488053957588566e-01,-4.266787867654493471e-01,2.486500514626641643e-03,-1.230036501858032885e-03,-6.839919764830027513e-04,1.212316099554300308e-02
-4.529805850351008023e-01,-4.557669343054284727e-01,-4.007363011448265011e-01,3.991649752570068654e-03,-4.676846978932049266e-03,-3.230294932193662413e-03,5.502292886376380920e-02
-4.022786690613039950e-01,-4.180052009031710036e-01,-4.487024970739168506e-01,-2.446904773765703686e-02,1.996528432709134167e-03,-6.540839305012332780e-03,6.007427722215652466e-02
-4.644251339391443634e-01,-5.122784556949816492e-01,-3.761122380377555086e-01,-1.158853231474183711e-02,8.438238286096935714e-02,-1.109171775717538583e-02,1.909143626689910889e-01
-5.284583752287291825e-01,-5.281382409298170932e-01,-4.813825365018298275e-01,-3.351528328539584572e-02,3.156134479190337433e-02,-5.818187665097624556e-02,1.368018090724945068e-01
-4.312331249899872820e-01,-4.834411418389222836e-01,-3.851454589990135347e-01,-1.094694732400920689e-01,1.179242613981120180e-01,-7.616499236977970766e-02,3.198879659175872803e-01
-3.328941086613560474e-01,-3.489174470997953303e-01,-2.479774671805047570e-01,-6.920062311894606411e-02,9.180901621679365965e-02,-1.027290802550902549e-01,2.830916643142700195e-01
-4.967210163499916065e-01,-5.678450790999667319e-01,-3.775164398550470146e-01,-1.779391646614144826e-02,9.035687874433932787e-02,-7.403792118669529077e-02,2.638834714889526367e-01
-2.465671806805441735e-01,-4.081407127599079310e-01,-3.787263047288367823e-01,-8.767414182119653843e-02,8.589195326962009713e-02,-5.572924513266994812e-02,2.769989371299743652e-01
-4.020242274647283787e-01,-5.040287733504963397e-01,-2.448351875327654248e-01,3.450121496780896718e-02,1.685782383136191498e-01,1.161211725363658041e-02,3.746714591979980469e-01
-5.150900420434960658e-01,-6.020167001525756900e-01,-3.280605119919531854e-01,-7.455420504479562394e-02,1.336090430842697130e-01,-3.516368981931042997e-02,3.643250167369842529e-01
-2.302754109920118197e-01,-5.223850434996272218e-01,-5.440063426184013062e-01,-8.282283391499936295e-03,-3.697316879403841385e-03,1.315411387159631275e-02,3.047575950622558594e-01
-3.428950933428343562e-01,-4.133577014676146355e-01,-3.864675848554812165e-01,-4.429443632618003390e-02,5.756699634991533504e-02,-3.491490461878932194e-02,1.525723785161972046e-01
-4.718294391352967354e-01,-7.690307657626166415e-01,-7.686395800692156222e-01,-1.162573435282059503e-01,-9.692965188289773271e-02,-2.587089557279256130e-02,3.986901342868804932e-01
-4.352569636433081812e-01,-4.324176414674121838e-01,-4.525252366811856608e-01,-8.081288983360249785e-05,3.848288685787232505e-04,1.722228724044066149e-04,1.886367052793502808e-02
-3.866555026359944636e-01,-5.177697298544979843e-01,-5.039077068188716479e-01,7.077558503874125870e-03,-1.930718312190432551e-02,-8.114471875313956570e-03,1.305055469274520874e-01
-3.655474584399939775e-01,-4.737915526561701229e-01,-4.804315764519668797e-01,-4.175344327586473676e-03,-2.109981447698072374e-02,-5.794838633492420919e-03,1.181874126195907593e-01
-3.620944211158451109e-01,-4.770961323498614237e-01,-4.458406082055460518e-01,-3.138115809944026779e-02,-3.151444949043884919e-02,-3.062166111281478670e-03,1.287237554788589478e-01
-4.170186037154882674e-01,-4.779363158814340928e-01,-4.606574605628019903e-01,2.349768266837662118e-03,-4.099150919251731695e-02,5.786878587370130472e-03,9.008261561393737793e-02
-5.453900592526543800e-01,-5.163346059213173023e-01,-4.921561844197920865e-01,7.132784170958392234e-02,-1.654175818277373311e-01,-6.038009644995614295e-02,3.322958052158355713e-01
-5.698426983527467016e-01,-5.534654465660613365e-01,-5.986219975665940662e-01,3.163622798924575763e-02,-1.291908575326589925e-01,-1.582636629970906039e-01,3.602545559406280518e-01
-4.211755190030354035e-01,-3.101073483581049950e-01,-4.274805563443067058e-01,6.237332278558472415e-02,-3.803247707800366112e-02,-7.313399856809844890e-02,2.124444097280502319e-01
-5.226250366643897527e-01,-4.693926485865466125e-01,-4.975558730026706789e-01,2.033462848978256909e-02,-3.604076320244530007e-02,-5.207212012798798778e-02,1.240946277976036072e-01
-8.058080877068340975e-01,-5.673534533363233656e-01,-7.536841753442728997e-01,-9.279309573069259923e-03,-8.743844416833652933e-02,-1.845551837949107044e-01,4.153611958026885986e-01
-4.992884118121396764e-01,-4.732895195952470102e-01,-3.342952216880481497e-01,-1.822952234579354111e-02,-7.835612004983096013e-03,3.055816912197204319e-02,1.661071926355361938e-01
-4.369422804588475318e-01,-4.279985861996513652e-01,-4.371196938038881541e-01,-2.806910530429397913e-04,6.372875347283395685e-04,1.858591956279433122e-05,9.113927371799945831e-03
-4.379354308029479448e-01,-4.304227440484901246e-01,-4.408539924607821625e-01,-2.645899099691988664e-04,2.919389876421129995e-04,-6.510704729143544991e-04,9.413930587470531464e-03
-4.364388538408973672e-01,-4.286075197949679727e-01,-4.412038201106758817e-01,-5.714009488268170399e-04,1.347264978301891463e-03,-1.255401638982909021e-04,1.130587793886661530e-02
-4.122762460606605450e-01,-4.343684482012304948e-01,-4.120131854839740870e-01,-1.531629636660768656e-03,3.852722137110009375e-03,-2.737222780464784039e-03,2.383257076144218445e-02
-4.369937697003286603e-01,-4.224975623494438559e-01,-4.397946197618779474e-01,-3.039550523833099965e-03,5.091476493819515822e-03,-1.825319504664242413e-03,1.934083364903926849e-02
-4.227059908660087961e-01,-4.305904416591954109e-01,-4.237682590855693099e-01,-2.956826044882459800e-03,2.989981250866329075e-03,-8.592512060478242055e-04,1.049671042710542679e-02
-4.366546377692957503e-01,-4.281289431976775250e-01,-4.412100314533230483e-01,-9.093634390197908451e-04,2.170211429660448728e-03,-5.261329603494424492e-04,1.223591808229684830e-02
-4.410252518374387365e-01,-4.288990357529306463e-01,-4.359020085098067043e-01,-1.006501941301174733e-03,1.375124398807217260e-04,-1.906577018024256361e-04,1.069448888301849365e-02
-4.560206966302729481e-01,-4.378799350208446017e-01,-4.419824818424431534e-01,4.921695493023871097e-03,-6.590887144837400020e-03,-7.290062759615573498e-03,2.517773769795894623e-02
-2.790116581096265813e-01,-3.830283475608606270e-01,-3.545711820967608618e-01,6.431303814242834982e-02,-1.109466867487728936e-01,-5.981789403338785838e-02,2.621827721595764160e-01
-4.115646927307315961e-01,-4.398871783447544370e-01,-3.937703781560835670e-01,-1.141373830087906958e-02,-2.155195766176148595e-02,1.568914703539824387e-02,6.438563019037246704e-02
-4.278774038255989676e-01,-4.507569156950142486e-01,-4.316821662495254897e-01,-2.192111972704801964e-04,-2.748236086298918137e-04,5.661617090187612126e-05,2.124329470098018646e-02
-4.176259796447127082e-01,-4.418157231392803030e-01,-4.198093901534422079e-01,-4.830826881936861952e-03,-8.454920993465956519e-03,4.841624571574395554e-03,2.986446954309940338e-02
-4.278501804997770774e-01,-4.640976167659863205e-01,-4.379767884348526041e-01,1.505200183765011829e-03,-1.253031461347201524e-02,1.638083491760825884e-03,3.918206691741943359e-02
-4.378885910051765196e-01,-4.700430167758462563e-01,-5.346698787593000546e-01,7.569617124116810591e-02,-3.131098744504224457e-02,-3.150611958880208258e-02,1.743483543395996094e-01
-6.634804217330748655e-01,-7.552902060825077424e-01,-5.399361918238051450e-01,-6.479445789225594943e-02,-1.718045388150209740e-01,-1.815973936687351881e-02,3.703639805316925049e-01
-4.798108596015224769e-01,-4.703141999018356501e-01,-2.892949547212776418e-01,-1.646688218257116171e-02,-2.883545462085196354e-02,4.791949152202217704e-02,2.115986496210098267e-01
-4.922282290043396014e-01,-6.098064095223053593e-01,-2.987979236553358064e-01,9.535552604359657028e-03,-7.708237084397162597e-02,-4.700060097302881379e-02,3.141784965991973877e-01
-4.601836751639298284e-01,-4.337264572886225800e-01,-4.143972635742650401e-01,-1.753767245237733592e-03,-2.396284632198341247e-03,-8.411239457933067376e-03,4.270479083061218262e-02
-4.458431627011531506e-01,-4.780479412899325542e-01,-4.714807707814994697e-01,1.896989374050166502e-02,-3.309589438269899125e-02,-4.892949953414613140e-02,1.114300414919853210e-01
-2.840615534663766262e-01,-3.940654328353967450e-01,-4.301514910194295105e-01,7.668752425325330024e-02,-4.970958668859267598e-02,-3.414576929250508902e-02,2.143047451972961426e-01
-4.331483462024562914e-01,-4.292996752645287795e-01,-4.493307356354634963e-01,3.667528683787962400e-05,2.616131297048085837e-04,-8.595871365538572872e-04,1.847670786082744598e-02
-3.675495734712390661e-01,-5.017428095057041570e-01,-5.158848617621282218e-01,3.987162287419049322e-02,-1.145306707244031150e-02,-6.429180961829521895e-03,1.593497693538665771e-01
-4.409267934152761859e-01,-4.825421044409522464e-01,-4.732435361349641711e-01,8.975256920510878492e-03,-2.152689607929209742e-02,-1.238177835709556099e-02,5.935610830783843994e-02
-4.138495767274927850e-01,-4.523217385416304914e-01,-4.319226547103491298e-01,6.142411068945686798e-04,-7.170074011660803638e-03,2.538014505555188970e-04,3.559477627277374268e-02
-3.422734962956679450e-01,-4.804813073756195041e-01,-4.726695506499253296e-01,-3.188604876500002617e-03,5.013055032957485467e-03,-4.035748906339803148e-03,1.350464075803756714e-01
-3.578721872809603743e-01,-4.619885941911571758e-01,-4.621809094393420914e-01,5.582178253818605163e-03,-8.044710147358274943e-03,-6.024670484252791711e-03,1.060981154441833496e-01
-3.608574156304233949e-01,-4.535004942151750207e-01,-4.609116470682007582e-01,1.269359973379082310e-02,-1.013483606390955596e-02,-5.090480777420217269e-03,1.009629815816879272e-01
-3.970221118670193006e-01,-4.492654916348763905e-01,-4.442921576089311486e-01,4.828024329564632733e-03,-9.393845030095658230e-03,-6.605669011212517670e-03,5.440448597073554993e-02
-4.163385323995728582e-01,-4.561546876319266808e-01,-4.346770197981397188e-01,1.175092624146397303e-03,-6.202323371033030726e-03,1.286232951305433083e-03,3.627630695700645447e-02
-3.940056317088163063e-01,-4.555188155156632002e-01,-4.483459292365889470e-01,-2.798161441336655553e-03,-1.054589143815256799e-02,2.729524880056390709e-04,6.124912202358245850e-02
-4.335368645090518780e-01,-4.277568345084884482e-01,-4.473237178871597997e-01,-1.537253717852392473e-03,-3.625089328102777762e-03,1.533769230858587386e-03,1.888769678771495819e-02
-4.433762923601483052e-01,-3.988707342828686775e-01,-4.406636425365883514e-01,-9.851655952832652149e-03,-1.024530791600328748e-02,6.134890034456825895e-03,5.085617303848266602e-02
-4.363212855943988111e-01,-4.313834424641709853e-01,-4.495161737974338045e-01,-6.616753973250383454e-03,-5.112448091925176144e-03,3.985531310193321172e-03,2.282653562724590302e-02
-4.261511651435618275e-01,-4.310566364236358972e-01,-4.297802698674935140e-01,-3.161056678275172335e-03,-2.314279076605227185e-03,3.680901546963362934e-03,1.030161138623952866e-02
-4.197108107679902722e-01,-4.246032867173332170e-01,-4.369104315046041243e-01,-6.398400199506304974e-03,-5.382526998149118370e-03,4.624956676079426329e-03,2.257251739501953125e-02
-5.275356622282026953e-01,-3.475565656888908728e-01,-4.939692659224340643e-01,1.243136873288423760e-02,-3.577562732626640620e-03,6.855352627511179797e-02,2.051309347152709961e-01
-5.588072295053350125e-01,-3.029099988229896345e-01,-4.555826004003615814e-01,7.815478432461750447e-02,1.974899094154355592e-02,1.254908924239906964e-01,3.412657082080841064e-01
-4.177079190780749185e-01,-4.316977725885245420e-01,-4.492948730024483583e-01,-1.417776199312291256e-02,1.147019294421488048e-02,-9.795448365851716979e-03,4.513457790017127991e-02
-4.183555861453369662e-01,-4.248958502816833072e-01,-4.453145296474683712e-01,-9.501481542338752889e-03,6.935236080560844459e-03,-5.034781029786293549e-03,3.293045982718467712e-02
-4.206747193769242998e-01,-4.262181138582421536e-01,-4.437600272401355239e-01,2.830072645771597537e-03,-1.882946168561682116e-03,-3.048442753803409615e-03,2.232113480567932129e-02
-4.230778705799673745e-01,-4.233908234763625322e-01,-4.747343362119085808e-01,4.280555434216501420e-02,-6.532649324562881527e-03,-1.636970437634055042e-03,9.102381020784378052e-02
-4.602404977367793304e-01,-4.348734651447789257e-01,-4.564753578075826379e-01,-1.280036850446180687e-02,7.399368985835351638e-03,-1.104073460284967986e-02,3.979504853487014771e-02
-4.481817612410624041e-01,-4.440238449571355384e-01,-3.998493579475559945e-01,5.872845494470410599e-03,-9.331741203247983715e-03,-1.631784980403254079e-02,5.758367106318473816e-02
-4.384951914567779552e-01,-4.311431525288878519e-01,-4.427926158719507344e-01,1.602555854808764653e-03,-3.051458956465361722e-03,-1.391925446321490420e-03,1.206508558243513107e-02
-4.297450808096553443e-01,-4.191259757580049206e-01,-4.430108628398294335e-01,2.719679452646589935e-03,-5.347077678645791900e-03,-2.505826822254616452e-03,2.358851954340934753e-02
-4.360537899592120681e-01,-4.427689910149645858e-01,-4.263019821788765484e-01,1.945792213282752795e-03,-9.706400412317176289e-04,-1.078353250275197045e-03,1.494490914046764374e-02
-4.355138287716522338e-01,-4.353857495182860138e-01,-4.304325609830988997e-01,2.901576763969397404e-04,-1.075964633868018187e-03,-7.345371591329080815e-04,5.525322631001472473e-03
-4.354187558575128847e-01,-4.234282761569173048e-01,-4.181013072710096923e-01,7.890933220395079939e-03,-8.294028150747576045e-03,-1.245668224655224060e-02,3.308626636862754822e-02
-3.908171283738475221e-01,-4.776175569914865027e-01,-3.382505135445299516e-01,2.198869050764775193e-02,-1.200583327634737740e-01,-3.256190945124470132e-02,2.504670023918151855e-01
-4.262587802211157961e-01,-1.843412700159169082e-01,-4.221972340702863091e-01,-2.582171782104993735e-02,-1.024336413258550293e-02,-7.419901109822928109e-03,2.450270354747772217e-01
-4.571786062517093074e-01,-3.961028022220021705e-01,-4.432559916303095426e-01,-1.000488250973674114e-04,3.825008846841093093e-04,-1.206926870991667684e-02,5.925562232732772827e-02
-4.653379406911943850e-01,-3.625869624709158745e-01,-4.724071772855826801e-01,-1.162388668807973202e-02,-2.900690975451290093e-03,-2.231857449376068760e-03,1.085340455174446106e-01
-4.584312467633884780e-01,-3.869130888884081965e-01,-4.650591009316378810e-01,-1.768138539950288302e-03,1.992541982773684064e-03,-3.226052654620414385e-03,7.540092617273330688e-02
-4.374277050925457488e-01,-3.048191161058385057e-01,-4.433898481208728426e-01,-4.803900654184488535e-03,-2.112477563618776408e-03,-2.171394405042482729e-03,1.360440403223037720e-01
-4.535343178204077619e-01,-4.193990120776025510e-01,-4.128260428050749553e-01,-3.033538663221916742e-03,3.122824750831450138e-04,1.760581902460654161e-03,3.834047541022300720e-02
-4.466691199889113451e-01,-4.067525301696236495e-01,-4.064278103906956985e-01,1.130379256454482664e-04,2.641939149409852487e-04,2.134687186355438914e-04,4.008473083376884460e-02
-4.517753917187480872e-01,-4.035220739855772676e-01,-4.114021072221426545e-01,-1.135488614913402567e-03,-1.307736096522403666e-03,3.780823161354787600e-03,4.541059583425521851e-02
-4.371886616853463692e-01,-4.327685114527516363e-01,-4.500536416358934533e-01,-4.567033814024529931e-03,2.241798059957660072e-03,-3.058984281774983823e-03,1.864492148160934448e-02
-4.670273443349638454e-01,-4.309447732422621025e-01,-4.292275154874772292e-01,-1.776998011206110464e-02,-1.474460498784504157e-02,2.877646008231758701e-02,7.382848113775253296e-02
-4.245684759662923247e-01,-4.185739961104363305e-01,-4.047347711838753526e-01,-1.055087609455713886e-02,-1.172217606303625412e-02,1.526034350442904454e-02,4.189561307430267334e-02
-4.532153619436076752e-01,-4.292449595723580869e-01,-4.080223974905663464e-01,-1.651319333055306475e-03,1.190728321856123839e-03,-8.055370448571668590e-03,4.172279685735702515e-02
-4.245477845030214969e-01,-4.632808037044602867e-01,-4.343762787436163952e-01,8.448849718651882390e-03,-1.251644146218062852e-02,-1.180556391631548512e-02,4.814982786774635315e-02
-4.470042467569929623e-01,-4.518739942181550506e-01,-4.213859388029186359e-01,5.899033643767701181e-03,-3.285882273817481661e-03,-2.299310405995202457e-03,3.094211034476757050e-02
-4.591010319340673718e-01,-4.399595805723842679e-01,-4.266436316129045836e-01,9.323613851610661890e-03,-5.737788835791200748e-03,-1.341044410560241970e-02,4.120281711220741272e-02
-4.576249694872066565e-01,-4.381069093219862598e-01,-4.281875040253657061e-01,-1.452732374239988807e-03,6.960465039825646351e-04,-2.880670126457960962e-03,2.656381577253341675e-02
-4.399997798904836110e-01,-4.389533772028300640e-01,-4.323631818348916966e-01,6.526163656394010949e-03,-4.833968374322849745e-03,-3.148871322940583264e-03,1.670455001294612885e-02
-4.355848645054011259e-01,-4.426195003931937544e-01,-4.264594163088334389e-01,1.838150983018383691e-03,-6.595971311562325154e-04,-1.141360286182412521e-03,1.457064971327781677e-02
-4.338528057019774287e-01,-4.449026181658488066e-01,-4.290029775832144288e-01,1.500057114737866730e-03,-3.051597759098555792e-03,-3.125205252652910569e-03,1.622334308922290802e-02
-4.389351372172236587e-01,-4.391268611458143400e-01,-4.308195594363096181e-01,3.657117572967365920e-03,-4.969336183197405575e-03,-5.196408275560767363e-03,1.620708778500556946e-02
-4.355642578461562664e-01,-4.378979398469847739e-01,-4.276382438772143302e-01,4.402084909325283376e-04,-8.153884854593385339e-05,-1.283745450736176012e-03,9.607802145183086395e-03
-4.337485410720899326e-01,-4.379058349820212914e-01,-4.291445376044269455e-01,1.130620281434695359e-03,-1.499110955685113407e-03,-2.836153759169646096e-03,9.608764201402664185e-03
-4.310179984146265131e-01,-4.317868254189128896e-01,-4.184929433189071846e-01,-5.598622052881962845e-03,-2.643640382877043057e-03,3.946619603138068304e-03,1.813354156911373138e-02
-4.364129253115119900e-01,-4.182251176141732474e-01,-4.308867884664724368e-01,-1.582354311919329784e-03,-5.727526054517388145e-03,2.740309851336464667e-03,1.973016187548637390e-02
-4.424633504152728491e-01,-4.348006318189309161e-01,-4.289386875169984292e-01,-2.580254005343371286e-03,-1.332436547409192188e-03,-5.820238385425847418e-04,1.281848736107349396e-02
-4.404859393474053753e-01,-4.215225146898205488e-01,-4.218085962958154078e-01,-1.215581945550775348e-03,-2.013715057255650864e-03,1.044745180405176393e-03,1.934271864593029022e-02
-4.368078722002406988e-01,-4.254597472579791928e-01,-4.218647857687725655e-01,-1.180305275582852961e-03,-2.170813668179322209e-04,-7.772903571509561958e-04,1.373437419533729553e-02
-4.497428480386557736e-01,-4.282030282531756327e-01,-4.215099459516197244e-01,-2.786435451004523958e-03,-8.342969486670135390e-04,1.035626270721974563e-03,2.610607817769050598e-02
-4.302096915331796168e-01,-4.245159384972392869e-01,-4.325625822728807468e-01,-5.237391531291562922e-03,-4.764361714904012668e-03,6.891387884733561273e-03,1.855299435555934906e-02
-4.436700108249596597e-01,-4.169894330074022659e-01,-4.158003211583212733e-01,2.027612842640691307e-05,-8.794264287434229183e-04,-4.175985303495625338e-04,2.734662592411041260e-02
-4.483651793850233491e-01,-4.176381303532035738e-01,-4.128738768272258719e-01,-2.411819462813467180e-03,-5.803129008655407307e-04,2.080380826057168578e-03,3.383320942521095276e-02
-4.269125323591417276e-01,-4.383268531006115354e-01,-4.369513087021356657e-01,-1.465300494668075925e-03,-5.399293177912561741e-04,1.543415945897746219e-03,1.144291181117296219e-02
-4.451308455989354540e-01,-3.641607353877048259e-01,-4.624525016678840417e-01,1.613774697799535496e-03,7.951271792931315432e-03,-3.357702735968454838e-02,1.088047176599502563e-01
-4.358657928420142103e-01,-3.970077830821372999e-01,-4.118742855981639139e-01,5.672054215218132536e-03,-4.692975502214935708e-03,-1.161575701115043907e-02,4.148061200976371765e-02
-4.241535511128763369e-01,-3.886448433499299915e-01,-4.592215420006311999e-01,2.348113603323135831e-02,-1.446263605143502558e-02,-1.299623358702270762e-02,8.077222853899002075e-02
-4.503794735549775941e-01,-4.323233343987293309e-01,-4.299582808607234630e-01,1.965770291776771077e-03,-2.040688268324234497e-03,-1.132808345376132547e-03,2.005634829401969910e-02
-4.257524029512804731e-01,-3.630311146566301828e-01,-4.191577451283772793e-01,2.563705992915891671e-02,-1.219815797525494218e-02,-2.456111881742485334e-02,8.827078342437744141e-02
-4.443726582269708625e-01,-4.075509409910271219e-01,-4.522415150386167038e-01,1.155601746478612454e-02,-1.090590656262741681e-02,-1.208212278791766757e-02,5.387835204601287842e-02
-4.054344013234336130e-01,-3.423146302105687377e-01,-4.641428226872166274e-01,5.240588028530186043e-02,-6.454260668247713967e-03,-1.080329066729818210e-02,1.408924460411071777e-01
-4.000411913413858822e-01,-2.006744623195854949e-01,-4.241867148334250159e-01,7.157626204606863662e-02,-1.357851278503420522e-02,-4.412629434760777930e-02,2.586656510829925537e-01
-4.287167089115340723e-01,-4.313486797320805755e-01,-4.541803227126472442e-01,-4.056211532156775781e-03,1.342546596926287930e-03,-2.738277127445022316e-03,2.579852193593978882e-02
-5.260421166388263847e-01,-5.248580157905419208e-01,-4.662090245308685987e-01,-1.461427005957374736e-01,6.455273560500850161e-02,-9.339456296385655054e-02,3.259638249874114990e-01
-3.607303360814929083e-01,-4.288425024636826621e-01,-4.080713422721032324e-01,-1.284188489179127583e-02,2.797748109686728005e-02,-1.222015398257131000e-02,8.334804326295852661e-02
-5.098808700414643180e-01,-4.158181484838649467e-01,-4.914337272403128121e-01,-3.326875091769048581e-02,8.580491278199799121e-04,-2.355340190032306422e-02,1.115339845418930054e-01
-4.642576454530883412e-01,-4.153481056144871508e-01,-4.734543784877670025e-01,-2.599100885618300591e-02,-1.971383863455320861e-03,-1.880747915923378435e-02,7.762700319290161133e-02
-4.818134526511292370e-01,-4.597719613728851740e-01,-4.965851686250761787e-01,-5.779580750002177858e-02,1.566419734413164455e-02,-3.378566121154848861e-02,1.233337000012397766e-01
-4.468232776813688689e-01,-4.153910295561233368e-01,-4.432252408170671565e-01,-1.490481983702019418e-02,7.059293284232475568e-03,-1.336294135045240118e-02,4.732339829206466675e-02
-4.752446678940237534e-01,-3.940660742665865746e-01,-4.415655913826487811e-01,-2.213126671156582029e-02,1.620442043659700224e-02,-3.534544633971747896e-02,1.048582568764686584e-01
-4.333647284429696933e-01,-4.370360277580064845e-01,-4.327055034222943020e-01,-1.935983718790252261e-04,-7.938832516625647043e-04,-2.568557055723955790e-03,6.174858659505844116e-03
-4.072791021225876662e-01,-4.093463284390476131e-01,-4.317727006832921544e-01,1.272415881164515490e-02,-3.813524097557801674e-03,-5.024611064726650263e-03,3.403906151652336121e-02
-4.373693932730381984e-01,-4.406803614167095762e-01,-4.298653507283742292e-01,2.448529035631493486e-03,-1.922497138820420445e-03,-1.472431464269593430e-03,1.130030304193496704e-02
-4.279752364745211257e-01,-4.351961657972158726e-01,-4.229730549848276788e-01,4.729930562167603512e-03,-4.533744439781098833e-03,-3.613764689422097314e-03,1.677030697464942932e-02
-4.380910064819240612e-01,-4.400306237616666283e-01,-4.269680000491579697e-01,3.384877833725147191e-03,-9.419886241656623459e-04,-2.663546814729032862e-04,1.364935189485549927e-02
-4.323586063358729192e-01,-4.335713189200441353e-01,-4.196105341713807224e-01,5.361704768903182566e-03,-2.970562663071193380e-03,-2.568084197633222713e-03,1.766197383403778076e-02
-4.318285290112143793e-01,-4.393488557217951618e-01,-4.263112625874308503e-01,1.126306996052072514e-03,-1.737544036259156205e-03,-2.721422364620889288e-03,1.278939004987478256e-02
-4.293551483432765381e-01,-4.444149865460226834e-01,-4.546974362218097476e-01,8.258208746691116445e-03,-8.054439425936300162e-03,-8.436194354009857177e-03,3.316780924797058105e-02
-4.384425129594908821e-01,-4.262062566164058208e-01,-4.371400955615983852e-01,6.933613075759538329e-03,-5.233631940855206985e-03,-3.921760986221272012e-03,2.019960060715675354e-02
-4.478037035327895321e-01,-4.207960445057503662e-01,-4.426865756457178391e-01,-3.096507309727637280e-03,6.870744017636201337e-03,-3.360599180451220944e-03,2.866468764841556549e-02
-4.533906366755043882e-01,-3.261878730713190788e-01,-4.349385089647851976e-01,8.818168003274204358e-02,8.609739363847314364e-02,1.174050080606911101e-01,3.179496526718139648e-01
-3.968114141631995939e-01,-2.010063708435091412e-01,-2.932099361928104386e-01,6.803128281077168438e-02,4.565088142515463798e-02,1.480680788197874798e-01,3.386686146259307861e-01
-4.375459549267368131e-01,-4.331189912169769451e-01,-4.478601543242863303e-01,-3.080753744377719931e-03,3.837826104858588303e-03,-2.828067336524577383e-03,1.637971401214599609e-02
-4.515440912009026642e-01,-4.504769703640486012e-01,-3.952749427398241644e-01,-1.247662263462907643e-02,-1.508467268332864056e-02,4.089507931724382581e-03,6.562867015600204468e-02
-5.510978539175428459e-01,-2.691722458768599502e-01,-5.136412986054107455e-01,1.048881464939597080e-01,1.597960793983483826e-02,9.537918198296574390e-02,3.624738156795501709e-01
-4.408677891023721762e-01,-3.355909537597416281e-01,-4.256305044844514440e-01,2.431725079621824617e-02,8.200939198689017468e-03,2.830796335708631734e-02,1.187056377530097961e-01
-4.516309327132949081e-01,-2.744206796195386433e-01,-4.064384883618253341e-01,5.647510143609840716e-02,2.153654001667668072e-02,5.866725417976546841e-02,2.161540836095809937e-01
-4.793526500148595493e-01,-3.929329854198085337e-01,-4.419118697561949527e-01,5.705902182223831359e-02,4.416822722547820296e-02,8.523000728375521029e-02,2.074770033359527588e-01
-4.414253992690445605e-01,-4.260855238083349761e-01,-4.288079839899813228e-01,-4.307176848443234306e-03,6.752737397532768832e-03,-4.206626256283018013e-03,2.113059908151626587e-02
-4.585336559953027691e-01,-4.142031415273509931e-01,-4.460507731645628748e-01,-5.890688848196284737e-03,1.815262967710906412e-03,-3.670513371710232287e-03,4.149757325649261475e-02
-4.550353836776666050e-01,-4.564078818825685335e-01,-3.731795460902925798e-01,-4.512469722170540237e-03,-1.251922698197723742e-03,1.184896851203652568e-02,8.544935286045074463e-02
-4.721568650675956880e-01,-4.454779439897112447e-01,-4.329445576364298054e-01,-7.677366379754173124e-03,2.375588274927648447e-03,-1.593556894063175716e-02,4.646300524473190308e-02
-4.565461583942218571e-01,-4.121295235275287960e-01,-4.489632281670439262e-01,-1.327236985227575172e-03,2.787315372123099107e-03,-8.882800627413083017e-03,4.425872117280960083e-02
-4.559490760441972657e-01,-4.312225522280521139e-01,-4.526322709642496833e-01,-9.413938617170726150e-03,6.292519121149812295e-03,-1.440544433469293298e-02,3.933946788311004639e-02
-4.463755212031285668e-01,-4.369591590093573341e-01,-4.208481088717484497e-01,5.569137009557506741e-03,-3.581980443562978681e-03,-5.659621109499433922e-03,2.697355858981609344e-02
-4.430695797090822285e-01,-4.169506747208639452e-01,-3.523042563030348018e-01,2.194089140874158975e-02,-8.180680410346578835e-02,-9.089699603855955212e-02,2.299084812402725220e-01
-4.387348745760472069e-01,-4.496014058876061648e-01,-4.086392086973328341e-01,-6.121495447276426201e-03,-4.235537516906140443e-03,1.463581644278109202e-03,3.903241828083992004e-02
-4.348498290130222710e-01,-4.290599568514746887e-01,-4.249968521325909188e-01,5.005087198777865773e-03,-4.111613940846241266e-03,-5.919362991580150515e-03,1.745112240314483643e-02
-4.351554967717646272e-01,-4.448309543763901974e-01,-4.376598303571394011e-01,4.462713788977521433e-03,-4.996190488358392967e-03,-5.576224599297100945e-03,1.742330752313137054e-02
-4.330463375807229176e-01,-4.378917888356786414e-01,-3.947087842314981332e-01,6.881280066376491145e-03,-1.082455756768013234e-02,-3.991239626532142731e-03,4.712078347802162170e-02
-4.406624020583103096e-01,-4.320573537485930538e-01,-4.318430208692349281e-01,1.284554266593662545e-03,-4.314920843484003864e-03,-9.370386642219087668e-04,1.180580910295248032e-02
-4.474677908957566674e-01,-4.343392774938676926e-01,-4.296124203211340586e-01,2.873905489849502707e-04,-5.957683130829700231e-04,-2.544825368396182175e-04,1.607061177492141724e-02
-4.420789214692403268e-01,-4.339648798884890302e-01,-4.289239968391183044e-01,-1.106128085637893862e-04,-1.793109289280451135e-03,-4.496644520178059534e-04,1.193478610366582870e-02
-4.452233209126228997e-01,-4.346221090660165043e-01,-4.301975196333956974e-01,3.241338486174506653e-04,-1.195523175636050827e-03,-9.672764412163239881e-04,1.364839076995849609e-02
-4.335698984983376580e-01,-4.180083641619327106e-01,-4.552477146043881762e-01,1.044094744437013347e-02,-1.450798899967917785e-03,-7.989008154702242903e-03,3.967690095305442810e-02
-4.544157030104037931e-01,-4.301396447673964119e-01,-4.421694706374271755e-01,2.457741849424657440e-02,-1.587019977663441453e-02,-2.108293989015507658e-02,6.590308248996734619e-02
-4.498749512291624342e-01,-4.379811465517056690e-01,-4.280902737378958212e-01,2.911690393507030111e-03,-6.536420625619602381e-04,-1.150446218218896142e-03,1.968802139163017273e-02
-4.521124845190972463e-01,-4.413985877615243525e-01,-3.775512865005106189e-01,-9.414518946480531295e-03,-3.596806993285110721e-02,3.943966997314257011e-02,1.169990897178649902e-01
-3.910902445247649295e-01,-6.073074963810136673e-01,-5.565681639604246334e-01,-3.854523867590944203e-02,-1.025411412040506398e-01,2.218486579883973200e-02,2.753750681877136230e-01
-4.011205695583993647e-01,-4.728733052891335165e-01,-4.551105880569935591e-01,-1.901488124052330263e-03,-1.181452606980745029e-02,-5.483673069493394218e-03,6.862400472164154053e-02
-4.128982823081230324e-01,-4.499586320149990271e-01,-4.340522644779115646e-01,-1.931155976769739031e-03,-5.927533171876124898e-03,4.616791505990196220e-03,3.489306196570396423e-02
-2.896284889347341962e-01,-4.474447212025474130e-01,-4.653060527406414626e-01,3.629178869712304523e-02,1.356379198713109947e-02,-4.264316759978660498e-03,1.805590242147445679e-01
-3.615260075522714889e-01,-4.419159474468886128e-01,-4.502722233197379853e-01,6.939802332307071740e-03,7.947780067093661999e-03,6.462605697395103210e-03,8.754090964794158936e-02
-3.648484808263954826e-01,-4.350983448946688092e-01,-4.256406114192728962e-01,5.347828603181491516e-03,1.198975703482702687e-02,1.070420787962023806e-02,7.225571572780609131e-02
-3.435791077659411386e-01,-4.622017446018637510e-01,-4.620966847624410900e-01,5.030722722278071178e-03,1.392695882138061600e-02,1.731603839229986031e-03,1.213494092226028442e-01
-3.592711761918835345e-01,-4.762516241262479966e-01,-4.542865694538575361e-01,1.045823409270621712e-03,8.613373237386888481e-03,3.166949056421637068e-04,1.087361946702003479e-01
-3.672079369132534854e-01,-4.734927776160799406e-01,-4.401332336504319431e-01,-2.777671670205649119e-04,1.706489338220970597e-02,-8.459246967895576530e-04,9.869003295898437500e-02
-4.386252139134970696e-01,-4.065200096753243675e-01,-3.980417169600156124e-01,2.147509857285610432e-02,3.489111573562614366e-02,3.990827583067965006e-02,1.057759150862693787e-01
-4.494838726747514279e-01,-3.970384647220803753e-01,-4.170017195925886377e-01,-7.918368149441312037e-03,-4.089354253568202799e-03,2.474542237390839339e-02,6.463241577148437500e-02
-4.659925172202342702e-01,-4.292627716364704749e-01,-4.044004254104527352e-01,5.005621437596799103e-03,6.523494173583281770e-03,2.130068284780739160e-02,6.666627526283264160e-02
-4.803252969263414052e-01,-4.245360927821843489e-01,-4.317455740487926019e-01,-9.113830049582889725e-03,-7.538189427222005863e-03,3.351827780409747520e-02,8.094617724418640137e-02
-4.497161430721815512e-01,-3.818968580169607718e-01,-4.370367330135166983e-01,-3.335167192880685808e-03,-9.669260695717791371e-03,8.643573354721711954e-03,6.662058085203170776e-02
-4.529699164680295875e-01,-4.042339630164107911e-01,-4.188498944005526470e-01,9.550775200695941700e-03,7.596855388739482892e-03,1.786068195108077988e-02,5.727388337254524231e-02
-4.559757567545728585e-01,-3.625539093257075796e-01,-4.288828923535519810e-01,1.525785762010231162e-03,-1.927336215827040030e-03,1.692651549639465416e-02,8.836429566144943237e-02
-3.034036333481748282e-01,-5.172903070508297896e-01,-4.560068136330960309e-01,1.175269403946866825e-01,1.093630101070571653e-01,4.233977774318510578e-02,3.450970351696014404e-01
-3.295513678908852939e-01,-4.723135306874346462e-01,-4.352308888803967379e-01,1.288139270211692902e-02,5.957273578514636625e-02,1.645449576158552335e-02,1.685791611671447754e-01
-3.679640947884980084e-01,-5.153531961374862025e-01,-4.599206946953242614e-01,2.895654878799578877e-02,6.707242608482004431e-02,1.484786687811248847e-02,1.824804544448852539e-01
-3.008864184408368558e-01,-4.496330780661682569e-01,-4.546695447291526637e-01,4.033846808481558049e-02,4.440623053368390749e-02,1.953025001670048028e-02,1.866593211889266968e-01
-3.494949683673090890e-01,-4.710754586089689888e-01,-4.899830001690508863e-01,5.159151297676257963e-02,4.640959733856016289e-02,6.263938898247702058e-03,1.788921803236007690e-01
-3.410363561906709085e-01,-4.699404304848582292e-01,-4.665140148948386245e-01,1.928012120110732339e-03,6.329297971411792373e-03,-2.202716097970275084e-03,1.277975291013717651e-01
-3.288160552198934883e-01,-5.434594650127785309e-01,-5.319174901145083956e-01,2.292577638330310294e-02,2.609481559693789532e-02,-1.561672013457047516e-02,2.192688733339309692e-01
-2.844049308672685905e-01,-5.056477183866693315e-01,-6.010920386613421984e-01,5.870654441165921306e-02,3.983507156891930023e-02,2.215029591451775359e-02,3.094287216663360596e-01
-2.449127676826731159e-01,-4.746187094225160497e-01,-4.929274727649122223e-01,5.406389200324031308e-02,3.311353585095894170e-02,-3.291046517836474818e-03,2.634319365024566650e-01
-4.551205466071971406e-01,-4.500432241304507253e-01,-3.467628296037934543e-01,-4.014484399045831556e-03,-1.021268055137949764e-02,2.703296961463719228e-02,1.173481866717338562e-01
-4.512202233227736725e-01,-4.646609752999556475e-01,-4.284152516141105926e-01,1.376571840997817655e-03,-5.455696243049239051e-03,-5.667610631572484424e-03,3.462052345275878906e-02
-4.385141230413646674e-01,-4.280843228381712162e-01,-4.164239011440362126e-01,8.457676017479860350e-03,-1.111671646035043530e-02,-1.249080821755151581e-02,3.767975419759750366e-02
