sxx,syy,szz,sxy,sxz,syz,smises
-1.808659369030521380e-02,-1.808659369030521380e-02,1.861731873806109216e-01,-3.517462773266356577e-86,0.000000000000000000e+00,0.000000000000000000e+00,2.042597830295562744e-01
