sxx,syy,szz,sxy,sxz,syz,smises
3.169253994783513551e-02,3.169253994783513551e-02,5.543844951609487592e-02,1.424831994755562867e-52,7.266643173253463965e-53,7.266643173253058734e-53,2.374590933322906494e-02
