sxx,syy,szz,sxy,sxz,syz,smises
-5.923385764740669857e-02,-6.230390648460090719e-02,-2.980864676939318780e-01,4.121298587756135230e-03,4.731879793732945982e-02,5.420131616168066130e-03,2.513622939586639404e-01
-5.401043012474719685e-02,-6.297853926521307377e-02,-3.785446955662438162e-01,-8.718567091797718688e-06,2.897238923319031155e-04,-3.054349514671935968e-04,3.201452493667602539e-01
-7.158039202481805696e-02,-5.763677226173782864e-02,-3.264394851701182265e-01,8.313146895118846439e-04,2.584964278032845716e-02,-3.682482676138954230e-03,2.659861147403717041e-01
-5.879199440920290787e-02,-7.046015091824830989e-02,-3.721291852075739870e-01,-5.435220397133242246e-03,2.976919405351400108e-02,4.629768260260275214e-02,3.222389519214630127e-01
-6.587285088319150272e-02,-5.894462954297466362e-02,-2.784038071519725488e-01,1.966730517395192529e-03,8.652206385115338017e-02,-1.966662195447475836e-02,2.651791870594024658e-01
-6.356505594456290931e-02,-6.839632140116823356e-02,-2.925889018682920062e-01,1.018191071079542834e-02,8.194668887697170723e-02,-4.555771669244718797e-02,2.793780565261840820e-01
-5.907177565956475696e-02,-4.587420444525108776e-02,-2.941210150144618618e-01,4.866829380490300325e-03,5.703440932747024308e-03,4.259103492369907193e-03,2.423787713050842285e-01
-6.126161817464786941e-02,-4.113394376079945736e-02,-2.847493020922247098e-01,3.948713398145180416e-03,-3.361133000563421578e-04,1.040254825076951731e-02,2.349934279918670654e-01
-6.358932487583995874e-02,-4.384239628228947527e-02,-2.949715629682896356e-01,1.829840100197858586e-03,-1.875136951457838418e-03,4.212533342820022446e-03,2.420136332511901855e-01
-6.624756288721794784e-02,-4.017848313257396664e-02,-2.746810928121226070e-01,4.505596270083268851e-03,7.713268902074989913e-04,1.485715282182826363e-02,2.242380380630493164e-01
-6.545879603070850483e-02,-4.024613377017351168e-02,-2.767409829616001016e-01,5.986152845863766843e-03,-2.656685864670866367e-04,1.575270187522294363e-02,2.268369048833847046e-01
-6.284885322311464795e-02,-4.275099079992127071e-02,-2.770150990350392362e-01,4.349598354391083846e-03,-2.746318322540917674e-04,4.515485184133598631e-03,2.251522541046142578e-01
-6.179984975874922015e-02,-4.177401683286616207e-02,-2.788378345753205756e-01,1.841141272404299553e-03,1.794002609874801105e-03,4.930779325868984292e-03,2.279158830642700195e-01
-5.600247256937870843e-02,-5.377690475443984430e-02,-2.902002748328588178e-01,-3.044730619454473226e-03,-2.681132854365608775e-03,4.761737976910657665e-03,2.355677932500839233e-01
-4.096197343394099299e-02,-7.127596012920767166e-02,-2.758156339874859864e-01,-4.110694092161370355e-03,1.004973293216911839e-02,-1.168815872319471563e-03,2.220666855573654175e-01
-5.407469898148742349e-02,-5.161407975935478065e-02,-2.776746867022406584e-01,-7.465283593474759428e-03,-1.221452537388976849e-02,1.070296865517852622e-02,2.269617617130279541e-01
-5.513267225844377395e-02,-5.107374382041503236e-02,-2.891753356741408876e-01,-6.992252439591675577e-03,-7.736089838172545939e-03,1.550107770986665356e-02,2.383054196834564209e-01
-5.694241128735064161e-02,-5.137361109316930519e-02,-2.839694335415257065e-01,-8.542222560009122764e-03,-1.548805255942923252e-02,7.008862638153715886e-03,2.322121262550354004e-01
-5.616656246350945625e-02,-5.324250170279580530e-02,-2.890528443419905225e-01,-2.956827880365435913e-03,-2.764093321057097593e-03,4.220319353304215898e-03,2.345807403326034546e-01
-5.689686445367103662e-02,-5.451861297790695782e-02,-3.001196392512481270e-01,-3.586197947747635749e-03,-2.732889300948552168e-03,1.048144173229967856e-02,2.452182471752166748e-01
-5.378365664884805775e-02,-5.429717285632658375e-02,-2.907918129911233329e-01,2.041677724336038335e-05,2.030581408791875945e-04,-9.902141303541472928e-04,2.367582917213439941e-01
-5.666102933940325714e-02,-5.455600263955677487e-02,-2.913652122641735565e-01,-6.311385185067927214e-03,-9.623602118693293239e-03,7.858431602975963354e-03,2.369960993528366089e-01
-5.527965511184138037e-02,-5.229046041230238362e-02,-2.870618806280076374e-01,-3.747296405613014317e-03,-1.071494254894702312e-02,3.032311488190040250e-03,2.341771125793457031e-01
-5.545805544492660166e-02,-5.240460274102010096e-02,-2.898315712772262520e-01,-3.824725224149793518e-03,-3.219957250231145988e-03,2.693045149775347320e-03,2.361200153827667236e-01
-5.653677765748435502e-02,-4.477165651391726287e-02,-2.775294247577933526e-01,-1.064955214737700259e-02,-7.680262256770200788e-03,1.888385988737111693e-02,2.305714040994644165e-01
-6.345030991927505526e-02,-5.833775991219405932e-02,-2.953378670935696837e-01,6.576659191362859206e-05,3.075656616347237100e-03,-1.915677412660169289e-04,2.345464080572128296e-01
-5.411216073935340432e-02,-5.080982393396515917e-02,-2.818191846379543009e-01,-3.923879212194411256e-03,-3.232700445539008708e-03,8.966430148183932849e-04,2.295502424240112305e-01
-5.661997355167680546e-02,-4.674206527262778077e-02,-2.745396970349651689e-01,-6.145695668829437644e-03,-7.785607660551839733e-03,6.914986037461391330e-03,2.240039706230163574e-01
-5.825188829662038270e-02,-4.837681632547655153e-02,-2.933985610899536578e-01,-7.421874264755895338e-03,-7.195383096478396960e-03,5.892447106871609094e-03,2.411188483238220215e-01
-4.039685866982001272e-02,-6.468827225242107515e-02,-2.601387621162652986e-01,2.690306227013255364e-03,-2.267442514527658395e-02,-4.189977708824556345e-04,2.123755216598510742e-01
-3.968819573312237781e-02,-6.534295856943185543e-02,-2.246891643055745624e-01,-6.343438042660947979e-04,-4.539006383367708702e-02,-3.027882454578042278e-03,1.906485110521316528e-01
-3.926988856750733559e-02,-6.342455234346808246e-02,-2.881585437814931927e-01,2.042687987073786918e-03,-2.995043374462557154e-02,-1.286281794436342678e-03,2.433634251356124878e-01
-6.700850025103551044e-02,-6.033832147138912250e-02,-2.914485378866199516e-01,8.669188264073497208e-04,6.948580811513822928e-04,2.102297935624591625e-04,2.278567850589752197e-01
-5.223900218550238395e-02,-6.029011459304664533e-02,-2.941036087100020735e-01,9.630263625369138653e-04,1.069330508372366186e-03,9.907501476054511765e-04,2.379604727029800415e-01
-4.239318267037169019e-02,-6.360837245698072739e-02,-2.930502479465205701e-01,1.412657620645422748e-03,-2.423042047868383467e-02,-3.089268379452631257e-03,2.444529980421066284e-01
-3.891206075751879601e-02,-5.993745722420186495e-02,-2.149666438630630227e-01,-5.968236908683494796e-03,-5.229950604224568173e-02,8.246695675726231980e-03,1.904002726078033447e-01
-5.379390756753527070e-02,-6.101172456364867269e-02,-2.890334749556107696e-01,-5.169971541284086548e-04,-1.024793844298932735e-02,2.188417252570131269e-03,2.324264794588088989e-01
-4.797265811984913197e-02,-6.801350212233046866e-02,-2.584745854555238753e-01,-5.760808486764639087e-03,-4.671424765064158269e-02,6.692374969360246652e-03,2.174273431301116943e-01
-6.575143262232496788e-02,-3.659467262460497361e-02,-2.679862104126224387e-01,-1.455308937339253950e-03,2.972158448765459282e-04,-6.972051277787759752e-03,2.186274975538253784e-01
-6.480869350591796085e-02,-3.645017345418702370e-02,-2.757575745911337584e-01,-2.054259316778970796e-03,2.095303166463837634e-04,-3.226458612629301212e-03,2.265609353780746460e-01
-6.036477779980126135e-02,-3.756142887270491615e-02,-2.534489632926323344e-01,-4.438710006643125511e-03,1.498171555035197888e-03,-9.906575005605943590e-03,2.063121944665908813e-01
-6.665372046135020767e-02,-6.294084736251023826e-02,-3.192635691503169504e-01,-5.067365529755962945e-03,2.901234901206677357e-03,-5.503864443227255050e-03,2.548658251762390137e-01
-6.659344045938081491e-02,-7.052098080077663644e-02,-1.201998350845342733e-01,3.033110651822320397e-03,-2.153656313260339517e-02,-1.138447580264215046e-02,6.698073446750640869e-02
-7.038457423723779027e-02,-7.007345699930875305e-02,-3.512207631874957325e-01,-7.789119067199846112e-03,2.349266457278845893e-03,7.556861269140238528e-03,2.816492915153503418e-01
-4.016075612195535438e-02,-5.540566902657398374e-02,-2.858900871311040870e-01,-1.367469426105758813e-03,-8.809942053391077660e-04,3.283069985148314709e-04,2.384899407625198364e-01
-6.654490101987974027e-02,-6.702912846194108987e-02,-4.400996049274246147e-01,6.268639364298083348e-03,3.165002196737834450e-02,5.002062326707762234e-03,3.775719702243804932e-01
-5.721496661695459063e-02,-5.705218876284823271e-02,-3.253299645162637810e-01,-2.322658065491461010e-05,2.919431111072529755e-02,2.871849121627392115e-02,2.774175703525543213e-01
-6.420946410378970681e-02,-5.115405217409503547e-02,-3.036076557526199982e-01,9.035636291274695437e-04,-1.255021038402247789e-03,1.592668398865072776e-02,2.477408498525619507e-01
-6.079053172853324249e-02,-4.225688471315131034e-02,-2.780530523405292942e-01,-9.452391351514520491e-04,2.437357765174463092e-03,8.335246294217963509e-03,2.276007384061813354e-01
-6.210272718643139456e-02,-4.010712332988994322e-02,-2.845510958987794159e-01,-3.848801083228887542e-03,-7.262283366458521100e-03,2.567553346445393750e-02,2.388311773538589478e-01
-6.479268662377740684e-02,-5.791769361025415896e-02,-2.976327290183198304e-01,-1.465970095412235004e-03,-3.450127966899422713e-04,7.197081723116458343e-03,2.366954237222671509e-01
-6.507678738302442867e-02,-5.426561475127708589e-02,-3.036034044784083341e-01,-2.253184800917027667e-03,5.395467959272885148e-05,2.972914919122879480e-03,2.441973239183425903e-01
-6.245237999802295825e-02,-4.608862750087394655e-02,-2.884433797331037441e-01,-2.607597056743734838e-03,-1.356579543674779360e-03,1.048419648358036964e-02,2.353581041097640991e-01
-6.493505958050346805e-02,-4.078398285788925604e-02,-2.789566635139437145e-01,-8.895505064531010475e-04,6.287592341505648247e-04,9.486304314005832711e-03,2.276640087366104126e-01
-5.088843753626864919e-02,-4.530177941781686479e-02,-2.403532151063753897e-01,-9.228536548866534545e-03,-1.359347233045197188e-02,7.365087817933098184e-03,1.948311179876327515e-01
-6.611516472626596808e-02,-4.446997306772962344e-02,-2.497956944462152717e-01,-6.854002686117138463e-03,-1.161588735310288209e-02,1.493867823706120611e-02,1.984894573688507080e-01
-6.983795560246361389e-02,-5.243896001964332143e-02,-2.691701137796772558e-01,-9.503099709047831828e-03,-1.208280376210068077e-02,3.395865548725007788e-02,2.183407694101333618e-01
-5.264435026111048688e-02,-3.818397662395590919e-02,-1.741937666765315251e-01,-7.421588247017205098e-03,-1.584970476050037713e-02,5.696871915306686573e-02,1.655179709196090698e-01
-5.839878594519418153e-02,-6.587439733438721357e-02,-2.998814208971715689e-01,1.222263852963411182e-03,-5.494395743580841873e-04,-5.818621084686333850e-03,2.380577176809310913e-01
-5.466478818771376702e-02,-5.663976048219922232e-02,-2.578398247787849207e-01,-1.154593339429100217e-02,-1.403212546129749272e-02,2.379075441576274097e-02,2.087375372648239136e-01
-4.622049425497852526e-02,-5.057087691182534511e-02,-1.906420482830059882e-01,-9.506181179408264986e-03,-3.116820874696885416e-02,3.452398683186432005e-02,1.643454134464263916e-01
-4.703175242778809273e-02,-6.176995009985253304e-02,-2.900949730990246556e-01,9.440203695404391498e-03,-1.557017893883141761e-02,-2.845825627008824379e-03,2.381881028413772583e-01
-6.176764641425216973e-02,-4.601009226815368225e-02,-2.959489244744973879e-01,-2.248277626348676832e-03,3.185861589096913513e-03,-1.106801588309338710e-02,2.432949095964431763e-01
-4.846373791841218637e-02,-5.983331438682368275e-02,-2.766625647825269319e-01,9.831807606415535541e-03,-9.298063234070903793e-03,-2.052788850803553746e-03,2.239898294210433960e-01
-4.728825713952621024e-02,-6.121703505554633440e-02,-2.431698009781097236e-01,1.221991112696319340e-02,-2.820786954436676694e-02,-1.425132647062302832e-02,1.981906443834304810e-01
-5.503841487467234228e-02,-5.313085772759196246e-02,-2.854046237317165446e-01,-6.407325279209721489e-03,4.098353276822266390e-03,-8.067489794204907088e-04,2.317049205303192139e-01
-5.178619399935878442e-02,-5.574589666886138606e-02,-2.873101339555288458e-01,8.963944374419597488e-03,-1.170008290448547490e-02,-9.387098368064089593e-03,2.355221509933471680e-01
-4.796405369319753365e-02,-5.317522566865459654e-02,-2.789477008575543815e-01,9.487173943826483768e-03,-9.177610560364075562e-03,-7.180590176342828077e-03,2.299006134271621704e-01
-4.867815814836606858e-02,-5.232814576870357948e-02,-2.609629288444418882e-01,1.036092346495082889e-02,-2.330990139605186931e-02,-2.801845527677892730e-02,2.204779237508773804e-01
-7.075106869012456889e-02,-6.643257026841126178e-02,-3.447947103174789918e-01,3.270220219878253089e-03,1.875627803091044991e-03,-2.714539654925869801e-03,2.763453722000122070e-01
-6.181194323767508214e-02,-6.269841324755159873e-02,-3.092274664264466066e-01,1.006773983196945386e-03,1.043274341655399048e-02,8.641334952306999832e-04,2.476443201303482056e-01
-5.632133814392376037e-02,-4.417857831090003795e-02,-2.863211065765692842e-01,1.221913550018263392e-03,5.878492538540923580e-04,3.929971725155445659e-04,2.363179028034210205e-01
-6.131045712503825629e-02,-6.619334113057540048e-02,-2.989260803540979561e-01,5.829910066748378306e-03,-8.392961132410115205e-05,-6.173112218718646840e-04,2.354313135147094727e-01
-6.299540375286916127e-02,-6.596062343600778144e-02,-2.910565452243140117e-01,7.123787449821607394e-03,-9.925752654175753857e-04,-5.735593383658289151e-04,2.269374579191207886e-01
-6.915206153255051835e-02,-6.566486823610107049e-02,-2.907952071709577480e-01,5.478454178320281941e-03,-3.260005045016270344e-05,5.531441175912232052e-04,2.236106395721435547e-01
-6.932080086892945803e-02,-6.538024244381857031e-02,-2.923749428580521559e-01,5.598411384565750090e-03,-1.820679301386770210e-05,4.076719143986005868e-04,2.252602130174636841e-01
-6.889368996546060830e-02,-6.048400742382122053e-02,-2.912351698140311917e-01,6.570615157901409965e-03,1.065111128367126676e-04,1.523518538476789543e-04,2.269491106271743774e-01
-6.741544322858900040e-02,-6.345860743093384437e-02,-3.043131282962741047e-01,2.550428472052132609e-03,-2.731452624020597880e-03,2.947931165951248825e-03,2.390428930521011353e-01
-6.032559644082365058e-02,-4.720263163256910310e-02,-2.353364084255192556e-01,8.822115200932196394e-03,-1.393212525019285435e-02,-2.822202656566750317e-02,1.905332207679748535e-01
-5.622079159207057225e-02,-3.825659379384863112e-02,-2.523685168440804039e-01,6.809203050100191140e-03,-8.811696868837893062e-03,-1.173366517909261997e-02,2.076182812452316284e-01
-5.867475899620128860e-02,-4.250525748704452045e-02,-2.561615526149357280e-01,8.708960426020744688e-03,-5.619034725574807883e-03,-1.615069409481527038e-02,2.087116241455078125e-01
-6.152279314837633822e-02,-4.030218696774620635e-02,-2.555069139675749668e-01,5.778110554867374633e-03,-1.885866985296559550e-02,-4.085306378940592453e-02,2.199332565069198608e-01
-6.293007880846013258e-02,-4.604991407229305778e-02,-2.637841871548340933e-01,1.075363725618481807e-02,-8.969614028262483385e-03,-1.342304808559160838e-02,2.124772518873214722e-01
-6.488037118107031764e-02,-4.230242700724763660e-02,-2.875596234635182658e-01,5.986957502365082909e-03,1.003086475892659086e-03,-1.272734806665394396e-02,2.360507547855377197e-01
-4.054783918194196368e-02,-6.026122568696823389e-02,-2.845122657602739968e-01,-1.634811473561892728e-03,-1.412086341779680192e-03,6.405803005893908036e-04,2.347618490457534790e-01
-6.197494672947539973e-02,-4.071934300614286906e-02,-2.782539684049868400e-01,6.290499641377638243e-03,-2.342958252555238461e-03,-1.443807827928371076e-02,2.293166220188140869e-01
-5.241433521545733887e-02,-8.353358961313947506e-02,-1.893367453197489780e-01,-1.426090807352162313e-04,4.069612937385783114e-02,-5.637988724955267936e-04,1.429152637720108032e-01
-5.672341837607363518e-02,-6.600571301068917929e-02,-1.595521557501515253e-01,-6.113091277676716007e-03,3.972524040940446366e-02,-3.522866109538119045e-02,1.351850330829620361e-01
-5.670637263401843986e-02,-6.442318604319871578e-02,-2.164324293927306631e-01,-1.368347497445594405e-02,3.134885327422315404e-02,-1.976000847274516151e-02,1.703546941280364990e-01
-5.327907413455076902e-02,-4.873049971175139050e-02,-2.919928955733628873e-01,1.082494190173431507e-03,-5.951077728465066193e-04,2.857041078975410681e-04,2.410303056240081787e-01
-4.058678182009087254e-02,-5.998858414417237994e-02,-2.105853270111857078e-01,-9.718274197312776197e-03,2.597586085913413528e-02,-2.076215259684641157e-02,1.719838082790374756e-01
-4.176390361972916188e-02,-5.953459856895779168e-02,-2.110568407119371992e-01,-1.015927194873784620e-02,2.878162913187755356e-02,-2.060563531213664007e-02,1.733089685440063477e-01
-5.436113416659453523e-02,-6.376822784188249105e-02,-1.476205583984046832e-01,-6.175972450258663746e-03,3.964803407229379462e-02,-2.675440786166325205e-02,1.220091655850410461e-01
-4.282390274817194503e-02,-6.350766284473960410e-02,-1.858864283387888783e-01,-7.379421494163030532e-03,-4.609829069987143868e-02,1.704336792196298883e-02,1.592029780149459839e-01
-3.205052496062753276e-02,-6.105500496295086788e-02,-2.191684237202798369e-01,-3.719077974210905409e-03,-4.312186831295821560e-02,9.013687295379416500e-03,1.905015259981155396e-01
-4.268174728999547807e-02,-6.225304733849669481e-02,-2.894655519326997384e-01,-1.130694933638752217e-02,-1.816981649909126320e-02,1.136058691146125781e-02,2.412810772657394409e-01
-4.698110569160378336e-02,-7.243708491659558990e-02,-2.481931876002718695e-01,-1.068080816752573457e-02,-3.017488302250035878e-02,1.305354294186750023e-02,1.989905834197998047e-01
-3.782169712207682222e-02,-7.069135913884184996e-02,-2.790129834453143332e-01,-5.242686681816588305e-03,-2.410924510621158603e-02,-9.635719645758981933e-04,2.305532097816467285e-01
-5.584617117487356008e-02,-5.344981929165038004e-02,-2.817454862378369618e-01,9.582972208728933808e-03,-8.741307400362160985e-04,-4.059534711589724704e-03,2.278262674808502197e-01
-4.773913558736680995e-02,-5.228592725506379935e-02,-2.842646889898624019e-01,6.880554183345147755e-03,-1.386207531906377645e-03,-5.230748372541210028e-03,2.347753196954727173e-01
-4.676024997506988967e-02,-5.179111388207464917e-02,-2.817255879080103886e-01,6.752466977146113526e-03,-4.562125535376809066e-03,-5.257813830974220060e-03,2.330967634916305542e-01
-4.570066790171450899e-02,-5.820055054378661663e-02,-2.782467110118598819e-01,7.335853299530589386e-03,-8.248107710795184178e-03,2.095114555764926009e-05,2.273601740598678589e-01
-5.879323432288366402e-02,-4.712415391034800727e-02,-2.919768045123119493e-01,-4.386401900116567928e-03,5.826440511753966899e-03,-2.025392661615149636e-02,2.421198338270187378e-01
-4.292841108971505448e-02,-6.061889903385749706e-02,-2.632392812311799002e-01,8.151389089801322832e-03,-2.600367851977766417e-02,-1.305895803228261653e-02,2.183848470449447632e-01
-6.050970020069067895e-02,-5.251889611816974029e-02,-2.270230391370331446e-01,-1.185125416815559045e-02,-2.296942804776237745e-02,1.733104257016189476e-02,1.789590865373611450e-01
-5.654299050158687057e-02,-4.719861340081626944e-02,-2.567256328339379001e-01,-1.011367836244313548e-02,-8.111296492435009914e-03,7.651776403624495695e-03,2.066660970449447632e-01
-6.382473869088298168e-02,-4.009664042490924951e-02,-2.572492326765022375e-01,-8.653412130901920463e-03,-1.167303014130735908e-02,1.613853808474080553e-02,2.097151279449462891e-01
-6.529609025270613487e-02,-5.395417013368067338e-02,-2.539403473626097862e-01,-6.446451127413710402e-03,-1.089090493346595023e-02,1.449416524495124314e-02,1.973971426486968994e-01
-5.411524782812253409e-02,-5.775825301853295540e-02,-2.447139766622258850e-01,1.287565975790308861e-02,3.726202070757513030e-02,1.563339328248895821e-02,2.025900483131408691e-01
-5.500016081933906120e-02,-5.564215044788548004e-02,-2.661574510971356777e-01,-1.007570670000942220e-02,-1.093330671557262573e-02,6.344964769335725147e-03,2.126880288124084473e-01
-5.496494681420523165e-02,-5.498844303737605854e-02,-2.506171276961035588e-01,-9.364668097302169397e-03,-1.339963705843078522e-02,1.382260421618375541e-02,1.991233676671981812e-01
-5.569670677640709000e-02,-5.417038366259524507e-02,-2.584842546508389072e-01,-1.206974020617687313e-02,-1.154481723122285225e-02,1.857134706393476220e-02,2.081014364957809448e-01
-5.974436190345108755e-02,-5.775329138420062791e-02,-2.878291328944232452e-01,6.617760166094534919e-05,8.995567044432583150e-05,1.307485435732659313e-03,2.290980666875839233e-01
-7.204294239361376528e-02,-7.159195977778255726e-02,-3.063120446672088493e-01,1.012913155288830934e-02,-1.949504798986749282e-03,3.120388608991212908e-03,2.352366447448730469e-01
-6.765612587182183446e-02,-7.004335511438734840e-02,-2.933577534860004610e-01,6.785085993986746805e-03,5.812640543678934983e-04,1.791233676595822757e-04,2.248273640871047974e-01
-6.364414211288106638e-02,-6.590912980911473040e-02,-2.909465383633154101e-01,2.848513758152784476e-03,7.917377129567973178e-05,-1.252981632646016537e-03,2.262426614761352539e-01
-6.266486231453381739e-02,-6.574621305838596053e-02,-2.932615893787710037e-01,3.205993023770548761e-03,1.307205911475503883e-03,-1.147277241557199956e-03,2.291586846113204956e-01
-6.624490018154849391e-02,-7.047676712777101171e-02,-2.924461817256334140e-01,6.902356156334959851e-03,-4.654302521398171301e-04,5.729353189387726385e-04,2.244375944137573242e-01
-6.466124699286518451e-02,-6.526548329145118177e-02,-2.910486518267988987e-01,2.529886297326222524e-03,-1.912876250622692941e-03,1.957543786152252194e-03,2.261780351400375366e-01
-6.727797878315801283e-02,-6.834886832888392716e-02,-2.197965736034440676e-01,8.450427008397629752e-03,9.907116416578033019e-03,1.702156204666964781e-02,1.564532518386840820e-01
-5.827143099477499755e-02,-5.978034194736048246e-02,-2.916428138550807292e-01,7.792291215818609963e-04,9.707952395672230384e-04,-1.871329071102347018e-03,2.326531708240509033e-01
-5.953637898936756101e-02,-3.955277785247967443e-02,-2.051832171111331315e-01,-4.771827982716091848e-03,1.563402714554151113e-02,-2.808989542929911723e-02,1.664079278707504272e-01
-5.678904854812052289e-02,-3.968685959336754054e-02,-2.511825907643322475e-01,-6.848804694915396063e-03,3.778732846356442319e-03,-1.793051401037160097e-02,2.062861025333404541e-01
-6.633514714821001079e-02,-4.934257137182770925e-02,-2.879628061739820111e-01,-1.040094734658488819e-02,4.092313978001440450e-03,-1.687062254307114539e-02,2.332428395748138428e-01
-6.778587720184930943e-02,-4.005533254027691947e-02,-2.425270316883538779e-01,-1.380425508870042036e-03,2.742186074045446613e-03,-2.007753973930222202e-02,1.933564543724060059e-01
-6.034301167967130730e-02,-4.413296275176485650e-02,-2.531657069810658300e-01,-9.918658439552200529e-03,5.316722806182016398e-03,-1.524021126956091356e-02,2.040729224681854248e-01
-5.684343684940408592e-02,-4.110901540011235866e-02,-2.543837322032980186e-01,-6.811432199337403431e-03,1.668065157543665092e-02,-1.188184390286716428e-02,2.092256546020507812e-01
-5.478056537614432037e-02,-5.692321207125362187e-02,-1.326788392516339565e-01,5.258693573952095100e-03,6.593247681757119505e-02,2.662881136506537599e-02,1.454556286334991455e-01
-6.227588893581362944e-02,-4.030549199885467837e-02,-2.527243894781276978e-01,-6.050107021415645180e-03,2.702482083937433367e-03,-1.679336043758015290e-02,2.047323435544967651e-01
-4.287847076879716668e-02,-6.272074172149155746e-02,-2.900382695876252415e-01,5.454864607237526128e-03,5.586763262564620885e-03,5.926514253417169541e-04,2.382465600967407227e-01
-4.711389161507724410e-02,-5.675883725839984961e-02,-2.929689687675390286e-01,6.373677029749272825e-03,5.002586715745887744e-03,2.823474034300209237e-03,2.416347414255142212e-01
-7.208337270502965244e-02,-7.687359044575391154e-02,-4.459262572951117054e-01,6.212318407549869814e-04,-5.768610942994054774e-02,-3.011661801986215484e-02,3.881957232952117920e-01
-5.317278894474047890e-02,-5.184581580256285294e-02,-2.906890308271733447e-01,-3.190318872884380375e-03,9.336623994000266486e-04,6.354726648285568885e-04,2.382546216249465942e-01
-4.993426856605659436e-02,-5.211779470426275429e-02,-2.904642459471361571e-01,-1.957444029522558034e-03,-9.983623451987869071e-04,-8.811138051085507829e-04,2.394807934761047363e-01
-5.037608175320951176e-02,-5.038030973610857499e-02,-2.872822787936370470e-01,-4.114733880427252563e-03,-5.568750757664478815e-04,3.316588682188121185e-03,2.370828241109848022e-01
-6.320650397718820257e-02,-5.354839815117787283e-02,-1.652136527608339955e-01,-4.696025856567543830e-03,-7.360232545411011899e-03,8.014568008852508696e-02,1.760187447071075439e-01
-5.082625747302910169e-02,-4.819474761503830806e-02,-2.806489070129845609e-01,-8.560813403384624765e-03,-1.899993635407009988e-03,3.333122817810602653e-03,2.317200452089309692e-01
-5.182316807843731499e-02,-4.737673125340509384e-02,-2.795597011463833992e-01,-4.895490293955955668e-03,-2.452561416642887095e-03,1.526687621521953574e-03,2.302026301622390747e-01
-3.670419814481004628e-02,-6.002996166291425795e-02,-2.836810098189848639e-01,-5.859738510710109155e-04,1.703023190727219948e-03,4.207761716944493323e-04,2.362011373043060303e-01
-5.394331147278319527e-02,-5.243668692804906439e-02,-2.909967653012618394e-01,-7.100199386729682746e-03,-5.415444549999409675e-04,1.643233468169683379e-03,2.381469756364822388e-01
-5.301745909790493705e-02,-4.998925117906205529e-02,-2.887154459045406241e-01,-5.865204568346367095e-03,-1.399922410130280273e-03,9.942719855850030639e-04,2.374626249074935913e-01
-5.530840811928147693e-02,-5.309216685292053595e-02,-2.906099714060269568e-01,-7.830655123912864946e-03,-5.413526474074901833e-04,2.158728790846838486e-03,2.368375808000564575e-01
-4.945127277983771275e-02,-5.192624374689319700e-02,-2.827291315321037168e-01,-5.491610280114157631e-03,-1.983242174067218182e-03,1.903267736623991775e-03,2.322939336299896240e-01
-5.080930640057396142e-02,-5.361447814678921286e-02,-2.885537942489877494e-01,-5.093733937817486457e-03,3.151124271541197988e-06,-3.262616871339067389e-04,2.365196645259857178e-01
-5.299508825256434019e-02,-4.829109698252150029e-02,-2.891572917080734162e-01,-1.033351757965755542e-03,-3.203979559679643371e-04,5.582773162500279367e-04,2.385583072900772095e-01
-4.947636212747198725e-02,-4.857240453900482646e-02,-2.886794854671156374e-01,-2.984750236841556773e-03,6.042749571658432434e-04,-4.830396628877889798e-04,2.397158741950988770e-01
-5.253937768338637349e-02,-5.261927617252401546e-02,-2.905186623058446660e-01,-3.001725450621688628e-03,6.704047958733305506e-04,-5.148478718958677050e-04,2.380006462335586548e-01
-7.807554766459062767e-02,-4.369335834716470135e-02,-2.815554322793500930e-01,3.157384665391460739e-03,-1.781392159242949037e-03,2.273386160665591404e-02,2.262127250432968140e-01
-5.776207312498730928e-02,-5.910289650683811513e-02,-3.084269861366613075e-01,-3.407845667382521267e-03,9.004490178471579939e-03,-6.580283514513014798e-03,2.508118450641632080e-01
-5.781936726041075891e-02,-5.789597708371951867e-02,-2.934650796993027444e-01,-2.712365888580072371e-03,1.330176511845033776e-03,-1.021242875029680304e-05,2.356655150651931763e-01
-5.767176292660697312e-02,-5.641693815837087178e-02,-2.895163633946626347e-01,-3.149310713790999181e-03,1.444027327446572532e-03,1.817800742747693703e-03,2.325733006000518799e-01
-6.401210995786198177e-02,-6.470811379038535205e-02,-3.060097364238732465e-01,2.293843167654325155e-03,-1.429204855106369718e-03,4.539862221689347846e-03,2.418235838413238525e-01
-6.098301197001199103e-02,-5.765259452640292270e-02,-2.945586953398553476e-01,-1.268243150469132983e-04,8.948608414584835469e-03,-1.134932637355491603e-02,2.365867644548416138e-01
-5.548655813911647361e-02,-5.670448381096424018e-02,-2.919326964967362548e-01,4.264209873109069127e-03,-2.291305331610938027e-04,7.461179753694576443e-04,2.359590232372283936e-01
-5.603967040946083999e-02,-6.033839231465139286e-02,-2.935960839065717698e-01,1.813687294657703860e-03,-1.627515290220659522e-03,-5.820301750548478783e-04,2.354764789342880249e-01
-5.858402354488065344e-02,-5.869406372922816861e-02,-2.972759050678853709e-01,9.862555060053729197e-04,7.599435088987221108e-04,-1.941773041074418597e-04,2.386468648910522461e-01
-6.752553023821827871e-02,-6.433338346582387346e-02,-3.016613302766650850e-01,-5.063905257978390008e-03,-1.552501856208880673e-03,3.754500732530868562e-04,2.359274029731750488e-01
-5.911288580794825387e-02,-6.074290606838134154e-02,-2.978364470942829745e-01,3.761438678819604780e-04,-2.671554464979694968e-04,-2.162468282093301698e-03,2.379435598850250244e-01
-6.735140618128837575e-02,-6.350324914634461471e-02,-3.005775960815130210e-01,-5.332787403675398955e-03,-1.845143162666970866e-03,1.003249567617176680e-03,2.353833168745040894e-01
-6.107756283960216748e-02,-6.024255100916894867e-02,-2.969688525137419988e-01,-1.601748475553018466e-03,2.271588906297005600e-04,1.834872650556694431e-03,2.363478839397430420e-01
-6.157390049564190337e-02,-5.646692312911449907e-02,-2.722319616022930155e-01,-6.089099646173275204e-03,-2.018252397998350489e-02,3.437582707943523386e-02,2.244037687778472900e-01
-6.808355475953001279e-02,-6.585827617532782896e-02,-3.044244395581868767e-01,-5.285446751553971034e-03,-1.158347634713512543e-03,-1.910713705553904228e-03,2.376692593097686768e-01
-7.495377211192467970e-02,-5.235687834525123985e-02,-2.321850028482296269e-01,6.699194726127098015e-03,1.497078972114941489e-03,3.089185255298017643e-02,1.782960891723632812e-01
-7.072103262378903743e-02,-4.883447864342789491e-02,-2.288962167626157340e-01,3.986136158654842235e-03,4.040730847949654259e-03,2.899510772023183511e-02,1.777051389217376709e-01
-6.903683435539584301e-02,-4.896636466857895442e-02,-2.403929451235106152e-01,-4.340955526914743031e-04,-5.613002004448464132e-04,2.345213524219483259e-02,1.866988390684127808e-01
-6.272973250430365078e-02,-4.315760897718814298e-02,-2.029554966991629350e-01,4.948205422321443666e-04,-2.302480887736545710e-03,3.387642940806318698e-02,1.620195209980010986e-01
-7.221408743473349545e-02,-4.839801866022734600e-02,-2.063302915372580149e-01,5.125570209175918206e-03,-1.045427965509025409e-03,3.325006416093594097e-02,1.585789322853088379e-01
-6.698906669887200183e-02,-4.363954634927581788e-02,-2.280280960534183110e-01,4.288303625526697425e-04,-7.974071015794660612e-04,3.261339511131931823e-02,1.828450560569763184e-01
-7.061523865470431538e-02,-5.006591667515551680e-02,-2.071102784811564568e-01,-4.814032153696643293e-03,-4.544239168290331587e-03,3.170382117076252226e-02,1.581294536590576172e-01
-7.325285337313068579e-02,-4.820023188353357579e-02,-2.218121622369206847e-01,-4.993280201169866470e-03,-2.121069945724223492e-03,3.051265691916404607e-02,1.711743623018264771e-01
-5.753833088675711083e-02,-4.903522861858378157e-02,-2.840931953844447744e-01,7.927932111773228208e-03,-6.659339124473901035e-03,-8.103413658421225810e-03,2.320440113544464111e-01
-5.796409232104876574e-02,-4.705572235210492282e-02,-2.912744399751305280e-01,9.165444187496315370e-03,-1.241089676438322104e-02,-1.639957640263718652e-02,2.421129792928695679e-01
-5.438072965621931765e-02,-5.209948205470607552e-02,-2.812227401227044843e-01,8.428427619218180691e-03,-2.217691500268107255e-03,-3.289503924124029515e-03,2.285614013671875000e-01
-5.625848456041879220e-02,-5.229173975857481782e-02,-2.908750203149791380e-01,-3.247567349193680297e-03,-2.465358022674833731e-05,-9.583997448800273119e-04,2.366975247859954834e-01
-5.476475169720135261e-02,-5.077979379563490880e-02,-2.852206117247809702e-01,7.543082761023011534e-03,-3.262861566562366613e-03,-3.568531517100782986e-03,2.329913675785064697e-01
-5.143770311071733936e-02,-5.335460218866633353e-02,-2.821983408282654482e-01,8.445500594015591805e-03,-7.420287566222794583e-03,-1.004104786704447527e-02,2.312864661216735840e-01
-4.018260064252196506e-02,-5.999941225995852889e-02,-2.831102546513354357e-01,-1.169339846223730120e-03,-1.784499569106712431e-03,-2.394945059397617191e-04,2.336799651384353638e-01
-4.120571986211593596e-02,-5.858460842921270340e-02,-2.863918609057770626e-01,-1.813963354985697121e-03,5.553142181995911024e-04,-5.790946565802559259e-04,2.370000183582305908e-01
-5.669483345083078940e-02,-5.342808612613247909e-02,-2.859480525244616489e-01,1.172327461186158971e-02,-1.069118525170454498e-02,-7.327375529904201802e-03,2.328795939683914185e-01
-5.346423751773413113e-02,-5.878719719111862030e-02,-2.940829231350726714e-01,-1.329184942377936024e-02,1.150813554115189853e-02,-1.308820751425105768e-02,2.410106211900711060e-01
-4.655686623464669327e-02,-5.756431928247185414e-02,-2.578952834231180713e-01,-1.007631055143640847e-02,1.570979450789666831e-02,-1.091647304601959384e-02,2.094308733940124512e-01
-4.794908208774537051e-02,-5.627277439786448898e-02,-2.609613822961043827e-01,-1.503997019687104870e-02,2.213645909838837800e-02,-1.107470057204589485e-02,2.149118185043334961e-01
-4.778721090722942710e-02,-5.888731299332167213e-02,-2.637882381478826588e-01,-9.474352096101468917e-03,1.390338343046693473e-02,-9.867388532732349060e-03,2.133619487285614014e-01
-5.100355506073353529e-02,-5.863803319410268444e-02,-2.789206611223493670e-01,-9.166850824549807597e-03,8.529076841520806182e-03,-1.611990725641463957e-04,2.252440303564071655e-01
-4.739943538789942457e-02,-6.700209567627048168e-02,-3.009520532298208817e-01,3.030403854902063727e-03,9.127025984941038866e-03,9.768976406938083452e-04,2.449146956205368042e-01
-4.791169418368204647e-02,-6.293844114583505012e-02,-2.970566930216017032e-01,3.540404394144122755e-03,1.172202830882279438e-02,4.967915522240195364e-03,2.430618405342102051e-01
-4.471731130407885502e-02,-6.222656547505743541e-02,-2.225033440995242140e-01,8.083666612678347060e-03,4.052159283786508498e-02,3.640347664632843927e-02,1.946772187948226929e-01
-5.364569873328862981e-02,-6.094597586591718463e-02,-2.677569493676714152e-01,4.809439165072483882e-03,3.692319742743581379e-02,-5.914964512696263901e-03,2.204499244689941406e-01
-4.813797130926344980e-02,-6.436371366385962300e-02,-2.875860925510720922e-01,4.543838106176629685e-03,1.669472810259424456e-02,3.593548853585451681e-03,2.337739914655685425e-01
-4.907126853852812609e-02,-7.850324641262756975e-02,-2.811641055082746421e-01,8.278860199399286010e-03,2.298765837032457071e-02,4.303364048310657727e-04,2.229211628437042236e-01
-4.767637511058414601e-02,-6.379078702733032014e-02,-2.401624966086235435e-01,5.854562564932229256e-03,5.543616314783732929e-02,8.331071434390818244e-04,2.086461037397384644e-01
-3.937711598585126593e-02,-6.599579834038089843e-02,-2.728318439068723178e-01,2.878017972411904004e-04,1.875090995201850880e-02,5.520913678701312721e-03,2.239238470792770386e-01
-6.706812619112481610e-02,-6.005252707380055038e-02,-1.311227398816537382e-01,-5.785069695970970413e-03,-1.599468358170392721e-02,3.801364743733801760e-02,9.901816397905349731e-02
-5.717978913891730297e-02,-4.953747478972739260e-02,-2.916300565098634001e-01,1.076241894824293659e-02,3.100193765036809729e-03,1.558243588337889299e-02,2.406695485115051270e-01
-5.526623940423572301e-02,-4.705086324719565116e-02,-2.747704039801772691e-01,8.730605016036433255e-03,4.385642257454857272e-03,1.057528593859069846e-02,2.251105606555938721e-01
-5.258176123504348931e-02,-5.265009875560347496e-02,-2.599909812097523920e-01,1.192424497726424226e-02,9.897917415512640787e-03,1.071870501521221888e-02,2.099274992942810059e-01
-5.503446630687675034e-02,-5.519059317120730834e-02,-2.737683277848654839e-01,1.316628655440661537e-02,9.359548983321513277e-03,1.555010541832103910e-02,2.220780253410339355e-01
-5.116224548595618704e-02,-4.746531555568235528e-02,-2.571687229488734960e-01,9.090720200519349439e-03,1.069880583207946136e-02,8.188210455218974948e-03,2.097769826650619507e-01
-5.590579150377636419e-02,-4.912281351699121501e-02,-3.076991147638346580e-01,-6.197113463614062692e-03,-1.732105892348244011e-02,4.303073571930557395e-02,2.678133547306060791e-01
-6.401574844174628964e-02,-3.858730813372997226e-02,-2.743613371365802855e-01,-3.092832615590849783e-03,-1.657367478788120347e-03,2.328384182174442901e-02,2.278244495391845703e-01
-6.150438401979319014e-02,-7.044975396198593920e-02,-2.981435705316379803e-01,-4.698125868569718797e-03,1.628449997341052213e-04,-6.455187968708345995e-04,2.324410527944564819e-01
-6.759648067659504433e-02,-4.148932551459924567e-02,-2.870598326722813565e-01,-7.702163312957079891e-04,-1.217872657618749004e-03,9.913084750015330182e-03,2.342570126056671143e-01
-6.309128772802867491e-02,-5.213770498263670117e-02,-2.865577381746061691e-01,8.625642073822238241e-04,1.303877215818778808e-03,1.188953883646446871e-02,2.300791442394256592e-01
-6.004891672087658838e-02,-5.120215622491422480e-02,-2.856598607881186691e-01,4.506598675333002742e-03,1.120556648192313175e-03,1.127156415515275997e-02,2.311283797025680542e-01
-5.678794991903925171e-02,-3.729807288614218896e-02,-2.639286384782461026e-01,5.889583988437944659e-03,3.046865927095904116e-03,1.709606898287760468e-02,2.198476791381835938e-01
-6.135164614548727080e-02,-3.462104358872698795e-02,-2.379652448323953118e-01,3.089554549362700294e-03,6.242396876960806806e-03,4.615117642615443327e-02,2.077575773000717163e-01
-6.794275794544354929e-02,-3.770783858652987375e-02,-2.779312845977935931e-01,2.629428518445759907e-03,5.155532951146686582e-03,2.003351425862286497e-02,2.294838130474090576e-01
-6.042908157658682944e-02,-3.976064808228339797e-02,-2.779365158269229696e-01,6.698176320045413044e-03,6.858737218938244437e-03,1.591925986215880773e-02,2.307990491390228271e-01
-6.053035372469847686e-02,-6.670555584449776310e-02,-2.964080692377492610e-01,-3.048917794518036812e-03,-1.396570940133688103e-03,1.201206546362096426e-03,2.329332679510116577e-01
-6.321166587791050839e-02,-4.019541114095021017e-02,-2.873222061420759310e-01,1.865891382329266717e-03,3.235848692592237404e-03,1.123801917500673320e-02,2.373482733964920044e-01
-7.426733279787176012e-02,-3.896252273014344514e-02,-2.774232181161277455e-01,6.754070454402263902e-04,2.215360896803935786e-03,1.982154889761764127e-02,2.255790233612060547e-01
-6.848104764618770379e-02,-3.574777519866467745e-02,-2.777976792349554636e-01,3.421170978712462923e-03,4.570801933350436205e-03,2.161955929370529272e-02,2.307304590940475464e-01
-6.710562722667257063e-02,-4.457101807755661782e-02,-2.966443990140386622e-01,-4.690086042260434296e-03,-5.657269738674301773e-03,4.038658252983337582e-02,2.518405318260192871e-01
-5.555443708214390097e-02,-3.413000065379241665e-02,-2.261770155076520128e-01,-2.474850411653472821e-03,2.850101642923584012e-03,4.174477885899095797e-02,1.962070018053054810e-01
-6.568352884203174091e-02,-4.358619953442663397e-02,-3.044427626404968557e-01,6.657053988855656662e-03,1.338620492148046015e-02,4.178522969470752774e-02,2.620663046836853027e-01
-6.485012680281262987e-02,-4.020399636334552607e-02,-2.834344826906429193e-01,6.714554288827729277e-03,1.285623316131330636e-02,4.355334738319732724e-02,2.451440393924713135e-01
-5.146761594780410731e-02,-5.171803077442990726e-02,-2.732219867836336857e-01,1.190944231411138719e-02,-1.459366413052281576e-02,-8.553803828405412424e-03,2.245071679353713989e-01
-4.657222088937616744e-02,-5.759173533975418813e-02,-2.762880278401524947e-01,8.933531679839925438e-03,-2.171167221010492435e-02,-1.497599360708473312e-02,2.295340448617935181e-01
-6.451834292288977091e-02,-6.494858006291592822e-02,-2.887836199035723750e-01,-2.479788945236009387e-03,-5.065970598598680541e-04,-5.368888343778068775e-04,2.240952849388122559e-01
-6.076524186977506903e-02,-5.278743971267557678e-02,-2.892216105728632747e-01,5.843548160838607682e-03,-2.134383221095314425e-04,-2.323809456001043813e-03,2.328031659126281738e-01
-5.269493661974986032e-02,-5.450443927613962680e-02,-2.892817392649712493e-01,3.516970825470943675e-03,-3.308241611814428289e-04,1.547463708102170439e-03,2.357818931341171265e-01
-4.998538103263944210e-02,-5.196480475687242917e-02,-2.881457913498923773e-01,5.793543151676714548e-03,-3.903907956299845246e-05,-1.093922943642682162e-04,2.373891621828079224e-01
-6.049283876545352712e-02,-7.449553545827292123e-02,-3.036343663445695285e-01,-9.926929366068495963e-03,-2.403396960138638652e-03,1.163557055234270676e-03,2.371207773685455322e-01
-4.885795080424815140e-02,-5.196275787764739751e-02,-2.782011736152442682e-01,8.889960516303065108e-03,-3.620898966882989903e-03,-3.734925058300566682e-03,2.285041809082031250e-01
-3.667382436689708980e-02,-6.206701375112663732e-02,-2.817586313946940368e-01,-1.847509031211874448e-03,-7.980076392869275316e-05,-3.737846103149446305e-04,2.334492802619934082e-01
-6.278619866515453007e-02,-5.665045870246945836e-02,-2.486388792593904329e-01,1.130334370641610311e-02,-5.329043108034852566e-02,-3.087533506264297789e-02,2.179035991430282593e-01
-5.436380916955328713e-02,-3.839715050131888019e-02,-2.504513846673824817e-01,9.311777450303818787e-03,-6.243883889925483550e-03,-1.959464184728789554e-02,2.082428187131881714e-01
-4.898358415062850635e-02,-5.135869701551382116e-02,-2.305150421110862269e-01,1.308739487667615747e-02,-2.271486657272089871e-02,-2.640857645939511181e-02,1.915257871150970459e-01
-6.735613947044766237e-02,-3.943715082885178302e-02,-2.452992471353974135e-01,6.133207332072027756e-03,-5.362372091237743721e-03,-1.708077140779423742e-02,1.961774230003356934e-01
-5.704029623979919861e-02,-5.092678544425265769e-02,-2.119652883840331403e-01,9.142978480438306715e-03,-9.850086538000084671e-03,-2.438635485791567845e-02,1.652640402317047119e-01
-6.537460606860472090e-02,-4.941135377684274799e-02,-2.137193656613985970e-01,9.533584950351149667e-03,-2.182165464046408737e-02,-2.280171091294212748e-02,1.670030951499938965e-01
-5.663853135562735286e-02,-6.343051186077638959e-02,-3.305125895064736641e-01,-7.465648796698260391e-04,1.142762984068888474e-02,-3.141308137377289440e-03,2.713227570056915283e-01
-6.544543597856264383e-02,-5.638231841338697814e-02,-2.936666074357033307e-01,6.760490541804657963e-05,5.862425965354995695e-03,8.306543815617493248e-04,2.331107556819915771e-01
-7.535972328167631074e-02,-6.025680048577831960e-02,-3.073443201072699749e-01,-2.721256010568488381e-04,-1.682386967882765162e-03,-9.108251343061926674e-04,2.399162352085113525e-01
-6.300339027973696215e-02,-5.864369604054950336e-02,-2.968739424680715278e-01,1.495478460313873345e-03,1.496879799730493552e-02,-6.561795216069409150e-04,2.375168204307556152e-01
-4.629456416124257123e-02,-5.388106976567859363e-02,-2.576152659275965373e-01,-7.653252591727154833e-04,3.371937207829441008e-02,9.691793783616229827e-03,2.163454294204711914e-01
-7.722395699222014964e-02,-5.997663363659481994e-02,-3.094171037507532640e-01,-1.579494940741574835e-04,-3.054449115247879695e-03,4.487014550089819072e-04,2.413389831781387329e-01
-5.010608171970981628e-02,-5.138985666683004716e-02,-2.865777182898728292e-01,5.404934465667271364e-03,-4.665489062826241699e-03,-4.583626075947097936e-03,2.362898141145706177e-01
-5.496370664860306121e-02,-5.861737879865534795e-02,-3.023448691947915323e-01,8.835037974423098212e-03,-8.718477209633007652e-03,-5.144449390189923497e-03,2.466749846935272217e-01
-5.005563499521523130e-02,-5.984717777088577328e-02,-2.913540704105856416e-01,6.879038024791056874e-03,-1.046758350955578898e-02,-2.123643044314563015e-03,2.375759482383728027e-01
-6.563153948968285245e-02,-4.334200648686248325e-02,-2.405856156339106766e-01,-1.253486213051340989e-02,-2.690529843334396598e-02,4.685648416999607657e-02,2.103212773799896240e-01
-6.600158626871452383e-02,-5.256952799799265164e-02,-2.606254887811852439e-01,-1.331592336799966754e-02,-1.299203855587554961e-02,3.734408790201221295e-02,2.142315208911895752e-01
-7.285495255873201959e-02,-6.115975836565072654e-02,-2.065978746364043883e-01,-7.629866578568844648e-03,-2.684741613218266654e-02,3.711442512444599467e-02,1.614234596490859985e-01
-3.671858795514626461e-02,-6.141958955661133701e-02,-2.827465079299929518e-01,2.369916999707578562e-03,-5.641168335775948936e-04,1.717668840012969225e-04,2.346926331520080566e-01
-6.685374905004838608e-02,-6.145490930462491064e-02,-1.103317860395352651e-01,6.898404756323493758e-03,-3.558719797216796515e-02,7.051442663428739155e-02,1.449592411518096924e-01
-5.958183604065184213e-02,-8.096490518888765919e-02,-3.041027621587490959e-01,-5.780547983916264898e-03,3.373348507913654385e-05,9.973026860756459885e-04,2.347814738750457764e-01
-3.790192502286862664e-02,-6.171548578344107638e-02,-2.710145863246987696e-01,-1.079726984778581547e-02,-2.697350431048688157e-02,5.756520153609870696e-03,2.280114442110061646e-01
-4.193537248149412089e-02,-6.031509910964463761e-02,-2.773341715354217252e-01,-4.456643806339473206e-03,-2.542311151836861016e-03,-5.980144111122844171e-04,2.269446849822998047e-01
-4.863520073525220977e-02,-5.832315653027896063e-02,-2.811870857156716363e-01,-3.204716489188189337e-03,-5.826899401235302763e-03,4.686671696201379425e-03,2.282977104187011719e-01
-4.930019047353162431e-02,-5.872009341025033469e-02,-2.891510201280430015e-01,-4.393960610231934134e-03,-5.023098226155965629e-03,-1.204533045050536688e-03,2.355753630399703979e-01
-4.452586551834510076e-02,-5.601605143237567419e-02,-2.651505497786962318e-01,-1.040351716329276054e-02,-2.014579031780662499e-02,1.542616319994360649e-02,2.202916592359542847e-01
-5.437077341855867108e-02,-4.959677344409585409e-02,-2.891719728038152359e-01,3.206197934448730240e-03,-1.301967139604450624e-03,5.559691932949588583e-06,2.372999340295791626e-01
-5.052486702511457817e-02,-5.864850377622302102e-02,-2.851207909321449296e-01,-5.625655963630613043e-03,-3.206998656678208739e-03,1.977337670185068050e-03,2.309393733739852905e-01
-4.832762131713366771e-02,-5.872866230392259634e-02,-2.769050088851856550e-01,-9.248963215468152671e-03,-9.458636394498487129e-03,1.591767663761606668e-03,2.247464954853057861e-01
-5.461287070492898410e-02,-5.213649530605574123e-02,-2.960083707856914215e-01,4.794492165275790474e-03,1.109402320139900837e-04,-1.772698835763694865e-03,2.428047209978103638e-01
-6.291150907055598207e-02,-6.181928301765093892e-02,-2.862145416654398034e-01,4.239870624383950217e-04,-3.878826104423754514e-05,1.423197549194811116e-04,2.238525003194808960e-01
-4.953337307686543622e-02,-4.833884182721126521e-02,-2.655654759057865522e-01,8.514293994523837450e-03,-4.405122672857897034e-03,-1.024872298529378931e-02,2.179911881685256958e-01
-5.215550401155510940e-02,-5.123177128781217227e-02,-2.849012431607935714e-01,9.041324151456888586e-03,-5.685935703194614117e-03,-1.024520024409836944e-02,2.346136122941970825e-01
-5.506983535781931338e-02,-5.134084982981140799e-02,-2.874393484024884149e-01,3.699644401733766241e-03,-1.476073432549356848e-03,-1.112996631149171765e-03,2.343657612800598145e-01
-6.223270863832815192e-02,-6.337159085464914854e-02,-2.870609268723492979e-01,7.426899747394739675e-04,3.118717956148972840e-04,2.066322752333868049e-04,2.242655754089355469e-01
-6.174248764212614260e-02,-6.357413672495981771e-02,-2.922340212733233189e-01,1.983903026016772906e-03,2.667877712676896586e-03,-2.812478318789052648e-03,2.297050505876541138e-01
-6.318334932153492345e-02,-6.783926422973785009e-02,-2.886731055884121933e-01,1.611564160860462979e-03,-8.350327318293080205e-05,2.652090740376650247e-04,2.232161909341812134e-01
-6.252446488127397228e-02,-6.580776722798772904e-02,-2.896347940801093923e-01,1.791039665417667494e-03,9.763744031811247845e-04,-9.351831455816176373e-04,2.255201041698455811e-01
-5.787092442809971260e-02,-5.914426296089184132e-02,-2.897949977849200720e-01,-3.890383980615453284e-03,8.097422647382277730e-04,1.173367356400865013e-03,2.314013391733169556e-01
-6.236117129201539100e-02,-5.866383270964456442e-02,-3.020281923385804146e-01,-3.661929727334083985e-03,7.412968123528381782e-03,-9.857786526674522029e-03,2.425627708435058594e-01
-5.913727177364588861e-02,-5.770769759798666243e-02,-2.913137227600242074e-01,-1.099969191790174140e-03,2.276468486356426728e-03,-3.166017982741786089e-03,2.330002337694168091e-01
-5.197359242801144474e-02,-5.087640854896155473e-02,-2.851997303300715103e-01,-9.492566403823709739e-03,1.113529623772048158e-02,-8.537468473252571993e-03,2.356109172105789185e-01
-5.115512719462138314e-02,-4.903749739293991605e-02,-2.636322787836140602e-01,-8.021670304833521115e-03,7.183723652970412481e-03,-1.469871299919187253e-02,2.158633619546890259e-01
-5.355704466142585662e-02,-5.062973641964074734e-02,-2.857892929316869779e-01,-5.746231663990120780e-03,1.388435878103864290e-03,-2.279174266905537732e-03,2.339671552181243896e-01
-5.838574581358156601e-02,-5.111078617185450812e-02,-2.849798954066827816e-01,-5.426672997858338066e-03,4.524198481518852677e-03,-2.798881842980069454e-03,2.306936234235763550e-01
-5.304941205020413664e-02,-4.657392338516336272e-02,-2.885932351632588544e-01,4.801657542505841439e-03,1.213446861958743066e-03,2.530781421166342429e-03,2.390415966510772705e-01
-5.209297086223385609e-02,-5.560556592659172959e-02,-2.896492868100548623e-01,3.394410429034934364e-03,-5.459460253558218873e-04,-7.486760005332085540e-04,2.358983755111694336e-01
-5.399834000077291529e-02,-5.282745424806764567e-02,-2.796184513460978627e-01,7.726252412032658286e-03,1.610707041981468499e-03,3.782545627714640687e-03,2.267151772975921631e-01
-6.448638291263067424e-02,-6.399331636240578047e-02,-2.874307385287068195e-01,-2.144829225361767448e-03,5.229159647645910142e-04,4.796006137097419365e-04,2.232255935668945312e-01
-5.084444311978615627e-02,-5.022503198073594022e-02,-2.889218485069142694e-01,3.111084226851830795e-03,4.076427550721096527e-04,5.487105316782142552e-04,2.384515553712844849e-01
-5.633545342759914420e-02,-5.434614830379766448e-02,-2.902852685764201190e-01,1.892657040976333067e-03,-1.170943282141261987e-03,-5.735919180652351932e-04,2.349845021963119507e-01
-5.143784511161365869e-02,-5.513879648746530804e-02,-2.898454752712469329e-01,3.850256699930937245e-03,9.590281595567511736e-04,6.048156342994419387e-04,2.366809844970703125e-01
-5.752988929535154949e-02,-7.084210545803112935e-02,-3.066052130612587634e-01,-4.874064905917366297e-03,-7.141141609444653427e-05,2.860082316754378705e-03,2.428905367851257324e-01
-5.957335667737934104e-02,-7.384415620446635464e-02,-3.172149223405256180e-01,-5.580637158199379215e-03,-1.805170953985091482e-03,3.740522871723234426e-03,2.511000931262969971e-01
-5.626378138768708959e-02,-8.022073172854304879e-02,-3.098593222377699075e-01,-2.252746204452741111e-03,-5.579841374274562178e-04,2.435131020375098845e-03,2.425761818885803223e-01
-6.021063606646670507e-02,-7.180372840962774561e-02,-3.084382994447762982e-01,-1.975353839886893979e-03,-1.002862244239110905e-03,1.432873867093182717e-03,2.426819503307342529e-01
-6.389019158193685877e-02,-7.112185411829041737e-02,-1.575557064901917381e-01,4.827284808903273619e-03,-3.381103791839376593e-02,-5.803067805453167131e-03,1.083912476897239685e-01
-5.058121640733227731e-02,-6.857546441104621360e-02,-2.241242714287403071e-01,4.380727505958125281e-03,-3.651945099082416768e-02,-4.391242592646213416e-03,1.772981733083724976e-01
-4.943296047039819757e-02,-7.273679191334581073e-02,-1.974951708179245591e-01,8.670798827926019803e-03,-4.431355915319788730e-02,2.428947003481294470e-02,1.640171557664871216e-01
-5.936303677959140629e-02,-7.392635786766003914e-02,-2.078459652663091073e-01,-3.013512638458702882e-03,-3.050761413684150575e-02,-1.093121480613046443e-04,1.513812690973281860e-01
-4.952333112940983384e-02,-7.030284393371394325e-02,-2.186729515563493043e-01,6.021967769779781182e-03,-4.235319561366568397e-02,5.761295067334431044e-03,1.764037609100341797e-01
-3.722809394595168186e-02,-5.343974073386941609e-02,-1.398172131870503432e-01,7.947721159373810629e-03,-3.603189645582219325e-02,-2.280139111058293241e-02,1.215249300003051758e-01
-5.231415275216136362e-02,-6.132566312884728255e-02,-2.927263320267060598e-01,-1.449660454449332170e-02,4.451259677151585270e-02,-2.357399324295175735e-02,2.528922855854034424e-01
-4.274460683758442292e-02,-6.230945591001191969e-02,-2.628547353042986479e-01,-5.959529258268934752e-03,1.324511015627454977e-02,-2.233446263631210221e-03,2.125385701656341553e-01
-4.192741762896522173e-02,-6.480785047377411734e-02,-2.524584409622755987e-01,-9.715681014374045674e-03,1.504371050310912040e-02,-8.436950253402379293e-03,2.029912620782852173e-01
-4.217695714362439119e-02,-5.610383277802291624e-02,-2.499549728321773245e-01,-7.911408585752392753e-03,1.492609662886792976e-02,-6.205094992433402359e-03,2.035770416259765625e-01
-4.626409088923795487e-02,-4.918923721522704823e-02,-2.134923909534489628e-01,-1.155855614088907579e-02,2.559253007562804424e-02,-1.762806315405415769e-02,1.754499226808547974e-01
-4.142465167154062156e-02,-6.235232980881127984e-02,-2.853015700822233436e-01,-3.120498706104370482e-03,-8.232235432045057247e-05,-2.008297126998316031e-04,2.341783344745635986e-01
-4.688568323588707121e-02,-5.991764785257751302e-02,-1.914525974601734015e-01,-1.282646699208965860e-02,3.336631018595092452e-02,-2.452775065633115703e-02,1.575555503368377686e-01
-3.722126906192387008e-02,-6.615810751507639198e-02,-2.695505896784731736e-01,5.867665981355391037e-04,6.724729791108806538e-03,1.089464638421984172e-03,2.196170240640640259e-01
-3.969328100489873112e-02,-6.931145260234221339e-02,-2.869365236980559453e-01,5.337647557303751376e-04,7.829196517180902343e-03,2.302491118864402955e-03,2.342737913131713867e-01
-4.226615446452119951e-02,-6.666555965716280951e-02,-2.407515780779865833e-01,5.603644897036713646e-03,1.801577891530565384e-02,3.421594098050614093e-03,1.903993040323257446e-01
-6.566638968133661769e-02,-8.024125216096952840e-02,-3.449505513790092626e-01,-2.780423451630498265e-04,-1.025544488388051984e-02,-9.145389373769650943e-02,3.155134618282318115e-01
-3.923728766253535560e-02,-5.691617857383456797e-02,-2.299470001245599304e-01,8.114318713031471245e-03,2.049229457218172679e-02,4.962731575706346050e-03,1.866612285375595093e-01
-4.279982144410093836e-02,-6.169590391023735410e-02,-2.781532757971274528e-01,6.974971561908092053e-03,5.483019254351587969e-03,3.394608739283877085e-03,2.270941734313964844e-01
-3.807479461016877176e-02,-6.192570042582079548e-02,-2.853609420152272147e-01,3.553304529059764065e-03,8.869910299589261332e-03,3.069705247686700840e-04,2.368448674678802490e-01
-6.427166655980734444e-02,-5.306993465650246961e-02,-2.221752104358194480e-01,-1.438136431214600067e-02,-1.526082932064368874e-02,2.072464141200012350e-02,1.715677231550216675e-01
-6.630627754431170362e-02,-5.608919584000845310e-02,-2.000011405564822708e-01,-8.492912137689032082e-03,-1.552702814500774714e-02,1.492207983995996919e-02,1.447492241859436035e-01
-6.039833255958128311e-02,-5.255705105211957995e-02,-3.007397209634187218e-01,-1.090474281997014412e-02,-8.805226764208296669e-03,1.124126627046333551e-02,2.463300377130508423e-01
-5.716813883529131557e-02,-5.756039712126720387e-02,-2.709271575203231475e-01,-1.064927785166355084e-02,-9.866491104301126566e-03,5.758153467389917797e-03,2.152694910764694214e-01
-5.739223985546723639e-02,-5.614676305313318072e-02,-2.706742108851803996e-01,-1.066239042888102347e-02,-8.204615821694089678e-03,8.789735707414352700e-03,2.157108485698699951e-01
-6.043277854872568244e-02,-6.843215973797080187e-02,-2.963204612461787790e-01,-2.863821452325459975e-03,3.192602099793649152e-03,3.775297251759358961e-03,2.322024405002593994e-01
-5.885125425820134093e-02,-6.117974785178303954e-02,-2.767291979658048628e-01,-1.251271670150829428e-02,-1.794878055103663744e-02,1.854222069343913759e-02,2.223432362079620361e-01
-6.119145529751265911e-02,-7.000792590763865730e-02,-3.071049380593545153e-01,3.269105917861892842e-03,1.665354096930336120e-04,1.033645700983283709e-03,2.416990548372268677e-01
-6.135357965767704314e-02,-7.221798571822540813e-02,-3.055836996021765728e-01,4.746435942406390142e-03,-3.679650836408365766e-03,2.531996599033281645e-03,2.392496764659881592e-01
-6.141334975732115620e-02,-5.943076045929089612e-02,-2.984220077157166973e-01,4.392800034414193048e-04,-1.839703593590618106e-03,-1.126299930540722506e-04,2.380287647247314453e-01
-6.314396209289033224e-02,-7.002690672099225189e-02,-3.029551789553686092e-01,1.000269328336206645e-02,5.594671260793791573e-04,3.051373838879906531e-03,2.371396720409393311e-01
-5.984581295148416746e-02,-6.787389094540866030e-02,-3.020078880379012953e-01,2.058749306175218334e-03,1.149498284158880120e-03,-9.782388443720290913e-04,2.382905334234237671e-01
-6.369335325161543104e-02,-6.314430246657405654e-02,-3.022123021049096248e-01,4.020775079278497699e-03,-7.967887451942367097e-04,1.925117617505254890e-03,2.389227300882339478e-01
-6.460993957978772295e-02,-6.755424750516968169e-02,-3.041977888290113841e-01,3.442347380951661824e-03,-1.132753309742723456e-03,-9.557181271248571227e-04,2.382178157567977905e-01
-5.725922921250579944e-02,-4.964842752285496263e-02,-2.876762570553151321e-01,-1.007078142639573730e-02,3.308660324287956891e-03,-1.547495550943009390e-02,2.365567982196807861e-01
-5.583015031082574214e-02,-4.142629042682129115e-02,-2.450045949648115839e-01,-9.411612371464683421e-03,1.001243292987737815e-02,-9.317256733568094612e-03,1.988622695207595825e-01
-6.447957853606613166e-02,-5.145103803630944606e-02,-2.907547017252993804e-01,-6.908114387345185362e-03,3.198383983842617573e-02,-1.902545508198767027e-02,2.421077787876129150e-01
-6.131495083646314181e-02,-4.833539689850011034e-02,-2.741261874966610668e-01,-9.134904786111227443e-03,1.108195582414142621e-02,-1.678870812619884592e-02,2.228982597589492798e-01
-5.922680765955082305e-02,-5.771175743977782768e-02,-2.894281212640609224e-01,-3.765760682863049467e-03,3.211692834224243111e-04,-4.042579797160928551e-03,2.311613857746124268e-01
-5.903501103052105625e-02,-4.988219920729250467e-02,-2.978438938797071112e-01,-5.972221718252908318e-03,-1.115620523761002994e-03,-3.177595269494674045e-03,2.438037246465682983e-01
-5.985742808975916263e-02,-4.315492285660987859e-02,-2.896505149622378150e-01,-5.523447155933862950e-03,4.940339508996496182e-03,-2.353747079003992715e-02,2.423813939094543457e-01
-6.129869952457625559e-02,-4.697855131907863191e-02,-2.792013799542271135e-01,-4.642112166642837004e-03,4.467855451520546389e-03,-5.228979395993826190e-03,2.258619070053100586e-01
-6.054893231029502554e-02,-4.914264466398188258e-02,-2.904801406644029749e-01,-5.930800753960475610e-03,2.997506882371085528e-03,-1.053412408503084756e-03,2.361290603876113892e-01
-6.412253799945862032e-02,-6.540638341919913223e-02,-2.913178649968579115e-01,3.821447847610086671e-03,1.685211576210941852e-03,-9.273045738123069119e-04,2.266772836446762085e-01
-6.219275012672895175e-02,-7.225270512202522366e-02,-2.971942157302812637e-01,6.487632732629191809e-03,-1.422803837182366445e-03,2.838727049874101467e-03,2.304762601852416992e-01
-6.351087339074970584e-02,-6.197648502554235772e-02,-2.903335994655889540e-01,2.504639663211468293e-03,4.008577593243454942e-04,-7.172310821466723087e-04,2.276395857334136963e-01
-6.344684037652617570e-02,-6.318850062944693369e-02,-3.035123002408196546e-01,4.382911724672871809e-03,4.068987933311246901e-04,-1.606422986036407183e-03,2.403318136930465698e-01
-5.837504749334382348e-02,-6.102322559032005711e-02,-3.258177898405397177e-01,-2.679977808813610758e-03,-9.601772745867560160e-03,2.194052785829455916e-03,2.667151391506195068e-01
-6.411339984108627155e-02,-5.861878913103299449e-02,-3.123020978985916463e-01,1.010323598774455186e-03,-5.826782459936754449e-03,2.418935057559264308e-03,2.512249946594238281e-01
-6.987289599723045530e-02,-6.170447595240073635e-02,-2.997492613685242002e-01,8.685480511637335560e-03,-5.733773039932589521e-03,3.825886500014850401e-03,2.348541021347045898e-01
-4.123336643113033329e-02,-7.041124575644802652e-02,-2.605911961599516324e-01,1.813967010424907345e-03,-9.431574972643595733e-03,-1.551376976303945818e-03,2.070090919733047485e-01
-5.819553347616478189e-02,-5.620061091138804643e-02,-3.299336494965764421e-01,-1.502271618368865996e-03,-1.009683642465320288e-02,2.721195618000018818e-03,2.733541727066040039e-01
-6.882020528955856697e-02,-6.472153365523249102e-02,-3.015946351936187875e-01,4.353217533966254396e-03,-1.370071471745880039e-03,6.485300132607193721e-04,2.349862605333328247e-01
-6.423594342860247663e-02,-3.930031893401789156e-02,-2.740934199079788636e-01,-5.861480997560057637e-03,3.018377426273121875e-03,-1.772554929918361555e-02,2.257606238126754761e-01
-6.165681037018322375e-02,-3.959332038639336304e-02,-2.312495279355210875e-01,-8.104453390883786454e-03,6.867263711346448078e-03,-3.129771847764009629e-02,1.904401779174804688e-01
-7.523198068755206080e-02,-5.218857462101811340e-02,-1.964424586256880434e-01,-3.877636081761077352e-03,4.065378272170176027e-02,-5.493472247264215291e-02,1.790889501571655273e-01
-4.004466481622855067e-02,-6.742733538360115575e-02,-1.999838078601318125e-01,7.222333754563524562e-03,-2.891345316143995731e-02,3.092955274076660335e-03,1.569838523864746094e-01
-7.237829368475023895e-02,-4.850936707497847944e-02,-2.394719023202675212e-01,-1.419641383689366869e-03,1.504654595737668198e-03,-6.463224864410439807e-02,2.121866345405578613e-01
-7.771587616688853395e-02,-4.169840751388451117e-02,-2.729256914291897651e-01,-2.739379724711069920e-03,8.709512539854399882e-03,-1.892807969996801801e-02,2.185405939817428589e-01
-6.422326367445074791e-02,-6.500443053542570571e-02,-2.909957094436613767e-01,3.625422726903919108e-03,1.050439916790876088e-03,-2.163507181402843111e-03,2.265082597732543945e-01
-6.273280685034693382e-02,-6.292626129033285221e-02,-2.880257337081941760e-01,-7.349234705932344760e-04,8.556348228830539882e-04,5.358141812488398468e-04,2.252066433429718018e-01
-6.579379910173097090e-02,-6.769584835874926931e-02,-2.909634802989647939e-01,5.274466940513655895e-03,-2.150291731481712200e-04,5.383752632600568829e-04,2.244129776954650879e-01
-6.230098093851231533e-02,-6.475237224404981062e-02,-2.910003103155388571e-01,2.818345751238665337e-03,-9.489946901815590275e-04,1.114009493426362275e-03,2.275500297546386719e-01
-4.009100337145990456e-02,-7.131228660610000603e-02,-2.737463023600058554e-01,-4.362882594024459181e-03,-1.085729236587456344e-03,1.535419854386696047e-03,2.198687344789505005e-01
-6.419792813227701012e-02,-6.889046941256565804e-02,-2.923498490824050222e-01,5.113987669401832969e-03,-3.342458632494369896e-05,2.889374327898522029e-04,2.260164171457290649e-01
-6.575305024202152127e-02,-6.727825084347943685e-02,-2.992568033290297080e-01,4.531120300478169716e-03,-6.133009499669744108e-06,-6.767749005404698811e-04,2.328801304101943970e-01
-5.629136654717219190e-02,-5.027558242953111822e-02,-2.435548524387544100e-01,1.266968894389663113e-02,2.353585621682448281e-02,1.384066292279875245e-02,1.973534971475601196e-01
-3.950606695092916121e-02,-6.862122138607121280e-02,-2.509085613473503451e-01,1.728603121144832227e-03,-1.022832653304587593e-02,-1.042654076666300108e-03,1.992731094360351562e-01
-5.097933650279294626e-02,-5.416779257527541691e-02,-2.246162433456834195e-01,1.293717295002711279e-02,3.620350246383470527e-02,1.704257083168541839e-02,1.868471205234527588e-01
-6.711584261801778473e-02,-5.034520078196963455e-02,-2.394364028577958825e-01,9.706387429737348485e-03,-2.034311283486851525e-05,2.262997820679316791e-02,1.862378716468811035e-01
-6.574686300715629206e-02,-6.261565675913026430e-02,-1.974794350833127266e-01,7.776384840849805483e-03,1.849237167933511644e-02,1.026457480788447660e-02,1.389214247465133667e-01
-4.021729246656165213e-02,-6.788490068668134869e-02,-2.543946059073928234e-01,3.229018764691731543e-03,-1.181203684912008819e-02,-1.208748038742960766e-04,2.028830647468566895e-01
-5.888707587142372191e-02,-4.371941188908998188e-02,-2.902303691810868003e-01,3.765885842064061991e-04,1.566219528372572245e-03,-4.366534560448481067e-03,2.394236773252487183e-01
-6.905997028349021571e-02,-5.717389378684203938e-02,-1.731399544712330374e-01,7.565941656812776549e-03,3.223875877069852514e-02,2.748257117086190179e-02,1.332915723323822021e-01
-6.848570293199462977e-02,-5.134975699125469972e-02,-2.356827226884727344e-01,8.265682081914034474e-03,-7.431729672584545116e-03,1.705908176238288276e-02,1.798812299966812134e-01
-3.921712518076428400e-02,-6.803888074330660674e-02,-2.736381836526411981e-01,3.096482819058853087e-03,2.563061666540452851e-02,3.098619853173817992e-03,2.259554266929626465e-01
-4.911075116613874969e-02,-5.063255402956817752e-02,-2.896655029272831028e-01,-2.063837283850844962e-03,-3.624257766930846173e-04,-8.251967817671350142e-04,2.398291975259780884e-01
-4.574638629857309680e-02,-6.379295768639274555e-02,-2.913940576030694118e-01,6.920426936539034396e-04,4.277108208677108531e-03,-1.001658698768292900e-03,2.372650206089019775e-01
-3.720277898446350262e-02,-6.471673909052227947e-02,-2.764161041611449821e-01,7.185047381121109460e-04,2.405592576921785145e-02,5.750329816414078907e-03,2.307274043560028076e-01
-3.553525327853163107e-02,-5.796173252336300763e-02,-2.302567507502767952e-01,2.522242521823826831e-03,4.303332025756968077e-02,1.780178648166804182e-03,1.990896314382553101e-01
-5.800897060131279814e-02,-6.424327284036765451e-02,-3.189238829798919372e-01,2.975429011702634876e-03,-1.745463039101381904e-04,-4.461985196048680021e-04,2.579071223735809326e-01
-4.565081286423536278e-02,-5.894080780773183759e-02,-2.882741755010791440e-01,6.003090804670238416e-03,7.336387151181426522e-03,8.570609480873781633e-03,2.372934967279434204e-01
-3.653499871581109004e-02,-5.081524534521861258e-02,-1.205077456840402406e-01,-3.753430559050226559e-03,-1.710702372607746102e-02,-4.815941974292301669e-02,1.180440634489059448e-01
-4.797826498712116916e-02,-5.993676338746463383e-02,-2.879644641934803184e-01,1.108560191466355371e-02,9.736572754635731269e-03,6.676764662192169984e-03,2.359095513820648193e-01
-5.149454494498764690e-02,-5.953925156231201776e-02,-2.874374513965550770e-01,7.692876845022310339e-03,7.373466307758587239e-03,7.581100814535176625e-03,2.331281751394271851e-01
-4.532348083600089284e-02,-6.855096131849848506e-02,-3.076564168548463485e-01,5.169243248545445958e-03,4.624992113045280073e-02,5.646095964871383592e-03,2.643060982227325439e-01
-3.954440517395256538e-02,-5.450965068329161056e-02,-2.378081743076082555e-01,1.038623473860735003e-02,3.078331890460817358e-02,1.619337475309215457e-02,2.012922018766403198e-01
-6.459939355621871493e-02,-6.303421622510806122e-02,-2.903195014014047781e-01,-3.602588233400424739e-03,-5.672443535804307276e-04,-1.283774511613178151e-03,2.266057282686233521e-01
-6.543008433519875711e-02,-6.470146820134758947e-02,-2.909726109392412052e-01,-2.698238809276816072e-03,-9.928885915494786024e-04,-9.124918527561050709e-05,2.259626537561416626e-01
-6.173037084040547406e-02,-6.204280580285133351e-02,-2.891697401774281362e-01,-4.272080957015991776e-03,1.178958942280204165e-04,-1.703278762884483902e-04,2.274040132761001587e-01
-4.504806551688139704e-02,-6.320377641756064202e-02,-2.522770628707194929e-01,-5.008155160692217590e-03,2.692981068923591681e-02,-4.717869767060494518e-03,2.045208066701889038e-01
-5.385220071201887726e-02,-5.538019717083710047e-02,-2.552353543364772603e-01,-1.261380645020286455e-02,2.040783713425570189e-02,-1.747615773310890602e-02,2.071057856082916260e-01
-4.946442624927836762e-02,-5.749916015674814973e-02,-2.564025067537375469e-01,-1.079622908270204060e-02,8.637408833772401012e-03,-1.231376200013037901e-02,2.055568248033523560e-01
-4.513672849133505693e-02,-6.451101604087619568e-02,-2.513020853958762846e-01,-9.799135770156479006e-03,2.671166448135676302e-02,-1.318049040616714809e-02,2.045360505580902100e-01
-4.208787371381038367e-02,-6.380873417923170476e-02,-2.784924093556183644e-01,-3.548256506174522935e-03,8.971241518064443365e-03,-1.483560526569979981e-03,2.269577383995056152e-01
-3.784415407379645990e-02,-6.266059775047728986e-02,-2.707655955127562519e-01,-4.897542289591859561e-03,1.083467403779827393e-02,-2.484213911692197303e-03,2.225547432899475098e-01
-3.736588128085284455e-02,-6.171159367382884203e-02,-2.674571707357398798e-01,-3.010332178207432430e-03,7.444040234736828791e-03,-3.424680308681877193e-03,2.194574922323226929e-01
-3.964887315437792825e-02,-6.481528103071546032e-02,-2.861793770949723204e-01,-3.515046787805001759e-03,8.824728072463320500e-03,-2.364056461350589472e-03,2.355712503194808960e-01
-7.234034043056032648e-02,-4.750282399199848293e-02,-2.561925663968830924e-01,-4.797416549956374371e-03,4.765011000276755601e-03,-3.303103074312857546e-02,2.059011459350585938e-01
-6.852228016554638701e-02,-3.797768876712676045e-02,-2.525326639267669870e-01,-3.189510104513845062e-03,1.321092710231662167e-03,-8.112467347589025213e-03,2.016097903251647949e-01
-6.464707387152317242e-02,-4.668497248154588469e-02,-2.138638920371629393e-01,-5.255165091444607972e-03,7.385598907151636958e-03,-1.747168348367017163e-02,1.625755578279495239e-01
-4.239879005059173089e-02,-6.243649092442166149e-02,-2.866729123258940359e-01,2.208592357268197772e-03,7.018432071884070107e-04,8.604647599047303885e-05,2.349314689636230469e-01
-6.146246683062045468e-02,-3.869575427131607959e-02,-2.864214831891778168e-01,-1.217245891339471028e-03,6.631085550187275184e-04,1.640039644103839095e-03,2.371925264596939087e-01
-6.591462646018267368e-02,-4.778629741591799984e-02,-2.211126301123700622e-01,-5.603547542205348717e-03,6.252456577059704694e-03,-1.794987612858624237e-02,1.685426086187362671e-01
-5.936704929303159017e-02,-4.619802966593813953e-02,-2.196007284904116230e-01,-7.382290247303055324e-03,4.158075391724986442e-03,-1.764558540703518863e-02,1.706101894378662109e-01
-6.731366698074317534e-02,-4.993542785770681280e-02,-2.248356829600253737e-01,8.546010156898025539e-03,1.055903714492053072e-02,1.687412951039380521e-02,1.710568219423294067e-01
-6.498269731776638858e-02,-4.733302746869919031e-02,-2.196513520832448774e-01,5.621292608924913052e-03,4.687100466313100580e-03,1.798875756521403635e-02,1.676163524389266968e-01
-5.917229762936879189e-02,-6.175450382916489178e-02,-3.214910755400430253e-01,1.651334802606963491e-03,2.758197440619622465e-02,3.670718319556393050e-02,2.728977501392364502e-01
-6.755148202247567013e-02,-3.573893205590260302e-02,-2.583025199389777371e-01,6.990331096280331599e-03,1.238184114855288634e-02,2.083670991845898435e-02,2.130147963762283325e-01
-6.280442255979518107e-02,-4.029611666412911963e-02,-2.546552809698646724e-01,5.679874033726075438e-03,-1.025585158073403190e-03,8.980900622028911012e-03,2.048744112253189087e-01
-6.415544405581513621e-02,-4.195483215098645691e-02,-2.670303505858086512e-01,6.186945038604245786e-03,-3.726467183553075534e-04,8.961511768791705773e-03,2.156645953655242920e-01
-6.408717623978431310e-02,-3.936352702514006596e-02,-2.757736749515494190e-01,5.752353845685031532e-03,2.124889593537929286e-04,-1.407180795373053290e-03,2.253029942512512207e-01
-6.286441877499200637e-02,-4.000794203204591226e-02,-2.803888470517924003e-01,-5.223304385929135665e-03,-7.185287289398024912e-03,2.773454250371228461e-02,2.352774590253829956e-01
-6.629667838820835213e-02,-4.012422358817041568e-02,-2.757796863417051880e-01,-2.254290513955969737e-03,-5.850089056705882334e-03,2.101307251152468442e-02,2.269215136766433716e-01
-6.567424846808364580e-02,-3.824765588370961089e-02,-2.719668656421756481e-01,-2.093463492514740631e-03,-1.319491432818016997e-03,7.527912312623743184e-03,2.217095941305160522e-01
-5.975202432683060505e-02,-4.923726715307855106e-02,-2.843950938430660491e-01,-5.310213245948529164e-03,-4.080966321397918803e-03,4.649256691506123244e-03,2.305136471986770630e-01
-5.826330425185129169e-02,-4.516453944766145312e-02,-2.706797351568504539e-01,-7.318867180167130081e-03,-7.120966526562379911e-03,9.837176683840301653e-03,2.206305563449859619e-01
-5.974797365540034794e-02,-5.197672869253217032e-02,-2.480734742562807904e-01,-1.191846026676116749e-02,-9.073862718212992798e-03,1.569575322196527928e-02,1.959659010171890259e-01
-6.067177903469324340e-02,-6.477491901407740615e-02,-2.924929089746191035e-01,-3.844769143758542448e-03,-3.496717038782890625e-04,4.833777323791571610e-04,2.298958301544189453e-01
-7.570907600516424418e-02,-6.590045066980781963e-02,-3.080565573337712415e-01,-1.196282077919000840e-02,3.135818309775498074e-03,-8.487643622384520234e-04,2.383727282285690308e-01
-7.646218938891266581e-02,-6.582816146290033921e-02,-3.551172624405507516e-01,-7.505183238641322321e-03,4.349345711052931933e-03,7.159593139221646918e-04,2.845210433006286621e-01
-3.580689485099328162e-02,-6.100465311031436078e-02,-2.830962259132190351e-01,2.815155371060332808e-03,-4.216114821213085462e-04,5.639588515172536506e-05,2.357543706893920898e-01
-6.926622135439748640e-02,-6.472623469082368353e-02,-2.903591571291513906e-01,-6.164483367256535194e-03,-1.694898274780016470e-03,-2.050448591489606714e-03,2.237000018358230591e-01
-7.400334578499756510e-02,-5.941724121146685356e-02,-2.949810726318989884e-01,-7.768425826055675061e-03,-7.185658074389221495e-04,2.720241555732382834e-03,2.290674746036529541e-01
-6.946453315115280747e-02,-5.909251871610396445e-02,-3.203182757134679370e-01,-2.863372476969112523e-03,-3.056097188279773957e-03,-1.262832772456882937e-03,2.563092708587646484e-01
-5.879823967397898588e-02,-4.144733920758980616e-02,-2.877491987296374454e-01,4.527019113835437786e-03,1.077545243284990309e-03,6.020342389036816358e-03,2.384655028581619263e-01
-8.013827240908255600e-02,-7.808157701893525537e-02,-4.777160388457247775e-01,5.922505946208730075e-03,-4.459860875906061090e-02,-7.403530218548926012e-02,4.259178638458251953e-01
-5.881068779105058653e-02,-4.663957932607587509e-02,-2.855035453791033850e-01,2.078190193145908280e-03,1.979504738133485743e-03,8.611798658746060674e-04,2.330747246742248535e-01
-5.997292391095737640e-02,-5.310660085774893124e-02,-2.999275217184002584e-01,5.494566165707657004e-03,3.837625602624131042e-03,4.837803966804702163e-03,2.438809722661972046e-01
-5.660834156645960791e-02,-4.075977791961676866e-02,-2.819169759051776136e-01,6.385730746597568543e-03,1.487356085575037516e-03,3.065961868235639060e-03,2.339725345373153687e-01
-3.726969070515215310e-02,-6.548651996769908057e-02,-2.860446653425625096e-01,-4.842112949844499690e-04,-2.355611393752779156e-03,-6.560182084892961056e-04,2.359749525785446167e-01
-6.553827932930512967e-02,-4.254615596270250322e-02,-2.765055229336456089e-01,4.871791031476778965e-03,6.055163845058721475e-03,1.100038332121086246e-02,2.245676368474960327e-01
-5.795620160489201034e-02,-4.561688338434374823e-02,-2.787642704932818960e-01,4.587880023929603000e-03,1.246704461895683982e-03,6.975908145862421382e-03,2.276991009712219238e-01
-5.789125669672159913e-02,-5.344671124748268110e-02,-2.833778067262633926e-01,3.230272425166357160e-04,-3.020341295894195602e-03,-1.880389940749657707e-02,2.301185876131057739e-01
-5.461985113638670453e-02,-4.962083243247977782e-02,-2.727038240457455021e-01,7.884200816631145581e-03,-7.895058967933969024e-03,-8.715698171894631363e-03,2.219846397638320923e-01
-5.996747346204142626e-02,-4.178173755451408677e-02,-2.761591920458711935e-01,4.746523029991012166e-03,-6.653423409516713398e-03,-1.202028654137753810e-02,2.272334545850753784e-01
-5.990641863851230153e-02,-4.665853008475068231e-02,-2.772796020205475775e-01,5.838157114786145067e-03,-3.457909393941548115e-03,-6.920265446847266751e-03,2.249180674552917480e-01
-6.220050903788548746e-02,-6.533256716182672674e-02,-2.870332965917632428e-01,7.887452849205914447e-04,-5.688873570466597245e-04,2.201896717876563757e-04,2.232899069786071777e-01
-6.525937338390147557e-02,-4.341432910339734774e-02,-2.808682644618236135e-01,9.507412859803804350e-03,-1.563848057609580622e-02,-3.406473126695577086e-02,2.369819879531860352e-01
-6.401908465829395101e-02,-4.253464993993349985e-02,-2.629786752099497749e-01,7.579582256157577427e-03,-2.083223737583052987e-02,-3.559273005476065038e-02,2.227012813091278076e-01
-5.981150592215946082e-02,-5.063676468972747036e-02,-2.741872390905685242e-01,6.240811462878403763e-03,-5.810623056570539055e-03,-1.108961872499599800e-02,2.204428315162658691e-01
-6.143735853331985797e-02,-5.372451038188395117e-02,-1.930913086627484565e-01,-1.220156905226989046e-02,-2.608548798055702889e-02,3.541639037339741614e-02,1.570306718349456787e-01
-5.942658642254781964e-02,-5.252139107264894996e-02,-1.788962232884982462e-01,-1.375668673683086776e-02,-3.035319130852344449e-02,3.530621130736012747e-02,1.490533798933029175e-01
-5.201596950976386524e-02,-6.752414822852459420e-02,-1.724131435150564884e-01,-3.010859246863635281e-03,-3.252284706408128251e-02,1.555161978497867151e-02,1.295947730541229248e-01
-4.610476085051246065e-02,-6.307790812582148021e-02,-2.736553614005575175e-01,9.735733798170557313e-03,-5.404156506359213477e-03,-1.205800512036090972e-03,2.204119861125946045e-01
-4.723182797271451017e-02,-6.114144670878063348e-02,-2.058068715918787150e-01,-1.079307532355509511e-02,-1.346843417553106499e-02,6.443169625234233637e-03,1.554091870784759521e-01
-4.381222470806515196e-02,-5.946420087130875609e-02,-1.759124361819769389e-01,-9.776836532685601044e-03,-3.531456785290418288e-02,1.658925007416293951e-02,1.431137472391128540e-01
-4.999887516834120027e-02,-5.232016868090587358e-02,-2.311190754634014910e-01,-1.127209523528605907e-02,-1.425488008278763541e-02,2.279674783348205336e-02,1.869206875562667847e-01
-6.280288797737931805e-02,-7.546024306477266963e-02,-2.046512862549635936e-01,-5.171092802353422814e-03,-2.357801474954674542e-02,1.573386559532993778e-02,1.448323279619216919e-01
-6.480627559107335345e-02,-6.849264895234198625e-02,-1.906357147655547979e-01,-7.733181526709174969e-03,-2.169664024535655072e-02,2.518214411387574916e-02,1.373930275440216064e-01
-5.671071258177531882e-02,-5.073213808201332276e-02,-2.275944301618920973e-01,-1.030894636008469582e-02,-1.570502396856754065e-02,1.876815155390534201e-02,1.799281090497970581e-01
-4.917015325291095029e-02,-5.295182141367710260e-02,-2.471982673121954632e-01,-1.089222238991055525e-02,4.012068309270239164e-02,-2.652315588575485106e-02,2.139530777931213379e-01
-6.055176879245172117e-02,-5.992997267372834891e-02,-2.907537069513060901e-01,2.981218868105935333e-04,1.413984227789518659e-03,-2.138872416064289787e-03,2.305568158626556396e-01
-6.057583359003640422e-02,-5.917581175765236623e-02,-2.908405422340779034e-01,-4.180388722861395033e-04,-1.281995099510012392e-03,-2.894898018158748726e-03,2.310341298580169678e-01
-5.207859418279195407e-02,-5.632893667245246483e-02,-2.707306604249186677e-01,-1.131574526585004542e-02,9.901256161699997782e-03,-1.492101638752619565e-02,2.196442484855651855e-01
-4.950663060624924117e-02,-5.544668535425427425e-02,-2.946430949844552893e-01,-1.014988265186310239e-02,1.338674919419227845e-02,-1.228790075519074418e-02,2.448891550302505493e-01
-5.585308545553346882e-02,-5.195516754013169980e-02,-2.650847377728787202e-01,-1.447954741779030295e-02,3.804654396872982069e-02,-2.626342938103798375e-02,2.272653430700302124e-01
-5.674489130208217047e-02,-5.358902435409776399e-02,-2.952103417681704034e-01,-7.888026480687688677e-03,4.347115120165637018e-04,-5.839479540322439419e-03,2.406612187623977661e-01
-5.191986471560904037e-02,-4.890576816161944229e-02,-2.682244940541612110e-01,-8.004631686353933656e-03,1.035453586783093363e-02,-8.163941460542233769e-03,2.194596976041793823e-01
-6.182673268821002599e-02,-4.618155607522156370e-02,-2.902714360276230643e-01,-1.279066926464274452e-02,2.195560967491237692e-02,-5.119298279729853074e-02,2.565247118473052979e-01
-5.420373062918411311e-02,-4.802949492490274364e-02,-2.771609009182374184e-01,-7.105338664327022317e-03,1.967815321773486517e-02,-3.178368503632865438e-02,2.355172336101531982e-01
-6.471525821897503028e-02,-6.606525189808687415e-02,-2.880946824394708394e-01,-3.130205688184116951e-03,1.516418012976360121e-04,-1.970475362985564984e-06,2.227736413478851318e-01
-6.422872212579491813e-02,-6.744253346413836558e-02,-2.914361021011566688e-01,-4.669822215234480968e-03,-2.087475375909592014e-04,1.128228454793901344e-05,2.257628738880157471e-01
-6.412236081645213137e-02,-7.174586117678787012e-02,-3.054618656098089247e-01,-6.526867164290157432e-03,4.595209546316136591e-04,-1.123564884307760121e-03,2.378975450992584229e-01
-6.516721700614722113e-02,-6.450255260128646972e-02,-2.929189078292658843e-01,-3.966062996708961258e-03,2.712801706919423968e-03,3.427069238633478898e-03,2.283137142658233643e-01
-6.394717041219229181e-02,-4.138330017993591126e-02,-2.833105183058469700e-01,3.678027781240022272e-03,-2.031515919673848591e-03,4.455929135972173591e-03,2.317145317792892456e-01
-5.643038414401958802e-02,-4.413213413595611090e-02,-2.717730305368977750e-01,8.476581779604206238e-03,6.840870061902289481e-03,1.206000666389804490e-03,2.225586473941802979e-01
-6.527330505051673337e-02,-4.814061892107479590e-02,-2.440271500734853549e-01,7.322109294826770025e-03,9.713592169661104669e-03,2.207811279016179580e-03,1.891230344772338867e-01
-5.844248315567353302e-02,-4.680994302613439295e-02,-2.681400334652936923e-01,9.761675999578995136e-03,1.688664528858882172e-02,2.223200128235217066e-02,2.217472195625305176e-01
-6.457190115662965468e-02,-4.925551999986896301e-02,-2.249400460056905637e-01,9.984682645999238410e-03,5.042545388164785744e-03,1.142520580770662632e-02,1.708091348409652710e-01
-5.011425830801512216e-02,-4.929705900675018793e-02,-2.389080648167682952e-01,1.085530875853860273e-02,8.667614514947269422e-03,1.120430990114920124e-02,1.917121708393096924e-01
-5.908218368819259658e-02,-4.110571670230325769e-02,-2.886481316418444965e-01,-1.223717862417650348e-03,1.904488632419401866e-04,-2.161709662661048803e-03,2.391005754470825195e-01
-4.105969123184580183e-02,-6.706208929284616926e-02,-2.725019756368981527e-01,1.429851473726828810e-03,9.428755622051098600e-03,8.588445007388201919e-04,2.202240973711013794e-01
-5.758045870801486305e-02,-5.720391252582811975e-02,-2.269870438868951679e-01,9.645557528003579142e-03,3.248578211937594440e-02,2.068351571483813961e-02,1.830055564641952515e-01
-5.264039230579961592e-02,-5.318005111259285767e-02,-2.479124018357756754e-01,1.166523306458569151e-02,9.495815138539667050e-03,1.542813479837721290e-02,1.985419243574142456e-01
-3.865558689087049415e-02,-6.702974364381189543e-02,-2.594556333740228871e-01,-1.037201034090140615e-03,-1.000977037731102387e-02,-1.446387813316166952e-03,2.088129073381423950e-01
-4.453271862784562163e-02,-5.342516491493257136e-02,-2.578186653092582326e-01,8.794672388518597408e-03,1.700324911369262976e-02,5.016941816836709839e-03,2.117739766836166382e-01
-4.711851727985938432e-02,-6.247302881801862495e-02,-2.793909668607766905e-01,9.131136745136840885e-03,6.091182866719920333e-03,3.267918539219660107e-03,2.258612364530563354e-01
-5.091319134740757146e-02,-5.230641929303328497e-02,-2.478949828503385078e-01,1.256129578201323378e-02,9.479051516625083482e-03,1.535003500071419232e-02,1.999477744102478027e-01
-4.811022564468303564e-02,-5.516718241857683502e-02,-2.784730721545204402e-01,9.690280267020786459e-03,1.461016872771097805e-02,6.736621367316520011e-03,2.292365580797195435e-01
-4.743807007901766626e-02,-7.205770088536850304e-02,-3.026102136062407966e-01,-5.859082775007906640e-03,-3.416282473817001258e-02,2.743974063304989094e-02,2.555382549762725830e-01
-4.604270282092925992e-02,-5.845214644201404686e-02,-2.769521210165307723e-01,-2.793697464783436064e-03,-9.024109115697752370e-03,2.184935229221264194e-03,2.255875319242477417e-01
-4.802036206321913525e-02,-5.957710834580162707e-02,-2.903808279541546522e-01,-1.878336810169674168e-03,-1.030826752544356829e-02,-2.617058742906117064e-03,2.375314086675643921e-01
-6.535696224656428743e-02,-6.286178317217097633e-02,-2.987303119313542421e-01,-2.741295912533960651e-03,-1.992914872019744968e-04,3.550016424980992694e-03,2.347597181797027588e-01
-5.187314926428723827e-02,-6.107422538903924114e-02,-2.974614057014136614e-01,-3.098943499326238613e-03,-3.494647234418790400e-03,4.006549707699651360e-03,2.413548827171325684e-01
-5.054550227865153844e-02,-6.850143446587778073e-02,-2.992590047597962766e-01,-7.745626143250914850e-03,-2.525176721633356700e-02,7.435086795243813114e-03,2.448953241109848022e-01
-4.765375756073381153e-02,-6.114560379081640518e-02,-2.639412593007970376e-01,-3.911159131265957295e-03,-1.692550674318737958e-02,3.694215890076454640e-03,2.121095210313796997e-01
-5.465706409647694275e-02,-5.777448950428948349e-02,-3.001040764071351008e-01,1.155489574709823997e-03,3.979203205552820158e-03,1.132238206550780424e-03,2.440166920423507690e-01
-6.485706518849045088e-02,-6.525603369131510734e-02,-3.054320410562111343e-01,-4.786190507521752985e-03,-1.803106855424899384e-03,-2.948207604015638285e-03,2.405931204557418823e-01
-6.770627795143917271e-02,-7.167194007904130471e-02,-3.284175543884850779e-01,-9.334182787013006743e-03,1.919823745694652483e-03,-6.594861041252636329e-03,2.595286369323730469e-01
-6.483712019268550453e-02,-5.889152242045940511e-02,-3.005157810153342712e-01,-2.079918547311189036e-03,5.891645368406302902e-03,1.352957105700495349e-04,2.389522939920425415e-01
-7.158454520576676416e-02,-5.731438335608349255e-02,-1.029323925582044108e-01,6.117404536087037506e-03,7.020287138418027095e-02,-3.502421909050493221e-02,1.421666294336318970e-01
-5.752968392834300476e-02,-5.806112471537015068e-02,-3.877949882899222461e-02,6.063490204759539991e-04,1.391677209731133173e-02,-4.273854303621064596e-03,3.160295262932777405e-02
-6.265854257865972887e-02,-7.730568003298754487e-02,-1.433475103180441301e-01,-1.144962554246827489e-03,2.361616758798039742e-02,-9.536834768657896774e-04,8.498951047658920288e-02
-6.463367064190637945e-02,-7.026771404820320033e-02,-2.029138232607620718e-01,-7.104191527928700907e-03,1.894105014731096992e-02,-8.155622302173624188e-03,1.407171189785003662e-01
-5.534325047516340523e-02,-6.907939472399923786e-02,-1.793583789439878728e-01,-8.034778785895750619e-03,3.750377500023883981e-02,-3.054206499051043827e-02,1.451780647039413452e-01
-5.728876098692048391e-02,-6.413226978501339326e-02,-1.923001302001471347e-01,-4.893836614016884579e-03,4.332318933745835099e-02,-2.095903857609372409e-02,1.561132371425628662e-01
-6.015484556123411319e-02,-4.617139960360264195e-02,-2.998524068545214138e-01,6.531783803265791763e-04,-2.298245691109873678e-04,1.110894820139980525e-02,2.477376013994216919e-01
-5.916709246903491259e-02,-4.219379686140342645e-02,-2.881132273298920299e-01,-8.768449321773286176e-03,-1.502440456208521506e-02,4.246965410990077849e-02,2.508172094821929932e-01
-6.355354428032267133e-02,-4.358790960574288054e-02,-2.921250868384323574e-01,5.425568340949591447e-04,1.286667507852898643e-03,1.450917602487209954e-02,2.405089437961578369e-01
-5.941409660804650161e-02,-6.009027914956445449e-02,-2.881644368718459526e-01,3.326787069035589523e-04,-6.073724770632716024e-04,-9.229904891872279952e-04,2.284217476844787598e-01
-5.794768204417144464e-02,-4.918721519243797469e-02,-2.878606457833757792e-01,-2.726102106288714588e-03,5.255996338536013000e-04,1.288591198043544279e-02,2.355252057313919067e-01
-6.159611805192310996e-02,-4.510979596548525539e-02,-2.832086964252671368e-01,-7.738319785170197536e-03,-4.163994725451863367e-03,1.816055257311099957e-02,2.329347282648086548e-01
-5.425338235545632687e-02,-3.595362528952945891e-02,-2.276942584163884620e-01,-6.436123233090965123e-03,-3.680215703434489005e-02,3.457274096790587808e-02,2.033810168504714966e-01
-7.355438259232863207e-02,-6.165770106456699984e-02,-3.395034847722584459e-01,4.079272459648296961e-03,-1.786517132842556669e-03,2.981352471384231609e-04,2.722023725509643555e-01
-6.792666172715836059e-02,-5.666271450507881502e-02,-3.012922795466670411e-01,1.167412344551144610e-03,2.592042276345274485e-03,-3.185745094215643018e-04,2.392478883266448975e-01
-8.062593087345604204e-02,-5.917987546606887084e-02,-2.994845648322292941e-01,-1.283138448496250195e-03,3.787679172258753661e-03,8.234127657142721905e-04,2.304402291774749756e-01
-7.738461078460437403e-02,-6.174522151890506072e-02,-3.379243805160471181e-01,-1.419751391549834026e-04,-2.705409415408738857e-03,2.555368856631627748e-03,2.687784433364868164e-01
-4.723096707072209355e-02,-4.691006541785878309e-02,-2.163268414549423257e-01,-1.211438130364097393e-02,-3.298640255554534384e-02,3.319676500534178565e-02,1.888344287872314453e-01
-4.811100019513489534e-02,-6.330084835230401219e-02,-2.713080945419189538e-01,-1.409820026535574776e-02,-2.247908647957237716e-02,9.516472588307017463e-03,2.214525640010833740e-01
-5.212307615272994410e-02,-5.230602267422411467e-02,-2.440105810150369758e-01,-1.180373620634779172e-02,-7.812487710261064276e-03,2.391974151515718211e-02,1.977455317974090576e-01
-5.616075344962109805e-02,-6.133596864744999405e-02,-1.666996535534513990e-01,-1.034248135332929350e-02,-3.517362855892584850e-02,1.716533512726936203e-02,1.288020461797714233e-01
-4.544708538519677543e-02,-5.952690985131120494e-02,-2.068571226388576934e-01,-6.101110975690745945e-03,-5.197210501693969031e-02,1.937472111722847532e-03,1.794576495885848999e-01
-3.408300009749630488e-02,-6.046952079564417437e-02,-2.801104825779194285e-01,-9.811430594366638697e-03,-2.686777591890500069e-02,4.760773481979950136e-03,2.392830550670623779e-01
-4.028162373587425293e-02,-6.364306333739871979e-02,-2.462506564729370628e-01,-5.653203996799600201e-03,-1.805477056506056555e-02,-1.015806087619316057e-03,1.980761587619781494e-01
-6.714995692051889398e-02,-7.497985892570248334e-02,-3.035293295645079548e-01,-2.043289042090673177e-03,-3.109400681700243835e-02,-9.360044639546596934e-02,2.885859608650207520e-01
-5.907376526343221385e-02,-5.165342885408299306e-02,-1.824557561220088719e-01,-2.826324807082955005e-03,-4.047774519876596385e-04,-6.604703220144324260e-02,1.711864471435546875e-01
-6.800720555822722946e-02,-6.125627765071656183e-02,-2.974469093222865679e-01,-6.247388450811764858e-04,-2.262274709744055944e-03,-3.043817017423932139e-02,2.388159483671188354e-01
-5.153903601202629303e-02,-4.419986143356637726e-02,-2.134997034607395150e-01,-2.388873453495679935e-03,1.133724155268908337e-02,-4.188444040353729581e-02,1.820423454046249390e-01
-6.509761874302694151e-02,-4.790037217620821131e-02,-2.898101802280713679e-01,-2.061726563590699987e-03,7.187902048638757221e-04,-3.424590100881728938e-02,2.412230670452117920e-01
-6.494507675210942077e-02,-4.575154818627673314e-02,-2.888730932988050615e-01,-1.788563612374225722e-03,-1.066824268443430316e-03,-3.770744474758112863e-02,2.430816441774368286e-01
-7.524838496202645999e-02,-4.914477390962961045e-02,-2.946360275324467204e-01,2.498647603769737872e-03,-1.292366033776349210e-03,-3.319193839002212987e-02,2.405576854944229126e-01
-5.481562829482514165e-02,-5.392687531730194772e-02,-2.890051249141526446e-01,4.105095828023134011e-03,4.639399354411774881e-03,3.815801899440415985e-03,2.349733114242553711e-01
-5.671813853038697173e-02,-4.930575830946709592e-02,-2.875293378163638058e-01,7.023841949426399764e-03,1.758962198137022396e-03,9.252280881263881193e-03,2.354861199855804443e-01
-5.724555908228044776e-02,-5.625924583236507903e-02,-2.930030905201941316e-01,2.776635172460741388e-03,-1.595706584254305213e-03,-2.414986028461480177e-03,2.363543510437011719e-01
-5.530633366845434662e-02,-5.797970105298685950e-02,-2.901200328902116543e-01,4.506407882401692114e-03,4.542347490916181368e-03,4.305910024921194915e-03,2.338703125715255737e-01
-5.334856907137527915e-02,-5.570664693363253095e-02,-2.921610893540103060e-01,2.248752914381572758e-03,-1.614344361643291681e-03,-2.272283215212461075e-03,2.377232015132904053e-01
-4.394974797264612765e-02,-6.146802302873446977e-02,-2.833842635250541364e-01,-8.392534668120558983e-03,1.699227284756048631e-02,-6.007883538620705649e-03,2.337244004011154175e-01
-5.511771284948092930e-02,-4.933944727442621248e-02,-2.897252182315830371e-01,-8.587105123203146728e-03,7.923730968542985753e-03,-9.011250736103246228e-03,2.389202266931533813e-01
-4.517332376325455812e-02,-5.879747402125880262e-02,-2.888546254655762202e-01,-8.247447130491022266e-03,1.521293106627503132e-02,-6.379086635591931474e-03,2.393045872449874878e-01
-5.761104070276351630e-02,-4.876732939726924343e-02,-2.843473654062561584e-01,-8.690112794638014948e-03,3.307461394315257784e-03,-1.013445711815910005e-02,2.325086146593093872e-01
-5.958782839494156103e-02,-5.325586947220328771e-02,-2.807104439205247992e-01,-9.108515803181005399e-03,1.422970150244316084e-02,-1.074562757501591227e-02,2.270202636718750000e-01
-5.292285748913246740e-02,-5.179408249233637129e-02,-2.397108947330786055e-01,-1.356468339405041829e-02,1.964685660790751673e-02,-2.527427856415418242e-02,1.967949569225311279e-01
-5.840955711997129762e-02,-5.024777124260072780e-02,-2.653765069408001165e-01,-8.860495120711370937e-03,7.511300077269293662e-03,-1.458879838180707038e-02,2.136221826076507568e-01
-6.299291927462868923e-02,-5.996183194178940357e-02,-2.996307472664552218e-01,-1.437223199276855060e-03,-1.142322872135012601e-02,-5.781512864742186647e-03,2.392109185457229614e-01
-7.176174990551681399e-02,-5.837978324637713157e-02,-3.227094831831543997e-01,-1.324379936395194551e-03,3.338694566656470568e-03,-1.759921628949832331e-03,2.579922676086425781e-01
-7.064656466428537174e-02,-6.092526349789657847e-02,-3.120131958393899674e-01,-4.763892337099419165e-03,2.021345536089924101e-03,9.529736518637452452e-04,2.465396821498870850e-01
-7.204279205710245604e-02,-6.555755495471130012e-02,-3.425003517630487160e-01,-2.270783110617019193e-03,-2.106508003972299477e-03,-7.047203792404871901e-03,2.740823030471801758e-01
-7.054458885415304525e-02,-6.324409909540273933e-02,-3.046785732258761037e-01,-5.199169472093883096e-03,-5.507820168168007374e-03,-2.579553665017356341e-03,2.382716387510299683e-01
-6.109064270830658061e-02,-6.440139536269370857e-02,-2.889508895316159620e-01,-2.344297794863594610e-03,-5.525083858243619913e-04,-1.302789173143932729e-03,2.262727469205856323e-01
-7.074860151234360628e-02,-6.304899696564122968e-02,-3.031425273993072489e-01,-4.134619201011931894e-03,-1.288947035548530513e-04,-2.473412183258865468e-03,2.364851981401443481e-01
-7.027564059240976047e-02,-6.523854652787358654e-02,-2.913579043972248095e-01,5.484597302145301743e-03,1.478770146922441572e-03,-1.962771700548295462e-03,2.238854914903640747e-01
-7.768029315983004945e-02,-7.094146103308715534e-02,-3.513349931818002814e-01,2.010388857061929779e-03,8.504398472711816037e-02,1.484422349227698147e-02,3.148762285709381104e-01
-5.324655489876220504e-02,-5.805924408363785649e-02,-2.907278221807975127e-01,-4.857874932398272938e-04,1.064480784174217341e-03,1.154059868781038027e-03,2.351291030645370483e-01
-6.824988363717066076e-02,-6.523072538698068690e-02,-2.911750711252381052e-01,4.839468661975403728e-03,1.141660233739889927e-03,-1.474029409583873726e-03,2.246296703815460205e-01
-6.276754585706677270e-02,-5.936288178173182439e-02,-2.922442534480764742e-01,1.930603767926631926e-03,-8.666766933228074038e-04,-4.148940114917556965e-04,2.312280088663101196e-01
-6.202000596479283201e-02,-6.298166899767500271e-02,-2.874721924954261043e-01,1.213560942353649787e-03,3.118416175160791085e-04,-1.772665019888097391e-04,2.249835729598999023e-01
-6.325723988691135669e-02,-6.423751728618248835e-02,-2.878425968985572903e-01,2.148774294794006910e-03,-2.784080492369465053e-04,5.391212957937933665e-04,2.241301983594894409e-01
-6.244952031433867456e-02,-6.502247973722832808e-02,-2.880455053077976002e-01,2.547667598744618759e-04,6.182684749663839826e-04,-2.941418162387634161e-04,2.243241369724273682e-01
-6.497290028002303264e-02,-6.339702670045502253e-02,-2.929414730000272082e-01,2.067982274531748356e-03,3.029923072279980950e-03,-2.680986916816040840e-03,2.288959026336669922e-01
-6.437812368303504063e-02,-6.308538615126127458e-02,-2.925079662610476916e-01,2.976232779295356640e-03,2.682192968885901540e-03,-3.794621269894795940e-03,2.289785146713256836e-01
-4.057541376661515098e-02,-5.647026095241847177e-02,-2.834083061741137777e-01,-2.398020602633930878e-03,-1.028805625522489966e-03,8.780424755788217598e-04,2.353367954492568970e-01
-5.190966445988500627e-02,-7.185642953991300264e-02,-1.940550510021768760e-01,-1.030210044910338622e-03,4.420032293105827237e-02,5.102738074154332740e-03,1.539810001850128174e-01
-6.730924453460049306e-02,-4.097532744507528107e-02,-1.816191831443307314e-01,8.100287131036651650e-04,3.509250776536890128e-03,-3.665475927925435085e-02,1.443609744310379028e-01
-6.791912143438567917e-02,-5.070739118879937640e-02,-2.206410026323095408e-01,-1.276691207459237920e-02,1.233494693933410470e-02,-3.933924500028533611e-02,1.784292310476303101e-01
-7.141647208038853778e-02,-4.922495878700929028e-02,-2.448809219410366111e-01,-2.069350019474783947e-03,-1.175071728586447872e-03,-3.118367231081991056e-02,1.933030486106872559e-01
-6.882568334767628915e-02,-6.469185233806579172e-02,-1.976267950075152324e-01,-8.164058477272213149e-03,8.014749608564342848e-03,-2.116504089022468865e-02,1.373892277479171753e-01
-7.233165385413108106e-02,-6.027957447356893650e-02,-1.624812738117070166e-01,-4.297973003553015592e-03,2.948949399600421170e-02,-4.098573667241607599e-02,1.306234896183013916e-01
-5.932823639001623406e-02,-6.012951169182083333e-02,-3.259346673958299911e-01,4.505723009447444236e-03,-1.722556594934761612e-02,2.062401826113366421e-02,2.703574001789093018e-01
-6.233997462419717250e-02,-5.986723336933277850e-02,-2.987149241931874588e-01,1.426926113889171984e-03,-2.991450387122877256e-03,3.385092026954817420e-03,2.377626001834869385e-01
-5.225579074651186262e-02,-6.573506395017066073e-02,-3.160127392109025601e-01,1.942686821898524825e-03,-1.406797009732699624e-02,-1.215225973767493015e-02,2.593111097812652588e-01
-6.235020721703266044e-02,-5.652804372716799253e-02,-2.841210550737265361e-01,-8.810007245580518502e-04,2.864551617172721686e-03,-4.368177587096200645e-03,2.249257266521453857e-01
-6.647771899829654774e-02,-6.077786490514391904e-02,-2.977005116749743552e-01,-2.155275041990099610e-04,-6.318002582820697599e-03,2.404282653559378482e-04,2.343810349702835083e-01
-4.041132022230271847e-02,-5.601080070430555780e-02,-2.835989597678981733e-01,-1.236665829365951640e-03,-2.361489321342306587e-04,-4.163468174214701939e-04,2.357864379882812500e-01
-5.285904784054676342e-02,-6.175320613311452433e-02,-3.257860898413630357e-01,9.287074525321459490e-04,-1.487046866668318042e-02,4.735798786867992036e-03,2.699519991874694824e-01
-5.080128616472889824e-02,-5.111762332060018621e-02,-2.913338289624219923e-01,1.996840447816259387e-04,-5.417878201859932952e-04,-1.897012038408770580e-04,2.403768301010131836e-01
-6.303028421364435807e-02,-6.909005115008995390e-02,-3.401043033038241292e-01,4.653267062773999534e-03,3.621626808069461790e-03,-5.350851264864698751e-04,2.742861509323120117e-01
-6.285560775551102264e-02,-6.651611562844986225e-02,-3.049924554170053148e-01,4.978338205913130851e-03,1.816101182382435630e-03,-9.336451552884827932e-04,2.405081540346145630e-01
-5.705419042452199163e-02,-7.364582660458557362e-02,-3.030384426747448900e-01,3.761418433327523483e-03,-1.429846947034299313e-03,2.881687237149960223e-03,2.382766157388687134e-01
-6.162313705075023185e-02,-6.861581143137501781e-02,-3.017964275655379280e-01,3.083608958674308610e-03,3.612446511057549638e-03,-2.333817364527492576e-03,2.369317859411239624e-01
-5.951071814344666144e-02,-5.919133911992806307e-02,-2.911815704609497790e-01,2.179719475583559614e-04,1.613926053491558524e-03,2.796104085286146845e-03,2.318984419107437134e-01
-5.497500534559751628e-02,-5.773795708292767115e-02,-2.899096968095560833e-01,5.041102395045772566e-03,-1.590801072581547087e-03,-1.762307392245107771e-03,2.337647974491119385e-01
-5.174644532684546938e-02,-5.274536698444376448e-02,-2.876470751943337456e-01,5.150145646017326509e-03,-4.805569752207005871e-03,1.485076448526580564e-03,2.357327491044998169e-01
-4.883632366283424675e-02,-5.644984507767186743e-02,-2.881915909691721289e-01,3.288100915554285561e-03,-1.364973279312261915e-03,-1.813632296797679450e-03,2.357423752546310425e-01
-5.708909700667347265e-02,-5.754469514317814283e-02,-2.921135026143285573e-01,2.340934104127464273e-03,-7.249611453393730101e-04,-1.407233978816326957e-03,2.348479479551315308e-01
-5.413606897758460601e-02,-5.733179356447240527e-02,-2.887681248177130233e-01,2.487492779997779041e-03,-3.284625770076838019e-03,-2.328591683317456085e-03,2.331947535276412964e-01
-4.371701673181452308e-02,-5.898693581118834295e-02,-2.730404864266070541e-01,8.088432866723782588e-03,-6.098100950919600402e-03,-4.050036613756472642e-03,2.228849679231643677e-01
-4.695571043224702756e-02,-5.598414024905956632e-02,-2.863723704427143524e-01,5.631836255839687416e-03,-4.196670921380001376e-03,-5.365814440229616650e-03,2.355305850505828857e-01
-5.261715024074532787e-02,-5.303957841610969226e-02,-2.749249095926214470e-01,9.534211589245333851e-03,-9.786565624239138353e-03,-6.521208455818240483e-03,2.236394882202148438e-01
-6.143493485106617247e-02,-6.962426236191521234e-02,-9.620133094110752681e-02,-8.582144086084951768e-04,6.663875877547864590e-02,-3.826672751737049925e-03,1.198305711150169373e-01
-4.645804300922425079e-02,-5.686734185585634593e-02,-2.626143858265058140e-01,9.781295925673469047e-03,-9.870877570092372738e-03,-3.674149444201516533e-03,2.126069217920303345e-01
-4.297646315264817829e-02,-6.406091263679550285e-02,-2.629499349293858979e-01,8.598617915403341042e-03,-2.042728666090591616e-02,-1.092159636157779071e-02,2.145375013351440430e-01
-4.668328909882846212e-02,-6.008300210056025104e-02,-2.836031321565765095e-01,8.865632929841053139e-03,-1.630210331816743866e-02,-5.825032467783834191e-03,2.329608798027038574e-01
-5.924933133203495739e-02,-7.011138006692396729e-02,-2.941332458430779284e-01,3.981104808737917847e-03,-1.448911420965013491e-03,4.871390564436878169e-04,2.297643870115280151e-01
-7.678174861928527273e-02,-7.622328409445576491e-02,-1.665309994465805077e-01,4.270526316674416365e-04,1.038131204403228321e-02,2.509796176341935747e-03,9.191366285085678101e-02
-6.417110859501939935e-02,-6.768187270682467227e-02,-3.305679630844065020e-01,3.836573432303165727e-03,1.711900696200035913e-03,1.065745355843269234e-03,2.647653818130493164e-01
-4.489455129050130833e-02,-6.947061747301636059e-02,-2.532152527571968070e-01,-5.872042476353050815e-03,-2.084301042259316394e-02,1.184268587762326262e-02,2.017654031515121460e-01
-5.754780272100180893e-02,-7.141613601269641842e-02,-1.978973399618092488e-01,-3.737965373206537933e-03,-3.071218879758144324e-02,4.823646345542326533e-03,1.445176303386688232e-01
-4.082131335969405028e-02,-6.514195105497955218e-02,-2.605786596380217368e-01,-2.121020111677976265e-03,-2.367019850063539418e-02,4.362453245115015601e-03,2.128181606531143188e-01
-4.181348270949070134e-02,-6.965172305852117274e-02,-2.665371827559063211e-01,-3.448452389472193066e-03,-2.450191831691801020e-02,6.596503069381692320e-04,2.164666503667831421e-01
-4.487915859308026084e-02,-6.296950719479049718e-02,-1.970102999639891661e-01,4.904898048519187349e-03,-3.985875275723479993e-02,-7.148758514888187490e-03,1.603455245494842529e-01
-6.392624831243720607e-02,-7.168841981226527216e-02,-1.573920393569998022e-01,4.707736892095533421e-03,-3.334615365251827890e-02,-4.959757343373201802e-03,1.074559986591339111e-01
-4.115652045760549715e-02,-6.995089887871545897e-02,-2.163138723733134539e-01,-3.669381455529798115e-03,-4.786862135475633551e-02,-7.085907344483512692e-03,1.831144541501998901e-01
-6.534571191655158540e-02,-6.236265869431026343e-02,-3.033307313324849486e-01,-3.534613612310570120e-03,-1.280395035268763314e-03,-5.030807693241476364e-03,2.397373914718627930e-01
-6.286293522765648567e-02,-6.021411993064573753e-02,-3.004582006860177512e-01,-5.230188074528496853e-04,-1.432537480279338872e-03,1.083176170418591712e-03,2.389526516199111938e-01
-6.802653727739126077e-02,-6.601548220225779418e-02,-3.019591661715573805e-01,-5.583958924271666124e-03,-8.977688986113788877e-03,1.566720549489514398e-03,2.356728017330169678e-01
-6.129337207611665339e-02,-6.017595242404866207e-02,-3.001907962262039264e-01,-3.499473322700217149e-03,-9.314464056500617716e-04,-5.119142298948673895e-04,2.395418584346771240e-01
-5.728758354980562073e-02,-5.803914434573716197e-02,-2.911095040837738401e-01,2.793144789060192628e-03,4.259427860999306231e-03,3.248622811743082095e-03,2.336814403533935547e-01
-5.594202272542850296e-02,-5.786210087676887937e-02,-2.862339552385012587e-01,1.586123618587889075e-03,6.133943096188292782e-03,2.192428538942713979e-03,2.296317219734191895e-01
-6.415876611376235272e-02,-7.020357389803408288e-02,-3.005627162787921081e-01,3.431780116989256550e-03,-6.498333973575525120e-04,-1.299577275847529391e-03,2.335294783115386963e-01
-6.479877467302300187e-02,-6.185133867244056727e-02,-2.889275020770287750e-01,2.540927072550323070e-03,-7.994276866987613459e-04,1.231546223139053271e-03,2.256741374731063843e-01
-6.503123498404099478e-02,-6.506165447642672794e-02,-2.919176280878012508e-01,2.337547706944043818e-03,-9.027070046482445057e-05,1.110418062878370865e-03,2.269155085086822510e-01
-5.031980788299009189e-02,-5.153012668165893317e-02,-2.922155641585955088e-01,5.217816440125661731e-04,6.999348082586179774e-05,-9.092543549424353258e-05,2.412946522235870361e-01
-6.453373028102510345e-02,-6.434640970218619138e-02,-2.888028876779585863e-01,2.695007359068836861e-03,-8.106198969795910250e-04,3.834419065491909031e-04,2.244168072938919067e-01
-6.128825492616982867e-02,-5.107844306369539733e-02,-2.564453429119626371e-01,8.401480269205851420e-03,1.918487557255907187e-04,9.319683671756047319e-04,2.009913325309753418e-01
-5.811726660425091395e-02,-5.633006773084399399e-02,-3.205263809554296239e-01,6.274952891751270356e-03,1.982031773007160089e-02,1.431216995378381193e-02,2.669117748737335205e-01
-5.926424450152373291e-02,-5.770081765240009375e-02,-2.988122792128894423e-01,-1.738539747450478781e-03,3.947188606157904164e-03,2.959032924907434390e-03,2.405042499303817749e-01
-6.051663153946547358e-02,-6.287159014482100738e-02,-2.946132644032056769e-01,-1.524549210695933183e-03,4.008923444900980813e-03,3.862765183715127087e-03,2.331425398588180542e-01
-5.634229296854945113e-02,-6.374656790529559247e-02,-3.135256676160759204e-01,2.559415304202959044e-03,1.046502456701886748e-02,-1.538873190273479545e-03,2.542620003223419189e-01
-4.008382830173151667e-02,-7.387913592805234186e-02,-2.635410604562755665e-01,1.342589052826445471e-05,9.896796108625562777e-03,-7.478859718892276248e-04,2.093298137187957764e-01
-5.477047956612315915e-02,-5.370774016894597214e-02,-2.910713243855628241e-01,7.481012348680904887e-03,6.096962356558086917e-03,1.331609191315115751e-02,2.385407984256744385e-01
-5.807399623598957783e-02,-5.940608327025130586e-02,-2.920826865231423430e-01,5.632745711261357520e-04,1.863269683892993097e-03,9.322623704675452039e-04,2.333754450082778931e-01
-5.252840558835639162e-02,-5.411106880268148900e-02,-2.984147063741648953e-01,1.064994692630298265e-02,7.778909724219958827e-03,1.052707668973511257e-02,2.468353211879730225e-01
-4.072141066673767851e-02,-5.680523092012740305e-02,-2.885776897463296353e-01,-1.786034533060979618e-03,-1.810845299942085655e-03,-9.792196423893206967e-04,2.402649223804473877e-01
-5.515159346274856045e-02,-5.381015999733693156e-02,-2.875548097787316570e-01,8.011747907408345998e-03,-9.846457651903430842e-04,2.141959548737129224e-03,2.335252612829208374e-01
-5.524733023959596534e-02,-4.704502781616685947e-02,-2.860886522767372431e-01,6.436250282410647949e-03,4.656970685061906368e-03,6.882248202449771021e-03,2.357538044452667236e-01
-4.597574483950447877e-02,-5.236578493210798657e-02,-2.865003195918877643e-01,6.341226490569172244e-03,2.936705258141638665e-03,3.876868359034635141e-04,2.377033829689025879e-01
-5.542961963957623861e-02,-4.280684085372618575e-02,-2.822040121686182346e-01,5.833992629938791752e-03,6.405442750893367357e-03,7.426502887876020725e-03,2.341775745153427124e-01
-5.504287200727682461e-02,-4.496518551100478489e-02,-2.777144459472725702e-01,6.119603595732676232e-03,6.667919336936274470e-03,1.566250258256516583e-03,2.284322530031204224e-01
-7.398693654867910530e-02,-6.551933791396691298e-02,-3.559875598428237087e-01,-1.622333951522611679e-03,-9.005778743695591615e-02,4.933264585196337620e-02,3.370818197727203369e-01
-5.028406683249930786e-02,-5.956645002516905429e-02,-2.861004047444679066e-01,8.401357993335228230e-03,1.286528378664750227e-02,3.165340788510984799e-03,2.329054027795791626e-01
-4.139605893401768211e-02,-7.057239744450247154e-02,-2.317760839729956224e-01,7.166052972072716604e-03,2.024497216765798815e-02,2.916863059876631439e-03,1.815223842859268188e-01
-5.414610530110948450e-02,-6.944996493635816059e-02,-2.322412764520722372e-01,7.990914319907201427e-03,1.294578980354169247e-02,9.236304961048918266e-03,1.737147867679595947e-01
-5.691623875200371718e-02,-6.404583252187881492e-02,-2.333505957998162905e-01,1.080079580148745819e-02,2.518900480319750945e-02,2.988927949423281910e-02,1.866963952779769897e-01
-6.992415224761362735e-02,-4.157355037417492793e-02,-2.813160648772405903e-01,3.898125538572140125e-03,-1.293794538897857435e-02,-2.331210528166120788e-02,2.316495329141616821e-01
-6.897321418072276111e-02,-4.528882774411888135e-02,-2.800430857355080683e-01,6.366757462372371092e-05,1.954853658151779489e-03,-8.756637397098872289e-03,2.243925482034683228e-01
-5.846880049049006656e-02,-3.212923067389315823e-02,-2.262667875629448266e-01,1.405434216475577158e-03,-1.463223739377636631e-03,-2.722603886375688995e-02,1.884297877550125122e-01
-7.326685503541757738e-02,-7.365030504800251787e-02,-1.818421284044032804e-01,9.227776132257175514e-04,1.288150219262908236e-02,2.394038091747688682e-03,1.107458919286727905e-01
-5.460202616951528864e-02,-5.061154990647741270e-02,-2.898523224026552381e-01,2.828224520317498131e-03,-4.230709378201280872e-05,1.371566528229950510e-03,2.373331636190414429e-01
-5.769788461953778702e-02,-4.893260525712452014e-02,-2.871834258275280383e-01,8.849090447424261263e-03,9.417274573873934268e-03,6.154732357157562637e-03,2.353010028600692749e-01
-5.400876378203832429e-02,-4.421608259249291961e-02,-2.630584103975904253e-01,4.992041428883514653e-03,1.180824211043582025e-02,3.128223028575016773e-02,2.219765931367874146e-01
-6.170997037663286666e-02,-7.563829238376659769e-02,-2.044342911456581979e-01,1.334993573250742912e-03,3.436157554998418764e-03,3.420381049378960238e-03,1.365730017423629761e-01
-6.179223302654025807e-02,-3.641010307870486129e-02,-2.688940451676583021e-01,1.167671621476913668e-03,6.940443604062895323e-03,2.419577147218505194e-03,2.212651371955871582e-01
-5.564785532600977080e-02,-7.259125899918721092e-02,-3.060190114700798714e-01,2.439264593394243480e-03,-3.203494295900172727e-03,-6.781259807656975138e-04,2.424472570419311523e-01
-5.747063664559524943e-02,-6.587508395766700220e-02,-2.953937064873404239e-01,-1.282905125624321041e-03,-2.082979195761265265e-03,-3.984008918771057318e-03,2.339743226766586304e-01
-6.141167341332487428e-02,-6.658577659471232035e-02,-3.142101209602787271e-01,-4.203143151982878870e-03,-3.794725441672546721e-03,-1.215944919344053195e-02,2.513276338577270508e-01
-6.517440989564497744e-02,-6.367785920991461679e-02,-3.489348156960913050e-01,-4.581145319100562280e-05,1.642571337093621251e-03,-1.439948466908366406e-02,2.856168746948242188e-01
-6.093268399883597364e-02,-6.525361706749494006e-02,-2.938980669498285625e-01,-3.177178980785168912e-03,-3.859663499403744209e-03,-2.908540196595694842e-03,2.310525178909301758e-01
-3.828778359964046807e-02,-6.130681788992961567e-02,-2.868286347346949983e-01,-2.105597071582000594e-03,-8.684693202189674999e-03,8.873852302467383170e-04,2.383761554956436157e-01
-4.340472402401990282e-02,-6.517644222268977050e-02,-2.694557641464281339e-01,-4.551515333509691119e-03,-1.319008309780366969e-02,4.283994271870887952e-03,2.174642533063888550e-01
-4.433134709849347044e-02,-7.153447777403662555e-02,-2.795592305987032455e-01,-4.564570342734376035e-03,-2.730462398400967244e-02,1.014311521073959859e-04,2.279745489358901978e-01
-6.115213529740735898e-02,-7.031377332081886755e-02,-1.824724750588821165e-01,-6.669621280770189793e-03,1.630787109493756284e-02,-6.945245138507964711e-03,1.215198263525962830e-01
-6.704698470345094030e-02,-6.542811906039314174e-02,-1.790926281594380498e-01,-7.341174607076639616e-03,-1.607513521442983928e-02,1.806838065680037297e-02,1.210559457540512085e-01
-6.491203063773569315e-02,-6.921035747079953837e-02,-1.313686203549210563e-01,-7.617700220618346327e-03,-3.101030522456493105e-02,2.247168618665978598e-02,9.339827299118041992e-02
-6.765348164063762770e-02,-7.237905437004600595e-02,-1.667916123402836126e-01,-4.159515701547558675e-03,-2.328730955684849349e-02,4.621763234276988347e-02,1.321711987257003784e-01
-5.536246297136897254e-02,-5.969825399075870398e-02,-2.931490851701586964e-01,-4.209483861639161037e-03,-2.250402543413684148e-03,-1.134677377324257944e-03,2.358018159866333008e-01
-5.020980516676348815e-02,-5.419938206313812401e-02,-2.918197237964983426e-01,-5.098839818966518708e-03,-9.567582520538065274e-05,1.550866950574496857e-03,2.398178130388259888e-01
-5.875935231241477541e-02,-5.567452529672986539e-02,-2.910343485772785010e-01,-9.624410141303541910e-04,1.897428539030707271e-03,-4.484545919095442730e-05,2.338617146015167236e-01
-5.491976814508631177e-02,-4.475718260262129267e-02,-2.861388906799096077e-01,-5.778937661716410448e-03,-2.307280448961248915e-03,3.835513030200096794e-03,2.368029505014419556e-01
-5.486039644543205807e-02,-4.531415150927317614e-02,-2.903962543415880004e-01,-6.020242016419640255e-03,-1.909522203938424014e-04,3.639112763079038228e-03,2.407598793506622314e-01
-5.760671364107045056e-02,-4.698424223557819135e-02,-2.864837682784874273e-01,2.119044907665560383e-03,1.476653647503352448e-04,3.840855223414304642e-04,2.343987226486206055e-01
-5.088347817776253668e-02,-5.213087505702812541e-02,-2.910125783873196426e-01,-1.282414959817257958e-03,2.857571690031758560e-04,2.484443557942189111e-04,2.395190298557281494e-01
-5.513522549994170907e-02,-5.070975343512301725e-02,-2.847025951112305275e-01,-1.156623316389953152e-02,-1.647573643676087524e-02,9.339815354454886892e-03,2.349767833948135376e-01
-5.694215942152391907e-02,-5.452028643702110100e-02,-2.981098287885288189e-01,-4.864469414926179958e-03,-4.152096008750510926e-04,2.287449706818072380e-03,2.425674945116043091e-01
-6.409862185093842535e-02,-5.078628608595017746e-02,-3.140941701118983853e-01,-6.277516812678400615e-03,-1.136626889583468476e-02,4.264893718994306610e-02,2.682640552520751953e-01
-5.716637182774791937e-02,-5.035649176327111620e-02,-2.949465941739229380e-01,-8.690647384591946092e-03,-6.336073869276744562e-03,6.377337767170985876e-03,2.422273606061935425e-01
-4.726666394547082706e-02,-5.501473144647485436e-02,-2.659439508249210049e-01,9.312253207414213779e-03,9.930080945852173477e-03,6.315753763625826106e-03,2.164742499589920044e-01
-5.111832827244805477e-02,-5.671559811108953242e-02,-2.536240568750967039e-01,1.325743919564356492e-02,-2.754760291117246129e-02,-2.328765823676563762e-02,2.105641365051269531e-01
-5.217465685562822086e-02,-5.161649234834048139e-02,-2.603198848758725981e-01,9.984168798087306174e-03,-1.272955334514765981e-02,-2.763324204681354059e-03,2.103544920682907104e-01
-4.958451303161973134e-02,-6.059683620878845989e-02,-2.012123190534300665e-01,7.159503831727414593e-03,-1.648226132878338052e-02,-9.242637240985798752e-03,1.505574285984039307e-01
-4.380219826909423353e-02,-6.450151877672496981e-02,-2.755842035030340309e-01,6.931375219449897526e-03,-6.580567978816517262e-03,-2.059888964832784150e-03,2.228012681007385254e-01
-4.362415149292080130e-02,-6.821193166119179918e-02,-2.566373322564460269e-01,6.778668351734077474e-03,-1.014097589726965093e-02,5.575723305380794748e-03,2.031779736280441284e-01
-4.824142710734569128e-02,-5.372606124517097931e-02,-2.373976951706102123e-01,1.086805844436618089e-02,-1.790354124890820853e-02,-2.247766074468241643e-02,1.939185708761215210e-01
-5.492276802538795244e-02,-6.163766294012609781e-02,-2.737113890046848352e-01,1.156482757344493885e-02,-2.126519533166848844e-02,-1.647784869734101459e-02,2.213974446058273315e-01
-4.196800875447313783e-02,-5.764012452692034855e-02,-2.428380197514116712e-01,9.194693744659646756e-03,-1.753993074200593111e-02,-1.388734483592902330e-02,1.979936063289642334e-01
-5.448672491700048276e-02,-6.552151603255382262e-02,-2.046492567762198123e-01,1.039210669323642131e-02,-9.393586054193010099e-03,-1.666713761626242157e-02,1.497852653264999390e-01
-6.310433863733076743e-02,-4.391799889325068151e-02,-2.755119223506455883e-01,3.459978979758325415e-04,-1.228764856305753547e-03,-8.931378948118746941e-03,2.231694906949996948e-01
-6.682032311351997211e-02,-3.372856095590068271e-02,-2.282674322057094141e-01,2.495348539650556544e-03,-1.016279046154901439e-03,-2.738611726322474557e-02,1.864794343709945679e-01
-6.520269208620962931e-02,-4.010858657896554380e-02,-2.825425668380964206e-01,-4.285906374826202979e-03,1.320550376726662431e-03,-1.966113860168972310e-03,2.310675680637359619e-01
-6.850829167813207721e-02,-3.840812453095987511e-02,-2.488930512416865359e-01,-2.479566901778362809e-03,3.780208374993482626e-04,-9.371106255117750417e-03,1.978803128004074097e-01
-4.909705582273199420e-02,-5.005149854584010904e-02,-2.915799935583804903e-01,-4.642014617075527474e-04,1.065465689664049073e-04,-8.856418985655074285e-05,2.420085817575454712e-01
-6.502983951790002048e-02,-4.337104293544458145e-02,-2.536515397107310665e-01,-9.244375731903743329e-03,3.246480788957096641e-03,-1.841482108859035863e-02,2.035629600286483765e-01
-6.001491950936557740e-02,-4.085076266165003911e-02,-2.731418228166855866e-01,-1.787212007250479993e-03,1.163903410783868062e-03,-1.089316995602056942e-02,2.241525650024414062e-01
-6.479725967454608160e-02,-3.772318643320257681e-02,-2.839306446545029616e-01,2.137131748239741467e-06,-3.780812963831104649e-05,-8.550944045621408987e-03,2.343173921108245850e-01
-7.274735383369967945e-02,-4.249018092083001186e-02,-2.727006869285513724e-01,-2.387703033720121014e-03,1.372617340491771951e-03,-1.075565196693126571e-02,2.175239324569702148e-01
-6.414478308981093335e-02,-4.107819038301217807e-02,-2.746605651111717616e-01,-4.467793439762968513e-03,1.319862058155020067e-03,-1.051390099406146125e-02,2.238338291645050049e-01
-8.000063405595575494e-02,-6.550669588730689830e-02,-1.271251858469895080e-01,-7.863974996376176148e-04,9.501906496253206130e-03,-1.850993407370557509e-02,6.644083559513092041e-02
-7.049497076378299920e-02,-6.922285222110108327e-02,-1.272968925983525290e-01,2.863310939590089964e-04,1.152357120842642003e-02,-4.248403532394706000e-03,6.126260012388229370e-02
-6.130428712425921300e-02,-7.146902371812045851e-02,-1.233101301837858099e-01,3.672141510159987899e-05,-2.272429948830888280e-02,-1.385947430609865000e-02,7.377813756465911865e-02
-7.930294098691335891e-02,-7.791323937283793633e-02,-1.808943240059843194e-01,1.045952920101197439e-03,-5.442424838851180752e-04,-1.512142347944870312e-02,1.056128069758415222e-01
-5.408650152984238735e-02,-5.420222876025991565e-02,-2.844649682781424938e-01,-6.862567353542472180e-03,1.075986484862663604e-03,-1.788180445377101409e-03,2.306554615497589111e-01
-6.160612424387995611e-02,-6.038662437146949391e-02,-2.886404473498133116e-01,5.531869600372629021e-04,-8.306773347614560660e-05,-7.475413752133929662e-05,2.276486158370971680e-01
-5.348431677123549610e-02,-5.173523991738479544e-02,-2.899938291815399305e-01,-5.158168071509468787e-03,2.133611694739158231e-03,-3.575591628493348002e-03,2.376663982868194580e-01
-5.658858004623389115e-02,-4.164950174560305696e-02,-2.842525555765705869e-01,-6.391079478492419329e-03,4.860336132438646678e-03,-6.768544262455522195e-03,2.361906021833419800e-01
-5.590852305190810445e-02,-4.112253486086481225e-02,-2.794326649072842450e-01,-6.542676449140353255e-03,3.929176978343112622e-03,-7.683188923576301892e-03,2.320313006639480591e-01
-5.695997494453264309e-02,-4.513451755743411176e-02,-2.749239912718380863e-01,-1.109140881276314723e-02,1.562156472163108920e-02,-1.544809334424938202e-02,2.281288355588912964e-01
-5.502145192118931827e-02,-4.895494569377879801e-02,-2.679162979664801991e-01,-8.233731669385223675e-03,4.808251081683550046e-03,-1.030008340340771503e-02,2.173558473587036133e-01
-5.249772419205921137e-02,-4.812806589159254744e-02,-2.863909974999454544e-01,-4.686914579275150775e-03,8.863446208344823033e-04,-3.771341754762129852e-04,2.362538427114486694e-01
-5.109670737878496682e-02,-4.831147942057692490e-02,-2.864080275593384739e-01,-7.160316656721207700e-03,1.370498944417805186e-03,-2.782852660593703592e-03,2.371017634868621826e-01
-5.484512896914867097e-02,-4.692076441468504000e-02,-2.550694454264674782e-01,1.238962650866740935e-02,-1.400658427048819508e-02,-1.173236100529263110e-02,2.078490555286407471e-01
-3.923162501808385993e-02,-6.503811941993514756e-02,-2.806793992125954373e-01,-4.126828565673861839e-03,3.616429344205607591e-03,-1.608995355113012780e-03,2.298481613397598267e-01
-6.653063665342637267e-02,-4.716427585400884137e-02,-2.944838447145310401e-01,-1.296212717539998484e-03,3.816059695060614000e-04,-1.252298129566074489e-02,2.392243593931198120e-01
-5.945757697550976828e-02,-4.424586304935643200e-02,-2.773381087625305108e-01,8.104982204586585678e-03,-4.421466942350017228e-03,-6.264409014058708487e-03,2.266960740089416504e-01
-5.843821625665081287e-02,-3.936087946421974737e-02,-2.765787736778027028e-01,6.376058634632524903e-03,-4.963536380438011986e-03,-6.057106377481507459e-03,2.289469987154006958e-01
-6.017609055244890759e-02,-4.081120549731701019e-02,-2.846404975429984718e-01,6.632807222167382694e-03,-3.566089201347613213e-03,-6.838577630450601644e-03,2.354069352149963379e-01
-6.387408005888414730e-02,-4.068649963150583471e-02,-2.867650010817903161e-01,3.300276577682222361e-03,2.487846928584978379e-04,-6.530305242187050066e-03,2.356843799352645874e-01
-5.527173561510546895e-02,-5.392028387858391336e-02,-2.896198359422014201e-01,5.577331697254358893e-04,5.735821874903056277e-06,1.167379992606404696e-03,2.350374162197113037e-01
-6.594790253470672603e-02,-3.762248505631704543e-02,-2.724903523706776465e-01,2.086506656859543011e-03,-2.447217656743337459e-03,-7.692662843388669083e-03,2.225333005189895630e-01
-5.610881239057544101e-02,-4.350562681459184400e-02,-2.564649106995789962e-01,8.225895662344105339e-03,-8.172904400251075271e-03,-2.621850883503832469e-02,2.128195166587829590e-01
-6.044509444860270142e-02,-3.709114978634057980e-02,-2.401646941357642728e-01,2.507459554650826646e-03,-9.796252352805457243e-04,-2.167420080914715316e-02,1.961447298526763916e-01
-6.710056393624716509e-02,-6.756055448932402063e-02,-3.313619364346306329e-01,3.208010444409424480e-03,6.347201703437365013e-03,-1.384181697399132971e-03,2.643297314643859863e-01
-7.080761953112935103e-02,-6.342840101725447099e-02,-2.998224045828956630e-01,4.038530583042161670e-03,1.063507216826318613e-03,3.260488324786084934e-03,2.329729348421096802e-01
-7.549618584171044477e-02,-6.672029888786140672e-02,-3.441521618584988951e-01,5.543173546287818131e-03,4.622572279104003937e-03,4.525804770740922932e-03,2.735479474067687988e-01
-7.190632344489594763e-02,-6.156099753698698884e-02,-2.963582665142071582e-01,5.135331806495452810e-03,1.568367876562396001e-03,-2.125594158889435210e-03,2.300169020891189575e-01
-7.104532501987728677e-02,-6.196696730013663557e-02,-3.029876155209751953e-01,4.322481048198382331e-03,3.834971611873710180e-04,-1.456724522457447700e-03,2.367449253797531128e-01
-6.861228124170803966e-02,-6.232396393861980299e-02,-2.999105896762424006e-01,6.837497289491817343e-03,1.698285931059896397e-03,-2.549383589722045186e-04,2.348234057426452637e-01
-6.576209174691588499e-02,-6.044336812268624737e-02,-2.994694659716211071e-01,2.804385982095052368e-03,-9.250449599816833136e-04,1.835563088872174935e-03,2.364883124828338623e-01
-6.419582439125914863e-02,-6.192627193168065425e-02,-2.910162030772396879e-01,2.175603990231099721e-03,-1.863531785947219934e-03,1.627011430162992722e-03,2.280350327491760254e-01
-6.195383478261638766e-02,-6.173268119325146797e-02,-2.928107928987850883e-01,3.917011722874090204e-03,1.233125981660667097e-03,-1.097318875700438066e-03,2.310849279165267944e-01
-6.453980052622088071e-02,-6.283305727149159081e-02,-2.935281808217834465e-01,2.392074319970034085e-03,1.432054269292946762e-03,-1.196998026254116835e-03,2.299065738916397095e-01
-5.141311340924877016e-02,-5.356130192189408057e-02,-2.689989336739576631e-01,7.483123958350827026e-03,-1.565229920816385914e-02,-1.265406556084876927e-02,2.196910083293914795e-01
-6.088843935516100037e-02,-5.618354873907981106e-02,-2.932625304328064786e-01,-1.103116454733656424e-04,-2.910209036752752507e-04,-2.832784804820269540e-03,2.348137795925140381e-01
-4.845238631897508252e-02,-6.293762016096784984e-02,-3.019358623558730526e-01,6.418112535754514660e-03,-3.080270980759327454e-02,-2.560137425043646636e-03,2.525501549243927002e-01
-5.098738127129877340e-02,-6.057896401169476919e-02,-2.692282948544538201e-01,6.145829174477888089e-03,-1.408497704932445624e-02,-1.740788235335308243e-02,2.173600643873214722e-01
-7.588631817022997716e-02,-8.328886263320627037e-02,-3.502944187610761428e-01,-3.298013630404720425e-03,6.081708974524659139e-02,-7.545363028886692414e-02,3.186405897140502930e-01
-5.082053113106260733e-02,-4.843008463633091676e-02,-2.841987868258982752e-01,5.330001065649390447e-03,-6.011416756471939238e-04,5.273995352500890121e-05,2.347665280103683472e-01
-6.510703653106726663e-02,-6.691934591521156439e-02,-2.909321325399252811e-01,-1.937282595939352359e-03,8.132240608270775717e-02,-1.869169097912443817e-02,2.673768699169158936e-01
-4.945516342113162600e-02,-5.690630804794789832e-02,-3.069672472410822639e-01,-8.659563622644119102e-04,5.141254194354550472e-02,9.839142399452104146e-04,2.690429985523223877e-01
-5.641393948500289524e-02,-4.474336119821115121e-02,-2.895606073836952676e-01,1.275792272406499252e-03,-5.263201144235455514e-04,6.195940639889817607e-04,2.392099350690841675e-01
-6.299173471563060400e-02,-6.351903868880498516e-02,-2.789118205105243220e-01,-1.532553790457476250e-03,8.053390846271230030e-02,-2.258044917567028631e-02,2.598109245300292969e-01
-9.014885836563911459e-02,-6.629664800784984546e-02,-3.371150124501913758e-01,-1.542203891384165502e-03,1.087383268296733957e-01,-2.002789823918659298e-02,3.226987123489379883e-01
-6.570928862392769187e-02,-5.472095575369557985e-02,-3.250352530007896146e-01,-2.659273975626557599e-03,3.658546206524705691e-02,-2.981015024779369929e-02,2.773497700691223145e-01
-5.910828348968019674e-02,-4.936549304780724068e-02,-2.740913810661684824e-01,1.229644509591624330e-02,-9.664097728325667103e-03,-8.402733232588518661e-03,2.221549004316329956e-01
-5.405565778491648599e-02,-5.530270717775455369e-02,-2.508773348423838367e-01,1.255207429507795500e-02,-1.807497430568319463e-02,-2.331889586244924317e-02,2.039092183113098145e-01
-5.419427213571849367e-02,-6.271912333029522335e-02,-2.463287158639843044e-01,1.118443570187530912e-02,-2.065848590084373021e-02,-1.369082518023106987e-02,1.938254684209823608e-01
-5.474953920556259457e-02,-5.214734592910290345e-02,-2.561843355253237697e-01,1.269193855560043528e-02,-1.364899406008603794e-02,-1.245855440384384220e-02,2.064332962036132812e-01
-3.977435405681885305e-02,-6.063863116289348876e-02,-2.427009997442630684e-01,8.194612806148592749e-03,-2.051724552263008497e-02,-1.361075769935919492e-02,1.984961181879043579e-01
-4.476302311913706033e-02,-6.393232458831803189e-02,-2.849241988378073964e-01,6.274278317990407763e-03,-1.966658443292273323e-02,-7.997325168384229743e-03,2.343318760395050049e-01
-5.534609960224526337e-02,-5.547482747817250592e-02,-2.628229958754982887e-01,1.406183167610686527e-02,-2.340475852859614375e-02,-2.765340613696227676e-02,2.180611342191696167e-01
-5.796487561512832232e-02,-5.199683100626459331e-02,-2.932255240427149579e-01,-3.941705832114049748e-03,7.217828241420211864e-03,-2.247725779504956833e-02,2.418797612190246582e-01
-5.770223554314399261e-02,-5.231094433098082419e-02,-2.992614596150308115e-01,-1.623212980195559230e-03,1.371142573825507617e-03,-2.225861990558335862e-02,2.473502010107040405e-01
-5.853971956018068357e-02,-4.343649776062533108e-02,-2.774856586203304221e-01,-2.377044316419541642e-03,2.071378454079374817e-03,-8.893079736764513896e-03,2.274627536535263062e-01
-6.572943693826091560e-02,-4.935016490715876669e-02,-2.991219108046564434e-01,-6.926446595268111661e-04,-5.409756295206306388e-03,-4.037045924915809436e-02,2.520747482776641846e-01
-6.303489343069246242e-02,-3.878899662582718788e-02,-2.429497228106780871e-01,2.186893722991183064e-03,4.809789956842277364e-03,-3.713934207021944711e-02,2.038164585828781128e-01
-6.608575092565856235e-02,-4.171490838661193190e-02,-2.851700480185073161e-01,-4.010546386533856388e-03,-2.389710026547650981e-03,-2.466485952212759195e-02,2.362659275531768799e-01
-5.264817466313032046e-02,-5.579955589479651534e-02,-2.429414013971280539e-01,-9.325544796533127498e-03,-2.268845173285712405e-02,2.374791560475052188e-02,1.977848410606384277e-01
-6.454098065947694307e-02,-4.302704135187540579e-02,-2.378892112144441184e-01,-7.313140177203091702e-03,-1.219168597138355938e-02,1.345338747762837503e-02,1.881254911422729492e-01
-4.777366310478294020e-02,-6.723393588918841202e-02,-2.534507432924013592e-01,-6.652837249259148031e-03,-4.173006845683685517e-02,1.930512307915213666e-02,2.124953418970108032e-01
-3.878798039013850452e-02,-6.352102779068174998e-02,-2.119310018637375337e-01,-6.508313814289422294e-03,-5.092169421653096328e-02,1.081774207568635474e-02,1.859168559312820435e-01
-5.519893757602131745e-02,-5.641475740360547830e-02,-2.557917757939488501e-01,-1.180765202198243505e-02,-2.136554142182989918e-02,1.417559494392005986e-02,2.058777362108230591e-01
-4.867026538637098804e-02,-4.958707361619081599e-02,-2.259654501921460334e-01,-1.046453076568391004e-02,-1.804744858684161762e-02,1.831442100737588202e-02,1.832587867975234985e-01
-5.479110218093173612e-02,-4.654415263242689393e-02,-2.895995840193795745e-01,1.338889007481559000e-03,6.999410566524560408e-05,2.260413101862794935e-05,2.390499562025070190e-01
-6.180929482400956965e-02,-6.990647958554399577e-02,-3.001633560212021434e-01,1.608742473023749321e-03,2.626614870700248652e-03,-2.694031241172791316e-03,2.345174998044967651e-01
-5.907572606919431202e-02,-5.307376427795514051e-02,-2.909471504290473964e-01,1.011856917712646324e-03,1.302067281719647028e-03,5.496014466512089830e-03,2.351400405168533325e-01
-6.024034909517572700e-02,-5.344876653025984470e-02,-2.932575630433780223e-01,-2.389674688097688689e-04,1.247698362159633655e-03,-1.709954345011870710e-03,2.365149408578872681e-01
-5.748582959896805789e-02,-4.039480425932122365e-02,-2.859719980988115751e-01,1.008301270197322057e-03,6.373577895634266466e-04,5.667171513923328083e-04,2.375043779611587524e-01
-5.120618659234388304e-02,-5.375975063175902902e-02,-2.887836325038921625e-01,4.989226359954725999e-03,3.886014157030012826e-03,-1.448301267761318905e-03,2.365780323743820190e-01
-5.257244495277972607e-02,-4.600376966261546241e-02,-2.823360971520165741e-01,4.143613005282382154e-03,1.962929052778914461e-03,3.785429916061358591e-03,2.333447784185409546e-01
-5.344150007078482534e-02,-4.485573656905686435e-02,-2.871642375710555806e-01,5.051112510792044041e-03,9.134878002929985820e-04,1.444779677575875384e-03,2.383107841014862061e-01
-5.351956398468100951e-02,-4.859213672557695374e-02,-2.824785640044689128e-01,6.916509456604504578e-03,1.245190745146202305e-03,3.097788369209580200e-03,2.318439930677413940e-01
-5.955630584232707303e-02,-4.421246682552303769e-02,-1.903322594769147891e-01,-4.833172788893335368e-04,8.133941488827355765e-03,7.230491787423209971e-02,1.876901090145111084e-01
-6.131283401153655999e-02,-4.716977020051303648e-02,-2.443656168695674813e-01,7.656360634884075943e-03,4.941612712421985729e-03,1.192240066599163477e-03,1.911822557449340820e-01
-6.348089386107090559e-02,-4.257766903288476290e-02,-2.759716908706446592e-01,-3.396505825001768907e-03,-7.967538178678551259e-04,9.245781055715825841e-03,2.243300974369049072e-01
-5.451641985022773196e-02,-5.055854570947020121e-02,-2.893466444234995549e-01,1.270135960751980287e-03,-1.175844184617952110e-03,-4.495625256221803053e-04,2.368542253971099854e-01
-5.707632540322324366e-02,-4.160283344301370090e-02,-2.517376478909537640e-01,-3.656786977812119012e-03,-5.275529906880489263e-03,2.939016913652928512e-02,2.094266116619110107e-01
-6.924117072109359228e-02,-4.700590715433995703e-02,-2.531763023737589879e-01,1.348747319821027267e-03,-4.871155688028997767e-03,4.168688317147012379e-02,2.090607881546020508e-01
-7.527258901980440897e-02,-4.854173845134640564e-02,-2.476597419958733171e-01,-1.641996841818553184e-03,2.768399952948238062e-03,4.410611508458488206e-02,2.022549211978912354e-01
-6.670335787321877985e-02,-3.754962542002163173e-02,-2.506216493975166326e-01,-9.614887161698833055e-04,-1.277261154463988930e-03,2.492792750427649806e-02,2.047184705734252930e-01
-4.700876782114656038e-02,-6.261279810610109742e-02,-2.392690448245048396e-01,-7.020295808159876874e-03,-1.495124576779162644e-03,5.359656136436393402e-03,1.856022626161575317e-01
-4.323395545305235010e-02,-5.441472464469246373e-02,-2.910535579383317084e-01,-4.550542152401398227e-03,-1.777685715583517991e-03,3.021296902545334831e-04,2.425708770751953125e-01
-4.293076153886327129e-02,-5.730639687177004060e-02,-2.742553823176449024e-01,-1.169963614865621344e-02,-2.528144056661591269e-02,1.404411436101371709e-02,2.308941483497619629e-01
-5.011140056774493479e-02,-5.966916235752645070e-02,-2.699757467399205302e-01,-7.977101508066217900e-03,-6.859802647614475848e-03,4.438154483693975208e-03,2.161514163017272949e-01
-5.022482209577587564e-02,-6.113350275093784592e-02,-2.835819992902929298e-01,-5.610509785504380793e-03,-5.824134432020832211e-03,3.074114201973283771e-03,2.285902351140975952e-01
-4.120897323240965693e-02,-6.027079194440058962e-02,-2.850889843117092592e-01,-5.708170418328285464e-03,-7.071294925591753953e-03,3.444417543306906807e-03,2.355320900678634644e-01
-3.994126361777139422e-02,-5.841829151410540821e-02,-2.770468511259498445e-01,-5.537350873873579313e-03,-6.821683371823979852e-03,5.082159669841951159e-03,2.291037589311599731e-01
-4.526346127295199917e-02,-6.740780606634598493e-02,-2.804009283653037254e-01,-6.217080285135478425e-03,-4.322131119032113916e-02,1.533499413090095090e-02,2.387440502643585205e-01
-6.953109047050665126e-02,-6.184569207004524116e-02,-3.281803210575005569e-01,4.153925163310789523e-03,-2.287374956636938940e-03,2.157807892195127107e-03,2.627313137054443359e-01
-6.582320104573481656e-02,-6.023254903379726688e-02,-3.023546012937021743e-01,4.028753790869353882e-03,2.293317482640150513e-03,-2.428959423693848735e-03,2.395472675561904907e-01
-6.897518580004199928e-02,-5.658260593378239278e-02,-3.034857724862514705e-01,7.606524998088513671e-03,-6.021371104757616832e-03,-4.879246365878362607e-03,2.416790276765823364e-01
-4.468840611140076358e-02,-5.712091144103108309e-02,-2.816438582277949187e-01,-7.456042839687794521e-03,6.597595378638873229e-03,-1.935717692712955133e-03,2.316573113203048706e-01
-4.998182215949142915e-02,-5.109464121446140317e-02,-2.808700006212578870e-01,-7.413743939630925567e-03,3.054376097234332271e-03,-1.093260862947230579e-03,2.307598739862442017e-01
-4.890146544893353431e-02,-7.077598435484909467e-02,-2.050190960269378249e-01,-2.360841420215764770e-03,-1.215085022770137115e-02,7.981118091454405400e-03,1.486168056726455688e-01
-5.984461095280187160e-02,-7.391634843385114229e-02,-2.290474271167106390e-01,-3.809590772823542859e-03,-1.709456196676899242e-02,-2.403906235365666118e-04,1.654297858476638794e-01
-7.609129977998235761e-02,-7.474956426852032154e-02,-1.690665877883253121e-01,-3.694561322364173402e-03,-1.774523125476368951e-02,1.958137430598578914e-03,9.883362054824829102e-02
-7.588114772541632025e-02,-7.641100753947668855e-02,-1.773789594184470020e-01,1.598697584665224544e-04,-1.882210421364423694e-02,7.893225631843935053e-03,1.072292253375053406e-01
-6.074030280148819821e-02,-6.373817707506833352e-02,-1.766774186742475772e-01,-9.331989067597612139e-03,-1.795501949484029983e-02,6.614360454137740118e-03,1.202601045370101929e-01
-5.721486250681719066e-02,-6.256473210329246970e-02,-1.867775637472871564e-01,-5.905286584304060907e-03,-1.860175399114346456e-02,8.723953727592007046e-03,1.322610527276992798e-01
-5.984169745273571622e-02,-6.738220263048753933e-02,-2.027121116874761042e-01,-7.633662270178406817e-03,-1.989763142651202778e-03,7.927494952766825712e-03,1.405941992998123169e-01
-5.313829424668045642e-02,-6.674464589872122766e-02,-1.726257529563365312e-01,-4.797115286773710047e-03,-2.360985954056302530e-02,3.835978144892043546e-03,1.209216862916946411e-01
-6.166984247514763207e-02,-7.282413208733908017e-02,-3.069166463019553093e-01,-5.404575740122136325e-03,-5.062764395560253802e-03,-4.591409481302157272e-03,2.403385639190673828e-01
-7.098345197746225299e-02,-6.600397266486117409e-02,-3.057986685432767526e-01,-5.243747292333117774e-03,-4.750271634906336193e-03,-1.403542314619667369e-03,2.376727461814880371e-01
-7.041999065324491824e-02,-7.078965502212086758e-02,-3.488845980482383480e-01,-5.142203450154363142e-03,1.415704229307830153e-03,5.302771909497843751e-03,2.785846889019012451e-01
-6.086373486097476637e-02,-6.516419259971717448e-02,-3.086039727642409525e-01,-8.173398951387723932e-03,-4.532201040112013996e-03,4.797588412098436413e-04,2.461524903774261475e-01
-6.975029171802699102e-02,-6.666474058557700366e-02,-3.482308197980448217e-01,-7.838508813742482359e-03,1.012243236451924790e-03,4.390290019479449121e-03,2.804735600948333740e-01
-4.320363405133030577e-02,-6.332421691865024183e-02,-2.874391740279452212e-01,-1.719942716932568779e-03,-2.786915769865344703e-04,-1.548532111700847824e-03,2.348573505878448486e-01
-4.374153297932879825e-02,-6.084038553467882582e-02,-2.507338566056853124e-01,-6.750085078609079602e-03,-3.352077814131142197e-02,6.786421538895303328e-03,2.079534679651260376e-01
-4.233426810757993930e-02,-6.026315522217956522e-02,-2.759676523580244512e-01,-6.042236445924752293e-03,-3.142594649298312282e-02,6.965905408465032297e-03,2.322392761707305908e-01
-4.773284544833486520e-02,-6.080547745563157080e-02,-2.957840989642439022e-01,-2.652098547147398004e-03,-9.853611200326285041e-03,1.923799534528364621e-03,2.424481809139251709e-01
-4.627653801952286150e-02,-6.421452982199464532e-02,-3.005584202530460214e-01,-2.465433527634287338e-03,-4.215309517489295582e-02,7.079352486375717173e-03,2.567469179630279541e-01
-5.585662834928378784e-02,-5.588733020473077295e-02,-2.795557310365871517e-01,-5.890311706164880114e-04,-1.744094869844052542e-02,-2.975765912207729933e-03,2.257755249738693237e-01
-7.549466794114653712e-02,-6.175879968419115129e-02,-3.279168545889590280e-01,7.745425145834824478e-03,-1.884369148493463507e-03,-1.266643518301982171e-02,2.608540058135986328e-01
-6.764057253439481610e-02,-6.238291575528054356e-02,-3.002450635649807631e-01,5.239294787958170309e-03,-1.058658029345832269e-03,-4.798825339947011565e-04,2.354609370231628418e-01
-5.381389121561046263e-02,-4.476924552588187889e-02,-2.627522396533151783e-01,8.039684940338404431e-03,4.071114150502007367e-03,1.318341336390499614e-02,2.153876721858978271e-01
-4.954899246333642482e-02,-4.986596502005691267e-02,-2.821931006631951400e-01,8.379897364873566123e-03,1.057298788762951053e-02,8.152268492077023934e-03,2.340834289789199829e-01
-5.053871279330232613e-02,-5.546997730961633621e-02,-2.853130872105730242e-01,1.036425931177565110e-02,1.042729729220156880e-02,1.244877311392982196e-02,2.347316443920135498e-01
-6.450357690235702934e-02,-4.312015823634830769e-02,-2.128871279613451795e-01,1.063800233919488802e-02,2.062294961791258027e-02,3.629706617346243475e-02,1.766797304153442383e-01
-5.546197511920032686e-02,-4.734277271873589543e-02,-2.294553122284309077e-01,1.302545222099017221e-02,2.212367630933588167e-02,2.410434643133468890e-02,1.883419901132583618e-01
-5.434736747213309016e-02,-4.949015557766721363e-02,-2.326906716972398648e-01,1.307107706625925368e-02,2.413554465143737462e-02,2.142015883559505660e-02,1.906116008758544922e-01
-5.051007269548830891e-02,-6.259158008117216010e-02,-2.281194970730568983e-01,-9.807493844147032250e-03,-1.013173962177221256e-02,4.076941546419900371e-03,1.737574785947799683e-01
-4.524034519216814376e-02,-5.626167862052947055e-02,-2.830833554031675914e-01,4.667296738890576793e-03,-6.084925390174504393e-03,-2.559420346998299636e-03,2.329495698213577271e-01
-4.825031579570945861e-02,-5.584039562168241488e-02,-2.895663524403879752e-01,8.654991128082172372e-04,-8.203776322768277464e-04,-9.417182712274737200e-05,2.376209646463394165e-01
-5.476306423343804686e-02,-5.889327776517794266e-02,-2.907642463372080988e-01,1.219667563318422524e-03,5.856197141776502916e-04,1.041803555863846705e-03,2.339821159839630127e-01
-4.940906107581954920e-02,-5.736190747808306289e-02,-2.883936555512950362e-01,3.982775242324514652e-03,-2.511564895990557773e-03,1.614730235124608136e-03,2.352671027183532715e-01
-5.757749476332263416e-02,-5.672263614729985970e-02,-2.909874632840926401e-01,8.820666258198037830e-04,1.255136144187132732e-03,1.004381352540818957e-03,2.338601350784301758e-01
-4.669798347834766550e-02,-5.930625782468136598e-02,-2.394174935571506957e-01,-9.096442997459194824e-03,4.498960212987754281e-02,-1.858440169736241127e-02,2.054908424615859985e-01
-5.038601477459789257e-02,-6.313855818245324436e-02,-2.263611425167476043e-01,-9.500180001399977786e-03,-1.023207627770141709e-02,5.700349573313440513e-03,1.719536930322647095e-01
-3.714719253863751902e-02,-6.745786953404780961e-02,-2.890124196963722580e-01,-4.586715412786867944e-03,3.021421612870565584e-02,1.687288613099910146e-03,2.439897060394287109e-01
-4.603023552360523130e-02,-6.913556114730051716e-02,-2.978892525714219586e-01,-8.137558864499596506e-03,1.848591443218804836e-02,-1.090126526747591321e-02,2.443929165601730347e-01
-3.951625330840354000e-02,-6.347340072228138674e-02,-2.664887910281301120e-01,-3.710805720306788354e-03,2.758725429354285871e-02,-1.854509740585929883e-03,2.213315665721893311e-01
-5.221287461086834836e-02,-4.946200121648007542e-02,-2.918329183776844360e-01,-5.944116378142391254e-04,-2.899547680564941465e-04,6.757283864567937366e-05,2.410100102424621582e-01
-3.515637669700651113e-02,-6.487393380332628912e-02,-2.785324766820358455e-01,-4.144880513361729954e-03,2.876518434282204426e-02,-2.985788310656282019e-03,2.354636043310165405e-01
-5.115689223346522874e-02,-5.132426574918391715e-02,-2.414254539763298346e-01,-1.011086161587624113e-02,-1.015583342802522243e-02,7.676594871707320168e-03,1.922581791877746582e-01
-5.140489894328117981e-02,-4.617242490887726869e-02,-2.803029208808547335e-01,-5.818433410208954069e-03,3.427846717202303641e-03,-2.246652436460527466e-03,2.318864911794662476e-01
-5.054416005431081049e-02,-5.388362115445913259e-02,-2.872266005531308730e-01,-2.961649918987392487e-03,6.328118222777638332e-04,2.163317869498736191e-04,2.350893318653106689e-01
-4.770523468195984884e-02,-4.890774823702667695e-02,-2.895192682173373111e-01,-2.831631142359634316e-03,4.831632085002567144e-04,-2.683294245691928237e-05,2.412663400173187256e-01
-5.034012134000995231e-02,-5.080553621413713694e-02,-2.863606619416968480e-01,-2.699060439567997974e-03,3.564201873703629108e-04,-5.427635582167934618e-04,2.358372062444686890e-01
-5.252825827085030874e-02,-4.817047036205482358e-02,-2.822467601088259337e-01,-8.513068027563078927e-03,2.324553659847608447e-03,-3.802005009345539761e-03,2.325244843959808350e-01
-4.857009358391764509e-02,-4.868011548438395952e-02,-2.898912877561468093e-01,-3.040301405949544407e-03,1.200510486679697800e-04,-1.285112386703061646e-04,2.413238584995269775e-01
-5.321475598156487352e-02,-4.722171943470630795e-02,-2.731170712756990637e-01,-5.144955135829722137e-03,2.040427602928635356e-02,-2.275652994692769701e-02,2.293312549591064453e-01
-5.607380163250971772e-02,-5.016215225400239008e-02,-2.759602727722074711e-01,-1.182633965691595561e-02,1.525191699175771146e-02,-8.326907627846134169e-03,2.258547395467758179e-01
-6.226758748550212386e-02,-5.527643172954233020e-02,-3.056833757449524125e-01,-1.587353004951066364e-03,1.619369045820633372e-03,-4.843634682999936429e-03,2.471592426300048828e-01
-5.618993392467191983e-02,-5.045120985980172668e-02,-2.854558778623800253e-01,-2.965528183425453473e-03,3.294280592948083553e-03,-9.875778223653465093e-05,2.323154509067535400e-01
-5.724131491988176945e-02,-4.540901045369623301e-02,-2.909562590077261479e-01,-6.980073085101205430e-03,1.215450517685777139e-03,-1.644047359973796127e-02,2.418460845947265625e-01
-5.609368742279241538e-02,-6.153108107679307326e-02,-2.902619899599258035e-01,-9.653492119493164991e-05,3.701308211255627516e-03,1.886924082540819341e-03,2.316093742847442627e-01
-6.713074895814627463e-02,-6.231098968347581479e-02,-2.910386883912665645e-01,2.354134453669737975e-03,1.226873799098026751e-03,-9.481889218153011570e-04,2.264089584350585938e-01
-4.229400898115308338e-02,-5.586444573377830070e-02,-2.871596173052665124e-01,-1.034111727647473843e-03,8.601507321302729204e-04,-3.071688864988015829e-04,2.383822500705718994e-01
-6.156571891394345408e-02,-6.585352383410000843e-02,-2.909499471218111033e-01,2.889153255181981655e-03,2.372149356468893349e-04,-6.938465542449040110e-04,2.273292988538742065e-01
-4.940910250410993076e-02,-5.543932555732615508e-02,-2.816777293504272306e-01,-6.454351581553888044e-03,-3.445341036354393482e-02,2.207236022540798315e-02,2.402750551700592041e-01
-5.744445333207498505e-02,-4.907938933701475048e-02,-2.887226875571086149e-01,-9.304796910345476679e-03,-7.958023859865454713e-03,1.391604058583615321e-02,2.377497702836990356e-01
-5.968911551834039930e-02,-4.582791393339669117e-02,-2.029126237974109570e-01,-9.248114831729657356e-03,-4.199246059985664234e-03,3.165402027605689061e-02,1.612630486488342285e-01
-5.747360069095511226e-02,-5.106069502019121298e-02,-2.755097405353229556e-01,-1.398014930987403863e-02,-1.464873511121472273e-02,1.365886694093144081e-02,2.253195792436599731e-01
-5.828526993243340892e-02,-5.783318730632763804e-02,-2.785917369002776645e-01,-1.230528437871246730e-02,-1.508774939709899530e-02,1.635785837542062110e-02,2.248881012201309204e-01
-6.077653756832934739e-02,-4.589856020262333969e-02,-2.869902074337149500e-01,-7.978902523598122715e-03,-1.352535423092107118e-03,9.071394431056780533e-03,2.349530309438705444e-01
-5.573218577111389849e-02,-5.525265486934166637e-02,-2.623558899632579267e-01,-9.667519207462251657e-03,-1.710839092727176047e-02,2.562941534326826018e-02,2.142935842275619507e-01
-6.493081083249566121e-02,-4.675377908020862672e-02,-2.560891506959065977e-01,-1.117669428707803760e-02,-1.002318788155403748e-02,4.107464407247218147e-02,2.146721482276916504e-01
-6.125679313496942141e-02,-4.073243756287810158e-02,-2.513452523819306728e-01,-5.273406005910842576e-03,-1.228507403979105586e-02,2.943797890314739374e-02,2.087876796722412109e-01
-4.660682271176471575e-02,-5.051562807322842324e-02,-2.263112460614795374e-01,-1.223306677837584372e-02,-2.052813266930820710e-02,1.683192637077599030e-02,1.848502755165100098e-01
-5.241292909546250989e-02,-6.017889047110180911e-02,-2.864608800115596154e-01,3.042766848042332021e-04,-1.540514368196612511e-03,3.400525170897936589e-03,2.303545773029327393e-01
-6.392776352231149817e-02,-5.767997480856340564e-02,-2.952957722685441988e-01,2.030939026544251007e-03,-8.758339944400009985e-03,-8.121852603037596572e-04,2.350748926401138306e-01
-5.726372876903679243e-02,-5.789847240940712569e-02,-2.970351080996574966e-01,-1.569152025831848252e-03,-4.147870756939299767e-04,1.166189598566100207e-04,2.394712269306182861e-01
-6.663678865218580771e-02,-5.672508004150125793e-02,-3.024981767784251652e-01,3.112951160626349330e-04,-6.527949943687584577e-03,7.297191780972699885e-04,2.412392050027847290e-01
-7.812742557780882890e-02,-5.735551770628954937e-02,-3.009246042000297550e-01,-5.610503659458892633e-04,9.444285571236428782e-04,-3.730943597244952298e-04,2.338846176862716675e-01
-5.478137343893302313e-02,-6.050368712581963293e-02,-3.032889202643657689e-01,8.063296443030934599e-04,-1.811281739680206280e-03,1.640106773922888348e-03,2.457367926836013794e-01
-4.857596592701827337e-02,-7.225130703007698330e-02,-2.007725692985829757e-01,3.445011990085630228e-03,-7.104748210456271473e-02,-1.022783080945704852e-02,1.887158900499343872e-01
-5.205294667636056055e-02,-5.782363130158485465e-02,-1.083493292390741713e-01,3.607698323473742044e-03,-6.125371334623230801e-02,1.267199802793784677e-03,1.190698593854904175e-01
-3.614699419232710043e-02,-6.008587111631051580e-02,-2.103704298632943503e-01,-3.153055974674509165e-03,-4.337192830854189052e-02,1.017126126142790798e-02,1.809412091970443726e-01
-6.543890183935842375e-02,-7.150136266681481056e-02,-4.087995350108692416e-01,-5.248404976206165300e-03,7.442821229271426309e-02,-7.842223977863445328e-03,3.643315434455871582e-01
-6.043978900535067200e-02,-5.288046773982829629e-02,-2.955808840243322466e-01,6.735803606293918125e-03,-4.950958638126962824e-03,-1.128448108355453033e-02,2.402449846267700195e-01
-5.734698724856782115e-02,-4.751113850565621965e-02,-2.970371185710769524e-01,1.061889916839783669e-02,-9.362035553208348376e-03,-1.417589640759677264e-02,2.472038716077804565e-01
-5.104048244784900601e-02,-4.270649416505584162e-02,-2.583204415074274451e-01,1.285323853809527961e-02,-2.097980249131650710e-02,-3.854561000677023119e-02,2.259098738431930542e-01
-4.785088266413370373e-02,-4.638434668005898820e-02,-2.427814721592730374e-01,1.190220266731399287e-02,-2.537165949773470194e-02,-2.914131093372063913e-02,2.078214585781097412e-01
-5.935577996987037586e-02,-6.063219045706147448e-02,-3.147283048779805359e-01,2.292855533783642180e-03,-1.522054482578557785e-02,-2.341040689316197659e-02,2.593177556991577148e-01
-5.180909042799403119e-02,-5.197386463987060945e-02,-2.957702634260871433e-01,5.963567904843980472e-03,-1.073331784512986109e-02,-1.016621196855587231e-02,2.454368472099304199e-01
-5.895351307910083605e-02,-5.369045672494666965e-02,-2.806407075578967736e-01,5.928295472631016881e-03,-1.317499320046571637e-02,-1.953779421101529967e-02,2.282783687114715576e-01
-7.826532811110512022e-02,-5.920000735817464166e-02,-3.034062023293131460e-01,-1.904808200461400322e-03,2.249198898231411121e-03,1.400710940251909207e-03,2.353215515613555908e-01
-5.626871948342701546e-02,-4.619430023967334431e-02,-2.895984956715430547e-01,1.045536387893676762e-02,-1.078462158306467758e-02,-1.338724821073375600e-02,2.410590499639511108e-01
-5.200917221128305290e-02,-4.974834537960567959e-02,-2.749411176759242736e-01,1.272802862654998958e-02,-1.656559868368910615e-02,-9.940029216706617460e-03,2.276256829500198364e-01
-6.965675920673108923e-02,-6.180926605209895175e-02,-2.900439635445354325e-01,-5.719516579655273443e-03,-3.029190119627110048e-03,1.347993619027368665e-03,2.247058302164077759e-01
-5.729293286919903694e-02,-4.613868430389594932e-02,-2.833685740313546253e-01,6.454694216778539100e-03,-6.639932022056995418e-03,-8.209139353072519851e-03,2.328427433967590332e-01
-5.287055576305030313e-02,-4.460707697037104291e-02,-2.828704268638454478e-01,5.101844378576093561e-03,-3.495182451272579524e-03,-3.540684070649408738e-03,2.345659136772155762e-01
-8.474863284972122823e-02,-6.287394094660972432e-02,-3.518287911818908653e-01,-3.214532238765035067e-03,1.417067120140584266e-03,-2.932363969316710561e-03,2.787748575210571289e-01
-6.163890081282354105e-02,-4.543375478317521199e-02,-2.830000597321590261e-01,6.119508470599412803e-03,1.152336213854792497e-03,-4.563434508586407257e-03,2.302810549736022949e-01
-6.662513958526847246e-02,-5.886721845770490069e-02,-3.026954347329121608e-01,3.520886057001583989e-03,-3.059887291580160040e-03,1.845005213378627306e-03,2.402004897594451904e-01
-7.098149214238033688e-02,-6.740486197038805805e-02,-3.060746625715728975e-01,7.896180849830469056e-03,5.646580536050107950e-03,-4.239569680314612260e-03,2.376111447811126709e-01
-5.077329970060476261e-02,-4.930222143437262838e-02,-2.915926535525372731e-01,-5.345789889430215122e-04,-5.427510376003546008e-05,-1.738040102451201868e-05,2.415600419044494629e-01
-6.416562877383306940e-02,-6.368229678239137326e-02,-2.898663309782181785e-01,1.734091911361474890e-03,5.624686847394804986e-04,-8.973641962370613187e-04,2.259701639413833618e-01
-6.492146347289179387e-02,-6.456248307329115477e-02,-2.880971515741738154e-01,2.792244253839182028e-03,-4.728528422973458630e-04,3.698896168301769784e-04,2.234101742506027222e-01
-6.570088643019079966e-02,-6.334103938959786961e-02,-2.920666243964092912e-01,3.283873704441438862e-03,2.229981861924509867e-03,-2.377851641905620074e-03,2.276959270238876343e-01
-6.444340338112222732e-02,-6.930042306126137086e-02,-2.914400494149253507e-01,4.686737959205593274e-03,2.310567774510935120e-04,2.531544429586060022e-04,2.247549593448638916e-01
-6.503474796955263648e-02,-6.461973873206988683e-02,-2.881234714736916613e-01,4.282366514857969750e-03,-4.975427328873403485e-04,1.246598736454408219e-04,2.234214395284652710e-01
-6.533957894055170135e-02,-6.864888176335849634e-02,-2.922301817788117706e-01,5.534372979515816623e-03,-6.613395853558967207e-04,-6.340215360558858985e-04,2.254636436700820923e-01
-5.605044349943579668e-02,-5.214601106366577310e-02,-2.449673098222841516e-01,-1.122289506026753064e-02,8.155602526402679769e-03,-7.174415870754013991e-03,1.928062736988067627e-01
-5.802219616829625004e-02,-4.052777719512734578e-02,-2.729103927308356159e-01,-5.258397249628603970e-03,-1.452515099811862369e-04,-6.144452207246950404e-03,2.245854288339614868e-01
-7.002251233847214817e-02,-5.751527558537006257e-02,-2.993220367304497698e-01,-3.227658495002904554e-04,1.471132652971180376e-03,-3.019464871895218916e-04,2.358170598745346069e-01
-4.738445118253284405e-02,-6.008565079429924183e-02,-2.967721814159088312e-01,-1.826378583297672562e-03,-9.708505665004793506e-03,1.162423262042666314e-03,2.438951879739761353e-01
-5.127881679610871157e-02,-6.323894559843148966e-02,-2.895558303724014015e-01,-1.573133738216218836e-03,-8.160653535045938461e-03,1.101645348218120626e-03,2.329807132482528687e-01
-6.998357527099330344e-02,-6.228451898819892252e-02,-2.974073898053002374e-01,1.491631118766739272e-03,3.305044405970379746e-03,-8.950325336691628214e-04,2.314598560333251953e-01
-6.159627353582949882e-02,-4.772952486450268705e-02,-2.834409858452506814e-01,-5.950569850983578046e-03,3.272122763168718463e-03,-6.741665682279913974e-03,2.296918034553527832e-01
-6.119631293709146269e-02,-4.207982559770208353e-02,-2.776437964458819962e-01,-4.542017362045775060e-03,1.255659808885377414e-03,-3.898778156921571102e-03,2.268587499856948853e-01
-5.402350356207190341e-02,-4.621815683088957571e-02,-2.899841677871370926e-01,-5.927317260755115072e-03,2.410246659251725695e-03,-3.170130013233974416e-03,2.402771115303039551e-01
-5.806665181229631045e-02,-5.677255142684692335e-02,-2.888478929385221994e-01,-1.193768163979708934e-03,4.166977667737971347e-03,-3.529650828954947715e-03,2.316334396600723267e-01
-5.844542518863164726e-02,-4.454405557381213576e-02,-2.910368485091107127e-01,-4.840054028050082974e-03,-1.174688182348799511e-04,-4.236259847233879439e-03,2.401031404733657837e-01
-4.779248544358652429e-02,-5.699684015145299598e-02,-2.954765962639950838e-01,-4.448498445470948706e-03,-2.587557450621223373e-02,2.595953348910644536e-03,2.474683523178100586e-01
-5.430368680852817875e-02,-5.461658120056835097e-02,-2.814439469759862922e-01,-7.158792113650785591e-03,-1.281106255010449474e-02,1.494844857951953786e-02,2.298656255006790161e-01
-6.213853325526905169e-02,-5.952949526871820218e-02,-3.000922972043927328e-01,2.232899367703937551e-04,-3.149502878248273356e-03,3.770302200697136976e-03,2.394205182790756226e-01
-7.326685030474033855e-02,-6.120281189469328753e-02,-3.032096938929794705e-01,5.787366611100191668e-03,7.026610244486269745e-04,-1.157117177963828394e-03,2.364302724599838257e-01
-7.898325191205493589e-02,-6.219357300659755783e-02,-3.149674399364422728e-01,-5.248556761360364219e-03,-4.433126415231518347e-03,-2.535573525754795769e-03,2.451395839452743530e-01
-5.568667046476108440e-02,-6.003170305977927057e-02,-2.923718700467236031e-01,-2.862895614704725773e-03,-4.727286414849149639e-03,-5.732835276504430391e-04,2.347402274608612061e-01
-6.065970873640255667e-02,-5.782248600424208518e-02,-2.942331469404426691e-01,3.929036320889092108e-04,4.766625716302616209e-03,3.450283086377098352e-03,2.352267801761627197e-01
-6.585489643461761577e-02,-6.245507769293016931e-02,-2.987165279167796061e-01,2.641794266413166094e-03,3.811123224015979839e-03,-2.585928937834726035e-03,2.347602099180221558e-01
-4.899870819020868407e-02,-5.318707431412390829e-02,-2.920712482667603971e-01,1.112187395650986090e-03,6.524681035205220306e-05,-3.283212836115762976e-04,2.410140484571456909e-01
-5.879123042078729378e-02,-5.973286341982364522e-02,-2.924969504374535512e-01,-4.373343311001059346e-04,-9.436556485381329500e-05,9.990533076676730133e-05,2.332376837730407715e-01
-6.087936016774528336e-02,-4.479342152670726107e-02,-2.810864275013024161e-01,-7.993754543853929390e-03,-5.105447561942710183e-03,1.830853974546444579e-02,2.314468622207641602e-01
-5.819806938321202966e-02,-4.111633196849978633e-02,-2.627562217536749678e-01,-9.075269229321943770e-03,-2.864086093167092159e-03,5.556367043204436112e-03,2.144629210233688354e-01
-6.222014786781776552e-02,-6.260605419670042804e-02,-3.385102365724054208e-01,2.512590428819295486e-03,-4.256733441646570748e-02,-2.879513147513608484e-02,2.901242673397064209e-01
-4.969606498104486847e-02,-5.900565657663403574e-02,-2.856333860995222684e-01,-9.356242739625875160e-03,-8.902235981336511714e-03,1.568471743904444222e-03,2.325174361467361450e-01
-4.600110443767510549e-02,-5.678916772881345554e-02,-2.740105029824466687e-01,-1.012637683653112505e-02,-1.940659771337691422e-02,1.435722172730757341e-02,2.273780107498168945e-01
-6.139973579812646465e-02,-6.743290790652370359e-02,-2.401455050420435167e-01,-9.201122439508992515e-03,-5.764960677758019375e-02,4.713788813067847083e-02,2.186284512281417847e-01
-5.614807821472575511e-02,-5.012005456877771659e-02,-2.851419216719597305e-01,-5.355959013429831446e-03,-1.883331127047780523e-03,2.229036824215132554e-03,2.323069125413894653e-01
-4.884865447039643538e-02,-5.483184661070548971e-02,-2.857551352738084693e-01,-8.116504970937037447e-03,-8.464357522844023762e-03,1.862723721047465598e-03,2.348744422197341919e-01
-4.813865190186297771e-02,-5.527802922359041637e-02,-2.145971806101988899e-01,-1.035078441055291808e-02,5.617174354362949179e-02,-9.670361090114758251e-03,1.914125382900238037e-01
-4.583847018383818694e-02,-6.311595529045338493e-02,-2.815318829000035827e-01,-6.162085432776949132e-03,2.958674866005939208e-02,-3.065514268451056956e-02,2.394513785839080811e-01
-4.964070275985014991e-02,-5.570210907535377842e-02,-2.867030595159003603e-01,-8.052011136604163288e-03,1.204469971569837629e-02,-1.432264003907580616e-02,2.367351055145263672e-01
-7.771731760191291638e-02,-6.848368682040596733e-02,-3.540818786681935171e-01,5.047514764914280694e-03,-9.695328718619103392e-02,-1.070248941453187642e-04,3.275526762008666992e-01
-6.455992488776413074e-02,-6.619161923571278972e-02,-3.322165754518043856e-01,8.173770414284099554e-04,-3.367191070460841956e-02,2.273225337818412378e-02,2.759704291820526123e-01
-6.451593698154287071e-02,-7.343977946400767620e-02,-4.686630472423191085e-01,-1.256098801387352075e-02,-3.884272556792883746e-02,2.648447965256437234e-02,4.085484743118286133e-01
-5.754163000333994971e-02,-5.577386267158668254e-02,-3.127909158587405813e-01,-4.482779952390963073e-03,-4.959218868760053439e-02,2.737062869198237866e-02,2.743946909904479980e-01
-4.843517315724985700e-02,-5.322593525729457653e-02,-1.925830672631354823e-01,8.327379382719441413e-04,-5.823642553040648401e-02,3.813513266249343725e-02,1.861461251974105835e-01
-5.629516649874084788e-02,-5.779944123983504767e-02,-2.742527804137917524e-01,1.865893569723690946e-03,-3.828976422117628953e-02,2.415362986245107174e-02,2.309520989656448364e-01
-5.753615694866498487e-02,-6.246669818080891057e-02,-2.775599661872604207e-01,-6.639649604839233457e-03,-4.389692641170443721e-02,6.382238306228590376e-03,2.310524284839630127e-01
-6.837610677724603736e-02,-6.722122102037821068e-02,-3.110031410417753994e-01,1.346294238127807887e-03,-8.788338436695004863e-02,6.421330957391921390e-02,3.077261149883270264e-01
-5.272462697079854932e-02,-5.121469561617297828e-02,-2.830030453712684135e-01,5.912526895284507533e-03,-8.899402930317573679e-03,-1.040409487832923661e-02,2.324765473604202271e-01
-5.818755194424088395e-02,-4.469388199344792589e-02,-2.786291686192628458e-01,5.632914780094238488e-03,-1.435122261117101729e-03,-3.841753558724145343e-03,2.278086841106414795e-01
-6.051716900103900482e-02,-4.301700769434362026e-02,-2.540230431909443198e-01,1.195702104678647050e-02,-2.099198739910478756e-02,-3.992179844760435775e-02,2.183330357074737549e-01
-6.003007649136957169e-02,-4.919089268512359669e-02,-2.578364227887849358e-01,1.242468753329058900e-02,-5.782005371824969035e-03,-1.072867631544872566e-02,2.056638598442077637e-01
-6.471053518229727408e-02,-3.718293097922223400e-02,-2.697457389754777668e-01,2.572659182560515460e-03,-1.566096781409949228e-03,-7.713999126846397998e-03,2.205607891082763672e-01
-6.549959410160566264e-02,-4.024666243855282155e-02,-2.722165091626460587e-01,4.615248216260195262e-03,-1.051473643081457477e-03,-1.050995178867789384e-02,2.213332206010818481e-01
-4.925237703573669135e-02,-4.900735554447863129e-02,-2.909316220438481482e-01,-1.578918448405562365e-03,2.802353983765426673e-05,-2.570091382549676874e-04,2.418177276849746704e-01
-6.354523885980138675e-02,-4.641784728518558167e-02,-2.806681876284994326e-01,4.429492525067978831e-03,-5.583307399121230016e-03,-9.512309482135810484e-03,2.271085828542709351e-01
-5.976351899510344567e-02,-4.815771134975954659e-02,-2.888906613566644133e-01,4.510570408052050687e-03,-7.452310618115813058e-04,9.567777729092781557e-04,2.352840751409530640e-01
-6.007206553232379009e-02,-3.775328745792050356e-02,-2.787441657486693924e-01,2.457285101258276962e-03,-8.303590314500921199e-04,-1.149247342075196757e-02,2.315437793731689453e-01
-5.901908631939470351e-02,-3.733736212153758449e-02,-2.824032327522715269e-01,3.022443327022135591e-03,-8.129505129403382085e-04,-1.131609162843107272e-03,2.350471317768096924e-01
-4.787510928048840930e-02,-7.095441809678945666e-02,-3.101291149280091530e-01,1.846782582934411183e-03,4.487587959128701981e-02,-2.379668491704116373e-03,2.632981836795806885e-01
-6.471627176372403423e-02,-6.325856116042068156e-02,-2.961955705831995078e-01,2.613580355936965128e-03,2.210694346249117079e-03,-1.464880433722340596e-03,2.323011308908462524e-01
-6.654842521384460308e-02,-6.051658878359306160e-02,-3.010660954318145621e-01,2.662749930156810361e-03,-2.796933225460820297e-03,2.568883357110254666e-03,2.377267926931381226e-01
-7.045656898328403472e-02,-6.795912032049719609e-02,-3.019160136519910553e-01,8.480043640135121602e-03,-1.670269942644656827e-03,7.717119335465550669e-04,2.332030385732650757e-01
-4.514393476981980180e-02,-5.841284507843344520e-02,-2.896705153107630437e-01,-2.807750080983412600e-03,-5.350585797967470029e-04,-1.578724760278801169e-03,2.382366359233856201e-01
-5.448885733246966456e-02,-5.415087596481837906e-02,-2.977608710438293671e-01,-4.825275150445881844e-03,8.071896391177394575e-03,-4.326442522371968386e-03,2.441005557775497437e-01
-7.170895872412891281e-02,-6.533529769325888137e-02,-2.928510132810249189e-01,6.092493316905097690e-03,-6.838594499068034217e-05,-1.906469096708510061e-04,2.246450483798980713e-01
-5.957006566171495210e-02,-6.130656003814374810e-02,-2.996773847931036849e-01,1.720142706990208806e-03,-7.977597762519912780e-04,2.514706259763344748e-03,2.393059730529785156e-01
-5.216646149898226947e-02,-5.065105670355785072e-02,-2.740821924706022816e-01,-7.329640518551462300e-03,4.233862002319132428e-03,-4.099972352200239797e-03,2.232723832130432129e-01
-6.072078572835276633e-02,-6.487827791347623718e-02,-3.313953730765155647e-01,7.999372202090912183e-04,8.998173122541050159e-03,6.468005434713562435e-04,2.690776288509368896e-01
-4.865679116787019476e-02,-5.331535034046525068e-02,-2.916403064998747130e-01,-9.118238257567123310e-04,-2.568696383220478441e-04,-4.160615022277953348e-04,2.406947165727615356e-01
-4.690807135140148687e-02,-6.125945107645172638e-02,-2.819829732795708366e-01,-7.481919096331479321e-03,-1.133567942230260736e-02,2.319672470062158522e-03,2.294822335243225098e-01
-5.402674434792835434e-02,-6.473569354712099821e-02,-3.267846245282709505e-01,-1.070388500265421344e-02,-3.292105298949363212e-02,3.105234301931335955e-02,2.794252038002014160e-01
-4.539477604954991752e-02,-6.239759608706579863e-02,-2.827313211633100121e-01,-3.952685917660606410e-03,-6.740033053951182372e-03,2.226738507052181300e-03,2.297397851943969727e-01
-4.293921184519812473e-02,-5.444625825859276264e-02,-2.458223330512444849e-01,-7.106871971567970889e-03,-3.363560022989568743e-02,1.986824126495283227e-02,2.090196460485458374e-01
-4.362806711444576491e-02,-6.137432226477822217e-02,-2.433383773069359157e-01,-8.976167353133470556e-03,-3.383391587827202368e-02,1.110062012393562246e-02,2.017439305782318115e-01
-4.158501857357849163e-02,-6.425202210640683365e-02,-2.362936287754436315e-01,-5.119317042779483913e-03,-2.366152564653609819e-02,6.293980024980118902e-03,1.894435137510299683e-01
-5.687078593645560065e-02,-7.465673732785389760e-02,-2.579493765810142447e-01,-1.268843415275248271e-02,-4.524643173594093681e-02,1.723541098922601669e-02,2.113964259624481201e-01
-3.717921363249006295e-02,-6.357902622310607210e-02,-2.332582075200665128e-01,-4.192891327231988707e-03,-2.454679427804351902e-02,2.539531449291016971e-03,1.893335580825805664e-01
-5.365278324958253076e-02,-5.087566022384985842e-02,-2.546140609715032976e-01,-4.203839098529230794e-03,1.555941301184906277e-02,-2.444396258798009133e-02,2.086218297481536865e-01
-6.213898304362851233e-02,-7.425847339551361337e-02,-3.474088333222137281e-01,1.592933524373243547e-03,-1.331664343039679760e-03,-5.017884611827765117e-04,2.794317901134490967e-01
-6.134452499251617785e-02,-7.533929444689632660e-02,-3.489854685217365082e-01,-1.038072609871318395e-04,1.093988535872225318e-02,2.416203669581630173e-03,2.815746665000915527e-01
-6.083839711926948557e-02,-6.312857190923318318e-02,-3.026858905294859126e-01,5.603728616446531502e-04,-2.215825741476171087e-03,2.266096578492506498e-03,2.407751232385635376e-01
-7.257811911615472122e-02,-7.330725048251060527e-02,-3.316492437553605344e-01,3.385682340459438954e-03,-1.389743646206618305e-02,-2.324874696418471713e-03,2.599221169948577881e-01
-5.462048894159915458e-02,-7.667636855484749603e-02,-2.998582737131951781e-01,7.192889935749966282e-03,-1.661840704541665392e-03,-1.550758277043393389e-03,2.353504002094268799e-01
-6.334780070128963325e-02,-6.380190149315662085e-02,-3.141956397556228686e-01,-3.034507112230535285e-03,7.796803576450309081e-03,-1.363772079160955990e-02,2.521485388278961182e-01
-5.828677752936486933e-02,-6.626315301794682977e-02,-3.026847788622045732e-01,3.259331727583009760e-04,-1.563655352244567231e-03,1.795184873906368293e-03,2.405450493097305298e-01
-5.970004140551035676e-02,-6.126364292149724666e-02,-2.737461740536215049e-01,1.103459715607690069e-03,-3.213802875130709630e-03,-1.094149274419468909e-02,2.141898572444915771e-01
-6.684569704114455557e-02,-4.014935029724919779e-02,-2.770721283022508086e-01,6.830265317753167822e-03,2.314566710460542499e-03,2.391613665625686239e-02,2.288932055234909058e-01
-6.585732324154987272e-02,-5.994927991555015767e-02,-2.919680301576844661e-01,1.382892421833901671e-04,-2.611655406103007178e-03,1.712151679295308019e-03,2.291858196258544922e-01
-6.247220865475672236e-02,-5.926370637178060563e-02,-2.909833620781460128e-01,7.234608993632575752e-04,-1.504689047542362868e-03,1.877639082068330821e-03,2.301733195781707764e-01
-5.950059195254300826e-02,-6.016430122599207564e-02,-2.982093973374255746e-01,-1.367699990366394143e-03,-1.612763717068610133e-03,3.414802398751569292e-03,2.384791374206542969e-01
-6.426728039013998584e-02,-5.989162289194868705e-02,-2.916330516110797744e-01,-3.787451323709169009e-04,-9.374274987713949623e-04,7.844897117529314170e-04,2.295955717563629150e-01
-5.515661827045315047e-02,-5.859182092399305153e-02,-2.910876878718521854e-01,-1.212919495956396414e-03,-1.236242684877083674e-03,7.758383281457654915e-04,2.342554181814193726e-01
-5.805599739188553599e-02,-5.027766210116128842e-02,-2.979442104470445551e-01,-4.862593526743058149e-03,-4.410275169605503212e-03,1.279432855074893842e-02,2.451390624046325684e-01
-5.823848064094387655e-02,-5.330055166305761039e-02,-2.992509846151667485e-01,6.780798989887929645e-03,-4.285428010452434038e-03,-1.195639075588866493e-02,2.447925806045532227e-01
-6.113331620303159852e-02,-6.363523197689201216e-02,-2.923436312486956123e-01,-1.369532203984424965e-03,-2.953759241758513085e-04,2.431332538868753409e-04,2.299827486276626587e-01
-6.370089683287011306e-02,-6.415099724471420850e-02,-2.964394735301882911e-01,-6.277322575198951947e-03,1.614571006439002735e-03,7.968503351929990403e-03,2.331935167312622070e-01
-5.477145490620424773e-02,-5.369733112317053025e-02,-2.975544569073236278e-01,4.403271087431770425e-03,-7.110952246829579156e-04,-1.108877639273831220e-03,2.434520274400711060e-01
-5.568531201436782707e-02,-6.138524500535266770e-02,-2.986908798552987410e-01,2.078203593157509476e-03,-1.044661298379405065e-03,3.279120824551728930e-03,2.403072416782379150e-01
-6.402150973389367228e-02,-6.243669452132893927e-02,-3.138178219271831049e-01,-3.660801561913288454e-03,-1.119548892795329924e-02,-1.173037823881657379e-02,2.522411942481994629e-01
-4.572663243380545306e-02,-6.216566421378276475e-02,-2.006082506756048378e-01,1.275399892100172704e-02,-2.774448803406292380e-02,-1.768107860074533480e-02,1.595229655504226685e-01
-5.678895320475628450e-02,-5.904285606611205800e-02,-1.644304864522153076e-01,9.897000544768597835e-03,-3.162980913252394499e-02,-1.867763979310926858e-02,1.252633780241012573e-01
-6.073586294353409964e-02,-6.505977750501826251e-02,-2.072776666789493405e-01,1.234037852438304300e-02,-3.606428275555845220e-02,-1.928816695755628668e-02,1.622788161039352417e-01
-5.371970699199235533e-02,-7.177245033204510127e-02,-2.523547904905852901e-01,1.362432443232712218e-02,-2.315367547045459398e-02,-2.097551237204269697e-02,1.992007791996002197e-01
-6.524519455981830918e-02,-7.402135634002889042e-02,-2.075328091612659853e-01,9.723529032966532135e-03,-1.699260705560017709e-02,-4.680397921498153160e-03,1.424417495727539062e-01
-5.590435718802316822e-02,-5.183065014754900668e-02,-2.876056390237912153e-01,-7.054104701981677057e-03,-2.550488297909559061e-04,6.521628054235702535e-03,2.343566417694091797e-01
-5.188800682956891397e-02,-5.640227485189325263e-02,-2.707402654220584792e-01,4.943100429351444773e-03,-1.715699103883522661e-02,-5.775914619330196551e-03,2.190552502870559692e-01
-3.914705037346820349e-02,-6.891364786572247436e-02,-1.952866940468222512e-01,4.940501175193240911e-03,-3.663771721379840973e-02,-2.875210908844559512e-03,1.572987139225006104e-01
-4.259419813716973369e-02,-7.201522810693640475e-02,-2.074443367770359425e-01,4.174544007076167428e-03,-3.259633824976700123e-02,-4.866636277882480078e-04,1.625781655311584473e-01
-5.787632069227756360e-02,-4.890071250156952098e-02,-1.349998754040519222e-01,1.061434526426516950e-02,2.118951952901261537e-02,3.046322373728761398e-02,1.057820394635200500e-01
-7.124559735464577881e-02,-6.162499116080403377e-02,-2.076059486181948688e-01,1.174814020548259168e-02,2.064736614100266821e-02,3.301437189983297271e-02,1.579918116331100464e-01
-4.320768735506055891e-02,-5.543562283138843416e-02,-2.226635807226063357e-01,9.806178030076700275e-03,3.755031907921983769e-02,1.913536166734948474e-02,1.891470700502395630e-01
-4.537072993805416066e-02,-6.517641215650990527e-02,-2.575497762587456441e-01,-4.425968953731531860e-03,3.041252476763534399e-02,-7.307021607400151358e-03,2.102464586496353149e-01
-4.638641972791779367e-02,-5.367207028122253365e-02,-2.897859266946104517e-01,-5.663857114627284667e-03,2.717492280031148181e-03,-1.405453408215315801e-03,2.400987148284912109e-01
-4.656797950708385647e-02,-5.257110048695323723e-02,-2.871910907801465962e-01,-5.282306433971039293e-03,3.053172613698968210e-03,-2.958166643802530738e-03,2.379683852195739746e-01
-5.305286332822720108e-02,-5.949575137032457606e-02,-2.905793711776855082e-01,-4.248978363101988190e-03,1.047148116147026374e-03,3.887190372785763741e-04,2.344949841499328613e-01
-6.360002990083907237e-02,-6.003522173191018496e-02,-2.962312962402469663e-01,1.426910787542773383e-03,-2.203106834998801579e-04,1.450416102469351091e-03,2.344608008861541748e-01
-6.077573337123745589e-02,-6.301359330696851280e-02,-3.373673614918075159e-01,-1.529545699143294900e-03,8.982111464555523478e-03,-5.528072634415672967e-03,2.760972678661346436e-01
-5.691970063709192451e-02,-6.904944155242709325e-02,-3.405324912810209215e-01,4.197054942427723943e-03,1.879922152250579348e-02,-4.841703334137780965e-03,2.798689007759094238e-01
-5.828404468203694788e-02,-6.656914365598735894e-02,-3.397360863017652166e-01,-2.493029314862777249e-03,1.215433201849103889e-02,7.855886692566090707e-03,2.785660028457641602e-01
-4.459413657242795870e-02,-7.471940054701571576e-02,-2.758560945649222163e-01,7.491462544307696085e-03,2.063896329961044732e-02,9.336479755100594857e-03,2.216541767120361328e-01
-4.073205271559410257e-02,-7.236600523649619476e-02,-2.771691262781672549e-01,1.742103632188577583e-03,2.467404191881846648e-02,-9.602719314295874928e-04,2.264112532138824463e-01
-4.506462865970659037e-02,-6.627859817318890179e-02,-2.879907053982638798e-01,-1.746441567609446043e-03,1.696577733172933630e-02,-4.393932566601097336e-03,2.350324839353561401e-01
-4.295450922276349004e-02,-6.352335141509765637e-02,-2.637866888090286133e-01,-5.502384973277525335e-03,3.112262273996013393e-02,2.493383250069058400e-03,2.183185666799545288e-01
-5.440757921536189257e-02,-6.472425933408729182e-02,-3.264427103858394963e-01,4.620245067585922356e-03,2.567323000829410326e-02,1.741822219955478646e-02,2.724969983100891113e-01
-4.665238943345210998e-02,-6.084196328750009208e-02,-2.648268075556642343e-01,6.764210613316355702e-03,-2.568628695686102359e-02,-9.965666850097192053e-03,2.170718312263488770e-01
-4.485221053244119183e-02,-5.986678323371597693e-02,-2.503182396527838249e-01,1.059556030145585200e-02,-2.535296261124031850e-02,-3.476430035456930245e-02,2.127146571874618530e-01
-5.549940613381801335e-02,-7.391972129678295311e-02,-2.478448330367280239e-01,8.059824965329663582e-03,-3.393405113427509778e-02,-2.340831986283365210e-02,1.977025419473648071e-01
-5.911642323742750949e-02,-5.194588963804763759e-02,-2.892459625827447089e-01,9.108992858885063548e-03,-5.462852118880203237e-03,-1.579584784458703747e-02,2.361104637384414673e-01
-3.343996135042372198e-02,-5.468332031015485373e-02,-2.238472163387641989e-01,5.570683748748897837e-03,-4.544484767154850779e-02,-2.040673022537608291e-03,1.973894834518432617e-01
-4.881714069192524819e-02,-7.341930100251654878e-02,-2.135436416176979546e-01,5.619065648336581814e-04,-4.615808580578448228e-02,-9.230574194682057004e-03,1.741715371608734131e-01
-5.411048082600353193e-02,-5.700841439836815128e-02,-2.913354273177902187e-01,-2.366081172534059002e-03,-7.388687586619459291e-04,1.668017464060639896e-03,2.358461171388626099e-01
-5.726660450941001290e-02,-5.680539811679757856e-02,-2.894761596596010511e-01,-1.824606563722924561e-03,-2.896321953811616156e-04,-2.410596339618277062e-04,2.324628978967666626e-01
-5.580123412659568349e-02,-5.101301443118931578e-02,-2.832277725219156106e-01,-5.242495776542772587e-03,2.306297151167830545e-03,-3.796707483221660896e-03,2.301659882068634033e-01
-5.685308990727903911e-02,-5.636112071433899140e-02,-2.916884557230156050e-01,-2.317500583407174249e-03,-1.164649268555659071e-03,1.013128645559790595e-03,2.351312041282653809e-01
-5.485847286155026703e-02,-5.714060381184443704e-02,-2.902701238122767924e-01,-2.009180350073876738e-03,2.606127396324199770e-03,-1.682809087889804546e-03,2.343663722276687622e-01
-6.698231382559274860e-02,-5.097218139644384138e-02,-2.562664316613544324e-01,-7.582678658741559378e-03,3.995494148578989865e-03,-2.161519921234638514e-02,2.018348276615142822e-01
-6.077721772137228279e-02,-5.759867257271752972e-02,-2.427697458198284364e-01,-8.915029432516555219e-03,2.170382236464542258e-02,-2.682840784392126476e-02,1.937027275562286377e-01
-4.896081587186065787e-02,-5.187789389526607786e-02,-2.132302549469149988e-01,-1.030700568459837728e-02,3.082054179550701087e-02,-2.860160306025491886e-02,1.792661398649215698e-01
-5.946621045107294834e-02,-5.138771593959474276e-02,-1.987769484471752779e-01,-1.254335475619345296e-02,1.944542252311554434e-02,-3.273131625333628586e-02,1.594319939613342285e-01
-5.278449728433359106e-02,-6.505311492661075556e-02,-1.805415471481772172e-01,-3.941838541743545557e-04,4.556480977789419129e-02,-5.855201276226074981e-03,1.457283496856689453e-01
-4.476805309714694536e-02,-7.064709251465867146e-02,-2.496931227698336309e-01,-8.886374920437024177e-03,3.583039323349244965e-02,-5.073921623225926061e-03,2.037801146507263184e-01
-4.201590076785648165e-02,-5.433547597638253845e-02,-2.555359229979159985e-01,-7.306091551884594248e-03,1.433547058646323334e-02,-1.207116782440947021e-02,2.105371505022048950e-01
-4.484802659895738286e-02,-6.714041468811063340e-02,-2.445048493344988416e-01,-8.969569158073009696e-03,3.484843867778659315e-02,-6.585338007335119100e-03,1.998090893030166626e-01
-5.619307745050300396e-02,-5.179962007997152701e-02,-2.299012427336273312e-01,-1.607632883207243263e-02,3.689159871720584100e-02,-2.926696090144929527e-02,1.959208697080612183e-01
-5.931545685090158782e-02,-5.486988267756692794e-02,-2.424073206134343128e-01,-1.236276953998563521e-02,3.152589735572593199e-02,-2.681699349141577343e-02,1.998848617076873779e-01
-4.762722376938598179e-02,-6.197498546727656099e-02,-2.681974057308383896e-01,-1.159733540557799682e-02,4.355756235289839906e-02,-1.847812001510019606e-02,2.298085689544677734e-01
-5.516565244313911820e-02,-5.182952746258376320e-02,-2.910170346537770403e-01,-6.443503334432436336e-04,-7.835703377113820058e-04,-3.508482598203924001e-05,2.375435233116149902e-01
-5.632539586094037487e-02,-6.383073010629196353e-02,-2.735562260505306487e-01,-9.036366669295543136e-03,4.022027331850155929e-02,-2.521358256569479137e-02,2.293912023305892944e-01
-5.286304900228484815e-02,-4.924091345491415916e-02,-2.397964618829430128e-01,-1.206664129579796546e-02,3.671369991410259465e-02,-3.230205623241619306e-02,2.079545259475708008e-01
-6.417280739654983301e-02,-7.077224926469757871e-02,-3.003653245651911607e-01,6.066400539220036248e-03,-2.184924615277170773e-03,2.440922600992479624e-03,2.332687675952911377e-01
-6.064881103268050799e-02,-6.742119934147774996e-02,-2.997076996125148107e-01,1.226341362795256660e-03,-4.706487045503312139e-04,-4.877273813502986440e-04,2.357581555843353271e-01
-6.079833897947821419e-02,-7.648790080111732281e-02,-3.351867132284411244e-01,7.039493330229852110e-03,-2.456106038213216880e-03,2.527921779925016311e-03,2.672378122806549072e-01
-5.940174612990198333e-02,-6.747756791924067188e-02,-2.978532733696656054e-01,5.041407411037373328e-04,1.366134235685048919e-03,-3.690907259503012610e-04,2.345323562622070312e-01
-5.824299129489289573e-02,-6.892141129767470620e-02,-2.979601637701488892e-01,1.250820387274909767e-03,1.112925096279544085e-03,-1.276498642230356069e-04,2.345783710479736328e-01
-6.026597486491577782e-02,-7.627596237504125076e-02,-2.983677809293018290e-01,3.860699864467848855e-03,9.398172033901113030e-04,1.383405186165156519e-03,2.306293398141860962e-01
-6.188631982070272319e-02,-7.792411686661510073e-02,-3.307993837654552571e-01,4.350947741317347760e-03,-4.510527394043832572e-03,3.453445011697233759e-03,2.615574002265930176e-01
-6.510622708522595392e-02,-3.968611215668749193e-02,-2.494129808199119225e-01,-5.238067163213286533e-03,-9.388339506869543619e-03,1.438175687731152279e-02,2.006676346063613892e-01
-6.390957045671602499e-02,-3.752171807316001528e-02,-2.443319042071909475e-01,6.283171836329636342e-04,1.052414459031911914e-02,1.351135212240247435e-02,1.972070485353469849e-01
-5.733240493699331974e-02,-4.910497186578613449e-02,-2.711187099030794023e-01,-8.796360738344478902e-03,-8.678288004825701618e-03,8.673565370055943621e-03,2.195790261030197144e-01
-6.037071090730189438e-02,-5.954683234324169294e-02,-2.917270219134523446e-01,8.579314673937674975e-05,-3.154363546078178208e-04,-3.637989048942267991e-04,2.317709028720855713e-01
-5.874053982769709970e-02,-4.448849648220325192e-02,-2.638394439658746093e-01,8.420452809170170250e-03,1.553861336374829163e-02,1.694853862036163616e-02,2.167730927467346191e-01
-6.329363778541399754e-02,-3.907782568215310837e-02,-2.830689705922326271e-01,2.716129359788438478e-03,-1.862145087748987059e-04,2.200885565444733651e-03,2.329085767269134521e-01
-5.302255057602979493e-02,-5.263597122997110134e-02,-2.925286544612999418e-01,-3.177810089946505202e-03,5.636276034337721645e-04,-2.614458124310291504e-04,2.397652268409729004e-01
-6.038174989840028317e-02,-3.923939785738983499e-02,-2.756989992363912401e-01,1.727656245138721111e-03,2.545105943214129827e-03,1.294704961164913973e-02,2.277983725070953369e-01
-5.994230153583023080e-02,-3.491307612701195773e-02,-2.385693885547209292e-01,-4.430589422709850598e-04,1.154421478699736194e-02,2.783454180350783749e-02,1.993230432271957397e-01
-6.131455834808745287e-02,-3.929944101976624860e-02,-2.729726787649046083e-01,-3.958917424294165072e-03,-6.545307796518603886e-04,7.634181641467944167e-03,2.239791303873062134e-01
-5.873905093550099710e-02,-5.820399692067668163e-02,-2.901047504055862536e-01,-8.607787093684877554e-04,-8.637457811290532228e-04,-1.196750475775225754e-03,2.316525876522064209e-01
-4.488688097703268098e-02,-5.778282410209487074e-02,-2.888333975250098051e-01,-2.326271324038724653e-03,-9.186636859286692342e-04,5.237185554748571403e-04,2.378021776676177979e-01
-5.347073798019022495e-02,-5.686448328255130913e-02,-2.896003085335447924e-01,2.926065864636620811e-03,4.376374073815078765e-03,4.097923970433324688e-03,2.347356975078582764e-01
-6.237978148529875477e-02,-6.697514096037757159e-02,-2.916704143912343117e-01,-3.427180807495812994e-03,9.914415680838356386e-04,1.285476296187152735e-03,2.271228283643722534e-01
-5.987702556558899269e-02,-5.989525545660179251e-02,-2.896790879535425800e-01,-1.090948025916771690e-04,-7.463764582532220280e-04,-7.274753247725272275e-04,2.298001199960708618e-01
-6.369582787823330206e-02,-7.574782005297389653e-02,-3.135139337168216245e-01,-8.339254069747399634e-03,3.075764821292331815e-03,3.999653546447668948e-03,2.445987164974212646e-01
-6.963970188444161546e-02,-8.257240697139534014e-02,-3.614511928063771640e-01,-9.600609059899012365e-03,2.693631721612575834e-03,6.708642903113360041e-03,2.863225340843200684e-01
-6.928348483049370787e-02,-6.402009103602358808e-02,-3.055663184449602943e-01,-4.430084329253099543e-03,-1.899042130692546503e-03,-9.546438804127002371e-04,2.391095161437988281e-01
-6.534724124593915828e-02,-6.129795657463141256e-02,-2.895740183929415568e-01,-1.386177811729244957e-03,-2.729557641091887553e-03,-2.281499323097536773e-03,2.263752073049545288e-01
-5.440445056315429406e-02,-5.026968454532040886e-02,-2.848787840518821612e-01,-4.164654348919387579e-03,-1.383746658082120416e-03,2.053536428954292996e-03,2.327206432819366455e-01
-6.815937215480161182e-02,-6.577190939794161362e-02,-2.944207129374128429e-01,-5.397971835132997151e-03,-5.350236272925270892e-04,4.018280451343112349e-04,2.276594936847686768e-01
-6.924318723261256581e-02,-5.452885081907346554e-02,-3.040682575882451832e-01,-5.075163550483831852e-03,-7.067700117761190450e-04,-2.649202650226918122e-03,2.427229881286621094e-01
-4.107798809143034524e-02,-6.115840790381454894e-02,-2.874392551920842420e-01,-1.564271034352998418e-03,-9.564471904047753062e-04,-5.861809357656605447e-04,2.369834929704666138e-01
-6.106549146535236033e-02,-7.391086014170875074e-02,-2.141441467841303514e-01,-2.783471351496392358e-03,2.092426353405187067e-02,-4.261536016022293531e-03,1.517330706119537354e-01
-4.561855349841603680e-02,-5.828844484427281314e-02,-2.826473667563536574e-01,-5.052643283981578595e-03,-6.025670892382881463e-03,2.368463600769267138e-03,2.313923090696334839e-01
-6.013189438659442831e-02,-6.992618662682011099e-02,-2.637691711976141162e-01,-1.393615778211044869e-02,8.041000611779917928e-03,-1.851682941019643092e-02,2.034080326557159424e-01
-4.027573258597157146e-02,-6.662827295494833102e-02,-2.379650289884998049e-01,-6.470667635528056655e-03,5.979294067994399275e-02,-8.291016532562296357e-03,2.135961502790451050e-01
-5.208220602152532908e-02,-6.579664767712034568e-02,-1.669073689417793216e-01,-5.108885978927192421e-03,2.559744233019538989e-02,-1.539075047298553607e-02,1.206348016858100891e-01
-4.707432823898746732e-02,-6.086335705498406579e-02,-2.636969980705244354e-01,-4.735637857181829863e-03,2.435061495329651771e-02,-7.070943512751949080e-03,2.147664576768875122e-01
-4.472565794325034094e-02,-6.526213633450908547e-02,-2.808226247594297620e-01,-6.844502175793617214e-03,1.534721838828403788e-02,-5.669364008967926315e-04,2.283923029899597168e-01
-3.887748061676479794e-02,-6.107979096948495251e-02,-2.514336869221313608e-01,-6.196284367896621841e-03,2.620257550828240800e-02,-1.284628879514353693e-02,2.088631838560104370e-01
-5.417777377560438479e-02,-6.973412757285991914e-02,-2.144969121793979805e-01,-5.217984607651861284e-03,7.724486484625633052e-03,8.181454841607718742e-02,2.092648893594741821e-01
-7.294132133514860672e-02,-7.479571081263693133e-02,-2.147730199976161658e-01,-4.644171837429570890e-03,-3.403017386509317455e-02,5.018677810652010657e-02,1.759308427572250366e-01
-7.929593490753089613e-02,-5.092022811940194460e-02,-2.417727944305991250e-01,-5.054162254183267380e-03,-1.644076829446836086e-02,3.696789531100865001e-02,1.918377280235290527e-01
-6.186257112744990294e-02,-4.475114373782729249e-02,-2.353759097682191492e-01,-9.703708377508599159e-03,-1.224791196322822309e-02,2.683098761229615881e-02,1.904231309890747070e-01
-6.913107254122616285e-02,-5.430834076811930089e-02,-2.696636549740092925e-01,-8.948450633537455290e-03,-2.173945058235876582e-02,5.714351068971598724e-02,2.342213690280914307e-01
-6.966209440567919242e-02,-4.160983506390961845e-02,-1.866943648648273224e-01,-4.391360870283697940e-03,-1.375248697666312317e-02,3.667827263650126624e-02,1.497585773468017578e-01
-5.621846609924832650e-02,-3.919945164598298559e-02,-3.206339513680797615e-01,-2.695028673427928359e-03,3.095079106642554742e-03,-5.519882123821746520e-03,2.735821902751922607e-01
-7.414202464796099123e-02,-7.922458431561774095e-02,-5.017780581968982467e-01,-6.585719976970843929e-03,-2.983977756032159256e-02,2.433931617221592181e-02,4.304689168930053711e-01
-5.480412373783012658e-02,-5.646756825346876951e-02,-3.399000413930921560e-01,-2.623310183111819769e-03,1.572574112000154137e-02,-2.186670340349127634e-02,2.881062328815460205e-01
-6.617965580014406601e-02,-6.887992003541823505e-02,-3.285923629969602633e-01,8.621078051775763265e-03,1.473367346793567120e-04,3.876514329743454505e-03,2.615860402584075928e-01
-6.516861938854426328e-02,-6.226903748621517853e-02,-2.974886986253454380e-01,2.877651322137431047e-03,2.950619151442729262e-03,-3.481756174745749468e-03,2.339700609445571899e-01
-5.109510085537076474e-02,-5.590858521751407295e-02,-3.000214207541392342e-01,-6.472440483411371140e-03,-1.871591404412608793e-03,-1.094956342405460360e-04,2.468309104442596436e-01
-7.166092026458048547e-02,-6.983910740853702115e-02,-3.296522318557686404e-01,7.785318722269127592e-03,-2.383668671264757132e-04,3.805726538674754703e-03,2.593420445919036865e-01
-5.352415442077348984e-02,-5.958993938591037459e-02,-2.493057441019766451e-01,1.154600995009059765e-02,9.113681975060353851e-03,1.801049824748507042e-02,1.969819813966751099e-01
-6.588686941205754155e-02,-6.900235840573305801e-02,-1.693682167358652735e-01,5.506293811562203502e-03,2.302172617829211648e-02,3.126640340635479520e-02,1.225129440426826477e-01
-6.270709193376730606e-02,-6.671049490954894523e-02,-1.385688815577134358e-01,2.825926015588571105e-03,1.329857764944773237e-02,1.413482970633233443e-02,8.137092739343643188e-02
-6.380132060007512318e-02,-4.667488791939386483e-02,-2.651459054317597541e-01,1.010046345645928059e-02,4.408879026799226997e-03,1.341035945571578125e-02,2.125679999589920044e-01
-5.220218607031251734e-02,-5.997294904414943173e-02,-2.912175871864496335e-01,9.107453134714333168e-03,9.033773228037899478e-03,9.191476164844752939e-03,2.368090599775314331e-01
-5.707006282950392861e-02,-5.161978258688977583e-02,-2.382964401338006355e-01,1.114439478533559534e-02,2.245681618631718834e-02,2.925421854504950056e-02,1.957380622625350952e-01
-5.179295033491138067e-02,-7.060527818852008197e-02,-1.801850411764790161e-01,3.765375684592108755e-03,4.248781431576895140e-02,1.919468789666605585e-02,1.448674052953720093e-01
-5.229682956568403041e-02,-7.182117064917797888e-02,-3.523829234458762949e-01,8.802831956741447895e-04,-2.198361168343347313e-02,-5.128134245782742240e-02,3.064561486244201660e-01
-6.137196562495234042e-02,-5.987107035068298111e-02,-3.295299165891697468e-01,-3.490484919248880869e-03,1.302278721989728362e-02,-1.247627868694827294e-02,2.707872092723846436e-01
-6.013627128958715096e-02,-5.606829906988973489e-02,-3.593218353267448317e-01,6.663490650771976449e-03,-8.451916289849980028e-04,-1.984251284918717162e-02,3.034174442291259766e-01
-7.532003065996413504e-02,-6.255026357499747502e-02,-3.331681945744845441e-01,-5.985027208000559887e-03,3.054802987706263257e-03,5.893852192269314824e-03,2.649171054363250732e-01
-6.944974385544652740e-02,-5.356118968831849458e-02,-3.627228137474882708e-01,2.124734682760649751e-03,2.850325793425481646e-02,1.721846242425333073e-02,3.070203661918640137e-01
-7.706395427474765913e-02,-5.919459778032817865e-02,-3.571749844219939130e-01,-4.079158018944121708e-03,-1.159911466904465192e-03,-2.767854478666359301e-03,2.895925641059875488e-01
-7.528926399907191758e-02,-5.741834689607640263e-02,-3.136308646744928597e-01,-8.554336190558540359e-03,2.490822470345009209e-03,6.797503583363201374e-03,2.485200911760330200e-01
-6.347916637306379173e-02,-7.518696215264464300e-02,-3.047650416797544892e-01,6.834519708688405540e-03,-1.234451152803428455e-03,-3.156008900774171910e-03,2.360203415155410767e-01
-6.193320222374717327e-02,-4.507140344920104735e-02,-2.617353430797499936e-01,4.289572372387237542e-03,3.343155283987952076e-03,3.092179075756532058e-02,2.157114744186401367e-01
-7.030761880873388769e-02,-5.704118680979148454e-02,-1.859410526060732427e-01,2.674782556048388871e-03,1.936888118028818120e-02,7.176908386505426174e-02,1.779900640249252319e-01
-5.822779547066860018e-02,-4.737253906194312247e-02,-2.533618775911530285e-01,1.061721385948898901e-02,1.433239390846863595e-02,2.877460384086115777e-02,2.091691642999649048e-01
-6.536989727279299278e-02,-5.829775271467718678e-02,-3.033902644694903006e-01,-1.324332641618788378e-04,-6.944355787435451191e-03,1.538460487889166525e-03,2.419480383396148682e-01
-9.034506118784521589e-02,-5.829544959790468328e-02,-3.084409109642952673e-01,5.239592662992772825e-04,-7.420089268467588810e-03,-3.298662395602084242e-04,2.361126542091369629e-01
-8.778493799395868658e-02,-5.799124406043501545e-02,-3.080353256584844046e-01,-1.828815347972250968e-03,-7.447092500319507820e-03,-1.004333073255621669e-03,2.369375675916671753e-01
-8.123260076527959173e-02,-6.218992294331991688e-02,-3.649957854278935709e-01,7.607940700263916617e-04,2.257755430781499192e-03,-6.134414999818968428e-03,2.939688861370086670e-01
-7.613172910462895349e-02,-5.362983604741362875e-02,-2.963294699581640046e-01,4.109810574056224630e-03,-1.085608429898463068e-02,-5.644357465696215118e-03,2.333410829305648804e-01
-8.199821773840421102e-02,-5.686989941762195244e-02,-3.125619148901216393e-01,-1.438087206321354101e-03,-3.337732438495453428e-03,-6.655184099663062711e-04,2.441837042570114136e-01
-8.107753686780057312e-02,-6.161548879529905876e-02,-3.621762360902540667e-01,3.239936202996844604e-04,1.942657338263923793e-03,-5.193962075033465436e-03,2.914765477180480957e-01
-5.464637234291873369e-02,-7.138114119094374210e-02,-3.289691178969934571e-01,-8.951966529393822619e-03,-3.467726807994755966e-02,1.014369765868602773e-02,2.740418314933776855e-01
-8.335855707005609960e-02,-6.370978612203263836e-02,-3.635987602323005330e-01,3.115685853633626875e-03,1.206682166583602969e-03,-4.304924674363733161e-03,2.907165586948394775e-01
-7.783746021877424592e-02,-8.235314557286046999e-02,-4.722485230158124936e-01,-4.949051331877794661e-03,-1.087195051046648681e-02,2.071996778100118272e-02,3.943544924259185791e-01
-6.074018813811729589e-02,-8.076610920156099271e-02,-3.578552280341626979e-01,1.256022276408487654e-04,7.064391852439602139e-03,1.585292883173584216e-02,2.891921401023864746e-01
-5.543517196378969225e-02,-7.834185931977985518e-02,-3.134562436611944003e-01,-1.978631945758983508e-03,-5.478256230639770227e-03,-3.793954224209767495e-03,2.476573139429092407e-01
-5.920742177568882880e-02,-7.035519067137278870e-02,-3.252962990787855446e-01,-4.308606715778157971e-04,-5.067379042292754912e-04,1.574317223753297912e-02,2.621185481548309326e-01
-6.837236189101961181e-02,-6.642313812757148772e-02,-3.774264189331866803e-01,-6.775321653533853935e-04,1.534247097723931072e-02,5.088017301969244982e-02,3.234108090400695801e-01
-5.314688200812729690e-02,-6.908050267208459827e-02,-3.005336169748730191e-01,-1.153844708084284789e-03,-4.524565607153476290e-03,6.768698883203709028e-04,2.399564385414123535e-01
-8.106916967010291408e-02,-5.282547289691874592e-02,-5.188249726548399554e-01,4.955526193159593383e-03,3.009299207372001517e-04,3.913605547638032700e-02,4.576685726642608643e-01
-6.635252830641122368e-02,-5.791638634177317946e-02,-3.868298516039321289e-01,4.236002890611987801e-03,7.318571902117254439e-03,-1.179369446997190207e-02,3.257487714290618896e-01
-6.330295924044249123e-02,-3.823538478051356077e-02,-1.871083240230818623e-01,-5.477831080788399688e-04,9.523388506291224909e-03,4.609498456144185685e-02,1.603336483240127563e-01
-7.332477839984490042e-02,-5.781133891481846088e-02,-2.064268105908299011e-01,5.964722842573760321e-03,1.346600161203057380e-02,4.993488750538573745e-02,1.677882671356201172e-01
-6.949869770394742630e-02,-4.383011962163505665e-02,-1.896654711402968319e-01,3.629742204864059348e-03,8.374239530332890785e-03,4.776322386679984072e-02,1.589884459972381592e-01
-7.537169454974429472e-02,-6.533049689118614056e-02,-1.947508534813601200e-01,-2.001273644693833068e-03,-9.595490707318726081e-03,2.429339114356365500e-02,1.327013969421386719e-01
-6.785745773640039502e-02,-5.549240156782138389e-02,-1.609371022574987153e-01,1.245861307935412863e-03,-7.721231982388860639e-03,3.431057372947428352e-02,1.169735193252563477e-01
-6.761721159863957886e-02,-4.121881679652344976e-02,-1.781442849942940498e-01,-5.982523106576587840e-03,-1.734102355110860721e-02,5.753497790666806805e-02,1.636189818382263184e-01
-5.171917625396631191e-02,-5.131659108908670497e-02,-2.907369639712046316e-01,6.326881666064015919e-04,-1.049367367440756516e-05,-7.617631441239386316e-04,2.392254769802093506e-01
-6.112472187666234680e-02,-6.599585279156473805e-02,-3.015345223108883976e-01,-2.101356596859393043e-03,-1.405647170635655014e-03,-4.004987015916696346e-04,2.380529046058654785e-01
-6.571348467771220836e-02,-6.246456792015446513e-02,-2.871069032555852996e-01,-8.512689286175924037e-04,-4.529435467654184939e-06,8.281194946217775542e-04,2.230451107025146484e-01
-6.484919206058287200e-02,-6.477862047019757041e-02,-2.907192903823483388e-01,-2.457368058767223432e-03,-1.577963722664695164e-03,-8.435545005999803541e-04,2.259667366743087769e-01
-5.795786719961046329e-02,-5.034762408449972027e-02,-2.903206599523994180e-01,-9.233097655677933828e-04,1.004785207109492543e-03,7.436743820017487506e-04,2.362751960754394531e-01
-6.518412922613146809e-02,-6.567872249181598565e-02,-2.927376831881337571e-01,-4.645674278790218152e-03,4.942522084344074668e-04,6.156082800180407832e-04,2.274531424045562744e-01
-6.393758360093523829e-02,-6.393002629600733067e-02,-3.040140545762132218e-01,-5.522435213929356886e-03,1.703836062963049727e-03,2.360097681228389040e-03,2.403236031532287598e-01
-6.397326969109817796e-02,-6.711535247601083110e-02,-2.934009434387833126e-01,-4.230448426689750741e-03,-2.643072995606268218e-04,-3.209806130997326645e-04,2.279917895793914795e-01
-6.552347553952528325e-02,-6.655300987015089209e-02,-2.930551569583537130e-01,-4.236416695594854079e-03,5.707408186298269315e-04,4.410393545148306354e-04,2.271406501531600952e-01
-5.315456962422834830e-02,-5.889507000341584475e-02,-2.957131405879392938e-01,3.522408505470515580e-03,2.782585080142055065e-02,1.945370004252586216e-02,2.469222545623779297e-01
-5.773151333678899766e-02,-5.940962548865065529e-02,-2.916749384643801957e-01,1.872520616926216189e-03,5.033188298214899461e-04,8.528177665369967089e-04,2.331377714872360229e-01
-5.081928167531467311e-02,-4.917043820761052286e-02,-2.755486540924632632e-01,6.381817787080477748e-03,1.861243296781147499e-02,1.523011309355390072e-02,2.296385765075683594e-01
-4.059542883463006235e-02,-6.606722999658237727e-02,-2.635767062204619204e-01,1.877499736547956878e-03,1.754679525003136412e-02,2.114832529457192148e-03,2.136290967464447021e-01
-5.527957679310568917e-02,-5.581745341541843874e-02,-3.079356549570799739e-01,5.833554033682141621e-03,2.781013226159890443e-03,4.059336644191374049e-03,2.527334690093994141e-01
-6.320682409883815467e-02,-6.849370538665805475e-02,-2.922482221919781020e-01,-4.448809135224099029e-03,-9.475615453339989629e-04,-3.624683568309715223e-04,2.265821248292922974e-01
-6.045226172755788219e-02,-7.510552006255967472e-02,-3.105561212621904543e-01,-9.109849353665436938e-03,3.384645479209624167e-04,5.629228145763902694e-03,2.438159137964248657e-01
-6.498515946336996807e-02,-7.342814229731037257e-02,-3.070081065738150539e-01,-4.413116212033600660e-03,1.083884566012160554e-03,-6.050760454218062981e-03,2.382745891809463501e-01
-6.523721331459658712e-02,-7.025142468611450530e-02,-3.024618075678491280e-01,-5.530906995552908705e-03,-4.577204406743558621e-03,-1.389401906998626772e-03,2.350990772247314453e-01
-6.208317533423718393e-02,-6.651574792406442227e-02,-2.938095661577886375e-01,-2.325737747054293023e-03,2.735438127083155389e-03,1.381958872327830601e-03,2.296389043331146240e-01
-6.146655656944918777e-02,-7.155521917873595983e-02,-3.032893166849442435e-01,-5.462046320238266375e-03,-1.920231170251510914e-03,7.755865239520479647e-04,2.371554970741271973e-01
-5.693977134296213105e-02,-5.342670612779731876e-02,-2.926816926764744253e-01,2.284057084677181427e-03,-7.524890750062753451e-03,-2.138602136898473671e-02,2.407745420932769775e-01
-5.699487523162392877e-02,-7.682932328342240158e-02,-3.167298291918416719e-01,-4.760621611427861936e-03,-3.746490681824556340e-03,3.751354323429564527e-03,2.507115304470062256e-01
-6.100467965279347815e-02,-5.795028950998451500e-02,-3.133651246597609630e-01,1.419701645900592118e-03,2.608799990748564106e-03,6.773679760134039215e-05,2.539535462856292725e-01
-6.433258510816647346e-02,-6.392134907076385542e-02,-3.367019821420055292e-01,6.166485155534664770e-04,2.475595541627187250e-03,-2.705938903528676970e-02,2.766106128692626953e-01
-5.566176967892139116e-02,-6.823806058915671269e-02,-3.175349797476599845e-01,-4.033462505471738929e-03,9.948981418889456078e-04,-8.510733329435173078e-03,2.563423812389373779e-01
-6.396584896654125552e-02,-5.406606396846044826e-02,-3.149898133653039611e-01,2.987817082365645804e-03,-2.941705951306312558e-03,-1.933317513507240570e-02,2.583992481231689453e-01
-6.058491494278450684e-02,-4.542303518174437005e-02,-2.852701597594425875e-01,2.890107609967325179e-03,-3.643722661715028104e-03,-2.784675845794544816e-02,2.377208620309829712e-01
-4.512366009525053956e-02,-5.264962111129656286e-02,-2.847883857351723447e-01,-3.583514204028095083e-03,-1.999890363502680041e-03,5.845977109814228922e-04,2.361009567975997925e-01
-6.278658760963962138e-02,-5.934871389107965189e-02,-3.229598415061080696e-01,3.069568512853129054e-04,3.435513823420234623e-03,-2.162802830802350307e-02,2.646420001983642578e-01
-5.700358364974247860e-02,-5.426137464609771810e-02,-2.911297017087437489e-01,1.861069406084967437e-03,-1.967802093128778393e-03,-9.658700852343461317e-04,2.355618625879287720e-01
-5.962106655651175369e-02,-5.889337222842455644e-02,-3.021205059783966251e-01,5.153998620479100954e-04,3.144174385156516070e-03,2.132195717500018958e-04,2.429270744323730469e-01
-5.578352244828503614e-02,-4.859993254423974895e-02,-2.810501274285600593e-01,6.736119780991143766e-03,3.863356773230112399e-03,2.212733945110146455e-02,2.325180172920227051e-01
-5.108319485193882348e-02,-5.537583852226736492e-02,-2.813776830577155996e-01,3.371865864672714437e-03,2.097251137560959214e-03,2.810556522026547502e-03,2.283339798450469971e-01
-5.165560196711553587e-02,-5.875989175001959663e-02,-2.909421306660016082e-01,-4.951448585160250770e-04,-3.854172354039973446e-03,1.053247230838971846e-03,2.359177470207214355e-01
-5.484308953753225246e-02,-6.076347280025103104e-02,-2.956867903059235969e-01,-1.420913726496614814e-03,2.135831155638596990e-03,-3.337848999737232049e-04,2.379809468984603882e-01
-5.357664378979169750e-02,-6.104928891445388084e-02,-2.898957345232950900e-01,-1.253596006147383434e-03,5.858818408213360696e-04,3.929357550032440785e-04,2.326861172914505005e-01
-5.852199791492521119e-02,-5.892099963110494776e-02,-2.949725527828859217e-01,-7.625466362761779181e-04,1.389613219667492142e-03,-2.029176501874449708e-03,2.362934052944183350e-01
-4.815698688621045109e-02,-6.122895177360396235e-02,-2.934409291465750469e-01,-2.362892979648363416e-03,-1.016708431583811245e-02,-9.570787596513642605e-04,2.397047132253646851e-01
-7.088689233650247168e-02,-7.195028624286414765e-02,-1.276937449478619258e-01,1.507187454057598379e-04,1.171783716930234302e-02,-5.089973431455611930e-03,6.047690659761428833e-02
-7.702863788643916909e-02,-6.890051621745711674e-02,-1.318138315872172672e-01,-1.213290103843670973e-03,8.864021663146348304e-03,-2.173942488512958446e-02,7.190772891044616699e-02
-7.905420418301101204e-02,-7.453042084556013580e-02,-1.766416417056461963e-01,-1.983613431633117659e-03,-2.141614765066105538e-03,-1.197213143873480413e-02,1.021802127361297607e-01
-7.516951419277717594e-02,-7.004678590451791920e-02,-1.506505288001939169e-01,1.825294845062514631e-03,-1.665031181859270837e-04,-1.368163259699662487e-02,8.174309879541397095e-02
-7.620762944577826048e-02,-7.215521968887114723e-02,-1.004483405204123075e-01,-6.259967646966783494e-04,1.834616517870740759e-02,1.508285827239249158e-03,4.147304221987724304e-02
-7.730990261610871939e-02,-8.074029991555523034e-02,-1.067317180013714339e-01,-4.078214726615672723e-04,6.415202715036651474e-03,2.652052097315004200e-02,5.486765876412391663e-02
-7.460226868676206324e-02,-7.230603049599869381e-02,-1.032956274235203309e-01,-1.344837781025520502e-03,1.755322768466662658e-02,1.000035294931076119e-03,4.274624958634376526e-02
-7.509812836724474860e-02,-7.851766580252560190e-02,-1.450729719743631962e-01,-8.531197144211458876e-04,1.496304484013550110e-02,1.100119447085134636e-03,7.311896234750747681e-02
-7.586568673544324959e-02,-8.003388148405965463e-02,-1.469175731404377128e-01,7.945596072950325333e-04,6.868335144891941045e-03,3.604611195610049612e-03,7.037032395601272583e-02
-7.910137207372995582e-02,-7.844487055923665686e-02,-1.557113882305676822e-01,1.167618146137587316e-03,5.071248380847140705e-03,-2.043677491537117252e-03,7.754735648632049561e-02
-4.636438152778722677e-02,-4.776149670742930314e-02,-4.123594235976389688e-02,-6.142118890312158429e-03,-5.066185967455574812e-02,1.214570070618072907e-03,8.861654996871948242e-02
-5.402459527647060500e-02,-6.977838464052088518e-02,-1.836509536305171997e-01,-2.631323384626806615e-03,-3.441040748183017695e-02,-4.831157046801890366e-04,1.363186240196228027e-01
-5.776199974585494168e-02,-7.115737138738789658e-02,-1.813455663221880676e-01,-7.242240110497263732e-03,-1.910839634411271026e-02,1.035892613816348160e-02,1.239820569753646851e-01
-6.444531804678238496e-02,-7.414103376519842747e-02,-1.581005089011900677e-01,4.176026086345368572e-03,-3.359520184905182005e-02,-5.483360151800428621e-03,1.071712598204612732e-01
-6.167072201480454374e-02,-7.211945507696770896e-02,-1.670703097011037863e-01,1.248409463005592003e-03,-1.784960225345630369e-02,-4.804296178778355401e-03,1.055779382586479187e-01
-6.014557105434227557e-02,-7.069470053912743635e-02,-1.647453357663465345e-01,1.699772565257018603e-04,-2.038597835745873527e-02,7.680493662116646492e-04,1.058186143636703491e-01
-5.848648354431473795e-02,-5.003680814000655008e-02,-2.852151304203157656e-01,9.202698375388134247e-03,-2.869510757074618737e-03,-3.263230559907469557e-03,2.317407578229904175e-01
-5.323711793629160027e-02,-4.492241799306517791e-02,-2.809268490184168021e-01,4.143350780027248159e-03,-1.498268930009910961e-03,-3.573408290476939950e-03,2.321668863296508789e-01
-5.961101771540681937e-02,-4.567466142865664325e-02,-2.881472029978129346e-01,4.581011864256589322e-03,3.972252484843474298e-04,-3.096406516032635791e-03,2.360088229179382324e-01
-4.920087717545063022e-02,-6.008473139164582921e-02,-3.652565523073635356e-01,-9.037755604125623839e-04,-1.420910207368846455e-02,2.680984212536620392e-02,3.151732683181762695e-01
-6.129262224167170148e-02,-7.838942815816593579e-02,-3.493247555906622281e-01,2.661450911457520670e-03,2.497018827611952648e-04,-3.809654004229501723e-03,2.799917161464691162e-01
-6.245188084685431018e-02,-5.116605140878158209e-02,-2.614989198275072813e-01,-1.015114931407979856e-02,-5.717733226393927060e-03,-3.559167834304712789e-04,2.059152722358703613e-01
-6.052961202558604370e-02,-7.003445637156782699e-02,-3.115775636248359071e-01,3.884606010815638399e-03,4.355006387381567604e-03,-5.475502543892581293e-03,2.468225210905075073e-01
-6.161576909132518431e-02,-6.519100023820181833e-02,-3.066210947109937468e-01,2.262151861000139680e-03,-9.327117940808686818e-04,4.344815955484060063e-03,2.433907091617584229e-01
-5.969430804784324474e-02,-7.011258353896671069e-02,-3.085387962826728891e-01,3.976826801747258139e-03,2.366558753510784961e-03,-7.811150303430223433e-04,2.439378350973129272e-01
-6.172253194282480149e-02,-7.041958938242101618e-02,-3.118032875117031644e-01,3.443215459359806607e-03,4.299486370430936726e-03,-5.539304288074470631e-03,2.462196797132492065e-01
-6.392285846790848880e-02,-5.877637057536383436e-02,-3.423537258989489684e-01,1.627167861065994007e-03,-1.782845891161223897e-02,2.563848780224847745e-02,2.862108945846557617e-01
-6.268529815576284747e-02,-6.692167321454908779e-02,-3.388296796793635601e-01,6.481289923305253754e-03,3.963393020553374058e-03,9.723104417896087951e-04,2.743716537952423096e-01
-4.423456472944725659e-02,-5.615225297957243678e-02,-2.776532400664413758e-01,-6.331718259414778789e-03,-6.521448413725371889e-04,7.238612420608290772e-04,2.279640734195709229e-01
-7.140994660761795787e-02,-5.799554782468721581e-02,-2.993324004541650929e-01,4.180086356873689846e-03,-1.530587899049617767e-04,-8.531388625912191860e-04,2.350334227085113525e-01
-6.493902960761741006e-02,-5.982930621323083453e-02,-3.156952356360895329e-01,1.969328517178244465e-04,-2.451931025780379643e-03,1.431789779188772857e-02,2.545962333679199219e-01
-4.831470494868542187e-02,-5.192714992017274933e-02,-2.771692618070763503e-01,-7.084635641937168070e-03,-3.026946034995123529e-03,1.391964350160531522e-03,2.274744212627410889e-01
-6.330450657515894475e-02,-5.786266878426829519e-02,-2.931182699935454550e-01,7.020353589592711035e-04,-9.477821489479017420e-04,-8.379252026889126353e-04,2.325959354639053345e-01
-5.421757550165609563e-02,-5.248245159313087715e-02,-2.812431721957473485e-01,6.198561447485318766e-03,-1.645887496739675826e-03,-2.071227012434773617e-05,2.281686812639236450e-01
-4.834885411133146849e-02,-5.864004920542738308e-02,-2.797967818035674847e-01,7.358720948723166885e-03,-3.462204814705954585e-03,-7.228955817486650655e-04,2.269188314676284790e-01
-5.440096098435392991e-02,-5.176993106598093419e-02,-2.890760162811147893e-01,2.741117267859843193e-03,1.119950105212711789e-03,2.207887710193580605e-04,2.360575944185256958e-01
-5.234889464352537880e-02,-5.506612976581692909e-02,-2.848953419158098965e-01,6.806835472727388280e-03,-3.813166825051591494e-03,-3.919344925266964562e-03,2.316938787698745728e-01
-4.900331718954077653e-02,-5.544071551780166418e-02,-2.900562962312061011e-01,3.577430653836668334e-03,-1.321713779030893798e-03,4.895235217035732002e-04,2.379928082227706909e-01
-4.890571106787666711e-02,-5.612090093550001213e-02,-2.872592044376585108e-01,4.065516365722776637e-03,-1.128982227332557021e-03,7.150841017385172957e-04,2.349459975957870483e-01
-4.406171039919468818e-02,-6.531448448999360723e-02,-1.916481919746516882e-01,7.796964139056699076e-04,4.159198863580401001e-02,2.064617801663543202e-03,1.558881700038909912e-01
-4.803908046758903483e-02,-6.078997724117754520e-02,-2.903072728525998292e-01,1.038563023332161449e-03,1.698046122599320600e-03,-8.475539711671981145e-04,2.361807972192764282e-01
-4.972178124844832403e-02,-7.272222790258742187e-02,-2.387920867740261355e-01,6.076261327632062441e-03,2.767329233660568988e-02,5.603631726779329837e-03,1.855540275573730469e-01
-5.257870514499376341e-02,-6.746536494094482195e-02,-1.833199951781473436e-01,6.147749611304952934e-03,3.403811070440929121e-02,1.451403952519829572e-02,1.399633288383483887e-01
-4.762928938840538251e-02,-5.007983165975291029e-02,-2.804089954275184593e-01,-6.619913052567126706e-03,-2.046102587437897968e-03,2.466705668301154893e-03,2.319142967462539673e-01
-4.747019607913443434e-02,-7.207189079527745457e-02,-1.936443604599160928e-01,3.982257420930570245e-03,4.070625289208894965e-02,3.406579849445321665e-03,1.530666053295135498e-01
-6.150877938158534619e-02,-7.503510932733270522e-02,-2.129363283401069229e-01,-3.557513336404554381e-03,2.098850807582196970e-02,-4.809858356841857467e-03,1.499797701835632324e-01
-4.440994151203750406e-02,-7.374739570785773801e-02,-2.696708509477109272e-01,-4.762924948132307018e-03,1.963124362791515004e-02,1.029900671420089274e-04,2.149856388568878174e-01
-5.720164422951472261e-02,-4.793173451286844577e-02,-2.887684640369611033e-01,-2.393278993083068022e-03,1.112788508306665827e-03,-1.297300285398618729e-04,2.363824844360351562e-01
-5.912541445559668651e-02,-5.912702913508544045e-02,-3.023096206493416371e-01,-1.846691184643184337e-03,-1.796108369895327512e-03,5.063966220185925522e-04,2.432259172201156616e-01
-5.879818951724469223e-02,-5.833203322096525145e-02,-2.930331898236229193e-01,-1.359507477634871791e-03,2.254046942040550602e-03,-4.110010298790527788e-03,2.346207648515701294e-01
-7.194021699991298702e-02,-5.981060170464194692e-02,-2.944488192835310603e-01,4.607357861827682428e-03,6.481330169237483826e-04,5.835235166659204047e-04,2.289587557315826416e-01
-6.744816268608200271e-02,-6.597509472600196490e-02,-3.480953775297158659e-01,4.720982447526948095e-03,6.935218487199267846e-03,-1.700805284857724760e-03,2.817769944667816162e-01
-5.927150921720991672e-02,-4.236733712321813505e-02,-2.855290142622151084e-01,1.961834634065615958e-03,-1.057874566383183940e-03,-1.080844343804326230e-03,2.352048307657241821e-01
-6.350512161211024909e-02,-5.991186913516799439e-02,-2.913936211316912606e-01,2.713609428357327763e-04,1.470171686020713478e-03,5.585692592492093106e-04,2.297228425741195679e-01
-5.487195170036934799e-02,-5.888320604340274711e-02,-3.005643219101619135e-01,-2.546155981998653433e-03,1.609392450636607658e-02,-4.509279839179914512e-03,2.454644292593002319e-01
-5.663223405241887831e-02,-5.710122414854584827e-02,-2.929189319286112925e-01,-3.532110762018093354e-03,1.207219037459774519e-02,-9.568389936967545278e-03,2.376344054937362671e-01
-6.402243826962114581e-02,-6.450315675410588090e-02,-2.873085083067272727e-01,9.141432001587815499e-04,4.084368786519590564e-04,-1.070962836673468744e-04,2.230529189109802246e-01
-7.202397912359731480e-02,-7.371029120024152892e-02,-1.390222021145007258e-01,-3.544408838515724714e-04,-1.981417796409993583e-03,1.094209975025913373e-03,6.629006564617156982e-02
-7.322388128718987366e-02,-5.942680599769019356e-02,-3.393371143051339134e-01,3.074500470998996427e-05,-1.348775013846931822e-03,1.755767675542559266e-03,2.733000218868255615e-01
-6.197131583181791914e-02,-6.923184836797988129e-02,-4.304292534179803287e-01,-3.898759824306184413e-04,2.772114997011398616e-02,-4.765842190175463566e-02,3.771718144416809082e-01
-6.790826521274950789e-02,-7.720859240634950216e-02,-4.857539758911930128e-01,1.214194591697925719e-04,2.745559167087220642e-02,-6.295999802107177593e-03,4.161439836025238037e-01
-5.480305093367923708e-02,-5.706136715357980338e-02,-3.364656227790191467e-01,-1.965407147880774536e-04,1.019723026027094699e-03,1.271303385505204685e-03,2.805546522140502930e-01
-3.916227411347585063e-02,-5.146806948873380860e-02,-3.202656956671756650e-01,-4.933863718009068571e-04,-6.850749715073577769e-04,-2.895880098732422393e-03,2.752065658569335938e-01
-5.962963253952742460e-02,-4.686173421871285549e-02,-2.872690260348692570e-01,1.887885854114945390e-03,-5.632387140408038641e-05,-5.024689650565486183e-04,2.343088686466217041e-01
-6.549207214792386600e-02,-6.135492757434811428e-02,-3.147069062874275902e-01,-3.778965058480918365e-04,-3.932062332387280951e-03,-1.952258095259532368e-03,2.514248192310333252e-01
-4.559776105417148728e-02,-5.634486997304094524e-02,-2.955544078683941533e-01,-2.190392734089344640e-03,-4.611198021388024371e-02,2.674052679756531124e-03,2.575311660766601562e-01
-4.573588239265724553e-02,-5.134042918181085102e-02,-2.889211635436934600e-01,4.264675219987284355e-03,-4.683028956804886206e-02,-1.840417398127262155e-02,2.558465898036956787e-01
-5.406510919882345778e-02,-6.398690409368683329e-02,-3.113964471956016111e-01,-1.896382798732989964e-03,-3.969904378644685539e-02,-8.216693358118320328e-03,2.621183693408966064e-01
-5.465849422922629264e-02,-6.086210781865675212e-02,-3.405733059761981707e-01,4.932957197958018868e-03,-5.653231383611657945e-02,-1.079880476756902609e-02,3.000376820564270020e-01
-5.885231054152935404e-02,-6.739043894397532541e-02,-3.935948379925676144e-01,2.666010522222026381e-03,-4.928422390009455645e-02,2.277775002378486929e-02,3.437033593654632568e-01
-3.904210286917728090e-02,-6.029689645862126857e-02,-2.719763930962099674e-01,-3.326440680501696178e-03,7.232995150119337843e-03,-6.334799074751054204e-04,2.234961539506912231e-01
-4.188091244883626607e-02,-6.428060705259280860e-02,-2.733464389692882301e-01,-1.888589620162711691e-04,1.642097129641899300e-02,-5.125232680986932174e-03,2.231168597936630249e-01
-3.862993006431836296e-02,-6.494519663937775578e-02,-2.726506131885789719e-01,-2.537030770696988881e-03,6.749263796377188290e-03,-7.436089721015627521e-04,2.223903834819793701e-01
-4.669163702935207050e-02,-5.234670665616092400e-02,-2.523788146683563771e-01,9.402116534288702115e-03,3.225788077596556530e-02,2.573974055509385336e-02,2.157557308673858643e-01
-5.260844579808558741e-02,-5.107614516520439518e-02,-2.858234438239584119e-01,5.080372195045615609e-03,-4.629141428565914447e-05,1.107880564554423282e-03,2.341581881046295166e-01
-4.631636362200526602e-02,-5.220579822453841334e-02,-2.836729486915378629e-01,5.908774802549192351e-03,5.443755029650573438e-03,2.831501082111223793e-03,2.349311262369155884e-01
-6.150313787530195531e-02,-5.844709319852553486e-02,-2.943744911163761468e-01,-5.441106294007872461e-05,-4.003605637994802420e-04,1.028718546808705817e-03,2.344221323728561401e-01
-5.731691050726409054e-02,-5.050081883593675325e-02,-2.894760587871414437e-01,4.412474972708449808e-03,3.235902569800058401e-03,4.778147041629552186e-03,2.359768301248550415e-01
-5.673745652526122896e-02,-4.678350416514123755e-02,-2.909067170474709529e-01,9.091618556895530653e-03,3.080115135044198937e-03,1.387588267268341502e-02,2.410794198513031006e-01
-5.743189507624725521e-02,-5.410483743906795151e-02,-2.832169571385774742e-01,2.800379132558280301e-03,2.251664112031741966e-03,4.267016265026540855e-03,2.276719659566879272e-01
-5.209913437744431719e-02,-5.587100425669525028e-02,-2.896625339441676328e-01,4.570453062397353272e-03,1.778683373073606817e-03,2.389501742385985623e-03,2.358894348144531250e-01
-3.733063123378804748e-02,-6.329262755987061229e-02,-2.820869315360470253e-01,-1.571391826033201149e-03,-1.874612338502610383e-03,-5.224735015740100512e-04,2.329035848379135132e-01
-3.566377152293317976e-02,-6.502458426770046929e-02,-2.818110978164821701e-01,-2.601965395505371632e-05,-6.888497244490531055e-04,1.261352457808740171e-04,2.328625172376632690e-01
-3.663345960910968646e-02,-6.777397410814801904e-02,-2.798632005726205962e-01,2.109623179859999864e-03,-5.285052145591445302e-03,5.344576235890275383e-04,2.294649034738540649e-01
-3.984475579399138212e-02,-6.702599022483965441e-02,-2.682353011790493680e-01,-1.882283755552631097e-03,-9.702058178293499272e-03,2.850655249194328483e-03,2.168190926313400269e-01
-4.129236545558906402e-02,-6.611303657173286941e-02,-2.865137813325133731e-01,-7.037607497193422424e-05,9.223153704562282425e-04,-1.259771255474196943e-03,2.338169664144515991e-01
-3.381537246812894859e-02,-6.076059975167525523e-02,-2.589041025436973897e-01,1.487205642305548066e-03,-1.339909472065855395e-02,9.228645378447802340e-04,2.141814976930618286e-01
-5.950110235313205848e-02,-7.299465261494030022e-02,-1.726619191570158973e-01,-4.129577518420629069e-03,-4.579610316985524565e-02,1.075251050328502266e-04,1.334299445152282715e-01
-5.523540617326999635e-02,-6.933565349045724135e-02,-1.304112353851085149e-01,-8.139019589348230749e-03,-3.726883348503533255e-02,2.305420317451422479e-02,1.036838591098785400e-01
-4.744470562306317418e-02,-5.272031581757902208e-02,-2.761364714511452823e-01,-7.758926219074251986e-03,1.744436392685517166e-03,1.370432957278676996e-04,2.265194356441497803e-01
-5.962245571357041585e-02,-5.459398762874767552e-02,-2.924058075233237353e-01,-1.542824425159796406e-03,-2.192470475280270184e-03,1.255251426662406990e-03,2.353937327861785889e-01
-6.449729518658431360e-02,-7.120153697054849851e-02,-1.678965689371209602e-01,-3.378412383552957966e-03,-4.217093730498091414e-02,2.183703773875796811e-02,1.297810375690460205e-01
-4.870519936996699217e-02,-2.745737311040651052e-02,-5.163059504327115190e-02,1.668430284422405593e-03,-1.586624204861788318e-02,5.366264770039107929e-03,3.704241663217544556e-02
-5.279868129689093553e-02,-6.594205744790695989e-02,-1.294889998714603974e-01,-4.176780270407185088e-03,-3.732614955887526842e-02,2.139098146084088964e-02,1.032035201787948608e-01
-6.833134243039507005e-02,-7.124488900797870672e-02,-1.700145399600425100e-01,-4.151542752629793810e-03,-3.981407849536235805e-02,1.411673211764940226e-02,1.243251264095306396e-01
-7.496135114773685992e-02,-8.514467832444488904e-02,-1.362274136516655465e-01,6.521622165899280347e-04,-2.954558987618795957e-02,2.058564058356910503e-02,8.440820872783660889e-02
-6.672812720885941407e-02,-7.218225724682342248e-02,-9.755555855605033133e-02,1.131782608609185198e-03,-1.210643929339274942e-02,-1.222032287236608436e-02,4.127336293458938599e-02
-6.910129998520064820e-02,-7.858980713877834756e-02,-1.049554222551924015e-01,1.175112087204173861e-03,-1.523476030135212551e-02,2.204397197074069170e-02,5.651189386844635010e-02
-5.038627035612147642e-02,-6.148919852605486125e-02,-2.762591540996125472e-01,6.277468393110508145e-03,-1.766239859685284075e-02,-2.093362862889519907e-03,2.229377329349517822e-01
-4.480768906809778906e-02,-6.670895143474800393e-02,-2.750208125796955727e-01,1.052499513338292156e-02,-2.620363609708074165e-02,-2.810612513240289771e-03,2.255032360553741455e-01
-4.771251760465577973e-02,-6.450479458179289582e-02,-2.415122717901857508e-01,8.668875164028585351e-03,-4.712294796177493583e-02,6.724965501219030972e-03,2.039824128150939941e-01
-4.653597767521122641e-02,-5.834355976715385750e-02,-2.919416092424700904e-01,5.368717441524817856e-03,-3.779812179520151798e-03,1.157696282178351157e-03,2.399980127811431885e-01
-5.876662876971663896e-02,-4.794532703168796761e-02,-2.849821755425506198e-01,1.015790241946872875e-02,-4.276123249022245262e-03,-1.297621768431020568e-02,2.336837053298950195e-01
-4.411377742915201239e-02,-5.709293974429952012e-02,-2.892705969425047874e-01,6.914671347251164293e-03,-7.585528406123595059e-03,-4.415931488680465561e-03,2.397143244743347168e-01
-6.046220026860878172e-02,-4.530783666758836370e-02,-2.848032266456492767e-01,-8.304106774626882070e-03,3.852808032856869236e-03,-1.740873805786055661e-02,2.347741425037384033e-01
-5.485881145747031895e-02,-5.773249942227523523e-02,-2.648055135691468331e-01,-1.247483780298649404e-02,1.153610672447923438e-02,-1.031346085607939833e-02,2.113475054502487183e-01
-5.488507389717729723e-02,-5.747684909615514981e-02,-2.483101753648738752e-01,-1.023269003968963961e-02,1.284206120997225496e-02,-1.265310960098908408e-02,1.954682916402816772e-01
-6.673137624758854192e-02,-5.174261579812954037e-02,-1.971886202601147997e-01,-2.237644908499170863e-03,4.121016325738428854e-02,-5.321556320598144763e-02,1.811206489801406860e-01
-7.016028947215674494e-02,-7.500338672438329468e-02,-1.977548349547283424e-01,-6.977719268629946694e-03,9.446951349295006420e-03,-1.116692656089749228e-02,1.283501982688903809e-01
-6.708170809435969051e-02,-6.368913108296515857e-02,-1.928479809591486238e-01,-4.525468523159378170e-03,8.267594149351707722e-03,-1.678594750533014129e-02,1.317844390869140625e-01
-5.290925322012170195e-02,-6.583714955789987666e-02,-2.300690910530237554e-01,-1.200582820805642589e-02,3.154470666946452423e-02,-3.171713212229225476e-02,1.889391094446182251e-01
-5.955059675978405243e-02,-4.729784399985834109e-02,-2.936183175591063899e-01,5.973636924286570941e-03,-4.707349645969752944e-03,-6.204906129153877313e-03,2.410286962985992432e-01
-4.121998273347760033e-02,-6.607413391469382780e-02,-2.883289166355901822e-01,-4.573393209094455758e-04,-8.724404977332057137e-03,2.512695432701196174e-03,2.361922562122344971e-01
-3.918608353307054259e-02,-6.526760693042085726e-02,-2.832866979908087446e-01,6.303516423377245916e-03,-1.213567474007097059e-02,-5.178389030771344062e-03,2.335386723279953003e-01
-3.679204077210562751e-02,-6.064883633541739982e-02,-2.862362074249534816e-01,1.761705573422554794e-03,-1.209891713326610024e-02,-5.720921777371268391e-04,2.393533885478973389e-01
-5.569242297153349786e-02,-7.097937165632922651e-02,-2.470511484631524590e-01,-1.225069292524138924e-02,-2.366095009441654753e-02,-4.082933127295579855e-03,1.900166571140289307e-01
-4.940791874506031411e-02,-5.643644008256692990e-02,-2.684371098617057694e-01,-9.262754620314995330e-03,-7.941016052519459661e-03,5.839109369937690169e-03,2.168699949979782104e-01
-4.614515418524994805e-02,-5.910826386331385907e-02,-2.863109012136089149e-01,-5.736329244237349176e-03,-1.357894372327938214e-02,-4.996929232520758504e-04,2.353443503379821777e-01
-5.080344500618427794e-02,-5.340993877459457306e-02,-2.895252203898363019e-01,-4.835267070453017416e-03,7.413301227957827706e-05,2.487979820060151268e-03,2.376160323619842529e-01
-5.724276414713377892e-02,-5.037763210671936109e-02,-2.692531934709838093e-01,-9.334126614455456883e-03,-8.284020914525964951e-03,8.179713561043328029e-03,2.170691341161727905e-01
-7.172545219353390622e-02,-6.878857462598927941e-02,-5.346652752164591238e-01,-1.463922872719116731e-02,3.120695503127462675e-02,-2.201131631046275225e-02,4.697867035865783691e-01
-5.750689245403328709e-02,-4.851609209447690918e-02,-2.979897935128334452e-01,5.008184532270703801e-03,-2.549635290930574302e-04,-6.389345594633864985e-03,2.455054074525833130e-01
-5.831173992550023333e-02,-5.780350275721302111e-02,-2.903023920846548034e-01,-1.170379427218287477e-03,-1.438243439940302794e-03,1.554701603217473280e-03,2.322829961776733398e-01
-5.464957483336674304e-02,-5.516367791066145720e-02,-2.889313703107209697e-01,-3.080156428896562923e-03,-7.323075388187482663e-04,1.014899731095701436e-03,2.340960055589675903e-01
-5.794092677488112131e-02,-5.820264161775504097e-02,-2.902897513955424169e-01,-9.133807534363590783e-04,-1.537565480706724929e-03,1.405138280265978180e-03,2.322514951229095459e-01
-5.705618317509437987e-02,-5.542820159465686181e-02,-2.891577211290103921e-01,-2.447943741878974219e-03,-7.612668649240655547e-04,5.916808638050804429e-04,2.329643666744232178e-01
-4.213414633102116613e-02,-5.648121938311941037e-02,-2.755300870949272118e-01,-1.037394449223438472e-02,-2.415729307075714996e-02,1.389074348922947170e-02,2.323432713747024536e-01
-5.039966684036220612e-02,-5.549145040365896508e-02,-2.869456669033539908e-01,-2.035393598134265132e-03,-4.873007906174137952e-04,8.599895099877481264e-04,2.340744584798812866e-01
-5.892287820260763698e-02,-6.220450664148682862e-02,-2.926797133758349823e-01,1.024220320759243550e-03,-4.028046046625922819e-04,-3.613894441750568074e-04,2.321420907974243164e-01
-5.036073927055916000e-02,-5.405289598239412796e-02,-2.877038053123053274e-01,-1.635124058787122041e-03,-8.179934635202130294e-04,9.201648525750228498e-04,2.355453819036483765e-01
-5.880938967212973045e-02,-5.854296501124173213e-02,-3.032559696035044272e-01,-2.767600935425910610e-03,2.484212949598429802e-03,1.550936792377672312e-03,2.446794509887695312e-01
-6.323711928394670778e-02,-4.638755386690605886e-02,-2.909535564164956178e-01,-4.928376798557193399e-04,1.741470858657798030e-03,1.255437534041916985e-02,2.376094907522201538e-01
-5.860693721559109837e-02,-5.590157436642306799e-02,-2.875537540824573690e-01,-2.733763520261809493e-03,-9.832544699114105502e-03,7.108950181418281604e-03,2.313167005777359009e-01
-5.290161074166896404e-02,-3.578982731102683945e-02,-2.213161689616518490e-01,5.727575191212930412e-03,1.768635793445064858e-02,4.025104215423636056e-02,1.934823691844940186e-01
-5.868274508529436329e-02,-3.730817790324711392e-02,-2.219387777310722898e-01,7.625739067718650434e-03,2.421687117240098330e-02,3.650359632772876006e-02,1.911289989948272705e-01
-5.856532425461750957e-02,-5.480564220219305560e-02,-2.895079901939969225e-01,1.910107764854265941e-03,4.587573803464911311e-04,-2.665890940155196719e-04,2.328705936670303345e-01
-6.597343922797604954e-02,-4.061712842390560740e-02,-2.780511826664361363e-01,4.230181040412017549e-04,-9.929785612860642498e-05,1.196257935805499807e-02,2.267758697271347046e-01
-6.312589468571173923e-02,-3.616593356252148506e-02,-2.353434183221474463e-01,5.536462538579687599e-03,4.646990391145985541e-04,2.132076949274665581e-02,1.910105347633361816e-01
-5.221332612521562000e-02,-6.699696830451704055e-02,-2.077625844099713903e-01,-1.273524431112954200e-02,-4.468600635149790751e-02,1.908599867426911262e-02,1.722917407751083374e-01
-4.275761201269312473e-02,-6.167262971561637830e-02,-2.744998435412219218e-01,8.071000548123489354e-03,2.013422216656447078e-02,4.389984764522790114e-03,2.261597514152526855e-01
-5.423730897465919853e-02,-5.818684665263013089e-02,-2.531978979487813364e-01,1.199110989678742537e-02,3.556968837744083761e-02,1.740158181023402501e-02,2.096438109874725342e-01
-5.106459452329738247e-02,-7.186036448370963781e-02,-2.470831578659664907e-01,6.236197416764449088e-03,1.927459445256256287e-02,9.722661022379716633e-03,1.905103027820587158e-01
-5.377127498877609657e-02,-5.468659722329594075e-02,-2.895872630379510149e-01,5.154324813669733212e-04,9.850684962742324786e-05,-6.504167376519096218e-04,2.353641092777252197e-01
-5.012722548425425917e-02,-6.950392951364543770e-02,-2.011607069013050253e-01,9.802528847810670215e-03,3.471733569276922587e-02,2.170319349143062793e-02,1.599289625883102417e-01
-5.103452503465225748e-02,-6.264602521232598420e-02,-2.128577750332540375e-01,1.009848659724171469e-02,3.300336726150919497e-02,1.223593591368353321e-02,1.687167435884475708e-01
-6.700961720022413637e-02,-6.208416091484951493e-02,-2.962328737736206752e-01,-2.467032635903653598e-03,-5.723628704249058077e-03,-5.557622644976988394e-03,2.321761995553970337e-01
-6.087615601219323325e-02,-6.587072952079039978e-02,-3.397045039084541362e-01,3.327307611738406293e-03,-2.400954155036478382e-02,-5.758835138552620241e-03,2.797135114669799805e-01
-5.226954449307620598e-02,-5.939301110540826101e-02,-2.968546051943070641e-01,1.328260681687744998e-02,-3.874774676726228106e-02,-1.579134758447470546e-02,2.528079152107238770e-01
-5.937383806394748442e-02,-5.621487927748503033e-02,-2.893979494194504065e-01,2.094055537918720900e-03,-2.085141292120504426e-03,-4.818460260112343227e-03,2.318265736103057861e-01
-5.307619200090465950e-02,-5.748753320245801601e-02,-3.140128129209356911e-01,9.887723566518052259e-03,-3.614468336856066499e-02,-3.267923695671040574e-02,2.727136015892028809e-01
-5.607673493455123115e-02,-6.035504191073717828e-02,-2.940316157385496343e-01,3.884837228055159752e-03,-2.235730621000374396e-03,-2.636611342757812226e-03,2.360167652368545532e-01
-5.859591313645036437e-02,-5.821798924288097699e-02,-2.952172870124172843e-01,1.479486112020069345e-03,1.104181765743192465e-03,-2.263431482702124575e-03,2.368645966053009033e-01
-4.955986299736266087e-02,-5.407726650633583321e-02,-2.905728332266672154e-01,2.651979524388578188e-03,-4.099062243059209258e-04,-2.980341424504670780e-05,2.388315498828887939e-01
-4.919677421439909437e-02,-5.693464204954770680e-02,-2.877967393880845881e-01,8.779854701707646980e-04,1.436836167488607548e-03,1.017117007103621185e-03,2.348513901233673096e-01
-6.462139489036258788e-02,-3.510321702256470611e-02,-2.745007681103516783e-01,1.944214788950133404e-03,1.055202261996380847e-03,3.986786844176549820e-03,2.262261956930160522e-01
-4.383546869838553239e-02,-5.350715002695315137e-02,-2.879467480036355664e-01,4.231732048383347877e-03,-9.919441690768525909e-04,4.642591249589079279e-04,2.395416796207427979e-01
-4.995989420512329804e-02,-5.345244624665511368e-02,-2.872257898280645705e-01,1.648711720517759141e-03,1.199646979404888096e-03,1.300630596622928681e-03,2.355762869119644165e-01
-6.130016518667419367e-02,-7.245946578442413744e-02,-3.091225234642551722e-01,-5.598516523107377289e-03,4.876789343367895937e-04,2.033414841443119490e-03,2.426562905311584473e-01
-6.729086575003007109e-02,-6.525822183860369163e-02,-3.460542024116972648e-01,-6.246458997204295573e-03,-2.644023361061518911e-03,-8.584619031351475166e-03,2.804262340068817139e-01
-6.329070654142482377e-02,-4.748055628240790971e-02,-2.921554965678356264e-01,5.574426588043876994e-03,-1.676042700425662332e-03,-6.508208248854921614e-03,2.376471310853958130e-01
-6.228498678324520532e-02,-6.245121079533856590e-02,-3.081113845800536044e-01,-3.047375970657512437e-03,-6.349749757638654957e-03,-1.394123147334655130e-02,2.472279816865921021e-01
-5.882939302701445383e-02,-7.364625045680039950e-02,-3.026628460026157263e-01,-3.227094325747340356e-03,-2.940092994007374077e-04,-4.228164547061730519e-03,2.369526922702789307e-01
-5.229953746761148436e-02,-5.189088414933820670e-02,-2.898678873726582284e-01,-3.417465428107841884e-03,2.530805753240948251e-04,-9.022272358965849467e-04,2.378521412611007690e-01
-6.176016797969447608e-02,-7.396161747380818052e-02,-1.705154048420375879e-01,-4.117570923149963674e-03,-4.392327671813252288e-02,2.503848719155438857e-02,1.355323195457458496e-01
-5.192146057425137129e-02,-5.295265618363567683e-02,-2.901972109835321278e-01,-4.668890635030870095e-03,3.161199281843330312e-03,-2.132257834824347054e-03,2.379909753799438477e-01
-4.981758822145532228e-02,-5.581325544236598324e-02,-2.782259838217635561e-01,-7.867985260708044645e-03,1.703766388844784110e-02,-9.344710461551230390e-03,2.283755987882614136e-01
-5.350449251589661781e-02,-5.374093020878806248e-02,-2.934350926460490006e-01,-8.636949941828068328e-03,1.076870900317213053e-02,-1.693438977442103532e-02,2.427797913551330566e-01
-5.108742808394242663e-02,-5.440984025514854217e-02,-2.903124004375779998e-01,-3.025507257560258040e-03,1.335124812605821207e-03,3.132191972041781691e-04,2.376508414745330811e-01
-6.196693021440201343e-02,-4.419512705349698534e-02,-2.870219736052163073e-01,4.594513866490946424e-03,-7.281549116635710646e-03,-1.413026950503779022e-02,2.361919283866882324e-01
-7.293578259035254918e-02,-4.595502085837597367e-02,-2.033305204634963670e-01,2.570049436808595836e-03,7.862373328201149175e-03,-4.220832301282248511e-02,1.637033671140670776e-01
-7.815892139648336623e-02,-5.789398303085657727e-02,-2.028350483227065459e-01,-3.004235446953770934e-03,1.571334300982316079e-03,-5.129965495025880923e-02,1.625140160322189331e-01
-6.896818457794311186e-02,-3.903273050071683070e-02,-2.392555300315720168e-01,-5.590645993110310720e-05,-7.548886643036790143e-04,-2.136417625892196581e-02,1.906896531581878662e-01
-6.761718366740174235e-02,-4.298380410976820887e-02,-2.779046845140051847e-01,3.307260600931323925e-04,-1.281524520091839567e-05,-2.117444489527724183e-02,2.266122847795486450e-01
-6.551537247054053936e-02,-2.888993879232953921e-02,-2.419660587642145921e-01,-4.398482376553522304e-03,-1.401643066540141070e-04,-5.946226948452446731e-02,2.227200716733932495e-01
-6.620974435978173311e-02,-4.349977315234999919e-02,-2.314032985132959408e-01,4.973645258267150350e-03,-5.982601361040187915e-03,-3.730807073698921839e-02,1.895084530115127563e-01
-6.707165627577096889e-02,-4.806586746830925072e-02,-2.237757901158061724e-01,2.131384787227344566e-03,-1.656928274511342350e-02,-4.836484013232426188e-02,1.890778094530105591e-01
-5.304276338017741010e-02,-5.268617993642972508e-02,-2.964681168161671376e-01,7.528941642305619214e-03,-1.369926156591762603e-02,-1.084950086732407691e-02,2.458231747150421143e-01
-6.111044551697157601e-02,-5.398675816029457897e-02,-3.004077934582853326e-01,4.988312363555404486e-03,-1.271869460267182651e-02,-6.622767152887917494e-03,2.443566620349884033e-01
-5.017478334267272411e-02,-5.899202202817191432e-02,-2.903876061441319489e-01,1.037450246815220523e-02,-2.273595922839553168e-02,-2.197449373817271512e-02,2.428666800260543823e-01
-4.555880848381187176e-02,-5.787172126830941732e-02,-2.779784906207903861e-01,4.336297275042218409e-03,-2.992553768064597393e-03,-8.002123118274119540e-03,2.271213978528976440e-01
-5.999510827323578654e-02,-4.890550677526167567e-02,-2.990059867213346601e-01,1.026055582521753946e-02,-1.815714546881592312e-02,-2.267875325225636451e-02,2.504946589469909668e-01
-5.333890995521217704e-02,-5.653311498112509326e-02,-2.903047098682650651e-01,2.267897983824132893e-03,1.043957507108951707e-03,1.389013967224966492e-03,2.354369610548019409e-01
-6.631305058492040216e-02,-5.464169067121038559e-02,-2.686621317738562276e-01,-1.454282057469040261e-02,-3.144196659101354541e-02,2.410757244062325388e-02,2.208774685859680176e-01
-5.373033053319203889e-02,-5.070761401644524602e-02,-2.408192900207686837e-01,-1.358228615288242444e-02,1.323922720587985928e-02,-1.733671557430222290e-02,1.937985718250274658e-01
-6.084744959146431986e-02,-6.069016281739776641e-02,-2.968616487114807967e-01,-7.218275079104986792e-04,-2.744674504759188555e-04,1.836056074909281442e-03,2.361180931329727173e-01
-6.028135912967130805e-02,-6.020524891598419415e-02,-2.945899813402991230e-01,4.281575719424545248e-04,2.693773738222892105e-03,-1.666058191898685302e-03,2.344120591878890991e-01
-6.687599284345906170e-02,-6.109764821304825011e-02,-2.905265781448362894e-01,-2.835712644314228054e-03,5.671632901240385941e-04,1.024778233451146279e-03,2.266573309898376465e-01
-6.251046730793802242e-02,-6.167330426109479680e-02,-3.037845982389630883e-01,-1.540688430154869100e-03,-1.132118270540146809e-03,-1.542776209720031315e-03,2.417312562465667725e-01
-6.758148225374575879e-02,-6.250621335249714750e-02,-2.915066771990671435e-01,-3.459653091036007759e-03,-8.295891041576300461e-04,-2.759817795125411172e-04,2.265897840261459351e-01
-6.081826443718879593e-02,-6.431675716298371204e-02,-2.897124640436888887e-01,-2.394980467140008212e-03,-1.090098977753850389e-03,-9.473735550278284366e-04,2.272167950868606567e-01
-6.498072297221745008e-02,-6.365091827322094664e-02,-2.929391984515442582e-01,-4.745837359966935745e-03,5.852290172384732800e-04,1.175753170299955862e-03,2.287853062152862549e-01
-6.362103596057344657e-02,-5.937138590630049173e-02,-2.908980317595415421e-01,-1.822981796154141089e-03,1.128428293136213983e-03,3.047486186201731843e-03,2.295220941305160522e-01
-6.436901341841549939e-02,-6.220090240542161530e-02,-2.931130933430785013e-01,-1.449612814970040750e-03,1.407613154645683679e-03,1.294871854672749413e-03,2.298733890056610107e-01
-4.567437928690230853e-02,-5.730211884019785484e-02,-2.794818664367171301e-01,-6.295669617221464308e-03,1.777926287895974233e-02,-5.493747477985182898e-03,2.307384908199310303e-01
-4.089588881473851800e-02,-6.401167623679292207e-02,-2.848134466850022473e-01,-3.264761301843936703e-03,1.292913583790756757e-02,-2.852297848131929436e-03,2.344133853912353516e-01
-5.982380151696588266e-02,-5.937897299668146861e-02,-5.917972886474372196e-02,-1.824914993007384616e-03,-3.988407723897366419e-02,3.473261243031826317e-02,9.166023880243301392e-02
-3.767953132690779472e-02,-6.463733714645358841e-02,-2.802825453855580240e-01,-2.481856580486955545e-03,1.015224604063844419e-02,-4.162145512056401528e-03,2.311331927776336670e-01
-7.165187379902626663e-02,-6.042545920565696449e-02,-3.114880132990900385e-01,-3.355598952596279202e-03,2.257070111135035979e-03,1.796199022331629010e-03,2.457613646984100342e-01
-6.883352035019479898e-02,-6.244377648573609663e-02,-3.023253878111731296e-01,-3.537424055463441082e-03,-1.182437336240117071e-03,-2.887593803168548093e-03,2.368923425674438477e-01
-6.264828396130445176e-02,-6.230340434387587889e-02,-2.917555695504205904e-01,-2.364229639868526897e-03,1.642576792353024314e-03,1.503073935139337663e-03,2.293489128351211548e-01
-6.037643789622254564e-02,-6.086262577201262403e-02,-2.930744918371128160e-01,9.132699358765860535e-04,-7.392659204947636328e-03,-5.656953115199194956e-03,2.330192029476165771e-01
-6.628434205260075318e-02,-6.446089775353916473e-02,-3.018201892058832714e-01,-4.394368726259323572e-03,2.434743011558572305e-03,2.327477591564073005e-03,2.366472333669662476e-01
-7.091325952181772030e-02,-6.267141736368539440e-02,-3.023140796380331952e-01,-4.234948301168233245e-03,2.695765538184471521e-03,1.288666558316534875e-03,2.358008176088333130e-01
-4.348873924150142845e-02,-6.428169901586545942e-02,-2.892588690570223608e-01,-3.958565665368908235e-03,-2.731748173397517579e-04,-1.829608476225646520e-03,2.361827492713928223e-01
-4.636978844731955152e-02,-6.553943965557612605e-02,-2.807369353627423569e-01,-2.169260301227319242e-03,9.929826675042854184e-03,-3.561175098447420979e-03,2.261651307344436646e-01
-3.667455094624758050e-02,-6.426187527815890865e-02,-2.847723357042090675e-01,-3.716784890116052583e-06,1.430006414482731456e-02,-3.696921967504776529e-03,2.369043976068496704e-01
-3.526967707479208847e-02,-6.395261629236419221e-02,-2.825321251751113927e-01,-5.676183585413903561e-04,2.722665323364572947e-03,1.331829770387501491e-03,2.343026697635650635e-01
-4.570594047315024167e-02,-6.230358585261958071e-02,-2.826422782719612004e-01,-3.511612038431376898e-03,9.185952442642211779e-03,-1.321743687567133619e-05,2.297212779521942139e-01
-3.543411852221114988e-02,-6.382614288299451322e-02,-2.832471704553340963e-01,3.677976839706171251e-04,6.094816741134882710e-04,6.360463048056655454e-05,2.349106967449188232e-01
-4.492866685241519997e-02,-6.006796723355649348e-02,-2.895385091257660637e-01,-4.513742955077146984e-03,-3.061925382218026390e-03,-5.451040497741295107e-04,2.375922799110412598e-01
-5.415441978993777716e-02,-7.030953158268768433e-02,-2.285559533004026533e-01,-9.219488310106110571e-03,-1.647816370247406903e-02,1.328292610149321359e-02,1.716342121362686157e-01
-3.994504570299090007e-02,-6.737657648703987423e-02,-2.566870772203246887e-01,-4.581644475417886650e-03,-7.764686374233387145e-03,5.295981010437798148e-03,2.052121311426162720e-01
-3.753086362931425113e-02,-6.651572193525345789e-02,-2.722300168474002247e-01,-2.476780633686512158e-03,-6.566320504695653815e-03,1.765283298528927088e-04,2.219660729169845581e-01
-3.934681899139658157e-02,-6.304421412816113568e-02,-2.704784103469504153e-01,-4.845956097023968075e-03,-7.855580291612918736e-03,1.399489604627702794e-03,2.208339124917984009e-01
-4.009704531414574891e-02,-6.758623623820782245e-02,-2.873178707749243777e-01,-3.325422464733337503e-03,-8.786257686480818813e-03,-1.357355597506064568e-03,2.352619618177413940e-01
-3.838629072416662597e-02,-6.457877785847987440e-02,-1.845109568703195979e-01,-5.043684174557743795e-03,5.476529890677937079e-02,-1.460516949910388267e-02,1.671079248189926147e-01
-3.595959916818498858e-02,-6.811931936262542731e-02,-2.334081913298758915e-01,1.391374100641027539e-03,2.656202820215506841e-02,2.401998597675584612e-03,1.892354190349578857e-01
-5.361466203884928533e-02,-6.933105259272198673e-02,-1.864754155523455359e-01,-1.088016996431835073e-04,4.512411220950193758e-02,-9.768220211714922704e-03,1.490159034729003906e-01
-5.054459091731570292e-02,-6.704636058684448896e-02,-1.914407737113413555e-01,1.897229487899385666e-05,4.459062019383162878e-02,7.347291523581872888e-03,1.546800732612609863e-01
-3.894974666713811595e-02,-6.748380953013433103e-02,-2.422663509943087656e-01,-2.484681370881659888e-03,2.336553879073886841e-02,-7.084724254031905463e-03,1.953390240669250488e-01
-5.932924555866006533e-02,-5.762271071766603137e-02,-2.827177928321384925e-01,3.590662978637993667e-03,-6.212124625495002439e-03,-1.752488373024754797e-02,2.266327142715454102e-01
-6.349423330511438923e-02,-5.343409823896083655e-02,-2.865708744426307408e-01,2.810526646586142957e-03,-6.614570583822957164e-03,-1.866837014452086760e-02,2.308875322341918945e-01
-6.415398852520709516e-02,-6.071423412420616506e-02,-3.422231830361545657e-01,3.210488037015059911e-03,-4.612221376228168093e-03,-1.545613040636430527e-02,2.812511622905731201e-01
-5.862179124043410960e-02,-6.323840082895661185e-02,-2.946531129981684316e-01,-2.515487686509393014e-03,3.438389501648682692e-03,-5.924130817649119092e-03,2.340986281633377075e-01
-6.228256903002690748e-02,-6.010959557572354006e-02,-3.389210352880813737e-01,1.754978485009294148e-03,-1.763165672117950620e-03,-1.651525997439964172e-02,2.792338132858276367e-01
-5.828917421850471348e-02,-6.421588094705027450e-02,-2.939787463206729456e-01,-2.516001660153435304e-03,3.928621525857342242e-03,-5.591653651640175228e-03,2.331242859363555908e-01
-6.223085778400501422e-02,-4.071774746031950332e-02,-2.875372628505343808e-01,-1.019598511403696115e-03,1.168222041072189063e-03,1.053642121596796467e-02,2.375144064426422119e-01
-6.324752163793739834e-02,-4.712403041984299101e-02,-2.403564422076875928e-01,-9.788592608187377669e-03,-6.850603796904759443e-03,3.184921579941548536e-02,1.948191672563552856e-01
-6.801262050368192535e-02,-3.942526107369669075e-02,-2.944837981239172842e-01,-2.730023518190943538e-03,5.408305816351796462e-03,3.828610697992131107e-02,2.511737048625946045e-01
-6.054553250075184190e-02,-4.658967315260753583e-02,-2.905209692009829703e-01,-1.048370202770835223e-02,-3.020237521095799592e-03,1.988378312583285318e-02,2.404914945363998413e-01
-6.933303335597723605e-02,-4.659590983348559090e-02,-2.811262102937148732e-01,-1.025482911463763275e-02,-1.424380616466091980e-02,2.029651231034153985e-02,2.287987768650054932e-01
-6.197428328495292044e-02,-4.787135743519312092e-02,-2.327218673804531401e-01,-6.612524166407200352e-03,-3.045756104947693055e-02,5.286614570230368376e-02,2.075098156929016113e-01
-6.512528183523946801e-02,-4.419990288349916197e-02,-2.744990834157919890e-01,-5.530943464448400716e-03,1.935318923976550544e-04,8.148620180806883870e-03,2.212409824132919312e-01
-3.702372614380741722e-02,-6.631652351982150750e-02,-2.812732029223368735e-01,-1.852188528537617373e-03,-1.735414299532909445e-04,-9.144224549948884396e-05,2.310227900743484497e-01
-6.525149811218472484e-02,-3.880714775835561459e-02,-2.720317421417826620e-01,-1.362850393441392832e-03,-3.280799553491729921e-03,8.186547455124537631e-03,2.217306047677993774e-01
-7.016840894693193720e-02,-6.558243220229870163e-02,-3.479752086127538280e-01,2.193531314043020025e-04,-1.575716000305281764e-02,1.560548688565466073e-02,2.827494740486145020e-01
-5.925288282386081962e-02,-6.555401369916333265e-02,-3.242409743072458550e-01,-5.461304374620680122e-03,8.183340181410845432e-04,1.651942701242658379e-02,2.636263072490692139e-01
-5.550712255612472168e-02,-5.567621976344015733e-02,-2.937774430537589687e-01,-7.351560519682017077e-03,-3.349310526733592381e-03,1.795630180096211481e-03,2.386167347431182861e-01
-6.019151711732637078e-02,-5.949034395783091289e-02,-2.994945181231445375e-01,-3.087307418055407204e-04,8.396487224676951744e-04,-1.224218732834684870e-03,2.396687418222427368e-01
-6.002098767957558811e-02,-6.394408802567325134e-02,-3.054243596330872279e-01,3.877010692341112895e-04,-1.085419868427234648e-03,2.652625686514717938e-03,2.435170561075210571e-01
-5.962548816829260634e-02,-6.449633439822657910e-02,-2.919234795312479203e-01,2.548260916565521072e-03,2.002118964422814826e-03,2.255188235965934276e-03,2.300029546022415161e-01
-6.194392276721305546e-02,-6.814363315138899369e-02,-3.078743292817512356e-01,2.177675668595442475e-03,-5.856980385613916578e-05,5.440919228602926526e-04,2.429210394620895386e-01
-6.189822189301963373e-02,-7.016325728829464481e-02,-3.048204941486033492e-01,3.106576454753762206e-03,3.263806040988827522e-03,-6.822695809625420674e-04,2.390273809432983398e-01
-5.849590626572079288e-02,-6.115253665802861116e-02,-2.926226163616578724e-01,3.291621738424449733e-04,-5.959073773665181459e-05,6.029177794364519623e-03,2.330445796251296997e-01
-5.033753259957968185e-02,-5.326093220294214614e-02,-2.855645276472795757e-01,-5.034764198069237827e-03,-1.189552487825345194e-03,1.448392858047701202e-03,2.339641153812408447e-01
-5.193203378992725106e-02,-5.284574162585790880e-02,-2.897855648303587772e-01,-2.625060811791587317e-03,-6.035982220695631541e-04,-1.335656752412354704e-04,2.374439537525177002e-01
-5.428901020922138887e-02,-5.256486694581108399e-02,-2.831724993355831943e-01,-7.443720473049982023e-03,-1.659909812195462572e-03,2.850621482203208150e-03,2.301827967166900635e-01
-5.519312643311816147e-02,-4.804338257822023117e-02,-2.895931702519288775e-01,-2.277338907448120398e-03,2.443109985288899680e-04,3.676147071043241979e-04,2.380893528461456299e-01
-5.585440680174003081e-02,-5.144918003300134879e-02,-2.789507487255504792e-01,-8.719131386929580146e-03,2.513386770107022038e-04,2.311650247560877777e-03,2.258726656436920166e-01
-6.012139456357812328e-02,-4.696816666775492644e-02,-2.814641209080736006e-01,-5.667681852365880936e-03,-5.227872819982957997e-03,9.481629456463228425e-03,2.291834354400634766e-01
-4.697393895914997453e-02,-5.510289919606672915e-02,-2.889289679147918344e-01,-4.381413489598501299e-03,2.730257006075383942e-03,1.236456886639921132e-03,2.381722331047058105e-01
-4.176982835378678649e-02,-5.911007045165933560e-02,-2.865233493950771759e-01,-2.050251666629562212e-03,2.709661590844546285e-04,-7.959129028418604826e-04,2.365916669368743896e-01
-4.580859547483942529e-02,-5.723472523778549981e-02,-2.876469587106047499e-01,-2.503706585027487899e-03,2.985049630074905914e-04,-4.907936232139204673e-04,2.363744229078292847e-01
-4.590308726852984633e-02,-5.460524964361992972e-02,-2.864560689085204892e-01,-1.497315406668744834e-03,-6.063588978671428150e-04,-5.703525693372185276e-04,2.363407313823699951e-01
-5.061989372920649988e-02,-5.499431502738888478e-02,-2.886703678851807453e-01,-1.964760446524630062e-03,-3.405470089343212367e-04,6.109262648931326279e-04,2.359213382005691528e-01
-5.780646409917661321e-02,-7.137434067807692240e-02,-2.589512262936463083e-01,7.958149427550591584e-03,-3.119856478974304334e-02,-2.392774439183399313e-02,2.067410349845886230e-01
-5.649139828196707985e-02,-6.730635722431740908e-02,-1.923015355619775990e-01,8.576999404965320040e-03,-1.908642575538948422e-02,-4.767332643429236100e-03,1.359203010797500610e-01
-6.362292296871802089e-02,-5.941513459158981325e-02,-1.586478179656430065e-01,1.023119159905219212e-02,-1.971176402474391492e-02,-3.247462634111221436e-02,1.187045797705650330e-01
-6.714827929023564623e-02,-7.256657654201144336e-02,-1.611332920883020714e-01,6.207767108006851178e-03,-2.138750055374354087e-02,-3.457926167996295402e-02,1.158808097243309021e-01
-6.255951973520355869e-02,-5.736695347354398011e-02,-1.657158996376860427e-01,8.122952796335113426e-03,-2.078575539506671496e-02,-3.038319780376933996e-02,1.243678182363510132e-01
-5.861375352802959682e-02,-5.943097443651390588e-02,-2.924290587206350156e-01,4.712171225540822371e-04,-1.117647236729323468e-03,-1.655012461923055988e-03,2.334348261356353760e-01
-6.533215660002705816e-02,-6.426651348933402896e-02,-2.908877138454206701e-01,-8.030391568603256064e-03,1.425513018449634829e-03,2.310844605575038623e-04,2.265315055847167969e-01
-4.731248063164461559e-02,-3.663249214273943399e-02,-3.344006365433180861e-01,9.952305890346554995e-03,7.029782829866322732e-05,7.032334259886711438e-03,2.933347821235656738e-01
-3.778242872153077248e-02,-4.337425114485293776e-02,-3.361530080265938136e-01,1.378112913443505991e-02,-1.411032862886116290e-03,4.161128810036433812e-03,2.966740727424621582e-01
-6.516624591592026783e-02,-5.829683674398465631e-02,-3.635428887145012444e-01,5.331255676268497820e-03,-5.399082844013903398e-02,2.880013811248813629e-02,3.200689256191253662e-01
-5.160403397595600405e-02,-3.802320769552244850e-02,-3.434281669923230362e-01,1.402403832319077184e-02,3.995045236588279369e-03,-5.799141373025287803e-05,2.999114692211151123e-01
-6.380856913916152506e-02,-6.413917445317834920e-02,-3.044984890122613974e-01,-9.299344958694687191e-03,-8.272534829254771845e-04,-5.619473168516950223e-03,2.412641644477844238e-01
-5.739116570080930735e-02,-6.150358181649445699e-02,-3.356299476988144903e-01,-1.906218932505284467e-03,-1.492693088574527068e-03,3.607302257548876488e-03,2.763080298900604248e-01
-5.310836718987729799e-02,-6.108240852146233635e-02,-2.986812901715139579e-01,-1.575467730239780203e-03,-6.475271306016524078e-03,9.913660879675243592e-04,2.419661581516265869e-01
-3.838915726517562466e-02,-6.099007729533967304e-02,-2.850469893102914876e-01,-1.407421306694556099e-03,-8.243148916973398743e-03,1.090485578951688218e-03,2.366211116313934326e-01
-5.611791259733600601e-02,-6.177407496316733582e-02,-2.940591629557993691e-01,-1.442776087514755856e-03,1.739821382567594910e-03,-4.420908034131773123e-04,2.351980209350585938e-01
-4.244268220858501972e-02,-6.249542514499428769e-02,-2.916986928146736435e-01,-1.328990394984064282e-03,-9.919738640642793148e-03,1.426637420470729545e-03,2.404974251985549927e-01
-4.311858599996767905e-02,-6.160394771054689134e-02,-2.851027984875575405e-01,-1.187257539413917769e-03,-3.393596727682005390e-04,6.672805141485162097e-04,2.333041131496429443e-01
-4.950817570209443963e-02,-5.140083500167691444e-02,-2.914739425700051956e-01,-1.270038979093966736e-03,1.829813552801815241e-04,4.061540583717055146e-04,2.410362809896469116e-01
-4.749165956514581066e-02,-5.931007101008613225e-02,-2.867035946623617271e-01,-2.146073760025892993e-03,3.014671637302236392e-04,9.427544996800126106e-04,2.335630059242248535e-01
-5.089008789646552733e-02,-6.052158497278881111e-02,-2.911032387931978271e-01,-2.774665286397685459e-03,-2.534718047804263193e-03,-2.168560692694943953e-05,2.356350570917129517e-01
-6.242301920056983477e-02,-4.003447712990357288e-02,-2.860364894767496446e-01,-2.896387294842469717e-03,-2.657035324712074802e-04,1.018358351219553551e-02,2.363199293613433838e-01
-5.858091285723884822e-02,-4.160775530489875529e-02,-2.811651433555040214e-01,-4.007613304780013007e-03,-4.139795853487251293e-03,1.515754415466685420e-02,2.332351505756378174e-01
-5.570859429836978738e-02,-4.887373124155074133e-02,-2.685720714494069794e-01,-1.077495103973717325e-02,-7.145991044802763904e-03,8.667288538352649341e-03,2.180351465940475464e-01
-6.118567495912799470e-02,-4.200712946376086721e-02,-2.854295335245833343e-01,-5.359980699030693872e-03,-4.648197549736942345e-03,4.998435230964475701e-03,2.349037081003189087e-01
-5.822874075999820431e-02,-4.205067050301908305e-02,-2.795464526303246267e-01,-4.301426311281501130e-03,-6.311065486985673392e-03,1.331872683170141555e-02,2.313674837350845337e-01
-6.499987956596814387e-02,-4.055469799193929525e-02,-2.712671566465761908e-01,-9.174887453008339017e-04,5.452542835282787572e-05,1.284655751245060949e-02,2.206436842679977417e-01
-4.366994859637943205e-02,-5.527624700789762757e-02,-2.815166321191066023e-01,-5.395247571534243260e-03,7.601832006151184261e-05,-5.443207273155072383e-04,2.324509918689727783e-01
-6.089806029582939262e-02,-4.809036332694230365e-02,-2.749242939161181121e-01,1.090722305915835938e-02,6.207562299350565839e-03,1.089230684337360797e-02,2.225778102874755859e-01
-6.385604075979653405e-02,-3.852509761885258843e-02,-2.770713887566697009e-01,3.008001160745620104e-03,2.140835000061440223e-03,4.324454126733853591e-03,2.271571755409240723e-01
-5.929485986774674089e-02,-4.516073797790212674e-02,-2.754978363095055283e-01,7.596925843277629181e-03,1.007979385181448145e-03,6.012433311718793326e-03,2.242408841848373413e-01
-5.103310257073469247e-02,-4.164604397759501947e-02,-2.150043411981115704e-01,1.004955876050961892e-02,2.579132906468153269e-02,3.647912185394769358e-02,1.865599900484085083e-01
-6.242599680190921707e-02,-4.757587071445368299e-02,-2.915136391603877497e-01,1.308066422594176409e-02,5.257203448301035406e-03,1.447005246079590725e-02,2.394327223300933838e-01
-5.744273119643156927e-02,-6.383290437847202736e-02,-2.298079403675943599e-01,1.027252791307852429e-02,2.364405906544710806e-02,2.873482437646363713e-02,1.819888055324554443e-01
-5.020359926875511691e-02,-6.513160252179064913e-02,-2.948845410462229144e-01,9.546857643463583371e-03,1.128195214389031767e-02,1.078339660395757557e-02,2.396729588508605957e-01
-5.930796194937176802e-02,-5.704744889404839148e-02,-3.038043684456788740e-01,-1.007543810532438976e-03,6.879454811430859261e-03,2.533322577182793925e-03,2.459686398506164551e-01
-5.287882284773361141e-02,-5.906639893267623398e-02,-2.883991823966806090e-01,2.824805485785961481e-03,1.818310420545045467e-03,-1.506745930127558614e-03,2.325757741928100586e-01
-4.594450749426891301e-02,-4.993416571953106231e-02,-2.736702972620018159e-01,8.638182252602303116e-03,1.996725078568923478e-02,1.191545366983348848e-02,2.298091948032379150e-01
-5.097689935370934566e-02,-5.669617166191553981e-02,-2.810807646506594537e-01,3.645604497154274117e-03,7.118052159530930713e-03,-4.409528286487843229e-03,2.278479188680648804e-01
-4.834948811713277173e-02,-5.671920032487638708e-02,-2.841716224869554885e-01,1.120197282355392052e-02,1.939520317098183608e-02,2.352093532382246166e-02,2.384807020425796509e-01
-4.562541591454549739e-02,-5.183995672667345705e-02,-1.790381697379106463e-01,-3.202703712017090573e-03,4.133904422299523179e-02,-4.136890673352981718e-02,1.652276217937469482e-01
-4.765979513579053639e-02,-6.983085543870511114e-02,-2.436683103272748729e-01,-6.749352446506675512e-03,5.445961561666703976e-02,-3.138564044164221523e-02,2.157650589942932129e-01
-4.106379500341336697e-02,-7.006870104917700681e-02,-2.538435938260504288e-01,-2.290209016600432482e-03,2.434038334977647877e-02,-8.970500898607434298e-03,2.048886865377426147e-01
-4.462595124730421581e-02,-5.721152481214228369e-02,-2.916331394929396748e-01,-8.326601667339832147e-03,1.832011576307115974e-02,-5.955148934479573969e-03,2.436872720718383789e-01
-5.006034227941935644e-02,-5.363699195147474813e-02,-1.809856287543251119e-01,-1.346965962117163164e-03,-8.066815397936598353e-02,2.617265865135928044e-02,1.956232786178588867e-01
-5.171362051776844104e-02,-6.779142907440421917e-02,-2.247898712187578196e-01,-8.027826009417454722e-03,6.562588361779950197e-02,-2.766907113529294346e-02,2.069819718599319458e-01
-5.508269615764517513e-02,-5.260703682474261733e-02,-2.894752345873983224e-01,-3.695892786684004498e-03,-1.581806683320680041e-03,1.506558189500910696e-03,2.357574254274368286e-01
-4.835708940984151383e-02,-5.320613420049222220e-02,-2.931478598660109958e-01,-7.427318164150702173e-03,5.908680064040369717e-03,-3.588888059420821709e-03,2.430388927459716797e-01
-5.525715517596002657e-02,-5.604740407187464024e-02,-2.912883367542222213e-01,-2.073187878426654539e-03,-1.854398890751561319e-04,5.843278360970562179e-04,2.356667965650558472e-01
-5.649054400231522111e-02,-5.857551722391822480e-02,-2.910346168538631151e-01,-5.613342888284823199e-04,-7.813973315640180758e-04,8.122260491391148545e-04,2.335187494754791260e-01
-5.207358352137772539e-02,-5.525098779006093475e-02,-2.929883905573482661e-01,-3.786633676070466723e-03,2.088325201983620184e-03,-3.190297491066152943e-03,2.395228445529937744e-01
-5.214555981416268970e-02,-4.564110940518051329e-02,-2.895343163891624938e-01,-9.691325549894186158e-04,3.614807767440451295e-04,-7.238495246553921982e-04,2.407168298959732056e-01
-7.105968820053511215e-02,-5.945423792958767772e-02,-3.006476465884880267e-01,2.650700896399237581e-03,2.140316247110239840e-04,3.340200548938956123e-03,2.357211858034133911e-01
-5.349858910462171324e-02,-5.710837259977774583e-02,-2.987427894288847696e-01,-8.024009909444778516e-03,7.174962063977564572e-03,-5.408734709192881615e-03,2.443518489599227905e-01
-5.044851582324488826e-02,-6.094901703413618810e-02,-3.002966820167263240e-01,-4.192848493130477312e-03,1.903459442741085861e-02,-1.293311908985165723e-02,2.480974048376083374e-01
-5.490719229698051707e-02,-5.949979589271228719e-02,-2.965108244640118906e-01,-1.112954834657477665e-03,4.951927257782178481e-03,-1.880382462330231494e-03,2.395239174365997314e-01
-5.149330774840496505e-02,-4.977271871894123345e-02,-2.433818852050598225e-01,-1.212742239438772789e-02,9.151041578115309480e-03,-1.930425417161835480e-02,1.973949372768402100e-01
-5.395408426629265397e-02,-5.806850376098125766e-02,-2.915346401719040026e-01,-6.995404454579947674e-03,1.091453316465505752e-02,1.420342980026587662e-03,2.366309016942977905e-01
-4.116790179466283534e-02,-5.060437843216036152e-02,-1.636652750698244507e-01,-1.271133878265306993e-02,3.445151652523208152e-02,-5.297288660224771378e-02,1.624885946512222290e-01
-5.830922371383459590e-02,-5.731475841197836152e-02,-2.765985174788242462e-01,-1.493575215079504838e-02,1.464496412103618098e-02,-1.227599619898681570e-02,2.227847427129745483e-01
-4.766025465258168226e-02,-5.932974469864395195e-02,-2.969813513599395827e-01,-3.312211861115260062e-03,1.006260328345564940e-02,1.088799778876523277e-03,2.443930655717849731e-01
-5.289535226636521426e-02,-4.937009762206195917e-02,-2.870823550534461477e-01,-7.273636744150841632e-03,6.581304912739992805e-04,1.952254731048104052e-03,2.363323867321014404e-01
-4.732428959655621270e-02,-5.463095455688185553e-02,-2.909697974879670301e-01,-4.253569679597985972e-03,-2.624985847790247545e-03,2.685437822699397368e-04,2.402320802211761475e-01
-5.757898697251739861e-02,-4.678850944208240437e-02,-2.888135707242224237e-01,-5.036419536678919499e-03,3.605311357034033564e-04,2.801533765123709330e-03,2.370253801345825195e-01
-5.322973203415032328e-02,-5.292949830001288103e-02,-2.903719070511658340e-01,-5.074932655543340845e-03,-1.108983654908637755e-03,5.164344720907955693e-04,2.374646365642547607e-01
-6.145353149953874938e-02,-6.006480440357625517e-02,-2.917106869146283699e-01,-1.749522282977616035e-05,2.520865149388032498e-03,9.122635566605543115e-04,2.310013324022293091e-01
-6.763103298076383885e-02,-5.996583139105730875e-02,-2.922999653248371521e-01,1.963789869541733395e-03,-3.389564384411452615e-03,1.256290513558846458e-03,2.287089675664901733e-01
-5.965026090852951213e-02,-5.759373044844967593e-02,-2.977175325615166734e-01,8.307867380237302611e-04,4.133803845265289750e-04,3.119999498774156995e-03,2.391686290502548218e-01
-7.230565369197045067e-02,-6.024779940940103162e-02,-3.046480420908960762e-01,-2.522105363640231388e-03,-5.642364566530622301e-03,1.666771902436247851e-04,2.388401180505752563e-01
-5.413529578293807543e-02,-5.964599233165926440e-02,-2.924977016240028482e-01,8.846293842630061023e-06,4.200251602792357160e-04,6.907149789453354265e-04,2.356595546007156372e-01
-5.520307878276728419e-02,-5.661758199009933601e-02,-2.935698307908927163e-01,-2.868278638822465993e-03,4.031439910655363126e-03,-4.225488771233153521e-04,2.378182411193847656e-01
-6.496810758367016492e-02,-5.849746912132797183e-02,-3.018728727388471089e-01,-6.639842188845058481e-04,-3.931091251519447090e-05,1.077351177935723060e-03,2.402154654264450073e-01
-6.720231121250885842e-02,-5.655910261949750883e-02,-3.005643144049061632e-01,-3.740327315031587727e-04,-2.282204170856564057e-03,-2.530823536898851086e-03,2.389353066682815552e-01
-5.526164436009665948e-02,-5.842813081522527097e-02,-2.922387037668869869e-01,3.740455038628931819e-04,-6.299800391270682018e-03,-8.678404319368334535e-05,2.356634736061096191e-01
-5.405888352501096727e-02,-5.830304799947705341e-02,-2.928848869917607400e-01,7.587566073163091920e-04,6.651876531586490464e-04,5.412855874586097174e-04,2.367407679557800293e-01
-6.549171518847804463e-02,-6.129093753828313007e-02,-2.986075330453555887e-01,-3.444867917079673001e-05,4.785736797455517706e-04,1.699135692549094299e-03,2.352642118930816650e-01
-6.081527823738452909e-02,-5.921868256282759868e-02,-2.929699359035096151e-01,7.650827637239351582e-04,-2.657201394332265286e-03,-3.841135830922494518e-04,2.330072373151779175e-01
-7.057071290350327986e-02,-5.872031413793191157e-02,-2.968513608200881171e-01,3.231533833209399454e-04,3.580678952169837666e-03,2.658925208231334219e-04,2.325163781642913818e-01
-4.328359767203138198e-02,-5.796830943799277658e-02,-2.766228355355839774e-01,-6.788077150424464551e-03,-6.045994224042291511e-04,3.138220039551425661e-03,2.267271429300308228e-01
-4.132348126169724245e-02,-5.688247468799149942e-02,-2.859113643750243461e-01,-5.206238873167132533e-03,-3.033587938110001055e-03,2.388706806058731036e-03,2.374569773674011230e-01
-3.729423642428682240e-02,-6.468257612542016588e-02,-2.657000982264230426e-01,-3.919602716328877620e-03,-9.019152665942782587e-03,3.573683429134619574e-03,2.167766988277435303e-01
-3.897485256167138035e-02,-6.665212579270855808e-02,-2.804194668225705733e-01,-4.484565951982658755e-03,-4.893427405431836213e-03,3.285168102807709163e-04,2.291538715362548828e-01
-4.772410976110216807e-02,-6.021542390131275069e-02,-2.846649058227813667e-01,-9.218228191823139156e-03,-6.118896630334617372e-03,8.820688316969560819e-05,2.317424118518829346e-01
-4.459379625939265124e-02,-5.927043687362600066e-02,-2.649537495340684723e-01,-9.440917752544882371e-03,-7.864214884679927853e-03,-1.835480538034452505e-03,2.144826501607894897e-01
-5.978608166872466378e-02,-5.975560218116583722e-02,-2.883849762804742145e-01,-7.357902613647661480e-04,2.184315811844595497e-04,8.652675369906634916e-04,2.286229133605957031e-01
-5.787413412457848017e-02,-5.126767289068077937e-02,-2.886645570765744018e-01,4.192968904958559520e-03,3.068872651244437116e-04,-2.383321235686783335e-03,2.343131154775619507e-01
-4.334732723727563464e-02,-5.396865865592678779e-02,-2.685371943946686102e-01,1.026213591470996091e-02,8.585501833700021068e-03,5.305557191093596484e-03,2.214790880680084229e-01
-5.770735546500242730e-02,-4.601065694793253502e-02,-2.256595668180706171e-01,8.983994640503305262e-03,-1.638007024871684578e-02,-2.809465684604789751e-02,1.836415827274322510e-01
-4.983244705362130378e-02,-5.779687436065625988e-02,-2.352777166358514527e-01,1.318714116556243474e-02,-1.802340561039572631e-02,-2.092727274683159333e-02,1.891731917858123779e-01
-5.500202072711649071e-02,-5.502979983503858419e-02,-2.945764134293452630e-01,5.198098589936766926e-03,-1.008189851878699573e-03,-6.293323076773623456e-04,2.397384643554687500e-01
-5.836611602430741286e-02,-5.815616510676480111e-02,-3.102542743366533129e-01,7.006204586739225165e-04,2.203474405060684130e-04,-6.079494982045753620e-05,2.519964277744293213e-01
-6.123896374020323941e-02,-6.067546230079126635e-02,-2.932388822498681047e-01,-1.168362623570423859e-03,6.887604780950013720e-04,5.881288658849330268e-04,2.322962880134582520e-01
-5.725068852452391832e-02,-4.475027944692992754e-02,-2.902606098473358154e-01,4.775604335142253493e-03,-4.455710853540261677e-05,-4.198701054083773046e-03,2.397580295801162720e-01
-6.326965006950811821e-02,-3.737970293715191239e-02,-2.346793507936217327e-01,5.687174922008499632e-03,-6.290895928108295419e-03,-4.005749814253373176e-02,1.987936943769454956e-01
-6.603902785758289373e-02,-4.935347612348542357e-02,-2.261123820828029873e-01,1.079135248155822444e-02,-1.076081092469246409e-02,-2.815503864723802388e-02,1.778979003429412842e-01
-6.183864898624230610e-02,-4.396587180494729297e-02,-2.751285425098230486e-01,7.956936533998095265e-03,-4.639442537029647012e-03,-9.393202930347453392e-03,2.239270061254501343e-01
-5.122240166986061216e-02,-6.160095878001659031e-02,-2.759695392365086875e-01,1.274100359096400591e-02,-1.764994328738415247e-02,-1.699768511705420163e-02,2.248883396387100220e-01
-5.927588329249271204e-02,-6.669802478471995033e-02,-3.109571095350426306e-01,2.986672318395656306e-03,-1.883847101376219177e-02,3.404275359067742129e-03,2.503132224082946777e-01
-5.873391559438194409e-02,-4.286717010921733961e-02,-2.573573980797209115e-01,6.169223548962815031e-03,-8.987628709545392169e-03,-3.013675999249866219e-02,2.143262326717376709e-01
-5.764861004803481515e-02,-5.186106981929380910e-02,-2.829473588846945775e-01,1.138451017441488231e-02,-1.198583085038600407e-02,-3.468449091001716417e-02,2.377515286207199097e-01
-6.090370184395507702e-02,-6.244888459351030652e-02,-2.878226576383077773e-01,-2.161641971129877639e-03,-2.266700152206793954e-04,1.438528430295664667e-03,2.261953800916671753e-01
-4.050954732301920158e-02,-5.952194380541256380e-02,-2.865730034328340947e-01,-1.534022477619689578e-03,-3.210555867909508938e-03,8.291706642797869436e-04,2.372140139341354370e-01
-6.275775982580693302e-02,-7.061054975049538274e-02,-3.038402626216309965e-01,-4.275171150068923787e-03,-2.330385562067548676e-03,1.724857852735366907e-03,2.374222427606582642e-01
-6.082443408944698815e-02,-4.045519767168270775e-02,-2.833954295594766637e-01,1.303677442630090180e-03,4.877321438992967195e-04,-1.168361622011297209e-03,2.334443479776382446e-01
-6.144546035735104494e-02,-6.159502509489465927e-02,-2.883514803546703975e-01,-1.494939136406692832e-03,1.295663220341344412e-03,-2.377417802224224220e-04,2.268575280904769897e-01
-5.924417159306377689e-02,-5.875760433613115563e-02,-2.920081694947614936e-01,-6.330796901081248759e-04,2.219196394092823148e-03,-1.186158926572569196e-03,2.330510020256042480e-01
-6.177431611343012219e-02,-6.037000827086755339e-02,-2.904034593583428858e-01,7.595340784135548064e-04,1.806427795112693991e-03,-2.286955706472168764e-03,2.293938398361206055e-01
-5.366003452600105750e-02,-6.713177261818718822e-02,-2.675705579420756264e-01,-1.319120477840391749e-02,-3.097238801184846665e-02,4.048909548736485259e-02,2.266615182161331177e-01
-6.307855832976831667e-02,-6.806475309152179576e-02,-2.903513507165946805e-01,3.906460274456478865e-03,-1.033700683092499259e-03,1.575608105644116979e-03,2.249466478824615479e-01
-7.199289980370612851e-02,-6.307113167457753522e-02,-2.928998364586551939e-01,5.243081339802157896e-03,-4.179377446535824012e-04,9.371636944450538421e-04,2.256900072097778320e-01
-6.350628682002582015e-02,-6.122786109505455598e-02,-2.880991800061689090e-01,2.042393515565509542e-03,3.263947454713855010e-04,-7.282791808969511435e-04,2.257726788520812988e-01
-5.915492808856576135e-02,-4.404682362467901569e-02,-2.839502807516096627e-01,-4.118374666024578537e-03,1.070791849671992948e-04,-1.541456609184839151e-03,2.328421771526336670e-01
-5.781747773896223075e-02,-4.464987304236878174e-02,-2.882369851192127519e-01,-4.139858888080941851e-03,8.501166634010583071e-04,-8.546337281036140094e-04,2.373949885368347168e-01
-5.717269404386002285e-02,-4.254146480113796258e-02,-2.885340073842156405e-01,-1.981192142931497042e-03,6.710041166917903466e-04,-1.884142715779224845e-03,2.390627712011337280e-01
-5.991779091960024173e-02,-4.741180452999958772e-02,-2.737208612828678778e-01,-7.499477483447450528e-03,1.057883257704446672e-03,-1.599268722520964109e-03,2.207299917936325073e-01
-6.416599919777879468e-02,-4.065316459158718754e-02,-2.717718647438616131e-01,-4.532134034335891064e-03,2.021725268300992358e-03,-1.063971228970771177e-02,2.212418168783187866e-01
-6.731879887758872305e-02,-4.199849871807985469e-02,-2.324535658983416520e-01,-5.642272032199269552e-03,6.250120386923956918e-03,-3.086035193779429475e-02,1.875144094228744507e-01
-6.863178320871199389e-02,-4.719070914012749030e-02,-2.745831759095078706e-01,-8.705221889592267004e-03,4.633235222427887177e-03,-7.855607354026206482e-03,2.185598015785217285e-01
-5.932108143499136010e-02,-3.973982625804989288e-02,-2.826271545127294060e-01,-4.734551050253784678e-03,1.316954761914374428e-03,-3.573108468174512799e-03,2.339495569467544556e-01
-6.210708767749642534e-02,-3.752403269449884615e-02,-2.825401477631721003e-01,-1.900142057193918285e-03,6.681468905677422684e-04,-1.014246363527683548e-03,2.337289750576019287e-01
-5.847454361293593500e-02,-5.219513878672123186e-02,-2.500797503048885484e-01,-9.697797488750173334e-03,-2.206615076085297750e-02,2.084729296683468514e-02,2.024891823530197144e-01
-4.183093824184572207e-02,-5.742446896902657361e-02,-2.887566616423553056e-01,-2.395071098830510968e-03,-2.341961090096825876e-03,7.673357488577749012e-04,2.395839244127273560e-01
-5.059027686774889010e-02,-4.945076427532989205e-02,-2.899641640905917805e-01,-1.634428692492368189e-03,-9.624487714199174990e-04,7.160817175454552673e-04,2.399713695049285889e-01
-7.008479028274523792e-02,-4.177580837190529583e-02,-2.548493689568072096e-01,-2.674526690183267729e-03,4.291554671727662584e-03,-1.845551802095749677e-02,2.031461894512176514e-01
-6.444645022157907688e-02,-3.696469821686775015e-02,-2.548812822225547947e-01,1.347572330203275536e-03,4.375482548124966405e-03,-3.218030547266085423e-02,2.131284922361373901e-01
-7.340170916059521322e-02,-4.039154820457938055e-02,-2.683425013259362890e-01,2.421785031296251264e-03,-1.744050683907170940e-03,-8.681710678192497421e-03,2.139613181352615356e-01
-6.416405455585549866e-02,-4.434709817563697865e-02,-2.694167171074792200e-01,-9.249123827238518725e-03,4.239485510352102027e-03,-9.701467067121046645e-03,2.172136306762695312e-01
-6.998533405607967883e-02,-4.705951999272572905e-02,-2.480847282157683242e-01,-4.121470843459762445e-03,1.878617506832101205e-03,-3.288441796953684576e-02,1.990823000669479370e-01
-6.348643511998075528e-02,-3.888899248707136658e-02,-2.778922690939201745e-01,-2.830886890846841079e-03,3.299188199415626580e-03,-7.416548212402106557e-03,2.281894832849502563e-01
-6.629904864449896740e-02,-3.977210066243337672e-02,-2.677914005042752454e-01,-3.421120844025472819e-04,-9.231697594525225137e-04,-7.744571637041592661e-03,2.164039462804794312e-01
-6.197449325390190500e-02,-3.483334798452335235e-02,-2.678403867789941328e-01,-5.362144055339062871e-04,9.289937746118851879e-05,-9.370369779695582324e-03,2.212897241115570068e-01
-5.658126451880882146e-02,-5.329039708967689415e-02,-2.907138935357850285e-01,-2.967224809972321495e-03,1.089747877992321493e-03,-2.399271634582548747e-04,2.358592003583908081e-01
-5.697496542006239006e-02,-5.875750483548708436e-02,-2.900327904404675916e-01,-1.198904052042482397e-04,1.305075481269040187e-03,1.493059083789779616e-04,2.321829348802566528e-01
-5.914729410745872551e-02,-6.306384324136843356e-02,-2.888893118442229513e-01,1.528437200655336859e-03,-3.710032626205802967e-04,-2.055631799952649733e-03,2.278531044721603394e-01
-6.252162488996489131e-02,-6.434129773529637109e-02,-2.912786338715195322e-01,3.221237737513044184e-03,-2.536649479830650560e-04,1.569452784615296822e-03,2.279375493526458740e-01
-5.453518488754025006e-02,-5.597210533589877524e-02,-2.910738972630523280e-01,-3.455015641726203075e-03,6.748867486143766276e-04,-9.169143658048948490e-04,2.359076887369155884e-01
-5.720730231603063376e-02,-5.375627700643836882e-02,-2.953987680287086803e-01,-3.154187420064486803e-03,1.888773212767969750e-03,-2.006443526743966269e-03,2.400452345609664917e-01
-5.338001516424631387e-02,-5.177387938574654069e-02,-2.882464075962005157e-01,-6.221368189447371543e-03,-4.737058408043758767e-04,3.177620800056603356e-03,2.359853982925415039e-01
-5.264440478887598418e-02,-4.869966007407318387e-02,-2.863956001769770721e-01,-4.690768873956075585e-03,-7.616838881195994336e-04,5.171877206063112825e-04,2.358936667442321777e-01
-5.867004820038940194e-02,-5.548596261223590065e-02,-2.962299246449069390e-01,-1.710390796739288694e-03,-2.315455772812153364e-03,1.155548349971033915e-02,2.400556057691574097e-01
-4.776009821312314496e-02,-5.898556052128949012e-02,-2.900244315525720706e-01,-4.832521041702514918e-03,-3.281913606174007708e-03,1.355036060384179157e-04,2.370673269033432007e-01
-5.307216339345877110e-02,-5.105500089098471972e-02,-2.816333373489779968e-01,-6.740682141748401655e-03,-1.805078590140733047e-03,3.207879875450826701e-03,2.299614846706390381e-01
-4.979917428379307398e-02,-5.399785593892927893e-02,-2.856419679248227150e-01,-4.565027394057837723e-03,-2.750068391024606401e-03,2.546116842901427219e-03,2.339954674243927002e-01
-4.927558747317697940e-02,-5.460304887019569453e-02,-2.643146861333888209e-01,-1.047086066992822771e-02,-8.107800418499653411e-03,6.257942034122387920e-03,2.139350175857543945e-01
-4.801981140726202524e-02,-5.700770005240307636e-02,-2.786326829341446154e-01,-9.897227830374135532e-03,-4.873512118473110645e-03,4.297908528730161673e-03,2.271803021430969238e-01
-4.611584656444793484e-02,-6.088516694236466298e-02,-2.506738317242077629e-01,-1.319511862238538155e-02,3.917668302903972583e-02,-3.020765592428091562e-02,2.165760844945907593e-01
-5.127517517043078676e-02,-5.353104497320954752e-02,-2.427895180791335428e-01,-1.459404862419016666e-02,2.972184241792991122e-02,-2.722507678811265236e-02,2.043612897396087646e-01
-5.547383840190622806e-02,-4.971841385765433941e-02,-2.679716351044496014e-01,-9.783988066923807181e-03,3.533062790990153159e-03,-8.458603472750880412e-03,2.166811525821685791e-01
-5.010934855756868367e-02,-5.974505229528268013e-02,-2.818229104331024248e-01,-6.687542191086202729e-03,9.955335699174849146e-03,-4.053530941328646608e-03,2.281054258346557617e-01
-5.796418810100040925e-02,-5.211936739305377680e-02,-2.195224354851511017e-01,-1.371740576821583492e-02,2.998158893901893898e-02,-2.630236963532402508e-02,1.800448298454284668e-01
-3.988274684674331105e-02,-6.395789665454544581e-02,-1.938239530351856810e-01,-5.097583623689623533e-03,5.296556943787776583e-02,-2.379841124849778333e-02,1.753979921340942383e-01
-5.452899306354960784e-02,-5.320268066905725624e-02,-2.475951811692233828e-01,-1.315480377809225519e-02,1.421826661665854565e-02,-1.322256816844575612e-02,1.979457288980484009e-01
-4.113885009132305093e-02,-6.012019754054705178e-02,-2.102668363660541995e-01,-9.972643306890714016e-03,2.937305087210938942e-02,-2.016757068242533424e-02,1.728038489818572998e-01
-4.858505719635268505e-02,-6.658014376563356485e-02,-2.374333826041717110e-01,-8.251801100436330708e-03,2.141849896082355029e-02,-1.093349017064122047e-02,1.858180016279220581e-01
-6.476867773098327064e-02,-6.337929549913717819e-02,-2.901240213479715502e-01,-1.702961646038524124e-03,-8.296340637904670414e-04,-1.950005705281428409e-03,2.261022776365280151e-01
-6.369131146427026158e-02,-6.208929551066355579e-02,-2.925941540514468975e-01,-1.960648021879026533e-03,9.653111842077370100e-04,1.963333782595972233e-03,2.297643870115280151e-01
-6.022561017241476189e-02,-6.042290567217084574e-02,-2.924340959184167366e-01,-4.068267960273056470e-04,-1.745227555429514034e-03,-2.180246250950417831e-03,2.321613729000091553e-01
-5.678873236810605407e-02,-5.901527632365463627e-02,-2.988669000188646785e-01,3.693018814851828542e-03,2.734389503446758071e-03,-1.137699522675638709e-03,2.411120682954788208e-01
-7.058337015589269403e-02,-6.765775485731873040e-02,-3.250752310986666505e-01,-6.958366007482897665e-03,-4.430736405102799619e-03,-2.536009008278934055e-03,2.564032971858978271e-01
-6.060200842560711787e-02,-6.315554752426900953e-02,-2.905564329522849487e-01,-1.460491136026486041e-03,1.932443646280257660e-03,1.619930976158351311e-03,2.287440448999404907e-01
-5.742853957415886001e-02,-6.983676248080805671e-02,-3.180524078501925089e-01,-3.702571803347243966e-04,1.482719073311680475e-04,4.814307588244083960e-04,2.546488940715789795e-01
-6.065424017066840812e-02,-8.042475317582281624e-02,-3.514035998334250066e-01,-7.123073506706724270e-04,-4.107599616771548737e-03,1.145430113967469549e-02,2.821764349937438965e-01
-5.337753800035463514e-02,-2.311280152457473314e-02,-3.306666534890476683e-01,4.180121031495551143e-03,5.417225289792496762e-03,1.680020299159706507e-02,2.952702045440673828e-01
-5.243577419209785595e-02,-5.391706958720687837e-02,-3.095935261643853464e-01,-6.214754538202168881e-03,-2.326133780229745068e-02,5.655632519194047497e-02,2.776443362236022949e-01
-6.059448625496657859e-02,-6.151395027921238712e-02,-2.989663459803302281e-01,3.136928639747072357e-03,5.523444764866422118e-04,-4.547292336897773221e-03,2.381077110767364502e-01
-5.799554629096485836e-02,-6.560274941092099354e-02,-2.978699810819601668e-01,-7.106438726448203970e-04,7.002640210659067527e-03,-8.245216638904435957e-03,2.369080334901809692e-01
-6.064980203448749885e-02,-6.287098477284400189e-02,-2.913248844118807579e-01,5.789361642340244392e-04,-1.203697007812410460e-04,-1.237610926549684645e-02,2.305734306573867798e-01
-5.943431621937234066e-02,-5.849436855711856453e-02,-3.190479410465660859e-01,3.768132196139259340e-04,5.355846164515050065e-03,-5.245937246103060669e-03,2.604096531867980957e-01
-5.696542149810462918e-02,-5.511724116349719926e-02,-2.986428362622303156e-01,-4.392428771979082309e-04,6.342749752953446944e-03,-4.020312842396938507e-03,2.429563999176025391e-01
-6.034196960404500376e-02,-5.613475940444401235e-02,-3.018462836130989535e-01,-2.186692870064259851e-03,3.695277708640351978e-03,-4.792291190183249963e-03,2.438899427652359009e-01
-6.708233725535678316e-02,-4.987116189474929961e-02,-2.348017010950392280e-01,-7.039155793617669910e-03,1.611300124986711838e-02,-1.704829276857196610e-02,1.819673776626586914e-01
-7.823389358522381265e-02,-4.734360325732427099e-02,-2.444144589185628380e-01,-5.197120429003222655e-04,-9.650711579918530699e-04,-3.316171884734669950e-02,1.923701167106628418e-01
-6.866150055280596798e-02,-3.215158734022417752e-02,-2.636752243540667062e-01,-5.489868536588886350e-03,-9.823902171195374958e-04,-5.334783185495739488e-02,2.347648739814758301e-01
-6.052190602546166087e-02,-3.791376717211185354e-02,-2.256999152935761088e-01,-1.141944556524568909e-02,1.715532272736172009e-02,-4.470540996908274611e-02,1.969749182462692261e-01
-4.343393094998518333e-02,-6.283666468473377009e-02,-2.818098674830629147e-01,1.983244002243652205e-03,-7.729847624629066979e-03,1.308615771532656725e-03,2.297185212373733521e-01
-5.834328621991372033e-02,-5.653825356628428001e-02,-2.906659137056014641e-01,1.090516906988005052e-04,-1.451927446609913540e-03,1.262697802757814340e-03,2.332542687654495239e-01
-4.029505015214278341e-02,-5.935934995504868472e-02,-2.730191336220172960e-01,-1.354168100549195484e-03,-1.017603194791480772e-02,1.631800213412892483e-03,2.245247662067413330e-01
-3.796852079297749483e-02,-6.612375842611473153e-02,-2.709527720350376478e-01,1.985975120284714113e-03,-7.402577315495773198e-03,7.721567285989699731e-04,2.206641435623168945e-01
-3.910901388797480283e-02,-6.756903510947231961e-02,-2.786218287671549110e-01,2.632637116456553990e-04,-3.049597440314049876e-02,-2.561614125693899985e-03,2.327439188957214355e-01
-4.301045515187687518e-02,-7.126361342658882325e-02,-2.772058947004895080e-01,-3.930452831185987303e-03,-2.932375108494607308e-02,1.641708332281287741e-03,2.272951006889343262e-01
-3.728023360473285697e-02,-6.607547757637223518e-02,-2.714737297520711801e-01,-8.383687806264151056e-04,-7.408816552833441711e-03,-3.561693229881952557e-04,2.215835303068161011e-01
-6.231424261262658026e-02,-6.510186992934549610e-02,-2.990177855807910623e-01,3.071852735887929068e-03,-1.558937519548337551e-03,-1.472142223009812075e-03,2.354115545749664307e-01
-5.937749680481158032e-02,-6.071388906643060412e-02,-2.925743136780709630e-01,-1.090372160059618624e-04,-9.648710393907365072e-04,-2.374625983381393243e-03,2.325739562511444092e-01
-5.931837420661040250e-02,-6.087135543836615093e-02,-2.898207293269811080e-01,4.828224291006015067e-04,-1.049942469172290317e-03,-3.442647037969583275e-03,2.298158854246139526e-01
-6.401461007198806785e-02,-3.822254815604844702e-02,-2.827958426265947400e-01,2.821030953296946569e-03,-1.118773714416030610e-04,-2.291690771933784995e-03,2.328367382287979126e-01
-7.443526027613818485e-02,-7.243335567640196704e-02,-1.092812134484366093e-01,-1.645169737110945235e-04,1.166039633814444296e-03,2.829201747085131891e-02,6.077401712536811829e-02
-7.634498987877277876e-02,-7.706079949288965891e-02,-1.273764954726228638e-01,7.802401616407203099e-04,-1.902916117766415005e-02,-3.944053701118360733e-03,6.085242703557014465e-02
-6.014868801133949755e-02,-5.457805280936817854e-02,-4.526569267658392404e-02,7.024055912554086952e-04,3.852857712083171729e-04,1.274680367835467378e-02,2.567092329263687134e-02
-5.565350596589162951e-02,-3.885963367640091204e-02,-5.474197076982613430e-02,-8.160995650541003760e-03,1.518561131694630591e-02,1.602248729308243178e-02,4.392415285110473633e-02
-6.496941719273653659e-02,-5.793971542340248249e-02,-5.926456009039272194e-02,5.493763013720311377e-04,2.157232212403250096e-02,9.595582911306717658e-03,4.141358286142349243e-02
-5.210992654134843222e-02,-5.435658265881389284e-02,-3.301961292171663037e-02,3.521482739403925932e-03,-3.161061748472296894e-03,7.536660605326632283e-03,2.549431473016738892e-02
-5.018548449081294827e-02,-5.120531110772541528e-02,-2.908171215377294283e-01,-3.385408604396181881e-03,-6.628100348409694158e-04,-1.911249863881731351e-04,2.401978969573974609e-01
-2.782421262981368132e-02,-3.836053189390344065e-02,-8.268817764622982125e-02,-1.261658758164074627e-03,-6.529426853716979555e-03,7.823152285377206125e-03,5.347228422760963440e-02
-5.745530549041361068e-02,-5.421443954686391842e-02,-3.025020201148249654e-01,-4.090111382850357760e-03,-8.054215414596034572e-04,-3.672431778224832973e-03,2.468707263469696045e-01
-6.175979438280929101e-02,-6.011275384267500410e-02,-3.001646633469396974e-01,-6.730373734781712686e-04,1.908977071722538785e-03,6.435848785668592340e-04,2.392609268426895142e-01
-5.913161555964036031e-02,-6.126654097461328718e-02,-2.900558998846269887e-01,1.060935489713111905e-03,-2.024034307019861433e-03,7.001364363002666059e-04,2.299015372991561890e-01
-6.173878054622874978e-02,-6.521535502119180094e-02,-3.009815303517630047e-01,4.911982401739894456e-03,-2.285217763966092622e-03,1.968173627146867569e-03,2.377332597970962524e-01
-6.203994539839188804e-02,-5.841301169642225399e-02,-3.039695829703396579e-01,-7.413190307650166684e-04,7.193213406596354626e-04,-9.045118118326665735e-03,2.442728132009506226e-01
-5.955942476073101954e-02,-5.934358319333837839e-02,-2.890204200001761370e-01,8.043899937398834308e-04,-2.014939152038366585e-03,1.673930966613993614e-03,2.296180576086044312e-01
-6.413833742376950919e-02,-5.995072904667007874e-02,-2.927402038832501718e-01,1.367982709751597780e-03,8.673007158568472093e-04,7.854857513734705412e-04,2.307452410459518433e-01
-6.523355032459149383e-02,-6.937230901608630596e-02,-3.055757534311583923e-01,-4.144338841471941620e-03,1.785771653604802242e-03,2.080196201902688447e-03,2.384551614522933960e-01
-6.296600041525927949e-02,-6.490603162586747188e-02,-2.992079485210962231e-01,-2.150177227806361092e-03,-7.073866538673345781e-04,-1.769683419374548520e-03,2.353305518627166748e-01
-6.629655825104512068e-02,-5.298665889588446976e-02,-2.957826166630512787e-01,1.986317487451845845e-03,-1.595606152644959887e-03,-1.000536370449181534e-02,2.370975315570831299e-01
-6.189081882143981916e-02,-5.953512957207948708e-02,-2.983065941495089968e-01,-3.648077795128895889e-03,6.063845346195685833e-03,5.765133867670071618e-03,2.381277680397033691e-01
-6.445058206954351609e-02,-6.192544016221573910e-02,-2.899830130153556729e-01,-2.822385932527159396e-03,-1.572195363987924409e-03,-8.846870565635462681e-04,2.268797457218170166e-01
-7.935142087415009149e-02,-6.008728382864610140e-02,-3.586999888866481689e-01,5.638080933603382278e-03,-1.990790834048659225e-03,1.621441512381393115e-03,2.896606326103210449e-01
-5.100790037681335320e-02,-5.547590610377645115e-02,-2.897100633242543077e-01,3.162032505553691850e-04,4.607303934661386466e-04,-1.046645468705491647e-03,2.365087419748306274e-01
-5.273576759642634171e-02,-5.169777817814699694e-02,-2.909976053890699355e-01,-1.033041995503355482e-03,-5.428101567444799328e-04,-7.777698361680867971e-04,2.387948781251907349e-01
-5.163985181200272945e-02,-5.616255157530100628e-02,-3.017285992266168226e-01,-5.689286985146133502e-04,5.349100518289016948e-02,2.016328892301397658e-03,2.646333277225494385e-01
-4.577765502521577434e-02,-5.680136846055924837e-02,-2.883523790845153867e-01,-1.263319740339574095e-03,8.243676296786178444e-04,5.228375639077020636e-04,2.372711300849914551e-01
-6.560317688837953576e-02,-6.104700506033851337e-02,-2.912251259595978192e-01,1.926646399329129454e-04,-1.638383222611048502e-03,-9.496508406195812305e-04,2.279580384492874146e-01
-4.894394925415092301e-02,-5.285388067720897531e-02,-2.813132984706194772e-01,-4.868649711645691228e-03,-3.327686728711224447e-03,1.573948191282648285e-03,2.306816428899765015e-01
-4.160565999201554233e-02,-5.552432825602737765e-02,-3.535608366619844567e-01,1.086741926879509351e-03,3.133556817661335789e-03,-8.140289487607171859e-04,3.052912652492523193e-01
-5.514900428122596066e-02,-7.391618557840634596e-02,-3.478754689347585138e-01,1.304162005749910300e-02,-3.825520334061996430e-02,6.260730847079183647e-02,3.117803633213043213e-01
-4.106327397258509315e-02,-5.608024446698046950e-02,-2.863293148056132997e-01,-1.230916750416026061e-03,8.211244170355262370e-04,-5.118596289918513672e-04,2.381284087896347046e-01
-4.771614277000313376e-02,-5.678859602491120873e-02,-2.886938488472241549e-01,9.740055139708105828e-04,-1.003897061231358648e-03,2.198199083374669600e-04,2.365846931934356689e-01
-3.791402535637811155e-02,-4.719330385010347961e-02,-3.361748887631437199e-01,-7.416699638262870195e-03,-2.077882546124224308e-02,7.787639703499871051e-03,2.965134680271148682e-01
-7.252844150593351635e-02,-7.627692221950446716e-02,-1.468861253515471310e-01,-1.379215373341432464e-03,-8.879581060973455340e-04,1.068076023811475195e-03,7.263527065515518188e-02
-4.747232352772598474e-02,-5.401955326095127241e-02,-2.897247881322674301e-01,-4.378833415344620186e-03,4.364925627335784932e-05,5.031284752387639214e-05,2.391664236783981323e-01
-6.409169735851816263e-02,-6.641460330365409059e-02,-3.975673591699525611e-01,2.004223385354076629e-03,-7.455702893094970363e-02,-5.489385968960140694e-03,3.566727936267852783e-01
-6.437144147760064106e-02,-3.891790202330341897e-02,-2.894805862652261030e-01,-1.712968122588467415e-03,2.132464523972017398e-03,-8.581588208738888390e-03,2.393641769886016846e-01
-6.044118394658504201e-02,-4.768269987193032855e-02,-2.833999107017535768e-01,-4.633545391607830563e-03,4.211644719046388902e-03,-6.782502369850168869e-03,2.301599830389022827e-01
-7.299070316750014276e-02,-4.731259592053217722e-02,-2.399176277563003779e-01,-4.433807781247418867e-03,9.867474724286364601e-03,-3.191936364613682381e-02,1.903101354837417603e-01
-6.935927078783749034e-02,-4.004580263111202909e-02,-2.530213599589576923e-01,-2.946890973585543534e-03,1.817277768206424643e-03,-1.752028255607936125e-02,2.023157328367233276e-01
-6.048122528627199873e-02,-3.759687776902456702e-02,-2.514580513577576171e-01,-5.595920468392052462e-03,3.456194750049962783e-03,-1.801174130000351634e-02,2.060807347297668457e-01
-5.176708798728668626e-02,-4.534223858221381187e-02,-2.786042420819658805e-01,-5.880795957030086549e-03,4.211837901939128812e-03,-2.822708130840792355e-03,2.305095195770263672e-01
-5.726262803891826736e-02,-4.635990012072416233e-02,-2.834596032485169892e-01,-4.290124342264476504e-03,2.443440605920449080e-04,-2.230191299857888377e-03,2.319922894239425659e-01
-7.406740033036710025e-02,-4.979316138309430873e-02,-2.453795041284850265e-01,-1.829651128199852924e-03,1.828353567743253721e-02,-5.229586862992342822e-02,2.081178128719329834e-01
-4.922718374400539276e-02,-5.085021866053043849e-02,-2.888012199679962366e-01,-4.824020731974073303e-04,2.928642579768670211e-04,6.811603904053108258e-04,2.387715727090835571e-01
-5.932853378365552516e-02,-4.259679300123032919e-02,-1.542461088261892210e-01,-5.258354594286393340e-03,6.740384864116781040e-03,-4.648611876325742243e-02,1.325879395008087158e-01
-6.471197740609735405e-02,-6.158756071435134150e-02,-2.888327204722349051e-01,-3.354445166405242186e-03,8.578880510480814620e-04,5.338863026481418085e-04,2.257807254791259766e-01
-6.846066593279831469e-02,-6.039750681246922048e-02,-1.887174459870829546e-01,6.011786114634719985e-03,9.274533225697021354e-04,-3.446029875469986629e-03,1.250719279050827026e-01
-6.918391579439971129e-02,-7.247586859430645012e-02,-4.394750733121701169e-01,1.819565184608034139e-03,-7.676046204110084648e-02,-5.520302389585665312e-03,3.920271098613739014e-01
-5.426800193428896191e-02,-5.305511807778594269e-02,-2.991235705415548618e-01,6.753859754165767240e-03,-8.888719799174295971e-03,-1.095751042473087217e-02,2.469550073146820068e-01
-5.751618284704003436e-02,-5.963556209135811859e-02,-2.925019984559830699e-01,1.693263587888056568e-03,-6.180597443059706458e-03,9.806147705889276152e-04,2.342026680707931519e-01
-5.932865684289659325e-02,-5.917994524092157205e-02,-2.926004423938209920e-01,6.874271803328426561e-05,2.508420419325600205e-03,1.977325110209444264e-03,2.334117740392684937e-01
-6.392977806493488346e-02,-7.202566169279585317e-02,-1.974217299087822897e-01,3.049316254256058747e-03,-3.193354058835114542e-03,-2.471573277189275893e-04,1.298598498106002808e-01
-4.598998077896526704e-02,-5.691341314464042067e-02,-2.897149913796828180e-01,-1.263859677897988384e-03,8.251929042503382185e-04,4.514995757348943921e-05,2.384653687477111816e-01
-4.355192524281312205e-02,-5.823809912744096207e-02,-2.821249187492923527e-01,-5.416787164124618574e-03,2.326850310864168273e-03,-1.405054515882235133e-03,2.318172156810760498e-01
-6.019412079139704885e-02,-5.602106645656398931e-02,-2.927315119509750208e-01,1.627947215942692144e-04,3.087630387107345010e-06,-2.806121007354396568e-03,2.347022444009780884e-01
-5.075611479091948763e-02,-5.617267772044703955e-02,-3.011537943824144081e-01,5.315099880358819043e-03,-7.811620690711156695e-03,-5.013003003180862074e-03,2.484255433082580566e-01
-6.008991791576544228e-02,-6.637018915920125939e-02,-2.880716803417404659e-01,1.177777075838991848e-03,1.425787154237610614e-04,3.536746296648331342e-04,2.249176204204559326e-01
-5.867274773094674489e-02,-5.875564246608801222e-02,-2.965325074052095333e-01,-4.962475217508973498e-05,-4.236122586561617137e-03,2.090456668330448794e-03,2.379590421915054321e-01
-6.840639889818060648e-02,-7.039299821936018109e-02,-3.493417365109158235e-01,2.320535926531199292e-03,-8.091152719357314060e-02,-3.515905481254286841e-02,3.189595043659210205e-01
-7.046351408122807081e-02,-5.972524284748589873e-02,-2.897431709076435657e-01,-1.033106321592206639e-03,-4.969895561666940603e-04,8.362880471124163172e-04,2.248546332120895386e-01
-4.976389417694131179e-02,-5.693732348465742332e-02,-2.481165791034342649e-01,1.371567673029834306e-03,-6.602689570044881218e-02,-4.031128928793842325e-02,2.364987879991531372e-01
-6.393431378769898199e-02,-3.593155469825304316e-02,-2.831636914695758733e-01,-5.438008892176588067e-04,1.322149988390677357e-04,-7.825441651286336748e-04,2.344940900802612305e-01
-4.152846225064521501e-02,-5.637411479784190660e-02,-2.937991278956114671e-01,1.008982454475637787e-02,-3.919724678637656612e-02,-1.550333183394819216e-02,2.564205527305603027e-01
-4.331179226055294207e-02,-5.700827624992715892e-02,-2.787419653064472369e-01,-6.746598831998513839e-03,3.771437939742116035e-04,-1.412904230682768335e-04,2.291886359453201294e-01
-4.633782477083622786e-02,-5.420074780290809469e-02,-2.893224128779775528e-01,-1.513032357185467710e-03,-2.469638419656126817e-04,-3.647404194368102700e-04,2.391656637191772461e-01
-4.304870490589872423e-02,-6.366165340858251365e-02,-2.886113292761586235e-01,5.714524261860001904e-03,6.362997745122422541e-03,4.142790182873109378e-03,2.365059107542037964e-01
-4.357575037365375714e-02,-6.146628624518268857e-02,-2.722617447117276490e-01,8.212140830428838259e-03,8.390258004632267924e-03,4.527424393658730992e-03,2.213617861270904541e-01
-4.288468838034225489e-02,-6.154909410786454232e-02,-1.896459855765822711e-01,5.554773901246567655e-03,4.436689926463997791e-02,8.469794930597285970e-03,1.592516005039215088e-01
-4.079032433067351915e-02,-6.630581684408998200e-02,-2.249011022439966201e-01,8.340850883766626200e-03,3.624265483198439719e-02,9.096656114475208665e-03,1.850613057613372803e-01
-4.787088303542977319e-02,-5.087855095133708705e-02,-2.801094065683617518e-01,-4.595497011966206274e-03,2.220662124142108902e-03,-1.416937200692021653e-03,2.309317141771316528e-01
-4.544878841026238347e-02,-7.211534993902185553e-02,-2.813193605199830749e-01,1.010742443197361513e-02,2.964220909000772966e-02,2.054525717800240875e-02,2.329484075307846069e-01
-4.205522408974259052e-02,-6.795853884845108606e-02,-2.393546660343670307e-01,7.226763772978061530e-03,3.093912844609393586e-02,2.057340981961718052e-02,1.969403624534606934e-01
-4.244320009557321638e-02,-6.047767811970361507e-02,-2.686233528478639276e-01,6.458566471368910704e-03,1.068033213126237321e-02,5.308238708755394497e-03,2.189875394105911255e-01
-3.919319248597313843e-02,-5.709842841949012981e-02,-2.477002976245234744e-01,8.220726168967670833e-03,2.042164843795887114e-02,4.500633102354436969e-03,2.039045840501785278e-01
-4.246407292697004787e-02,-5.902339431475729647e-02,-2.943073373402620985e-01,3.262049265137827430e-03,1.238481375587619122e-02,-1.271683956800103083e-04,2.449918538331985474e-01
-4.901488560349505363e-02,-5.450607771672257018e-02,-2.825741527180167800e-01,-6.584681626669437043e-03,2.297212536738467718e-04,-3.448069027882992143e-04,2.311453074216842651e-01
-4.461956603873812321e-02,-5.495072224880402645e-02,-2.868952792922480066e-01,-3.605653877238798859e-03,1.297056688315312723e-03,-1.097211637428553499e-04,2.373717576265335083e-01
-5.920145455465622431e-02,-6.400187047990196776e-02,-2.959811555044030706e-01,-1.028311427280543481e-03,-2.338917181863982785e-04,1.567990247168049057e-03,2.344392091035842896e-01
-4.382383074563427072e-02,-5.826358689481299369e-02,-2.837680463050768487e-01,3.882506087160896100e-03,5.465085775318176365e-04,-1.691554953459052332e-04,2.331591695547103882e-01
-5.492938431011248901e-02,-5.598594661696554287e-02,-2.981666762515851055e-01,6.492902490223523282e-03,2.407589621902483414e-03,3.098074397449065119e-03,2.430661618709564209e-01
-3.994607706267878922e-02,-5.690340042623129313e-02,-2.773396904905262028e-01,-4.450262196760020571e-03,4.156235569299631186e-03,-1.954981807404228278e-03,2.296528220176696777e-01
-5.908617855995949852e-02,-5.948904257277556895e-02,-2.879540880779536405e-01,-2.287267441594532141e-05,-4.312632958243582627e-04,-1.400224825623460918e-03,2.286808341741561890e-01
-5.514975680806730174e-02,-5.139880539378502422e-02,-2.894908112210260454e-01,-8.025700177552646608e-04,3.323300594646954134e-04,1.796850620561826328e-04,2.362438589334487915e-01
-5.327595112623886853e-02,-5.689336511837796151e-02,-2.931637362104934086e-01,-3.543601031009519994e-03,1.973833350798454012e-03,4.734020292816978805e-04,2.382047325372695923e-01
-6.245668645609969705e-02,-6.485998045895380315e-02,-3.112761109978290364e-01,-3.096066939313872092e-03,-1.330841805589148656e-02,-1.074705757013273005e-02,2.494503855705261230e-01
-6.930248731650331950e-02,-6.911771150901843686e-02,-2.929332773574324644e-01,-7.513313071565125983e-03,2.501821915920414375e-04,-4.080997915875393700e-04,2.241029292345046997e-01
-5.887497822000876957e-02,-5.882355513719200735e-02,-2.894399128478171157e-01,1.877673775281849086e-04,9.966722718019694824e-04,7.195692985545916204e-04,2.306007146835327148e-01
-6.070207117927431395e-02,-6.101388278643427032e-02,-2.885955353749420915e-01,-1.008798683708710077e-03,-2.000195370228979169e-03,-2.529277280413609347e-03,2.278129011392593384e-01
-6.452968239991555000e-02,-6.177066073538912960e-02,-2.895594001158067199e-01,-2.562292149758264252e-03,-2.645062566396693109e-03,-2.776648744392765794e-03,2.265627086162567139e-01
-6.262773036067068033e-02,-6.467869162460829213e-02,-2.924399226589169398e-01,-2.325531535779352781e-03,2.700924942521950624e-03,2.385813363098893483e-03,2.289141714572906494e-01
-4.528231600777092580e-02,-6.841696275815453698e-02,-2.784476601803604345e-01,-4.492763114703434563e-03,2.116638177044652749e-02,-5.700774667989481036e-03,2.258521467447280884e-01
-5.965223638342506685e-02,-7.084642143177934115e-02,-2.896141915914864917e-01,-1.114403367644929612e-03,-6.100895533188638916e-04,1.049617570278903178e-03,2.245923429727554321e-01
-4.524582300830840009e-02,-6.815735650480175822e-02,-2.961509482562234563e-01,2.356014606962833101e-04,1.541389212025999836e-02,-3.426808863148774181e-03,2.418219596147537231e-01
-4.595965039649159423e-02,-5.593916466614239080e-02,-2.641801985854470569e-01,-6.390414418735814762e-03,2.429677505080515831e-02,-8.351702041607206306e-03,2.182769477367401123e-01
-4.280683063378191988e-02,-6.172145657719248224e-02,-2.440604827101105767e-01,9.191369303033802493e-03,-2.630213996184238914e-02,-6.075598058641941759e-03,1.987303346395492554e-01
-6.298973058449633400e-02,-4.258264286943423682e-02,-2.450529277131904271e-01,-1.007124220568294398e-02,7.497991047641117471e-03,-1.766775778457831125e-02,1.966932564973831177e-01
-4.031125884579091212e-02,-6.130318536879980629e-02,-2.793754552083971832e-01,-4.215777850117729229e-03,-4.787746300775344577e-03,3.087303526498852120e-04,2.295567542314529419e-01
-5.104875959523802464e-02,-6.024592695650657359e-02,-2.937804539247355073e-01,-3.397595593390565633e-03,4.724086726356785219e-03,-5.847136792397954717e-03,2.386942952871322632e-01
-3.469793899813397586e-02,-6.481982233435651386e-02,-2.805109069852977921e-01,2.682089611515584395e-04,-4.116968734931222580e-04,4.514311295168808576e-04,2.322247326374053955e-01
-5.119543300486574522e-02,-5.809635176571109616e-02,-2.958483102347010396e-01,-2.524767806276666769e-03,4.027003444544317509e-03,6.393649137539396052e-03,2.416707128286361694e-01
-5.920526293491223946e-02,-5.748632684518580060e-02,-2.893180610294007749e-01,7.531373503423663060e-05,7.370133517202591585e-04,-9.989962292263477976e-04,2.309871017932891846e-01
-6.557132333552653791e-02,-4.407580471090857821e-02,-2.771639251024045070e-01,-7.847387790065711577e-03,-8.846073174344264373e-04,-4.222499147713436644e-04,2.235383838415145874e-01
-5.599170422030021188e-02,-5.846943597536763404e-02,-3.068081824711813566e-01,-3.052885998937246968e-05,-2.658193202677097862e-03,-5.644035306330095342e-04,2.496312260627746582e-01
-4.246507284624984058e-02,-6.079494924027320502e-02,-2.821116083885278347e-01,-2.925563737843880560e-03,8.151652231358226530e-03,4.912442587762825760e-04,2.315156608819961548e-01
-5.968653228193751548e-02,-5.972102574755916438e-02,-2.890428093135291587e-01,5.868003485778488289e-04,5.926933090193388029e-04,-2.439247598413417199e-04,2.293439656496047974e-01
-5.923044956657655402e-02,-5.944546227138920724e-02,-3.100475623301714445e-01,-2.352338436815626897e-03,-1.654431276245514788e-03,-3.721553824526195424e-03,2.508419752120971680e-01
-6.684817358132044696e-02,-6.059005468634197367e-02,-2.902299791141600416e-01,9.787618355910762333e-04,-7.245854307230014573e-05,1.563115961611360105e-03,2.265982478857040405e-01
-6.228745778709310343e-02,-6.458554957653721285e-02,-3.008712660235866032e-01,2.891582612013328651e-03,2.815062545252714626e-03,-2.938896143005522224e-03,2.376004904508590698e-01
-6.630098410489279614e-02,-6.505521247476470093e-02,-3.016984516216114631e-01,7.028336722117996087e-03,1.087494003156020631e-04,7.513138551739488883e-04,2.363402098417282104e-01
-4.595719650034155168e-02,-6.330055294169849300e-02,-2.904685476674235822e-01,-7.171902390802580149e-04,-3.284855937818268942e-03,-7.085689124166451910e-04,2.363923937082290649e-01
-6.472965865575025513e-02,-3.811952569254951906e-02,-2.700674456741091189e-01,-6.456633673620654516e-04,-7.469190278244254577e-04,6.736147560264369241e-03,2.201699912548065186e-01
-6.238520930388173624e-02,-4.066335133524395795e-02,-2.837343068089202003e-01,-3.512372649712652319e-03,7.124193993768639880e-04,-3.275634513975399925e-03,2.331224977970123291e-01
-3.571635912088383380e-02,-6.419677401811249573e-02,-2.838026302805406464e-01,4.140697106192112436e-04,-1.272455641490908163e-03,4.482872448837613394e-04,2.351559251546859741e-01
-6.675599941544588245e-02,-3.740399032586903816e-02,-2.497862313398671597e-01,-2.747460136018160890e-03,-1.502420180699285041e-04,-8.480458404161927630e-03,1.999309360980987549e-01
-2.901801265184661763e-02,-2.532902331392151291e-02,-6.574251992143231860e-02,-2.964544203420002577e-03,-6.380089361358933474e-03,4.973088708560776533e-03,4.147832468152046204e-02
-5.588558108612626252e-02,-5.769453040130045895e-02,-2.906346140607535267e-01,9.629346852089657729e-04,6.885942241222115571e-06,-3.595416737805017752e-04,2.338565886020660400e-01
-5.613063774738721867e-02,-5.880793649835308612e-02,-2.913409250318816923e-01,-2.112423805324707519e-03,-1.212087335402554228e-02,9.821770213370510996e-03,2.354673147201538086e-01
-7.011709106931002244e-02,-6.811134860015974346e-02,-3.031118841536618036e-01,8.541697509611253375e-03,-5.935851823961848205e-03,4.615212088211828947e-03,2.348327338695526123e-01
-6.486079203639005808e-02,-6.192526634338460512e-02,-2.984948931140498640e-01,2.500617964216128933e-03,7.223762753821940958e-04,-4.634685150188094099e-03,2.352958023548126221e-01
-6.864349470863861935e-02,-5.025145555796994845e-02,-2.384091042340869548e-01,5.995850529092282624e-03,2.721040050343594835e-03,1.922520377682291823e-02,1.830842792987823486e-01
-5.648337848112985893e-02,-4.465397287639544244e-02,-2.880595506794788596e-01,-8.392758184648267325e-04,-1.080156535674821046e-04,7.897627800399582496e-05,2.377162873744964600e-01
-6.022812815492098459e-02,-6.042475312993843273e-02,-1.323520026124266613e-01,6.557562178616714588e-03,1.841913402213005146e-02,2.851584914161903878e-02,9.366947412490844727e-02
-7.249722666059957299e-02,-6.717262203111495911e-02,-1.588217595717849873e-01,4.354738830419139194e-03,6.912009847947712254e-03,3.158956851143973621e-02,1.055170223116874695e-01
-5.603367278687659825e-02,-4.453189177109073693e-02,-3.064349678844051628e-01,5.490694169180985150e-03,-1.492938308103334936e-02,-3.588524223887747111e-02,2.652084231376647949e-01
-5.682950426763436202e-02,-6.365531540738487981e-02,-2.951802381058603597e-01,-1.681451060192737336e-03,1.786615899698436273e-03,-6.844468200645110155e-03,2.353493720293045044e-01
-6.127407207183133142e-02,-5.959276225805973382e-02,-3.268977839949424036e-01,2.694136194220964151e-03,-3.713572448178637918e-03,-1.509718302951579792e-02,2.678661942481994629e-01
-6.313202946294221851e-02,-6.184114758958159097e-02,-2.863828252662740659e-01,-2.917370253799245368e-04,6.771025862136096740e-05,4.898367229646564611e-04,2.239012420177459717e-01
-5.019081188297282170e-02,-4.898460486444919382e-02,-2.821117556087250344e-01,4.542734517550288311e-04,-1.575952508252649598e-02,-5.357818048110338932e-03,2.343082427978515625e-01
-5.028287548157860110e-02,-5.046298512263605596e-02,-2.903617908199420117e-01,1.273190734019674685e-03,3.839001637534330755e-04,1.379533226631921570e-04,2.400000840425491333e-01
-5.564823686763308019e-02,-5.398354183398469675e-02,-2.616948886067271829e-01,-3.633058631183914370e-03,-4.530897336299222200e-02,-3.336231266511805599e-02,2.287759482860565186e-01
-4.301560108065702326e-02,-4.884369428454204271e-02,-2.224067150130199511e-01,-8.659960059811235358e-04,1.474782473396436117e-02,-5.120950523430482099e-02,1.992275416851043701e-01
-6.622406637835769050e-02,-6.677953434377728592e-02,-3.440254800303301774e-01,-1.948893604955018741e-03,-1.340325698219060023e-02,-3.200961613238611364e-02,2.839785218238830566e-01
-6.002604257588838033e-02,-6.553822325902686208e-02,-2.975950834555072255e-01,-8.833183031151494238e-04,2.854989910325209362e-04,-3.963809379492248819e-03,2.349672913551330566e-01
-5.669609089241936517e-02,-6.289255446368371971e-02,-3.000803631208095457e-01,4.969238113160809669e-04,-8.868445046231760581e-03,-1.187636264034872685e-02,2.417147308588027954e-01
-5.701246695787151597e-02,-7.642384635366003542e-02,-3.145405849074140447e-01,4.580930540312891472e-05,-2.075118797551902920e-03,5.687474038613292773e-03,2.486132085323333740e-01
-5.011169271059637276e-02,-5.131026828751178437e-02,-2.893417980409906942e-01,-3.595216418671782176e-03,-5.109562153578258836e-04,4.649522594053893433e-04,2.387173026800155640e-01
-5.203005907161456500e-02,-5.384116983913361798e-02,-2.917594086516296925e-01,7.877534876144506393e-04,1.425427695087095519e-04,-3.559226184933458924e-04,2.388337701559066772e-01
-6.414933489675524181e-02,-4.735412999535457135e-02,-2.386538188689940054e-01,-9.340585542185187579e-03,-1.742608631640135686e-02,3.643350755137747532e-02,1.970271021127700806e-01
-5.881525342598151185e-02,-5.194528872002894537e-02,-2.960569062034115184e-01,-1.100324182629789163e-02,-6.957484944051293627e-03,1.149048206828436405e-02,2.426214516162872314e-01
-4.809998290026980261e-02,-5.714149399760928838e-02,-2.810426026855900039e-01,-7.182746214436695233e-03,-1.607511951154445189e-03,4.665042117452070525e-04,2.289127409458160400e-01
-5.153863839327479934e-02,-5.141537325140099757e-02,-2.904388134150026612e-01,7.861990899435586898e-04,1.420314000648687479e-04,8.408704095062993853e-04,2.389702796936035156e-01
-4.490379957350894291e-02,-6.003538200750835330e-02,-2.766696824153045409e-01,-8.024751713830911154e-03,-5.878738232128290220e-03,4.712798134921968377e-03,2.253905534744262695e-01
-4.299684629001535030e-02,-6.010515834387387957e-02,-2.881313953023107444e-01,1.363869945187351322e-03,-2.600778906563656380e-03,2.476494743312468200e-04,2.370988428592681885e-01
-3.714547672548131063e-02,-6.687677203327552222e-02,-2.481266289215651732e-01,-2.351819865782633738e-03,-1.031204904370826465e-02,-3.803695767201023146e-04,1.986461579799652100e-01
-6.119138493596379402e-02,-4.072912462622420293e-02,-2.879873444681141370e-01,1.318214054557535200e-03,4.549283605894403654e-04,-3.025225490952829048e-03,2.377586215734481812e-01
-6.294516018637033583e-02,-4.568216950310062530e-02,-2.745482279141568949e-01,-8.546723751444742362e-03,8.536294857976386161e-04,8.675538254856693041e-03,2.217518687248229980e-01
-5.885048648816798567e-02,-4.302537213695971363e-02,-2.752240633192567509e-01,-3.687885231591629676e-03,-1.963549287464391464e-03,1.003424072126015559e-02,2.254917323589324951e-01
-5.203850994869656937e-02,-4.923744276969899136e-02,-2.407910557609373170e-01,-1.012017117500201707e-02,-3.025613789711740793e-03,1.774545321562827696e-02,1.935032308101654053e-01
-5.702517208194271547e-02,-4.031990093948933929e-02,-2.698383097716559043e-01,-5.815108362173765193e-03,-6.707705915516842463e-03,5.957456874206301829e-03,2.224106490612030029e-01
-5.078337865982091026e-02,-5.308891000281576455e-02,-2.899537095707329648e-01,1.115270661058056622e-03,-3.378274843805089046e-05,9.059995718568149368e-04,2.380389571189880371e-01
-4.382366231491380271e-02,-5.667747323320773689e-02,-2.896777059390447384e-01,1.224973641438971677e-03,-1.819888868935177800e-04,-3.898016415481796561e-04,2.396963238716125488e-01
-7.201845634974191057e-02,-4.957090605978813763e-02,-2.066165203099407099e-01,3.713494281941779728e-03,1.329411734560687931e-02,3.869092297286932242e-02,1.634149998426437378e-01
-4.910593906374217943e-02,-5.263570594842764683e-02,-2.910984011266525284e-01,6.043568938538318924e-04,-1.361609782345296735e-04,9.893639169439151049e-05,2.402494847774505615e-01
-6.477045151441149229e-02,-4.439789781165084243e-02,-1.676474876816616000e-01,3.806631277459069599e-03,1.325388989106906015e-02,3.937397167202323633e-02,1.353365778923034668e-01
-6.127048536806933149e-02,-5.112249417514340422e-02,-2.321134976001596462e-01,7.473927726146262045e-03,2.031086704032219678e-02,5.307787630795990363e-02,2.021904736757278442e-01
-6.699197700723960591e-02,-4.461427626089056742e-02,-2.177673819944663247e-01,7.118469804985472910e-03,3.621608254065458027e-02,4.177507330059325452e-02,1.895528733730316162e-01
-6.888812265484381414e-02,-4.750665941475235021e-02,-2.948951017594340085e-01,9.842105799370937796e-03,-1.818809871650970160e-03,2.319030800272529891e-02,2.414178550243377686e-01
-6.224654025920965672e-02,-3.574098513213401496e-02,-2.161535932117024661e-01,7.183640689344476284e-03,-1.676324066927691037e-02,3.626923959970539124e-02,1.827936619520187378e-01
-5.803951812937307997e-02,-4.694438218128245410e-02,-2.974092374146413142e-01,8.324969010739983327e-03,7.662923148348720764e-03,2.437378561809886920e-02,2.494857162237167358e-01
-5.869915141820800097e-02,-5.013441500895088332e-02,-2.879801605126147690e-01,8.688277892849040687e-03,1.325277276850581011e-03,9.125530119367456644e-03,2.347092330455780029e-01
-4.512386337041626727e-02,-5.669729771237652649e-02,-2.878347187461625101e-01,1.036550641596946376e-03,-6.980076802457308924e-04,4.501664167935380502e-04,2.371472120285034180e-01
-5.839040477518640804e-02,-5.289281790819350126e-02,-3.367089173928745627e-01,9.862619697532104546e-04,-8.217617178050291502e-03,-1.333782322939602080e-03,2.814823985099792480e-01
-8.148064334995583358e-02,-7.594728305144565761e-02,-1.885295249130291839e-01,-6.372055439042483634e-05,-1.395492197174224777e-02,-3.004614778832079627e-03,1.126664802432060242e-01
-4.551906015393658578e-02,-5.957313165860503301e-02,-2.905335956471481462e-01,2.147224877149091031e-04,-3.520726443018434935e-03,4.512805741573313006e-04,2.383781075477600098e-01
-5.894035394795055227e-02,-4.292237119216038566e-02,-2.847668360221711215e-01,5.718129619134052800e-03,2.008504976255368578e-03,6.315585318752275738e-03,2.347366958856582642e-01
-5.825057284339282826e-02,-5.723308893831416388e-02,-2.848234813927020825e-01,-1.691390028957015035e-03,-2.700039421679735832e-03,4.537910563830045946e-04,2.271517664194107056e-01
-5.085683520935317670e-02,-4.458370243331019611e-02,-2.409127340966279451e-01,-9.447684690554677273e-03,-2.107476573235000580e-02,2.884042752034218088e-02,2.035887241363525391e-01
-6.088282570782885261e-02,-4.498985179284019364e-02,-2.871483039618304423e-01,-3.773570352161484832e-03,-2.143004178445809781e-03,1.142818542281769621e-02,2.355695068836212158e-01
-6.405653715482148569e-02,-6.970122471040804402e-02,-3.270653358248302722e-01,3.212358475563038504e-04,1.641629948709562433e-03,-1.183853541595998420e-03,2.602565884590148926e-01
-3.514479113087740081e-02,-6.507637554005787917e-02,-2.830872663832513791e-01,2.367777741165866961e-04,-8.561732306072210395e-04,-1.529307982342136604e-04,2.344194948673248291e-01
-6.290021640963680549e-02,-7.220912069260124189e-02,-1.826213153236509457e-01,4.589413344825363228e-03,-8.987996320055122862e-03,-2.226715788233641323e-03,1.167293488979339600e-01
-5.702345033015704390e-02,-5.996814274554149171e-02,-2.971717672736257088e-01,-4.435090531028388836e-04,-2.555455207838727878e-03,8.494099581131148158e-03,2.391847670078277588e-01
-5.839023647138877338e-02,-5.614720934433428678e-02,-2.941111041955701833e-01,-7.670091891851401299e-04,-3.098156859922584876e-03,5.789483215364949614e-03,2.371269762516021729e-01
-4.855685866122327887e-02,-7.302692828410212167e-02,-2.074872465321966342e-01,-4.530934405292928041e-03,-1.562333903941576924e-02,2.988410196074251391e-03,1.509611308574676514e-01
-6.286532670496865205e-02,-5.514354553791045443e-02,-3.078554432125291118e-01,-7.262635618261765492e-03,-5.626395769686910742e-03,2.808226033263670415e-02,2.541467845439910889e-01
-5.897683350165447425e-02,-5.182475456868657071e-02,-2.955311977507409926e-01,-7.256336803291384531e-04,-5.443777042897355277e-03,1.364263099837566273e-03,2.404101490974426270e-01
-4.492110829422649165e-02,-5.691485545358695997e-02,-2.893579769142442526e-01,-1.147094880587663963e-03,-1.285793692080256304e-03,-4.783142119625815756e-04,2.386862188577651978e-01
-6.042574628790343960e-02,-3.926060030174470528e-02,-2.710339179924372566e-01,-4.134916778587864952e-03,-2.283597603171281859e-04,1.105475473979781933e-03,2.220730334520339966e-01
-3.442397043425135528e-02,-6.024022376488017555e-02,-2.308168871489951757e-01,2.776005412696897282e-03,2.625820906931607829e-02,-1.155740347279705823e-04,1.904157698154449463e-01
-5.159972822136035808e-02,-7.045937900384904862e-02,-2.057170611447237951e-01,8.039830404535559111e-03,-1.665335015799880233e-02,-3.814784335886551529e-03,1.492341011762619019e-01
-3.941352410424156516e-02,-6.667720290322529109e-02,-2.497957526145023199e-01,-4.325658350749125511e-03,1.384557181402550942e-02,-3.489396644800998697e-03,1.998398303985595703e-01
-3.502327188675966041e-02,-6.435957019908952748e-02,-2.809678123263474880e-01,8.084212649241851595e-04,-2.151211483197307267e-05,3.975671845652801973e-04,2.326728850603103638e-01
-4.903915490635568641e-02,-7.181206571069602418e-02,-2.824557144531854025e-01,-2.879740700681416091e-03,5.767573633935559746e-02,-2.827383018106737617e-02,2.491764426231384277e-01
-4.828059450012511800e-02,-6.742321577176799141e-02,-2.446558125702528175e-01,5.369228697175518032e-03,-3.494600781578261362e-03,8.487700990138707718e-04,1.878717988729476929e-01
-4.897280484508410858e-02,-7.729804074991457330e-02,-2.298881705663385622e-01,-1.670494124523951712e-03,2.078306325858296499e-02,6.423332496224414337e-03,1.727315038442611694e-01
-4.173482420812868465e-02,-6.765903443082182944e-02,-2.691072727524792541e-01,4.194750763578028625e-03,1.386828315403974658e-02,3.149742192638693272e-03,2.171068489551544189e-01
-6.448674712191657110e-02,-6.180164103317871416e-02,-2.895011788822702270e-01,1.191275315356825609e-03,-1.494647127837234711e-03,1.425668526847697140e-03,2.264066040515899658e-01
-5.809631273229666493e-02,-5.690734514458711812e-02,-2.904806535491769592e-01,-1.090876942712302924e-03,-1.440111169600836625e-03,1.486710059073261501e-03,2.330163419246673584e-01
-5.386178137025587898e-02,-5.126741004522722411e-02,-2.889068769087392852e-01,-2.028255943165675410e-03,-1.136980568729229184e-03,1.620566252670692245e-03,2.364039272069931030e-01
-5.793574266894604974e-02,-5.701928532609387701e-02,-2.904097493233976923e-01,-1.590081500909016872e-03,-2.201243004417349595e-03,1.408417175531022792e-03,2.329938411712646484e-01
-5.679359301973799234e-02,-5.641591528084530238e-02,-2.849059493606620475e-01,-1.524233100616538160e-03,2.813492001628218296e-03,-3.169064315361016463e-03,2.284346520900726318e-01
-6.118548105964893152e-02,-4.321285089775178667e-02,-2.533818035190186224e-01,-1.005315332900824643e-02,9.356175709685868661e-03,-2.304018626836863010e-02,2.070629745721817017e-01
-6.938135830429403850e-02,-5.903012062100142232e-02,-3.804370367177251078e-01,-1.442254090939190832e-02,3.425297505641027203e-03,2.689761891664672888e-02,3.207994103431701660e-01
-4.942904636686340503e-02,-5.096959243978296805e-02,-2.914438946993279100e-01,-5.349318835138113654e-04,-4.561498886632904559e-06,-8.140782508472640022e-05,2.412500828504562378e-01
-5.596965192547961876e-02,-5.692676353278287860e-02,-3.959235559629769030e-01,-4.461822253810005835e-03,5.926765788424501191e-02,9.212698434509725143e-03,3.551006913185119629e-01
-3.664361743569720387e-02,-6.127994619249182984e-02,-2.849214832836464151e-01,-1.157551889464849583e-03,-2.996730395742559349e-03,9.271299779772922004e-04,2.369931042194366455e-01
-5.029040988675875790e-02,-5.769219457092425452e-02,-2.901240395437709174e-01,-1.354198107388404192e-03,-1.467581980370941466e-03,-1.524709881801127086e-03,2.362598031759262085e-01
-9.998034999258442745e-02,-8.310307019861462585e-02,-5.646899195208145983e-01,-6.793742030511910023e-03,6.000472926887503305e-02,2.436954445172691969e-02,4.866257905960083008e-01
-6.517708643026907944e-02,-6.400393841500433278e-02,-4.322566949228963118e-01,5.411514781951670162e-03,5.458539502233295676e-02,-1.562577054315041070e-02,3.807078897953033447e-01
-6.042542494838767930e-02,-7.243780755171586039e-02,-1.648299192992842555e-01,6.106598684336848014e-03,-3.494090697174688509e-02,-2.603647028665558374e-02,1.248944178223609924e-01
-4.737453406399830952e-02,-4.471040985022164266e-02,-2.103285682679407742e-01,1.459735945889526626e-03,3.217292219252448210e-02,6.077219782330754022e-02,2.029450833797454834e-01
-7.101086416497426335e-02,-7.089397644970625578e-02,-3.444787256861339131e-01,1.097267039568877982e-03,3.626643822459924005e-02,8.080367459899073790e-02,3.136139810085296631e-01
-6.247991335032807014e-02,-4.694314624691665883e-02,-2.761920031171480883e-01,3.790591680149394110e-03,8.600716011667376704e-03,1.563840544777327785e-02,2.241279631853103638e-01
-5.331527481724698814e-02,-4.478270302779774337e-02,-2.889800520790547500e-01,-2.037647768037043755e-03,-6.265572647103621624e-05,4.490054211362822477e-04,2.400720566511154175e-01
-6.005968693693106153e-02,-5.320184015273457523e-02,-2.970110146815575503e-01,4.256365009356504955e-03,7.504921507387220247e-03,2.746701412578317000e-02,2.455698847770690918e-01
-5.381423865513818017e-02,-6.231937695877486083e-02,-3.031840388290293342e-01,3.618253653937998464e-03,-1.774505820295879666e-02,1.192559003987587324e-02,2.480872869491577148e-01
-6.173524532352872574e-02,-6.247296452770317865e-02,-2.785601028376342159e-01,2.928629307784839583e-03,-2.198653326577352032e-02,9.684714702936321473e-02,2.765278816223144531e-01
-6.837692492376505615e-02,-6.124076613754445009e-02,-2.912263852296422817e-01,3.380653007128715977e-03,1.742253591848283521e-03,-1.030548869084568688e-03,2.266046702861785889e-01
-6.137830418735788079e-02,-6.596470526074878216e-02,-2.055088777356491869e-01,-8.227357051807358129e-03,-2.616082245045745457e-03,1.298320191121212809e-02,1.444399803876876831e-01
-7.700066438149155701e-02,-6.350761360743746586e-02,-3.305824600205085062e-01,-7.521948711044866738e-03,4.790592433915570668e-04,8.535558322323652525e-03,2.613357603549957275e-01
-5.135276365186683400e-02,-4.907253013604599701e-02,-2.901458452334504390e-01,-1.920995626724287045e-03,3.443955942318722031e-04,-6.800858152812016850e-04,2.399680316448211670e-01
-6.543124309885034462e-02,-6.599061052889669543e-02,-3.153570241445666777e-01,-4.296522667483575891e-03,-3.702105811859329569e-03,-9.850715332696834831e-03,2.504216730594635010e-01
-4.242646111924966434e-02,-5.528555606835877656e-02,-2.825966616408969179e-01,-4.179686630054451485e-03,-7.435273725380517427e-04,4.319608097208058723e-05,2.341213077306747437e-01
-4.918410802871422960e-02,-6.030658806152446039e-02,-2.557170545027361852e-01,-7.058586213013182988e-03,-1.486097322223237267e-03,1.178326793187769962e-03,2.016002684831619263e-01
-7.591551859106335232e-02,-5.604659675576778577e-02,-3.149486041220835864e-01,-8.316606472257338095e-03,5.723021455778465327e-03,-2.016569595081423141e-05,2.501733005046844482e-01
-6.999210127221525135e-02,-5.994486496133891174e-02,-2.936092038465204501e-01,-4.903377175501185195e-03,-2.250257864440957482e-03,5.564369392294672007e-04,2.289989888668060303e-01
-5.676393681128936997e-02,-4.732657017199773386e-02,-2.899503645120022899e-01,-1.171666549915352865e-03,8.623927601782731050e-04,5.223388618262718181e-04,2.380605190992355347e-01
-7.081178606664140229e-02,-7.004343247534519645e-02,-3.542718162154632200e-01,-6.858448589132068278e-03,-4.158193656881058360e-03,8.197192652229720600e-03,2.845391929149627686e-01
-6.908802194247681827e-02,-5.856716888613003325e-02,-3.176057052440045547e-01,-4.010007306520241809e-03,-4.854569871981058091e-03,-5.676953476800034992e-04,2.541776001453399658e-01
-4.792726061072155597e-02,-6.787568387552427029e-02,-2.407773340685787078e-01,-6.220495426490325191e-03,-1.484407024361080515e-03,-8.411020619833058966e-04,1.840294897556304932e-01
-6.814440465391305435e-02,-4.734024181683804677e-02,-3.012146317929840778e-01,-1.863112152246518228e-03,-1.674516110810073816e-03,9.704784653141122069e-03,2.447544634342193604e-01
-6.011867298376951524e-02,-4.957683284099685672e-02,-9.809480226154793092e-02,-5.396156157161774089e-03,1.509005063099085400e-02,6.480623700963561440e-02,1.237888708710670471e-01
-6.119144261033161725e-02,-4.668829440939249731e-02,-2.657409888400680820e-01,1.318741384101138059e-03,1.007722489936808963e-02,5.432089733425297245e-02,2.327651530504226685e-01
-5.856172004445703294e-02,-6.345111938932115891e-02,-1.631098856477896653e-01,-1.085633803815637660e-03,1.997563933920978516e-02,7.464578117738790430e-02,1.684032082557678223e-01
-5.465338312140857746e-02,-4.358196547783370345e-02,-2.822490924307338167e-01,-5.780581404144401018e-03,4.660583350825274148e-04,3.490316972333947442e-04,2.335453927516937256e-01
-6.380861100202939173e-02,-6.529412211386731446e-02,-2.628695138857294333e-01,3.273276628138789557e-03,-1.316363482150762322e-03,9.828005488058967620e-02,2.614306509494781494e-01
-7.626035645626684512e-02,-5.369457177481255783e-02,-1.980906679277817661e-01,-3.877241683432648277e-05,6.561223929599027671e-03,4.973018732122524987e-02,1.601545065641403198e-01
-4.823845046766900291e-02,-5.336078379813471995e-02,-2.895152724149838708e-01,-1.031612718175192820e-03,-1.743549749940958129e-04,-7.802267493544328824e-05,2.387637794017791748e-01
-5.612926467846574008e-02,-4.960502438052760699e-02,-2.667345183825907684e-01,9.658289199433785915e-03,5.422844330348563190e-03,8.525332656404526269e-03,2.153074294328689575e-01
-7.210758592750697582e-02,-4.338553852339052663e-02,-2.709873248441522220e-01,2.498499665803463523e-03,1.900548613519131933e-03,9.721401064658572941e-03,2.154145389795303345e-01
-6.038887979007522000e-02,-4.530445352436787698e-02,-2.622817786972779786e-01,7.693508522984285163e-03,2.875429228822248828e-02,2.979324008834758827e-02,2.221590280532836914e-01
-5.762499456585167684e-02,-5.834220797296853223e-02,-2.417903551144166274e-01,1.471620116918003970e-02,1.563218354847464506e-02,3.570326635842106799e-02,1.974646151065826416e-01
-7.261563245649441112e-02,-5.391989822527454290e-02,-2.391515540130081108e-01,8.400766313253619274e-04,4.460289175688425707e-03,6.771582994585956250e-02,2.121682316064834595e-01
-4.726141024484342701e-02,-4.829713110361538719e-02,-2.666142505519421557e-01,8.558371672157569568e-03,1.098540662289354194e-02,7.655608506481935763e-03,2.205609977245330811e-01
-6.483420483476443064e-02,-6.596442561721982401e-02,-2.881640309233947650e-01,2.890985740445754185e-03,-1.849853838295465749e-05,-3.771913246074498887e-04,2.228240966796875000e-01
-5.570685223499405314e-02,-5.598135148108346337e-02,-2.866270142119250464e-01,-2.768705785526506466e-03,-1.161945333152154640e-02,1.344276614454172243e-02,2.328754216432571411e-01
-5.943207885031029369e-02,-5.909464882881046432e-02,-2.840258793301262408e-01,-7.943527424113128871e-04,-9.867578054263038620e-03,9.282989744352678624e-03,2.259884923696517944e-01
-6.733493499665491044e-02,-7.576709798841863019e-02,-3.263238523677425285e-01,5.594864259259168561e-03,-2.395207486591461894e-03,-9.709223021524372027e-03,2.556490898132324219e-01
-6.647838866461748542e-02,-7.184124400499780627e-02,-3.415924616978499584e-01,4.651428814283813107e-03,6.604853477532276682e-03,-7.961128856362135325e-03,2.731795012950897217e-01
-5.692868344378446133e-02,-5.800164691396002270e-02,-2.899969564890138018e-01,-1.857203713852618706e-03,-2.076440851368538312e-03,2.398875689538818370e-03,2.326208204030990601e-01
-5.824991156302056217e-02,-5.840227075916600008e-02,-3.045964673383140253e-01,-2.352787898812711172e-03,-9.578593582113555105e-03,1.492458154777597662e-02,2.482120096683502197e-01
-5.730759724048783976e-02,-5.948199617040647591e-02,-2.877704158074275154e-01,6.290337678558126583e-04,-1.006105805093296390e-02,8.990733286033864013e-03,2.305733710527420044e-01
-6.222595241394217325e-02,-6.036391625879131140e-02,-2.915500928758074095e-01,8.396681453593608443e-04,-2.302898011154688989e-03,1.933817384074062269e-03,2.303242981433868408e-01
-6.305859979236183577e-02,-6.616449761256930351e-02,-3.014521810745947050e-01,2.123935028114073108e-03,2.496911275985075600e-03,-3.635208749525580072e-03,2.370076030492782593e-01
-7.651643112555757409e-02,-5.551766400508971466e-02,-3.089204866767131241e-01,4.128824176836936709e-04,-3.308795248748672493e-03,-7.393837475756961496e-04,2.436550557613372803e-01
-5.948476989401514647e-02,-6.631891132153690249e-02,-3.485234217024669734e-01,-8.074146450939065746e-04,1.160108711184148697e-02,2.364533452533875649e-03,2.864213585853576660e-01
-7.355575580489433218e-02,-6.478396166064845363e-02,-3.241329088843427630e-01,3.753621654029937801e-03,2.626800681109841065e-02,-4.607813609404015631e-03,2.593064904212951660e-01
-5.401853204237355016e-02,-4.850053276160004589e-02,-2.177307810317467007e-01,1.099632603181526121e-03,6.851950792030142567e-02,1.557782783952341155e-02,2.062811553478240967e-01
-4.983957112943365741e-02,-4.909343625699158498e-02,-2.915299250570677625e-01,-3.864510443161242874e-04,2.384173776568863316e-04,-2.468721848823962617e-04,2.420659363269805908e-01
-8.199997836010752827e-02,-8.274681240493639289e-02,-3.622624141256516328e-01,-1.144287202366723981e-03,9.302264158870053590e-02,3.218060048043697163e-02,3.277325332164764404e-01
-5.363480685088901911e-02,-5.559885602398306759e-02,-2.064736732631682892e-01,-7.490164805689507625e-04,7.268019315824472693e-02,2.505327244327796438e-02,2.019784897565841675e-01
-6.966460635799889833e-02,-5.915287839305370665e-02,-3.311514295058015089e-01,-1.198152728801865109e-02,2.678678625570674130e-03,7.158303036321197327e-03,2.680307030677795410e-01
-4.737162532703145801e-02,-6.161849563595275803e-02,-2.755945407266460201e-01,7.091638459615393422e-03,4.712848434501533401e-02,2.093601865326331912e-03,2.363567501306533813e-01
-7.311598270680327860e-02,-5.881748687078805493e-02,-2.971391949461333892e-01,-2.868341738996297262e-03,1.509747388942965160e-03,-1.454660644507364614e-04,2.315720766782760620e-01
-7.626781507604085686e-02,-5.511016623895506616e-02,-3.205065607187529420e-01,-5.308422582432714178e-03,-1.241968795574195476e-03,-9.187504374002779684e-04,2.556549012660980225e-01
-7.911666499579290968e-02,-5.940694034111985988e-02,-3.146945243061869402e-01,-4.591172509262837764e-03,-6.107021408369797417e-04,2.391695996798866210e-03,2.461911737918853760e-01
-4.474911714766709181e-02,-5.488611800837386867e-02,-2.832309875552341261e-01,6.867705984842877379e-03,-1.432401695881504577e-03,-1.514223682879730498e-04,2.338944077491760254e-01
-7.722525960990293814e-02,-6.290327452891843196e-02,-3.139277407394791553e-01,-6.033332009248923433e-03,-6.574563665832971505e-03,4.011361370162913414e-04,2.446683347225189209e-01
-5.404067603027416788e-02,-5.705082718670095865e-02,-2.958504571953390339e-01,3.723368720370702229e-03,6.578181755188953692e-03,4.169572787486861172e-03,2.407835423946380615e-01
-5.307198741643773254e-02,-5.716348484388798779e-02,-2.896440860588612720e-01,3.548169537233450323e-03,7.229846061464099277e-03,4.210217256438119476e-03,2.350806742906570435e-01
-5.284676409945465725e-02,-6.041202384947846893e-02,-2.958085160227971189e-01,2.678814065228070623e-03,8.895524951740250985e-03,7.262857300485407556e-03,2.401390075683593750e-01
-6.344622900454989500e-02,-6.595172832459110512e-02,-2.013437089602052588e-01,1.058198691651340319e-02,-2.262105824424459621e-02,-1.940828763158938472e-02,1.472331732511520386e-01
-5.653879061050898214e-02,-6.113953456958433341e-02,-3.007177677625880730e-01,3.802877239130047441e-03,3.042576088174301502e-02,2.042400967479605922e-02,2.501861751079559326e-01
-6.095118413268074686e-02,-5.655876454264054110e-02,-2.946474449089357406e-01,-7.680292547537587123e-04,5.213102855629141164e-03,2.670870903114625720e-04,2.361000627279281616e-01
-5.182820384440679773e-02,-5.781865035738101288e-02,-2.915312894201342875e-01,8.806344969489347330e-04,-1.386465500321131450e-03,1.034735919721477965e-03,2.367885857820510864e-01
-5.934933551138001084e-02,-6.614615611073003387e-02,-3.093299813619773686e-01,1.724872131454528810e-03,5.678130593325492886e-03,-4.043078194294585058e-03,2.469658553600311279e-01
-5.610173307664259590e-02,-5.952843226287371503e-02,-2.918189774268922232e-01,8.766123055515300704e-04,1.403956970732685248e-03,2.236552192977967965e-03,2.340723276138305664e-01
-4.669375668835409887e-02,-5.681323589454281842e-02,-2.882245472327784608e-01,1.338852220850891362e-03,-1.786413084947630460e-04,6.122948431396221282e-04,2.366473227739334106e-01
-5.876695948977542217e-02,-6.661970748326953573e-02,-2.944297576353762658e-01,4.044028995332937457e-03,4.162625866953269943e-02,-1.840680346045865494e-03,2.429104447364807129e-01
-5.702586877353893469e-02,-6.414087295821405132e-02,-2.965523746226654822e-01,-4.346435243065720818e-04,-3.007200143500663933e-02,-1.395756806339219780e-02,2.429348081350326538e-01
-6.126402136438622442e-02,-5.328738468007400420e-02,-2.262858623381943657e-01,1.295093775823845904e-02,-1.756128497090415214e-02,-2.456443960394660495e-02,1.784678250551223755e-01
-4.872992872950523968e-02,-4.880829832109902233e-02,-2.501545545307016782e-01,1.427541633788551208e-03,-3.477903213637056207e-02,-2.393632385641453197e-02,2.142657190561294556e-01
-5.999447514574814122e-02,-6.096570831777464727e-02,-3.298044607669638473e-01,-3.681372729153086030e-03,-3.977619660864495366e-02,1.648288618919294124e-02,2.795326113700866699e-01
-6.395262018217461042e-02,-6.450145659848091628e-02,-3.375499412054822068e-01,-1.098058114488459792e-03,-3.007909781201354577e-02,-9.811383127125206972e-04,2.782559990882873535e-01
-6.326540435238714455e-02,-6.305965803757655752e-02,-3.120344030272635405e-01,-1.714487744095023660e-03,-2.367783312833783918e-02,-1.284369913129299046e-02,2.532249093055725098e-01
-5.466383263319443686e-02,-4.892381821451483037e-02,-2.877807020198225318e-01,2.957665762861420682e-03,-8.499066716802375701e-04,-1.197893169982683099e-03,2.361085116863250732e-01
-6.510829919383029352e-02,-6.464587180170577874e-02,-3.501496185790703430e-01,3.813363071885504446e-04,-5.280627303325695701e-03,-1.053606072040739680e-02,2.860029637813568115e-01
-5.063287824324053110e-02,-5.778452646385889846e-02,-2.782853043243758706e-01,3.283088146502482867e-03,-2.992317398049228194e-02,7.865967978228333157e-03,2.305489778518676758e-01
-3.566201280391423367e-02,-6.392617734814012853e-02,-2.826140035507425097e-01,3.753992993864637014e-04,-9.544653689826290005e-04,-9.634415509969052136e-05,2.341098934412002563e-01
-6.703857606153149074e-02,-6.124242906192109426e-02,-3.025655011681031015e-01,-2.457462701626570746e-03,-1.313551317901676813e-03,-7.932675933985284004e-04,2.385306209325790405e-01
-5.465446493495201841e-02,-6.117128774380073408e-02,-2.656949645437594598e-01,2.239696617241564505e-03,1.111789866138265890e-03,-7.435505275899056965e-02,2.445608824491500854e-01
-6.721788681383895903e-02,-6.498571099014655017e-02,-3.270224982462455743e-01,3.784554340704589736e-04,3.095221800906382270e-02,-5.515530797685954528e-02,2.829915583133697510e-01
-6.303429371837158957e-02,-8.150706380590357070e-02,-2.763430459384050852e-01,-2.875708930051386857e-03,5.847949799029871637e-03,-9.891642930488847574e-02,2.671745717525482178e-01
-5.775487120054099976e-02,-6.558804549683401597e-02,-2.465350862825365641e-01,9.433221507456067065e-03,3.429468769212278001e-02,-8.247993110207653411e-02,2.417120784521102905e-01
-6.221336057771127692e-02,-6.297408155183967238e-02,-2.766130840609373198e-01,2.391100522694815985e-03,7.525058640986233977e-03,-7.415179695414976513e-02,2.499744445085525513e-01
-4.124028889076891691e-02,-6.282659515662755711e-02,-2.569372758099086607e-01,-4.267515180934638303e-03,-1.226682532590222564e-02,5.923726583675037807e-03,2.072351127862930298e-01
-3.757273770054007922e-02,-6.867679713483959558e-02,-2.617388609099153829e-01,2.096486377816472388e-03,-2.065036861705363443e-03,2.216380195489014461e-04,2.104080915451049805e-01
-5.931627425986694263e-02,-5.358200543012518746e-02,-2.112097882370553292e-01,-4.691670842478141285e-03,9.776592576863731010e-03,-5.364686890923254375e-02,1.815551221370697021e-01
-5.126540133234296776e-02,-7.170127872810405645e-02,-2.146536261091807618e-01,-3.131325424177477338e-03,-1.267861950678642741e-02,4.179811437071785304e-04,1.558413803577423096e-01
-5.886826937328089315e-02,-4.838025313802614413e-02,-2.739099171316139447e-01,9.734365036000999089e-03,1.158185993433406141e-02,9.247091667889638378e-03,2.226016372442245483e-01
-6.291016357670303760e-02,-3.668076330893885184e-02,-2.507383786254954727e-01,7.551754547744570119e-03,4.467926537124562378e-03,2.367165942093748046e-02,2.068962454795837402e-01
-4.759527096243713895e-02,-4.895200702703637885e-02,-2.686558563819473888e-01,8.391001263471739580e-03,1.121252298286462383e-02,8.352149700542783189e-03,2.221876829862594604e-01
-5.476055217711292555e-02,-4.859237277003644606e-02,-2.916516671350238843e-01,3.463038284797505337e-03,2.379331891316616534e-04,5.041458926754508168e-04,2.401115298271179199e-01
-5.416141797608015063e-02,-5.773165128891813436e-02,-2.910242304471789554e-01,-1.199333298890919398e-05,8.383628241528614557e-05,-1.761601425474675466e-03,2.351178675889968872e-01
-5.788124761502158599e-02,-4.565494418879137428e-02,-2.830509680817638318e-01,4.473077891597147457e-03,7.647626995136679040e-04,2.384602296071103820e-03,2.316953092813491821e-01
-6.378795798811007223e-02,-3.995310084986979093e-02,-2.795391143619874175e-01,2.333166152294034387e-03,7.520512275172374717e-04,-2.566113570983856798e-02,2.329218089580535889e-01
-6.565914650456203261e-02,-3.974062780977177800e-02,-2.420724305472922722e-01,1.489754216146374271e-03,3.051184236032974603e-03,-3.810269604408951516e-02,2.018807083368301392e-01
-6.176166977448993567e-02,-4.394492042647735186e-02,-2.726968086834130611e-01,7.144026628848013094e-03,-1.814552209215085019e-03,-1.577326855744959691e-02,2.224379181861877441e-01
-5.779119693367851252e-02,-4.247247425902063445e-02,-2.899245613715749625e-01,-3.598330880239171328e-03,4.376444917644607170e-03,-1.395160476057787612e-02,2.415715157985687256e-01
-5.185756587225157088e-02,-6.470938537439596683e-02,-2.476342684673095151e-01,-2.489916475916360145e-03,-4.860639161684573301e-02,1.640709410124427392e-02,2.095030397176742554e-01
-5.814881971519419990e-02,-5.940728346556081729e-02,-2.874445281056361434e-01,-2.774711797118770530e-04,1.211511468187041187e-03,-1.532306758412687404e-04,2.286793589591979980e-01
-6.160307986564758642e-02,-5.051292449040054033e-02,-2.934825922148702193e-01,4.226978296746838198e-03,-2.835472299638619811e-03,-8.047334927884832942e-03,2.381904274225234985e-01
-6.260336078425987605e-02,-4.578675730875399197e-02,-2.785530283156465448e-01,4.700745712719055745e-03,-2.534941232850408850e-03,-8.418882300727551296e-03,2.254923433065414429e-01
-5.305220893595852250e-02,-5.253519910911363944e-02,-2.908602404332366609e-01,-7.378580101455743580e-04,8.677088478783672549e-04,-7.620403197676348583e-04,2.380787879228591919e-01
-8.606125055269661650e-02,-7.528745836348242626e-02,-4.057307954173214881e-01,-1.466565455215172818e-03,-8.154132572015891645e-02,3.647589700834980714e-02,3.601300120353698730e-01
-6.340605721853864729e-02,-4.691040905950960571e-02,-2.923967710428437838e-01,7.569218718837161623e-03,-1.389564040369561026e-03,-1.582367035407277953e-02,2.396143525838851929e-01
-5.984604939478964380e-02,-4.797865160356346026e-02,-2.862546112141790555e-01,2.253573904242167289e-03,-4.242495531975339421e-03,-2.893859219535309737e-02,2.380548417568206787e-01
-6.394950511792588110e-02,-5.863428010713088445e-02,-3.133103501765334142e-01,1.386239983035629942e-03,-4.848144009795279583e-03,-1.783219354577923049e-02,2.540959119796752930e-01
-6.469695983755760493e-02,-6.748555509414050357e-02,-3.049261472101884030e-01,3.091214912276429427e-03,6.764042612754140888e-04,-8.149367682057071004e-04,2.389141470193862915e-01
-6.890017531470775392e-02,-7.859080607962774800e-02,-3.432587539503843543e-01,6.850530968584417173e-03,-1.006399940859581399e-02,4.839441723919552657e-03,2.705969810485839844e-01
-5.973588859878128932e-02,-4.032194086978263536e-02,-2.890193725604991437e-01,-9.165498924718567348e-04,-4.360397579857295657e-04,1.197163790518014116e-03,2.395965456962585449e-01
-5.890480284292919089e-02,-5.965044369603092478e-02,-2.916426084330293045e-01,-3.452692499652671170e-04,-8.570782462433493287e-04,2.205490246300852760e-04,2.323717027902603149e-01
-7.090918994023646948e-02,-6.596809850926654839e-02,-3.283458541153740917e-01,8.347255393458499761e-03,-6.029231873061461798e-04,1.475072450893208202e-03,2.603588104248046875e-01
-5.881525301905804470e-02,-6.369715177615492552e-02,-3.417550607461931067e-01,3.167697276210134760e-03,-1.807750356746313375e-02,2.806496012869597392e-02,2.864801883697509766e-01
-6.251459664308038622e-02,-6.540290144767574310e-02,-2.937066126887870054e-01,2.837916674625884459e-03,-7.770120966192231408e-04,5.198763405985637378e-04,2.298197597265243530e-01
-6.284995214347691150e-02,-4.855992882762968921e-02,-2.966773858801750596e-01,-1.022142601032768536e-02,1.716073450114516744e-02,-4.899274870581168256e-02,2.581058740615844727e-01
-6.573753715596819536e-02,-6.189610708209439260e-02,-2.877459375224368232e-01,-7.031467554350563946e-04,-1.612693361065887588e-04,8.008832251875026061e-04,2.239616066217422485e-01
-6.425031385492663283e-02,-4.768006870634057537e-02,-2.031345635656951476e-01,-1.256543629178436157e-02,1.436590578956454221e-02,-3.849884125502322368e-02,1.655416637659072876e-01
-6.466193452015930876e-02,-4.594055793988742475e-02,-2.333283911448471581e-01,5.264285828931597466e-03,-1.447368120603198961e-03,1.525762282044188303e-03,1.790333390235900879e-01
-4.840975703175529055e-02,-5.670502439919540560e-02,-2.769431458655341460e-01,-7.653880252376044600e-03,6.063688336955194887e-03,-2.584163779094765696e-03,2.251814007759094238e-01
-5.181454451540326578e-02,-6.224792500937512824e-02,-2.418129169186686578e-01,-8.683603781573503641e-03,1.175398684924295126e-02,-4.638339109005062033e-04,1.867277175188064575e-01
-4.028933558550781835e-02,-6.450228968658450190e-02,-2.846388187710818807e-01,-5.432798341198778400e-03,-8.935926451951103563e-03,3.708225796650105582e-03,2.339783459901809692e-01
-5.805616002964988920e-02,-4.845154280631194799e-02,-2.898230781341503692e-01,-4.173000483933931616e-03,1.426191665030200877e-03,-1.142250924626713989e-03,2.368468791246414185e-01
-6.526434194362207286e-02,-5.538391864930893027e-02,-2.940773361642772254e-01,-1.092382052215218856e-02,-2.032191641700481955e-05,-3.127385451624530022e-02,2.408442050218582153e-01
-7.712163294946380865e-02,-5.560407216590997070e-02,-2.991203977592610808e-01,-2.375798808247977373e-03,2.500790093268067879e-03,-1.025102692485247487e-03,2.335854768753051758e-01
-4.743942943269899293e-02,-6.115612928631566914e-02,-2.913982293620640540e-01,7.254994145166866011e-04,-3.597687019402101907e-03,2.862381815013493973e-04,2.374834567308425903e-01
-5.523293254114189366e-02,-5.822906181528676728e-02,-2.905991872500260920e-01,5.244837134930741517e-04,-2.024719483658468113e-04,6.479164802111444035e-04,2.338872998952865601e-01
-6.012989616286124051e-02,-5.330385953183452985e-02,-3.009246412584073993e-01,-3.394229135425830182e-03,3.567207644300295598e-03,-6.858149544766424695e-03,2.447165995836257935e-01
-6.500081876070970544e-02,-5.136492288991614807e-02,-2.484716129166866516e-01,-8.105395455029577867e-03,8.344200378517723643e-03,-1.600454877857584307e-02,1.937102526426315308e-01
-6.225843526558012819e-02,-5.704866375238445975e-02,-2.923069500521838227e-01,-2.007625577117962872e-04,-3.010980668568027235e-03,1.217255469868227646e-03,2.327653914690017700e-01
-6.554784653805760530e-02,-4.506756214839564845e-02,-3.090221550602163525e-01,-5.745174232040063840e-03,1.061696555964180069e-02,-2.373860117741744685e-02,2.584827840328216553e-01
-6.075172946273599273e-02,-4.710411466129724167e-02,-2.824692008634928087e-01,-7.125627724084365212e-03,3.907582868915541753e-05,-6.155817381543473958e-03,2.294271588325500488e-01
-5.785281133205139037e-02,-5.125330418171958335e-02,-2.908061724576020968e-01,-6.244290967311823086e-03,2.929526299791500657e-03,-1.192391834423662221e-02,2.375236004590988159e-01
-5.708514352944751846e-02,-5.099851686668731288e-02,-2.901289162350048079e-01,9.186280263912958337e-04,8.110724297288935585e-04,-2.050688757546386028e-03,2.361821681261062622e-01
-5.164940933998936334e-02,-5.788246440887309663e-02,-2.902576915886386222e-01,8.841444888532483653e-04,-1.400876252780558322e-03,1.429479943336946744e-03,2.355840951204299927e-01
-5.855147584703603025e-02,-4.155633807334305208e-02,-2.655413836437524044e-01,6.656935978024134878e-03,9.084427958693741534e-03,6.815016724027764955e-03,2.171896398067474365e-01
-4.915958657324062675e-02,-7.580106542324209495e-02,-2.421100868434435949e-01,-4.759729962141715127e-03,-2.805451144876960727e-03,1.792672739384601433e-03,1.813846677541732788e-01
-6.551020111475645835e-02,-3.698808201209197177e-02,-2.760202376656247791e-01,1.823825040717442277e-03,-2.980829880414733249e-03,5.894586253262337587e-03,2.264355421066284180e-01
-7.002597387742529045e-02,-4.583701528649211654e-02,-1.933859968205795810e-01,5.752561043439852195e-03,3.448305337266989110e-03,3.455768123027844196e-02,1.500146687030792236e-01
-5.885185339197049337e-02,-5.915028986669670918e-02,-2.897459801412777258e-01,2.889905972748163391e-04,-1.750292707759534654e-03,2.223547470627309022e-03,2.307976484298706055e-01
-4.700001769081345315e-02,-5.850378265459166283e-02,-2.905738806833207399e-01,-3.857018125818979809e-05,-3.624648634051676026e-03,1.390022102976281020e-03,2.381255179643630981e-01
-6.444730357585237712e-02,-3.758622879153308838e-02,-2.688025464834449818e-01,1.809954737072553286e-03,-3.489085547489640705e-03,2.843680031796509992e-04,2.191309481859207153e-01
-6.148106824431345818e-02,-4.074599826659766610e-02,-2.767619531081648709e-01,2.781133839421924634e-03,1.158966923983367238e-03,3.732449285557995315e-03,2.265142202377319336e-01
-6.175784643020608422e-02,-4.450170005078603330e-02,-2.911960229363646513e-01,5.477249949762694713e-03,3.110074441412891046e-03,7.625179179042166668e-03,2.391491532325744629e-01
-4.544472871531739233e-02,-5.904630326249482586e-02,-2.904527073174082430e-01,-1.375577762244491057e-03,-3.513285786242438015e-03,6.736423322634701137e-04,2.385906279087066650e-01
-6.506089081087665371e-02,-4.172240896513419728e-02,-2.865570507850401794e-01,5.523426343978376715e-03,1.887894374580418970e-03,1.023656615453925542e-02,2.349280714988708496e-01
-6.245971354646775303e-02,-3.556750068810608789e-02,-2.687335291745877597e-01,1.460934150270435739e-03,1.982033179615386490e-04,6.441052936154336404e-03,2.212469726800918579e-01
-6.100950416019505079e-02,-3.955625233116254191e-02,-2.486109259585505549e-01,4.109012988748375053e-04,5.563167047740964766e-03,1.096512087560021567e-02,2.003328502178192139e-01
-5.269481506443199348e-02,-5.019257283975572803e-02,-2.910763579660544109e-01,-1.484255979436007854e-03,-1.225515805511828238e-04,3.623005224969652605e-04,2.396571636199951172e-01
-4.719333407762371646e-02,-6.093998312220767766e-02,-2.904297004490272172e-01,-1.210593087064761909e-03,-4.280190964759090014e-03,-6.672869138237126716e-04,2.367908507585525513e-01
-6.845673069762249485e-02,-3.864154821197594847e-02,-2.869032886002730320e-01,2.538712959645969720e-03,-5.677724935114163499e-03,8.106392951954879966e-03,2.354443818330764771e-01
-5.989959990251747524e-02,-6.011853311786338749e-02,-3.011102756914179057e-01,-9.945290673385375965e-04,-6.290199355317345215e-04,-4.529364404799068530e-03,2.412374913692474365e-01
-5.364320368323108323e-02,-5.301485013561027526e-02,-2.900945582585195415e-01,-2.397333781851573257e-03,-1.664837093911330194e-05,8.707941493709801415e-04,2.368073761463165283e-01
-7.931546698507671578e-02,-5.434103410564430914e-02,-2.984826144694542327e-01,3.491620363363592979e-04,3.773541303282407916e-03,1.497330456584172981e-04,2.327545732259750366e-01
-7.655645941248517827e-02,-5.676175724354604046e-02,-2.971551459166926756e-01,1.310385774611013852e-03,-6.155067002112791889e-04,-8.036695643519481955e-06,2.311462461948394775e-01
-7.256663853935252373e-02,-5.877407354699842879e-02,-3.207389161748904205e-01,-2.704032587549569746e-04,-4.221065189540428898e-03,3.931584463533550206e-03,2.555439174175262451e-01
-7.686753062386098012e-02,-5.826482910415561878e-02,-2.971831163624280014e-01,-2.855678099507781304e-04,-1.451620829728249686e-03,3.867272125674144209e-04,2.301966547966003418e-01
-7.189529627614260621e-02,-5.595616637271787208e-02,-2.993783233795490051e-01,8.147796966317826005e-04,1.485474292978217507e-03,-1.526491733187148626e-03,2.358899414539337158e-01
-6.202106365277035294e-02,-6.754984084807477696e-02,-2.909474393106773471e-01,8.499840794884673751e-04,2.660020426089903297e-04,2.532197363926820240e-04,2.262183427810668945e-01
-5.034274126739882171e-02,-5.775294293299269854e-02,-2.904312353639535993e-01,-1.352720624043371195e-03,-1.414904810034411323e-03,-1.643306132079298864e-03,2.365119159221649170e-01
-5.146585883630006020e-02,-6.093329887664666877e-02,-2.952337101913176665e-01,-1.751795245253038582e-04,-7.621035687966785065e-03,-8.489271795915033156e-04,2.395433932542800903e-01
-7.080923654547256751e-02,-5.931001912687303146e-02,-3.001657160879281916e-01,6.052964436813706821e-04,1.949709193488418204e-03,-8.862677328295803748e-04,2.353484779596328735e-01
-7.006732017305726534e-02,-5.747739091937334455e-02,-2.990220041861419431e-01,6.524241048796607014e-04,2.596528737434209040e-04,-3.977400161174937838e-04,2.355063259601593018e-01
-5.127301551562241100e-02,-5.790403705019175895e-02,-2.908963984520023249e-01,-9.641317775024301840e-04,1.581456731142313540e-03,1.229224901941586637e-03,2.364089936017990112e-01
-7.621947827007639897e-02,-5.727028158933875068e-02,-2.927083222052754841e-01,8.430651830140849451e-04,4.881053051905299826e-04,9.173755443825455029e-05,2.265648990869522095e-01
-8.312686955983952797e-02,-6.155277688844358608e-02,-3.439704151728473214e-01,-3.561140894659260269e-03,1.473635645535278059e-03,1.716384084048974646e-04,2.723543941974639893e-01
-3.594503153748679347e-02,-6.523152402338353029e-02,-2.680773279284113242e-01,1.854127848699273955e-03,8.462529439922185370e-03,1.692899043051300468e-03,2.194960415363311768e-01
-3.768678331871491705e-02,-5.997853568473565655e-02,-2.847927162531423417e-01,-9.964738275214919758e-04,9.396241380361162326e-03,5.553054054728004467e-05,2.373134940862655640e-01
-4.587560976502118304e-02,-5.994222300249732460e-02,-2.966398325717265472e-01,-1.403758755769525047e-03,9.057638451405940205e-03,3.654937204150531145e-03,2.446329295635223389e-01
-6.574276120926131339e-02,-6.404375931614982032e-02,-2.906315280981613958e-01,-4.338924954754562816e-03,5.548166939696370405e-04,6.202730662169734892e-04,2.258727252483367920e-01
-5.533066620979679162e-02,-5.237569011983615741e-02,-2.911183821501532876e-01,7.341383362063166494e-04,8.469581148889634460e-04,4.556672729867299412e-04,2.372882515192031860e-01
-4.377495981901427524e-02,-5.804092989031132965e-02,-2.934889871431580199e-01,-1.670579067389385683e-04,1.549897140964945005e-02,-4.263014966649327289e-03,2.444861084222793579e-01
-4.343741306632933896e-02,-6.296900217431272706e-02,-2.890631604686814127e-01,-5.908675649415827923e-03,6.163742316081717056e-03,-4.549565715399727511e-03,2.370587289333343506e-01
-3.942956053997510868e-02,-6.979275112156343996e-02,-2.355059385670187633e-01,-4.493469402038825777e-03,3.084967029143770301e-02,-1.617999201126792130e-02,1.926536262035369873e-01
-6.578524921270272052e-02,-6.100340168769036175e-02,-2.961436221179064576e-01,3.522117138455523478e-03,1.373425953427361967e-03,8.799313653967472853e-04,2.328832000494003296e-01
-4.878935775965735633e-02,-4.967591088756538598e-02,-2.693145343740783182e-01,-8.532884871355372533e-03,-8.752625396454674633e-03,7.451625797001899289e-03,2.214756608009338379e-01
-5.594426474057954957e-02,-5.263391898082958598e-02,-2.920241593586652140e-01,-4.765534661141249476e-03,-1.578445003892863831e-03,-5.115434824147181356e-04,2.379129528999328613e-01
-5.115428510480060642e-02,-7.089709838118889162e-02,-2.430469436759430946e-01,-1.102413487557815479e-02,-5.205957491048100391e-03,1.421236830314971493e-02,1.856769919395446777e-01
-5.985619714288234472e-02,-5.811865033480548282e-02,-2.875981039265416705e-01,-8.283992570109485016e-04,-1.430020432645384199e-04,2.908955878884537916e-04,2.286208271980285645e-01
-5.406152149688700503e-02,-4.835369905014845482e-02,-2.726560771004390427e-01,-1.218003682114330091e-02,-1.536900318172183637e-02,1.302776169929089831e-02,2.252258956432342529e-01
-5.359695339668031633e-02,-6.759615741988332649e-02,-1.868796324184096580e-01,-2.351136104444021338e-03,8.379673252340128636e-03,8.003077311738393540e-02,1.885110437870025635e-01
-5.908482245749639705e-02,-5.920492509549968307e-02,-3.019943936086906255e-01,-8.041299259545924699e-03,-2.690639854958767549e-02,9.226130045408141578e-03,2.481876611709594727e-01
-6.111201551833361778e-02,-5.888981544567853388e-02,-2.902026132623375942e-01,2.339574278689018178e-04,-6.880258427896051264e-04,1.988310349500154589e-03,2.302389442920684814e-01
-7.318802385796868704e-02,-8.020560034997072096e-02,-1.706325105067769687e-01,1.949234634186854283e-03,2.065699029656265992e-03,-4.333112063634336590e-03,9.455885738134384155e-02
-4.480434295870618089e-02,-6.124771992180014224e-02,-2.900651017742464921e-01,1.862872891143214351e-03,3.892216830281308108e-03,2.282379046165909382e-03,2.376169115304946899e-01
-6.310199497405905023e-02,-6.176927989350822212e-02,-2.940714438770083428e-01,-9.752206538144145591e-04,-3.099723321535252825e-03,-8.582840485917965587e-04,2.317118197679519653e-01
-7.414809302125736912e-02,-7.153010613919046079e-02,-1.440400756878483235e-01,-3.863257021212073913e-04,3.311484151737818012e-03,1.289486109057521798e-02,7.487921416759490967e-02
-7.076964843503602554e-02,-7.631379707232641141e-02,-1.793081846373309474e-01,2.466258808287208251e-03,1.219764379806101591e-02,6.047557894520636228e-04,1.080522537231445312e-01
-6.075965980018292745e-02,-6.867449107139540765e-02,-2.880123769417436974e-01,-1.603239821202905816e-03,-1.449982710552381523e-03,4.487108493502286631e-04,2.234332114458084106e-01
-7.469034679043624891e-02,-7.730564949041311695e-02,-1.832778159083770508e-01,3.217975368500071258e-03,4.518705538411809742e-04,1.451001160941969501e-02,1.103512048721313477e-01
-7.741458690930154429e-02,-7.703586493310737859e-02,-1.702335829402880363e-01,-6.784200810141530950e-05,3.804995005482999289e-03,9.436687513570884631e-03,9.466394782066345215e-02
-4.569335425340956269e-02,-5.118880745881684846e-02,-2.623325542226346840e-01,7.992206936635340431e-03,-1.070690434010527180e-02,-3.452945032948218172e-03,2.152754515409469604e-01
-5.637632293819071216e-02,-5.728849725674681204e-02,-2.901856787610079813e-01,-3.552820508594026314e-04,-3.115236008310582217e-03,2.008295485475959131e-03,2.334437072277069092e-01
-7.376661208472007347e-02,-7.580474145554527698e-02,-4.131426611694272166e-01,1.453532318781325123e-03,-6.669604755699774443e-03,-8.875351231085781833e-02,3.718331754207611084e-01
-4.820684151464371681e-02,-6.448010649559596241e-02,-2.665174705627824103e-01,1.033054091563574348e-02,-3.116395055929620586e-02,-7.660837701190235417e-03,2.185898572206497192e-01
-5.349962755412088211e-02,-5.943806330575206187e-02,-2.915171477776697384e-01,2.027746714054045902e-03,-4.912647728985282750e-03,-2.450660050881570021e-04,2.352850884199142456e-01
-6.937032542018711778e-02,-3.650701161379524273e-02,-2.814110788760322279e-01,1.379265053067466181e-03,2.312268075129556033e-04,2.906595984440233423e-03,2.303059995174407959e-01
-6.604119964192949055e-02,-6.033784700298797099e-02,-2.883494494301876987e-01,1.138828046115470966e-03,-3.325056564880277598e-04,-3.102108571027561729e-04,2.252241075038909912e-01
-4.640566637559646879e-02,-6.100637984864787366e-02,-2.943917658542795079e-01,1.221051498207124334e-03,-1.066588140279810595e-02,-1.749473299243099896e-04,2.417340725660324097e-01
-6.969097054918488299e-02,-6.077123470414638740e-02,-3.204717170321550457e-01,-2.492688683486120847e-03,-5.003808755009829176e-03,2.558285318597874631e-03,2.555794119834899902e-01
-5.863839497574005466e-02,-5.657543678683923938e-02,-2.918647415619797236e-01,-9.574933785977652418e-04,-3.388874376704098523e-03,4.685304677131319384e-04,2.343454360961914062e-01
-4.433514379776912206e-02,-6.527401621430230227e-02,-2.856132861771670806e-01,4.722224341819578411e-03,-1.993896195864560197e-02,-5.747548635364902944e-03,2.344358563423156738e-01
-7.410799934873163464e-02,-5.678922519762912013e-02,-2.931584660853440716e-01,4.088922548657305178e-04,-1.323611402554753349e-03,-1.830534043336196699e-04,2.282161116600036621e-01
-5.240183145848337221e-02,-5.691109566869836933e-02,-2.732927960777034593e-01,-5.349851737628089771e-03,-3.551494395847280177e-04,1.923654030465025283e-02,2.213898599147796631e-01
-4.271971976330615761e-02,-5.949772890391777369e-02,-2.808267723766019186e-01,2.645765740694400788e-03,-8.156489341468602799e-03,-1.010054421672609891e-04,2.306558489799499512e-01
-5.200453144085306900e-02,-5.882800548108338412e-02,-2.944003908775597034e-01,2.299880553299173645e-03,-5.123384150021262698e-03,-1.092727393690955985e-02,2.400024235248565674e-01
-4.726222302602937908e-02,-4.709972816083841940e-02,-2.525481970978245561e-01,9.571068244780619669e-03,3.032750653693437257e-02,2.278957285300757529e-02,2.162588685750961304e-01
-8.486282465668103236e-02,-6.005409478854763228e-02,-3.241567547372799507e-01,5.177876991641058505e-05,6.937992299289153821e-03,-6.832578751806569432e-04,2.529020607471466064e-01
-5.624988749155437895e-02,-4.379235234287068290e-02,-2.894325685673224680e-01,-1.465506387994396477e-03,-3.541490817499563055e-04,3.006617772598350262e-04,2.396692037582397461e-01
-5.765760499045705090e-02,-5.359970949916043059e-02,-2.902232435023869295e-01,-1.223527077536916636e-03,6.560848481460383481e-04,5.897924309140015371e-04,2.346354573965072632e-01
-6.445116600139569329e-02,-6.093325757143758237e-02,-2.866219364923685564e-01,8.807316471964488254e-04,6.808024656491102450e-05,-9.576784710343001078e-05,2.239557355642318726e-01
-4.695515629372520872e-02,-6.098915515787212138e-02,-2.691452748251775273e-01,6.138171685223229278e-03,3.840559558817985969e-02,1.505101630666373300e-02,2.272988855838775635e-01
-4.897320304916295830e-02,-5.727259654312016890e-02,-2.568550092871018098e-01,2.285276594892446216e-03,2.357679575512818676e-02,1.947094965269342143e-02,2.106633484363555908e-01
-5.908732084138706986e-02,-5.784320528544606432e-02,-2.876501252280027066e-01,2.023805772884681650e-04,-3.410364960554490696e-04,-6.214195856091083055e-04,2.291909456253051758e-01
-4.208066223176565313e-02,-5.530697350714200433e-02,-2.759248100352904576e-01,4.839559946838264265e-03,5.748937633672362817e-03,1.541903041843906879e-03,2.279071509838104248e-01
-4.445730187000862532e-02,-5.785227365012100831e-02,-2.899176445864786178e-01,4.773297898751893351e-03,7.973807462455609688e-03,3.018428012054148561e-03,2.396428585052490234e-01
-5.638789765681517796e-02,-4.536853654876873976e-02,-2.890578507415158538e-01,-1.021099640012803310e-03,5.745458975582816950e-04,-1.053154683252399259e-03,2.383863478899002075e-01
-6.065013957861739580e-02,-5.537646952829355929e-02,-2.912823172407636996e-01,3.462294893302017736e-04,-2.293318657521717385e-04,5.303993288756543752e-03,2.334956228733062744e-01
-5.071652721504929517e-02,-5.089650060893163852e-02,-2.906792884125281029e-01,-4.246086355137622045e-03,-3.023359237671771030e-04,2.772598424611715830e-03,2.400341629981994629e-01
-4.387648574989055916e-02,-5.226613239283969814e-02,-2.870151199950989884e-01,4.531262092035238248e-03,1.245395258773484681e-03,-3.500880579734308787e-04,2.391935437917709351e-01
-4.677017929202446911e-02,-6.272576967509096990e-02,-2.683260347335034712e-01,1.008507596497787775e-02,1.777612177580398939e-02,5.650363358480100032e-03,2.171529382467269897e-01
-5.124845390069787676e-02,-5.727298549377185521e-02,-2.861321468287291170e-01,3.391809629023531582e-03,4.312915063665472698e-03,-2.038544345357316194e-04,2.321250140666961670e-01
-4.999139889983750251e-02,-6.358225179856709375e-02,-2.861344934336204071e-01,1.186113898052728113e-02,1.356860926845393153e-02,6.669660676766792778e-03,2.320489585399627686e-01
-5.068901094450542488e-02,-5.041427419072908034e-02,-2.887941935378869895e-01,3.042661479488329140e-03,7.552272560310320125e-04,7.994902056620064451e-04,2.383085638284683228e-01
-5.003702039417606828e-02,-5.449302542223355417e-02,-2.895909514234409343e-01,1.842638211485116270e-03,-1.125645519462082061e-03,-9.103247583896018850e-04,2.373919934034347534e-01
-4.605455273118413961e-02,-5.768054987595161442e-02,-2.775468781364485715e-01,6.951325677041418107e-03,4.290073295817751521e-03,2.548209989523536091e-03,2.263894677162170410e-01
-5.870956134000828580e-02,-7.073594170818098270e-02,-1.673052208309886990e-01,6.571078502443296332e-03,4.829749729577110379e-02,1.659971409728905334e-02,1.363296508789062500e-01
-6.247874521807947334e-02,-6.687872709321518450e-02,-1.525679232417500586e-01,5.733974426083649455e-03,3.435430860712397616e-02,1.522071857541326158e-02,1.098787114024162292e-01
-6.477236656050584795e-02,-6.168090541887822492e-02,-1.051661138472738399e-01,-2.005056718163719751e-03,6.030678129408754279e-02,6.016637486791205462e-03,1.131259128451347351e-01
-5.690026711956243377e-02,-5.011552893049590202e-02,-3.026238312980464654e-02,6.353837299722010648e-04,1.200458928787179712e-02,-1.844617338964459063e-02,4.504668712615966797e-02
-5.348773614718636826e-02,-7.172570841571486444e-02,-1.475836215217309066e-01,-2.228697269452811595e-03,3.641127295039164879e-02,-2.357277926775195459e-02,1.145853921771049500e-01
-7.249488419755295565e-02,-7.590590032022170863e-02,-1.482752961810376302e-01,-3.068685289462285120e-03,1.792122520206760813e-02,-1.340267157023152661e-02,8.382406830787658691e-02
-5.931136730469481477e-02,-6.500677425703373091e-02,-2.960286952408716088e-01,-9.420692955299065589e-04,-7.041801055049244553e-04,1.505450960347395981e-03,2.339450269937515259e-01
-5.873808639870614634e-02,-6.107093194411662707e-02,-2.972533728439433198e-01,-2.018972625500195864e-03,-3.460318017044127382e-03,-7.670429789433546620e-03,2.378302365541458130e-01
-5.771763040106078768e-02,-6.346922968546311883e-02,-2.941870266709363246e-01,-2.238047893869625406e-03,-5.042284145361303899e-03,-5.954138791873590450e-03,2.340692877769470215e-01
-7.183773084582498192e-02,-5.820820769044364462e-02,-3.113436498249834150e-01,9.733438165741035362e-06,-2.152173753086834927e-03,9.824584662800747367e-04,2.466373741626739502e-01
-6.123107465080426803e-02,-7.051723248614900907e-02,-4.409074487329723846e-01,-3.352592734309771567e-03,-4.001316116565752784e-02,9.295995535366554513e-03,3.818517625331878662e-01
-6.759090483498583768e-02,-6.005248938539822778e-02,-2.875626830602827644e-01,-1.205284550350797096e-03,3.979956942437445238e-04,-4.356822532812931357e-04,2.238482832908630371e-01
-4.998749956252293569e-02,-5.670219227282549679e-02,-3.216862892476570757e-01,-1.312021980741280526e-03,-6.097927368660084613e-02,-6.411282713312586867e-03,2.886604070663452148e-01
-4.632596284387743846e-02,-6.051956860419729911e-02,-2.939872048890985745e-01,2.426061755662331076e-03,-4.899008169421805586e-02,-9.752350617559309154e-03,2.559793293476104736e-01
-6.540399754412168365e-02,-5.954290720385295443e-02,-2.735141411250177068e-01,1.752742269469453971e-04,-8.771085518797974712e-02,-1.548239358180795652e-02,2.614626586437225342e-01
-6.762753911377802907e-02,-6.089498875000345923e-02,-2.879476542885576751e-01,-1.255436637264873432e-03,-7.368615934065451522e-04,1.263101475921722151e-03,2.237872630357742310e-01
-6.410865700962406488e-02,-6.079416595605940943e-02,-2.865406167329584974e-01,-8.612038284605150890e-04,-1.685080658128941711e-07,-2.834057370784722873e-04,2.241130918264389038e-01
-4.083591893986590615e-02,-5.719290302744028942e-02,-2.815776959120359080e-01,4.449144221660562663e-03,-3.007222017101049416e-02,8.941986022501891701e-03,2.393712997436523438e-01
-6.989414435004533133e-02,-6.440489297041493422e-02,-3.000393120767914645e-01,-6.360357033942067549e-03,-1.302219675100739276e-03,-4.638438949743071992e-04,2.332109510898590088e-01
-6.605480585042128316e-02,-6.974539042589977811e-02,-3.332155131273775162e-01,-7.778031176833743099e-04,-8.100447322709565523e-02,-1.446426222189864559e-02,3.011928200721740723e-01
-5.402362496211150777e-02,-6.099053002217583175e-02,-2.766190655607185800e-01,2.200093823964977598e-03,-6.830300792602247983e-02,-7.267220076844290062e-03,2.494300007820129395e-01
-5.990962729381493768e-02,-6.069466587903363242e-02,-2.894117283413212283e-01,-6.907526003255172594e-04,1.774281859509806158e-04,-2.257574942965820917e-03,2.291472852230072021e-01
-7.012904578331993766e-02,-5.834365284799256091e-02,-2.902901248757905339e-01,-1.126691362448921548e-03,-1.045914730825854913e-03,1.437915169242880674e-03,2.263134419918060303e-01
-6.145966195227545170e-02,-6.895786020527165661e-02,-2.513574159353868520e-01,-9.342212397704215609e-04,-3.144984519037204163e-02,-7.969018681983833230e-02,2.381490319967269897e-01
-5.966209917021142450e-02,-6.488646360195812757e-02,-2.538390408737576376e-01,-3.581641492927039455e-03,-2.997843003190071506e-02,-7.999900325905080767e-02,2.421810328960418701e-01
-5.771177186632669986e-02,-5.113998367779856724e-02,-2.905734166979823674e-01,8.879091671599955750e-04,1.154706111159251643e-03,-2.037496767312066501e-03,2.362559437751770020e-01
-7.386684287594985632e-02,-6.066175191127853861e-02,-5.024134290079473875e-01,5.564639559319673606e-03,-1.055401429985232745e-02,8.679495874039882750e-03,4.360488653182983398e-01
-5.611641579758661069e-02,-7.014883596107301944e-02,-2.971121893587179708e-01,-5.150403071169660021e-03,-3.251587153333673243e-03,-1.477263806820962831e-03,2.345462888479232788e-01
-5.725747247566434495e-02,-5.825569470937060068e-02,-2.906008599920558155e-01,1.493944620963257898e-03,1.436456412366174645e-03,-2.051375301787234338e-03,2.329006493091583252e-01
-6.278600068855877403e-02,-6.300638279172021683e-02,-3.145195200989467921e-01,-7.173181053085235688e-03,-1.805480027773369691e-03,-1.204820223162212864e-02,2.528120875358581543e-01
-6.002537557694681558e-02,-5.518493075488847821e-02,-2.843617920372741859e-01,9.586346093577134686e-03,-1.780927786287055115e-02,-1.814386810037152409e-02,2.316267490386962891e-01
-5.826150388280972037e-02,-5.662523054022973457e-02,-2.988398441090229785e-01,4.455043843483902409e-04,-5.508697014499951486e-03,-5.502203974191155478e-03,2.417782545089721680e-01
-5.834937036046589087e-02,-5.761267432763117480e-02,-3.134047603188874764e-01,2.936188909581299118e-04,-9.737446959363767543e-03,-7.209887197563666361e-02,2.848177552223205566e-01
-4.367833148964091194e-02,-6.220302723418651841e-02,-2.652009913965480137e-01,-4.208303665499098581e-04,-1.921856679662858891e-02,-8.109634803544707666e-04,2.154585272073745728e-01
-3.767393749799981262e-02,-6.429177578777550695e-02,-2.404771202076325110e-01,-4.410907850113919733e-03,-2.836532275625488347e-02,-3.225152099867689866e-03,1.973393112421035767e-01
-7.618960740398333931e-02,-5.613210775011151510e-02,-2.939707717154793620e-01,-9.039711090328897544e-04,-1.689401809829414345e-03,5.192359251510025780e-06,2.284952849149703979e-01
-4.006204861924678173e-02,-6.829855588479666340e-02,-2.811976018951880540e-01,-1.007705268400587578e-03,-1.031812852472476297e-02,2.713229109155434419e-03,2.290837168693542480e-01
-4.350253016600752476e-02,-6.321643971184870425e-02,-2.764264697978499608e-01,7.514807055883621599e-03,-7.002709410039986530e-03,-2.484878447747105711e-03,2.244669497013092041e-01
-6.106417125986554617e-02,-5.272730805086589534e-02,-4.607341653434355866e-01,-1.553109276786706142e-02,7.875934001421241396e-04,5.627728416281441853e-02,4.163706302642822266e-01
-4.909289569678765980e-02,-6.360814323433271189e-02,-2.185361378172428204e-01,-8.001407788799035081e-03,1.584953860482762877e-02,-1.057100615812956931e-02,1.665626764297485352e-01
-4.972570103422921384e-02,-5.634326546088813670e-02,-2.911230081828749539e-01,7.942120052424877369e-03,-2.842813794431325869e-03,-1.771172908729539645e-03,2.386249750852584839e-01
-7.372740227130657187e-02,-5.809568297335210296e-02,-2.941327736912251467e-01,9.448702631023940361e-04,1.044313127784958235e-03,-4.551853948137670608e-04,2.286367565393447876e-01
-4.080525627153991364e-02,-7.266778925158638713e-02,-2.681893146395594174e-01,-3.944746779686505306e-03,-4.649866509638193868e-02,-7.444279010331300746e-03,2.284141182899475098e-01
-3.567613844384018296e-02,-6.145453469648585326e-02,-2.695684073400506087e-01,-1.663834257749716855e-03,-1.062671999090827879e-02,1.402171294715402056e-03,2.229209244251251221e-01
-6.082800071548732923e-02,-5.780449779474856886e-02,-2.899402196461681180e-01,1.172044800999148210e-03,2.917191141346598890e-03,3.518282314926275342e-03,2.307835668325424194e-01
-3.450607139791875277e-02,-6.658748488649809949e-02,-2.638388648224262445e-01,4.658181166682413160e-04,-1.515561092056142041e-02,-2.948221611877971035e-03,2.167515456676483154e-01
-5.049830121246405568e-02,-6.048987985952478108e-02,-2.823817220848350296e-01,5.187278288010178234e-03,-1.563275710202169030e-02,-1.032383285276900625e-02,2.295353710651397705e-01
-4.646960793033981518e-02,-7.432279555283247130e-02,-2.374677752689859922e-01,3.171704539327304621e-03,-2.501821674614404523e-02,-7.249941453560729970e-03,1.843957453966140747e-01
-7.003018041398136051e-02,-6.103843381573227644e-02,-2.890663121956235648e-01,8.764913315995049832e-04,1.810093441826902028e-04,1.247466645931943809e-03,2.236834019422531128e-01
-6.228401473084937967e-02,-6.308098693316566141e-02,-2.878394641497634132e-01,1.395880342131358568e-03,6.054280434407248446e-04,-6.986591641248941428e-04,2.251766920089721680e-01
-7.151016810241857258e-02,-6.584215456133332700e-02,-3.121553548423386948e-01,7.577599624097848888e-03,-7.916542553494783363e-02,6.508637547056776718e-02,3.016432821750640869e-01
-6.068177564322839446e-02,-6.206934426629291679e-02,-2.884843833051902173e-01,-5.903398077906267614e-04,2.036189485061855807e-06,-7.164409118709874559e-05,2.271143347024917603e-01
-4.944319782918125961e-02,-5.425916608201519775e-02,-2.703481912792927710e-01,-8.813817718396482759e-03,-7.439070045933259684e-03,1.189915735862293392e-02,2.204136550426483154e-01
-7.702077262381731848e-02,-5.052707397499441033e-02,-2.537252597713761659e-01,-4.859028362493412502e-03,1.216257481361923080e-03,1.213055778413422905e-03,1.915401518344879150e-01
-4.259584235438394761e-02,-7.207046508408682106e-02,-2.651289632460383516e-01,-2.194480194533245478e-04,-2.459272280894115106e-02,-3.967610489030232862e-03,2.137579023838043213e-01
-6.192960560126353764e-02,-6.103468032956142764e-02,-2.892473158404084699e-01,2.038883217730822427e-04,-1.376325885295804187e-03,1.616859819434220895e-04,2.277794182300567627e-01
-6.348371256712626032e-02,-6.331560736776337128e-02,-2.863989795198078614e-01,1.510835760225316649e-04,9.163854241563357348e-05,3.560270129639896619e-05,2.229995876550674438e-01
-6.576715434583926823e-02,-4.283514508330960036e-02,-2.683307326229239509e-01,-6.242962041334569785e-03,1.886329661964278055e-03,5.893519932398299035e-03,2.154875099658966064e-01
-6.448446782682987211e-02,-3.488923262833606986e-02,-2.753508718453247517e-01,-1.433476217815409523e-03,6.030626900258926736e-04,3.087800913266011346e-03,2.271937876939773560e-01
-4.441772142526440037e-02,-6.661178251003740947e-02,-2.740463680948052039e-01,-3.219763366428961878e-03,-3.116097037037091760e-02,6.090776841159562145e-03,2.262319922447204590e-01
-4.306740890918664411e-02,-6.198733740378359336e-02,-2.717700679754755932e-01,-7.352133619117612491e-03,-3.091581705776700142e-04,-1.997071722072114126e-04,2.202235162258148193e-01
-6.781150069647455536e-02,-6.093471402465701348e-02,-2.948085839702555000e-01,-2.075351742863044534e-03,-2.137599624922579405e-03,-2.097561108633617249e-03,2.305987924337387085e-01
-5.335408932583796116e-02,-4.213299412352550233e-02,-2.435245539973315276e-01,-8.036687056267248497e-03,-5.725761468295771303e-03,1.348221044359910505e-02,1.981465816497802734e-01
-5.079482542888198726e-02,-6.092716390658839409e-02,-2.854614359869160345e-01,-5.652634576029752674e-03,-5.052335188154961909e-03,3.765182103605585646e-03,2.302353680133819580e-01
-5.914863922236229810e-02,-6.109856459060213074e-02,-2.885457811603178158e-01,-6.033160254066570385e-04,2.775230029075443283e-04,9.548381419643816106e-04,2.284373044967651367e-01
-4.766671318952289682e-02,-5.921887101437391110e-02,-2.955442780571589934e-01,-5.854919105118334272e-03,5.762824398811781934e-03,-2.670198456583242064e-03,2.427695989608764648e-01
-5.570331246449744533e-02,-5.325288439380318484e-02,-2.885609637480351930e-01,-2.906792484393030951e-03,5.956342628675032058e-04,3.876506089633987131e-04,2.341498583555221558e-01
-6.764676462879021246e-02,-4.050343421157945323e-02,-2.852337766257621032e-01,-4.653978434434191333e-03,-1.200776982375862702e-02,2.651746086426906568e-02,2.378948777914047241e-01
-4.773642880606401850e-02,-5.129634344500784426e-02,-2.878157784071537773e-01,-4.231401995961190342e-03,-2.798500779507982674e-04,8.186569967415843058e-05,2.384325414896011353e-01
-6.217498041533775499e-02,-6.351131770027922119e-02,-3.256302573286939395e-01,-1.749612734583792448e-03,-7.659171185709681348e-03,1.040141846566678893e-02,2.637577354907989502e-01
-4.444816010250610128e-02,-5.532329180764311571e-02,-2.899549332816696579e-01,-6.445481781106879131e-03,-2.487411847329086372e-03,1.117845134557303791e-03,2.405594885349273682e-01
-6.342845179809684930e-02,-6.348829108617277950e-02,-2.869955063107461624e-01,-5.092036607436694782e-04,-7.211598405625768704e-05,-6.623319234474662250e-04,2.235418558120727539e-01
-5.938647541120445350e-02,-6.091374846951767841e-02,-2.910156739224270539e-01,1.304351527540964343e-04,1.547921110204168553e-03,-9.219822063627180478e-04,2.308905571699142456e-01
-5.261946529223951452e-02,-5.485920637591359950e-02,-3.091347975091562339e-01,-7.403052696885807984e-03,-5.820375845104626064e-03,6.376749127084387417e-03,2.561613619327545166e-01
-5.053383803033648092e-02,-5.636234451145266666e-02,-2.844610094004902390e-01,-3.796290439898852061e-03,-5.476787746075165511e-03,3.573950562998302709e-03,2.314389497041702271e-01
-6.683036564975355920e-02,-5.399558470916393516e-02,-3.342004033410190811e-01,4.610670548902949875e-03,1.555665285243766280e-02,3.860367614373175910e-02,2.834495306015014648e-01
-7.472885029763146059e-02,-5.516555414753537834e-02,-2.791394984929325140e-01,7.619347350166272119e-03,3.610557152040072548e-02,4.690842794170538288e-02,2.384357005357742310e-01
-5.441358201455475524e-02,-4.524508907310648143e-02,-2.407186348194262360e-01,1.073510156412750549e-02,1.453830025414648390e-02,3.626962937703155643e-02,2.035388052463531494e-01
-6.090985196211108621e-02,-3.947912366751972491e-02,-2.621309694841165161e-01,6.578490886130982165e-03,7.559311694272440952e-04,1.556582587706320389e-03,2.130735665559768677e-01
-5.741861112104110210e-02,-4.799832476556223360e-02,-2.713233883971557514e-01,7.575855832422121079e-03,2.820529130630398864e-03,7.840347777295485904e-03,2.196349203586578369e-01
-5.516275151468945370e-02,-5.643219051552184062e-02,-2.883750399168160117e-01,2.875846002419097519e-03,4.492183204765535544e-03,4.805869916192495941e-03,2.329123765230178833e-01
-5.681587357832485613e-02,-5.776771777787937517e-02,-2.332962795370113751e-01,1.531449085579249941e-02,1.666188675719553966e-02,3.496784082187207043e-02,1.902181953191757202e-01
-6.772245917733921150e-02,-5.940785180964950479e-02,-1.889523692563632729e-01,-5.903146769484146281e-04,-4.080411887734971405e-03,1.650242342343278407e-03,1.258291155099868774e-01
-5.079141408764141497e-02,-5.759006122148205287e-02,-2.902027854974240650e-01,1.043221727311239872e-03,1.402212909584667037e-03,-1.083048711293036707e-03,2.361123412847518921e-01
-5.196127760701116372e-02,-5.126902493223844948e-02,-2.913984639257106712e-01,-1.565718558678628439e-04,-4.447960515484095041e-05,2.196207014411411071e-04,2.397845238447189331e-01
-6.683628499027693959e-02,-3.601236217408108897e-02,-2.825581014419885628e-01,1.455427363813562524e-05,1.456465977336162624e-03,1.186808134697229632e-03,2.326929271221160889e-01
-4.374234951849162445e-02,-5.592180870981289242e-02,-2.867045969284204299e-01,1.358214509675585973e-03,6.195656162944862370e-04,6.264477217546660440e-04,2.371238172054290771e-01
-7.234880964467867159e-02,-6.048803318698740827e-02,-2.967173400210262324e-01,-1.305853033945831004e-03,-1.723054277378858502e-03,3.608431249283756558e-04,2.305591255426406860e-01
-6.921637849345578519e-02,-4.981568962958417279e-02,-3.164552425098742239e-01,4.411180505205228135e-03,6.038064127783530390e-03,4.561123444422321427e-02,2.696459591388702393e-01
-5.964861190859535589e-02,-5.581523856549359952e-02,-2.958096766908685504e-01,4.949785900181503939e-03,2.095293465158443690e-03,1.093488395466253160e-03,2.382903546094894409e-01
-5.611163533191884656e-02,-5.675308925156985485e-02,-2.803203311095969763e-01,4.629849006346242225e-03,-1.171938618530316174e-02,-1.602776146026037296e-02,2.266564369201660156e-01
-5.654096345754222597e-02,-8.199822852467722467e-02,-3.009069992060156573e-01,-3.212191709937027334e-04,1.637717680817052162e-03,-1.087317765604659935e-03,2.327097803354263306e-01
-4.372771755775729102e-02,-6.807439495267156304e-02,-2.060339243136928844e-01,5.405283100995446691e-03,-5.072085541198154135e-02,-2.821335460412657467e-02,1.821480095386505127e-01
-6.268791135919769830e-02,-5.765976152938549759e-02,-2.176395125006104492e-01,1.008768329777798810e-02,-2.942285199409268304e-02,-4.370423640128642817e-02,1.828851550817489624e-01
-6.406165342065210655e-02,-5.624991139464577405e-02,-2.416544224489237946e-01,1.283478511076754751e-02,-1.600911629107119524e-02,-2.316468794419079824e-02,1.893684267997741699e-01
-5.207532523565866489e-02,-5.458825342442495676e-02,-2.783975148575644765e-01,2.672095825888376984e-03,-1.682333521838027743e-02,-1.293711639971127994e-02,2.281050533056259155e-01
-5.606109873334887139e-02,-4.697763412817847206e-02,-2.952785380496851797e-01,-5.880607142267990292e-03,-2.502926024615261371e-04,-5.810032899458137876e-03,2.443064004182815552e-01
-5.879741150689131446e-02,-5.294585235635831943e-02,-2.915291287815690024e-01,-1.636716614359937354e-03,1.536982819232127553e-03,-1.604854117186674603e-03,2.357604503631591797e-01
-5.793751576700786887e-02,-5.356454884742133105e-02,-2.998323326893113649e-01,-3.741368056074009492e-04,-2.712815250509083027e-04,-9.900733421782880427e-04,2.441180199384689331e-01
-5.970548707514064524e-02,-6.839522039138609677e-02,-2.990130906175704761e-01,2.782021770403127550e-03,-8.731252737707216821e-04,-1.935026747668975406e-03,2.351613491773605347e-01
-5.986297555014954974e-02,-6.644502987061115529e-02,-2.947675274451732053e-01,1.147862442482846298e-03,-2.072010179342628419e-03,2.682463833907931371e-03,2.317665517330169678e-01
-5.990641656348805189e-02,-6.320473785104915865e-02,-2.978234012626410632e-01,1.314434051655183995e-03,-2.322764541390339409e-03,-9.882576680255261529e-04,2.363364994525909424e-01
-6.699672454680243028e-02,-4.693067262888968305e-02,-2.431594797773521388e-01,-1.600661367206871865e-03,3.745879655485411961e-04,-2.862991664412549778e-03,1.870923638343811035e-01
-5.962678532829392142e-02,-7.181253112265605087e-02,-2.955234752337540516e-01,-1.372862237086610844e-03,3.727561295063011029e-04,1.531072823158046792e-03,2.300744801759719849e-01
-7.646984499830888904e-02,-5.958764062508468962e-02,-2.932873593801557099e-01,2.675405541050537763e-03,4.577404589941192338e-04,-9.316139305589022594e-04,2.257872968912124634e-01
-5.968859684307650793e-02,-6.022862870499554044e-02,-2.910823872202473739e-01,4.281253561318514511e-04,-1.820472240216579980e-03,1.110503335819435292e-03,2.311549484729766846e-01
-7.024130250223857563e-02,-4.893703815186470352e-02,-2.489078950689968261e-01,-6.464551909157813074e-03,1.555146874169991691e-03,-1.962720518264966796e-03,1.905942410230636597e-01
-5.973227937282704625e-02,-6.070230272970740526e-02,-2.952908385869694730e-01,6.795055292382778294e-04,2.677210067317596122e-03,-5.354620527035298038e-04,2.351255565881729126e-01
-6.476773472794293551e-02,-3.733096650246793546e-02,-2.519662662727071289e-01,3.921231258939647350e-03,-1.300326595485299871e-02,-2.519535748532727298e-02,2.083026468753814697e-01
-6.057337185175420968e-02,-3.775066920011771465e-02,-2.771490702055106614e-01,2.881215981056778255e-03,-3.425526255577856539e-03,-8.206879846704141085e-03,2.294142842292785645e-01
-4.894770029308401216e-02,-6.072056236999975876e-02,-2.908707491635016407e-01,1.040432932584614990e-03,-1.748385632830608315e-03,1.187292935676852353e-03,2.362919449806213379e-01
-6.954287047837447167e-02,-5.235559697004406321e-02,-1.862138635491011884e-01,1.034242696353857016e-02,-7.165317213076308200e-02,4.749405750952480354e-02,1.959675103425979614e-01
-6.158900498106226196e-02,-3.802978807810755701e-02,-2.864877283318418844e-01,-7.834758129011239669e-04,6.092774706809026474e-04,-7.568879100972380342e-03,2.379237860441207886e-01
-7.004504655509541378e-02,-3.706195500764658535e-02,-2.325655091098320359e-01,-3.038993941113534141e-03,1.264199402069079298e-02,-1.886997940137243729e-02,1.855710297822952271e-01
-6.834938869888740332e-02,-5.967658872038061890e-02,-2.960678896446736763e-01,-9.132697647596779212e-05,-2.659801555796825930e-03,-1.733813020673886495e-03,2.322415858507156372e-01
-6.877992300436858164e-02,-4.065317085514942586e-02,-2.815750885926342484e-01,1.439635826090768797e-03,2.584375823065127205e-03,-2.562100233540541214e-02,2.324945032596588135e-01
-5.907889963906122477e-02,-4.127150979817413579e-02,-2.458495761840603366e-01,-3.775344171020046354e-04,2.635478953454048912e-03,-3.502745743070095896e-02,2.054952979087829590e-01
-6.127364167244567228e-02,-6.353525551637750901e-02,-2.946320165158600735e-01,-2.946541049947657993e-04,-1.240424255719932379e-03,-3.390697896056555586e-03,2.323205620050430298e-01
-7.169192533290008607e-02,-5.166592131262914833e-02,-2.563775832602405158e-01,-5.425643816295960473e-03,1.594909779990488687e-03,-2.194864677915246004e-02,1.993728280067443848e-01
-6.110672563651824152e-02,-6.114021137590358590e-02,-2.885108011156948260e-01,2.007086137923263624e-04,1.071461518579985058e-03,2.475281685190551073e-04,2.273955792188644409e-01
-6.037971268475653130e-02,-6.106198978516230724e-02,-2.953688375889669260e-01,4.241060651939930481e-04,1.011660414282057260e-02,-1.880482149735176675e-03,2.353257536888122559e-01
-6.133127186978146184e-02,-6.575220445765017629e-02,-3.122957466858111708e-01,-1.500449648854414696e-03,4.300404751155539646e-05,-9.600672792755933146e-03,2.493521422147750854e-01
-5.764397477029263583e-02,-5.731464019599238902e-02,-2.874225814932197531e-01,-3.371997162986134088e-04,-4.191505202438854842e-04,-4.221261313767693708e-04,2.299464941024780273e-01
-5.520254329245694036e-02,-4.787843671608317531e-02,-2.850025819021715368e-01,-4.838599272173262078e-03,6.819782074283873251e-03,-1.929457205510915624e-02,2.363712936639785767e-01
-4.992595777442636329e-02,-4.923014154430926936e-02,-2.690766354916594993e-01,-8.574557517227802267e-03,9.270274031755006833e-03,-8.587185660577490928e-03,2.210873067378997803e-01
-5.918866792496162155e-02,-4.799238074399980736e-02,-2.729058821114630495e-01,-7.404158730626586235e-03,3.884910185937801280e-03,-1.984418415730333091e-02,2.226754575967788696e-01
-5.065019513623376241e-02,-5.112134591475621381e-02,-2.090118830525676541e-01,-9.553480633090465513e-04,6.475771143092751148e-02,-1.978916177718114885e-02,1.968814134597778320e-01
-5.624092177165049278e-02,-6.206049276874775478e-02,-3.315428660578203512e-01,-5.894581115284586214e-04,4.166588521198128642e-03,-3.625986094948492524e-03,2.726086080074310303e-01
-5.590021148213285274e-02,-5.152982599980254763e-02,-2.875339366804590124e-01,-4.102451436741516230e-03,3.461533951800719114e-03,-5.010891671386203533e-03,2.341951727867126465e-01
-6.205737546957172668e-02,-4.363349885576076059e-02,-2.967429063225452968e-01,-2.247570217744556710e-03,1.095619894772511226e-03,-1.266662294719073621e-02,2.454396933317184448e-01
-5.662881172116208950e-02,-4.271072025387448456e-02,-2.900946948256427627e-01,-5.293064881985298266e-03,1.243069156841965922e-03,-6.225957873442045098e-03,2.411522418260574341e-01
-6.348259856537050161e-02,-3.779182645170200971e-02,-2.689363205400530088e-01,-3.201847085686968658e-03,2.053227102817283684e-03,-5.900156842403869034e-03,2.197665870189666748e-01
-4.570052282044845260e-02,-7.004499603345352987e-02,-2.913472643720673716e-01,-6.004476140565683136e-03,1.850397117806103567e-02,1.716086604337372376e-03,2.368523180484771729e-01
-6.501282073706296516e-02,-7.914823480191449101e-02,-4.743235622178154642e-01,-1.009084645884409000e-02,-2.502675536849556515e-02,1.882821951436378094e-02,4.064447283744812012e-01
-5.826415424059208648e-02,-5.793853522411689105e-02,-2.911218825649020125e-01,-2.805922996384453217e-04,-1.695576815372955423e-03,-3.624815882392378114e-04,2.330405712127685547e-01
-4.199690057751946648e-02,-6.345480423988525409e-02,-2.796753204752587818e-01,-5.400800331358059786e-03,7.915452978411148879e-03,-1.762130022841401286e-03,2.283334732055664062e-01
-4.443262698355483764e-02,-5.884609472708526856e-02,-2.767299108100715888e-01,-4.021231333325256396e-03,8.898284601304359831e-03,-6.526102308165439118e-04,2.260727584362030029e-01
-3.821000135215063542e-02,-5.624845698456479304e-02,-2.446504436643045510e-01,-5.163408492173292112e-03,1.659713345076894997e-02,-1.100820495475143476e-02,2.012190222740173340e-01
-6.349173341084818345e-02,-6.381487857278293763e-02,-2.866590452626603946e-01,-1.780580889498605554e-03,2.105058063082268017e-04,-3.414674748091039422e-05,2.230275422334671021e-01
-5.886212986478561726e-02,-6.251929280410518930e-02,-2.992039323112062332e-01,-3.598190272609833387e-03,6.757714213211044041e-03,-5.865625992942725183e-04,2.389047145843505859e-01
-4.299734677773707492e-02,-5.709385604272862458e-02,-2.619251540851221804e-01,-7.465137274937809660e-03,1.512721837771898586e-02,-9.354752404096895735e-03,2.148445844650268555e-01
-4.426882156168003568e-02,-5.652769025702425454e-02,-2.790460933587646242e-01,-7.626762249201849732e-03,6.733399835568771447e-03,-2.829942602015043072e-03,2.296237945556640625e-01
-7.194002413252925665e-02,-6.027167480219150497e-02,-5.087180542832738794e-01,7.118592572411062101e-03,-1.560803894368481375e-02,5.048510578453265299e-03,4.438096284866333008e-01
-5.077482069018743327e-02,-5.761237466537082186e-02,-2.859398029558308796e-01,-4.534678319753690859e-03,2.836848018506861295e-03,3.471573309616884581e-04,2.320076823234558105e-01
-4.377728604525833733e-02,-5.630158661111059337e-02,-2.866841060974114619e-01,-9.909878488437574677e-04,-5.799519582061054895e-04,1.232342329752952035e-04,2.369015514850616455e-01
-5.191696091677647229e-02,-5.455586987445815161e-02,-2.890123042859822355e-01,-3.905449417605505371e-03,1.747719858414878251e-03,-2.681502445358382655e-03,2.359491139650344849e-01
-6.443960180991184505e-02,-6.086254753164327402e-02,-2.865971598561279921e-01,7.833033592509180271e-04,1.244114346806545878e-04,1.360802398056679564e-04,2.239718437194824219e-01
-4.939811557444721835e-02,-4.985681760886111202e-02,-2.703416542946437962e-01,-8.786244278650365280e-03,6.783565928959062533e-03,-9.664468673504426552e-03,2.221818268299102783e-01
-6.169981350752481997e-02,-6.500425787256601529e-02,-2.873939583071579706e-01,-6.454512975524449338e-04,-6.907679028161497559e-04,1.302070340171439960e-04,2.240663021802902222e-01
-5.667330048683089094e-02,-5.686549901209014823e-02,-2.935698412664814461e-01,-1.820327960188073638e-03,-1.261512318710160266e-03,1.122937658674198584e-03,2.368395477533340454e-01
-4.974897550253926104e-02,-5.140305747843285089e-02,-2.905820744274486556e-01,-4.683226022638209418e-03,7.455431027830249167e-04,-3.221218509584262892e-03,2.402156442403793335e-01
-5.702805986406254968e-02,-5.814856837468979078e-02,-2.933642246659328157e-01,6.471307734424874576e-04,2.306373787345390725e-03,-1.120811143371001472e-03,2.358223944902420044e-01
-6.230670518292802385e-02,-6.501031648317556755e-02,-2.869251312761647577e-01,-7.957556046942395461e-04,-6.503360961403433557e-04,5.302941363159129424e-06,2.232859879732131958e-01
-4.930902641335180303e-02,-5.330137687596744889e-02,-2.932037682667910095e-01,-5.146499241645965950e-03,1.766449039107596082e-04,-1.084875329982233280e-03,2.420949339866638184e-01
-5.892940074258458394e-02,-4.312758358437315809e-02,-2.887891087490674913e-01,-1.284557128612889409e-03,-6.351966729452722957e-04,3.844212193578614573e-03,2.382601052522659302e-01
-6.721413868046739737e-02,-5.808939580078156806e-02,-1.340741104581561205e-01,2.639081878199668954e-03,8.443588532206253161e-03,1.390879646233102000e-02,7.732229679822921753e-02
-5.442691397081381166e-02,-5.144369731157406866e-02,-2.869509860789865030e-01,3.413391661450487259e-03,4.364817748921425745e-03,5.385973704761036485e-03,2.344123423099517822e-01
-5.693895938237730769e-02,-6.007924732575636861e-02,-2.911439003413524018e-01,-4.444455381018967992e-05,3.043252615452383698e-03,-1.021516183507889530e-03,2.327171415090560913e-01
-5.609761442755595295e-02,-5.578305233700041332e-02,-2.905944451635663062e-01,-2.674418251929041018e-03,-8.267788214685520536e-04,-3.091336783351384494e-04,2.347049713134765625e-01
-5.758585246311707928e-02,-5.863603143974671639e-02,-2.901133064677353657e-01,-4.400149080835434282e-06,2.935951350513697289e-04,6.030900479838338397e-04,2.320070564746856689e-01
-4.958416107636193226e-02,-5.291426195309517633e-02,-2.909305384378633175e-01,6.494869816426711295e-04,6.479391871942749375e-05,-3.150123800872622675e-04,2.397019565105438232e-01
-6.037683935790771894e-02,-5.964540214473287860e-02,-3.054030487468962218e-01,1.898154795571689677e-03,-1.483592649784013125e-02,-1.037452701626711410e-02,2.474098056554794312e-01
-5.591523637192831464e-02,-5.410721819762601137e-02,-2.919611513760272392e-01,2.825700257636812058e-03,-2.110114634733278698e-03,-1.659558892507618805e-03,2.370512485504150391e-01
-5.934467596222170460e-02,-4.838899579533093021e-02,-2.940692518358305474e-01,5.744358152796388145e-03,-4.453024067120463572e-03,-5.756199638192274239e-03,2.409255206584930420e-01
-5.877427748778635275e-02,-5.161783259565458359e-02,-2.859511025276826324e-01,4.736982052199859711e-03,-3.250906496692948348e-05,-7.189082677507834408e-04,2.309873849153518677e-01
-6.975754843790449300e-02,-4.444842391288895966e-02,-2.538584606138919453e-01,4.401328241379962383e-03,-6.863973752855727188e-03,-3.637020461480237887e-02,2.082329541444778442e-01
-4.552021810833042914e-02,-5.619898764554337456e-02,-2.895453362881049708e-01,-2.258506851843079984e-03,-1.312511435577219717e-06,2.064212377903342248e-04,2.388971298933029175e-01
-5.655613162282371875e-02,-5.523274885859813521e-02,-2.902915534166007894e-01,-1.290242538490860014e-03,-1.330721834701149766e-03,-6.931806128701771888e-04,2.344249784946441650e-01
-5.092248081259526105e-02,-5.312346291764941109e-02,-2.873866233621733546e-01,-4.069080649202310059e-03,1.593761582935655438e-03,-1.084814470792732841e-03,2.355005443096160889e-01
-3.772203159155732011e-02,-5.980716934321575473e-02,-2.832367542077881550e-01,1.307891711663440463e-03,9.511538903646668064e-04,9.690475175205651463e-04,2.352735996246337891e-01
-6.569547502423114804e-02,-4.730895482313986211e-02,-2.402605495258338664e-01,-7.157465652307248155e-04,-3.630483332058823467e-03,1.241335615274424386e-03,1.845707893371582031e-01
-5.819054029486336876e-02,-5.221681822798290851e-02,-2.890407639629851699e-01,-2.542462439327025387e-03,8.070138693447889526e-04,-5.325636741542587880e-04,2.339417487382888794e-01
-6.318515403019173138e-02,-3.660071418183996617e-02,-2.846999947968929523e-01,-8.660549133731348286e-04,2.224707171400350757e-04,1.176278931575945510e-03,2.359469383955001831e-01
-5.758925672301051790e-02,-4.582795835901828929e-02,-2.843899084201483296e-01,-2.268521617995141078e-03,2.273479547581829831e-03,-4.181729273165416634e-04,2.329716831445693970e-01
-4.452838290944682864e-02,-5.868517751796033244e-02,-2.875296033110764649e-01,-9.441957709824090952e-03,1.806855231081995472e-02,-1.001649111701055292e-02,2.394947856664657593e-01
-6.508138905854478351e-02,-6.059179221284349826e-02,-2.943457908644434573e-01,-4.902552446964974272e-04,-2.080034600745146040e-03,-2.519781169969117357e-03,2.316125482320785522e-01
-3.474656344956295051e-02,-6.349523361821808598e-02,-2.803825222442769549e-01,-5.174285400758467900e-04,2.680676292247700758e-03,2.611796241620590068e-04,2.326464504003524780e-01
-5.655807102472176773e-02,-4.343368759444379834e-02,-2.794946826513204918e-01,-4.573978288939559156e-03,7.954290151458468742e-04,-4.416116219875890377e-03,2.300479412078857422e-01
-5.350284081976125483e-02,-5.380914809713852054e-02,-2.863731775957560899e-01,-4.833600655420574113e-03,6.490610212162324123e-03,-2.323737211433971224e-03,2.331738173961639404e-01
-5.175763131443446297e-02,-5.239266947247747663e-02,-2.861854650101947062e-01,-9.027022681086632402e-03,5.655492865979352274e-03,-8.779842905383049290e-03,2.353287339210510254e-01
-5.235446345435125493e-02,-5.397967953255888851e-02,-2.918183416141765241e-01,-4.816688189827648825e-06,-6.056435419557639052e-05,-7.774364504395598393e-04,2.386592477560043335e-01
-4.414851669247588095e-02,-6.364108122329031891e-02,-2.904823066485707761e-01,5.893488163991007301e-04,4.970930394038522437e-03,-1.511615351631738491e-03,2.373618483543395996e-01
-6.099522696994746918e-02,-6.116634668334361424e-02,-2.882561159052478006e-01,-2.831027461745701853e-04,3.973692019481396987e-05,-4.301603109841095726e-04,2.271771430969238281e-01
-6.234099877401907963e-02,-6.111664785392589838e-02,-2.987428334840904753e-01,-9.426406887061573306e-04,-1.067252921330385552e-03,-2.918614324086180566e-03,2.370831072330474854e-01
-4.787690551108840509e-02,-5.139954012117053939e-02,-2.840742060337855257e-01,-5.748225793918413686e-03,2.284519578229224693e-04,-3.493218388881661656e-04,2.346682399511337280e-01
-5.991826243163214660e-02,-4.651687726549133539e-02,-2.388182848280627213e-01,-7.157675711033311718e-03,-7.836847194949243464e-04,1.443535810919713887e-03,1.863977313041687012e-01
-6.185732054660769696e-02,-6.481899277960716244e-02,-2.928655227924359394e-01,-2.548474641210109540e-03,1.356569411916981388e-03,1.070950961559099038e-03,2.296036481857299805e-01
-5.841225744612880966e-02,-5.522305986135753186e-02,-2.975445240089958920e-01,1.774013173506581997e-03,1.837223736598432339e-04,-1.641741035218796576e-04,2.407626956701278687e-01
-6.003467247586394273e-02,-5.813749379017249530e-02,-2.920948673998536305e-01,1.276736970452702676e-04,2.447172563048169783e-03,2.079949680150042397e-03,2.330810725688934326e-01
-3.909406166360698820e-02,-6.122810493050118152e-02,-2.864548109034721346e-01,-1.314202149086657724e-03,4.608652081399891034e-04,-5.231235873037738768e-04,2.370839565992355347e-01
-3.813672651814373205e-02,-6.030396755356146055e-02,-2.862077269216208864e-01,-2.304551970127522321e-03,-3.387850130854362044e-03,1.024876743205887977e-03,2.378761768341064453e-01
-6.276917100506698710e-02,-6.858320420775684823e-02,-3.179090022975766816e-01,-2.502828237525817935e-03,-7.075820943233024699e-03,1.903653166078142934e-03,2.526392936706542969e-01
-5.857861649461576503e-02,-6.094728605177712755e-02,-2.917855374034028504e-01,-2.107800947377045904e-04,-1.734278817131039820e-03,-1.336098832227211597e-03,2.320629209280014038e-01
-5.612891017879391431e-02,-7.414549210975460158e-02,-3.064901468766320081e-01,1.526801484341229172e-03,-2.804999440222761276e-05,1.033092440931260465e-03,2.418778389692306519e-01
-5.702328346571475248e-02,-5.865219016346093217e-02,-2.911834840809807701e-01,-3.469503503067266096e-04,-1.091225189916214186e-03,1.998928247537997555e-03,2.333841174840927124e-01
-5.799681376536761079e-02,-7.898340438439990785e-02,-3.071966143557703366e-01,-8.008075174513484308e-04,-2.234701450176210507e-03,-2.525532563973132555e-03,2.394726723432540894e-01
-6.098243702145877965e-02,-3.764451092306048130e-02,-2.761402035071119920e-01,-2.666998599640479917e-03,-9.487474749395242339e-04,2.090793178538750269e-03,2.278069704771041870e-01
-5.747804475711629224e-02,-8.001015393299784617e-02,-3.083574424428241478e-01,1.382930704010635259e-03,4.792661130833117595e-04,-3.364218914084722394e-03,2.404905557632446289e-01
-5.799310316282593747e-02,-7.023379996979953188e-02,-2.994575641815097056e-01,1.500693354808472092e-03,-1.409042148072687465e-03,-1.958364871536044975e-04,2.356099635362625122e-01
-5.837135488286845919e-02,-7.802033290846956126e-02,-2.998813664440739268e-01,2.060335671675016331e-03,1.218284830952401539e-03,-3.428276661955278852e-03,2.324224412441253662e-01
-5.586380383331353283e-02,-5.814925710289857441e-02,-2.902539670582301445e-01,-4.383409873053078836e-04,3.546865038702882653e-05,-1.508698587721689181e-04,2.332572191953659058e-01
-5.489996770554061989e-02,-7.068220395342197926e-02,-2.944989841955675258e-01,-2.301291844983947843e-03,-4.165509044880907549e-03,4.033452095839650323e-03,2.323620170354843140e-01
-7.127517547731906933e-02,-7.840814128710234254e-02,-1.855533318441631163e-01,-2.634313489850267009e-04,1.349962157582374270e-02,-3.726477496695887286e-03,1.135069206357002258e-01
-6.275298504365643681e-02,-7.556814635391871648e-02,-2.157339228219531946e-01,-5.614219298336164087e-03,1.807977490607776952e-03,-1.290667354836097513e-02,1.490336656570434570e-01
-4.638408267752447411e-02,-5.971443086052530269e-02,-2.889151815676818114e-01,-9.146085526771687013e-03,-1.309028788473555818e-02,4.523856822618643053e-03,2.378916144371032715e-01
-3.813986103916335024e-02,-6.184711400074876381e-02,-2.463965774808684339e-01,2.361956033480449441e-03,-2.247441579544285847e-02,-3.627967300475680099e-03,2.014130651950836182e-01
-4.951664651102172243e-02,-7.624884044737711974e-02,-2.639291143135883977e-01,-5.058632069600469024e-03,-4.411693586499134540e-02,-2.263669393509836966e-03,2.165332585573196411e-01
-5.079228042740813187e-02,-5.747723673134655376e-02,-2.903023967701328090e-01,1.059839808701242827e-03,1.387246001522228055e-03,-1.079091384355128358e-03,2.362653315067291260e-01
-3.875171983017172694e-02,-6.847641293223551140e-02,-2.420287369205046668e-01,-2.000282148244765025e-04,-2.465509504724375245e-02,-4.441012735248996493e-03,1.950529813766479492e-01
-5.548553834293208642e-02,-5.405283769560197127e-02,-2.897116942100285697e-01,-5.650368577627652104e-04,-1.028056149657141915e-04,3.419423286072360672e-04,2.349486351013183594e-01
-4.266601372708811457e-02,-5.785349041739235032e-02,-1.622189529518417717e-01,-1.078887447967122153e-02,-3.644956743830284757e-02,1.353573557141402040e-02,1.326364129781723022e-01
-5.522987080822369665e-02,-5.424088118968017902e-02,-2.892140023634018342e-01,-1.691250325796029197e-04,-1.418876627169282287e-04,-1.229823243699853163e-03,2.344901710748672485e-01
-4.259904453335616736e-02,-6.576719051118488923e-02,-2.751682311751244558e-01,-4.571468702558883004e-03,-1.058667223958264375e-02,6.620181848922056071e-04,2.227941602468490601e-01
-5.308904585062866610e-02,-6.306454280811982227e-02,-2.986499351079731079e-01,-5.470100290010783926e-03,-7.892571727236409249e-03,3.512615847307475232e-03,2.413788139820098877e-01
-5.975011863741401530e-02,-5.116436023768047847e-02,-2.835591417805259917e-01,5.232659401430209134e-03,1.376929467429343322e-03,4.041998347425882973e-03,2.285226583480834961e-01
-4.702143653710147420e-02,-5.277507809208673017e-02,-2.895799000629319941e-01,5.400284619486802988e-03,2.028149942088271901e-03,2.555918951063074554e-03,2.399823814630508423e-01
-7.439275162402270158e-02,-7.451516074579370152e-02,-1.459573891439455151e-01,-1.186107629060506640e-03,2.242307010049226883e-03,-6.556909062526618086e-03,7.253299653530120850e-02
-5.768768952159650243e-02,-5.860597128238084763e-02,-2.908823150653985223e-01,5.028595970557134948e-04,-9.789236685182253750e-05,-9.662630633893328196e-04,2.327445596456527710e-01
-7.306036281084035688e-02,-6.367962604920060499e-02,-3.066036859056622821e-01,-7.966577458549665980e-03,-2.725216170177964525e-03,-2.097716075638206973e-03,2.388454973697662354e-01
-6.122452768698285336e-02,-4.598863274135077395e-02,-2.069391139529590529e-01,9.848750814536257753e-03,5.699709074401560285e-03,1.069321262132037417e-02,1.562576442956924438e-01
-5.632987905602307444e-02,-5.503304031855200951e-02,-2.909716953306639153e-01,5.176941748650557788e-04,-1.405215967016315137e-03,-4.100623979337094131e-04,2.353082895278930664e-01
-5.285869314675423203e-02,-5.555664076750015112e-02,-2.673450387620533442e-01,1.050125719152500935e-02,1.051068215796514133e-02,6.007494404673800054e-03,2.149500399827957153e-01
-5.019430941858141204e-02,-6.446419783683882132e-02,-2.610561192753593218e-01,-8.895843132062260933e-03,-9.510917838183032772e-04,6.615583790350236613e-04,2.046919465065002441e-01
-5.771240142356293124e-02,-3.982974429655722348e-02,-2.827750594619871105e-01,6.055321625994627456e-03,1.983617042305917035e-03,3.952798886216814765e-03,2.348752617835998535e-01
-4.659943200786301198e-02,-5.905209419631750334e-02,-2.571381563755571475e-01,1.019208117166577748e-02,9.663789579718999254e-03,1.308114043854840397e-02,2.072800248861312866e-01
-4.945887136064938683e-02,-5.808233967003292864e-02,-2.891829102405368834e-01,3.136209407226874663e-03,2.328605582749557028e-03,-8.650066945955815507e-04,2.356326431035995483e-01
-5.101790756702231922e-02,-4.815438211732499252e-02,-2.882822664663537982e-01,2.836448801404214785e-03,-1.205406790390991140e-04,8.797874410960463375e-04,2.387645095586776733e-01
-6.175142441539352434e-02,-6.893264516099142925e-02,-3.253641084714283815e-01,-2.078338735595161493e-03,-3.731446069556502293e-03,-2.595489563077600908e-03,2.602404654026031494e-01
-4.714473568230122258e-02,-5.896844561637616666e-02,-2.905693171971997502e-01,-9.341482209902213360e-04,3.054602387400429456e-03,1.273160132007046530e-03,2.378079444169998169e-01
-6.646148328477971545e-02,-6.504804120253721011e-02,-2.885722002067452330e-01,-3.383616969407878504e-03,2.863836512761623121e-04,2.076743543134853208e-04,2.228987067937850952e-01
-5.832838847196913923e-02,-6.617278446368694833e-02,-3.206229621657133988e-01,-6.809366589557061013e-03,2.641786588923398030e-03,-1.856506931512736150e-04,2.587713003158569336e-01
-5.859307921556419774e-02,-5.588538335514538213e-02,-2.870649863861165496e-01,4.933234991727133024e-04,-4.060890761452537793e-04,7.421124169458657039e-04,2.298439741134643555e-01
-5.730758895568305311e-02,-5.957219195642771137e-02,-2.914934905576060942e-01,-2.203745480396504704e-03,5.023359305658839195e-03,-3.597790997946874892e-03,2.333386689424514771e-01
-6.063680764616213859e-02,-5.432946218061962540e-02,-2.928830008387484085e-01,1.852583397665768248e-03,1.944992263675270191e-03,-1.699224371809000952e-03,2.355275750160217285e-01
-6.051749889671173555e-02,-6.007748297927598125e-02,-2.985533279254884431e-01,-1.441694747985985579e-04,-7.054449790449671825e-03,-8.279960054902345962e-03,2.390000373125076294e-01
-6.088062510675296135e-02,-5.810458840250411205e-02,-2.963394734674817954e-01,5.203176324851209629e-03,-1.561042180684879196e-02,-2.410794134527799448e-02,2.421942800283432007e-01
-5.379660484581089142e-02,-5.309113547257265919e-02,-2.891250711331126988e-01,-1.872910362807426446e-03,-4.759365463072572902e-04,7.512072875071742562e-04,2.357093542814254761e-01
-5.549520401225960242e-02,-5.674842538678774584e-02,-2.933995673542649230e-01,8.718260616254053241e-04,5.198510449659882182e-03,1.219110517364785509e-04,2.374559044837951660e-01
-6.551939741881002144e-02,-3.970976807034572176e-02,-2.706474259925695236e-01,-4.870117366055522028e-03,1.117235214261227960e-03,-9.857254469960229776e-03,2.200098186731338501e-01
-4.455593850771139008e-02,-5.294003630431087792e-02,-2.829201595268252545e-01,-4.649810695109429098e-03,-3.787125946360785436e-03,1.948333519172855107e-03,2.345391362905502319e-01
-5.762648940575211542e-02,-5.821093146849894151e-02,-2.892191522491395772e-01,7.046379081340017642e-05,1.007492340946324148e-03,-9.560108510934097002e-04,2.313135415315628052e-01
-5.314908876437798857e-02,-5.801741769051792230e-02,-2.936859484093207184e-01,-2.518854728862707226e-03,-8.299563919548284124e-03,-1.310880872984375271e-03,2.386242002248764038e-01
-5.823273547398685746e-02,-5.892285300768651535e-02,-2.896613782899418732e-01,-1.273685362009195719e-03,-5.024537610588766540e-04,-1.248440454055148698e-03,2.311066389083862305e-01
-4.141573886864656495e-02,-5.745027007710889339e-02,-2.533487597422348081e-01,-4.263307412823835914e-03,-3.099061568129797897e-02,9.730900026940624004e-03,2.121186405420303345e-01
-7.383193778952369668e-02,-6.838061657584140751e-02,-1.689475492654318733e-01,4.805277988137221512e-03,7.259610993120071964e-03,1.064849720292032967e-02,1.008104756474494934e-01
-5.528763074565735958e-02,-5.507098292609392820e-02,-2.889092142789559947e-01,-1.190415135374208811e-03,1.608082834654184245e-04,-1.562059167365674028e-03,2.337549030780792236e-01
-8.173637800832958544e-02,-5.499031158271328046e-02,-2.352886339076111777e-01,-2.747828725011082756e-03,-9.513306974415960959e-02,-3.357438615667826531e-02,2.428082376718521118e-01
-7.406023417458176827e-02,-5.482018139263659939e-02,-3.031555944441622907e-01,-5.888799122471206904e-03,2.590627253723048508e-03,2.588810849970096459e-03,2.395974695682525635e-01
-7.344312518771667353e-02,-6.749126919604092611e-02,-1.860197342505381934e-01,6.559582363168026033e-04,-1.355589844236316632e-03,1.215661437736580142e-02,1.175972372293472290e-01
-7.287138202371634677e-02,-7.448257173162808886e-02,-1.854874405038716700e-01,2.634639266357699169e-03,8.511876856283989712e-03,1.163127691685665686e-03,1.128971427679061890e-01
-7.293384825024527840e-02,-7.781368139594710409e-02,-1.641336731732075394e-01,-1.845958546022633331e-03,8.241723863657770958e-05,8.387370032433831991e-04,8.892994374036788940e-02
-7.489294002295091013e-02,-7.604771653535749576e-02,-1.608753074153152496e-01,-1.732809071632428481e-05,4.456910216016480436e-03,1.233842467384774037e-02,8.838164061307907104e-02
-7.551902846381500223e-02,-7.518084297544043448e-02,-1.444412164937859677e-01,-7.046203434150133177e-04,6.169531080778748941e-03,1.175600759930682786e-03,6.995366513729095459e-02
-5.263106006448917129e-02,-4.773617478833860894e-02,-2.883507343365032671e-01,-4.766114201560912172e-03,8.296055523755090175e-04,-5.048724566121811849e-04,2.383537739515304565e-01
-5.151062277132897882e-02,-6.323612957650465161e-02,-2.573164857030469377e-01,-8.690487260650411189e-03,1.538185673948125679e-03,-2.347546589729317731e-04,2.007839679718017578e-01
-5.809044329760726377e-02,-5.832676952281984351e-02,-2.898772544577601362e-01,2.438081136246957127e-05,-1.258166793891819703e-03,-1.124574775738369520e-03,2.316871732473373413e-01
-5.221347759758711293e-02,-5.881773940628762243e-02,-3.848437440476587534e-01,4.884639294119652760e-03,-1.325904663869159096e-02,-1.734163090574616928e-02,3.316487967967987061e-01
-7.341360378902604678e-02,-6.844121777403838758e-02,-1.897551578612253764e-01,3.445008410595177921e-03,-4.586705651711045321e-03,-1.981262384894012449e-02,1.241568177938461304e-01
-5.839877547499168486e-02,-8.242512199848311960e-02,-3.491804371053692790e-01,2.734848646779802035e-04,9.164159245890618477e-03,4.764969518599872222e-03,2.801162302494049072e-01
-5.983267034735187395e-02,-5.747304533935772286e-02,-2.931774568481836374e-01,-1.456073417539647716e-04,3.534056168069667171e-04,7.367087772111129401e-04,2.345379143953323364e-01
-5.586296816181911262e-02,-5.461486910264568007e-02,-2.681562773750060802e-01,1.038993328144932962e-02,-5.358601447570739314e-03,-1.040718541387515919e-02,2.146389931440353394e-01
-6.386286976960808826e-02,-5.561184952650458091e-02,-2.516897401432944270e-01,7.454991126025661483e-03,-8.100688789882336607e-03,-1.154232512430383890e-02,1.940619647502899170e-01
-6.226737071067264817e-02,-3.731299454073239152e-02,-2.023067665606802512e-01,-4.411816941487314153e-03,2.505155773572424228e-03,-3.736466533345820379e-02,1.673138439655303955e-01
-5.990047782449310632e-02,-5.575656137355794462e-02,-2.963317493374398870e-01,9.603940537836933673e-04,-1.768354092112575139e-03,-6.020938579669188502e-03,2.387835234403610229e-01
-5.978452907441430403e-02,-4.038119130386233491e-02,-2.454726970612470527e-01,-2.079394347769121694e-03,-4.323227153684762198e-04,-2.633714702566831989e-02,2.013802975416183472e-01
-4.500482621476750711e-02,-5.050641727513066614e-02,-2.901846029554607798e-01,2.863985065530337982e-03,5.712267491636149148e-04,-4.864011348035120289e-05,2.425285577774047852e-01
-7.073000241118479470e-02,-3.839852558065620647e-02,-2.717272291112029503e-01,2.023533509817342091e-03,-8.055852016063981807e-04,2.163226353181349915e-03,2.190251499414443970e-01
-5.814978103255119546e-02,-4.313381347452513448e-02,-2.868989841986510081e-01,4.098547743884764678e-03,3.902804610140650412e-04,1.944921381534084554e-03,2.367462068796157837e-01
-4.915947411129766020e-02,-4.196759915980942390e-02,-2.471256768165587259e-01,1.013635428263333534e-02,-2.618973177651091194e-02,-2.401071120729319705e-02,2.115693092346191406e-01
-5.008618370256502639e-02,-6.386669409521450458e-02,-2.183009846416026078e-01,-5.931394838916517406e-03,-1.951665042040597042e-02,7.422727802569932878e-03,1.660770028829574585e-01
-7.024059956779082903e-02,-6.920926666674856453e-02,-2.101718854441594619e-01,8.171842112637783123e-03,-1.743809996689511116e-02,-1.909343415460610510e-02,1.480959802865982056e-01
-6.356743849075646713e-02,-3.721825088055508157e-02,-2.842385144775585459e-01,1.168158791022064127e-03,6.907082888956230828e-04,1.055751117963753304e-03,2.349752634763717651e-01
-3.989929128014012283e-02,-6.320225162693331178e-02,-1.943980141897363734e-01,7.315709412046388430e-03,4.549470220466964032e-02,1.140463546303470757e-02,1.660501956939697266e-01
-4.907754199543634677e-02,-5.731094760810670485e-02,-2.732039324594717211e-01,7.637538788394965771e-03,1.565770762123103090e-03,2.292116129834711091e-04,2.205393612384796143e-01
-4.653379663709722447e-02,-6.431079478437175256e-02,-2.793152423592550893e-01,1.135969497833315411e-02,2.418309546410554386e-02,1.447244689223936218e-02,2.305103391408920288e-01
-6.154197757687414339e-02,-5.905257127427884778e-02,-3.243271102281968243e-01,1.389658217623828459e-03,3.894054289861839657e-02,1.814704581310081291e-02,2.743341624736785889e-01
-5.706007832381923550e-02,-5.679707913127713531e-02,-2.195401165961714252e-01,8.907313056048546049e-03,3.082386702095816361e-02,1.961083932438222738e-02,1.751704066991806030e-01
-6.447126125132827956e-02,-3.887237876481522414e-02,-2.747703447781163488e-01,-3.911210344861247232e-03,9.661674237753932297e-05,6.057011930338648733e-04,2.243021428585052490e-01
-4.189003138306640617e-02,-5.649621387595087085e-02,-2.839738167162135785e-01,4.986261302436158227e-03,5.786636426444011563e-03,1.642423086799939475e-03,2.355103343725204468e-01
-4.833299049699733840e-02,-5.231871469498283744e-02,-2.917159475936101920e-01,8.457752276244606205e-04,1.615732084959539065e-04,-2.544405811508943720e-04,2.414197772741317749e-01
-4.764072376606487413e-02,-5.851897040896236746e-02,-2.851551054081271075e-01,7.231883521629694882e-03,5.656119597366367560e-03,1.557191883106594666e-03,2.328257411718368530e-01
-6.503613683820987090e-02,-6.572190399578231590e-02,-2.884826056268134375e-01,-3.276353451400656949e-03,-7.922897584704042704e-04,-7.323516235982527973e-04,2.231843620538711548e-01
-3.630483744189397233e-02,-6.444145346617685677e-02,-2.865055061695185312e-01,4.871650675651852873e-04,3.245152330857887808e-03,-1.053016837982202226e-03,2.374613136053085327e-01
-7.078648798181219615e-02,-6.576920972183653014e-02,-3.208808924758358438e-01,-9.296476945821944768e-03,-5.647003917516704372e-03,1.101750675869396474e-04,2.533419728279113770e-01
-3.887404954941747759e-02,-5.959577572632462905e-02,-2.874068552243550512e-01,-6.547435882642730709e-04,2.222012023793431840e-03,2.097871047495489217e-04,2.388810366392135620e-01
-5.679924043361586627e-02,-5.595178860560445777e-02,-2.937033911148497767e-01,2.700570916935981364e-03,-1.086407435299857122e-04,1.771488654974099795e-03,2.373950034379959106e-01
-5.846579093615673905e-02,-5.922154537990978462e-02,-3.144315209071229522e-01,1.486601654346915349e-03,3.589542111475785453e-03,8.409627430477406573e-03,2.560918331146240234e-01
-3.390336897143654549e-02,-6.385784044293073280e-02,-2.834172424311631189e-01,-6.035675470760386080e-04,1.965896801051396185e-03,1.785189979051471473e-04,2.359940111637115479e-01
-5.986780271580702251e-02,-5.739519950642457680e-02,-2.891109664939489621e-01,4.545172179971789417e-04,-1.619859989925068753e-03,-9.720414531237866335e-04,2.305139750242233276e-01
-5.950914587648506449e-02,-5.735648541730228867e-02,-2.993416810089944424e-01,2.535708600601810705e-03,-3.635885192754330017e-03,2.066409271230197110e-03,2.410649657249450684e-01
-6.302791088033177225e-02,-6.574227577961046232e-02,-3.413950805487324658e-01,1.233056235155924416e-03,1.780723232783079169e-03,1.032741464774387160e-03,2.770511507987976074e-01
-5.697244142791318966e-02,-4.530931848002131557e-02,-2.886900681977213612e-01,-8.919448455066693272e-04,-3.596506788768408230e-06,-4.630088245534777925e-04,2.377701997756958008e-01
-6.084662980889291028e-02,-7.641561115380586522e-02,-2.980080571878479523e-01,-6.805548391876946497e-03,-2.898435725116722079e-04,1.971260276779084747e-03,2.301009148359298706e-01
-6.545656990974037248e-02,-5.486747146117855467e-02,-3.268073596746843834e-01,4.981209636613364786e-03,6.856176954676537760e-03,3.061041052166593029e-02,2.724156379699707031e-01
-6.425489696794967065e-02,-4.974000918137305716e-02,-2.897249481657485637e-01,3.898787766624847717e-03,3.230727159908432927e-03,2.858015153050733059e-02,2.384271174669265747e-01
-6.122583979201215443e-02,-4.982025173554022190e-02,-2.765579398873745376e-01,1.667003425046214606e-03,6.692734547185729549e-03,1.388049124329301422e-02,2.228782325983047485e-01
-5.205535776173891849e-02,-5.082762371646171173e-02,-2.829901850454467072e-01,1.030595876194620279e-02,1.164400331608814003e-02,8.028823599635272895e-03,2.335266619920730591e-01
-5.991700426534388169e-02,-5.439944157725311313e-02,-2.926671520186428510e-01,4.122710121481923395e-03,6.619502900075051148e-03,7.781086798910269095e-03,2.363289445638656616e-01
-5.876108714595978944e-02,-4.856455978051570088e-02,-2.565863262145552937e-01,9.714451947492798445e-03,1.572176656729367891e-02,2.475285079322163406e-02,2.100444436073303223e-01
-5.932322572688961126e-02,-4.863905127070897172e-02,-2.765420163840526246e-01,6.907594218426926259e-03,1.879778473479402912e-02,1.629158519647545822e-02,2.271968722343444824e-01
-5.231575533634019726e-02,-5.390604119956908524e-02,-2.918718413191889183e-01,-8.331845252242119386e-04,-1.711680546591341914e-05,-3.802047520828069280e-04,2.387701869010925293e-01
-5.504646506669522155e-02,-5.865554470898912132e-02,-2.917811366460087430e-01,9.870555855366089197e-04,-1.661203553108119403e-03,-1.507201993274332038e-03,2.349892556667327881e-01
-5.759163473068547312e-02,-5.207072051635849852e-02,-2.874994621213220469e-01,3.815932805084759887e-03,-1.089031050774377394e-03,8.687285328268204605e-04,2.328237444162368774e-01
-5.567103654671665125e-02,-5.379072825887915021e-02,-2.850967858630953922e-01,1.110385471694760526e-02,1.137408463208108497e-02,4.023837542873900941e-02,2.422529160976409912e-01
-3.685645626349998150e-02,-6.059723777324499405e-02,-2.827754427290829486e-01,-1.015953767888666277e-03,-7.278246806856952713e-04,1.162574560409844167e-04,2.349599748849868774e-01
-5.418548797202224487e-02,-5.515264789146009927e-02,-2.790220242435534903e-01,7.421833332527317389e-03,2.485086805454712194e-02,1.575058114196484227e-02,2.304281741380691528e-01
-4.839682144965772037e-02,-5.293950261392763035e-02,-2.893534221929983108e-01,-1.154222028815512363e-03,2.353544404404393114e-04,1.056268437741939015e-03,2.387334108352661133e-01
-6.868089125260191941e-02,-6.348705738711751811e-02,-2.216615257289344387e-01,9.727881324307775801e-03,1.142396637747044967e-02,3.183220760530067195e-02,1.671523004770278931e-01
-8.116558808047007190e-02,-4.913196525074510490e-02,-3.233980311426932763e-01,-4.814614551445169088e-03,3.742502331182002810e-03,2.828876022137771784e-03,2.599958777427673340e-01
-7.675358217835223651e-02,-8.878672548669784559e-02,-3.133406956570119473e-01,2.556537686949384314e-03,3.748684282563270048e-02,-1.196614421065072403e-01,3.169595301151275635e-01
-7.123464660480649524e-02,-5.197856120065652563e-02,-2.361567177323805611e-01,8.306658278320392524e-03,2.293733424360862479e-03,1.827908739850230696e-02,1.788043677806854248e-01
-4.500516961975269126e-02,-5.531890051673589437e-02,-2.396904156385711027e-01,1.131730081050828438e-02,4.121845406911026077e-02,2.541482149677184652e-02,2.083738297224044800e-01
-6.196495101163776442e-02,-3.830223049340283903e-02,-2.868484798653717638e-01,-1.701624476251276368e-03,5.389662445603091677e-04,-2.197474193967051230e-03,2.376508563756942749e-01
-5.774798969552354111e-02,-7.614929414500516691e-02,-2.961332647830224318e-01,2.884914038536376055e-03,-1.514721374105217414e-03,7.271257749502384356e-04,2.298107594251632690e-01
-4.342500800560419871e-02,-5.991634946278578955e-02,-2.880414770113535750e-01,7.480247111213779269e-03,1.481979433174851479e-02,7.088513951032092766e-03,2.388568818569183350e-01
-7.282063902776875208e-02,-5.996245261087305989e-02,-3.337235417311545382e-01,8.997790528338594314e-04,2.468430571322666016e-03,6.755539171769625942e-04,2.676050662994384766e-01
-6.229551178468967221e-02,-7.203209408448804640e-02,-3.026524411591278163e-01,5.690437159168575468e-03,-6.441425891550444337e-03,2.350197222436078287e-03,2.361444234848022461e-01
-7.817340807802296287e-02,-6.242404775866107480e-02,-3.201111469058272041e-01,5.930258760608535240e-03,-1.090100770546181672e-04,1.855782795810044972e-04,2.503955364227294922e-01
-8.095242119706849704e-02,-5.619830752548123087e-02,-3.202192651433959369e-01,8.294706047918733866e-03,1.504729325414863681e-03,-3.876194300918502534e-05,2.529771327972412109e-01
-5.224960292599445388e-02,-5.867723799484986236e-02,-2.864402601460968034e-01,1.682840347092447132e-03,9.263515441628903530e-03,-2.191858394281704595e-03,2.316498011350631714e-01
-7.874029972221195661e-02,-5.412505194929299879e-02,-3.020066182273241084e-01,2.504983874239328188e-03,-5.214905848775317973e-03,6.725380836464299288e-03,2.370350509881973267e-01
-7.566751019809013490e-02,-5.930171281782903314e-02,-2.976502664625434447e-01,3.736125419865531094e-03,4.927519814246537379e-03,-7.241123618083047334e-04,2.308536320924758911e-01
-6.114290250357068413e-02,-7.485682977961016782e-02,-3.052690271294615787e-01,7.559826110449963804e-03,-6.661995903170497141e-04,-2.570385648529294621e-03,2.379712462425231934e-01
-5.225547840016434020e-02,-5.741983321180993416e-02,-2.899401100484642058e-01,2.916949039974769432e-03,3.548085806577233690e-03,-5.803468297485320660e-04,2.352816760540008545e-01
-5.494252767728216580e-02,-4.975155328567659740e-02,-2.895695377001008541e-01,-1.029561177363659367e-02,4.217676676439513841e-03,-1.607146275526633028e-02,2.396684437990188599e-01
-6.265539936585508285e-02,-6.306247551749467883e-02,-2.996476234822387230e-01,2.258060642094891247e-03,2.099369560284216826e-03,-4.305411901232061508e-03,2.369665205478668213e-01
-6.036155386107605603e-02,-6.854755908152909694e-02,-3.051451549375848726e-01,2.230815431080396781e-03,9.207355667957406583e-04,-2.430524107983196049e-03,2.408680468797683716e-01
-6.229393036729721778e-02,-6.247185958887546686e-02,-3.007584171485164770e-01,3.132034453947518584e-03,4.861361542367688762e-03,-3.334600697764943111e-03,2.386558204889297485e-01
-5.325365741397369845e-02,-5.536403421109017953e-02,-2.873186010605669471e-01,-7.986582153789261590e-03,6.538163068031067372e-03,-5.792598682402216696e-03,2.339169681072235107e-01
-6.135825822984412869e-02,-4.120637441544122703e-02,-2.887638398502694881e-01,-1.241534406571491401e-03,-6.279551979674286109e-04,-1.794069606122643528e-03,2.381543815135955811e-01
-5.742089586657023181e-02,-5.790081760444566739e-02,-2.894483249136027281e-01,-2.578131813238228928e-04,8.797891411549270098e-04,-1.503015961203186830e-03,2.318079024553298950e-01
-7.073206370892959338e-02,-5.672080904950537600e-02,-2.263239123743512327e-01,4.620459944187393572e-03,-2.145011174023629327e-03,-8.866121964231015590e-03,1.640086919069290161e-01
-5.234545564920050492e-02,-4.553086737973145726e-02,-2.446728058239120707e-01,-1.060706074455979205e-02,1.476108873668852822e-02,-1.061538326310162809e-02,1.991886943578720093e-01
-6.135391018544414377e-02,-5.891670321986772207e-02,-2.954997855836367648e-01,-8.886785460585555282e-04,-4.591605904022109545e-05,1.556272154082177827e-03,2.353944182395935059e-01
-4.075840431596861047e-02,-5.865270246984199964e-02,-2.862817473159539050e-01,-3.948664936638777989e-03,6.107756531616337532e-04,-6.357612734938446371e-04,2.371867597103118896e-01
-6.110110489294443004e-02,-6.278508846208906424e-02,-2.881903904319443877e-01,3.701168399407591216e-04,-7.776695238035333550e-04,1.932860021432908945e-04,2.262571603059768677e-01
-6.157639752802750166e-02,-6.275487894471094841e-02,-2.883483680924311399e-01,7.188389858704695348e-04,-3.102534403865363460e-04,6.102140889707805948e-04,2.261915653944015503e-01
-5.378861722018696279e-02,-5.355059663312537743e-02,-2.723026155843906171e-01,7.380228295330113625e-03,1.623396192923696156e-04,5.134864057628984969e-04,2.190084606409072876e-01
-5.103816645257706897e-02,-5.834124183812186559e-02,-3.041570332893717699e-01,-9.509510529295960024e-03,1.462563401081324460e-02,-1.212403048005140926e-02,2.522458136081695557e-01
-5.748099280934951261e-02,-6.438487093377545656e-02,-2.984015450898807043e-01,-3.816306824883622991e-03,6.575157585643492779e-03,-5.247724996063353811e-03,2.380821257829666138e-01
-6.384298872484245324e-02,-5.796265438557482441e-02,-2.927416865106319821e-01,1.606412737164955774e-05,6.757026541841897049e-04,-3.789872284663349977e-04,2.318986654281616211e-01
-3.556489764653589236e-02,-6.428062749102381179e-02,-2.837819851717682806e-01,3.728189171695352731e-04,6.147897250748341836e-04,-2.516524369763845971e-04,2.351814657449722290e-01
-6.064600579403550684e-02,-5.463430882976634539e-02,-3.208868156926431014e-01,-5.429087633929394197e-03,2.133843626312773370e-02,-2.508481831794096353e-02,2.695701420307159424e-01
-4.558668352894751363e-02,-6.702498081238864036e-02,-2.818213799159402511e-01,-8.240076608639630706e-03,6.601036579635547255e-03,-3.701103172969652348e-03,2.271067500114440918e-01
-5.499930519894462300e-02,-5.658291393817231618e-02,-2.903951770832721158e-01,2.539897216238665590e-03,-1.700191097554566082e-04,1.115333812716588508e-03,2.346574515104293823e-01
-3.897147716829162112e-02,-6.536958596640586594e-02,-2.536356877596621096e-01,-5.607370042176728665e-03,1.401462582883443095e-02,-2.393600254993018522e-03,2.044788450002670288e-01
-5.615793521131894062e-02,-6.154541053154743979e-02,-2.939326403965820678e-01,6.551707439727047890e-05,5.323671174158087563e-03,-1.581802033414902780e-03,2.353239804506301880e-01
-4.724079165140795955e-02,-5.677914054125088317e-02,-2.797382053034659366e-01,-4.714761278979146680e-03,5.096584007804103207e-03,-5.078061273163684414e-03,2.283645272254943848e-01
-5.602601369492679617e-02,-5.467524940375285969e-02,-3.045750877083982511e-01,-4.607697354525517458e-03,3.242532282090801899e-03,-7.059917508185901101e-03,2.497177571058273315e-01
-5.685074587659705303e-02,-5.518153551536222889e-02,-3.082679596886330753e-01,-5.654399803622412596e-03,4.205346955950619442e-03,-5.342209559429871024e-03,2.527205049991607666e-01
-4.938513182638268328e-02,-5.728988608992113818e-02,-2.988765675903178876e-01,-5.041846787051600977e-03,8.301105142772824408e-03,-1.730659148377113174e-03,2.462280690670013428e-01
-5.963292132959424618e-02,-8.108589851071454357e-02,-3.371174740582754126e-01,6.456819586811193314e-03,-1.737033805559855390e-03,9.000621898908489626e-03,2.681085467338562012e-01
-4.289835310284173531e-02,-5.658048848599431246e-02,-2.892485606319921132e-01,-1.350611621151745099e-03,-2.483088723002444895e-05,-5.719253199712457172e-04,2.398155182600021362e-01
-5.516840522001742464e-02,-5.406985669176875287e-02,-2.991995232590480835e-01,-5.881713805197340446e-03,-1.164125577031857595e-02,7.799135921265299733e-03,2.459944933652877808e-01
-6.737518175584381042e-02,-6.792219261003860920e-02,-3.396408414928808739e-01,4.321769536572293152e-03,2.347462331000884500e-03,1.054380775467163300e-03,2.721320688724517822e-01
-5.813414693860355364e-02,-5.731352922464497124e-02,-2.985930535668295249e-01,-5.263994713963295741e-03,-8.683982383500106483e-03,1.168712794532098323e-02,2.423584461212158203e-01
-6.732888528382043047e-02,-3.699020896699528604e-02,-2.377126804402651672e-01,3.374550282361298112e-04,4.972176202144915199e-04,1.538925128283786560e-02,1.892930567264556885e-01
-5.423158024789390130e-02,-5.143315376805829287e-02,-2.687279277086180862e-01,-1.498157248646016064e-02,-3.361397993894345293e-02,3.764583209122105562e-02,2.343745529651641846e-01
-6.158012878801241707e-02,-5.858641186325500017e-02,-2.950077712933775187e-01,-1.619855085482120474e-04,7.063730916279566813e-04,-3.367298735622551874e-05,2.349421679973602295e-01
-5.931362911862717024e-02,-5.686231533082780620e-02,-2.894123064927814903e-01,-4.290871629367422032e-04,2.833927280919631918e-05,-1.213420602672343231e-03,2.313448190689086914e-01
-7.087001954157093331e-02,-6.387965005094119186e-02,-3.648879752797833387e-01,3.449295687473294229e-03,-5.554161846012587583e-02,3.545897687564504575e-02,3.187679946422576904e-01
-6.155391113399999448e-02,-6.604283103280149392e-02,-2.398286309240545977e-01,-1.357411459756140918e-03,-5.216289930507681666e-02,8.041826793466030909e-02,2.420154809951782227e-01
-5.505884032232470637e-02,-5.815187461909565592e-02,-2.763573321540301331e-01,-4.144189580587327726e-03,-3.167252286330426991e-02,4.042859164986579990e-02,2.371971458196640015e-01
-5.885665740721206241e-02,-5.777696581842273194e-02,-3.301616503666601199e-01,-1.344179407434884475e-03,1.097234336932657525e-02,4.431526502082797081e-02,2.831229567527770996e-01
-7.404976352068247392e-02,-6.301385176858803616e-02,-3.165705867810473251e-01,5.612874775802960403e-03,-7.580011605378284001e-02,7.250703772617587972e-02,3.077626824378967285e-01
-5.428653815253350196e-02,-6.098834085614101425e-02,-1.601685253146099830e-01,-9.471658194161016245e-03,-3.699633797294083620e-02,1.574014541836964848e-02,1.251594573259353638e-01
-4.741791370498893432e-02,-5.504381581872819229e-02,-2.896110672644809370e-01,-1.802761273130587972e-03,7.799362458783714366e-04,-2.685762007958123553e-05,2.384959459304809570e-01
-5.038831050229578001e-02,-5.093065366749778555e-02,-2.922997032827853170e-01,-4.785110484021021368e-04,-7.711314841584544170e-05,-3.321701712216707522e-04,2.416428178548812866e-01
-6.655631489877901485e-02,-6.006128730313473746e-02,-2.068499645776684104e-01,-8.752136314515011895e-03,-1.368460086967890517e-02,3.229101358655719900e-02,1.567017436027526855e-01
-5.784090715271576755e-02,-6.095024753627234504e-02,-2.989309650761752257e-01,1.659593328262991448e-03,-5.036690472865435961e-04,1.865256665738806562e-03,2.395911365747451782e-01
-6.778621485596877938e-02,-7.534007409017501322e-02,-2.009168539365392414e-01,-3.792776974880748917e-03,-2.621393936276482373e-02,8.164331206490625312e-03,1.381296962499618530e-01
-4.963712356498381495e-02,-4.995416985419776079e-02,-2.914801427866235417e-01,-3.598261202063781023e-04,-2.636675929356110731e-04,1.236432362165861899e-04,2.416859865188598633e-01
-5.323940446662256409e-02,-5.512827895951945278e-02,-2.912062092433819194e-01,-3.032105597497160255e-04,-2.432710271401614111e-04,9.641089292726493149e-05,2.370290309190750122e-01
-6.815232858840469810e-02,-7.303868991398970723e-02,-1.822008684723391558e-01,-5.215310987813318901e-03,-1.550314365624151647e-02,1.413649407298859031e-02,1.177956983447074890e-01
-5.196862099566387783e-02,-7.703937087857912203e-02,-2.204231189788223300e-01,-3.572848668838374004e-03,-1.855022210213597839e-02,6.403506877405659194e-03,1.611701697111129761e-01
-4.916691307248963194e-02,-7.035202501516621409e-02,-2.532056863789517998e-01,1.408820492509444766e-03,-2.190095041160269873e-02,-1.355837056012985627e-03,1.980112940073013306e-01
-6.605954426903808130e-02,-7.668197872258408765e-02,-2.001553511346338965e-01,-2.734591195061090736e-03,-5.179643978611429833e-02,4.794354263847304051e-03,1.575122326612472534e-01
-5.945368652399793397e-02,-6.150049950207892024e-02,-2.886498839301279706e-01,6.127882151137089249e-04,6.478490028639398630e-05,1.564221155293288616e-04,2.281823307275772095e-01
-5.813554752658980918e-02,-5.569661978519474532e-02,-2.951463632301116746e-01,3.385819980507896211e-03,8.969012649049663138e-04,-6.964069657020900174e-04,2.383199185132980347e-01
-5.390855028244798119e-02,-5.449748990876318588e-02,-2.947001439059550032e-01,5.847971830403498987e-03,6.530185327423305031e-04,3.207246495745871982e-06,2.407135218381881714e-01
-5.471558836313605845e-02,-5.732779332069781741e-02,-3.292964205249628296e-01,7.878370461348016204e-03,-3.248015880236576614e-02,-3.259971332500527508e-02,2.849973738193511963e-01
-6.000738355101055410e-02,-5.799940905599119956e-02,-2.874621124873554256e-01,6.637418802640981854e-04,2.383882485659207168e-04,3.206517420092491050e-04,2.284692674875259399e-01
-6.387220887045538809e-02,-4.572117881965476194e-02,-2.689686544778721045e-01,1.121096089985524312e-02,-6.000459787409949397e-03,-1.083004390888758772e-02,2.166879475116729736e-01
-6.071841012001538695e-02,-6.195181181801213965e-02,-2.889576796475938902e-01,4.856235396207596658e-04,2.193432460496882910e-04,-1.427662311129417917e-03,2.276403754949569702e-01
-7.490933838717268867e-02,-8.215112033665414315e-02,-3.598411186547650908e-01,7.250564775399039388e-03,6.892697676327858014e-02,-1.026988080118876878e-01,3.538739681243896484e-01
-6.181603005162003561e-02,-6.282309761487042676e-02,-2.868428098819505445e-01,2.743677538198561160e-04,4.631521970068810641e-04,1.274732089360424759e-04,2.245269864797592163e-01
-4.844511193875926380e-02,-5.102766766280300570e-02,-2.890432086226516484e-01,-4.797549758089211108e-03,7.496408050268894277e-04,-4.395804851423297001e-04,2.394662201404571533e-01
-4.213214337847145941e-02,-5.836017639760532338e-02,-2.879962258319224144e-01,4.334486187445796973e-03,-9.238052140953509350e-03,-2.483961545052303446e-05,2.388200014829635620e-01
-6.152387401333522798e-02,-6.177528921350999846e-02,-2.887732828493972947e-01,3.002916381335468246e-07,-4.737658719413718762e-04,-3.461509126867102636e-04,2.271260768175125122e-01
-6.555078820463777767e-02,-6.174205008842992282e-02,-2.908990168685599009e-01,-1.288027272770894379e-03,-6.011837131757491980e-03,-9.472748450788310345e-04,2.275317907333374023e-01
-5.125577518089224904e-02,-5.045935349889199562e-02,-2.916265534914159741e-01,-2.826631921425109412e-04,2.158328352672432592e-04,-3.065626103424889753e-04,2.407713532447814941e-01
-4.202548414578363700e-02,-6.148744892284842278e-02,-2.596057654002222326e-01,6.709640660246865215e-03,-3.022378937847844740e-02,-3.421176374988857839e-03,2.153973281383514404e-01
-5.377461935730654119e-02,-4.829411937070526850e-02,-2.884121031341040364e-01,-2.773044773115339225e-03,1.186543005024686992e-04,-8.561341220345980972e-05,2.374738901853561401e-01
-3.812456096575582432e-02,-5.958400476915644284e-02,-2.700990880064880195e-01,-4.716538917364797995e-03,8.546773924217570661e-05,-6.560248063950675074e-05,2.221742868423461914e-01
-5.495034411799502860e-02,-5.391902029558950926e-02,-2.891452816323376585e-01,2.382179577923773401e-03,5.561940281607434392e-06,-3.744324209409296915e-04,2.347494512796401978e-01
-5.252025139958639566e-02,-5.433898816132039233e-02,-2.898506445239719675e-01,2.746577494469975428e-03,-3.427649932898520213e-04,4.350444347259679423e-04,2.364760786294937134e-01
-6.330021547810332772e-02,-6.296594324559104394e-02,-2.865612866504027578e-01,-9.497253801233147472e-05,8.168331519895977101e-05,2.746475675917239888e-04,2.234290093183517456e-01
-5.803889395856307032e-02,-5.960836797528945574e-02,-2.878972179408845200e-01,-5.549646032658825823e-04,3.203027460106674766e-04,-1.417008153201677184e-04,2.290804386138916016e-01
-5.227263973042878265e-02,-5.432139810914962674e-02,-2.882554380915339776e-01,3.575694872108727169e-03,7.501275999773722100e-05,1.618943237882506953e-03,2.350634932518005371e-01
-5.808145782974477589e-02,-5.781295610697251286e-02,-2.896924054328700038e-01,4.482794096764454320e-04,-1.092188599658820659e-03,-8.198632262818477453e-04,2.317586839199066162e-01
-5.271246696152934175e-02,-4.682880757705740193e-02,-2.891478622325320824e-01,-8.116848375101184563e-04,1.854963924490315519e-04,6.502624976731438819e-04,2.394384443759918213e-01
-5.422107269275883157e-02,-5.629396440740282170e-02,-2.908137109608417981e-01,2.382491362412769969e-03,-1.408302936693059653e-03,1.904205887710863111e-04,2.356120347976684570e-01
-4.310210190449631495e-02,-5.252011353026175833e-02,-2.538583314023361570e-01,8.393126852104493621e-03,-2.350448392029665101e-02,-2.336655823932579090e-02,2.145429700613021851e-01
-6.138410638745628312e-02,-5.293873038057209102e-02,-2.885810375833506303e-01,2.743182400318665195e-03,-3.991438322213615095e-03,-6.853574235746805188e-03,2.319909930229187012e-01
-5.919266256225036438e-02,-4.675020628458273486e-02,-2.874652933385018483e-01,-1.438325278692706346e-03,1.185801530069592717e-05,7.923360275491842452e-05,2.347545623779296875e-01
-4.537728492718347273e-02,-5.586801220042067473e-02,-2.703845784987859435e-01,9.543931202089213708e-03,-5.225009900107750564e-03,-3.825803636917219502e-03,2.208549678325653076e-01
-6.105513510945535793e-02,-4.123601773108576118e-02,-2.889358811064875465e-01,1.500033096197368656e-03,-8.410410525755330656e-04,1.771801010305611114e-03,2.384473085403442383e-01
-5.402340051469067816e-02,-5.206446449349011463e-02,-2.912468890576473401e-01,4.654028689063991787e-03,-5.211255773256027925e-04,-2.646294321477516039e-03,2.383911311626434326e-01
-5.097092443300169085e-02,-5.487760892931993484e-02,-2.916085264139395283e-01,5.240797511737469404e-03,-4.342528097338531345e-03,-1.835057534877409906e-03,2.390202879905700684e-01
-6.191470189260644963e-02,-4.225514172648286992e-02,-2.871224925070484102e-01,1.815909180815129895e-03,-6.699183125904767562e-04,-6.690793596853835236e-04,2.356801182031631470e-01
-6.096130531488205828e-02,-3.914544862220828425e-02,-2.867912326705526205e-01,-1.261547712607081649e-03,-7.230832983510067846e-04,9.102226138201481662e-04,2.375091314315795898e-01
-6.249163909816329854e-02,-4.438090992466020568e-02,-2.890488231102371075e-01,3.123458262193912812e-03,-7.143847225945210936e-04,-1.204093821710509361e-02,2.371181696653366089e-01
-6.743492791790367535e-02,-4.675816194509473112e-02,-2.921567898339434421e-01,6.338311040039846557e-03,-2.042371755721020948e-02,-3.772770427077046934e-02,2.474187016487121582e-01
-5.657222591919902621e-02,-5.808851020439384505e-02,-2.909396939658294157e-01,-9.452312810983418590e-05,2.396275846788636617e-04,-1.305437723614951600e-03,2.336243838071823120e-01
-5.359812981032285872e-02,-5.493166966477316948e-02,-2.895297653464961041e-01,-4.454795603275019350e-04,-3.064027043710707996e-05,-3.838272537688413861e-04,2.352699041366577148e-01
-6.506179218783542106e-02,-4.662312825383502224e-02,-2.283452071571109854e-01,7.538506866838086060e-03,-1.426224878200428765e-02,-2.763410854839206884e-02,1.818896383047103882e-01
-7.931449299957873955e-02,-6.358986169778828301e-02,-2.246453732361440303e-01,7.748461432813304184e-03,-6.371130498646651770e-03,-2.096689647944857682e-02,1.589790135622024536e-01
-6.064520729816812866e-02,-7.061764589931018854e-02,-1.996630523837924220e-01,-1.335576249641567395e-03,-3.123292650963077014e-03,1.404178412171456320e-03,1.344603896141052246e-01
-7.542526170256293183e-02,-4.899875409780628244e-02,-2.205472707025014911e-01,3.520800315820473651e-03,-8.062760732133699565e-03,-1.759215826057195647e-02,1.635680049657821655e-01
-4.569545756017180660e-02,-6.285034528897742723e-02,-2.822041703987234751e-01,-5.111906904374173902e-03,-8.215304477154771953e-03,3.641320692819216033e-03,2.291157543659210205e-01
-6.136194316125892501e-02,-6.378976887561804698e-02,-2.880156343903291782e-01,4.931383774158064597e-04,6.850291519166662891e-04,2.581253311294265038e-04,2.254547625780105591e-01
-5.926963690060112200e-02,-5.653579659724981832e-02,-2.935523575137896080e-01,-6.995226229271894877e-04,2.614324647032833897e-03,-2.060250303181946577e-03,2.357351630926132202e-01
-7.476342623922002661e-02,-4.915393032721360189e-02,-2.942061933174925370e-01,1.101075246442260146e-02,-2.265929846887626553e-02,-3.772778392626878474e-02,2.461808174848556519e-01
-5.885237783319441363e-02,-6.277249010541385843e-02,-3.428143726644458100e-01,-3.961325730375088775e-04,-9.612040430649861772e-03,-9.740267935017549866e-03,2.830174565315246582e-01
-6.383667342954446600e-02,-3.422015136549338976e-02,-2.832358771301349831e-01,-4.639482114928110000e-04,-6.162458200580919277e-05,7.429137974088459787e-04,2.356126159429550171e-01
-5.892402611101371646e-02,-7.069492246608248542e-02,-2.928037343822497141e-01,9.085229051383207806e-04,-1.508172382430622007e-03,-1.035662169184344179e-03,2.282494604587554932e-01
-6.138587914642304466e-02,-3.875129161752399742e-02,-2.837057738594671030e-01,-1.050462651098600219e-03,1.395912729832398801e-04,2.741889630107321638e-04,2.344657182693481445e-01
-5.863379922150395440e-02,-5.668329811050752676e-02,-3.383052841812765887e-01,-8.748058376940876912e-04,3.889231432295858770e-02,-2.563721112556680351e-02,2.920229136943817139e-01
-6.917097800308019684e-02,-5.300369821287534422e-02,-2.281238077155937349e-01,3.984645050914625147e-03,-3.123370133851085043e-03,-2.148104539121987316e-02,1.719256341457366943e-01
-6.408173210387524410e-02,-4.963395883927036734e-02,-2.511684879376997470e-01,9.003991490117164986e-03,-1.842247155100577155e-02,-2.556422312622632156e-02,2.028180062770843506e-01
-5.932506310046906095e-02,-4.881465766544815232e-02,-2.573983696022304479e-01,1.206855306057445093e-02,-5.305569672524407254e-03,-1.093521826957078238e-02,2.056829333305358887e-01
-6.709389299061893630e-02,-6.383920014244404140e-02,-2.306581063396679898e-01,7.386983259312160030e-03,-1.467568727570035640e-02,-1.737961274798242167e-02,1.703296154737472534e-01
-5.757007918819245784e-02,-4.750651656877658002e-02,-2.905160040554690681e-01,-9.909345305708903463e-04,4.248847365971037261e-04,6.034885460208230714e-04,2.381468564271926880e-01
-6.366469430747188907e-02,-6.481806763008335359e-02,-2.278328179168667700e-01,1.132071604773841715e-02,-3.294769565287453822e-02,-3.746426898482538292e-02,1.860510557889938354e-01
-5.264370280089246401e-02,-5.429845957481677088e-02,-1.815735985101987193e-01,2.646674070292993550e-03,-1.535436683150143838e-02,7.811790157911722987e-02,1.882758885622024536e-01
-6.366047591418741436e-02,-4.622883192353836879e-02,-1.596613561357707600e-01,2.133286429152952621e-03,-9.396936295058107985e-03,-4.451949761586006249e-02,1.319772750139236450e-01
-6.997550054072407266e-02,-5.677031964333205394e-02,-9.192274164025804328e-02,-1.072090462133769989e-03,1.750709498369835970e-02,9.439906208034459095e-03,4.621854797005653381e-02
-5.120368442885538801e-02,-5.571693410446902639e-02,-3.677920294833920273e-02,2.584055037422537324e-03,-1.662614277628188947e-02,2.381248779333496046e-03,3.405679389834403992e-02
-5.679818744678513665e-02,-5.764754655596388000e-02,-2.898172560161804134e-01,-3.456579827535786304e-05,1.203835500217271355e-03,-1.060033195381604714e-03,2.326121479272842407e-01
-5.814513115753300321e-02,-5.754670849708896918e-02,-2.902486785681795411e-01,-2.265343618182544174e-04,1.688750569358157773e-03,-8.112154056287491271e-04,2.324263155460357666e-01
-5.747862322355554165e-02,-5.157890487907204613e-02,-2.902049527170238452e-01,7.959291014337146336e-04,-9.406493055891143422e-04,9.207579293282390585e-04,2.357466220855712891e-01
-4.597131408450032264e-02,-5.375301788021516480e-02,-2.816799529238601663e-01,-4.273807718418096840e-03,-2.791775350225842930e-03,7.223472228441675178e-04,2.320875823497772217e-01
-6.200650886740698142e-02,-4.210884182349024230e-02,-2.860553088500515928e-01,-4.471161068738303216e-04,-5.151648695376987510e-05,-1.894412433998787410e-05,2.346325665712356567e-01
-5.972976785699191105e-02,-6.077500855774542465e-02,-2.895372493476404130e-01,7.768194955110097099e-04,-1.212467970705326616e-04,-2.172842476184923440e-03,2.293215692043304443e-01
-3.493156962342966465e-02,-5.405217136904111319e-02,-6.008899466526583522e-02,-4.074740562085394160e-03,7.173302707165107178e-03,-4.588370812083016753e-03,2.801440842449665070e-02
-6.065131547294816405e-02,-5.201909964686041166e-02,-2.828071848226486051e-01,-6.040889933431331169e-03,-5.319343024174505094e-03,1.021798209191242257e-02,2.277126014232635498e-01
-5.937100268926645552e-02,-5.903830719732000576e-02,-2.888883387005194425e-01,1.802300077890073141e-04,1.968908080512144214e-04,-8.805584402238068788e-04,2.296893894672393799e-01
-6.368160598553884721e-02,-3.451496547509383395e-02,-2.827753472338235818e-01,4.767715591776013778e-04,2.516607767580460804e-04,1.000267369639779285e-03,2.350465059280395508e-01
-6.438815552211639426e-02,-4.340764752809947447e-02,-2.728788277634279780e-01,-7.045877435297136747e-03,-9.016966941496167010e-04,3.784237793097095567e-04,2.200785875320434570e-01
-6.431397973824112824e-02,-3.422284833292445205e-02,-2.828556971749365267e-01,-4.996943871871642375e-04,-8.968253850690962312e-05,7.731241629492406143e-04,2.350419014692306519e-01
-5.787886762369649774e-02,-5.049071726290921269e-02,-2.901671711354106842e-01,-9.771751234715748101e-04,1.168584977185721302e-03,2.006327097490249838e-03,2.361094206571578979e-01
-7.001742641802877198e-02,-4.965009837437711626e-02,-2.380041863509511080e-01,-2.277316599779271103e-03,-1.557944651266690659e-03,2.444634786933470166e-02,1.840422004461288452e-01
-4.920504798080452269e-02,-4.912362030559497272e-02,-2.749354986633057996e-01,-8.431590958623266796e-03,-6.036553860991033735e-03,8.303984820736833028e-03,2.269407063722610474e-01
-6.235256847411582704e-02,-5.280340665936239519e-02,-2.113535531605250650e-01,-1.247043464074830584e-02,-2.421191583202399189e-02,6.449273269667016306e-02,1.960062235593795776e-01
-5.978952360786443654e-02,-3.781974971233725835e-02,-2.834617595702817461e-01,1.271036325684232965e-03,7.103123685261050844e-04,1.210568528448328907e-03,2.354500442743301392e-01
-5.123404578690406164e-02,-5.431158388576087792e-02,-1.493255622546117989e-01,-7.736496458547757749e-03,-2.828754225731649682e-02,4.492864196960452694e-02,1.340350657701492310e-01
-7.724019052041945776e-02,-5.257922666583268734e-02,-2.442247227330829606e-01,-6.226205457424238525e-03,-6.958633306214910726e-03,1.822832003770836345e-02,1.840336322784423828e-01
-6.503367100308256321e-02,-4.958230417441963217e-02,-2.074280723885137401e-01,-1.218191221977772513e-02,-1.395627711509281679e-02,2.128719541716929398e-02,1.584426164627075195e-01
-5.595260236965471368e-02,-4.424133924169937337e-02,-2.865027616620103856e-01,1.276465831200261462e-03,6.063359634062791791e-04,5.155522148977340069e-04,2.366375923156738281e-01
-5.500115345184933280e-02,-5.796084156512237850e-02,-3.121454435777759606e-01,-6.336728720877427869e-03,1.276114435297608617e-02,-7.802947751616220833e-03,2.572208046913146973e-01
-5.758938898407321705e-02,-5.921626072229704829e-02,-2.916380554734852582e-01,-3.088137584653229497e-04,-9.263736585546199914e-04,1.885910317202510325e-03,2.332684844732284546e-01
-5.985285787727524787e-02,-4.376497712330973400e-02,-2.889289219269546294e-01,7.767075972039425100e-04,9.497077666257286574e-04,5.852783606207553196e-03,2.377546876668930054e-01
-5.943634554743784659e-02,-6.078125243818276180e-02,-2.897022785866887329e-01,1.434502767532746387e-04,1.891599656972878978e-03,1.010144680281437231e-03,2.296266108751296997e-01
-6.474898809557812218e-02,-6.135511713135700929e-02,-2.888617738636461985e-01,2.706527024474859443e-03,-9.407025975197082657e-04,1.423404667304170763e-03,2.258968353271484375e-01
-5.871231485363578861e-02,-6.176144685344944762e-02,-2.901885463973830626e-01,3.989321116273001309e-04,1.280640854175769602e-03,-1.137615794760218598e-03,2.299869954586029053e-01
-6.111027850542813389e-02,-6.115076776960817750e-02,-2.929235217797421242e-01,7.963813251801571923e-04,-3.237706985294503889e-03,2.420866924257639424e-03,2.319028377532958984e-01
-7.020636623406979748e-02,-6.205091138675691842e-02,-3.074277388126116506e-01,1.995353819008268380e-03,-6.700152959543277100e-04,-4.431427336111185694e-03,2.415519505739212036e-01
-6.551652769729554571e-02,-6.374991172812882745e-02,-3.010617916664086735e-01,5.017120439669571497e-03,6.533778234663066337e-05,7.527768020222334877e-04,2.365967780351638794e-01
-5.299396052807893442e-02,-5.702625658118486152e-02,-2.924738336676460104e-01,-2.650794405438134608e-03,-2.152228094200015038e-04,-1.597410821889839452e-04,2.375342249870300293e-01
-5.086457172896705070e-02,-5.014147867936953606e-02,-2.826317657110480885e-01,-7.004483688473682294e-03,-5.977882685571452373e-03,6.036861707097922886e-03,2.329117208719253540e-01
-6.688729357120659635e-02,-3.469574171512689043e-02,-2.819587735096400483e-01,5.336375867913072764e-04,-6.384321875510124561e-04,8.899940372371181914e-04,2.328518331050872803e-01
-5.163753270794044226e-02,-5.592390920862017056e-02,-2.803035081088227631e-01,-2.989283699273927522e-03,-5.966858715121830907e-03,2.678645778432736137e-03,2.268953472375869751e-01
-6.336526685924691316e-02,-5.838628932334025134e-02,-2.908091307741498266e-01,-5.769224352827823695e-04,9.834215826165920715e-04,-1.064435543730862061e-03,2.299896478652954102e-01
-4.642796763814679983e-02,-5.536580446465785843e-02,-2.896765134363974981e-01,-1.882084585998092079e-03,3.979900222466962686e-04,1.293108003325325753e-03,2.389387786388397217e-01
-5.132206565841027079e-02,-5.030641992369197513e-02,-2.900771205316723944e-01,-1.773187543940481919e-03,-4.893005523253598403e-04,5.287286176358313786e-04,2.392874658107757568e-01
-5.821307119233706806e-02,-5.613912991648606354e-02,-2.905935847082570800e-01,-8.606284784500313305e-04,-2.198680153089654834e-04,-8.236066166038211449e-05,2.334295064210891724e-01
-6.096378882001099453e-02,-3.608561433821397268e-02,-2.816356354380942228e-01,2.852554776588165069e-03,-2.317002506475938472e-04,2.921740384664614325e-04,2.341574877500534058e-01
-6.235565532512182818e-02,-5.802252887758535538e-02,-3.018875659662751954e-01,4.635173777127667854e-05,-1.980369085948952002e-02,1.741716289586589528e-02,2.460058331489562988e-01
-5.554418052150661422e-02,-4.082756795745855205e-02,-2.875198479131003682e-01,3.135420525628114692e-03,-5.134443206712871032e-04,7.370959509909200211e-04,2.397396415472030640e-01
-4.541219046136435455e-02,-5.690611147505879319e-02,-2.704521020298814582e-01,-1.002716638349298618e-02,-1.834247790359177371e-02,1.236469321844555630e-02,2.235131114721298218e-01
-4.454251054518633401e-02,-6.042386825739611000e-02,-2.687056001203019240e-01,-8.947145158371225954e-03,-2.000429501406817551e-02,1.403732417616829209e-02,2.212986797094345093e-01
-5.617059413059885542e-02,-5.160535329045701225e-02,-2.777002036992923806e-01,8.425255336909201476e-03,4.452616605353376319e-03,5.507808333807285087e-03,2.246574908494949341e-01
-6.324898709194672064e-02,-3.909475705386210309e-02,-2.546800189924591784e-01,-7.885130491211572029e-03,-1.119984110853855172e-02,1.784093292211164430e-02,2.082567363977432251e-01
-6.946031230013433033e-02,-7.414930916153156248e-02,-2.118556225311126751e-01,2.719377517290489776e-03,3.849746725985316725e-02,1.333305643379174669e-02,1.569470614194869995e-01
-5.637666169020554702e-02,-4.600102398488288558e-02,-2.112017298071979521e-01,-1.472612497707860221e-02,-2.901940395696602296e-02,3.062506618558239260e-02,1.779761314392089844e-01
-4.319465511986018968e-02,-5.318178163018608129e-02,-2.507979292244566505e-01,-1.014970636541465479e-02,-1.755776045321383316e-02,1.751077373874957918e-02,2.080366760492324829e-01
-4.167242227605948146e-02,-5.707740168411251647e-02,-2.749547360786304129e-01,-5.424359025487091729e-03,-2.465564903778337709e-03,2.010332135261689093e-03,2.262363284826278687e-01
-6.688990930857682815e-02,-6.489121616773391166e-02,-2.383107716556719380e-01,-7.339356344585003765e-03,-3.049475629124211162e-02,3.246788806237098368e-02,1.893293559551239014e-01
-5.238759577257559585e-02,-4.755600404946411230e-02,-2.909292688004213034e-01,8.511418448145000688e-04,-2.650249899892268696e-04,3.742322550597764180e-04,2.409996092319488525e-01
-5.272861482258320298e-02,-4.735934944081671150e-02,-2.893093604833615329e-01,9.735239858509847329e-04,1.505538843293288611e-04,6.664383842424706776e-05,2.393166720867156982e-01
-5.505832353237499754e-02,-5.111167096292665302e-02,-2.906193508798051162e-01,-4.291399027787469803e-03,8.284023653888299794e-04,2.212178469870929032e-03,2.377104163169860840e-01
-4.189373828697633140e-02,-6.304189795139027164e-02,-2.332050765969150286e-01,-8.667641342418624939e-03,-1.446736312450343405e-02,6.071236068392707116e-03,1.842966824769973755e-01
-5.997388240854528707e-02,-5.916406286589014074e-02,-2.913235140132877099e-01,-1.523216873853989474e-04,-2.080078481109008930e-03,6.752850072035578152e-04,2.317867130041122437e-01
-5.129590772312264679e-02,-5.157174860662980254e-02,-2.911986433079974956e-01,-2.354224831420829241e-04,2.739287408214309441e-04,3.790943375231789611e-05,2.397657632827758789e-01
-4.913237873200340666e-02,-6.242440399391968597e-02,-2.812590476613308077e-01,-1.326041058710192636e-02,-2.184102329889085758e-02,9.632819852860820958e-03,2.306751310825347900e-01
-5.356697517203279357e-02,-5.280932648146648145e-02,-2.899210451722314952e-01,-2.475371994559889387e-03,9.230084006157172590e-04,-2.260727092686913456e-04,2.367783486843109131e-01
-5.458444202411091850e-02,-4.956096942100327030e-02,-2.904471003854257050e-01,6.235721344343616180e-04,-8.190596618997163713e-04,4.812876791803088919e-04,2.384222149848937988e-01
-4.757337248435980492e-02,-6.555532444129549829e-02,-2.962712561062296190e-01,-5.410379196157001115e-03,-9.454006488320006868e-03,1.890724008819055606e-03,2.409742474555969238e-01
-5.118783149013139688e-02,-5.077197792694311540e-02,-2.911308653525631618e-01,2.068221612960968736e-04,-2.761963384664933678e-04,-3.472970262725998646e-04,2.401527315378189087e-01
-5.849877585957771742e-02,-5.087158933678764816e-02,-2.849913790266447311e-01,2.924033206329246150e-03,1.921757160503098888e-04,1.340925665698053729e-02,2.316241711378097534e-01
-5.853705963487386421e-02,-5.423747963769080804e-02,-2.920862430698690781e-01,3.785305450633473338e-03,-9.343903655600171564e-04,3.100196516304313914e-03,2.358862161636352539e-01
-5.792902932548757433e-02,-5.168317360973095909e-02,-2.905420348691736265e-01,7.187139068607122311e-04,-1.193403842880170606e-03,8.826193577799126442e-04,2.358152866363525391e-01
-5.407805916169448890e-02,-5.552050044745289459e-02,-2.898436094039198441e-01,-8.581930201585110784e-04,1.335222462860347330e-03,-8.180106674853637033e-05,2.350637614727020264e-01
-5.436734007736286622e-02,-4.860020737719902839e-02,-2.883326290881221832e-01,3.282117313558533932e-03,-3.182670801813387894e-04,2.504847842727339234e-04,2.369707524776458740e-01
-5.862380012027562648e-02,-5.914490298257679690e-02,-2.891302718029096219e-01,5.202917361183082186e-04,-8.553845661475558597e-04,1.003334430159920961e-03,2.302594482898712158e-01
-5.793416640292693709e-02,-5.898961215556521032e-02,-2.898302483679021102e-01,4.070165576653757451e-04,-1.677232973809319062e-03,-8.763568133292483613e-04,2.313944548368453979e-01
-5.956577307941829380e-02,-5.908848305624429809e-02,-2.889436697784588115e-01,-3.305141721744640445e-04,2.297062702956558249e-04,-6.697465330327028636e-04,2.296209037303924561e-01
-5.957798902487909665e-02,-5.837598297332768915e-02,-2.900471017391901274e-01,-1.490177386981761279e-04,-1.395610208362703429e-03,-9.819628757065388194e-04,2.310915142297744751e-01
-5.003788206858439391e-02,-5.020078023083451857e-02,-2.912591943376023340e-01,4.603152672911757786e-04,4.036530844558992504e-06,-4.245804082605708889e-04,2.411423474550247192e-01
-5.985011978931284449e-02,-5.910772513603781975e-02,-2.925849576401200469e-01,1.199920552360471263e-04,-1.611964068233588286e-03,-1.552473372427152663e-03,2.331392467021942139e-01
-5.391557347786748999e-02,-5.161374652627397086e-02,-2.919674002888683617e-01,-1.016212357236427784e-03,-3.591144446395326626e-04,-1.095591549640676730e-04,2.392183989286422729e-01
-5.902241863478493999e-02,-5.808006495852781337e-02,-2.885905939940437426e-01,2.087210687964139149e-04,-2.581313312857308484e-05,-9.500301401894468934e-04,2.300469726324081421e-01
-3.542478886348207623e-02,-6.497591092952692549e-02,-2.719011652602989493e-01,-1.823512799186170156e-03,3.441234761269854926e-03,-1.413106987652761786e-04,2.232750952243804932e-01
-4.992801208003971869e-02,-5.507346944717575465e-02,-2.910438017485078577e-01,-1.739883876079615982e-03,2.078590367215114008e-04,4.211820943407524752e-04,2.386050969362258911e-01
-3.855916435789383256e-02,-6.910081228161357725e-02,-2.829985473490674863e-01,2.217765975714458028e-03,4.401147613177813431e-03,-3.859384944068725964e-04,2.308487296104431152e-01
-5.722877707728396546e-02,-4.991407961456020836e-02,-3.392045402433785384e-01,5.330454224785708371e-03,4.588822145594067398e-03,3.047013910293706537e-02,2.907921969890594482e-01
-3.404718178176180388e-02,-6.362845125550495307e-02,-2.724840107596692151e-01,-2.143143952717167604e-04,3.026341941425471534e-03,3.994883577879919769e-04,2.251710444688796997e-01
-6.435087248769043311e-02,-3.622327539795197615e-02,-2.771982000080605024e-01,2.320952438080256790e-03,3.261447397725155111e-03,4.691664169039779474e-03,2.284647375345230103e-01
-3.612357166681129383e-02,-6.399134867197749099e-02,-2.828726195767525819e-01,1.388005181529049052e-03,-4.481744771004471709e-04,-3.023907417201821099e-04,2.340769469738006592e-01
-6.104627803544879217e-02,-4.012236869431773378e-02,-2.865461314254463820e-01,-9.167237214527282178e-04,-4.617853668509779513e-05,1.195964103438165466e-03,2.366709709167480469e-01
-3.506490264086041531e-02,-6.322264551630515927e-02,-2.796620921921189051e-01,6.348427688199052453e-05,1.848067935096540677e-03,-2.390939701577787476e-04,2.318270206451416016e-01
-6.439344982652868421e-02,-3.697307519459724912e-02,-2.845500750549085911e-01,-2.081992082936941180e-04,-3.780343030394000170e-04,2.024578651025133076e-03,2.350966781377792358e-01
-7.103145207324094990e-02,-5.825642388383392434e-02,-2.918929768308985429e-01,1.154032820635811840e-03,1.534186793447839432e-03,1.736716677655320441e-03,2.275623679161071777e-01
-3.693841642380293888e-02,-6.333501684933050269e-02,-2.822314956652080542e-01,-1.284672418911412227e-03,1.407093406019973821e-03,-6.591978958937116852e-04,2.332440018653869629e-01
-3.821616151201588651e-02,-6.038531898073803972e-02,-2.816928700743123182e-01,-1.012859413269761796e-03,1.633175007385185727e-03,-5.747797094201099441e-05,2.332076281309127808e-01
-4.004589545610195978e-02,-6.561645762876594512e-02,-2.840057043472798970e-01,-3.828015363940236605e-03,2.302023073039218166e-03,-1.367570181617047383e-03,2.323736697435379028e-01
-4.086005479293527975e-02,-5.890703906601885143e-02,-2.820482778932048573e-01,-1.688102942598657032e-03,1.169662975209495755e-03,-2.115570208830616313e-05,2.327173948287963867e-01
-3.912923727959626008e-02,-5.844180294579534585e-02,-2.817255908144079557e-01,-3.825086583865472140e-03,2.347194158377766560e-03,5.121488784074616806e-05,2.336690723896026611e-01
-5.147563388933587558e-02,-5.349981200747856713e-02,-2.887455516606259875e-01,3.083529448945643032e-03,-2.310049006977459734e-04,-5.150231580176306426e-04,2.363267093896865845e-01
-5.516843108022426168e-02,-5.515707063977230706e-02,-2.897342670704630141e-01,3.617078083529479040e-04,-4.712356227570064148e-04,4.088588525395576480e-05,2.345737814903259277e-01
-5.589971857693186441e-02,-5.796476575504141970e-02,-2.904012431531953764e-01,7.655763726768581405e-04,6.744643566836139043e-05,4.921882454861236820e-04,2.334811985492706299e-01
-5.953153527691781854e-02,-5.994812623343007130e-02,-2.906853528485353610e-01,-1.138640054107850566e-05,-6.418656547567149189e-04,-1.800937717254274270e-03,2.309695482254028320e-01
-5.807342429363734904e-02,-5.967197727875453439e-02,-2.902899374753999950e-01,-3.408990054953906315e-04,-7.531068565778111998e-04,-1.793600240406128393e-03,2.314466536045074463e-01
-6.187657615295680258e-02,-3.666824991835485048e-02,-2.838846560083776449e-01,1.152626365812561794e-03,1.510570510665655520e-03,4.565546221388975048e-03,2.357813864946365356e-01
-5.783530917384371861e-02,-5.804119066533705573e-02,-2.898626340124079714e-01,3.323920685859153607e-04,-7.156060415487647871e-04,-1.753888967741437871e-03,2.319483757019042969e-01
-6.129869036493909573e-02,-3.678778682496261498e-02,-2.858373382036599741e-01,-2.265650211398357282e-04,1.807521913046486429e-04,2.035025014306846708e-03,2.377702891826629639e-01
-4.907324435905693893e-02,-5.332098496630324758e-02,-2.897853165565966727e-01,2.261294242656933240e-03,-3.355411411188822775e-04,-1.613254138678516425e-04,2.386495769023895264e-01
-5.373395418945278723e-02,-5.410143047763127377e-02,-2.910368151898808931e-01,2.766874230092167437e-03,1.236362420435205495e-03,-1.941390331847003142e-04,2.371776700019836426e-01
-5.781015352512260119e-02,-5.590544146389164748e-02,-2.893674827932269933e-01,1.512495479591863007e-04,-8.959695127206990543e-04,-1.389269170791590556e-03,2.325333207845687866e-01
-6.069422597218744608e-02,-4.947635807360849236e-02,-2.906687568430451618e-01,1.098380028979448544e-03,-1.343239872203001208e-03,3.062585214748712783e-03,2.358625084161758423e-01
-5.654513053470598682e-02,-6.151634544094594648e-02,-2.933464031159335184e-01,2.344469705688435001e-04,1.283661382403656010e-03,3.901978713150204645e-03,2.344635426998138428e-01
-5.657048830292739361e-02,-4.576659168111640863e-02,-2.889379359467428854e-01,1.209641286936541599e-03,-2.386649913752393647e-04,8.174923934285247430e-04,2.379672080278396606e-01
-5.053859481222873484e-02,-5.217151314422741049e-02,-2.909798214910472858e-01,1.381235809803797775e-03,1.488059058628999460e-04,-4.813762205274426005e-04,2.396424710750579834e-01
-5.386969450341932975e-02,-5.362453735466909954e-02,-2.908100279001708532e-01,-5.051744784795191744e-05,-6.260369347338351010e-04,-4.532377222071574106e-04,2.370668053627014160e-01
-5.913208738321440450e-02,-4.079766917032678908e-02,-2.874911709006359173e-01,1.863302382593145807e-03,2.336035758888499870e-04,1.952285986281971893e-03,2.381026446819305420e-01
-6.499116575527676132e-02,-6.281463805104325893e-02,-2.886731101303190439e-01,1.219295264446924876e-03,3.780312336465838779e-04,-1.366274464945140335e-03,2.248014360666275024e-01
-5.083981865311927584e-02,-4.913767255570861137e-02,-2.910043199629682720e-01,-1.028693611575248572e-03,3.395493339839696827e-04,3.373234114632870490e-04,2.410281002521514893e-01
-5.387173312692505878e-02,-4.832530856030228805e-02,-2.895934250596862158e-01,-2.875254217146835500e-03,1.603009529844754517e-04,-1.572684371934134832e-04,2.385955601930618286e-01
-5.319764283756020506e-02,-4.553834385132840556e-02,-2.879605817181075111e-01,-2.156100552061988775e-03,1.861333943716383477e-04,4.232012614426852119e-04,2.387153357267379761e-01
-6.549234120963776107e-02,-3.752999606409658517e-02,-2.693250572757233674e-01,-2.538750900443205016e-03,5.870119791970810795e-04,7.901006875218840458e-03,2.196291387081146240e-01
-5.428897786707134743e-02,-5.364456717197835234e-02,-2.906923730019608243e-01,7.233690487961526847e-05,-7.223022134604166304e-04,-4.003311425823139293e-04,2.367306053638458252e-01
-3.666983227355516406e-02,-6.377661687783497957e-02,-2.845028117311791949e-01,5.886624384611586526e-04,4.835200898127354065e-04,4.497496011938732687e-04,2.354577630758285522e-01
-4.832056872024093064e-02,-4.871735126839171759e-02,-2.882074237925982274e-01,5.444878590016154207e-03,2.489769776801749194e-04,2.148520839379643220e-04,2.398748397827148438e-01
-5.110425484722590228e-02,-4.809054652770776428e-02,-2.892833053063065818e-01,-2.653566270522180175e-03,-3.425421312375136825e-04,-9.198354501177024201e-05,2.397449612617492676e-01
-5.971292385208143427e-02,-6.077510902653189551e-02,-2.921820381199747851e-01,-8.436278230454048656e-05,-1.325198160126449080e-03,-3.987597767310458938e-03,2.320540547370910645e-01
-5.852238038456927804e-02,-6.870571849548207100e-02,-2.963658726550267852e-01,-1.137488091698245869e-03,6.070154541113524996e-04,1.688076257005862498e-03,2.329479008913040161e-01
-5.963840930527503081e-02,-5.682708980756182027e-02,-2.934511418614399458e-01,1.802822343410739013e-03,6.047356043417096132e-04,2.070421445328159572e-03,2.352813780307769775e-01
-6.039308923779697358e-02,-5.544648616748895642e-02,-2.934284490995271444e-01,5.326998234329444193e-04,1.866173668936345819e-03,1.565327806379784165e-03,2.355872094631195068e-01
-6.024489680414378545e-02,-6.381868193448510251e-02,-2.933898452405986346e-01,-2.153505947129955196e-03,1.341981903625649036e-03,3.663216685430242901e-04,2.314213663339614868e-01
-5.957251273070190978e-02,-6.418004476010244486e-02,-2.910332897570913624e-01,2.904197230831634261e-04,5.686653860467868679e-04,3.776617670799268416e-05,2.291944324970245361e-01
-6.302327787226941203e-02,-6.302510396130037162e-02,-2.884356811536839538e-01,-1.366892806100566049e-03,1.287705548316257081e-03,1.091169870870898739e-03,2.254428714513778687e-01
-6.192677095946685917e-02,-6.215334499717291294e-02,-2.876681848637109296e-01,5.174792111628559286e-06,7.997991824691252222e-04,5.100962786943267612e-04,2.256341874599456787e-01
-5.351552965782467586e-02,-5.388694618026806937e-02,-2.905916739758538370e-01,-3.413810982749479971e-04,7.104841478158398053e-04,-6.146758165439315021e-04,2.368969768285751343e-01
-4.476333622686921865e-02,-5.292731950353180004e-02,-2.876138626159175926e-01,2.616586929163871450e-03,5.201404959067006768e-04,-2.012741866347844070e-04,2.389181256294250488e-01
-6.316829258720262075e-02,-6.356678502315235568e-02,-2.865297553710667300e-01,-9.065881488875189326e-05,8.332064434423216721e-05,-8.258874988546260670e-05,2.231626361608505249e-01
-6.252563670444456767e-02,-6.399089247911779466e-02,-2.869245763265013682e-01,-7.952078191769300971e-04,3.614487994185312087e-04,-4.820548058044702989e-05,2.236750423908233643e-01
-5.468161128272441829e-02,-5.308255744846503144e-02,-2.910294732602204393e-01,7.083667396606409912e-04,5.928049344880556744e-05,3.146794300101849037e-04,2.371552586555480957e-01
-5.902358161397198988e-02,-5.867408662544895681e-02,-2.911769546210535853e-01,-1.530476616219562914e-04,9.942264066618144297e-04,5.746358233639004866e-04,2.323369830846786499e-01
-6.347208318750476030e-02,-4.805216711512833028e-02,-2.907624453621892036e-01,6.922922036363910120e-04,-1.301587665376131679e-03,3.564435458713956055e-03,2.354742437601089478e-01
-6.712561880429791794e-02,-3.878128126648917873e-02,-2.293725637139633067e-01,-2.071470698866793164e-03,-2.997678296771520701e-03,1.027430796973157617e-02,1.791166365146636963e-01
-5.630482130650343864e-02,-5.840351142136393503e-02,-2.904976312194946786e-01,1.232709075173168598e-04,1.473481632755397350e-03,1.363563674612580136e-03,2.331765741109848022e-01
-5.608504802540445477e-02,-5.009873413109555695e-02,-2.906363133421742129e-01,1.558634603424870766e-03,8.034307346850978575e-04,-1.322218867712609885e-04,2.376205027103424072e-01
-5.846228241948674131e-02,-5.326606626997915095e-02,-2.898056122109500810e-01,1.470220564450115284e-03,1.090779214576686118e-03,-7.606934793248159524e-04,2.340099066495895386e-01
-6.356041744113866132e-02,-4.417509121915619286e-02,-2.886855591487022532e-01,1.186726798518112237e-03,-1.469682122913446931e-04,5.737310395665323227e-03,2.356359213590621948e-01
-5.945818070198943817e-02,-6.112070268131927775e-02,-2.919786098833276333e-01,1.499835452607875476e-04,1.140604438090303107e-03,9.760475865375719444e-04,2.317083775997161865e-01
-5.681747838918460580e-02,-3.928175770867509131e-02,-2.807377122723048735e-01,-3.075093182468243303e-03,-1.611121161198760150e-04,2.760214091906848001e-03,2.332931160926818848e-01
-5.810099556652698061e-02,-5.689745078851313198e-02,-2.907056632819378095e-01,1.540358842479167483e-05,1.707379356103968984e-03,9.588544862103638320e-04,2.332334369421005249e-01
-5.962230271273608051e-02,-6.405420080067397715e-02,-2.976814241025866337e-01,-8.938433137847893442e-04,3.449884157354847491e-02,3.325139023475202904e-02,2.500531971454620361e-01
-6.702244807649965219e-02,-5.997841722774030493e-02,-2.918406051773715371e-01,4.748464694082428126e-04,1.092783015155630822e-03,1.411450441555616147e-03,2.284440547227859497e-01
-5.837264482388929143e-02,-4.830434307232370217e-02,-2.894327798497887683e-01,-2.278172371505208290e-03,1.828600911555984662e-03,-2.896313667898759055e-03,2.363626658916473389e-01
-6.225487407568662535e-02,-6.169412445639690934e-02,-2.963563351672602320e-01,1.428317398140536943e-03,3.363553994068498552e-03,1.918596427345237599e-04,2.344680130481719971e-01
-7.333085508949555020e-02,-5.896866533964596757e-02,-2.951116389877161406e-01,5.643108362663455668e-03,3.152929874228554193e-03,-3.727137984469486558e-03,2.296634018421173096e-01
-5.932759571976901902e-02,-3.839130659054562633e-02,-2.838665866662532511e-01,-2.050044784550637995e-03,-4.411950828704546594e-04,1.135357272268002447e-03,2.357417196035385132e-01
-7.122161694121009745e-02,-5.940838045285995461e-02,-2.921998392942139477e-01,1.129944576688563787e-03,1.535059827431746677e-03,1.268394835875595898e-03,2.271499931812286377e-01
-6.102650729715877742e-02,-3.937835096815184288e-02,-2.785260526330168851e-01,-3.816851485247756484e-03,-3.265245866457168065e-05,3.535819052546149231e-03,2.292692214250564575e-01
-5.773842968584651236e-02,-4.064055424461895938e-02,-2.860027872714182018e-01,-2.249493505519424476e-03,-9.084890731750150470e-04,7.733336784021549448e-04,2.373167574405670166e-01
-7.607001180498676463e-02,-7.579970626562078373e-02,-3.935982670306632514e-01,-3.471705206724252576e-05,-4.920539098702521319e-02,-7.263593537443976955e-02,3.521385490894317627e-01
-6.278993711900289487e-02,-5.507525799258361499e-02,-1.433754801581094140e-01,-5.889303942818783361e-03,2.845763317826391012e-02,-1.756178067730696998e-02,1.031215190887451172e-01
-6.897666942100100229e-02,-6.223777631180010816e-02,-2.968173225470936982e-01,-7.263763178427575786e-04,-2.603074887130637106e-03,-1.520462334483889139e-03,2.313461005687713623e-01
-5.131385331045293374e-02,-5.780013377842849187e-02,-2.912616451534112416e-01,-9.620159587691689673e-04,1.577159336144256380e-03,1.142912466136510301e-03,2.368011921644210815e-01
-5.797541636418800104e-02,-5.572936327853769689e-02,-2.912759486887630533e-01,-4.625507027779689521e-04,-1.867381391729905013e-03,-1.903901146020332380e-04,2.344555407762527466e-01
-6.239034769471885761e-02,-6.369538093580032201e-02,-1.785134461820399310e-01,-9.602781749991750465e-03,-1.272319124157234027e-02,1.477255130089581009e-02,1.214565634727478027e-01
-5.345589952839292086e-02,-6.778893716656152202e-02,-1.690167553027535630e-01,-6.216242254225057967e-03,2.816498138759029879e-02,-8.710508339967063668e-03,1.209411099553108215e-01
-6.357539140689419388e-02,-5.113303305840141699e-02,-3.001142628264850121e-01,3.495291416015012999e-03,2.730690427727414278e-03,2.944111870469675110e-02,2.484107762575149536e-01
-4.824295807237031358e-02,-5.846688374115840969e-02,-2.239248875903126490e-01,-9.342652015835339885e-03,1.823930063061497686e-02,-5.107912871377033939e-03,1.746729910373687744e-01
-7.113684266374756260e-02,-6.834037321179123325e-02,-3.045359477938396342e-01,9.159689914796861898e-03,-2.923488944017482803e-03,1.258077383688623214e-03,2.354097366333007812e-01
-5.844311331503471152e-02,-5.951403173335870211e-02,-2.918893961109097490e-01,8.062747623792878996e-04,-9.490412087978015001e-04,-2.087735749525373096e-04,2.329229414463043213e-01
-4.807337922774312933e-02,-4.773867648931573449e-02,-2.665006870877359435e-01,-8.295676859054057148e-03,-6.387481740302605217e-03,8.753082025913506287e-03,2.198690772056579590e-01
-5.545113983372623734e-02,-5.524568879871911975e-02,-2.913228789237841676e-01,-9.283002199709259813e-04,4.697369420870117714e-07,-3.753486660854178452e-04,2.359808981418609619e-01
-5.577601654429262257e-02,-5.486018496552587387e-02,-2.900794862693061305e-01,-1.275262977006756844e-03,4.079009220845608271e-04,3.832840313797479330e-04,2.347751110792160034e-01
-5.642732390299828871e-02,-5.496880258541017583e-02,-2.884598415327227494e-01,-1.950975246609263801e-03,-1.243274635167892453e-05,5.460190459595005465e-04,2.327916622161865234e-01
-6.238099337153954482e-02,-6.612427637534043501e-02,-3.078881574614911187e-01,-1.235742996076556700e-03,5.963046995585358570e-04,-5.274619313828555513e-03,2.438398897647857666e-01
-6.251546805853178124e-02,-7.326716591587392746e-02,-3.094042498391442741e-01,-4.492103435360108102e-03,-4.118230013643686509e-03,-5.714173436636025422e-03,2.421251088380813599e-01
-5.594576572064019482e-02,-5.593503196688887069e-02,-2.946501969507225871e-01,3.784325761098980556e-03,1.996756198276521642e-03,3.215447042777921580e-03,2.388897389173507690e-01
-4.654564447463374610e-02,-5.928419434658283027e-02,-2.899624348179924427e-01,4.059825787366546181e-04,2.989569452656621468e-03,-1.416614841611623559e-03,2.373742908239364624e-01
-5.792444109044404821e-02,-5.560426865129365626e-02,-2.904711003948741710e-01,3.960318237817471660e-04,-1.155529269466845296e-03,6.089184564894396730e-05,2.337249815464019775e-01
-5.521432099035417096e-02,-5.668052366383929952e-02,-2.884395989309523900e-01,2.600889132043632430e-03,7.380847007695652551e-03,6.335192737071269377e-03,2.331487834453582764e-01
-5.825651420818075965e-02,-6.092725580768548754e-02,-3.208020484225840852e-01,2.555178990438430019e-03,2.784698482522928592e-02,2.609656968863941981e-02,2.694905102252960205e-01
-5.922773712891152287e-02,-6.465692493017963227e-02,-2.901906370271974955e-01,-1.308205302634623418e-04,1.900183659619225185e-04,-9.277597388094274602e-05,2.282971292734146118e-01
-5.733867252156787941e-02,-5.801886504798542399e-02,-2.895769349019308159e-01,1.062177287741429511e-04,-1.024458719726019460e-03,-7.784694248399642641e-04,2.319096922874450684e-01
-5.926801333911974057e-02,-5.473681136984659412e-02,-2.837140961576922193e-01,3.132506294353967161e-03,5.394612805720478202e-03,4.709488358640717340e-03,2.271494418382644653e-01
-4.792570046307363663e-02,-6.039621388791627243e-02,-2.420000224958190893e-01,8.517050953627494647e-03,1.920493492350492087e-03,-2.466520485718253094e-04,1.887565106153488159e-01
-5.485716030638004836e-02,-5.585656038939093571e-02,-2.902099335975897865e-01,2.087219078874020563e-03,-1.132281382351149179e-03,-1.315346403033738117e-03,2.349017262458801270e-01
-5.803296011226749540e-02,-5.722624581422204593e-02,-2.891083059498146257e-01,-2.011286861273122904e-04,8.907203278828328737e-04,-1.056629799093256310e-03,2.314924001693725586e-01
-5.903999803019895076e-02,-5.716233665147166243e-02,-3.038305517526543875e-01,1.960613421734295429e-03,1.992520232877961664e-04,6.235640309171604743e-03,2.459956854581832886e-01
-6.080948146548705024e-02,-5.379109678141796858e-02,-2.994375029492079010e-01,-8.107352007763033884e-04,-9.808951823287916788e-04,-7.400599602677366889e-04,2.422269135713577271e-01
-5.968990355422594540e-02,-6.430066048978880233e-02,-2.904285497271891225e-01,1.562304596224332529e-03,-1.779155105638277352e-03,1.769384043173782405e-03,2.285255193710327148e-01
-6.089908092984971932e-02,-6.416157763302021699e-02,-2.870331021238592406e-01,-5.155163083661101417e-04,-4.678207159857200701e-04,2.104999677542604408e-04,2.245240807533264160e-01
-6.050589246958323897e-02,-6.044931460727930028e-02,-2.882169689167386473e-01,7.656677497305278092e-04,8.144513282793331864e-04,1.002064129912073767e-04,2.277476638555526733e-01
-5.809491857839432782e-02,-5.719367021766291748e-02,-3.018291081077529858e-01,-2.905897475053864469e-03,-1.198904480467816690e-02,8.320982392251274201e-03,2.455424517393112183e-01
-5.848009075985810545e-02,-6.902768677685591769e-02,-2.944112307647667182e-01,7.165829617227320548e-04,-2.290417955207851505e-03,2.964952265201419718e-03,2.309326678514480591e-01
-5.211403195125748067e-02,-5.520337990251940330e-02,-2.924202592168306802e-01,-8.733718794956148558e-04,9.052787208183927419e-04,-1.154557588812938143e-03,2.387948632240295410e-01
-5.175300004322630487e-02,-5.133014471246158394e-02,-2.807113127914436790e-01,-8.694055180300492430e-03,-1.500199894862588672e-04,1.802925726643922477e-03,2.296856194734573364e-01
-6.215774123257222783e-02,-6.375748343493078951e-02,-2.871314707893302121e-01,3.737292974598678259e-04,7.200384863264411338e-04,3.836084557894541025e-04,2.241835296154022217e-01
-6.248353590695207571e-02,-6.286290153738197106e-02,-2.878483101333597638e-01,1.049137676773228937e-03,6.602203577728651442e-04,-5.432873180722664870e-04,2.251875400543212891e-01
-5.879099817850380605e-02,-5.358800216381369441e-02,-2.860368518209846500e-01,-1.132431187274542811e-03,2.008982318496745339e-03,-1.073015765997178961e-02,2.306761145591735840e-01
-4.590969709376091501e-02,-5.736142212510023097e-02,-2.598722275038631846e-01,9.275822781815396684e-03,-9.226844740768819220e-03,-4.988300180754827104e-03,2.098786383867263794e-01
-6.210770544940590054e-02,-5.372945260374978327e-02,-2.977397694911593229e-01,3.240202449010821657e-04,-3.611930461855674106e-04,1.462785722424947421e-03,2.399457693099975586e-01
-5.854277302505617175e-02,-7.019255198004287211e-02,-2.906033860401157631e-01,1.310992750885676961e-03,1.053927226883459144e-03,1.769412256881392398e-03,2.265000492334365845e-01
-6.572776519904643955e-02,-5.487564476186121420e-02,-2.847815413767276205e-01,1.003217084035233023e-03,-1.696045067501434755e-03,-8.548420042831662846e-03,2.251897007226943970e-01
-6.110383267867844359e-02,-6.507773520312565285e-02,-2.862813848256879901e-01,1.118882824930510266e-03,-5.481017415334720529e-05,8.586455998209837378e-05,2.232256084680557251e-01
-6.275503901644025051e-02,-5.132321106699913593e-02,-2.856656463268688051e-01,-8.683105473490723833e-04,5.262092298719856258e-04,-1.232683100859502737e-02,2.298413515090942383e-01
-7.565399517878265701e-02,-7.874358795795290134e-02,-3.842025299698327845e-01,-3.199472321567733892e-03,-2.245866792943120027e-02,-7.919038911350834153e-02,3.385494053363800049e-01
-5.181154666381611318e-02,-5.090274140780637335e-02,-2.909442507888237994e-01,-5.129091096702077888e-04,-4.664839872441347794e-06,8.718256239568892034e-04,2.395948022603988647e-01
-4.242655318754257054e-02,-5.645090762602830714e-02,-2.861138449350230650e-01,-1.349176161665060786e-03,-2.433159253064301480e-05,4.826415355045983089e-04,2.369995415210723877e-01
-5.360438752918655902e-02,-5.138715096093238177e-02,-2.906933615724778264e-01,-3.000500683922322550e-04,2.292320647303896716e-04,5.981494600522619873e-04,2.382084876298904419e-01
-5.830622410466969330e-02,-7.608849116395127732e-02,-3.025506065940385403e-01,5.524783106127173146e-03,-2.651180805142480841e-03,1.958799904559915470e-03,2.361196279525756836e-01
-5.978033958150569260e-02,-5.820423797271837008e-02,-2.910544041446235797e-01,-6.748489190688738222e-05,-8.752211092861926457e-04,8.992625231527643379e-04,2.320763319730758667e-01
-4.874623398440409983e-02,-5.231758405485198438e-02,-2.897477232948728054e-01,3.743656828009176568e-03,-1.293054422960415305e-04,-3.989393197816988525e-04,2.393247634172439575e-01
-5.637693038381348665e-02,-5.732153443531276538e-02,-2.930928656519783404e-01,6.135267762330515575e-04,1.645457909552465372e-03,5.505981795937326534e-03,2.364570200443267822e-01
-4.811822748549364481e-02,-5.278179850292388786e-02,-2.892877711977024369e-01,8.323455534275169898e-04,-4.015443660889134593e-04,5.928434845683434743e-05,2.388772815465927124e-01
-5.663324708438940980e-02,-5.872935541874720056e-02,-2.914066961627362340e-01,3.766982608401433933e-04,1.209173198965493839e-03,1.565803479741006629e-03,2.337584644556045532e-01
-5.514789061486366495e-02,-5.139707080902630731e-02,-2.894805735562114846e-01,-8.002026921239706238e-04,3.724990038395204839e-04,1.799135628752592843e-04,2.362355738878250122e-01
-4.910213567268326140e-02,-5.107985341588919259e-02,-2.912513327068028124e-01,1.294444499733999688e-03,-4.117476803530116197e-06,3.588033672978112386e-04,2.411776483058929443e-01
-6.013677749913143300e-02,-4.554772694950273704e-02,-2.964716730879604634e-01,-2.203522091261335587e-03,-2.124022408495238544e-04,-1.743569477817153292e-04,2.439871281385421753e-01
-6.260172999547616857e-02,-4.146045831335551379e-02,-2.739912820275868799e-01,-1.737575365110490336e-03,-7.129504914716340699e-04,1.470106866196778210e-02,2.241885066032409668e-01
-6.069084770384949867e-02,-6.755886932123124355e-02,-2.887174968402916875e-01,1.179565626466955609e-03,1.044935965213257285e-03,8.169723157974026701e-04,2.246924191713333130e-01
-7.119402396713110648e-02,-3.619062672589865026e-02,-2.326985927566235790e-01,3.288738845919131272e-06,-2.630916359690699605e-03,4.381814783254377177e-02,1.968324929475784302e-01
-5.884039199862786673e-02,-5.857198281087337699e-02,-2.943321417463236056e-01,2.251624431225145357e-04,-1.635867296737002208e-03,2.772149897800208753e-04,2.356439232826232910e-01
-6.282119658919098348e-02,-4.459335867011146592e-02,-2.898061048566831222e-01,-8.733763183165512128e-04,-3.279051393692283042e-03,5.435346371482007236e-03,2.368860989809036255e-01
-5.692346926040366129e-02,-7.900042247703047138e-02,-2.940028731359651815e-01,3.118293259269642494e-04,-7.509407879621785140e-05,-1.391976096704261850e-03,2.268615514039993286e-01
-6.092768174798003644e-02,-6.871151287600857360e-02,-2.911581753480264600e-01,1.145355662144873898e-03,-3.128268505771364372e-04,-1.152522104484753106e-03,2.264570742845535278e-01
-6.877176665539742884e-02,-4.552243832459630657e-02,-3.036565217078389667e-01,-2.776214566842332560e-03,-9.490150834079093267e-03,4.163092052593612979e-02,2.581956684589385986e-01
-5.694395141398234106e-02,-5.675612680692265766e-02,-3.154312893290073250e-01,1.237298972250023719e-03,2.662279275127669292e-02,2.913364739212245813e-02,2.674724459648132324e-01
-6.340229464447474927e-02,-4.182230782695489646e-02,-2.861971431703739244e-01,-9.342727392205766939e-05,-2.659781128333807507e-03,2.427300755166264448e-03,2.344143241643905640e-01
-5.856230031971226824e-02,-5.864713352455783180e-02,-2.890027330582897180e-01,4.354942130832487604e-05,-8.752947894171301743e-04,1.011223768099744728e-03,2.304096817970275879e-01
-5.338709750672857024e-02,-4.535319891979860962e-02,-2.870178313395900238e-01,3.656275907471466524e-03,-6.972843017580901415e-04,-8.135792902301750007e-04,2.378410845994949341e-01
-5.148671185049528976e-02,-4.917237596080119288e-02,-2.897784267253127322e-01,2.832547706123772664e-03,-2.654449352914490474e-06,-1.487669322191318800e-05,2.395075261592864990e-01
-5.412900299287204398e-02,-4.563308526494067041e-02,-2.887623631060507456e-01,2.228223819814929146e-03,2.392667698523410786e-04,2.583461831599587807e-04,2.390265464782714844e-01
-5.794357811509334710e-02,-6.241979687204458893e-02,-3.402578705402542480e-01,-8.149762112460015107e-04,1.239255675631069538e-02,-2.215315374524207473e-03,2.809539735317230225e-01
-3.280585184681716893e-02,-5.307804513318619549e-02,-2.034011401481276293e-01,-6.647567300213422757e-03,2.896878543562254882e-02,-1.872829818657984619e-02,1.725043803453445435e-01
-6.426349070718281875e-02,-6.259835393281203142e-02,-2.979941059885778953e-01,2.129601340094395417e-03,8.401272450443655893e-03,1.747611643287256622e-03,2.350669652223587036e-01
-7.593765539476815540e-02,-5.608412895949796417e-02,-3.017130746954456155e-01,2.267824004692883984e-03,5.857233172205334945e-03,-5.983860357204981873e-04,2.365809977054595947e-01
-7.642669920750866375e-02,-6.241094592885297609e-02,-3.512452449358468010e-01,1.982226258073000163e-03,-1.547027869417558698e-04,4.142035421310626651e-03,2.821999192237854004e-01
-6.134509880435323748e-02,-6.016874792832449526e-02,-2.889176450812641073e-01,-8.442056161629591955e-04,-1.066549777775749157e-03,-1.543117548450858450e-04,2.281753122806549072e-01
-5.051006647564757618e-02,-5.146744262367623085e-02,-2.155213575466207732e-01,1.992438351495847207e-03,7.494659940261325093e-02,1.758820565004313996e-02,2.118079066276550293e-01
-4.656438336827409263e-02,-5.697434899549988496e-02,-2.888167055203419986e-01,2.358241514846475852e-03,1.184850032124799661e-04,-2.053830132883887087e-04,2.372542321681976318e-01
-3.949761345795391176e-02,-6.077324851757173740e-02,-2.867445337706115427e-01,1.558191341193273724e-03,2.416782549197372552e-04,3.558398315217129143e-04,2.373419404029846191e-01
-5.161853986027331587e-02,-6.248858384928634990e-02,-3.233603978701701243e-01,2.110164778498433563e-03,1.244329888796915501e-02,4.263279956971895851e-03,2.674702703952789307e-01
-4.712017992165339064e-02,-4.857228452625378390e-02,-2.860004240723292845e-01,-3.229878623708648359e-03,4.338864847247163314e-02,-1.460966686105537142e-02,2.510743737220764160e-01
-5.893793697640128948e-02,-5.647261946819830125e-02,-3.525427043322593712e-01,-1.497547563244199225e-03,5.025448820312203302e-02,1.389695586743340538e-02,3.083769083023071289e-01
-5.943682117710953616e-02,-6.300139059687534515e-02,-2.896326296967005609e-01,4.865851942048656127e-04,-1.612180067365029737e-03,6.090595068565145612e-04,2.284554392099380493e-01
-5.306666795343392695e-02,-6.072862627762190546e-02,-2.756530937109600843e-01,4.441719805451709024e-03,3.947454573393680000e-02,-5.672633255586986833e-02,2.495706528425216675e-01
-7.078451888389766800e-02,-7.554978967078608554e-02,-3.913843251854148830e-01,-3.521077501816474720e-03,-1.697000265092695609e-02,-7.810030598392886381e-02,3.471013009548187256e-01
-3.868811422638450404e-02,-6.964172759517807398e-02,-2.698431863195671632e-01,6.241062387978066469e-04,2.641313117757319769e-05,6.956906756420365694e-04,2.173438072204589844e-01
-6.139016274060689338e-02,-6.350772660074088805e-02,-2.864174416395325329e-01,-9.471891697235241625e-04,2.631635898547069223e-04,-3.940151447276001853e-04,2.239835113286972046e-01
-3.627072850172415042e-02,-5.878614309524644865e-02,-2.621923740305359130e-01,2.355950487543040980e-03,5.876205865645321713e-03,-3.625049546983831038e-03,2.159177511930465698e-01
-5.740613242629596935e-02,-5.769983969807593316e-02,-2.899945985846228425e-01,6.032322824184796484e-04,-5.142052645256860784e-04,-1.010938973016375876e-03,2.324524074792861938e-01
-6.068128753114127028e-02,-6.862614171137493280e-02,-3.049930446030577058e-01,2.880552765675171035e-03,-3.553790733822868603e-03,3.260458337383344285e-03,2.406345903873443604e-01
-5.858535478121715268e-02,-5.911760720164885297e-02,-2.903653889655879450e-01,-2.954414301020619497e-04,4.427406430139768688e-04,-2.125212127927718353e-03,2.315454632043838501e-01
-6.434523507578551738e-02,-5.631293589886438022e-02,-3.249093486796323926e-01,-2.894492907781010330e-03,6.118260471579262984e-03,-1.261279050007885379e-02,2.658303678035736084e-01
-6.267112776505115446e-02,-5.151636487611788162e-02,-2.991113703435022142e-01,8.038566410890393406e-05,-5.473686804009877949e-03,-3.971063683232181271e-03,2.424934357404708862e-01
-6.245387313468955814e-02,-7.265683207604514693e-02,-3.293871701340341795e-01,2.068237434641898541e-03,-1.950489086562056263e-03,-8.630975630652961371e-05,2.620271742343902588e-01
-5.838421386037176419e-02,-5.807996696107850521e-02,-2.896400996085592983e-01,1.801936447348755554e-04,1.050205081889497806e-03,8.541585202920794293e-04,2.314202487468719482e-01
-6.523945745200987467e-02,-6.258363337875205712e-02,-2.868908216550099533e-01,6.232218335683243661e-04,3.878535345426211193e-04,4.072172603841829391e-04,2.229958772659301758e-01
-5.436721238408695478e-02,-5.404551278056138330e-02,-2.909099434998269063e-01,1.834256377385614224e-04,4.758269696908196057e-04,3.744678861925212934e-04,2.367062866687774658e-01
-5.584982812527627960e-02,-5.604065849910815078e-02,-2.898509796718694020e-01,1.297414882038514048e-03,1.463260686530764177e-03,1.084527528008587000e-03,2.339378595352172852e-01
-3.893733209211311386e-02,-6.121440793868201946e-02,-2.864946184101363480e-01,-1.043644227530961775e-03,2.489266649574724266e-03,-4.523689996580185503e-06,2.372506707906723022e-01
-6.502298258147896914e-02,-4.850932234861255604e-02,-1.990256870026152203e-01,1.153523151873412853e-02,-1.987562416838328794e-02,-2.841824077404539461e-02,1.563630253076553345e-01
-4.819571555069035451e-02,-5.217054401066838210e-02,-2.894509073766084462e-01,-1.038966120142855408e-03,-5.382437804232328635e-04,6.556251357963131712e-04,2.393038123846054077e-01
-5.529393502155252604e-02,-5.624428086721489084e-02,-2.901576743440594797e-01,4.242021199555451056e-04,-2.204553189294410054e-04,6.823105761678150555e-04,2.343944460153579712e-01
-6.188078912063447318e-02,-5.206442849994680211e-02,-9.243128822319375548e-02,1.890885238110357955e-03,2.999321674278754291e-02,4.744498483849372839e-02,1.038853898644447327e-01
-4.698933670351435749e-02,-5.013194197169305866e-02,-1.159256625487682796e-01,9.802438459778730403e-04,4.133777950618403030e-02,4.948552419929071189e-02,1.304654031991958618e-01
-6.341273729899998823e-02,-6.712372090698379146e-02,-1.419910196388050605e-01,8.456242864772010176e-03,2.855046720114971445e-02,1.587010353234444976e-02,9.649977833032608032e-02
-6.182276573822834131e-02,-7.199649054304088636e-02,-2.927485718029182449e-01,1.088873082245424631e-03,-9.713982901499338633e-04,2.002839903253725035e-03,2.260514944791793823e-01
-6.566563128310715092e-02,-6.027245746473973431e-02,-1.265589739294366578e-01,5.784250930548650617e-03,2.458490084941259216e-02,2.789790687254196239e-02,9.118112921714782715e-02
-6.112755324253493772e-02,-6.540315866371902709e-02,-2.977523980161981276e-01,-1.639254263861035813e-03,3.528852088544941635e-03,1.289223565791487378e-03,2.346237152814865112e-01
-6.464305844926619693e-02,-3.492279534648246031e-02,-2.797661440571709290e-01,3.843208729073532858e-04,3.224863823885972518e-07,1.754137366093615018e-04,2.314201444387435913e-01
-5.762113066651611271e-02,-5.785586054028633851e-02,-2.886298376535807453e-01,-1.265329510164396988e-05,-6.362872642316961223e-04,8.071777335026026918e-04,2.308982908725738525e-01
-5.071795939341434967e-02,-4.892879305974615067e-02,-2.912816733107727041e-01,1.360556944630428094e-03,-3.082173923871278426e-04,3.912458410607130273e-06,2.414753586053848267e-01
-4.894370259561950376e-02,-5.087360895401564498e-02,-2.916658166618653070e-01,1.315336807190057916e-03,-9.280565389705998326e-05,-2.609378972255856424e-04,2.417741417884826660e-01
-5.283604199438689253e-02,-5.438397520244972472e-02,-2.907830343725447131e-01,1.239577105173134694e-03,-7.539628897474738882e-04,-2.891205708883171121e-04,2.371906489133834839e-01
-5.096078439058066012e-02,-4.983611949346365699e-02,-2.911573197674905966e-01,8.022149715485812644e-04,-5.685156176499295885e-04,-3.741775349487922462e-04,2.407677322626113892e-01
-5.009167078882514890e-02,-5.057547967094229435e-02,-2.922552360941266802e-01,1.268908011176283980e-04,1.521698996534296711e-05,1.088910252462664122e-09,2.419221252202987671e-01
-4.747191646186320335e-02,-6.121238855803579071e-02,-2.909609035731086091e-01,-7.951521493063316544e-04,3.044849626377232280e-03,4.406235010897112414e-04,2.369817048311233521e-01
-6.537100994112990393e-02,-3.486133994980242234e-02,-2.777346605889808306e-01,-3.795873199665089322e-04,1.145070866302028416e-04,2.123823368310867425e-03,2.291774600744247437e-01
-6.389897406107980515e-02,-7.262860334048650002e-02,-1.577176846917351660e-01,-7.352543126895623796e-03,-2.702405938954749801e-02,1.658560233548216903e-03,1.020807772874832153e-01
-5.009560258410064582e-02,-5.110683456909353994e-02,-2.918432091178688181e-01,2.923352421556533434e-04,-1.224685634604957439e-04,-3.492899860338778077e-05,2.412442117929458618e-01
-5.736566595115044631e-02,-7.696204066420259116e-02,-2.965057146851461378e-01,-6.304148109231896401e-04,-4.698390782018177958e-04,1.418241072698268185e-03,2.299860715866088867e-01
-7.365204898479474349e-02,-5.925544851727219953e-02,-2.913732283156398317e-01,1.278192819629456146e-03,1.699483368059006129e-04,-1.589532736812644806e-04,2.252760082483291626e-01
-5.974211412024255097e-02,-6.017400525400803946e-02,-2.877699636188836285e-01,-1.085603467281679910e-04,1.110333881262498979e-03,-1.054830117835889791e-03,2.278277277946472168e-01
-6.187648619129976213e-02,-6.164349771540308942e-02,-2.875878815195042626e-01,-9.979165558564461629e-05,8.427584511187150669e-04,-5.028712377961277362e-04,2.258344441652297974e-01
-5.782509326181867193e-02,-5.984046543893337122e-02,-2.893718538895562742e-01,-9.720773487075098180e-05,8.474031265129696334e-04,-1.340934425164549190e-03,2.305621206760406494e-01
-7.112712329023140878e-02,-4.540080344313045246e-02,-3.038924366868467342e-01,9.224243993044823047e-04,-4.836042239458742363e-03,-3.762933801311812293e-02,2.552456557750701904e-01
-5.961978669729750546e-02,-6.014033462668337549e-02,-2.898355638508938181e-01,2.214792374093397305e-04,7.695165477778768059e-04,-1.355135232861284875e-03,2.299721091985702515e-01
-6.043827550544388083e-02,-6.040605352929798166e-02,-2.886948744503042286e-01,7.510835458246426909e-04,7.026457121036564903e-06,-1.013186179757188856e-03,2.282831668853759766e-01
-6.284933066721812289e-02,-4.102130691800513762e-02,-2.777611440708652180e-01,5.025995647157130083e-03,-2.931322008048476910e-03,-9.400993135538888990e-03,2.274232804775238037e-01
-5.904971944343816170e-02,-7.099217566544757663e-02,-2.910913231820063674e-01,-9.335919549156674810e-04,-8.990521012280013611e-04,7.348638849495969880e-04,2.263215482234954834e-01
-6.006697744801858807e-02,-6.040898278572714997e-02,-2.883714151803685177e-01,-1.016179092127165139e-03,-2.159261193854672975e-04,6.062992871130671571e-05,2.281407415866851807e-01
-6.230800051996329691e-02,-6.524128304306825443e-02,-2.872516212139709646e-01,-9.200795340019930942e-04,6.017874493777315356e-04,1.875380791714929081e-04,2.234997600317001343e-01
-6.027164750085739486e-02,-5.900638381855741188e-02,-3.030212945612275610e-01,-5.712823993999421521e-04,-7.642558085503308243e-03,-5.135344041069249583e-03,2.439087033271789551e-01
-5.799233001587364433e-02,-6.719433357677456753e-02,-2.958642909222835016e-01,-2.149389936299363809e-03,1.073721343285223735e-03,-1.834916338268518686e-03,2.334657758474349976e-01
-5.882744898825177648e-02,-5.651416813095443137e-02,-2.925576932373001871e-01,7.167622169154630419e-04,1.145883345814413881e-03,1.190669292732548807e-03,2.349161505699157715e-01
-5.817948761195630702e-02,-4.924404738108120738e-02,-2.902383626384770765e-01,2.336664177948383908e-03,5.309586062876728654e-05,-2.617177181221577286e-03,2.367311716079711914e-01
-6.433717471968150581e-02,-5.480695915515580718e-02,-2.927608190732792215e-01,1.704737218029601757e-03,-6.775210001336027035e-04,1.010983424993889927e-03,2.333629727363586426e-01
-5.827888538178854771e-02,-5.710100277781250677e-02,-2.923675248966258744e-01,-9.706909008544673759e-04,2.759179155742262461e-03,-1.186794296522112116e-03,2.347434759140014648e-01
-5.220348499843086021e-02,-5.126661743845081776e-02,-2.868298019454593728e-01,-3.068935363958965896e-03,-5.846844047629798889e-04,8.934948024549603301e-04,2.351635098457336426e-01
-6.078202771699309226e-02,-6.885931279232526681e-02,-2.886784309322059650e-01,-8.359100777385568412e-04,-4.946956131109806788e-04,-2.226419005257995309e-04,2.239736765623092651e-01
-5.008167943656115229e-02,-5.155510590192552423e-02,-2.915278711117809674e-01,-2.632350998096525448e-03,4.527710085044753686e-04,2.117326339646898113e-04,2.407575994729995728e-01
-5.388990943358798469e-02,-5.316693475271620783e-02,-2.905120133851112341e-01,-2.095171503373798537e-04,7.070587310748009495e-04,-6.109339326520273582e-04,2.369902282953262329e-01
-5.059088200261077639e-02,-5.112888770842510811e-02,-2.915608203118582598e-01,-3.943972469467222383e-04,4.346817220895018746e-04,-2.253670922178196696e-04,2.407038509845733643e-01
-5.028679925041146248e-02,-5.172602060174023852e-02,-2.908400892496747492e-01,-1.784973921484729695e-03,-1.662634898983391166e-04,-8.017107683302413012e-05,2.398570626974105835e-01
-5.517565342319008526e-02,-4.666075632875391066e-02,-2.874009610963951244e-01,-4.562838434689271173e-03,-6.113155461040927982e-04,4.290490302226400150e-04,2.367331832647323608e-01
-4.753320155785464851e-02,-5.320961158849890626e-02,-2.752022940147814123e-01,-7.584263441718156785e-03,-2.846789992020096888e-03,5.702369520541811579e-04,2.253240942955017090e-01
-4.527449791564955306e-02,-5.314088791842483395e-02,-2.865946756317577782e-01,-3.741180481157862885e-03,-1.670448327233959272e-03,-5.626407377492425492e-04,2.375927120447158813e-01
-5.678318446820365684e-02,-5.543658599413006649e-02,-2.902402155933032635e-01,1.354367006147932408e-03,-1.256085917909621676e-03,8.705921995298865389e-04,2.341599464416503906e-01
-4.576694954148487204e-02,-5.372013844316508857e-02,-2.865014368850221094e-01,-1.180029090330527103e-03,-9.507111085451438190e-04,-1.806633300882286839e-04,2.368728071451187134e-01
-6.703515604353593726e-02,-6.125089832157010195e-02,-2.884374405727052615e-01,2.325680332963273814e-03,-1.423179377710774660e-04,8.286352289838068343e-04,2.243912369012832642e-01
-4.513196766976915186e-02,-5.789744925788917196e-02,-2.881255292237660526e-01,-5.071532912634751748e-03,-1.292118349808838232e-03,6.500160927383180067e-04,2.370450049638748169e-01
-6.075721353859700469e-02,-3.789589882484520333e-02,-2.832609169261914306e-01,3.634730787390952865e-03,7.629098881491177099e-04,-1.503034874343034920e-03,2.348732054233551025e-01
-5.837532744171732013e-02,-4.473182924473219357e-02,-2.862340370659893773e-01,4.409079723231281930e-03,1.211340591402115634e-03,-6.097698909799991124e-04,2.351135164499282837e-01
-6.281663982571031313e-02,-7.884020053345835999e-02,-3.644032770163476154e-01,-1.520202592946347849e-03,-2.998700596895762394e-03,8.532395362871103561e-02,3.290185332298278809e-01
-5.959617558546995153e-02,-7.854295840667895046e-02,-1.910553538920806427e-01,-4.286963659838596494e-03,-3.859144472436394375e-03,8.706659805325441155e-04,1.234984025359153748e-01
-5.811915563528322060e-02,-4.036130121789482939e-02,-2.849922611962559804e-01,2.481537108464978124e-03,8.238485918784852055e-04,-2.951431615322732511e-05,2.362965047359466553e-01
-6.114682747442150290e-02,-3.781380212753857051e-02,-2.774430852660189628e-01,3.540277077758565306e-03,-6.338796565586975532e-04,-2.453217014589072296e-03,2.289808094501495361e-01
-4.963894689930115067e-02,-7.586706250920022265e-02,-2.340082547767965981e-01,-4.466982112652833552e-04,-1.834077537324713732e-03,-8.056641376160654511e-04,1.727915853261947632e-01
-4.946301406730499450e-02,-5.434675584598808173e-02,-2.903817149825110300e-01,-4.100561344337949610e-03,-5.541602023720493958e-04,6.020969091286088645e-04,2.386242598295211792e-01
-5.775224504039144779e-02,-6.674770712754890534e-02,-1.747968029313055616e-01,-6.160281388827051592e-04,8.455279755509430631e-03,-6.890157738160487821e-02,1.648798733949661255e-01
-5.873199821538920007e-02,-5.823431390626142290e-02,-2.881198450316572179e-01,-1.463382392465332094e-04,2.280734361355993116e-04,2.000458957637739170e-03,2.296637147665023804e-01
-4.873619820997646124e-02,-5.052048152928802216e-02,-2.911788489187734363e-01,-1.085489904176490869e-03,2.298156694107153505e-05,-1.298547751365666889e-04,2.415628731250762939e-01
-4.490568745502540593e-02,-5.304623451194465100e-02,-2.890247589931471683e-01,-2.665142869235657963e-03,-4.901508525533449390e-04,6.162735734021606866e-04,2.402005344629287720e-01
-5.641267310887543296e-02,-7.324261238428841914e-02,-2.929804084634257677e-01,-4.381908290821232444e-04,4.467728025285420046e-04,-1.214005587540849078e-03,2.286300808191299438e-01
-7.126745021188853058e-02,-6.613782233987329506e-02,-1.787851099496216012e-01,3.534460319893025816e-03,-4.148511117779504591e-03,-1.823078768805003885e-02,1.149959936738014221e-01
-4.879454149095506510e-02,-5.352091618890000846e-02,-2.901291980149613425e-01,-1.057449853342331495e-03,2.470437331065803918e-04,-3.909919504258613958e-05,2.390139251947402954e-01
-4.833534696931958419e-02,-5.293203872364274365e-02,-2.893354815166650496e-01,-6.364535403254720138e-04,1.853494660838273390e-04,5.740193253204836806e-05,2.387377619743347168e-01
-6.282489102668355196e-02,-3.709277579087344456e-02,-2.818139148381164083e-01,-1.719103251612691657e-03,1.042564160747991688e-03,4.179733908946318532e-04,2.329507172107696533e-01
-4.041653954924617764e-02,-5.746699050097586747e-02,-2.858104293094760884e-01,-1.758661734404853893e-03,-7.718878885890863902e-04,5.341467021279791214e-04,2.373535782098770142e-01
-4.140968024225294419e-02,-6.561241022161673486e-02,-2.854042650740370446e-01,-4.902780024579318427e-03,-2.391646416718943083e-03,1.433164461810991800e-03,2.330434024333953857e-01
-5.989376555198148294e-02,-6.742357397956474929e-02,-1.888485414057700928e-01,-5.719000221739279190e-04,-4.290379326849745600e-03,2.965118687559930091e-03,1.256885230541229248e-01
-3.693483321661458763e-02,-6.294437407409653185e-02,-2.835603619875107784e-01,-1.514235850466554663e-03,-8.954357016535390706e-04,4.965664073083731617e-04,2.347254902124404907e-01
-5.675711335290094250e-02,-7.330844196336842866e-02,-2.099399860491322212e-01,-4.258833826624180627e-03,-1.796942911868521647e-02,6.781981073397544413e-03,1.495481878519058228e-01
-5.308204624547441242e-02,-4.924511182484433980e-02,-2.902520216100045736e-01,6.561995507747309412e-04,2.869102835843497174e-04,6.714090963425747415e-04,2.391175776720046997e-01
-4.001525464620327155e-02,-6.117274707667950950e-02,-2.796744296069536562e-01,-4.571025807617107133e-03,-3.334966131368923090e-03,4.280318672637020922e-04,2.300221025943756104e-01
-6.275173842554263026e-02,-6.147018856581849822e-02,-2.887954066539807352e-01,2.104726784899323393e-03,-7.035089041938620774e-04,1.552773389339525594e-03,2.267356961965560913e-01
-4.271537957687623899e-02,-6.104045471968436165e-02,-2.873056008805781047e-01,-1.447902588785898335e-03,9.849074636368842367e-04,-3.864420057042211370e-04,2.359824031591415405e-01
-5.665840208375244602e-02,-5.545161778174087508e-02,-2.917937220195409576e-01,1.594905410492275348e-04,1.527242758463688392e-03,-2.806092194847969404e-03,2.358061224222183228e-01
-4.033980769191640448e-02,-5.882985443179603036e-02,-2.884467551960218090e-01,-5.036897367882989078e-03,6.293272484345519349e-03,-6.980725408741563290e-04,2.398078739643096924e-01
-5.269269732850824506e-02,-5.997789437099292076e-02,-2.927460885368513566e-01,-5.404299319683766433e-04,-5.007425848715949326e-04,1.874729009452717580e-03,2.365206927061080933e-01
-5.453995720158930083e-02,-5.903823844967355516e-02,-2.934439687216111592e-01,-1.788531874173640698e-03,-1.325591402692876970e-03,1.468289023151787137e-03,2.367320060729980469e-01
-5.452036743183970302e-02,-6.164342726779444004e-02,-2.934630461468472618e-01,-2.010586549586191631e-03,6.225958500769261531e-04,2.929397329327132656e-03,2.355448454618453979e-01
-5.909052143054514816e-02,-7.362267549960430091e-02,-2.932706889787253246e-01,-4.392974829271839251e-04,-5.054795860774966227e-04,-1.215285103340696220e-03,2.272755354642868042e-01
-3.946680581125303067e-02,-6.689248372402925580e-02,-2.748024378556561120e-01,-5.711380691089393887e-04,-1.257517254145823493e-02,-2.992547303097691934e-04,2.239563316106796265e-01
-5.970927670689973876e-02,-7.074979959495023007e-02,-2.931535947698095113e-01,-9.481279238372935549e-04,-3.854607369433533590e-04,-2.526116334493132970e-03,2.281733602285385132e-01
-5.745814711818036935e-02,-5.538413633221853094e-02,-2.906597764740087575e-01,-8.940642969650379251e-04,1.544356170111842999e-03,-3.340160623493803899e-03,2.343373298645019531e-01
-5.489908578627844538e-02,-5.888359949308341612e-02,-2.984086003170560164e-01,-2.338249812465454866e-03,4.573474300660741211e-03,4.676563657469063467e-03,2.418413907289505005e-01
-3.964946781156646061e-02,-6.616898826111794474e-02,-2.673403416829340795e-01,3.648525508773428020e-03,1.270456980922383440e-02,1.395708726518841243e-03,2.168828397989273071e-01
-5.395816313662285535e-02,-6.033823589095128892e-02,-2.942509535175259483e-01,4.405139000340782063e-04,6.711823421142410016e-04,1.180865882133287550e-03,2.371800243854522705e-01
-4.561456676491670859e-02,-5.629724891715552626e-02,-2.876443513689275200e-01,1.086635235210125106e-03,-6.300317171726273549e-04,3.864095397798505299e-04,2.368801236152648926e-01
-5.379708828653734232e-02,-5.592858019577032214e-02,-1.748482530283789194e-01,-9.337928060469936897e-03,4.292385240686559522e-02,-5.727905085185192036e-02,1.732961088418960571e-01
-4.650330019332833686e-02,-7.405689687924635334e-02,-2.086401769977194176e-01,-9.701578486964032772e-05,1.845309990516859691e-02,3.206525187901761425e-03,1.537287831306457520e-01
-3.963963123204514161e-02,-7.010988924385888610e-02,-2.893102605306278607e-01,2.804468346507787806e-03,9.055324106980679535e-03,3.441235290699329579e-03,2.365617305040359497e-01
-3.870591925088555374e-02,-6.405607127738630058e-02,-2.656298786180630866e-01,-3.339984418189672830e-03,1.007486167770201002e-02,-1.054941426843313684e-02,2.169248759746551514e-01
-6.048370532155340068e-02,-5.576229373730479111e-02,-2.363187943950902092e-01,-2.242433270218048731e-04,-7.208360806072855453e-02,-4.459364328999897154e-02,2.309210449457168579e-01
-3.767858591188225081e-02,-6.737859941791800311e-02,-2.564997613316864489e-01,-4.019481397948396553e-03,9.666162608611410245e-03,-3.518662022690918680e-03,2.064745128154754639e-01
-6.003081103891441672e-02,-6.341271577407972537e-02,-2.904660431606592708e-01,-1.230266145333333734e-03,-1.357341107591759476e-03,-8.957999139586323746e-04,2.287902981042861938e-01
-6.055557413727902238e-02,-5.810311338249941893e-02,-2.999990147495699144e-01,1.180386870479764507e-03,-3.346542237137261743e-03,1.112328053599555885e-03,2.407652139663696289e-01
-3.479754613647290107e-02,-6.395393289804161829e-02,-2.802190575777084858e-01,-2.043303779625426557e-04,2.129286465884554984e-04,3.172068381830737277e-04,2.322213798761367798e-01
-6.307251765786431319e-02,-6.324652949117920420e-02,-2.867107166780291649e-01,-1.607342969000776802e-04,2.499844458285843608e-05,4.915399988954879831e-05,2.235514372587203979e-01
-6.325625609489830825e-02,-6.242871770880127624e-02,-2.871913473618045165e-01,1.412743533088753421e-03,-1.177924208230776378e-04,1.704821627286629473e-05,2.243634462356567383e-01
-6.067217700236748890e-02,-5.797189562262593243e-02,-2.893410162273944986e-01,4.075568759340958175e-04,-2.010075490832025254e-03,-1.452664954545255117e-04,2.300584316253662109e-01
-6.090367566665119692e-02,-6.009314685248670629e-02,-2.885366319794276935e-01,1.499122332870908439e-03,-1.656419959009752373e-03,1.836217942683540834e-03,2.280943095684051514e-01
-6.350111436632553674e-02,-6.321218902335551393e-02,-2.865951505803613353e-01,9.748145374164759124e-05,1.747799282753494251e-05,2.148045607756128068e-05,2.232387065887451172e-01
-6.192543325934762866e-02,-6.167806579977316850e-02,-2.875037399968376484e-01,-4.004236817470830469e-05,-4.599289958117250363e-04,8.327042314003928539e-04,2.257081121206283569e-01
-5.345815967033037963e-02,-5.515875022906899239e-02,-2.907691786464807748e-01,-6.793658854198249405e-04,3.105089291747017283e-04,1.565038403468335063e-03,2.364843785762786865e-01
-6.324463070881504445e-02,-6.440384758978322244e-02,-2.870593656455829867e-01,1.456835244252753514e-03,-7.070110733813494020e-04,1.502681426924647287e-04,2.232551574707031250e-01
-7.170817218763281264e-02,-5.096582849778326374e-02,-1.949954536813331696e-01,3.845999314971999122e-03,-3.820030223668244816e-03,-1.670643728918429910e-02,1.382488161325454712e-01
-5.122296992682978667e-02,-5.113399907199409067e-02,-2.913886769597762161e-01,-1.662477286392633228e-03,-1.920836068247938210e-04,-2.167387996368059730e-04,2.402279824018478394e-01
-4.983107808796360949e-02,-5.086288741676614489e-02,-2.909853197846281603e-01,-1.060953085015758652e-03,5.700895521529112932e-05,-1.918193410070810536e-04,2.406472563743591309e-01
-4.935286077985077957e-02,-5.091173754127922835e-02,-2.915821961010165997e-01,-1.124433808433724247e-03,-2.624608287008783772e-04,-1.600600131924117311e-05,2.414619624614715576e-01
-6.165880796630025806e-02,-3.640525127178539933e-02,-2.859148318496960162e-01,-2.432026628659842500e-04,5.908454533044809730e-04,-2.366672053164331664e-03,2.379281371831893921e-01
-4.936746041568881860e-02,-5.081584917345045860e-02,-2.909232452925171186e-01,-1.105816369897831466e-03,-5.341016236250396712e-05,1.572931925714449724e-06,2.408424913883209229e-01
-6.057313023293185716e-02,-7.593771196231255405e-02,-3.629518099434638767e-01,-6.898513746249249458e-04,1.208793015285428325e-02,-4.702974944961986481e-02,3.067542910575866699e-01
-5.109594625971214388e-02,-5.102957435498220451e-02,-2.905617539686332074e-01,-1.643419689222031790e-03,-2.903649569219223306e-04,2.224143042041832621e-04,2.395167499780654907e-01
-3.666680030732144546e-02,-6.349928924604665570e-02,-2.839677486637166015e-01,-1.467315243702742083e-03,1.126346090855513508e-03,-6.592714373786119630e-04,2.350608706474304199e-01
-3.573718012199826599e-02,-6.509217118598049912e-02,-2.829258186166664912e-01,-1.357566382079812605e-04,-8.560871482080011606e-04,1.143901209684383311e-04,2.339017093181610107e-01
-3.597059228472711256e-02,-6.517113440386065881e-02,-2.779825320314465165e-01,2.250329952633450988e-03,-2.792507931545512231e-03,-7.880561861124689470e-04,2.289017736911773682e-01
-3.869117806023156247e-02,-6.099612935787743218e-02,-2.838528159907475201e-01,-1.290288291141785705e-03,2.237582249452798320e-04,3.897210035987493820e-04,2.348169982433319092e-01
-3.751931433858773923e-02,-6.381859019210320283e-02,-2.841277627954965079e-01,9.717504953101242533e-04,-6.601981250052821370e-04,-1.882133325452377205e-04,2.345762103796005249e-01
-5.145729229006706928e-02,-4.934012113064129013e-02,-2.916291457288329170e-01,-7.213053036080851717e-04,-6.478089422469254376e-05,-2.289103558574763077e-05,2.412406653165817261e-01
-5.874401757186636930e-02,-4.561914145307370549e-02,-2.897998675679526182e-01,-5.883774492770847274e-05,-2.953659654320962618e-04,-3.270058070426284328e-03,2.379579842090606689e-01
-3.561506901683458848e-02,-6.454623438694689908e-02,-2.765494554849606823e-01,1.305641475915535893e-03,-3.699232024920505544e-03,-1.339745888342950999e-04,2.279519736766815186e-01
-7.024065741957320752e-02,-6.393523222787231286e-02,-7.943194144422138780e-02,-8.065595482691400361e-04,6.007326775562469440e-02,2.845903892139428279e-02,1.159322559833526611e-01
-7.310640433168741348e-02,-7.832391774488926817e-02,-1.405200199869704736e-01,-6.329470123408048338e-04,1.298417553880599519e-02,1.114444672037938778e-03,6.878067553043365479e-02
-4.859663636772944273e-02,-7.047534011525359576e-02,-2.181449463511115350e-01,-7.505936805079532932e-03,1.536215007029838840e-02,-1.274357480653155348e-03,1.624736487865447998e-01
-6.486184901732629238e-02,-7.560371901679205364e-02,-2.110426915678892401e-01,-3.018365610142292876e-03,1.840641884516185101e-02,6.774501390837148716e-03,1.452424675226211548e-01
-5.081253312184921822e-02,-6.298088167175214247e-02,-2.278774258251946294e-01,-1.130307552917598178e-02,2.029877689954432199e-02,-1.533743358527983516e-03,1.759883910417556763e-01
-6.401623073593887270e-02,-3.428052708291712269e-02,-2.843609370287019100e-01,-5.735186356306764231e-04,4.252047504110970208e-04,1.414610586002173175e-03,2.366339713335037231e-01
-5.945619255749977350e-02,-7.282208455876779118e-02,-3.366738057707867049e-01,3.139006571663661028e-03,-5.451518117521969402e-04,4.360618699467297583e-03,2.709437012672424316e-01
-5.462620754784798527e-02,-4.302569165264349960e-02,-2.803647198947059049e-01,-5.736524688279958858e-03,-1.672004313152944052e-04,-2.554875012038109730e-04,2.319701164960861206e-01
-5.231292714235021013e-02,-6.970632068486543043e-02,-2.218846348120935286e-01,-5.579533344209722592e-03,1.154726832230210977e-02,-1.455315387447281500e-03,1.631178408861160278e-01
-7.875099561578699503e-02,-5.849861144706547389e-02,-3.211974585918286884e-01,7.645561886882387562e-04,2.359266129662628345e-03,4.641090643586957658e-03,2.533448934555053711e-01
-6.165899810612623932e-02,-7.405686452646416396e-02,-1.719073987104681456e-01,5.872601324089735814e-04,2.330148864231288211e-02,-4.464671338386046748e-04,1.121252998709678650e-01
-7.434193839678372717e-02,-7.223100743427135484e-02,-9.792556855259543225e-02,-3.990807313699502325e-04,8.462945037421552331e-04,-1.550192473160329383e-02,3.652372583746910095e-02
-6.069423639074084109e-02,-5.897321916032474687e-02,-2.891027579385964663e-01,5.483474856813172395e-04,9.304569539097336164e-04,-5.337523291721188922e-04,2.292833626270294189e-01
-7.361936484435130379e-02,-7.537035705818383169e-02,-1.376884109698464365e-01,1.016972748417782494e-03,6.608892119103615750e-03,-5.218105647234341869e-04,6.427033990621566772e-02
-5.639642199280775481e-02,-6.029284197385410826e-02,-2.936937518816316595e-01,3.724566274984757739e-04,4.263870671244863846e-03,1.268768342592735410e-03,2.355002760887145996e-01
-7.737181183131118523e-02,-7.427440563055315303e-02,-1.520492890968733468e-01,3.742549441843333368e-05,6.006200790357766814e-03,-4.869454678225765103e-03,7.744022458791732788e-02
-7.342664456096320569e-02,-7.731184595550505412e-02,-1.541312535201311007e-01,-7.934556871486958931e-04,6.338978713985959218e-03,-2.931556476837477582e-03,7.976837456226348877e-02
-5.875343976537603097e-02,-7.589337065038861962e-02,-2.965756870921516519e-01,1.021988064012235766e-03,-9.476770080081076998e-04,1.028156290682550635e-03,2.297519147396087646e-01
-3.393550385956933813e-02,-6.455772182861302388e-02,-2.806522681067207259e-01,-9.691597767593482845e-05,3.373954140544959757e-04,-4.565993805530661341e-04,2.329224348068237305e-01
-3.584673054611814402e-02,-6.358454899529858428e-02,-2.825273447635024970e-01,-1.458663175679781286e-03,-2.756897611555424697e-03,5.373883628682299423e-05,2.341100722551345825e-01
-3.689952559174233815e-02,-6.254950298580259915e-02,-2.842072364784437033e-01,-1.207649181496912210e-03,-9.436862190898986794e-04,2.948604164351880698e-04,2.355480790138244629e-01
-3.498634094045952048e-02,-6.375930540795109180e-02,-2.748584738053925780e-01,-1.649482465772508961e-03,-3.632506196974441721e-03,-2.812802826774123653e-04,2.269640415906906128e-01
-4.475754252760234808e-02,-5.685260721949397800e-02,-2.817080666345266327e-01,-5.274506703514925121e-03,-3.333384650332123222e-03,1.011507353206896487e-03,2.313995957374572754e-01
-5.602255730094639341e-02,-5.062662588437516487e-02,-2.895127724451974638e-01,-1.122966239039316100e-03,-1.183613036339131790e-04,4.758207319782903257e-04,2.362439334392547607e-01
-4.570845409750251553e-02,-5.399243440951859152e-02,-2.895583040795261520e-01,-1.554272786589393652e-03,-4.672964461323878341e-04,5.310464498037004144e-05,2.398316860198974609e-01
-4.344154013808151915e-02,-5.599017999726739470e-02,-2.866018618308370236e-01,-1.007529244772704339e-03,-7.219606596412413754e-04,3.362364876784535665e-04,2.371455878019332886e-01
-6.433165028547643827e-02,-3.589932462586123418e-02,-2.824603758072464776e-01,5.705402624915585684e-04,7.675732220297026116e-06,-8.777472469666006095e-04,2.336530238389968872e-01
-4.144955567972904986e-02,-5.755240245593910842e-02,-2.862417077602725235e-01,-1.811498811167992079e-03,-2.270034417558609852e-05,3.514701744186107335e-04,2.371726483106613159e-01
-6.305051050516272126e-02,-3.674238423290988875e-02,-2.497783464693676958e-01,-3.007161345810652306e-04,-2.891682903748700028e-04,-7.415991724922914481e-03,2.015871405601501465e-01
-6.581532216011280745e-02,-4.795276818216855780e-02,-2.110616044125696034e-01,-1.219631628950217745e-03,-1.035764135050121313e-04,-1.465325617351914689e-02,1.570307910442352295e-01
-5.790087223296103147e-02,-5.629921037734908484e-02,-2.903865050367539502e-01,8.808906532546007537e-04,-4.898505899800119009e-04,2.371290669153572198e-04,2.332974821329116821e-01
-3.913393599835832126e-02,-6.442046108964294415e-02,-2.728211287605493141e-01,3.018204067136211546e-03,-8.694695063282820288e-04,6.938818179360464007e-04,2.221958935260772705e-01
-5.839902956897541353e-02,-4.160052264716834758e-02,-2.835104060363628498e-01,1.697360762140995251e-03,-5.817642352886509983e-04,-2.098077572262866980e-04,2.339842915534973145e-01
-6.282960821259442330e-02,-3.683620154174785388e-02,-2.814457904897995633e-01,1.972446989483423677e-03,-6.412803274283409910e-05,1.941822118369265185e-04,2.327295988798141479e-01
-5.761738343018146802e-02,-4.081101876522030825e-02,-2.843549951149679789e-01,2.531724295327344564e-03,3.914061560212243819e-04,1.542176035655749107e-04,2.356327474117279053e-01
-6.019471140268284337e-02,-3.886756747363645514e-02,-2.828115663220588383e-01,1.106035620767973487e-03,-5.849695249674405877e-05,-1.247631826800483894e-03,2.340282946825027466e-01
-6.536797333002467014e-02,-3.495786556538232892e-02,-2.794024875479803049e-01,2.794197593041316575e-04,2.777025618396972758e-04,1.248974446627060231e-04,2.307485044002532959e-01
-6.254172164603191697e-02,-3.656691686426255528e-02,-2.815279525847428910e-01,2.440917370985042079e-03,-4.225368414815371685e-04,-3.747917736128874786e-03,2.331916242837905884e-01
-6.188784873420381805e-02,-3.560421012816257502e-02,-2.762938809789906025e-01,2.664359816661440554e-03,-3.386444498530769140e-04,-4.018343426860910943e-03,2.288366854190826416e-01
-5.556807924858679637e-02,-4.111388882810243506e-02,-2.864111333119890301e-01,-1.178054476695966114e-03,-3.957200811537421050e-04,7.420719320688099006e-04,2.384121865034103394e-01
-5.783709355650867856e-02,-5.077286328902522183e-02,-2.898991733437663587e-01,-1.005821907639761151e-03,-1.048638234223692265e-03,-8.604886810371449373e-04,2.356917709112167358e-01
-5.773179356885288493e-02,-5.067675695692208659e-02,-2.893307187701463778e-01,-1.007095592921929388e-03,-8.316768762493695561e-04,-9.502689238866359129e-04,2.352224439382553101e-01
-6.503180471359892856e-02,-3.503544910266752355e-02,-2.796789750827228804e-01,2.419792211739539838e-04,-3.914423579289768597e-04,8.968711271492923825e-05,2.311114072799682617e-01
-6.335246780779599240e-02,-3.578180501186613294e-02,-2.813553668938067465e-01,5.997265546593894599e-04,8.819461671041549920e-05,-1.219236875883973701e-03,2.330267131328582764e-01
-6.171892828262534603e-02,-6.187671036026377858e-02,-2.884758382064894211e-01,-1.110901856695650693e-03,5.948901689411033398e-04,-3.694917023409426506e-05,2.266885787248611450e-01
-6.013354201228028606e-02,-6.274221043389939523e-02,-2.883161474117711398e-01,-5.528701286637383115e-04,1.180028991258231380e-03,8.381885991088223586e-04,2.269053906202316284e-01
-6.306073021658045730e-02,-4.630773495743445434e-02,-2.909587353940134014e-01,-6.738152789121224819e-04,-1.250829597054967275e-03,-3.601227763305313301e-03,2.368144840002059937e-01
-5.663466444947910794e-02,-5.239416375990500752e-02,-2.326915981123195143e-01,-1.088560014120916637e-02,2.909394818217267767e-02,-3.159982964805772843e-02,1.940389275550842285e-01
-6.218282574213919445e-02,-5.866635338161080293e-02,-2.902349357842606836e-01,-6.848127757496414196e-04,4.714928807807095478e-04,1.165735636059067604e-03,2.298438996076583862e-01
-6.028718363121561563e-02,-5.978328859902742876e-02,-2.926332235967222251e-01,-6.112085179437315441e-04,-1.250741141707267974e-03,-6.018818711235687937e-05,2.326109111309051514e-01
-6.004336800005088959e-02,-6.028569372322514774e-02,-2.901206686729224660e-01,-4.209252456459420632e-04,1.296817776356996941e-03,1.723951582249633749e-03,2.299877405166625977e-01
-4.854728019659600158e-02,-5.179914798535451698e-02,-1.582502043731612573e-01,-3.961271196210862378e-03,-2.982298613027978620e-02,6.499837115195762627e-02,1.645546704530715942e-01
-6.651554493084393949e-02,-5.532681111406398400e-02,-1.628895882838685416e-01,-3.016613680427069309e-03,-2.309356379787844138e-02,6.532306581915352239e-02,1.578606814146041870e-01
-6.548369108469608013e-02,-5.278744258182822835e-02,-2.780928987558803911e-01,-2.915084474447230713e-03,4.607874695191628252e-05,1.702571479941383109e-02,2.212653011083602905e-01
-5.208930397940732260e-02,-5.377475256649101587e-02,-2.820808445867066805e-01,-1.581366672487572594e-02,-2.396450042800961355e-02,4.092136021730387319e-02,2.449654936790466309e-01
-6.835929345678568025e-02,-6.081414228862130900e-02,-2.909794913079633005e-01,-3.986331116235380121e-04,-2.557907784076700699e-04,4.111688794759849356e-04,2.264896631240844727e-01
-5.901528317198886930e-02,-4.833976742017685735e-02,-2.912235703196663361e-01,6.612462332235000736e-04,9.490207347183458051e-04,-3.100517055065947578e-03,2.377949804067611694e-01
-5.652608332408939895e-02,-4.413925991035860807e-02,-2.892298424361351428e-01,1.090482679530968644e-03,2.536100145610259752e-04,-8.381659913273765061e-04,2.391501665115356445e-01
-5.820598594669459946e-02,-5.163495149309152432e-02,-2.906110477056311758e-01,8.176540441655430914e-04,1.407510538255868100e-03,-1.728584056093890407e-03,2.357951402664184570e-01
-7.341699880004678991e-02,-6.013887839231901733e-02,-3.211204966644480852e-01,-1.511271401059655550e-03,-1.560120802168001855e-03,-2.213879567966128587e-04,2.546304464340209961e-01
-5.663354365787237610e-02,-4.544212773387037996e-02,-2.898819518791233008e-01,-1.011272526837400220e-03,-2.795744685901464387e-04,-2.095467529465042610e-04,2.390478700399398804e-01
-6.478266989567668666e-02,-3.469678892729513575e-02,-2.756392526160204026e-01,-3.728838432467336842e-04,7.135494765079328922e-04,2.318481073175063072e-03,2.274368852376937866e-01
-5.180784286802056493e-02,-5.036639836076346743e-02,-2.886378327462871818e-01,2.531946603966174578e-03,9.225652324855947682e-04,1.255827637876701271e-03,2.376098036766052246e-01
-5.391719355800257685e-02,-4.495932716011473429e-02,-2.889868091594247623e-01,2.354385863096835393e-03,-5.818268952506454490e-04,-4.868782405406874621e-04,2.397124171257019043e-01
-5.784339875007950271e-02,-5.175673326734191171e-02,-2.917437129347144609e-01,8.192441407460764741e-04,1.152848762216902596e-03,-1.732752038797601580e-03,2.370339334011077881e-01
-5.831876905719260429e-02,-5.888550042328480338e-02,-2.904892199709901979e-01,-3.532619083702966296e-04,1.057994797308919876e-03,-7.520627033323832840e-04,2.318993061780929565e-01
-6.134285086013673005e-02,-5.442852225518995946e-02,-2.986907337255562123e-01,-1.487933728846361613e-03,4.385128563683129976e-03,8.594546435896886077e-03,2.414722591638565063e-01
-4.405219204381419229e-02,-5.593622613046556058e-02,-2.842533031126918130e-01,-4.211910299261789961e-03,1.280189304729980986e-03,-2.579685269265150288e-04,2.346094250679016113e-01
-6.066701025738095721e-02,-6.890393122052548835e-02,-2.890691476044103814e-01,-1.242063076422989746e-03,1.536137361685372543e-03,-3.877802297548879433e-05,2.244231849908828735e-01
-5.127066899115295673e-02,-4.931907015649357462e-02,-2.910786654949764074e-01,1.179120666502641353e-03,6.817227957258832995e-05,6.216540517469526647e-05,2.407984435558319092e-01
-5.285958920333289068e-02,-4.828012332353312508e-02,-2.894285600832763317e-01,7.830226158875001506e-04,-2.316871806169807421e-04,-6.999741631332288393e-04,2.388988882303237915e-01
-5.299651781053010824e-02,-4.838591953778201282e-02,-2.897835014194243830e-01,9.012048963001296695e-04,2.740674763243575781e-04,7.694540367971508662e-04,2.391349077224731445e-01
-5.492487027865980420e-02,-4.545025611053796211e-02,-2.888546361050913225e-01,2.337330831730989947e-03,5.060706982923843765e-04,2.613592061557709102e-04,2.388444244861602783e-01
-6.430546869622738582e-02,-3.682555098222813073e-02,-2.866479362215185178e-01,3.066242178554653541e-04,-4.790680945976968376e-04,-2.365192335559780819e-03,2.373162955045700073e-01
-5.764508797295431197e-02,-5.202967788323328846e-02,-2.883569579221297863e-01,2.818038862203770759e-03,7.008237002411533056e-04,-4.725118431322910054e-03,2.337676584720611572e-01
-6.094454027419414499e-02,-4.866277013077552338e-02,-2.918449273418513013e-01,5.387138351252839397e-04,1.401396093953440362e-04,-3.109626334440882423e-03,2.373428642749786377e-01
-6.661408490246875647e-02,-4.025140982834304881e-02,-2.870912375345259226e-01,-3.274124304330723167e-03,2.026035313406913084e-03,-7.145824537411483643e-03,2.351918220520019531e-01
-6.137398263238445784e-02,-4.202002690329811885e-02,-2.819026232700319046e-01,7.069642764235513528e-03,-7.151892166980274197e-03,-1.070602097804880352e-02,2.322128415107727051e-01
-8.545892391457533821e-02,-6.615327533660347870e-02,-4.310769693248828194e-01,-8.739350763047742943e-03,2.001696186282799633e-02,1.622104599232025018e-02,3.587721586227416992e-01
-5.487103961110197103e-02,-4.936036538467643286e-02,-3.554720347908623124e-01,4.647218148308689817e-03,-6.647914705713665016e-03,-9.364553054266939319e-03,3.041517734527587891e-01
-6.031965477359062244e-02,-5.319297321602331485e-02,-3.257648076243924162e-01,3.847489724270536284e-03,-1.585984744337118335e-03,-3.492250516123489301e-02,2.758883237838745117e-01
-7.849832384690852427e-02,-5.935734947531104422e-02,-3.472775506126954403e-01,-6.247091924365962001e-03,-1.507801297763840948e-03,-1.016535541481687881e-03,2.790704965591430664e-01
-4.857646804659190853e-02,-4.958040861260483434e-02,-2.655785536175239714e-01,2.033146291700970235e-03,-1.581215359271659349e-02,-7.491899906511251261e-02,2.539175152778625488e-01
-5.561768158191794653e-02,-5.592566071640679704e-02,-2.907225015536111234e-01,1.647000979774394021e-03,4.486329447688571382e-04,-7.147304155854842210e-04,2.349728494882583618e-01
-6.658921184143963556e-02,-6.419669651234474750e-02,-2.933508593023650968e-01,-3.918048510121781985e-03,5.626279692492034724e-04,1.318643705512780777e-03,2.280818223953247070e-01
-5.812031264891240334e-02,-5.819545018371782841e-02,-2.900860724582067229e-01,5.659558509687734589e-04,1.083334812931636970e-03,-7.880448492754001740e-05,2.319379001855850220e-01
-6.222737494735902652e-02,-6.133239898842576809e-02,-2.890900493849647424e-01,1.449483398183426498e-04,-5.071101846230688555e-04,-1.785959433117725002e-03,2.273343652486801147e-01
-6.307051920604421491e-02,-6.344912974761267310e-02,-2.865271516306733823e-01,-9.399772983518085798e-05,-7.584013374701098996e-05,1.434481222265839018e-04,2.232678085565567017e-01
-5.359457944250284323e-02,-5.550991105974344142e-02,-2.886348076036099330e-01,4.299566100008393927e-04,1.445445060862176907e-03,1.751656806699480526e-04,2.341032028198242188e-01
-6.452219731445232864e-02,-5.412906276422360663e-02,-2.940904076416301915e-01,3.797936108789634222e-05,-3.461078866481402498e-03,-7.371036644464794112e-04,2.350171953439712524e-01
-6.016443520375475140e-02,-5.858642388592399941e-02,-2.942505908114870783e-01,-1.929198029871252414e-03,-2.540733180191593298e-03,5.017346573801532983e-03,2.351047843694686890e-01
-6.545252433855733298e-02,-5.797834175836452664e-02,-3.319561238504155076e-01,1.408231747636502860e-03,1.628712959534585943e-03,1.557097546469480426e-02,2.716858386993408203e-01
-5.992954686108087348e-02,-4.077329800856518971e-02,-2.869444485357074970e-01,-1.475734436742129037e-03,4.101180513269342453e-04,-2.066448651874642183e-03,2.372157871723175049e-01
-5.204400573809715713e-02,-4.784945298585997764e-02,-2.795641792989524976e-01,-8.553536540461039242e-03,2.368026950896356952e-03,-3.902338062407718737e-03,2.302593439817428589e-01
-4.875151364322234671e-02,-5.182261558765269283e-02,-2.855853557685757993e-01,-4.328890229925035776e-03,1.067511753803435191e-03,-1.434642754435261954e-03,2.354531139135360718e-01
-5.882447398085523249e-02,-5.623824447195649445e-02,-3.287886743893207453e-01,-2.212275219154800736e-03,-1.749092973734032693e-03,1.013340505535407186e-02,2.718776762485504150e-01
-5.499141581558197878e-02,-6.440767287903401139e-02,-3.130392408549678152e-01,-2.504705661599844219e-03,-7.266869494900082306e-03,8.992505176277466178e-03,2.542977333068847656e-01
-5.268401743716265295e-02,-5.173510810413248229e-02,-2.909071777918931234e-01,-5.224933066935186308e-04,-2.627911511901368110e-04,-1.374695886953831124e-04,2.387012988328933716e-01
-6.194902026596671440e-02,-6.948765299761618108e-02,-3.000068903528035902e-01,-5.911531767892222282e-04,-2.905478671257287135e-03,-2.444780500741602393e-03,2.344739884138107300e-01
-4.876072328789450572e-02,-5.803993713120507436e-02,-2.854409501571848473e-01,-1.215726609794928227e-02,4.142837032685291188e-02,-2.697670259501034826e-02,2.483605891466140747e-01
-6.109148118416836415e-02,-3.680445578996061062e-02,-2.858936835919464459e-01,-1.640952577635864046e-03,4.768842043301448281e-04,-2.998580247580555271e-03,2.379525154829025269e-01
-4.743133919253500475e-02,-5.911446958356124382e-02,-2.898757234343971589e-01,-6.061632634680119182e-03,5.039294639855742761e-03,-6.538762171269178573e-03,2.374825179576873779e-01
-4.889961919607024865e-02,-5.911319726189787072e-02,-2.689537967652166905e-01,-8.202094991265958257e-03,1.644669410440063526e-02,-1.503080138694892418e-02,2.190244197845458984e-01
-4.942365745199424343e-02,-7.568570124999554616e-02,-2.416821771758591031e-01,-4.520263763706185156e-03,3.762330163008286051e-03,-2.708255603961383200e-03,1.809135079383850098e-01
-6.459496304972964231e-02,-3.741675015823474337e-02,-2.872588191475583530e-01,-1.001416801237232142e-03,-1.069634595649028228e-03,-2.928856443123874047e-03,2.374902665615081787e-01
-4.301769021047512076e-02,-5.851153934787901856e-02,-2.798718815236279633e-01,-5.088470380309804801e-03,3.444402913250111005e-03,-2.025672706400447748e-03,2.297732830047607422e-01
-4.707672636379592324e-02,-6.561271822785827434e-02,-2.470507810584475494e-01,-7.496497716031912985e-03,1.098924718933477242e-03,-2.115907995866121109e-03,1.918648928403854370e-01
-4.181483333489878496e-02,-6.530792230429152689e-02,-2.525323210569595522e-01,-9.196337679415970273e-03,6.668510065600951643e-03,-5.074250623229531118e-03,2.011659741401672363e-01
-5.915359429555766546e-02,-3.931803949951834243e-02,-2.877358385095246662e-01,6.573576496643955373e-04,-5.374789014796068438e-05,-1.462266723462791454e-03,2.391339987516403198e-01
-7.827051902556991791e-02,-5.685364569844307547e-02,-2.972677349884982334e-01,-7.672596679352974109e-04,-1.456699693182520600e-03,-1.960796968840324700e-03,2.304959148168563843e-01
-7.843249239843233522e-02,-5.927661339627342957e-02,-1.911098385204163530e-01,-4.227795593168677708e-03,-2.245503908794088850e-03,1.287425750975759904e-03,1.236741170287132263e-01
-4.444989273564281529e-02,-5.642847803743730739e-02,-2.650956470778834118e-01,-7.173394786269019982e-03,5.378410116283191544e-03,-1.529468011503674939e-03,2.154836058616638184e-01
-5.650455066598958354e-02,-4.398688660624869295e-02,-2.881999692995299567e-01,1.124137440935780389e-03,5.942292043009374334e-04,-1.040833479928860664e-03,2.382180541753768921e-01
-6.006985213675564150e-02,-3.813294997419083843e-02,-2.828634388533463051e-01,-1.266665961186000736e-03,8.258169291901599780e-04,-1.202945379917089511e-03,2.345566302537918091e-01
-3.472875382029090574e-02,-6.119864428461090078e-02,-2.736890552302604362e-01,3.399976065038752028e-03,-5.392458074178130799e-03,-7.571451306084839641e-04,2.271586805582046509e-01
-3.776622986560426720e-02,-6.134245576329884486e-02,-2.848189700418004566e-01,3.641721151543699572e-03,-5.367356084340551246e-03,-2.956074152782177692e-04,2.364165782928466797e-01
-4.422369293245885513e-02,-6.126954509376626029e-02,-2.584651230087237628e-01,9.070958024613891280e-03,-6.242302993621547808e-03,-2.664405373292062958e-03,2.071788311004638672e-01
-3.654322864618925193e-02,-6.294273797525871961e-02,-2.834448933512286883e-01,3.453930637790720432e-03,-6.533890884978465173e-03,-4.973266289710852588e-04,2.351677864789962769e-01
-6.417910983022936944e-02,-6.316609099898660984e-02,-2.870539774915413234e-01,6.248614083563645578e-04,-5.021095854765092334e-05,-2.138053015708000197e-05,2.233857363462448120e-01
-6.250624976269175681e-02,-6.457138281065974428e-02,-2.879954265936316427e-01,6.470787807313260927e-04,2.213986603411261639e-04,-4.668612119886199102e-04,2.244683206081390381e-01
-5.682702387408838929e-02,-4.462920605184964029e-02,-2.814444727591577378e-01,5.104537882391748348e-03,-1.489952268480071408e-03,-1.017119619586688952e-03,2.311483472585678101e-01
-6.404446043786166110e-02,-6.316574218610601643e-02,-2.870343152498701644e-01,1.051159705267010452e-03,-1.031151693895529395e-04,-4.393333198578740499e-04,2.234392911195755005e-01
-6.080058423158046788e-02,-3.932159702736756635e-02,-2.863857293139282501e-01,1.069068113205981540e-03,-1.349473231053897274e-04,-1.817686270293883627e-03,2.370838224887847900e-01
-5.373003272250610751e-02,-5.284734933764299869e-02,-2.917445020615861973e-01,4.997522562018325443e-04,-2.499939032617239923e-04,-6.125239236884320198e-05,2.384590208530426025e-01
-6.342138350868797847e-02,-6.347141757801127993e-02,-2.869545106131368151e-01,1.020283407957100145e-05,1.764896299992598969e-04,-9.673295413069922120e-06,2.235083281993865967e-01
-4.436431417869751703e-02,-7.111317556663268591e-02,-3.032540117786196587e-01,2.026413568741504759e-03,3.549562659887804672e-02,-4.169396988136954765e-03,2.542806863784790039e-01
-6.089472848274796180e-02,-3.916906166881486961e-02,-2.834469104200396661e-01,1.279797671832222069e-03,3.466274720925831927e-04,-2.344154794182415130e-04,2.341837137937545776e-01
-4.942537472336012982e-02,-5.075662810995165697e-02,-2.898952243832499942e-01,1.738167212232597045e-03,-5.229021466882932418e-04,-1.115678496798425823e-04,2.398276776075363159e-01
-6.114415548986716631e-02,-6.143051970380991600e-02,-3.220355053186705896e-01,1.290390629588970568e-03,3.985706164354377301e-02,1.937934789901044064e-02,2.718217968940734863e-01
-7.391845162828181159e-02,-5.646686435831047013e-02,-2.935297892469920789e-01,-1.685416953722449667e-03,-1.509954373641690705e-03,-1.848068763462437875e-04,2.288705557584762573e-01
-5.407631738939850524e-02,-5.354403070461123682e-02,-2.214967853691968136e-01,-3.600237693971466285e-03,6.598033256791586976e-02,4.613866528977507431e-02,2.181844115257263184e-01
-4.687421446501269240e-02,-5.691646953019351141e-02,-2.845231497654117647e-01,4.739381779125619032e-03,3.814291898922091747e-03,4.387835935260067828e-03,2.331525683403015137e-01
-5.155630500301247587e-02,-6.432490587120892611e-02,-2.795453500566449367e-01,9.675864278054845807e-03,5.089519482442553255e-02,4.575861803467380379e-04,2.393395006656646729e-01
-5.467780299231539409e-02,-5.940711986091073982e-02,-2.888461086902063268e-01,9.028685337268747921e-04,4.576318391086811599e-03,-3.058296457191043548e-03,2.320410311222076416e-01
-7.113658653203083770e-02,-5.123359725476780979e-02,-2.540530901223119198e-01,-2.001907702069546848e-03,-6.832494872702984251e-03,-6.821654264282100977e-02,2.271733283996582031e-01
-7.718706242774571458e-02,-5.523654615877730822e-02,-2.327895735234672414e-01,9.211468836706644941e-04,2.853867185920783492e-03,-2.066919548014327368e-02,1.715171933174133301e-01
-7.078672902206939455e-02,-3.888123388098826960e-02,-2.542267540037900231e-01,1.743606842502369927e-03,-3.813351779002291473e-03,-9.563790405195279204e-03,2.021091133356094360e-01
-7.302844007271978855e-02,-5.023744760304937884e-02,-2.492447820377271250e-01,5.648097523094266180e-03,-5.528192549392942079e-03,-1.447028961692541082e-03,1.891598254442214966e-01
-6.276982040987737210e-02,-3.607216566109204547e-02,-2.470650015723651616e-01,-1.456236358235540903e-05,1.022769238811712137e-03,-9.095443055040501601e-03,1.996222585439682007e-01
-6.337635075728670353e-02,-4.539360898797603627e-02,-2.105365499728771017e-01,-4.901984530390196895e-03,3.409961590688786060e-03,-1.577321429168875716e-02,1.596220582723617554e-01
-6.723098665664301032e-02,-4.992517493962857905e-02,-2.147100976755606239e-01,3.731028950900241743e-03,-2.935425930562137950e-03,-1.855528675642370562e-02,1.603194773197174072e-01
-7.005185872416326565e-02,-5.086460817713159277e-02,-2.223416743357670977e-01,-3.076666542927783930e-03,4.488489041834282586e-03,-1.630817294286134034e-02,1.654359996318817139e-01
-5.028719551565123680e-02,-5.501454459031421274e-02,-2.685525312503834749e-01,-1.026288188017232018e-02,7.921069752132216951e-03,-5.453400672300323659e-03,2.173101902008056641e-01
-5.819047555682236444e-02,-4.972906033111598734e-02,-2.119320174109430854e-01,-1.299018121298862842e-02,1.254532255380413561e-02,-3.503653169299827952e-02,1.722497940063476562e-01
-4.785903458652318587e-02,-5.653932710546155649e-02,-2.852162616221018965e-01,-9.250150220388716343e-03,8.714083625019875337e-03,-3.167982874811509433e-03,2.342393696308135986e-01
-6.198786058434881119e-02,-6.323533907320992575e-02,-1.937290180751156943e-01,-7.959062366785134637e-03,1.360837701615728867e-02,-2.012588381211311353e-02,1.383969038724899292e-01
-5.865171638690165612e-02,-5.995287712585611883e-02,-1.781129010910693922e-01,-8.150029187936402159e-03,1.087557211315694911e-02,-1.702944654168901673e-02,1.246649026870727539e-01
-7.057624737395770675e-02,-4.916307380601261240e-02,-2.112618446801188821e-01,-3.750002208575674203e-03,4.168341559464670441e-04,-1.539038117860773609e-02,1.549735069274902344e-01
-6.988797562926198081e-02,-5.601911214191554467e-02,-2.055007186247624351e-01,-8.011958241603160669e-03,4.864564158168957139e-03,-2.604027784381695090e-02,1.508701741695404053e-01
-5.241935546087414521e-02,-5.347813631594597328e-02,-2.716781504649252721e-01,-8.530711268927121740e-03,-1.297290385725211308e-04,-2.923430480618159841e-06,2.192299365997314453e-01
-6.580160935312406867e-02,-6.073632313688001605e-02,-1.788576901923296658e-01,-7.770547143641318502e-03,7.647815601093892190e-03,-1.782443413058624679e-02,1.212012320756912231e-01
-5.141569069287676985e-02,-4.771271924695816291e-02,-2.905656219721509670e-01,-1.397201589812624130e-03,1.567152423126660595e-04,-8.213389191197306444e-04,2.410392463207244873e-01
-6.259458601139188116e-02,-3.762749124420783353e-02,-2.769335178254783703e-01,2.362761729187394175e-03,1.014652527303666878e-03,2.569452125933755458e-03,2.279376983642578125e-01
-6.350033467220173033e-02,-3.510099565760083085e-02,-2.820840089189634581e-01,-4.279479564654747208e-04,3.688207693495011621e-04,-1.557597566682565647e-03,2.340965867042541504e-01
-6.290157637937321411e-02,-5.106254354187558797e-02,-2.651744358451788575e-01,8.455470123481297756e-03,5.518283783837791461e-04,2.112964317427588716e-03,2.089927792549133301e-01
-6.483813328131912690e-02,-3.432375548687144340e-02,-2.810592442559436410e-01,-3.235309799982466028e-04,2.966791111808881687e-04,5.919348791448054720e-05,2.329831272363662720e-01
-6.479495837120743951e-02,-3.543602667798587125e-02,-2.833423340879250851e-01,-5.738615584945034112e-04,-4.437336686552391168e-04,-1.671430201481909072e-03,2.346298843622207642e-01
-6.387310808012704177e-02,-3.651192815207740527e-02,-2.821624664841778096e-01,1.920860064149305154e-03,-6.296592947127805165e-04,-1.617473272703959860e-04,2.332035005092620850e-01
-6.325580989135859422e-02,-3.551596794992185890e-02,-2.792016001325905439e-01,2.723362342096124003e-04,5.434494682816856930e-05,1.841470352645989666e-03,2.310904413461685181e-01
-6.220938630610589604e-02,-3.854596037388635654e-02,-2.832877613839538400e-01,2.748000701221478461e-03,9.944631979218118700e-04,2.809052259519254427e-03,2.339153140783309937e-01
-6.368390270735035941e-02,-3.595008132748353513e-02,-2.833552983525878810e-01,6.791783370969989774e-04,-7.655567888613189599e-05,-1.009315556870586314e-03,2.347796261310577393e-01
-5.998341663942426127e-02,-3.849225600444919348e-02,-2.829203782317424865e-01,4.753107221190212318e-03,1.325416692012855273e-03,3.807786059630018007e-03,2.346709966659545898e-01
-6.062671264738872523e-02,-3.771722698449017641e-02,-2.780890696796933237e-01,3.560989432874628151e-03,8.906535738549741855e-05,3.225002728619421558e-03,2.299259454011917114e-01
-5.803821033913438010e-02,-4.077421924857083102e-02,-2.850767697280421897e-01,2.496707360871321894e-03,-3.783926391980688966e-04,1.546473353031699121e-04,2.361849844455718994e-01
-4.920104091388238787e-02,-5.215361465897852544e-02,-2.900867328166646941e-01,4.276101638697021520e-03,1.163249948598366404e-03,7.375876840997419668e-04,2.395494729280471802e-01
-6.081983174346683452e-02,-3.957234469328782533e-02,-2.863032762895673100e-01,1.344694413336674794e-03,-5.520356990385038220e-04,-5.262177126719132843e-04,2.368382662534713745e-01
-4.347179420786551063e-02,-5.312871602844065899e-02,-2.857326600420256879e-01,4.225339188710481968e-03,-1.843450199465354556e-03,-2.833498720836653871e-04,2.377142906188964844e-01
-5.678946571367241014e-02,-4.469651272454758240e-02,-2.894847657085599102e-01,1.232503316517162117e-03,-5.840019523611673664e-04,6.553540715978307734e-05,2.389830648899078369e-01
-4.908457401115723373e-02,-5.144524445994133610e-02,-2.896028181085000819e-01,3.048196934458147992e-03,-1.635388726122479137e-04,-1.181173900620752240e-05,2.394050359725952148e-01
-4.482429724687142514e-02,-5.360311258213429353e-02,-2.883486117018007056e-01,2.470426893496591343e-03,2.021741676653113012e-04,5.029504385858091101e-04,2.392958253622055054e-01
-6.753230449858527162e-02,-5.940782228158028588e-02,-4.507724767423972878e-01,1.554495991361617936e-04,6.517100801580888100e-03,-3.727689090407089456e-02,3.928725719451904297e-01
-4.348025037654873470e-02,-6.107507791473235081e-02,-2.748883007992293237e-01,5.543584163157863794e-03,-9.888160713307030635e-04,2.573433798320854272e-04,2.233450412750244141e-01
-5.389371705550623226e-02,-5.375564522658501931e-02,-2.911948997476399570e-01,-9.992707174928314433e-05,-4.315633619387567853e-04,7.610819864376362591e-04,2.373751550912857056e-01
-5.319620897176033369e-02,-5.531913081524854336e-02,-2.912613655416581571e-01,-1.178992606878411474e-03,-3.583601868831112584e-04,2.318260385718347378e-05,2.370204329490661621e-01
-4.989396162876967578e-02,-5.064658844112061853e-02,-2.921015708556544688e-01,3.759024602926054159e-04,-1.726739858314934293e-04,-3.660498981778592762e-08,2.418332397937774658e-01
-5.265539861664655930e-02,-5.005086306128647688e-02,-2.912717078209868804e-01,-8.094655923907782390e-04,-4.807990716093544789e-07,3.176897491323878099e-04,2.399339079856872559e-01
-5.242342024345683638e-02,-5.252970747720211997e-02,-2.906022858205125070e-01,-2.022110511944218494e-03,-6.105454419790832046e-04,9.065129992606124577e-04,2.381590157747268677e-01
-5.290310625052736804e-02,-5.227131095118028870e-02,-2.920506994592328431e-01,-1.389074398955603704e-03,-6.898974597509949496e-05,-3.213613819005309898e-04,2.394768744707107544e-01
-4.454119174732792952e-02,-5.819371573933290742e-02,-2.891158751020411755e-01,4.030439487144445686e-03,-1.059023055683845204e-03,2.635696428822669087e-04,2.381520718336105347e-01
-3.964916112482116950e-02,-5.670320508471049514e-02,-2.840330456873514375e-01,2.693004002026910901e-03,3.040916667434370854e-04,-8.530849407306450140e-05,2.363654971122741699e-01
-4.352095674899544853e-02,-5.714661521924907506e-02,-2.829992279527099308e-01,4.017417314147063087e-03,-8.560285008112131352e-04,-5.371373012995734296e-04,2.330749481916427612e-01
-4.855774115303206073e-02,-5.149892346766647699e-02,-2.861899970130972193e-01,4.262223006053124028e-03,-1.351307496780086194e-03,-1.103370648297946361e-03,2.363100647926330566e-01
-4.619288933199597325e-02,-5.371988474162574245e-02,-2.882793461466677254e-01,1.642140020816903155e-03,1.907336281879542150e-04,2.246132118603558908e-04,2.384296059608459473e-01
-4.072751870900176430e-02,-5.717258926391857732e-02,-2.864799923163185436e-01,2.203874339672031585e-03,-8.069813672861570180e-04,-5.734675447520750768e-04,2.379932999610900879e-01
-6.267855744094717740e-02,-5.911265727690404037e-02,-2.990579191429668660e-01,-2.088459541340998641e-04,-8.852043073229047586e-04,3.023582302939728777e-03,2.382451146841049194e-01
-5.944696073953686932e-02,-5.969778879999443344e-02,-3.126665595317346114e-01,-7.041864707545999330e-03,-1.334839109772354392e-02,2.866690093883056054e-02,2.592400312423706055e-01
-5.986995166866160289e-02,-5.729361125398138577e-02,-2.917193037170847658e-01,-2.999234681667985875e-03,-1.128982072046329352e-03,-2.678452549618718813e-04,2.332147210836410522e-01
-5.703418556406514295e-02,-5.956038370215110955e-02,-2.896821443005119234e-01,-1.431225182143928574e-03,-4.225579445493900374e-05,-2.792477419107207906e-05,2.314084917306900024e-01
-6.641445193387161827e-02,-6.033016545787490970e-02,-2.923618763058303260e-01,9.204698532398318013e-04,6.749156968171631053e-04,-1.391280077219525860e-03,2.290713936090469360e-01
-6.542669214527813137e-02,-6.077897685648539494e-02,-2.919195124826458043e-01,6.434880087670599973e-04,1.651606768291720732e-03,-2.443231717759144356e-03,2.289117872714996338e-01
-6.528937079169153113e-02,-6.009189785936198958e-02,-2.915458509769619511e-01,6.983153126519597940e-04,1.737275067702573512e-03,-2.002796830199437238e-03,2.289487272500991821e-01
-6.463252188575624446e-02,-3.551479009655969521e-02,-2.745159902057903167e-01,-1.519222643206642222e-03,-6.692018925317299118e-05,2.803788876597387326e-03,2.259220331907272339e-01
-6.553975522896868244e-02,-6.301925578356079582e-02,-2.903303492505963090e-01,1.642289460981801244e-03,9.294521690676461586e-04,-1.552029781967467466e-03,2.261009961366653442e-01
-5.810302918488133295e-02,-5.907692230540022293e-02,-2.897606286952154053e-01,4.111575091850449789e-04,5.916249387951468854e-04,-1.222797961514135098e-03,2.311852574348449707e-01
-7.056408197985634956e-02,-4.323277025803531903e-02,-2.825737621289838297e-01,-1.063438486558602146e-02,1.316427586521378042e-02,-4.199165934856653737e-02,2.400805503129959106e-01
-5.984212118356346810e-02,-5.769915530572003459e-02,-2.966356941235513411e-01,-3.206117741399878204e-03,4.996765966747630967e-04,-6.917256802463517609e-03,2.382401376962661743e-01
-7.381281726225862039e-02,-5.944366167007109070e-02,-2.948088116909028944e-01,-1.309646388220630803e-03,-1.182512024358585608e-03,-1.444067877238389402e-03,2.285537719726562500e-01
-6.397015099245319247e-02,-4.644912917395935259e-02,-2.943302365709569157e-01,-2.239294387810374272e-03,-1.170776568719058717e-03,-1.151101922622250334e-02,2.404694706201553345e-01
-6.462552109179514614e-02,-4.748891052453685369e-02,-2.894114852898191925e-01,-3.703439327441183752e-03,2.568741794440629334e-02,-2.608807694157051077e-02,2.423569709062576294e-01
-6.473173313341260005e-02,-4.124917655914375758e-02,-2.825250228235982597e-01,-4.104466820672175373e-03,-2.069521941239112748e-04,-2.548293679284057561e-02,2.347306907176971436e-01
-5.857500390833115383e-02,-6.502750807808824196e-02,-2.062979877935286477e-01,8.892874586732152711e-03,-1.008153160937033319e-02,-1.761860035633427968e-02,1.496126204729080200e-01
-6.881934609495254929e-02,-5.084866263644892415e-02,-2.078897365032432720e-01,8.306891273830632055e-03,-2.393773921987424683e-02,-4.054173360345106336e-02,1.703515946865081787e-01
-5.140320389021249547e-02,-6.087930151903323678e-02,-2.387819511506912573e-01,1.322166828565639676e-02,-2.471079287556528573e-02,-1.338830148894898028e-02,1.905754953622817993e-01
-6.103061011273533398e-02,-5.240505840842907270e-02,-2.242048965762519219e-01,9.048077820640898841e-03,-5.422833564827300550e-03,-1.002967805903503401e-02,1.695385575294494629e-01
-4.893631629100689273e-02,-5.344301151610833522e-02,-2.920730046944094438e-01,-9.744648738399178242e-04,-9.164505404242600530e-05,3.247433613138540030e-04,2.409215718507766724e-01
-6.349936472096517903e-02,-3.738250258424623274e-02,-2.803863065035737123e-01,-1.596728436006300458e-03,4.108642027276414657e-04,-1.304490273146158633e-03,2.310837507247924805e-01
-6.193096695675492924e-02,-6.019330490690312507e-02,-2.891748932220098989e-01,3.199403292853352215e-04,1.382633665596696114e-03,-1.178985586908689605e-04,2.281310558319091797e-01
-6.366062365806363088e-02,-3.696784596950519752e-02,-2.817376236600785955e-01,-2.175745786480278235e-03,-1.464596736109076284e-04,2.453216063018440760e-04,2.326061278581619263e-01
-6.401792924687740860e-02,-3.783949003611478124e-02,-2.836197275209249580e-01,-1.673583209118857185e-03,3.335707666650415031e-04,-6.454454734658569316e-04,2.338141947984695435e-01
-5.222210555705208979e-02,-4.625145723166657064e-02,-2.894366467255204411e-01,-8.215332847276479765e-04,2.714581635308838505e-04,-7.150751481425207320e-04,2.402633726596832275e-01
-5.153281651906890803e-02,-5.027568002152810189e-02,-2.918116369391399179e-01,-4.214556508319260543e-04,2.085731101273423686e-04,7.833219649570915709e-05,2.409112602472305298e-01
-6.526149365854769235e-02,-3.580910319082597493e-02,-2.829033840589868509e-01,-1.990744626451515303e-04,2.629424276469014021e-04,-8.876381044083795670e-04,2.337695509195327759e-01
-3.927261166413792415e-02,-6.784208207721503792e-02,-2.826215849345046216e-01,2.040079429835945680e-03,3.800069072339999979e-03,1.335036179463395915e-03,2.305292636156082153e-01
-3.985417852764715219e-02,-6.284814034593505516e-02,-2.815618564339649188e-01,2.838458573720957761e-03,4.061076384780302508e-03,4.809015652911460825e-04,2.312311530113220215e-01
-3.597738828775513820e-02,-6.299841264462816004e-02,-2.800473620350781845e-01,5.888994621658135819e-04,1.607862427738412014e-03,4.504401449250444896e-04,2.317642569541931152e-01
-3.667456310912028949e-02,-6.284536946671051560e-02,-2.830205324151890411e-01,1.387680896117170996e-03,-3.679995763792707391e-04,1.632494318435016812e-04,2.343724370002746582e-01
-5.639958851363495451e-02,-5.567056622475258232e-02,-2.897335882598902068e-01,6.339868120871259638e-04,1.145172946281279537e-03,6.235627884807162964e-04,2.337128520011901855e-01
-5.311092924183233310e-02,-5.502909730234151198e-02,-2.903829663608650247e-01,1.573273536983760441e-03,4.491992212530365150e-04,3.322211696566568359e-04,2.363364845514297485e-01
-5.685794839899610542e-02,-4.612522328329135557e-02,-2.884742669466149323e-01,-3.181029254012842158e-03,-9.747955923379628389e-04,1.965577868961067634e-03,2.372593134641647339e-01
-5.776823945070561073e-02,-5.812531066022666448e-02,-2.889003136486497647e-01,1.897646418464077637e-04,5.326685890732951647e-04,7.419442921994595305e-04,2.309594005346298218e-01
-6.329134803478111970e-02,-3.765225514470729729e-02,-2.821896360883088262e-01,9.832140822359555082e-04,2.844401142934062897e-04,7.865585670375368522e-04,2.327899783849716187e-01
-5.324983984018867578e-02,-5.510056629355818136e-02,-2.904240672422199188e-01,5.529442385117915720e-04,5.912273468797344051e-04,3.152031729455280267e-04,2.362590879201889038e-01
-5.479202840443854472e-02,-5.549053901726391791e-02,-2.898001188761295532e-01,1.161332627631130173e-03,-2.208215513421208894e-04,7.005815967586584729e-04,2.346716821193695068e-01
-4.912385287209904139e-02,-5.056222267763035849e-02,-2.913397254181732121e-01,-9.463583695211388478e-04,-1.672555956340226243e-04,2.801725897188010002e-05,2.415056377649307251e-01
-5.516501571605895993e-02,-4.127586286040949015e-02,-2.874889107736566807e-01,-1.111625975680987158e-03,2.522680712089880786e-04,-1.573662792122288530e-03,2.395942658185958862e-01
-5.084796514000702872e-02,-4.859347650781511985e-02,-2.913678037546080235e-01,-9.378235346225928960e-04,1.845497373824544107e-04,1.529577610767553621e-04,2.416607886552810669e-01
-4.985949795907232418e-02,-4.948315969439556761e-02,-2.913449339128247328e-01,-6.049303512685566108e-04,5.306208879798130374e-04,-8.269287631429314382e-05,2.416778802871704102e-01
-4.941042580783489013e-02,-5.015100791062794550e-02,-2.919934958743339859e-01,-3.752919506984322322e-04,-1.259888833911508121e-04,2.667002152375988810e-08,2.422146052122116089e-01
-4.933697840804754375e-02,-5.102051697148177190e-02,-2.902646288736358549e-01,-1.877122148595021653e-03,-7.195346738423295634e-04,4.923065809070391319e-04,2.401170730590820312e-01
-5.030837318651747159e-02,-4.865561514479201100e-02,-2.903814211221243946e-01,-1.799162665631205520e-03,-9.238306171124327114e-04,3.007945365138623697e-04,2.409297078847885132e-01
-6.952415666018994800e-02,-6.343081951981016653e-02,-2.992320694971203343e-01,4.195458755519247858e-03,-5.630471446305247924e-04,1.826325274210062813e-03,2.329512983560562134e-01
-5.271307942493407006e-02,-4.818216710185743712e-02,-2.848679926155107678e-01,-7.084595412883876349e-03,-2.322085595297092780e-05,-1.296410249557330106e-04,2.347742170095443726e-01
-6.059313401463276016e-02,-6.737979902096336016e-02,-2.928451175022182551e-01,-5.503933408404557267e-04,-1.447149327086645317e-04,-1.516833985115348220e-03,2.289513051509857178e-01
-4.891707583634556655e-02,-4.998837431962407929e-02,-2.894657462634366296e-01,-7.866068984910837497e-04,-2.285990439794625528e-04,-7.786944516786239957e-04,2.400227934122085571e-01
-5.818207810612560649e-02,-5.614892995418074850e-02,-2.896829653667701843e-01,1.259800604480472777e-03,4.250622378529615329e-04,1.028863291230218847e-03,2.325423657894134521e-01
-6.874235673959047666e-02,-6.991878831264168592e-02,-1.614367777737721055e-01,3.108714900865951116e-03,8.583537192118433599e-04,5.633983805053302627e-04,9.228621423244476318e-02
-5.952955814672028501e-02,-6.022197154259568974e-02,-2.881155462555426428e-01,-6.495488868254882704e-04,4.793466954780564531e-04,1.170310218679480700e-03,2.282538563013076782e-01
-5.988513727171311529e-02,-5.970313351718520289e-02,-2.884444864861642754e-01,6.435442746062312175e-04,-2.650331638846818889e-04,7.402156791762377246e-04,2.286571711301803589e-01
-6.128551024440069550e-02,-6.150359790428372442e-02,-2.871995416526705314e-01,1.454871893692352160e-04,3.893477577097133975e-04,7.328339341908635639e-04,2.258097827434539795e-01
-5.625715458400309954e-02,-6.003697343864286551e-02,-2.984851239096451558e-01,8.341021143103953279e-04,4.171771686973052562e-03,8.801234286949843888e-03,2.409559786319732666e-01
-4.423943960666108788e-02,-5.636225914509997159e-02,-2.897487722519130893e-01,1.357099950226678224e-03,7.179287498554532852e-04,-4.949307323374663647e-04,2.396942526102066040e-01
-5.167210291604185102e-02,-4.838285626620543456e-02,-2.873133130854290673e-01,3.523669924046038578e-03,-8.532992284292482445e-04,-9.453798042066647927e-04,2.373916506767272949e-01
-5.789987572625424073e-02,-4.546615279563125112e-02,-2.878523502172971038e-01,5.204525295222419204e-03,-7.825937642263786249e-04,-4.475868726973120191e-04,2.365916371345520020e-01
-6.355704306389479974e-02,-3.494752717934457298e-02,-2.808497652984562887e-01,7.194004051059419325e-05,-2.174543308851393110e-04,5.466042357484238341e-04,2.329212874174118042e-01
-4.018766430936518419e-02,-5.918582021369003798e-02,-2.861763615544639094e-01,1.646915256784461847e-03,1.410248954120394685e-03,8.467079262352089023e-04,2.370955348014831543e-01
-5.826344347022474612e-02,-4.092188674679003713e-02,-2.863171182439987472e-01,4.273540495551219134e-03,6.620455882563664916e-05,-2.017763074099582048e-03,2.373415976762771606e-01
-3.572562726721674464e-02,-6.169757418523294512e-02,-2.847367502262076466e-01,1.016446703237399579e-03,3.443113543630102122e-03,3.825619524281368583e-04,2.371768951416015625e-01
-5.617072968238313868e-02,-5.815658962407661836e-02,-2.909368922429481641e-01,-3.735359267971766765e-05,-8.721178258718146194e-05,-1.362744754974048707e-03,2.337915301322937012e-01
-7.621844615350345520e-02,-6.500902631417282418e-02,-3.157864104056221088e-01,-9.001018430792465455e-03,1.429699013139999059e-03,2.897122348241923818e-03,2.459232509136199951e-01
-3.836729828418829202e-02,-6.106490206665791953e-02,-2.866615846397279066e-01,1.455538455614852414e-03,1.567160102123117205e-03,-5.292214852685874328e-04,2.377900630235671997e-01
-5.590416148808381724e-02,-4.518555129306256468e-02,-2.860146295112711012e-01,4.228851626730709481e-03,-3.074306055864710818e-04,-1.640953997913577951e-04,2.357672452926635742e-01
-5.935580697231232494e-02,-5.843649854266816379e-02,-2.887651940910367920e-01,-5.236702544392423048e-04,-3.234137722630281452e-05,-7.580463032213621485e-04,2.298759669065475464e-01
-4.479143589407197368e-02,-5.800721155315487210e-02,-2.896003697775407781e-01,6.088588200458952608e-05,4.240106613536695837e-03,1.403576585450623873e-03,2.386013120412826538e-01
-3.710720867937515599e-02,-6.292876100996135091e-02,-2.829752620588981138e-01,-1.044636018549057518e-03,-3.467522060917319808e-04,3.503602043340672714e-04,2.340366691350936890e-01
-3.645498724732187945e-02,-6.275499641118631455e-02,-2.827212645091289334e-01,-2.429937414556891488e-03,-4.061034598411467772e-03,3.372856325871402701e-04,2.343704253435134888e-01
-4.078820279734374221e-02,-6.104250700926347473e-02,-2.887990205896188156e-01,1.414863693998612629e-03,1.091237788412135817e-03,-5.845607585325807414e-04,2.385517060756683350e-01
-3.703347094578160470e-02,-6.773007374465264685e-02,-2.823189529262764008e-01,-1.378449949572473293e-03,-3.996611851570403343e-03,1.592748742184546464e-04,2.315847873687744141e-01
-3.579292223797919670e-02,-6.344849491031165356e-02,-2.822389928227689859e-01,-5.448106844094253564e-04,-1.055917731652094996e-03,8.479321726012194757e-05,2.338571101427078247e-01
-5.684208008979931004e-02,-4.074993225281633991e-02,-2.872433472036740598e-01,-1.953417715102123177e-03,1.879863373734825161e-04,5.782660925384779885e-04,2.388805299997329712e-01
-5.766246639772686089e-02,-4.067903436317298060e-02,-2.854031539115181593e-01,-1.657732932675876070e-03,1.264307726673951274e-05,6.793226878025612151e-04,2.367101758718490601e-01
-5.748546114606477297e-02,-4.083572619564451722e-02,-2.841107092787810151e-01,-2.849794133954466121e-03,1.540241770565880337e-04,3.608724443476257890e-04,2.354448884725570679e-01
-4.543405646055076463e-02,-5.668152468224535445e-02,-2.903681364783128327e-01,1.452535251306776845e-03,7.224562546642794743e-04,-5.862084106678156804e-04,2.395271360874176025e-01
-4.518584625163557522e-02,-5.655564588962899708e-02,-2.887685005294078899e-01,1.418126588765898904e-03,1.040421992464397481e-03,-3.096012474781903716e-05,2.381209284067153931e-01
-6.398205719288205251e-02,-3.521914114797719542e-02,-2.791416067076069041e-01,6.830466317442588807e-04,-2.599344335833091456e-06,2.202290921596125508e-04,2.308919578790664673e-01
-4.778518873421877533e-02,-5.880775850035685481e-02,-2.902071240174205480e-01,1.433927945334095280e-03,1.618308974803560514e-03,-1.826989276821817964e-04,2.371326684951782227e-01
-5.508613519486658949e-02,-4.379680672947645903e-02,-2.849139401325955778e-01,-4.414737960653895149e-03,-2.490165330542204632e-04,2.212292543880792217e-03,2.358308881521224976e-01
-6.162686072897630152e-02,-6.333438027758417355e-02,-2.871198951192581728e-01,-1.200643006429081162e-03,-1.859249473021106326e-04,-1.527244916067724040e-04,2.246541529893875122e-01
-6.324061027102045873e-02,-6.317366633367851869e-02,-2.865451236041408611e-01,-1.269865086284351530e-04,-1.631977221558416529e-04,1.777075861101061526e-04,2.233384847640991211e-01
-6.255322055348087884e-02,-6.334652729878476052e-02,-2.888333477790011594e-01,-1.463890597083459958e-03,-1.231642648547234386e-03,-1.136149353402358952e-03,2.259173989295959473e-01
-6.461191438568600343e-02,-6.361712066088379136e-02,-2.874139859899897398e-01,-1.581336450833486888e-03,-1.356068050823575804e-04,-5.632895874231443273e-04,2.233201861381530762e-01
-3.586011153847307176e-02,-6.415555370962419679e-02,-2.820552215751601643e-01,-3.772553968809825653e-05,1.036388090132879525e-03,3.586329515452261899e-04,2.333454042673110962e-01
-3.709133184572460662e-02,-6.324831295516919472e-02,-2.817736484681127029e-01,-1.205339360076770200e-03,9.342871268112751390e-04,-4.620140040419492417e-04,2.327253520488739014e-01
-4.278307147015422696e-02,-6.280277840891343444e-02,-2.851703115757371343e-01,-1.303390701414321130e-03,5.881319900732745421e-04,-9.339216876070856278e-04,2.330420464277267456e-01
-4.247130558825337743e-02,-6.738576141023475130e-02,-2.759670050771805272e-01,2.759121521921986762e-03,-4.895863013197962466e-02,-6.252305413734790020e-03,2.380220741033554077e-01
-3.636466274084455830e-02,-6.181835369514234596e-02,-2.699393564327842721e-01,6.504480530293598513e-05,-7.186882715187428716e-03,8.604491679884729597e-04,2.222990691661834717e-01
-4.859508171365764517e-02,-5.463342293903894475e-02,-2.848549344382518278e-01,7.195636708064842048e-03,-3.293047912183763755e-03,-4.067200499501650961e-03,2.338077276945114136e-01
-4.531391265486917064e-02,-6.694091061287832378e-02,-2.976155001071790762e-01,3.974283246890520510e-03,-4.205122757609459916e-02,4.651243910434764255e-03,2.531491518020629883e-01
-4.116102923346701137e-02,-5.464425488327674663e-02,-1.005973012321115384e-01,-3.390759214760120412e-03,1.324927202025781396e-02,2.710757929260977292e-02,7.535687834024429321e-02
-5.272806399231756702e-02,-6.135920014512596943e-02,-2.912683846974409851e-01,-4.732193635837058775e-04,5.970115591861100616e-05,-1.807381014804216983e-04,2.343456596136093140e-01
-4.140372549471849073e-02,-6.486575372320312061e-02,-2.854531367287408417e-01,6.770122651337582664e-05,-5.725755171147538757e-04,-6.327647636231190174e-04,2.332099676132202148e-01
-4.354713917362615372e-02,-5.937176451538006550e-02,-2.898610934852681176e-01,1.454450435801926591e-03,4.863569644964727337e-03,4.507288736402812780e-05,2.389570474624633789e-01
-4.993542944846014742e-02,-5.025594943822850325e-02,-2.918187903035279751e-01,5.648244637457269443e-04,-5.512811559467385237e-04,-1.237600795139476664e-04,2.417272180318832397e-01
-5.369445457459311177e-02,-6.473232933662864674e-02,-2.924245865750314533e-01,5.756912330409065873e-04,4.382719797382828584e-04,-9.740995135575775121e-04,2.334164828062057495e-01
-5.338678260335039116e-02,-5.002149374244377333e-02,-2.818330618481826866e-01,-7.585409773913621978e-03,3.390801937238821420e-03,-5.498708215522476322e-03,2.307934761047363281e-01
-5.430159957460775622e-02,-5.171022320302565145e-02,-2.890941080563276255e-01,-2.772567088700078619e-03,5.611855607784547745e-04,-6.363169838906309120e-04,2.361522614955902100e-01
-4.957349594687723848e-02,-5.062564983822825937e-02,-2.780450313075971125e-01,-7.385453882057457613e-03,3.698854422273556951e-03,-1.434932802784223086e-03,2.284093201160430908e-01
-5.471125893560550846e-02,-4.736702827495048451e-02,-2.898817910367087469e-01,-2.454994473156680342e-03,-4.941927617175881620e-04,-3.197701308083811993e-04,2.389673292636871338e-01
-5.181846941722795252e-02,-5.573655139596966901e-02,-2.903595754504428861e-01,-2.401039766977332984e-03,6.492644739703040679e-04,1.118828371800058719e-04,2.366456985473632812e-01
-5.432730400237181789e-02,-4.640543387285131494e-02,-2.896126288977133867e-01,-2.045519398844204174e-03,-3.050164188581567853e-04,1.734189704801119614e-04,2.393715977668762207e-01
-5.079276271169139156e-02,-4.472005636638222426e-02,-2.896091592828671235e-01,2.677605536775876788e-03,-2.213687962553651087e-04,5.802121432542423247e-04,2.419567704200744629e-01
-4.754441808892048704e-02,-4.786064640975859485e-02,-2.863289609003216163e-01,5.868113010372402044e-03,-3.050817198651811519e-04,-5.146483211126989680e-05,2.388435453176498413e-01
-6.345662952657728229e-02,-3.383488082024749266e-02,-2.817063878609855077e-01,-5.812193963543707716e-04,-6.034453016675396693e-04,1.631017177301413148e-03,2.344897240400314331e-01
-6.006303420888120526e-02,-6.560721639234501357e-02,-2.879777737829815609e-01,-8.457620848933843256e-04,7.712450368629728990e-05,-2.750101451324385763e-04,2.251991480588912964e-01
-6.332583006611673671e-02,-6.235825815267731498e-02,-2.872637810779346546e-01,-1.293469729705006271e-03,3.727466432681758937e-04,2.891461679355345100e-04,2.244359701871871948e-01
-6.368313111076057131e-02,-6.465485493197303812e-02,-2.869188199407247675e-01,-9.254854062733950055e-04,-2.577225275095301334e-05,1.140448208692085655e-04,2.227572798728942871e-01
-6.256883535193846768e-02,-6.070111434102859471e-02,-2.888296649864390830e-01,-4.980829703759580328e-04,1.025750937513165159e-03,1.184775064040942578e-03,2.272183001041412354e-01
-6.335503201976201704e-02,-6.283166602674446211e-02,-2.881327672846533128e-01,-1.530427534783799929e-03,9.944885118274948525e-04,7.762354598336097854e-04,2.250660955905914307e-01
-6.113235532244071235e-02,-3.782203891611163327e-02,-2.838131954325954220e-01,8.831576893696945494e-04,-2.688293658544171796e-04,5.640488417223898585e-04,2.352113872766494751e-01
-5.691267613520945012e-02,-4.507205658026801343e-02,-2.869444367550956221e-01,9.126592630636984468e-04,-2.819748102765209496e-04,1.093043581224712596e-03,2.361881732940673828e-01
-6.355718512736469039e-02,-6.460771746133470161e-02,-2.873904716033904294e-01,-1.350157442684341924e-03,6.726327856364802899e-04,1.524689087262534842e-04,2.233253121376037598e-01
-3.581046039893381883e-02,-6.411774298330177868e-02,-2.818387554531170958e-01,-3.542733598914997407e-04,4.668696150285331879e-03,3.512054815703721713e-04,2.333087474107742310e-01
-3.842253523539321258e-02,-6.271102804109071616e-02,-2.775495639523223312e-01,-3.423600624543793151e-03,3.221969455329925115e-03,-6.739038595018197620e-04,2.281037122011184692e-01
-5.729566358943452564e-02,-5.074898311881546886e-02,-2.880079575279455018e-01,1.211737016337696878e-03,-1.308524149649660864e-03,1.361582219287154477e-03,2.340865731239318848e-01
-3.556148534141098660e-02,-6.488439182608010669e-02,-2.805393242615190630e-01,-2.502093871384867847e-04,5.102573162419399982e-03,1.992635227215563943e-04,2.318812757730484009e-01
-3.712699183707245110e-02,-6.352257215618460628e-02,-2.835027660758299151e-01,-1.272098413429117916e-03,8.539214141834599887e-04,-6.097581821461360227e-04,2.343132048845291138e-01
-5.574369383507102316e-02,-4.807995824006239260e-02,-2.809906934965200609e-01,5.270030663436280072e-03,-1.339477363275192144e-05,6.232564630048186049e-04,2.293592393398284912e-01
-5.868401747232065979e-02,-4.416419962016697454e-02,-2.905735151658692672e-01,-1.147567452053851978e-03,1.177302543445522549e-04,3.191611042614640129e-03,2.395518869161605835e-01
-3.579311374934784906e-02,-6.526175141476212027e-02,-2.742202191894473340e-01,-1.777971746057070224e-03,5.233747132120073961e-03,5.157084282498810082e-05,2.253473550081253052e-01
-5.086122841069530554e-02,-4.900512468417755896e-02,-2.917430764287218259e-01,1.133684995365410574e-03,-8.788836970444367726e-05,1.884683311992695737e-04,2.418234795331954956e-01
-5.763398758400919974e-02,-4.434606638894386665e-02,-2.888482076433978585e-01,4.026317620408030248e-03,3.146019347826836785e-04,1.020009855298010257e-03,2.382456511259078979e-01
-5.934242259997178637e-02,-4.410515085800922885e-02,-2.857258503133888183e-01,4.180826563122560201e-03,4.440886266212983415e-04,1.145546398737087510e-03,2.344953417778015137e-01
-5.390477949826477655e-02,-4.633578482245373498e-02,-2.887211220721552229e-01,1.435767489002052729e-03,-5.057145447706079680e-05,1.460062578422722840e-04,2.387039661407470703e-01
-6.119984548327384033e-02,-3.877584639744330319e-02,-2.863769512324322863e-01,-1.339570211553437742e-03,-6.610761261739836123e-04,-1.600544857498869839e-03,2.372157573699951172e-01
-5.133873142469222439e-02,-5.134146764796673756e-02,-2.901423164615875017e-01,2.268385198317696833e-03,-1.745574558394431667e-04,1.541452624352856971e-04,2.388348728418350220e-01
-5.535348590239880240e-02,-4.350451615064510058e-02,-2.840477135734200131e-01,4.072258987031453573e-03,3.435762796604326205e-04,1.184606816458800681e-03,2.349586188793182373e-01
-5.640912905906897423e-02,-5.406312061387469337e-02,-3.217966561327634811e-01,3.716653174055688583e-03,2.648114054611039672e-02,3.273789016451687794e-02,2.764401435852050781e-01
-6.496981373604666932e-02,-5.030880932099417169e-02,-2.476847089669758639e-01,-8.408960055927405114e-03,8.203186181623210727e-03,-2.067058539926861643e-02,1.948699355125427246e-01
-5.898107343708630657e-02,-4.538438441110349136e-02,-2.165918792473820464e-01,-8.565368694713620251e-03,5.221537126157525452e-03,-1.610508239096737973e-02,1.680744886398315430e-01
-4.864792509138179954e-02,-4.870209380638662600e-02,-2.914539366577811874e-01,1.168544042226462220e-03,-1.618481333702717758e-04,-1.178011494856072753e-04,2.427876144647598267e-01
-5.976337166538869816e-02,-4.348019836625820200e-02,-2.781467464032048031e-01,-6.329374747242106324e-03,1.868530884764536999e-03,-4.286877424902198848e-04,2.272523343563079834e-01
-6.318469766153690659e-02,-3.842028417759885128e-02,-2.716797208402337294e-01,-5.000261812889735327e-03,-9.927558549110022381e-05,2.533950805665435716e-04,2.220854312181472778e-01
-6.671751754170644755e-02,-6.694388484075633472e-02,-3.864147835346072313e-01,6.524666897402909074e-03,5.228686640748552925e-03,4.675554620017287333e-02,3.300030231475830078e-01
-5.143324922843980906e-02,-5.119289962365417002e-02,-2.912952717985727302e-01,8.386882564387871606e-06,6.476873441169233594e-05,3.047339834607163582e-04,2.399828881025314331e-01
-4.807238018095094656e-02,-5.255361849271317221e-02,-2.897501715303654191e-01,8.355524385798774245e-04,1.927699304292614384e-04,3.068944544817099086e-04,2.394738197326660156e-01
-5.003038161867463807e-02,-5.056094426326940283e-02,-2.922074778593336530e-01,-1.186500767581839951e-09,-1.829604059260620338e-05,9.928724367498034003e-05,2.419123202562332153e-01
-4.895802702608606505e-02,-5.375643127589926906e-02,-2.868262830590251333e-01,-4.074859446108049926e-03,-7.503587287887751112e-04,7.370882534787923188e-04,2.356185019016265869e-01
-5.497327409971813905e-02,-5.299243050479850170e-02,-2.906897194511168792e-01,-2.855406827083958724e-04,1.920111838082608162e-05,-2.693716470711757412e-04,2.367140650749206543e-01
-5.319172531063776077e-02,-5.481107600274316705e-02,-2.907104851007134005e-01,-5.667265893683395405e-04,5.501528686379139176e-04,-3.097086487108875351e-04,2.367178052663803101e-01
-5.181380504359434092e-02,-5.383990570590038716e-02,-2.916834822320000242e-01,-3.038281237393120017e-04,1.000332939603037943e-04,-6.616218603328789805e-04,2.388664633035659790e-01
-5.053438725582819202e-02,-4.940877868050375099e-02,-2.913700860017253147e-01,-5.674275453910087360e-04,3.121584709764367127e-04,-3.143078358581855069e-04,2.414036840200424194e-01
-7.376807413164393479e-02,-5.635973450480721847e-02,-2.927998578999850277e-01,-8.996219835448313789e-04,1.964015679205608801e-03,-6.557566436453905268e-04,2.282679229974746704e-01
-7.049417101983715406e-02,-6.710714263368849908e-02,-4.329533214019931076e-01,4.269041413970765114e-03,6.303452104105147780e-02,-6.068749108502705103e-04,3.802520334720611572e-01
-5.257261639764622407e-02,-5.507298685714764885e-02,-2.913374072984857843e-01,-5.524654854703256457e-04,9.334926999407283828e-04,-6.189506883708133147e-04,2.375343292951583862e-01
-4.484292456970713492e-02,-5.557875890307664712e-02,-2.838247836727277873e-01,-3.963738550166602884e-03,-1.246481046309324669e-03,2.727106721221779105e-04,2.339100986719131470e-01
-7.644917919770694015e-02,-5.334044509135646428e-02,-1.538030465003039082e-01,5.623276311489637871e-03,-6.498836323504794676e-02,3.476815849573561962e-02,1.571527421474456787e-01
-5.308832141848893182e-02,-4.253736546297912091e-02,-2.861997212776253852e-01,4.193161698846604654e-03,6.569071378972099039e-04,2.180070636469248931e-03,2.387050390243530273e-01
-5.074754230576733471e-02,-5.136732834407414794e-02,-2.913359050384021209e-01,-2.526480850478908871e-04,2.352029667077554329e-04,-5.228880826063941629e-04,2.402815222740173340e-01
-5.309442527244789822e-02,-4.740458818021967002e-02,-2.892207768221777275e-01,-3.442547603419535921e-03,1.108923184019806277e-03,-1.790853722291781553e-05,2.391041517257690430e-01
-5.163678492392029251e-02,-4.802629003217806503e-02,-2.878610103032006040e-01,-3.414722450794184343e-03,-5.643073222143539427e-04,1.676846094082259627e-03,2.381431907415390015e-01
-7.000293264406788618e-02,-3.947211182605650515e-02,-2.742561189303560631e-01,-3.282448453643207510e-03,-1.486075571336627427e-03,1.223503542519364636e-03,2.212034165859222412e-01
-5.102754391180258642e-02,-4.975315550542537546e-02,-2.910198579255834361e-01,-1.368715932525775515e-03,-1.810955241823759311e-04,-1.604855686569413385e-04,2.406440824270248413e-01
-4.472794717893222027e-02,-5.525058688483827640e-02,-2.817607481647220191e-01,-5.306856310799863696e-03,3.233463117810373658e-04,-3.756098694276214785e-04,2.321342080831527710e-01
-5.639327595533141779e-02,-5.625298509056350649e-02,-2.883427549602860518e-01,2.473733684380163204e-04,1.069861001134366114e-03,-1.081210654580306175e-03,2.320350110530853271e-01
-5.067536988580839674e-02,-5.190103418116913392e-02,-2.909448976557256761e-01,-9.629746111007806688e-04,-8.650502826398261689e-04,3.869068117609285079e-04,2.396704703569412231e-01
-4.892186956792449193e-02,-5.291178143364237696e-02,-2.885208993275861777e-01,-7.216124409111341568e-04,-2.994919371467219147e-04,-1.624622795128106739e-04,2.376332134008407593e-01
-6.520705120508253627e-02,-6.269194823868830257e-02,-2.126391900200846896e-01,7.945947646370311521e-03,9.982291167359810813e-03,2.557946155864313821e-03,1.504039615392684937e-01
-4.572043636990043292e-02,-5.379630767017559712e-02,-2.883940034972839461e-01,-2.263875135928467529e-03,-8.840998104812054846e-05,-6.304022095040015625e-04,2.387728393077850342e-01
-3.430077387581212389e-02,-6.425948302463926898e-02,-2.783100180391314682e-01,-3.208787131080069704e-04,4.666842857151764319e-04,-3.717702311803393030e-04,2.304977476596832275e-01
-5.274058166201307102e-02,-4.517769348012985742e-02,-6.305913790452770396e-02,9.699291084275186298e-03,-8.029763323742512273e-04,6.810312377145423188e-03,2.578782849013805389e-02
-4.848925612949178676e-02,-5.245744098342872141e-02,-2.898464194897558133e-01,-1.106440169111185326e-03,2.960731331902814452e-04,-7.088502257935921751e-04,2.394091039896011353e-01
-5.613919656017882232e-02,-4.295043039153530195e-02,-2.891464839519280461e-01,1.162160361123387893e-03,2.132995607195794293e-04,-2.562101130814868640e-05,2.398824840784072876e-01
-3.829919054826520786e-02,-6.493663535207375159e-02,-2.850242676485715831e-01,-1.045055549427052494e-03,9.519745109136289879e-03,-2.990431119113994484e-04,2.351299971342086792e-01
-5.889620741220100153e-02,-4.676026484345530143e-02,-2.768619549591501139e-01,-7.693438561719927009e-03,-5.911145718001421800e-03,1.143071567580586020e-02,2.257785350084304810e-01
-5.580099471774319086e-02,-5.703704986116056586e-02,-3.257106641567111271e-01,-8.581677380373627356e-04,9.233860072704880295e-03,-3.213994006389650276e-05,2.697723805904388428e-01
-5.439458517740139443e-02,-5.781592722818210128e-02,-2.912137069269107870e-01,-1.108275638265066298e-04,-5.764315102161327546e-05,-2.176562674379117161e-03,2.351574450731277466e-01
-5.400725395776606597e-02,-5.977062398658233855e-02,-3.040629746794270005e-01,-4.296310692716328976e-04,-2.637305739105791705e-03,1.084344946823346395e-03,2.472748756408691406e-01
-3.851338060585343670e-02,-5.870316393700258928e-02,-2.678566107652723960e-01,5.637121363369659161e-03,1.698489531013656559e-02,6.878591614791928176e-03,2.224371582269668579e-01
-6.352157539756257687e-02,-4.444957187184264691e-02,-2.914438596700216211e-01,2.540881806089906781e-04,-2.871207862657810823e-04,-4.374539574357006605e-03,2.381535172462463379e-01
-3.997749099604064327e-02,-6.018014889714409787e-02,-2.844492522166867654e-01,-1.455962717109961354e-03,4.138153122233433762e-03,-2.445088695219092140e-03,2.351834923028945923e-01
-5.250680279933332695e-02,-6.518621047042863492e-02,-2.987288258238723349e-01,1.206435040704712447e-03,-1.719110261872610333e-04,4.258673807594233821e-03,2.402560412883758545e-01
-7.085631973427643227e-02,-6.292789765251044498e-02,-2.091077581245562866e-01,4.753914902821594103e-03,7.223887200522384521e-04,3.181699914046391166e-03,1.427311152219772339e-01
-5.573234988564626513e-02,-5.297287238269224319e-02,-2.903511804506291316e-01,2.756310894501883685e-03,6.350787186030660701e-05,1.105868095921500862e-03,2.360667437314987183e-01
-3.730515355934316268e-02,-6.520191180176593271e-02,-2.842227946743461908e-01,1.962390462589832379e-03,-6.390214482505332527e-03,4.682501894460648986e-05,2.345046103000640869e-01
-4.145283218955649052e-02,-6.378569650829706006e-02,-2.853332053244960753e-01,6.094207531794185867e-03,-3.537769104139025164e-03,-2.596573638269888355e-03,2.338782548904418945e-01
-3.685858705528780033e-02,-6.335313565991948503e-02,-2.843766436634679318e-01,1.608405167808775807e-03,-9.829700786935903836e-04,-4.415475276483106569e-04,2.354156225919723511e-01
-3.531356217920242346e-02,-6.471971747731536384e-02,-2.830431755373288283e-01,3.044588393633140605e-04,-7.916884019876297340e-04,-8.884097349771166545e-05,2.344186156988143921e-01
-7.290928717449854379e-02,-7.798626568851602103e-02,-1.638276638396410911e-01,-1.027345866044777813e-03,9.691918188196302613e-04,8.604342966962339693e-04,8.853553980588912964e-02
-3.586404699587300571e-02,-6.478643724303123630e-02,-2.828595175631106740e-01,-6.768661906037940909e-06,-9.658084417407025767e-04,-1.059166441167077590e-04,2.338854372501373291e-01
-3.427361600190094448e-02,-6.659541273530095173e-02,-2.813145857116765569e-01,2.739361288928702414e-04,-2.145043284221686837e-05,3.980485895010502637e-04,2.325722128152847290e-01
-6.827254691765656525e-02,-5.974993954486002012e-02,-2.970837112998092611e-01,-4.990266390270492285e-04,2.892196989328018469e-03,2.164942200853983180e-03,2.332748472690582275e-01
-4.561788843570732666e-02,-5.290160015451124409e-02,-2.900306804747738165e-01,1.605773075769229008e-03,6.091906388562748478e-05,5.982515024712199616e-04,2.408718615770339966e-01
-5.165744577425712691e-02,-4.916618951408659177e-02,-2.905267303143996838e-01,-1.858598927673672623e-03,5.333042305963313790e-04,-4.891642160824870213e-04,2.401494532823562622e-01
-5.155210145719976711e-02,-5.092887253471412023e-02,-2.914027560367245528e-01,-3.651151664297453683e-04,3.155791224220397045e-04,-4.039253758054999659e-04,2.401653528213500977e-01
-5.384736334330039731e-02,-4.500314157789114811e-02,-2.798524215846663332e-01,7.044684600808033374e-03,-4.480041466641483032e-05,5.592676879930932789e-04,2.308791279792785645e-01
-4.836777645331896691e-02,-5.242564359981122246e-02,-2.854508775301485279e-01,5.615866894804588672e-03,3.398120968145144048e-04,2.019365350699017531e-03,2.353083193302154541e-01
-5.148384535336661405e-02,-4.603810172289284075e-02,-2.870524470342162848e-01,3.765727905742863486e-03,8.534100485596877138e-04,1.033493832820839113e-03,2.384386658668518066e-01
-4.017969203706556192e-02,-5.542369022194038042e-02,-2.873643801802804321e-01,3.491939624624117947e-03,9.395206646767951609e-04,-4.027285582197627153e-04,2.400089204311370850e-01
-5.523443672234443214e-02,-4.224859907645694967e-02,-2.824699527387412035e-01,4.644899324710344626e-03,2.907338419026885652e-04,1.703739470052125166e-03,2.341562360525131226e-01
-5.440478933186687627e-02,-4.709894377509413199e-02,-2.900503264161531369e-01,2.129865973869312767e-03,3.086067322041391231e-04,4.938878430072657019e-04,2.394126355648040771e-01
-5.995911114157259636e-02,-5.972655126416728799e-02,-2.917635370992667232e-01,-6.829237298080171811e-04,-5.157855001904041196e-04,-2.143586348380075064e-03,2.319552451372146606e-01
-5.345079371967850768e-02,-4.961859064672033415e-02,-2.822574183302331008e-01,6.496573834526965172e-03,1.735615807219575502e-03,3.455869478401664505e-03,2.311178743839263916e-01
-4.660021864701363592e-02,-5.448786510277148221e-02,-2.866596661408562507e-01,1.710589417014910440e-03,3.310010697967344026e-04,1.896448144743276515e-04,2.362339198589324951e-01
-4.730518837926508957e-02,-5.239149228304439132e-02,-2.890877745274275101e-01,1.068908334695942977e-03,7.856415449323942476e-05,-6.203535071673181535e-04,2.392895966768264771e-01
-6.181124510016372531e-02,-5.980250736671141598e-02,-2.897316842422972272e-01,8.203928982116130263e-04,1.821089249210537534e-03,-1.851147024117483653e-03,2.289800047874450684e-01
-5.696107394950433722e-02,-5.002677512757089384e-02,-2.889611944962465762e-01,-8.124448845034798472e-04,1.562865774272668366e-04,4.305756633702293975e-04,2.355493754148483276e-01
-4.655487002906899541e-02,-5.480351126994735533e-02,-2.894733049477156150e-01,1.917115110690797725e-03,3.571936643289310115e-04,9.729806477983121422e-05,2.389248758554458618e-01
-4.073218592107297198e-02,-6.044340750159760134e-02,-2.748723331219907751e-01,-2.176607291344656949e-05,-9.819797542943577151e-03,-7.895664537333531990e-04,2.255795001983642578e-01
-4.700916321464296277e-02,-5.852791349864551462e-02,-3.127794055408617546e-01,-7.223708221954860433e-03,-3.903149502054095721e-02,2.509575217869643507e-02,2.726196348667144775e-01
-4.953761741988456369e-02,-5.142465601664339414e-02,-2.885355541594568085e-01,-9.526756530013909654e-04,1.611486046625624884e-04,4.215087345516836019e-04,2.380670309066772461e-01
-6.655685731043381459e-02,-6.186930341022306434e-02,-2.930432609588745074e-01,-3.809043756954569142e-03,3.532596606996635941e-03,-4.356151756698888283e-04,2.290442436933517456e-01
-4.391570012155845970e-02,-5.877799827453943082e-02,-2.818479852092059534e-01,-4.124780368067081787e-03,-2.376569093865064410e-03,5.039829875908063755e-04,2.310090661048889160e-01
-5.867739913712624600e-02,-5.917577204036231220e-02,-2.900272285836002495e-01,-9.853446513564418502e-04,-1.411008906232466510e-03,-9.014562114387167108e-04,2.311255484819412231e-01
-4.600523522923970210e-02,-5.801539512738004833e-02,-2.894024862598583159e-01,-1.537716844152767605e-04,-3.386414237347200405e-03,-8.457386942895100653e-04,2.376969605684280396e-01
-5.871800967170762164e-02,-6.254520123529860864e-02,-2.942476905671136400e-01,-1.474107963328446093e-04,-4.457113867276093350e-03,3.871099054228673334e-04,2.337682098150253296e-01
-6.100365336131688410e-02,-5.522443235299037689e-02,-3.222206947987564796e-01,-1.368085790380274037e-03,-7.764821634897922306e-03,1.330975154211119782e-02,2.655095458030700684e-01
-7.000558798449960096e-02,-5.930224360249577997e-02,-2.944871336254874516e-01,4.582684316790659740e-03,2.462171719469290979e-03,-2.808962414051398987e-03,2.302478849887847900e-01
-4.087058242951081832e-02,-5.727860912858934173e-02,-2.840026028646134293e-01,-2.437855680957303622e-03,-3.176928909782156382e-04,-9.728373056525946208e-05,2.353959381580352783e-01
-5.418319752720560101e-02,-5.420789097328500283e-02,-2.909451147656831882e-01,-1.431960925331598480e-04,-4.674440612629401069e-04,4.937946647033035572e-04,2.367526292800903320e-01
-5.136360422195117292e-02,-5.087291619420224176e-02,-2.914752798493747132e-01,-2.306872619824135824e-04,-1.767975868070133488e-04,1.180513072196901837e-04,2.403580099344253540e-01
-7.319301468061147065e-02,-4.977469058924634260e-02,-2.415622422467847696e-01,-1.705142722753795709e-04,2.386898074302964967e-03,2.090444823988962808e-02,1.848450899124145508e-01
-6.681480253570856731e-02,-4.759030146270831763e-02,-2.390964195014680937e-01,5.328738928490152349e-03,-1.108346146284898328e-03,2.574414615170362262e-03,1.829516887664794922e-01
-5.263062152181142983e-02,-5.102345713305175834e-02,-2.908388773716663600e-01,-6.186835463802568737e-04,-1.428899389681032961e-04,-5.122476492976806885e-04,2.390200644731521606e-01
-6.326877709179193343e-02,-5.960847537398841767e-02,-2.914340820582951852e-01,1.100878648003371678e-03,1.349432040317351906e-03,-8.487259304773394275e-04,2.300417721271514893e-01
-7.257373942164296876e-02,-6.119169688194250889e-02,-2.919984264628819881e-01,3.107977388816819935e-03,-8.031997593187538073e-04,1.137550482307660800e-03,2.254086136817932129e-01
-7.202209720088630085e-02,-5.679538998583398557e-02,-2.932491917646646851e-01,4.833647438096307439e-03,1.353812950369503391e-03,-1.565394177362503273e-03,2.294009178876876831e-01
-5.775068549907252935e-02,-4.159363928311514413e-02,-2.863655736669299401e-01,1.437753559816217419e-03,4.990851656919395758e-04,9.275222749439245755e-04,2.371267378330230713e-01
-5.997626113717252627e-02,-6.153085860873611090e-02,-2.884946415242408135e-01,-1.054214780732669419e-03,-3.320064087013610034e-03,-7.090945336279271330e-03,2.281557768583297729e-01
-5.485478812240341534e-02,-7.438190597800327375e-02,-1.984892595744223165e-01,4.882144960297474939e-03,-2.631960810956787342e-02,8.156889530150202017e-02,2.007922530174255371e-01
-7.196532722281934191e-02,-7.083604148198310857e-02,-2.809945632493798806e-01,1.557922785946845579e-03,-5.956944709296992102e-02,7.506101230313136363e-02,2.673683762550354004e-01
-6.167473101714606581e-02,-6.358859626403781662e-02,-2.334758897977982084e-01,-7.580411327809925479e-03,1.843785226718361661e-03,-1.928025178549698342e-03,1.714183092117309570e-01
-4.504152754057112740e-02,-6.325450332474710780e-02,-2.902481170696148416e-01,6.208497276236077736e-04,-3.709706995952160268e-03,1.239905727205962895e-03,2.367257773876190186e-01
-4.570596037664309552e-02,-4.656330482646542368e-02,-1.125279289462929599e-01,4.809567105233336637e-03,5.024291465366589188e-02,-3.267957326178207167e-02,1.235108599066734314e-01
-6.898311826972483574e-02,-6.478328892662522931e-02,-3.360037138279166058e-01,-3.018712245811141625e-03,2.848783560550091718e-03,-6.376747232753416685e-03,2.694675326347351074e-01
-5.475890980739517300e-02,-5.043956097053073351e-02,-2.949601125964711468e-01,4.737344257813518034e-03,7.525739002472436466e-05,-3.469285409819204300e-04,2.425293624401092529e-01
-5.857178531196038929e-02,-7.646603525368564358e-02,-2.922210835993815925e-01,-4.113394885018425333e-04,5.469644893638710842e-04,9.388463626051834175e-04,2.252449095249176025e-01
-5.829304192935357010e-02,-6.788622599867925878e-02,-1.536600061503971548e-01,6.813382029969243872e-03,-3.508860690883090772e-02,-1.973776781178592996e-02,1.152113303542137146e-01
-5.758026230158951042e-02,-5.242627068303079563e-02,-3.450889884988880829e-01,1.866352245199997401e-03,1.292835441923915162e-02,1.102482492564081651e-02,2.916267514228820801e-01
-7.331879330035745435e-02,-6.575514808818443135e-02,-1.668424725020328236e-01,1.716524491560086560e-03,-2.490328658959950134e-02,-3.875787237534925045e-02,1.260442137718200684e-01
-7.240551780967786899e-02,-6.315338173482376583e-02,-1.621383913862504966e-01,3.221262081857836825e-03,6.515817182874137845e-03,1.521986805892110162e-02,9.910217672586441040e-02
-6.826443808565962890e-02,-4.174212421804929241e-02,-2.698464438002231014e-01,8.287110478562309014e-04,-1.835048650536193638e-03,1.197265432846505301e-02,2.170883566141128540e-01
-4.209934518397322190e-02,-5.857122462285838105e-02,-2.812709639901265213e-01,5.489035564781844304e-03,3.483255806146330884e-03,1.930446970333286752e-03,2.316737920045852661e-01
-7.358464905191362815e-02,-7.206847697107540696e-02,-1.390066652553611781e-01,-3.276003928568318579e-04,-1.962183817471748436e-03,1.072746747416835743e-03,6.630878150463104248e-02
-7.951991260232510461e-02,-7.346867003377113847e-02,-1.775428826400576310e-01,2.756576617883474585e-03,-7.413301598016694069e-04,-1.331307238410114890e-02,1.038962900638580322e-01
-5.158777753648152720e-02,-5.051927678105647135e-02,-2.711193801597742148e-01,9.235961665329788656e-03,2.735815926000828915e-04,6.879453501392427143e-04,2.206521928310394287e-01
-5.545859706904238129e-02,-5.054054420896720440e-02,-1.958375790931524418e-01,7.399189949329643134e-03,5.660922097675911285e-02,3.703852123713548272e-02,1.852415949106216431e-01
-6.867550150885211313e-02,-5.434013943576450345e-02,-1.690239276843613359e-01,7.254889634352577020e-03,-1.698770837757489216e-02,-2.963468654737813276e-02,1.239843964576721191e-01
-5.187552866491104697e-02,-6.570022682189549657e-02,-2.585171744423838680e-01,6.704266668590420399e-03,1.657038153072283582e-03,-1.736621864472727195e-05,2.004450410604476929e-01
-6.229182702993858040e-02,-6.318195009075203150e-02,-2.332476391309022956e-01,7.305940324500525759e-03,2.369915593498317982e-03,1.087221460060982343e-03,1.710410416126251221e-01
-7.579752405485251643e-02,-6.392774486696982394e-02,-2.103368660765058684e-01,2.698508896706094430e-03,-5.876112102148445910e-04,3.156871389158508266e-03,1.410370767116546631e-01
-6.968512344964236660e-02,-5.826836407105728810e-02,-1.742369866415334478e-01,6.830921420412070823e-03,7.075627127490160054e-03,-2.779803591081410341e-03,1.121090427041053772e-01
-6.368176668878061664e-02,-6.072561352618894431e-02,-2.213549338271341704e-01,6.163872573356447317e-03,-1.151853073513866080e-02,-2.011119181106207215e-02,1.645024716854095459e-01
-5.535929795631383543e-02,-5.950664486545663434e-02,-2.886372094065093874e-01,5.302915232901705224e-05,-6.939041485042702576e-04,-1.648371409785882782e-03,2.312529087066650391e-01
-3.769302720919025240e-02,-6.036694194943562075e-02,-2.875364664757733557e-01,2.045510930819587157e-03,8.751444855805676909e-03,6.891423195213492760e-04,2.398221492767333984e-01
-4.910203661324148705e-02,-6.933230847445345790e-02,-2.323323550330093634e-01,4.333780995281749995e-03,1.919318189558273657e-02,1.292099043078954144e-03,1.773197799921035767e-01
-5.439377672415390830e-02,-6.925848565067339868e-02,-2.539833654924328887e-01,-6.297826800383517568e-03,1.593319958201810937e-02,-3.356869851651980881e-03,1.949474662542343140e-01
-4.364178918098850224e-02,-5.362761616029282363e-02,-2.813064683050007786e-01,7.370691091085622947e-03,7.559713494534025515e-04,-4.072234060989896823e-04,2.331869006156921387e-01
-5.560151105392271975e-02,-5.965705044879074381e-02,-2.883840145387958076e-01,5.603063123799025425e-04,-7.129627799785727589e-04,-1.093152390943977724e-03,2.307945787906646729e-01
-4.263668460301300867e-02,-6.056126713692840113e-02,-2.686534544425037141e-01,5.397003516406264148e-03,1.706167263515542256e-03,-1.845914370897916153e-04,2.178298234939575195e-01
-3.936898783009730451e-02,-6.429449129694081444e-02,-2.687634670046886720e-01,2.948597320089437011e-03,-2.168933515672827306e-04,1.691749817348725174e-06,2.180632054805755615e-01
-6.143562503144558984e-02,-6.083423891043608644e-02,-2.951936340531197134e-01,-4.435964593782737420e-04,1.566768334347645990e-03,3.140739672901849723e-03,2.341394722461700439e-01
-4.668447748557977284e-02,-5.846154313972969085e-02,-2.877477915777273410e-01,1.687252227283005113e-03,-4.245923404060620654e-04,-5.024440619993218032e-04,2.354167401790618896e-01
-4.546823115834780493e-02,-5.725643344836529869e-02,-2.909685670824013748e-01,4.673775012392930236e-03,3.404550097435783077e-03,1.116353665753551378e-04,2.400327324867248535e-01
-4.248207951473660648e-02,-6.054326550739980162e-02,-2.872247258971714068e-01,1.673503352254262231e-03,1.415366303200420433e-03,2.278391941762487709e-03,2.362939119338989258e-01
-4.911206805261197905e-02,-5.213303033812966003e-02,-2.900807056182265198e-01,1.121895773611225134e-03,-6.518570095799044051e-04,-3.315715495053169685e-04,2.394836843013763428e-01
-5.885855814031205890e-02,-4.583140612937264269e-02,-2.827286669766662097e-01,-5.245140577540175972e-03,-4.947754262891103805e-04,2.104471186456507038e-03,2.308689653873443604e-01
-5.280586547690944987e-02,-4.831246043966805348e-02,-2.916519440289071508e-01,-9.093294485505293550e-04,3.553490321727636146e-04,6.570647043751211194e-04,2.411327958106994629e-01
-4.346519327647638264e-02,-7.173299615400349771e-02,-2.599369662259864988e-01,-5.557718198621596287e-03,-1.918352714309834450e-02,9.222275026219039357e-03,2.073445320129394531e-01
-5.243880257333996542e-02,-5.124152694230149629e-02,-2.804842710538044681e-01,-8.291845541983956791e-03,-7.032237298381573565e-04,2.501877779406227933e-03,2.291412800550460815e-01
-5.720841856053149321e-02,-3.949102937526535739e-02,-2.835515426637023051e-01,-2.963722337743850480e-03,-8.466146756213332753e-04,1.125967012785958343e-03,2.357702851295471191e-01
-3.652756561882247732e-02,-6.074566718330598469e-02,-2.824867192534897820e-01,-1.049983942383655479e-03,1.060646189000154227e-03,-7.533538957152244395e-05,2.348030209541320801e-01
-5.757100514899740618e-02,-4.108991286744476112e-02,-2.842035405693045802e-01,-3.109820469041557449e-03,-1.120045920983117935e-04,3.143542642188255085e-04,2.353687137365341187e-01
-4.838268912410134681e-02,-5.844896497627355414e-02,-2.902130112716770904e-01,4.345769491074773379e-04,-1.429928059314980893e-03,4.557925641026766279e-04,2.369730472564697266e-01
-5.609547648637827622e-02,-4.556513363906058989e-02,-2.901252139590925205e-01,-1.484117630596794041e-03,5.979230243000563123e-04,6.077119961778129111e-04,2.394869625568389893e-01
-5.604506315991392151e-02,-4.190072185432491825e-02,-2.872096511112616213e-01,-2.502203423664352017e-03,-1.074151534494842235e-03,8.612912781886516165e-04,2.386027425527572632e-01
-6.269886939087651601e-02,-6.294924555100822605e-02,-2.878450030501475965e-01,-1.045196591306667014e-03,4.940843400724153180e-04,7.901786029224486165e-04,2.250341176986694336e-01
-5.802462042359229910e-02,-5.717768145931620416e-02,-2.884642361014106982e-01,-1.792443103647192292e-04,1.098384396436198097e-03,-7.906612369533006337e-04,2.308763563632965088e-01
-6.273850762917485002e-02,-6.241384817322438716e-02,-2.253436800074193891e-01,-8.160928876518746058e-03,-1.671391991659778534e-03,1.770041319073468577e-03,1.634347587823867798e-01
-5.774200553322986207e-02,-5.788317911143991967e-02,-2.885735632269100792e-01,-3.123042822514768670e-04,1.039046355165935791e-03,-8.869911324571319112e-04,2.307737618684768677e-01
-5.791124300753144882e-02,-5.928733254329206226e-02,-2.887572116373856579e-01,4.782480339674678993e-06,7.304287034409701670e-04,-4.243989132945945580e-04,2.301656603813171387e-01
-3.833737198864126117e-02,-6.025057859118645998e-02,-2.751039774960805095e-01,-4.763359080485393519e-03,1.354379255623363795e-04,3.272981149570572293e-04,2.267570197582244873e-01
-6.314659467256493464e-02,-6.034362137177969043e-02,-2.891808621577250937e-01,2.133836723033120746e-04,1.155814148191777659e-03,-1.090645955836843164e-03,2.274656593799591064e-01
-6.127668156241401071e-02,-6.346528251569034940e-02,-6.894770684168798069e-02,-2.084492774227925550e-03,3.109485602663770304e-02,5.393664826917082128e-02,1.081112250685691833e-01
-6.677024519191321339e-02,-4.567934682204209673e-02,-2.383372027424420225e-01,8.707154274271360767e-03,1.028623642489517181e-02,4.031628990058348794e-02,1.972805708646774292e-01
-6.961227271888360824e-02,-4.425927527497595937e-02,-2.243830653217969151e-01,-1.504231141794189425e-03,6.354973707365845024e-04,3.532385039301978724e-02,1.796440929174423218e-01
-5.090652387509786436e-02,-4.934145229033623514e-02,-2.906066661186271771e-01,-1.479408728466003863e-03,-1.940236803543037741e-04,1.686563827700773453e-04,2.405005544424057007e-01
-5.181593495851835596e-02,-6.091410315755746430e-02,-2.606219596311606379e-01,-8.204280394143691202e-03,-8.743489194334875137e-04,5.286990730835812750e-04,2.049098461866378784e-01
-5.847026045521794280e-02,-4.569899613056931098e-02,-2.905650744618363257e-01,-1.640703580890866308e-03,3.338492773765289667e-04,-3.432690750465814886e-03,2.388284206390380859e-01
-6.125013087329359701e-02,-7.058801149748487880e-02,-2.090370121957576544e-01,4.158681946140795060e-03,3.525002696906480611e-03,8.904204002089695369e-04,1.436651647090911865e-01
-8.297880983624777995e-02,-6.112985702377275038e-02,-2.232007003392068034e-01,2.958565117311671901e-03,-1.692493256932279394e-02,6.076771648125351560e-02,1.875287294387817383e-01
-6.370308745342098677e-02,-5.330859668664104933e-02,-1.755177084999421377e-01,6.672764696080604047e-04,2.426573541254803401e-02,6.858356802349678538e-02,1.721968054771423340e-01
-4.715773596221523034e-02,-6.532792009200874550e-02,-2.464000126389397916e-01,6.209287960431606607e-03,-5.022938394670997935e-04,-2.580251052557586957e-04,1.911125183105468750e-01
-5.239563986246430216e-02,-5.113179213659668765e-02,-2.911327991010022598e-01,5.290284346674129206e-04,-6.108315888870805314e-04,1.288091354605877537e-04,2.393757849931716919e-01
-6.454976377784799046e-02,-6.598896328445791326e-02,-2.343262042626946540e-01,5.539206178031710545e-03,1.874031908058504652e-03,4.063292579178420642e-04,1.693660169839859009e-01
-6.739533530377472825e-02,-6.643901151651285253e-02,-1.339883329887531505e-01,1.169543919079218865e-03,9.572536099901294573e-05,4.303547522287742844e-02,1.002971306443214417e-01
-6.133453452929419486e-02,-6.004246054529841642e-02,-4.937254183822391979e-02,1.165729462947728660e-03,5.856357239137020268e-04,5.367098563816734280e-02,9.368101507425308228e-02
-6.266620224429542141e-02,-5.242398950267213031e-02,-9.388521040280690955e-02,1.238822372323918541e-03,2.849674162721939005e-02,4.325112577859356600e-02,9.722169488668441772e-02
-5.943751781560518976e-02,-4.010521241245770807e-02,-2.849161146995431437e-01,2.659247606544794425e-03,-4.994060327577071190e-04,-3.624373371867263614e-04,2.357874363660812378e-01
-7.546025729601901766e-02,-5.908865195623545091e-02,-1.780905188853229570e-01,6.220041747802143930e-03,3.637257220828707394e-02,5.890209378577985350e-02,1.642393171787261963e-01
-3.730319053391008277e-02,-6.706503097890711973e-02,-2.479589295102540558e-01,1.397194879081872657e-03,9.828068743937809493e-03,1.190558975938298906e-03,1.982220709323883057e-01
-7.141529627376354272e-02,-7.315462822217333461e-02,-1.630670314695522871e-01,-1.384136863041882754e-03,2.386901242603789029e-04,3.686426853637415880e-04,9.082939475774765015e-02
-5.590599692536914189e-02,-5.837739372871693366e-02,-1.282328468346784212e-01,-1.079746153967160553e-05,-4.133814564428391590e-03,7.514468817440689286e-02,1.484923213720321655e-01
-6.563065333776900434e-02,-6.239305439653405200e-02,-6.153156006521703220e-02,2.089696808583313414e-03,-6.384354599523087148e-02,9.962841575174172237e-03,1.120396554470062256e-01
-5.382471121321608098e-02,-5.283757149294558697e-02,-2.493027222824329425e-01,-1.171802307040142876e-02,5.314278873984703590e-03,-5.780673615853094277e-03,1.974905133247375488e-01
-5.876642843644885872e-02,-7.013771772641180791e-02,-2.898571907154908200e-01,-9.483514731784665162e-04,9.956431476410261897e-04,-2.539523577124806406e-03,2.256755828857421875e-01
-5.907181923917473321e-02,-5.635743870798615163e-02,-2.944102669239775372e-01,1.371464153783910058e-03,2.630549728269883022e-03,1.131796289963316179e-03,2.367711961269378662e-01
-6.186864518143702502e-02,-6.989943918595049877e-02,-2.199563416087549905e-01,9.507481831394357791e-03,-1.375913331580499999e-02,-2.027945790331004555e-02,1.608089953660964966e-01
-3.487294062530675587e-02,-6.118530503743734028e-02,-2.659589913403515027e-01,-3.046640420490290355e-04,1.445918113269754890e-02,-3.817226735839327791e-03,2.206442356109619141e-01
-7.219918078576025022e-02,-7.403797482706221678e-02,-1.055178103520635624e-01,1.532331747219468432e-03,2.890701592228305536e-04,-1.946137295712981052e-02,4.685910791158676147e-02
-6.074815183824459897e-02,-4.598583537543603217e-02,-2.459845355049316007e-01,-1.192881990614358054e-02,7.367738504035515994e-03,-1.482198126101104928e-02,1.962492763996124268e-01
-8.016514454790793498e-02,-7.786842447441610915e-02,-1.842414716519351625e-01,-8.373609788399720682e-04,-1.619267972457631103e-03,2.231044973557520794e-02,1.121580526232719421e-01
-5.573292922237096936e-02,-4.284601075482824539e-02,-2.860436361528976845e-01,-1.457306605848030824e-03,7.262438581494942876e-04,-7.014013948138649122e-04,2.370369583368301392e-01
-5.920237290953075937e-02,-6.942547514150454457e-02,-1.941242024172991631e-01,-9.726416926838752112e-04,2.878264040496945377e-03,-2.045561676309619412e-03,1.302664130926132202e-01
-5.750892920685777426e-02,-6.001531475625906248e-02,-6.091579796540320252e-02,2.408145016477873310e-03,2.028616902017412165e-03,-4.355563602376288923e-02,7.569923251867294312e-02
-3.580139805319111634e-02,-6.181348028184507903e-02,-2.824545530699695828e-01,2.477431761484402868e-03,8.213091076532551727e-05,1.261769000697158986e-05,2.347698360681533813e-01
-6.940672216714532938e-02,-6.190599378855207724e-02,-3.162714367965736573e-01,1.528867886444612101e-03,5.161358427120709465e-05,3.027765065406357817e-03,2.507680952548980713e-01
-6.325011236194877373e-02,-4.465064218988423761e-02,-2.901421168577278387e-01,7.066340970461463308e-05,1.420859819354481843e-03,3.590521662953051561e-03,2.368348389863967896e-01
-7.022318519647685608e-02,-5.712192232176996343e-02,-2.926795702014761691e-01,1.261660997893176896e-03,2.634836190287944465e-03,1.368555299939280693e-03,2.293559908866882324e-01
-6.729367787273493606e-02,-5.847924537775037179e-02,-2.956306953131031534e-01,4.275564172629136173e-05,-2.203509460750112739e-03,-2.344609107245813895e-04,2.329010218381881714e-01
-4.798416706179198243e-02,-5.570759838313504853e-02,-2.827793947514284922e-01,5.077657476918208228e-03,7.583749104630668368e-04,-4.078203507387723713e-04,2.312024980783462524e-01
-3.904925732727285159e-02,-6.232766267584047282e-02,-2.682467446785435916e-01,6.042381388136982071e-03,9.109750525394984255e-04,2.979830103829783140e-04,2.187471240758895874e-01
-6.911568315480837166e-02,-5.613314386163885394e-02,-3.010422785601449824e-01,-1.085595313528404156e-03,7.843437407896777097e-04,2.248533841540404244e-03,2.387258559465408325e-01
-7.756734559844885579e-02,-5.742832226849721444e-02,-3.002126579718493726e-01,3.265560249927247551e-03,-1.464861377118501385e-03,-1.279567899466539996e-03,2.334603071212768555e-01
-6.268878431776420124e-02,-5.715354747219243692e-02,-3.421298050432607374e-01,-7.533121411062625172e-03,3.628475454958652452e-02,-2.374653058459415267e-02,2.923634350299835205e-01
-7.545618047979912868e-02,-5.756863605597892231e-02,-2.963628667525922689e-01,-1.565994892616198210e-04,4.041301387779076175e-04,-2.947031986410175892e-04,2.303736805915832520e-01
-8.148040984618645788e-02,-5.668416122410263602e-02,-2.982047815217570563e-01,9.544901116124603806e-04,-1.608686431024922365e-03,-5.488790208452720698e-04,2.301513850688934326e-01
-5.531292955365080255e-02,-5.110717835711162116e-02,-2.898230988432715649e-01,2.826702506787333617e-04,1.145460590523687296e-03,-2.353581252792949865e-04,2.366502583026885986e-01
-5.394108674292817651e-02,-4.905500724120032130e-02,-2.900147690622986163e-01,-1.977653565932113028e-03,-1.491030065848494314e-05,3.471282418287946611e-04,2.385796010494232178e-01
-3.674221393960006021e-02,-6.387114984871444801e-02,-2.808517257817380042e-01,4.550896229563738699e-04,-6.456477293174088267e-04,4.890286729721437988e-04,2.317446619272232056e-01
-6.575090300878030924e-02,-6.165538254546620855e-02,-2.906354586865547152e-01,-2.577280087975725165e-03,3.735636462853151284e-04,7.562022373599449395e-04,2.270086258649826050e-01
-4.717929836610060268e-02,-5.480586164318787534e-02,-2.890450095578119827e-01,-4.481832108974284287e-03,-3.198410240123742126e-03,-3.652206164738018871e-04,2.383357584476470947e-01
-4.968101714273370773e-02,-5.481103453563199168e-02,-2.965736852917604804e-01,-5.845155710013831031e-03,2.422527155848864687e-05,2.278362711555002775e-03,2.446095198392868042e-01
-4.504619685531553730e-02,-5.324498394315342609e-02,-2.887507588697617589e-01,-2.327840068072942106e-03,-1.122364803307089630e-06,-2.642482091924540713e-04,2.397446930408477783e-01
-4.507950354293818740e-02,-5.170042196722531014e-02,-2.902640283785079545e-01,-8.679492985683020471e-04,1.500155635806285637e-03,-1.681390926259403759e-04,2.419608235359191895e-01
-3.954755859742664637e-02,-7.256582708540688931e-02,-2.730775960278535308e-01,-4.401417591519585400e-03,-5.544164334175621066e-04,8.283269312968455193e-04,2.190361320972442627e-01
-7.844318747185859142e-02,-7.005622603373021229e-02,-1.276786091095137299e-01,-1.395795980448862961e-03,1.144837501375437459e-02,1.681633494452332983e-02,6.445782631635665894e-02
-5.213334828724505710e-02,-4.423844100903756571e-02,-2.867606774687504467e-01,-4.453358497166038515e-03,-7.385518055704665043e-04,1.244183656798183817e-03,2.388104945421218872e-01
-4.902310431167283822e-02,-5.126665365486773873e-02,-2.901651632299286909e-01,-3.133235069678845432e-03,2.938808668886644683e-06,5.078881350336205292e-04,2.400911003351211548e-01
-4.920220281270981655e-02,-5.143580415294729535e-02,-2.911587732803289641e-01,-2.260356801082350885e-03,6.557186720097627364e-04,2.248439948234430265e-05,2.408820390701293945e-01
-7.758180803372492773e-02,-7.381924200429657024e-02,-1.613110233982680830e-01,-1.493167739208374684e-04,-1.905010009711766931e-03,-4.157669329940862080e-04,8.573941886425018311e-02
-6.291675890987502573e-02,-6.423518768012326241e-02,-2.903716433511593364e-01,-3.106943351836811886e-03,-3.899804605481819509e-04,-2.783476367052611835e-04,2.268638908863067627e-01
-6.465259810462628542e-02,-6.192061519288900862e-02,-2.904536303707671019e-01,-2.553342413921229868e-03,-2.932832364883268365e-04,-4.146857105720811875e-04,2.272240966558456421e-01
-4.815640348695529593e-02,-6.720215986906052930e-02,-2.318178297545553379e-01,-2.693953463917375234e-03,-2.388653104565154409e-03,8.134664667623259953e-05,1.750291436910629272e-01
-3.982408477968807370e-02,-6.258877987374650287e-02,-2.854219604640361174e-01,3.277340860326314210e-03,-3.183403475218873381e-03,-3.405286827600663554e-04,2.351777255535125732e-01
-5.634829029964449898e-02,-6.330649680474875751e-02,-3.061703733009188411e-01,2.837980880361754455e-04,3.169433729653020441e-03,-6.197101825464869200e-03,2.467119097709655762e-01
-6.653845558428228557e-02,-5.884555646899010395e-02,-2.941379424992727198e-01,-7.537131802801314657e-04,2.521524589870385424e-04,-7.549818261219781181e-05,2.315459400415420532e-01
-5.671653950383126475e-02,-6.017027489249249239e-02,-2.671890263471722315e-01,1.298401027398466377e-02,-1.349143719480750889e-02,-2.502528193564643438e-03,2.113155871629714966e-01
-5.891107970080344813e-02,-7.044846553220801555e-02,-2.911697019002763565e-01,9.563348079585047698e-04,-9.702378690423684371e-04,-1.309144604914427076e-03,2.267338335514068604e-01
-7.208589348644629802e-02,-7.006477804157892897e-02,-1.595117250655285479e-01,2.973489346991450930e-03,-1.775204096319166463e-03,-3.440311645046281405e-04,8.865885436534881592e-02
-6.205583086944091442e-02,-6.370595822789236473e-02,-3.162465758680064742e-01,-1.736659814423219608e-03,6.309859488555672608e-03,3.918408153924969953e-03,2.537139356136322021e-01
-4.043603350753156855e-02,-5.780333025262537894e-02,-2.863794395503735934e-01,1.121116175607318310e-03,5.220225420867847729e-04,5.513121058383690844e-04,2.377475798130035400e-01
-6.904594294298095625e-02,-6.261783957334865480e-02,-2.907725437525594536e-01,-1.794296289076516542e-03,-1.243940859863771784e-03,-4.472650834618272604e-04,2.250426411628723145e-01
-6.677501115567183176e-02,-6.275471969203502698e-02,-2.929849604834839361e-01,-3.501033283550147521e-03,2.093995299491253816e-03,2.145227613751136270e-03,2.283862233161926270e-01
-5.997874707582104281e-02,-6.844598368225496277e-02,-3.266376723588722553e-01,-2.189733960734067952e-03,-3.612161533207052747e-03,-1.058645327260898325e-04,2.626297175884246826e-01
-3.772090715183533394e-02,-6.512342726749065225e-02,-2.754510889514361072e-01,1.770538860735452200e-03,2.038368428468735789e-03,9.935634086628817880e-04,2.253374457359313965e-01
-5.534546224156028371e-02,-3.967168030999236594e-02,-2.853361046885436458e-01,3.413781215371113585e-03,-4.119904816043343655e-04,8.366666614201552607e-05,2.382890582084655762e-01
-5.827948649252553959e-02,-6.579910306438535583e-02,-3.034019492119345296e-01,-7.678092859577687968e-04,3.352719327334031506e-04,4.968962673783128628e-03,2.416081875562667847e-01
-6.432407614048524236e-02,-6.246500475203614622e-02,-2.085492192458477112e-01,5.937864605525066015e-03,-2.131218189874442386e-03,-1.686855353003631009e-03,1.456036120653152466e-01
-7.418045658455935110e-02,-6.113371848172999279e-02,-4.946221985198178683e-01,6.867599272579228559e-03,-1.752085512295013803e-02,2.083673164797886918e-02,4.298741817474365234e-01
-5.784874779584769922e-02,-6.836743585133911449e-02,-2.978231985692373351e-01,-1.263691607335550070e-03,-2.733875011741016122e-04,-2.982625108400573273e-03,2.349592894315719604e-01
-7.062056586288134596e-02,-3.764266364860038849e-02,-2.516872109125289914e-01,2.655239115046290847e-03,3.243663745166752450e-04,-8.021892174741671738e-03,2.001459151506423950e-01
-5.634382689383773957e-02,-7.508690270757412133e-02,-2.932408201448253315e-01,6.618724879466403224e-04,9.183374321977561807e-04,5.568705168707563727e-04,2.281141877174377441e-01
-4.918903499471277696e-02,-7.382618969201001913e-02,-2.399439165900903170e-01,1.755710625332724574e-03,3.217824416896043933e-03,-1.342929731760018550e-03,1.798345893621444702e-01
-5.268881318782839274e-02,-4.482911468477868144e-02,-2.887799062591935861e-01,1.937659029283489041e-03,-2.681304299666418221e-04,7.601504782727076316e-07,2.401413470506668091e-01
-6.064240709204629654e-02,-5.924120272620947425e-02,-2.965718150203223713e-01,5.470115398108926254e-04,-7.223998059661760479e-04,7.801697350067421030e-03,2.370238304138183594e-01
-6.068493917824697992e-02,-6.982341592790786144e-02,-2.949630744816537087e-01,4.455742167139148391e-03,-2.803406886085080133e-05,2.197967806342162635e-03,2.300062328577041626e-01
-6.075754587114551297e-02,-5.448583919825916722e-02,-2.988275086192392349e-01,7.157672467800580514e-04,1.368965639602327247e-03,-3.109383735171933815e-04,2.412824034690856934e-01
-5.816677990120516784e-02,-7.603587299616874906e-02,-3.024120478206807627e-01,1.670921418792906972e-05,8.309647009852632791e-05,-2.840810877708483187e-03,2.358704060316085815e-01
-5.833630757148682011e-02,-5.637052703571643342e-02,-2.732261005298468604e-01,3.792867642716635235e-03,-1.954533106518076963e-02,-2.708658539991169040e-02,2.235937863588333130e-01
-3.514940737917053581e-02,-6.594006971528673655e-02,-2.828378019842370805e-01,2.142735926188727704e-04,3.353850358669616919e-04,-4.753196515529731214e-04,2.338210195302963257e-01
-3.599955745148890329e-02,-6.172727646036463289e-02,-2.859323260360353558e-01,-2.754028825900776316e-04,4.238671614330571935e-03,3.286577936024985980e-04,2.382279485464096069e-01
-3.706977108186104708e-02,-6.636381792416148895e-02,-2.794263175296959334e-01,-2.069128844761914873e-03,4.676647362154477227e-04,-3.723701549479115579e-04,2.291487455368041992e-01
-5.887466234087994355e-02,-7.478908844702859826e-02,-3.022659164411358734e-01,-2.857960701708262777e-03,7.937567750401284378e-05,-2.400309857000227504e-03,2.359257191419601440e-01
-6.726984429637508645e-02,-6.910405364068256118e-02,-1.567385805997480175e-01,3.907177128280535892e-03,6.334789347269026427e-02,-6.791291703322745177e-02,1.837527453899383545e-01
-6.007017493239969613e-02,-5.241566029227970325e-02,-2.473942305994625834e-01,-1.695767537126762490e-03,1.871544103735007375e-02,-4.559624411594402627e-02,2.094737440347671509e-01
-5.966040167487410284e-02,-5.494179663878157038e-02,-3.010017422577451196e-01,8.606495970428787922e-04,-2.272735151540732339e-03,1.042253932922940652e-03,2.437779307365417480e-01
-3.937883036708363094e-02,-7.090862793908346562e-02,-2.705074695568167042e-01,6.182673228428606617e-04,7.251079152834709850e-04,5.144136348202650632e-04,2.170959562063217163e-01
-6.235202483596766210e-02,-4.291025395884795479e-02,-2.857925478730003466e-01,-1.206046311618707298e-03,-7.046438100850765701e-05,-7.922620592080075949e-04,2.337819337844848633e-01
-6.328227430372582174e-02,-4.380989445143203265e-02,-2.783929240582047049e-01,-1.620922862829196663e-03,2.534586448497948112e-03,-1.049099512108980087e-02,2.262693494558334351e-01
-6.125906368112535305e-02,-6.151013030320795494e-02,-2.872071012401239409e-01,5.756035073031201192e-07,-6.068091459586642464e-04,-6.998150445482005308e-04,2.258283048868179321e-01
-5.055411984817622523e-02,-4.547353898662611499e-02,-9.982542788200235440e-02,7.321702708489362908e-03,4.288074696141132920e-04,-6.323063309776516538e-02,1.218996047973632812e-01
-7.396870919218356821e-02,-4.847207658854915668e-02,-2.378435341409392278e-01,6.207279853748019771e-03,-3.922385608501841384e-03,-4.764601562379682659e-02,1.966099441051483154e-01
-4.440641841886833197e-02,-5.643052911310444952e-02,-2.895310483984460115e-01,1.371464602559324892e-03,-8.985843075408295145e-04,6.524669526981137415e-04,2.393587231636047363e-01
-5.225726065927838171e-02,-4.820217113974606393e-02,-2.892448473096611017e-01,1.148773982300109377e-03,6.190061824941625384e-04,5.579034769234646977e-04,2.390535622835159302e-01
-5.870715954489980765e-02,-7.090923309755453596e-02,-1.407273935116731267e-01,1.220243021044587709e-03,3.465981316759021713e-02,-8.305992817901747260e-02,1.737257093191146851e-01
-3.551149721538038317e-02,-6.403913464413511780e-02,-2.763364618785512095e-01,4.391933862558553112e-04,-3.276996688970019393e-03,-2.914606576520378670e-04,2.279766947031021118e-01
-6.902771693132150888e-02,-4.845754763556477107e-02,-2.568093632033344731e-01,-4.572435504454333034e-03,1.370986624568607155e-02,-2.674871369839174756e-02,2.057203501462936401e-01
-6.032972638610070715e-02,-5.947640162748420167e-02,-2.918432693996652061e-01,-4.676088876963224272e-04,-1.594618568512984206e-03,-3.835448708211509601e-04,2.319601923227310181e-01
-6.273930176267944470e-02,-3.744558681243978504e-02,-2.820861574240230429e-01,1.130004371639324557e-03,-3.726377478405923935e-04,-4.360470287560661126e-04,2.330358922481536865e-01
-4.327671580736988655e-02,-5.603464855793736932e-02,-2.749322473522620158e-01,5.524781571873406578e-03,-6.586862229595698108e-03,-2.124914064947719394e-03,2.260683029890060425e-01
-6.273997048527173159e-02,-4.121202356947017975e-02,-2.828396417120545570e-01,1.134190158925235149e-03,-7.371227151595473532e-04,-2.330455756268790153e-03,2.316622436046600342e-01
-5.354209305891938220e-02,-4.504080993032782976e-02,-2.879093843921625151e-01,5.395296895275989574e-03,-2.859225949186716166e-03,-3.539629117491348547e-03,2.390442639589309692e-01
-4.852233236097215630e-02,-5.625690969532853858e-02,-2.848118006460988449e-01,5.125455127935934531e-03,-1.221992257138168592e-04,2.845916789228185718e-04,2.326887100934982300e-01
-6.836410664912880020e-02,-6.831955758583282967e-02,-1.556636962362438759e-01,3.741182565925661816e-03,-3.638897738622698386e-02,-2.097967313567754288e-02,1.138420477509498596e-01
-5.246347358135432237e-02,-5.184580567070305734e-02,-2.424663233823657338e-01,1.243244525541516154e-02,-1.178740233160820161e-02,-7.024046182682703969e-03,1.929957568645477295e-01
-6.038226537135923944e-02,-5.702560225519474890e-02,-2.065881851427108784e-01,9.162172000274904776e-03,-1.473993909336874511e-03,-6.400104838397919008e-04,1.487877219915390015e-01
-4.792165076644651356e-02,-4.708428380425087878e-02,-2.764356623603249630e-01,7.730382917308057690e-03,-3.713644528169822434e-03,-3.787598992386288690e-03,2.295090258121490479e-01
-4.338033353119906399e-02,-5.795608082561473640e-02,-2.794092382557150089e-01,4.823887992339203658e-03,-3.996080288522501842e-03,-1.484743562188039784e-03,2.293602526187896729e-01
-6.097243159506576804e-02,-6.293744879452700669e-02,-4.926864689965267108e-02,-4.281969420142624303e-04,6.103492180399716291e-03,-1.597336200636607570e-02,3.227368742227554321e-02
-6.920991886175639762e-02,-5.759454195475689764e-02,-1.516415058100520075e-01,4.383291910252173212e-03,-1.007939490192654927e-02,-2.860360141252522859e-02,1.034614816308021545e-01
-5.744818351783248511e-02,-6.297492959335512785e-02,-2.940278021831049804e-01,2.992365411799076695e-04,1.772306177906814140e-04,-3.444695434325660294e-03,2.339421063661575317e-01
-8.645230730135963770e-02,-5.465272604888188335e-02,-3.236716436755812110e-01,-9.138428053891232278e-05,8.324790365942979359e-03,1.206282142812337404e-03,2.550294101238250732e-01
-4.862162225512292602e-02,-5.751549593027729945e-02,-2.707807825801752943e-01,4.441219078366395560e-03,3.785424699628662376e-02,5.625843085253911949e-04,2.276332378387451172e-01
-4.817065108999467327e-02,-6.667488172217483910e-02,-2.394407165228974455e-01,-8.918290731068400420e-04,3.696973095580116404e-03,-1.018908091344440919e-03,1.828492283821105957e-01
-7.524556525294914811e-02,-7.484020164829552346e-02,-3.470504145957951092e-01,-4.939660596775143206e-04,9.312881651433468910e-02,3.245745940532732826e-02,3.211982846260070801e-01
-6.940919124615174685e-02,-6.183747205882356157e-02,-3.005959898590058188e-01,-2.183679103293456256e-03,6.620534777691152763e-03,-3.501825171910291417e-04,2.353748381137847900e-01
-6.289573647482267493e-02,-7.078431060476768344e-02,-4.064767777357300993e-01,2.149886697526238750e-03,5.577580561719439750e-02,1.688699368218698343e-02,3.544037044048309326e-01
-7.278923621346206074e-02,-5.982530442272353255e-02,-2.933589433911699129e-01,-7.929708893256935372e-04,1.420305622559092130e-03,-1.944406075140970951e-04,2.273467928171157837e-01
-6.785374744060504448e-02,-5.523109344479718019e-02,-2.948439604109228673e-01,-1.539649593485300540e-03,5.716625791341523044e-03,-4.626029368336096251e-03,2.339197695255279541e-01
-5.777136115420869467e-02,-5.912376360248372542e-02,-2.928266703223653677e-01,-1.036551153931892112e-03,-1.027469535236702220e-03,-2.409761510480687083e-03,2.344328314065933228e-01
-5.495064882506048298e-02,-7.175687449368983728e-02,-3.419392929056997987e-01,-4.883353835460495056e-03,3.134205348600244134e-02,-1.193860725058320908e-02,2.850751578807830811e-01
-7.505440024440843128e-02,-6.033929976621672797e-02,-3.306669726998737180e-01,-1.478357943988738111e-03,1.445730689512928087e-04,-5.295598807391468238e-03,2.634510099887847900e-01
-6.616856864698471286e-02,-5.033168632184330249e-02,-3.217928716732900152e-01,5.268003496380777896e-03,5.127593808557893117e-03,-3.055306598589948479e-04,2.642069160938262939e-01
-7.972297150055854265e-02,-7.697716222904432692e-02,-1.703180052256592636e-01,-8.343890817295344323e-04,4.411344298586311261e-03,-8.740409226416039762e-03,9.355965256690979004e-02
-7.558822519262679840e-02,-6.035178265624774330e-02,-3.218782036277608727e-01,-5.855643054096770252e-03,4.686792260919244932e-03,-6.645480881544550515e-03,2.548425793647766113e-01
-7.929089329136704278e-02,-5.832683422250403704e-02,-3.312770624994830770e-01,4.425643637755155915e-03,-1.223447402940573605e-03,-2.974639001415831704e-03,2.632659673690795898e-01
-3.691676758223641497e-02,-6.305865463981957797e-02,-2.811331661344910193e-01,-2.228094429851310704e-03,3.128521569757340259e-04,1.185779984071770555e-04,2.322843074798583984e-01
-7.369564554861547656e-02,-7.375502726204334614e-02,-4.427024450695750679e-01,-3.573756346618758416e-03,8.253923455464792780e-02,-6.390173587194734536e-03,3.959079384803771973e-01
-7.661581633216801857e-02,-5.620104705087439201e-02,-2.961801298985446418e-01,3.442297153818013101e-04,2.381316193964964655e-06,-7.389510031015316793e-04,2.304552048444747925e-01
-6.578423216054346545e-02,-5.918406770946653406e-02,-2.923262328976988789e-01,8.998040862987022673e-04,6.141533896458264627e-03,-2.267832419349163908e-03,2.301978915929794312e-01
-7.374277719977627432e-02,-7.697622699202404106e-02,-1.634920525375752054e-01,8.941120751558728113e-04,-1.044271001131525517e-02,-8.178602155976530397e-03,9.113399684429168701e-02
-6.246867128199690145e-02,-5.860799651953320366e-02,-1.807226653790540150e-01,7.955747108997615613e-03,1.722898782627314829e-02,7.180450566174604275e-03,1.252618283033370972e-01
-7.612242828149959339e-02,-7.542093493581526753e-02,-1.485786428642016099e-01,3.221022735906119931e-03,1.438268771943994502e-02,1.105122139339277838e-02,7.949415594339370728e-02
-7.174278711849882417e-02,-7.223323365548214858e-02,-1.748536750185862854e-01,9.909856383339675848e-03,3.297377814166066456e-02,2.876809823713253819e-02,1.289215385913848877e-01
-3.972123902261645578e-02,-7.042880956123281910e-02,-2.704784846168422074e-01,-3.881945165174953503e-03,1.341307787065849477e-03,-1.515130577843859083e-03,2.171712666749954224e-01
-6.827974742482625925e-02,-6.594632729018087836e-02,-2.762144513440197291e-01,2.005858418020157238e-03,3.603047341439248596e-02,-1.089018442593830613e-02,2.190660387277603149e-01
-6.722368906856275583e-02,-6.352950378687832744e-02,-1.975256243274409740e-01,2.280880927422427804e-03,8.928704419212263321e-02,-1.021743045587304374e-02,2.042521089315414429e-01
-7.731071609246434329e-02,-7.203619185583062801e-02,-4.444203971709355661e-01,-2.542270889532358916e-03,1.167923682023213477e-02,-5.796714999397698659e-02,3.837223649024963379e-01
-4.878208918342821776e-02,-4.888072448509092616e-02,-2.908997045096569090e-01,1.171878308927246960e-03,7.015117433212021832e-05,-6.377389549053164930e-05,2.420768737792968750e-01
-6.174328152124235192e-02,-6.337575023272246089e-02,-2.860197693695926136e-01,7.368157790498032229e-04,9.057748285283304481e-05,3.453504136633271627e-05,2.234684377908706665e-01
-6.551016545402026103e-02,-6.127724648123270695e-02,-2.016354462596367525e-01,6.497700110917060609e-03,1.044281824011971923e-03,2.515335559368149509e-02,1.454380303621292114e-01
-4.389211376992802061e-02,-5.578776232537799307e-02,-2.865391432864023979e-01,1.359192790394281010e-03,-6.959943492832331054e-04,-5.161671795795098926e-04,2.369397282600402832e-01
-7.246210106577889720e-02,-7.740158971400457055e-02,-1.773224910011410027e-01,9.585458205423793687e-04,7.801855983401002025e-03,3.393743908411867276e-03,1.035473793745040894e-01
-6.907497399608411581e-02,-7.783692407437935168e-02,-1.816851045991472735e-01,6.411838533275787677e-04,1.442010256695814598e-02,9.371172672151673174e-04,1.113499626517295837e-01
-7.390837736857383544e-02,-7.022096280838659166e-02,-1.431707848287947782e-01,1.829211753083259673e-03,1.570858535288469429e-02,7.648013363514534826e-03,7.740846276283264160e-02
-4.973521094688540534e-02,-5.104549511964012742e-02,-2.912433182104730012e-01,-9.957333800342826370e-04,1.816707195548283599e-04,1.821563880907525095e-04,2.408622205257415771e-01
-4.934598257519903775e-02,-5.106136249996579002e-02,-2.912772225924668001e-01,-8.892553698772810754e-04,4.653062455599035676e-05,3.024278812148447907e-05,2.410830706357955933e-01
-4.105317298894561873e-02,-6.069143457140277476e-02,-2.835712820317201066e-01,1.078220094591910653e-03,-1.269760414071030271e-03,4.000038440105224539e-04,2.333385199308395386e-01
-4.432654030627182495e-02,-5.357722991061208972e-02,-2.855247851341132792e-01,-3.790569492948347215e-03,2.067938723044772126e-03,-9.993018493043812371e-05,2.368266880512237549e-01
-4.559248056075171363e-02,-5.409503799571449556e-02,-2.892943095908584450e-01,-1.424753788116653059e-03,3.069968855422846015e-04,-2.425004880743606979e-04,2.395774126052856445e-01
-6.595439672245342888e-02,-3.957044029565953691e-02,-2.727467600618740384e-01,4.878105037520117856e-03,4.602293752415567707e-03,1.014527230834141175e-02,2.221686393022537231e-01
-6.381596421018395637e-02,-4.247293242472231778e-02,-2.834926480358110901e-01,1.608943514257223442e-03,9.432091858875390870e-05,1.876700519688216749e-03,2.311283051967620850e-01
-6.667703940919915417e-02,-6.091456384888596642e-02,-2.891543581835531174e-01,-9.726255294461447687e-04,-3.472132013633736454e-04,8.924536911451679813e-04,2.254261970520019531e-01
-4.843818918459978640e-02,-6.044154945463135753e-02,-2.456081053399052361e-01,8.606324517433353374e-03,-2.103235968751355784e-03,-7.686789927866872390e-04,1.920692771673202515e-01
-6.015497277454040503e-02,-3.823644815076815417e-02,-2.815775617612559234e-01,8.967815380502163923e-04,4.929623355016390582e-04,7.651276202499176105e-04,2.331663370132446289e-01
-5.029211954181686539e-02,-5.478607640773050513e-02,-2.944336143653185633e-01,9.197146510010682785e-03,-9.821369087802907238e-03,-5.318473656532085418e-03,2.432202696800231934e-01
-5.965458897300102148e-02,-4.267672471671232759e-02,-2.825727603872797422e-01,4.209007519960374956e-03,3.040626834597011776e-04,1.707555589386578095e-03,2.320077717304229736e-01
-5.715353630205372015e-02,-5.566559247769127527e-02,-2.921049340135263850e-01,1.601959510966057085e-04,-1.846543252462199336e-03,2.770970266129605102e-03,2.357696145772933960e-01
-7.440546507430058354e-02,-7.486004949637335704e-02,-1.447245205076884145e-01,-1.445304546660436439e-03,6.343303402668372393e-03,5.887085192391951129e-04,7.100020349025726318e-02
-5.658590956004379280e-02,-5.019580411446242230e-02,-2.873534453272786338e-01,6.957364121926907542e-03,-7.422122286740054191e-03,-1.489761598761121450e-02,2.361046671867370605e-01
-5.898249767911542540e-02,-4.744864727730287168e-02,-2.896731919554237367e-01,1.626253608977633542e-03,6.343421868739681016e-04,1.166601184248509916e-04,2.366878986358642578e-01
-6.119894861153271637e-02,-3.677696286069624676e-02,-2.824022835555027866e-01,2.705058494223423673e-03,1.633005990094194980e-04,-3.128742432519535056e-04,2.344182133674621582e-01
-6.805212953291929490e-02,-6.353239029535835691e-02,-2.885492495044560401e-01,1.807805727877896413e-03,-2.463382787968780791e-04,4.540830287733400839e-04,2.228151708841323853e-01
-6.901136767682239381e-02,-6.331110037260764822e-02,-2.096999429507027668e-01,5.102666587258082066e-03,-1.779469026558585078e-03,-1.532427465682950152e-03,1.439527273178100586e-01
-6.222835609823260117e-02,-6.099186240286161298e-02,-2.877576961921566312e-01,2.408370689196887883e-04,8.486226719075029915e-04,-1.153076952348017561e-03,2.261641025543212891e-01
-6.198272579362534840e-02,-6.276365078878129444e-02,-2.881037445052815338e-01,3.110020801976383538e-04,7.156340821982453207e-04,-1.421312325451476195e-03,2.257490456104278564e-01
-6.434023149527570706e-02,-6.262295871120984736e-02,-2.874789097284194961e-01,7.906631254980128493e-04,-1.241093442895557818e-04,-7.139908701806386523e-06,2.240065485239028931e-01
-6.565847104885755292e-02,-4.146352894461390742e-02,-1.664673374226587899e-01,3.003817120870887723e-03,1.252167113536620767e-02,3.719512582170404758e-02,1.335468590259552002e-01
-7.047434540530185532e-02,-6.202259688712459529e-02,-1.992374008709324462e-01,-2.946704232360301649e-03,7.394968428841130603e-04,-3.116300394532402207e-03,1.334033459424972534e-01
-6.265220614923605602e-02,-6.335313234830454443e-02,-2.870708205380431699e-01,1.173284715175572542e-03,-1.524154918188244732e-04,-2.302740832132571785e-04,2.240786999464035034e-01
-5.846753099406727661e-02,-5.749843014394623308e-02,-2.911608651732148778e-01,-7.665903325148310356e-04,-1.646059048631507956e-03,2.102474483246033476e-03,2.332290410995483398e-01
-6.312706491828100341e-02,-6.259922473139672983e-02,-2.880872834374156310e-01,8.161893784534401779e-04,6.599084514513398102e-04,-4.183593365086900914e-04,2.252331078052520752e-01
-6.283661252253988638e-02,-6.449894344046198935e-02,-2.873714588529744929e-01,6.824399007413819431e-04,-1.675523074393542593e-04,-2.483456987743732389e-04,2.237120419740676880e-01
-6.334775501457153013e-02,-6.303423975502339682e-02,-2.884743463902181837e-01,1.331519818591554109e-03,8.760472636906488754e-04,-1.426058405263379292e-03,2.253139615058898926e-01
-6.285512340827956179e-02,-6.386469379121212375e-02,-2.868874062875379494e-01,8.411529411724694540e-04,8.891227754622576694e-05,1.713761623536608366e-04,2.235342115163803101e-01
-4.359437614993608157e-02,-6.369502540826485482e-02,-2.989654334472989783e-01,3.908370000346121989e-03,1.327612754241129511e-02,-3.291565887471589041e-03,2.471687346696853638e-01
-7.159758985630784722e-02,-5.976077044559424678e-02,-2.955910314987388321e-01,-5.142174869969312091e-03,1.689922622799031049e-03,6.778487194297694394e-04,2.303341329097747803e-01
-7.201448395245294010e-02,-5.849623381533369804e-02,-2.948206337691317569e-01,-2.465114812220971924e-03,-3.391206730690918270e-04,-2.514889453520264065e-03,2.299452573060989380e-01
-5.389012600955637999e-02,-4.998649785273073798e-02,-2.831338056122707503e-01,3.678163506199306348e-03,4.319261249339935438e-03,3.704083949402778991e-03,2.315178215503692627e-01
-5.921522945010893046e-02,-6.010284014509394146e-02,-3.049650717232130770e-01,1.860587257801047572e-03,-1.520502654050294141e-03,1.766018557780542515e-03,2.453616112470626831e-01
-5.119037978111701248e-02,-5.165758456963280565e-02,-2.894557922928003846e-01,-2.667150926040347345e-03,7.317230658933481652e-04,-1.425893419628166650e-04,2.380804866552352905e-01
-6.276483082924738666e-02,-5.084561410340819598e-02,-2.515849413766679810e-01,-8.825948447690289481e-03,6.752239118889809613e-04,-1.614859373925803037e-03,1.956746578216552734e-01
-5.225578885017660713e-02,-6.247887973930416061e-02,-3.059732461171685292e-01,7.926823588911429547e-03,1.350666665287473915e-02,1.773160946652727749e-02,2.521156668663024902e-01
-4.211426981011689996e-02,-5.396636258241022110e-02,-2.634654098435524894e-01,-7.285096439018146075e-03,6.783992620749539418e-03,-2.947342704788504832e-03,2.164178192615509033e-01
-4.936995546861897011e-02,-5.265364404633599005e-02,-2.906909172029885635e-01,-4.375865366200509636e-03,-3.354509980306853256e-04,-1.029965152977994078e-03,2.398231178522109985e-01
-5.829106200685348071e-02,-5.597427970075993797e-02,-3.259781255251184007e-01,4.895905509605277123e-03,1.619972842609977010e-02,2.570799777995531887e-02,2.740872204303741455e-01
-4.112978890782842400e-02,-6.172354134613976251e-02,-2.840161302702700619e-01,-2.957459106257234738e-03,-2.523254370357829097e-04,1.631052745390801947e-04,2.333290576934814453e-01
-6.194187389872478355e-02,-3.739900490718831017e-02,-2.869397090807516704e-01,-4.990567099671728343e-04,-1.610119546293438788e-03,-9.603138230678990445e-03,2.388172000646591187e-01
-6.595980876044749142e-02,-3.997082865283509145e-02,-2.730955588199543982e-01,3.707308082289257744e-03,-1.845748248965281254e-03,-8.138078600877460614e-03,2.218423485755920410e-01
-4.402649009350015352e-02,-6.298079695699425329e-02,-2.786221148249397039e-01,-6.971966846294684085e-03,2.734285089594007054e-04,-4.539937856981627283e-05,2.260394394397735596e-01
-6.879623988197372531e-02,-6.007046248220873630e-02,-2.992072042667734966e-01,3.899941544896509509e-03,-2.013420668290617430e-03,6.614993688209663521e-04,2.350212037563323975e-01
-5.103691574448121493e-02,-5.031241200503280830e-02,-2.889646417502821918e-01,-2.153494200222170162e-03,2.043568976591254914e-05,1.002430225646025203e-03,2.383263260126113892e-01
-4.785672465162903177e-02,-5.437692867125662466e-02,-2.814673479087205221e-01,-6.680287545842464141e-03,-4.020767460098790516e-04,5.787491675589754138e-04,2.307132780551910400e-01
-6.506839347613789515e-02,-4.078449196549890909e-02,-2.825253535831009355e-01,3.502610704151326950e-04,-3.755704271429714759e-04,-2.394881821528932302e-03,2.305990904569625854e-01
-6.337072465153986700e-02,-6.364526275403731281e-02,-2.864697090169256999e-01,4.967998852191273006e-04,-5.759083412280781040e-04,3.151653379515984233e-05,2.229657471179962158e-01
-6.424596024257825388e-02,-3.550408613766241339e-02,-2.817474223715653592e-01,-4.239758444777261834e-04,-4.087265617260389910e-04,-4.304247919022587826e-03,2.333259582519531250e-01
-4.801220885972271035e-02,-5.155667343976438888e-02,-2.852634180382415119e-01,5.507666852226546748e-03,6.522046239889340148e-05,-6.414287295241305703e-05,2.356921732425689697e-01
-5.930372760553302702e-02,-5.939453395646895895e-02,-2.895321114459195044e-01,-1.136103695070982502e-04,3.303190376917140955e-04,5.866672847396767415e-04,2.301860302686691284e-01
-5.075814825599156421e-02,-4.973610284045462682e-02,-2.908695575046392756e-01,2.003425402796404388e-03,3.552068969837970263e-04,-1.750982925577647940e-04,2.406500577926635742e-01
-5.563477236832549411e-02,-5.142149174093148256e-02,-2.916930594044260250e-01,8.738048280299918471e-04,-4.091392625405253854e-04,2.400895703828246624e-05,2.381987422704696655e-01
-6.512033800939806549e-02,-3.707478370667263712e-02,-2.859998238247191127e-01,-5.919855321276546074e-04,-4.752195679921020601e-04,-1.050900681208443224e-02,2.368586808443069458e-01
-6.118415980353507366e-02,-6.192586313439081558e-02,-2.948674910830190177e-01,1.319288504592098198e-02,-1.762042125618436261e-02,-2.347448758350019829e-02,2.398788779973983765e-01
-6.342729964747328975e-02,-6.338510640047666234e-02,-2.869154196532880396e-01,3.529525341504205006e-05,5.220901024990156876e-05,-1.398924752771323423e-04,2.235093712806701660e-01
-6.332104787824191505e-02,-4.805260077802618601e-02,-2.820707933139766643e-01,1.571182342948330719e-03,-2.067342245885435068e-03,1.488780096000604479e-02,2.282755225896835327e-01
-5.752709592607165023e-02,-5.451629427398840821e-02,-3.774272373905831479e-01,6.917691087102977726e-03,-5.505422508524005290e-03,-1.758281280643516145e-02,3.232186138629913330e-01
-5.128907336589150212e-02,-5.242735694976058403e-02,-2.909230827196259139e-01,4.988905927045259644e-04,7.899684612037147008e-04,-6.134525271462947221e-05,2.390723973512649536e-01
-5.156918523397446830e-02,-5.195244670654555752e-02,-3.210692512394305309e-01,-3.999804586844908638e-03,8.389180529572267048e-05,-5.445154668712325757e-03,2.695628106594085693e-01
-6.523412005253678703e-02,-5.417116735571114727e-02,-3.256376520110265127e-01,1.751009336677683548e-03,-1.406537600731050429e-03,1.721445854789013796e-02,2.678009867668151855e-01
-5.376405055103647412e-02,-5.358553197842688687e-02,-2.702604375902253331e-01,7.837813822872876507e-03,-1.510692728764612407e-04,-1.266163754135473713e-05,2.170109003782272339e-01
-5.100522180692423913e-02,-4.538709862782205895e-02,-2.896711090484453410e-01,2.553114374922791589e-03,1.209735855968968290e-04,2.246506214915785908e-05,2.415645271539688110e-01
-6.660204721247109383e-02,-6.024192929445155997e-02,-4.024587572348277686e-01,-9.930539902591854068e-03,1.896594678822506944e-02,5.292472534254073074e-02,3.532057702541351318e-01
-5.883127980518722266e-02,-5.375156100201559928e-02,-3.271289523831125701e-01,1.688642622154332791e-03,2.749062142449082945e-03,1.782465358523720178e-02,2.726842463016510010e-01
-5.512365396555010677e-02,-6.447123391198406051e-02,-3.218928273557366548e-01,-1.090853608199383569e-04,-1.330065907940160969e-02,5.280744488786082158e-02,2.786685526371002197e-01
-6.183331166622350883e-02,-5.094527945092885979e-02,-2.574083067023129612e-01,8.517292206756087170e-03,-3.442257548547846685e-04,-1.150907394243355468e-03,2.017907798290252686e-01
-5.540931300925056036e-02,-4.083253215995558127e-02,-2.863432993892197631e-01,3.229129026643901348e-03,3.328326674968090475e-04,-5.190602179315022789e-04,2.386245727539062500e-01
-5.617900873093309433e-02,-7.499752840441639701e-02,-3.269941089011371149e-01,4.797296063027633534e-05,1.418804542056721629e-03,-5.219221229667059259e-03,2.620808780193328857e-01
-6.620194335180973333e-02,-3.601060392624086393e-02,-2.781585778230010186e-01,-2.377173246190449323e-03,1.690805571795370686e-03,-4.271945454298367237e-03,2.287283688783645630e-01
-6.604145800993166393e-02,-4.024661229055234712e-02,-2.736143342168153580e-01,-4.177349533386523657e-03,8.198411017103731692e-04,-8.193280421310487850e-04,2.217263281345367432e-01
-6.316945703906912124e-02,-3.769489549670934636e-02,-2.830226329936661456e-01,1.398468076526991058e-03,2.125315188946098449e-05,-7.669053065333324799e-04,2.336507439613342285e-01
-6.590699115370673988e-02,-3.644561994914145842e-02,-2.680702291998491305e-01,1.264410547649312284e-03,-4.792355357697422667e-04,-8.935393669190168364e-03,2.189496755599975586e-01
-6.533390853118803410e-02,-3.540693466460813343e-02,-2.812984541323545473e-01,-2.263736970439477175e-04,-1.738839417559226574e-05,-4.735401454732082044e-03,2.325229048728942871e-01
-6.112830983571110322e-02,-4.109261308164618987e-02,-2.833740018784414172e-01,1.184275020439372241e-03,2.553113415823586260e-04,-8.181327370106818197e-04,2.329245209693908691e-01
-6.205532562171875433e-02,-4.163134625500518327e-02,-2.841713152785723118e-01,3.469627183929850493e-04,2.203980696549503998e-05,-1.259294976738639616e-03,2.330112904310226440e-01
-6.365001922970070503e-02,-3.875334631055693535e-02,-2.869173505666219315e-01,1.318745843068012177e-03,-1.549860769546336408e-05,-1.761513637715331638e-03,2.367304116487503052e-01
-6.688508124007894184e-02,-4.749582041480122918e-02,-2.440008679666121894e-01,3.833825151681646750e-03,-6.464768823720100886e-04,-2.699848029933482694e-03,1.877426505088806152e-01
-6.818701422698512926e-02,-4.530191383680851058e-02,-2.773485701437338191e-01,8.157816207219510674e-03,-4.335574507295465209e-03,-6.121124241914483594e-03,2.223227620124816895e-01
-6.266732009662576153e-02,-6.316142285803177936e-02,-2.873391909459682703e-01,9.614090060614303122e-04,-4.700394833270426717e-04,6.915495331932162114e-04,2.244360744953155518e-01
-6.429488675986094748e-02,-3.560923255275935673e-02,-2.819088273356185059e-01,-1.536515398081756269e-04,-4.846687345230123482e-04,-7.300590267558778115e-04,2.332883775234222412e-01
-3.955729146673767072e-02,-5.867319555586630875e-02,-2.838147785351122776e-01,-4.527753295422711280e-03,3.278292350787209968e-03,-1.484172087789845237e-03,2.354958355426788330e-01
-4.346778166629358675e-02,-5.881483427679315423e-02,-2.858398336649030091e-01,-3.750460652450118837e-03,1.177897508456438209e-03,-3.438445794619075443e-04,2.351738959550857544e-01
-6.653403208471274366e-02,-3.735569222661017097e-02,-2.800512793943752410e-01,-1.775318740350731580e-03,-3.787458123714266861e-05,-2.508122023601046897e-04,2.295228093862533569e-01
-6.022488175613267825e-02,-3.964248237160604427e-02,-2.743654859474238816e-01,-4.173211498428153372e-03,2.554915706822454349e-04,-8.175781539496643343e-04,2.252594232559204102e-01
-5.143897348979765971e-02,-5.402669117431252443e-02,-2.879585894627277320e-01,-5.904304834659271362e-03,1.937076025801689159e-03,-1.594921997574748947e-03,2.354987263679504395e-01
-5.059409126882197238e-02,-4.805115368411215504e-02,-2.900192184850381993e-01,-4.228826546982807771e-03,-5.306686990708857962e-04,-1.671141041974947075e-04,2.408200204372406006e-01
-4.535747106565657383e-02,-5.345980580754924882e-02,-2.787627134975585452e-01,-5.004936172078111936e-03,3.717489095223702224e-03,-9.597740308246425784e-04,2.297213524580001831e-01
-5.871610966796494968e-02,-4.088818738476501791e-02,-2.862854608873063866e-01,-1.799486055042475666e-03,6.092690793281673638e-04,-6.168821638127058252e-04,2.370120286941528320e-01
-6.332170091072794604e-02,-6.207988841724770834e-02,-2.863441583437905669e-01,2.414128965928821172e-04,7.350486720112745626e-05,4.476300799996581789e-04,2.236477136611938477e-01
-5.334348330760967094e-02,-5.266262355302080145e-02,-2.717028149095199741e-01,-8.569727836810741434e-03,-1.033754623202143031e-04,-2.706502831983438842e-05,2.192037552595138550e-01
-4.829749662066236404e-02,-5.457946885027534223e-02,-2.888332757296704356e-01,-3.637472716948859756e-03,6.971119511459103924e-05,1.470181912955765007e-04,2.375408560037612915e-01
-4.536519764053163761e-02,-5.400388283270690648e-02,-2.884959508111512028e-01,-2.323073055062925725e-03,-4.060989582363525984e-05,5.920495356865496800e-04,2.389646619558334351e-01
-5.432384296093409337e-02,-5.333223392349155378e-02,-3.386079267344865862e-01,4.053699746114989254e-03,1.483314852556991831e-02,-1.758932865126940082e-03,2.860401570796966553e-01
-6.996030017581911231e-02,-6.558147964604348068e-02,-2.921903081028088822e-01,-6.199170402808904662e-03,-2.523498352801053016e-04,4.909966625033105117e-04,2.247101664543151855e-01
-7.335421560167118549e-02,-6.283334383464525552e-02,-3.195341365834314384e-01,-9.108376582435986218e-03,1.988954110409167295e-03,-8.157585690634594836e-03,2.525186538696289062e-01
-6.444309422574442947e-02,-6.460948424547816038e-02,-2.895374274244462143e-01,-2.597667223676028772e-03,-1.169634382487268112e-03,-1.063064465946913064e-03,2.250728160142898560e-01
-4.338315293623123958e-02,-5.530448668011718472e-02,-2.806536123691387719e-01,-5.402168039957163173e-03,-5.230238737014124978e-04,6.223572947329368728e-04,2.317333370447158813e-01
-6.840141270960932440e-02,-6.413185623040308647e-02,-3.044092714986138537e-01,-5.493281091555290291e-03,-5.453669767353478900e-03,-2.453858739884967697e-03,2.385862618684768677e-01
-5.675043683986726040e-02,-4.618331982314369255e-02,-2.778685633991192505e-01,-5.179041435218321998e-03,-6.034236528176666363e-04,-7.335842232403310542e-03,2.271221578121185303e-01
-6.151615140438976281e-02,-6.192209097982148691e-02,-2.867954922163650222e-01,-1.095097131506344641e-04,-5.479007451359709738e-04,8.449968963986159102e-04,2.250834852457046509e-01
-6.091915332623713819e-02,-6.265340287037735045e-02,-3.017057172638190621e-01,-2.651547829370378122e-03,-2.545366106215529722e-03,-6.578650891845065586e-04,2.400112897157669067e-01
-7.417094579120342424e-02,-6.450857841909507506e-02,-1.907724701706062786e-01,-1.434627396882608976e-03,-1.107803062333672858e-02,2.359311207737940785e-02,1.298467218875885010e-01
-5.143534641026460685e-02,-5.074050888571780826e-02,-2.913355890199649245e-01,-2.058824919609852575e-03,4.713452611434865359e-05,-3.953109179319771278e-04,2.402758747339248657e-01
-5.099620136762586520e-02,-4.933787067011574656e-02,-2.916531549064760309e-01,-1.830386853580766218e-03,-8.310888918718412001e-05,-4.167145489757815495e-04,2.415123134851455688e-01
-4.532830040741236965e-02,-5.108275879688881083e-02,-2.900071590037853753e-01,2.682744303823290238e-03,-5.226659468840108265e-04,-1.618910698614344531e-04,2.418994754552841187e-01
-6.141331033343844226e-02,-5.875539865070114609e-02,-2.909608194942460146e-01,-1.035329819462148075e-04,2.329169305410452916e-04,1.135063165055718616e-03,2.308967262506484985e-01
-5.042851436522466368e-02,-5.741764760077212870e-02,-2.613829394241494186e-01,1.032159322918797285e-02,-5.998759392063308027e-04,-5.562843517792951352e-03,2.085419595241546631e-01
-5.365405979624830735e-02,-5.500496463321179197e-02,-2.894253109332644569e-01,1.851360623012860080e-04,3.460392479206141173e-05,1.913075401849269981e-04,2.350991666316986084e-01
-5.830544473082656387e-02,-5.834479369917294767e-02,-2.909424044931422371e-01,2.253873867506940402e-04,1.681004399417564826e-03,1.262022798940819982e-03,2.326461076736450195e-01
-5.251023716197075752e-02,-5.441303493166811667e-02,-2.890666166346350652e-01,3.754843375949239517e-03,-8.993755937244408147e-04,-5.361448963376232732e-04,2.357074618339538574e-01
-4.994648531300693861e-02,-5.162019110838719782e-02,-2.916536374765467121e-01,5.097286137299058542e-04,-9.120045640917715619e-05,1.634891806312068299e-04,2.408764958381652832e-01
-4.910731523660952225e-02,-5.107857928607711928e-02,-2.913334879952905743e-01,1.243188306204148948e-03,-2.498448455671366901e-05,2.958926868174666883e-04,2.412567436695098877e-01
-5.156887365841060500e-02,-5.000527920356850897e-02,-2.879203854204148705e-01,2.694226639126487931e-03,-9.076588206664933014e-04,-8.360372812704529788e-04,2.371927201747894287e-01
-5.016190377803649014e-02,-4.978505694419413374e-02,-2.915144894042247525e-01,4.973592487644951749e-04,3.834331506931240759e-04,-2.609209520061194401e-05,2.415436804294586182e-01
-5.393331553891828056e-02,-5.397771127749075026e-02,-2.902120253495029112e-01,2.218870993549051582e-03,-1.194755244163254754e-03,-5.274085408210496626e-04,2.362986057996749878e-01
-5.932264695902415841e-02,-5.717774487137997075e-02,-3.213536756142749695e-01,9.396783999819816047e-03,-1.950932816968687852e-02,-3.663840966121811871e-02,2.732411921024322510e-01
-3.843953067942733337e-02,-6.548905427018758552e-02,-3.666970728053583484e-01,-4.437290295028793047e-03,-4.264286240734356005e-03,2.238119339548930858e-02,3.181538283824920654e-01
-5.696496227903370679e-02,-5.434657860457708933e-02,-2.909075984444340346e-01,2.576429106242088783e-03,5.210058663899933343e-04,8.015815008163171230e-04,2.353108972311019897e-01
-5.429167454957539718e-02,-5.772629367485931917e-02,-2.914888565287149236e-01,-3.360701214010655778e-04,2.993581342126810647e-04,1.727906038357099154e-03,2.355189621448516846e-01
-5.176783488165617730e-02,-5.179862568185600313e-02,-2.895014175762221642e-01,3.206261263365845805e-03,1.768281260036130831e-04,1.989754528258678111e-04,2.377834916114807129e-01
-7.724411626950200560e-02,-6.479424660925513224e-02,-3.495096210382705459e-01,8.327592552215242264e-03,7.425490942678328495e-03,-8.239780139795663261e-03,2.797325849533081055e-01
-5.324860846024309646e-02,-5.088629000813391090e-02,-2.900309284718642910e-01,1.255224691761536171e-03,8.848339990431151793e-04,1.919407294348444580e-04,2.379873692989349365e-01
-5.284028078903055259e-02,-5.355224430770752497e-02,-2.911534535615094565e-01,7.675581391150958742e-03,2.491315791636221008e-03,2.444108566806140609e-03,2.384057193994522095e-01
-5.626766798776075551e-02,-4.841424849444139755e-02,-2.857565998722040868e-01,5.049867524531743979e-03,8.722637383737154890e-05,3.426728304146257095e-05,2.336785197257995605e-01
-5.251634163436888492e-02,-5.039797229483286567e-02,-2.915718266672027159e-01,1.433171615050977173e-04,-1.233974536403183685e-04,-2.460562993682760763e-05,2.401219010353088379e-01
-4.630182609135115313e-02,-5.295949322662761583e-02,-2.897037049417084953e-01,2.075167335260520458e-03,5.987671924030810383e-04,-3.113664875083056293e-04,2.401720136404037476e-01
-6.598352927716975846e-02,-5.666336661797068824e-02,-1.552308957903627551e-01,-5.188280441686027138e-03,-7.919962066038016557e-02,-5.885262182769390032e-02,1.953794956207275391e-01
-7.280878992029064800e-02,-6.479564780974370053e-02,-1.686311700710839689e-01,2.654959314283312187e-03,-1.858929613551398756e-03,-1.613218027399686283e-02,1.040491834282875061e-01
-7.216250276427013666e-02,-6.283811290191500254e-02,-2.192672663705873271e-01,-6.033578206398050939e-03,8.533272603496289133e-03,-1.984736437535504321e-03,1.530944108963012695e-01
-6.391929124963156850e-02,-4.138320632859343595e-02,-2.534904921261545985e-01,8.075156563957743353e-03,-3.628857502184261279e-03,-6.113515245027663012e-03,2.026439309120178223e-01
-4.952599000624287318e-02,-5.089885084293484241e-02,-2.904354731634227749e-01,5.659051674777283106e-04,-4.795988388702813017e-05,-3.169317947149755815e-04,2.402286380529403687e-01
-5.077525276487576678e-02,-5.160991387957945820e-02,-2.915930353934295671e-01,2.289958222388119996e-03,-6.937221834086039745e-04,-3.340806794880981658e-05,2.404372692108154297e-01
-6.495969145590060889e-02,-3.940914637788661690e-02,-2.719560090945351005e-01,2.996607650851437939e-03,1.222987404598844952e-05,-9.130508417301811015e-04,2.209493517875671387e-01
-4.901557307804935149e-02,-5.278839252957337469e-02,-2.905498923923853782e-01,5.226372257829529390e-04,-4.077590845269579668e-04,-6.988806283685130151e-05,2.396729588508605957e-01
-7.031314712499539543e-02,-3.893810978843159631e-02,-2.730717955177276446e-01,1.251128910556091253e-03,1.134302122579761672e-03,-1.191610289868264656e-03,2.201586663722991943e-01
-3.529865905323976982e-02,-5.878188091888123662e-02,-2.333762959324710562e-01,1.755833960519362878e-03,3.558419089605770191e-02,9.293844007021826586e-03,1.979944258928298950e-01
-6.537664876754548104e-02,-4.106875854700181572e-02,-2.673594238828528868e-01,3.220674508187985809e-03,-2.529594014254926693e-03,-1.319619352553844278e-02,2.164957821369171143e-01
-5.930827060970389475e-02,-4.273417792013216310e-02,-2.885591109292945378e-01,1.943782836293418866e-03,-1.173784815323462101e-04,-1.401954776152556032e-03,2.380074560642242432e-01
-6.242912957426716147e-02,-3.954972300842519994e-02,-2.902440540560004001e-01,-4.216769062310356947e-03,-5.721214723391621201e-04,-8.625645840553817015e-03,2.406510114669799805e-01
-6.472532681961676304e-02,-3.756291444951129210e-02,-2.682880441436954477e-01,-1.053081405266140073e-03,9.865702720994090532e-06,-1.326710917179236681e-03,2.184340655803680420e-01
-4.637109602709289097e-02,-6.542569038791540281e-02,-1.864045937031314493e-01,3.274119795668375618e-03,4.201148685232573149e-02,1.073725468581583631e-02,1.515819877386093140e-01
-4.910837817819546647e-02,-6.445108939379205759e-02,-2.213697720773210309e-01,5.587100648372060260e-03,1.643220304527883563e-02,3.437460377961304870e-03,1.679451614618301392e-01
-6.357206982559221453e-02,-4.348634048476589242e-02,-2.760067086720875418e-01,-6.758026396170689447e-03,8.132316038980241238e-04,-1.311420376649394173e-04,2.234678119421005249e-01
-4.338482052872875971e-02,-6.925351577732383190e-02,-2.578488935416888284e-01,7.112697767492342539e-03,7.127964282975088328e-03,3.210468226267956370e-03,2.035957723855972290e-01
-5.256670770634485484e-02,-6.787097560046806421e-02,-2.233205064554153463e-01,7.964602531483153808e-03,1.322767973010873128e-02,7.124109696571172268e-03,1.662687510251998901e-01
-5.084353947520124650e-02,-7.284345319519683337e-02,-2.319413600566137823e-01,7.628863147689963174e-03,9.351481874706555480e-03,1.319659101121466518e-02,1.739415973424911499e-01
-6.990519241584940147e-02,-3.409477639660873916e-02,-2.456257027204825638e-01,-7.704624637027202884e-03,-2.170992539294373108e-03,-6.262012443612030577e-02,2.245189845561981201e-01
-6.337156001370619629e-02,-6.757421701077818976e-02,-2.947970910267960210e-01,1.198738588337207138e-02,8.131518731985259985e-02,-4.982895727216564430e-02,2.834064066410064697e-01
-4.045038612826754032e-02,-6.010344355849724096e-02,-2.886843358233663892e-01,-4.575390369709175960e-03,6.109955624586932768e-03,-5.943999919389509126e-04,2.393817752599716187e-01
-5.010882015681494828e-02,-4.997030641651620253e-02,-2.912010410529353166e-01,-5.362411698915082146e-04,-1.337269240370820124e-04,3.281363036524346079e-04,2.411640733480453491e-01
-5.369878429220556471e-02,-5.212116890137735714e-02,-2.912311184622470850e-01,-1.269500735793998116e-04,-3.938139872178734948e-04,-7.644737786817969367e-05,2.383261770009994507e-01
-5.618543657419364235e-02,-4.649795290732491870e-02,-2.877969390514815151e-01,-3.340917317401119382e-03,-3.665402456403225873e-04,1.686911175083281563e-04,2.366758137941360474e-01
-5.171482684621556136e-02,-5.188375953823924636e-02,-2.912651254403613166e-01,1.170433734022704048e-04,2.250912788824359606e-04,-1.390559583567070243e-04,2.394663989543914795e-01
-5.136511116242628572e-02,-4.611453848604753214e-02,-2.891722381414159049e-01,-1.324138766519282169e-03,-2.090094672820975010e-04,5.003832588322934581e-04,2.404881715774536133e-01
-5.089543277224703455e-02,-4.973870151904583037e-02,-2.906434395235100721e-01,-1.593435646221371587e-03,-2.488998712259968531e-04,-8.500527054569949163e-04,2.403492033481597900e-01
-5.174263748574141342e-02,-4.645152358057846875e-02,-2.911570013395550771e-01,-1.058790259672579438e-03,-6.450619234284881310e-04,9.739172118333005003e-04,2.421186864376068115e-01
-6.410259028418532901e-02,-6.298458820939104030e-02,-2.867245950246312125e-01,9.775954233354924687e-04,1.943947933321886750e-04,1.903934346190702437e-04,2.231900244951248169e-01
-5.084114302301812049e-02,-4.932442446658921731e-02,-2.920319330914129541e-01,-4.638343423618681216e-04,5.640405751042368356e-08,-2.156581217989525436e-04,2.419543415307998657e-01
-5.194867811083389575e-02,-5.081282419818662632e-02,-2.904948054707937599e-01,-2.684675471272160701e-03,-9.810950975088360455e-04,6.033480603076456748e-04,2.391696125268936157e-01
-7.021492339244728154e-02,-6.333538823918656580e-02,-2.077479705498256057e-01,9.192503176004979126e-03,7.596465776432445409e-03,6.244210187338718188e-02,1.789762675762176514e-01
-6.115512871901668951e-02,-7.111823050508966904e-02,-1.749125389839339406e-01,-5.323070490068613787e-04,2.684113278554229286e-03,1.228876498718311713e-02,1.112750619649887085e-01
-5.629199730379944033e-02,-6.946060844359916442e-02,-2.063162280725850395e-01,6.768744868095123712e-03,3.329315379237791916e-02,1.114391015988459507e-02,1.566537022590637207e-01
-6.650018456822100188e-02,-6.411628376363404103e-02,-1.878523312703485881e-01,8.571809229426243307e-03,1.471881844039741628e-02,9.635429370145932176e-03,1.271620988845825195e-01
-7.216799224632919341e-02,-7.735827973079287267e-02,-1.877107540216912118e-01,2.046703171756747257e-03,1.177813467005959722e-02,6.349842051453762765e-03,1.154429316520690918e-01
-5.017313595039153695e-02,-7.023310599909389496e-02,-2.158316578577978428e-01,3.123884946342639184e-03,1.482968564064545899e-02,1.249666984741974133e-03,1.587947160005569458e-01
-5.782982721189000586e-02,-5.110528856353105387e-02,-2.913225518230153077e-01,-1.241831269830786285e-03,-1.274220592863626851e-03,-1.950438188311952705e-03,2.369706928730010986e-01
-4.615006642439696549e-02,-5.207534085218390452e-02,-2.899487045927078288e-01,-9.698394014377499130e-04,-6.975518186848529050e-04,3.791430458713364315e-04,2.409004420042037964e-01
-6.530769685195206287e-02,-3.578063225439247208e-02,-2.709338996940753308e-01,1.506794218513569971e-03,3.043486997846283227e-04,4.125924862439733776e-03,2.219992727041244507e-01
-6.016655391198519331e-02,-3.923851836378008939e-02,-2.847507641477184381e-01,9.936255738365834360e-04,1.301690523656706309e-04,-6.053797583472261124e-05,2.357523739337921143e-01
-6.214423198688485972e-02,-3.613444195980101969e-02,-2.683116880921475600e-01,9.242133191562766116e-04,-2.046483530089610210e-03,5.395324147683575391e-03,2.205591946840286255e-01
-6.000271090875758384e-02,-4.395333241754934006e-02,-2.799955114887501817e-01,6.276735571450101081e-03,5.895114207323358261e-04,2.043271656864891568e-04,2.287018150091171265e-01
-4.879832523185441417e-02,-5.379787188478157844e-02,-2.781621229075353918e-01,-6.978118133730617893e-03,2.773614289348453818e-03,-2.116639553733024785e-04,2.272780835628509521e-01
-5.735420261685907073e-02,-4.335446261767957055e-02,-2.641920625572416470e-01,7.491747207517419904e-03,2.036141267392757234e-03,6.609173542426147706e-03,2.149079591035842896e-01
-6.344073646216502604e-02,-3.692712581951274053e-02,-2.790735213758651634e-01,1.234517061527753675e-03,6.387902088938892482e-04,1.772869040349169586e-03,2.300715148448944092e-01
-5.010430231835116821e-02,-4.993251776190579805e-02,-2.913638131966143074e-01,-6.073144308599079388e-04,-4.845343477990986096e-04,1.369754750186464426e-04,2.413493096828460693e-01
-4.216139624026912780e-02,-5.689389367340369486e-02,-2.844025509893325365e-01,5.207149782314818287e-03,5.542649893166251215e-03,1.898976861340448104e-03,2.356126755475997925e-01
-5.831528774447555796e-02,-5.555846668445556247e-02,-2.909198211566172976e-01,-3.933784721792662814e-04,-7.997536522716566613e-04,-2.883556227941334437e-04,2.340007424354553223e-01
-6.607498592559549189e-02,-6.148590089699648709e-02,-2.820141266712741235e-01,2.051763902601037165e-03,8.846244145308837514e-02,-1.169661403820538084e-02,2.674726247787475586e-01
-3.646726928938565093e-02,-6.167464147107373784e-02,-2.891200497542212866e-01,-1.221467936797697527e-03,1.168122349962096365e-02,5.956155388097513414e-04,2.418987751007080078e-01
-4.918013623790512545e-02,-5.048101843742605621e-02,-2.916114263452443955e-01,-6.774066404268564833e-04,-3.404975197617219869e-04,3.844388328294478965e-04,2.417879551649093628e-01
-6.498661054621668320e-02,-5.519062858106715819e-02,-2.982392807864274187e-01,1.922889684118375122e-03,1.009745528093437990e-02,1.704118917802696816e-03,2.389840781688690186e-01
-4.989725050649754245e-02,-7.866285188918284432e-02,-2.338362418368875595e-01,8.698241119328376989e-05,2.165802528775250327e-02,2.810086830024522472e-03,1.755016148090362549e-01
-3.763103370313221341e-02,-6.057379697476644037e-02,-2.531347546105284785e-01,-5.509836919063828241e-03,8.131749526374368320e-03,-4.251224388031986921e-04,2.057035863399505615e-01
-3.629564367291632232e-02,-6.318191951830423592e-02,-2.823953029155696348e-01,-1.687434994370292079e-03,3.120782260412454517e-03,-8.317564291832884194e-04,2.339039295911788940e-01
-6.018386844545479952e-02,-3.935104398861304087e-02,-2.827564917591718352e-01,-9.939263161741740925e-04,3.938869564751650509e-04,-4.223938134180345002e-04,2.336950153112411499e-01
-3.695671600614437724e-02,-6.751892229080616592e-02,-2.741359737649758932e-01,2.166552061577685200e-03,3.473903578883750370e-03,-1.160911614457300726e-04,2.235836684703826904e-01
-5.636085330828002893e-02,-4.348059338135765173e-02,-2.859334785732756679e-01,-1.277660139062655178e-03,-5.508504148264858511e-04,3.321941860393444771e-04,2.362892031669616699e-01
-5.658654601050339128e-02,-4.399560828293067050e-02,-2.892797391919966765e-01,-1.330256598065302723e-03,6.034391853092982818e-04,-1.016320726935686857e-04,2.392507344484329224e-01
-3.663854462325398520e-02,-6.644087284816246886e-02,-2.478341860743256686e-01,-2.448001642938126780e-03,1.074298543921052562e-02,-3.034112982713371666e-04,1.989023536443710327e-01
-3.614655622175569349e-02,-6.187480899330917439e-02,-2.779492623946465124e-01,-1.541190497333912559e-03,1.655568919718147618e-03,-2.492528014960361006e-03,2.300941497087478638e-01
-3.899140849831642108e-02,-6.429679914818882402e-02,-2.766499647668403394e-01,-3.875371119749556476e-03,2.854769847025283303e-03,-4.377441566371448258e-04,2.262255251407623291e-01
-6.571311804562887660e-02,-3.866147060742061714e-02,-2.829508882919500867e-01,-2.882461181789459145e-03,-6.866635113415913653e-04,5.764775632826708764e-04,2.320086508989334106e-01
-6.383860841125787999e-02,-3.746418097686377013e-02,-2.454834406625253651e-01,5.389501998196630488e-04,-3.695712473239159209e-04,9.795550220286799309e-03,1.969019323587417603e-01
-5.193057331450318115e-02,-4.590383082229490541e-02,-2.903430752921376534e-01,-9.627891008606292295e-04,-5.162117439233535098e-04,1.373820885243434535e-03,2.415014207363128662e-01
-4.139818911159720560e-02,-5.551471958340610524e-02,-2.863596122637694918e-01,-1.149356606472568378e-03,-7.941603125972997428e-04,4.095906486267012728e-04,2.382304072380065918e-01
-6.395396946686185413e-02,-3.755526883401037741e-02,-2.725110395675960917e-01,-3.200373462315654789e-03,-8.877003404920645038e-04,6.650482621987957761e-03,2.233032882213592529e-01
-4.896804671375148965e-02,-5.259041902704317262e-02,-2.811544104538220568e-01,-7.223508059632682485e-03,-3.228394658969075803e-03,6.786675823025905717e-04,2.308067381381988525e-01
-4.966586647276177713e-02,-5.497183242377107204e-02,-2.893347334895504108e-01,-1.861308411854266723e-03,3.229458039306175440e-04,-1.625956349602560025e-04,2.370831668376922607e-01
-6.075578227388600538e-02,-5.980762667817536571e-02,-2.925470248373483462e-01,-9.290666583568817994e-04,8.934871496312830506e-04,9.643235106318952775e-04,2.322835028171539307e-01
-5.123560118956925480e-02,-5.500725751666890595e-02,-2.897177555269062621e-01,-2.109121790166355349e-03,-9.829895784678878250e-04,-4.515303080071162399e-04,2.366544902324676514e-01
-5.339444512435489315e-02,-4.045618142504189829e-02,-2.411419543073452521e-01,-8.621432964916381225e-03,3.443252686818790587e-03,-1.820516913725452740e-02,1.977333873510360718e-01
-5.947292454888786217e-02,-5.934487231006906061e-02,-2.900139891925900826e-01,1.310288267804260703e-05,5.305740557714191594e-05,-1.240180038765013783e-03,2.306151390075683594e-01
-5.495993024849647746e-02,-5.566714966005431586e-02,-2.900126990551605832e-01,-1.606950307647940328e-03,-1.273438447218713126e-04,-5.716299951577238437e-04,2.347186505794525146e-01
-5.322402464777678532e-02,-5.334270475302360648e-02,-2.908423334335377142e-01,-5.983209833427083173e-04,7.663571140546765730e-04,-1.039784576832451356e-03,2.375717908143997192e-01
-5.290320035352315264e-02,-4.892763377092881893e-02,-2.879594464722785019e-01,-5.200336567878834949e-03,-1.543002851148988011e-03,2.615804528718030514e-03,2.372983843088150024e-01
-5.008194338354468589e-02,-5.026847736494524654e-02,-2.916455663094874584e-01,5.998657412154841627e-04,8.380600168132920603e-05,4.932634184761231898e-04,2.414741963148117065e-01
-4.844197583879097935e-02,-6.648282302357723383e-02,-2.671049019361412258e-01,-4.585086160695675886e-03,-4.309710560886104158e-02,1.307143448422268261e-02,2.243698239326477051e-01
-4.594111281967755422e-02,-6.183670068542874987e-02,-2.934964590048481647e-01,2.249914767780908289e-03,-1.124940001925686314e-02,-1.114633660861974809e-03,2.408315688371658325e-01
-5.347086059825337245e-02,-5.962496033717398780e-02,-2.663293521500014194e-01,-2.773857571770887379e-03,-9.710491981970093694e-03,6.755440271328105525e-03,2.109017074108123779e-01
-4.100019837483137586e-02,-5.428554731560843866e-02,-2.541870188913004647e-01,-1.088335740533227618e-02,-2.208943491082936833e-02,1.374545817971977932e-02,2.125531584024429321e-01
-5.230023684670553202e-02,-6.746534526137783205e-02,-2.201105287871096272e-01,-1.022141861349640420e-02,-2.751721539838552361e-02,1.359557679155405478e-02,1.702496856451034546e-01
-6.147287145059229796e-02,-6.121435666647145890e-02,-3.066026383594956384e-01,-1.214730430152099680e-02,-2.351807149712966880e-02,2.975809543697435777e-02,2.547756731510162354e-01
-6.671547408552311320e-02,-3.648029888627882245e-02,-2.810712886672389055e-01,-2.369273155247598496e-03,1.155804782683771820e-03,-4.457091314656649525e-03,2.311365604400634766e-01
-6.512093551172805361e-02,-4.079974793405806432e-02,-2.786512803812521422e-01,-5.315461797329911788e-03,2.835771194127611507e-03,-9.453149670020706552e-03,2.275016754865646362e-01
-6.071896182906764972e-02,-3.658103620308120196e-02,-2.815141131769127170e-01,-9.850384213341077232e-04,1.790737436857481270e-05,8.200595233873521654e-04,2.338110506534576416e-01
-5.454960114209626842e-02,-5.345873886996667379e-02,-2.882792317901331502e-01,3.213475169546170865e-03,-7.344698000211383193e-03,-1.710424427145509213e-02,2.365505844354629517e-01
-6.055856673236688359e-02,-4.002778390749993365e-02,-2.768286216506277153e-01,-3.158599201343253050e-03,1.039197457338128690e-04,-4.707997838915317645e-03,2.274442762136459351e-01
-6.837820404725941659e-02,-3.755395641590658640e-02,-2.830013127064203715e-01,1.787820320715259766e-03,-9.844301388818546984e-04,-3.778495783536474622e-03,2.316983789205551147e-01
-3.391245527885440592e-02,-6.376924189666344223e-02,-2.753249674808067593e-01,-3.188578025304215934e-04,-2.896715358020704890e-03,-7.261206307712102410e-04,2.280146628618240356e-01
-6.169790054365476006e-02,-4.013301485523496082e-02,-2.864747467845958906e-01,-1.239134398063152778e-03,1.715148170402131748e-03,-3.230409270383966577e-03,2.363931089639663696e-01
-6.370006328689770125e-02,-3.869809749771380147e-02,-2.816176351846031989e-01,-3.583421036614198481e-03,7.225774726889663824e-04,-2.950585821513772300e-03,2.315766364336013794e-01
-6.152012187055549974e-02,-3.888254257942153069e-02,-2.839248369975857500e-01,-3.549281469863147572e-03,5.269429103036259599e-04,-2.475929667544353105e-03,2.346657961606979370e-01
-6.381467306003021922e-02,-3.492622509621559623e-02,-2.805264619370925194e-01,-3.046010045028204726e-04,2.801274963631137207e-04,2.769476320071878931e-04,2.325075268745422363e-01
-6.032940733398761690e-02,-6.179288718952551107e-02,-2.884031433188951610e-01,6.008281719589784976e-04,2.952100330561953213e-05,-1.636295809287247635e-04,2.273480892181396484e-01
-5.840102790930069843e-02,-3.846639416861322158e-02,-2.854768158979057446e-01,-4.272274725863868527e-03,2.243981378908050696e-03,-8.677755156200197412e-03,2.382923662662506104e-01
-5.162989647746527022e-02,-4.747538052699805389e-02,-2.860677958516762431e-01,3.739248942894831361e-03,-1.082619520932809635e-03,-1.075698630641755329e-03,2.366459369659423828e-01
-5.995419464540513443e-02,-5.434375315215395075e-02,-2.924801978536217262e-01,-7.410775023321911764e-04,-2.011706999531121323e-03,1.521141749749239849e-03,2.354254126548767090e-01
-4.837822403522125392e-02,-5.037046795960287149e-02,-2.394153132688413010e-01,1.057093880754720813e-02,1.143942751125845078e-02,8.377158283093140076e-03,1.925016641616821289e-01
-7.254190414354450001e-02,-3.710258908373753606e-02,-2.474322136476728440e-01,2.540760693677369432e-03,1.846968767064155730e-03,3.411133329559501437e-02,2.038649320602416992e-01
-5.638853150726508279e-02,-4.604428947689641338e-02,-2.685840720592854725e-01,9.774995327979405652e-03,3.310177524435578816e-03,3.803365825167498958e-03,2.183846831321716309e-01
-6.157208398236623664e-02,-6.981402427178950987e-02,-2.031755001568903984e-01,5.615187291389340390e-03,3.932331043686855196e-03,1.216235801738097216e-04,1.381788551807403564e-01
-4.833566240456288465e-02,-6.732359023059140968e-02,-2.410228544432472531e-01,6.467713331328707460e-03,1.446103480788375490e-03,2.574968226037270894e-03,1.843415945768356323e-01
-6.382463717108158296e-02,-3.638490964594792709e-02,-2.803451352681933795e-01,6.054978206673788683e-04,4.993085008762640324e-04,-5.340127219820022279e-04,2.314692884683609009e-01
-3.910381056461349758e-02,-5.820360413309830228e-02,-2.810958125004174857e-01,-3.801990455834475084e-03,2.903885445176964016e-03,-8.232238823967757534e-04,2.331815361976623535e-01
-6.268246837169944019e-02,-6.150863022476016351e-02,-2.988181706622324851e-01,-1.925616980081641932e-03,3.508636534499350035e-03,1.244778609706294120e-03,2.368360906839370728e-01
-4.125748409559125418e-02,-6.141208192942781280e-02,-2.495626036786684487e-01,-8.483337555019412890e-03,1.875704378262116334e-02,-4.884076479136172794e-03,2.023409754037857056e-01
-6.241449131832432773e-02,-3.699742260960635354e-02,-2.850119541185758831e-01,1.155862034200467667e-03,-9.713019403694027245e-04,-2.864740039998033699e-03,2.363998591899871826e-01
-3.955010397192819382e-02,-6.157812056598692407e-02,-2.468956011321182253e-01,-6.656449302821204790e-03,1.928364610104826155e-02,-3.771169478435872947e-03,2.005022317171096802e-01
-5.527610226563538232e-02,-5.943745982755824220e-02,-1.802354412953468543e-01,4.756857099549895856e-03,4.274775105050105523e-02,6.881080578012377380e-02,1.867268830537796021e-01
-6.102874586099785170e-02,-5.529162793044634094e-02,-3.000261641378364486e-01,-2.432672140454723245e-03,1.029488765039485512e-02,-5.424707729241566405e-03,2.427917420864105225e-01
-3.763986942087456378e-02,-6.341107030955370205e-02,-2.866987307493909509e-01,-1.945450883586621882e-03,3.370316581924739669e-03,-1.750814528802818433e-03,2.373405843973159790e-01
-4.442309033301727883e-02,-5.935881448321111975e-02,-2.877823343211662888e-01,-5.462042631884513749e-03,1.710115438848171243e-03,5.912768683196293492e-06,2.364536523818969727e-01
-4.641191697270719008e-02,-5.747304201242811605e-02,-2.817469629615802496e-01,-4.705624761830391571e-03,-2.989532560989172257e-03,1.116145403151034068e-03,2.302147746086120605e-01
-4.018181051877253718e-02,-6.267057074332406386e-02,-2.886402567320333068e-01,-2.145029430921999701e-04,3.088199444275941253e-04,4.726328984039020100e-04,2.380145341157913208e-01
-7.414282372491734496e-02,-5.452854213317269438e-02,-2.285447354140143494e-01,5.770291759460395055e-03,-3.231200698666462923e-02,-5.798748222613760162e-02,2.014271169900894165e-01
-4.496855895861989749e-02,-5.661537479241705861e-02,-2.899320997217764151e-01,-1.192452639055896187e-03,-1.218874266633689085e-03,-5.682095231410997423e-04,2.393729984760284424e-01
-6.234537484996180434e-02,-6.488025730993407514e-02,-2.872923026335361119e-01,-2.539207305560798591e-04,3.983718532491135737e-04,8.841293376645400375e-05,2.236918061971664429e-01
-5.890197665931962145e-02,-6.038748019898308728e-02,-2.889101715095711009e-01,-7.052635882564718271e-05,9.839324014809306112e-04,-8.364923640021399397e-04,2.292799949645996094e-01
-5.052377700857463294e-02,-6.085522211064096909e-02,-2.553659289241539398e-01,7.904186347752761160e-03,-1.913846763103999558e-03,-1.091307205732305885e-03,2.003814429044723511e-01
-6.192345621577405312e-02,-6.130640625353907247e-02,-2.874749717013319050e-01,-1.405890716588568457e-04,4.312778717450740603e-04,4.253087461008034820e-04,2.258632332086563110e-01
-6.444941994601308122e-02,-6.852337574537911702e-02,-2.885880492952971887e-01,-2.324113347718923146e-03,2.930947873931640532e-04,-1.731083604869828785e-05,2.221667319536209106e-01
-6.625429734674045945e-02,-6.466960023508408484e-02,-2.932001652403753988e-01,-2.647553027122241491e-03,3.141219098623618169e-03,2.191731722259083852e-03,2.278850972652435303e-01
-5.151256621879408970e-02,-5.550657131443012537e-02,-2.892569145943941766e-01,3.720516702551223895e-03,-3.647826886443981866e-03,-2.928358413212686119e-03,2.359998822212219238e-01
-7.319236187344141387e-02,-6.897587483619292692e-02,-3.536105842203378646e-01,-9.516145102582425352e-03,2.992850747476132013e-04,7.076142230720227320e-03,2.832961082458496094e-01
-5.251416335264419422e-02,-4.736835744954864813e-02,-2.910117094058168874e-01,1.055910109018563456e-03,2.955624787183608240e-04,-5.525758874901707911e-04,2.411210089921951294e-01
-5.651878372119478744e-02,-4.551822249125771214e-02,-2.880024293384509382e-01,1.177677935711753544e-03,5.148076551604523036e-04,-6.620307002654786084e-04,2.371885627508163452e-01
-4.504025640417372300e-02,-5.930961995076582116e-02,-2.865287322360871025e-01,3.377128239884455690e-03,-1.085327822899345533e-03,-5.561012039335522900e-05,2.347598075866699219e-01
-5.354131222544231128e-02,-4.418508651940328269e-02,-2.874701990066106938e-01,2.499805711856633444e-03,-2.569742410137726158e-04,3.945036337263517641e-04,2.387851923704147339e-01
-4.430429864001605988e-02,-5.880950155280048608e-02,-2.840114101674395819e-01,3.452328735790103059e-03,-7.422304247494632763e-05,2.310645169694247429e-04,2.328708469867706299e-01
-6.242867993151782202e-02,-6.359605815689262087e-02,-2.870210664714402116e-01,-1.416083853988949273e-03,1.917654824712630734e-04,3.841147049384866961e-05,2.240246683359146118e-01
-6.211082636906514742e-02,-6.280968755289212391e-02,-2.881794169290034513e-01,-5.921101088608160534e-04,8.197497696393950088e-04,1.072737613485816224e-03,2.257344126701354980e-01
-5.740037006192683089e-02,-5.978063153004931074e-02,-2.894024414032398962e-01,4.799862092628043048e-04,1.063852774028691515e-03,1.712529550336822949e-03,2.308490574359893799e-01
-4.637636839634382002e-02,-5.470176604177358348e-02,-2.898115853147315013e-01,-1.936716133670630122e-03,-7.977039352836078068e-04,1.616448239046683528e-04,2.394087761640548706e-01
-4.546463613581497309e-02,-5.380555548820406542e-02,-2.893902622893536059e-01,1.815925113468984777e-03,-3.415950708880669939e-04,-1.382556326576786293e-04,2.398854345083236694e-01
-5.699732537842835955e-02,-5.632539080500939543e-02,-2.889293129726278053e-01,7.990992769366729760e-04,6.828693285837147183e-04,7.359890266205437043e-04,2.322793155908584595e-01
-5.142573102714757816e-02,-5.343992671858349697e-02,-2.676808171340346876e-01,9.049460226309331140e-03,-7.061429705763637345e-04,-2.297333261745235927e-04,2.158288061618804932e-01
-5.683185032746393417e-02,-4.438186127760224142e-02,-2.899123257091416050e-01,1.596018397117026158e-03,1.011747808913173114e-03,-1.816155433155371233e-03,2.395912557840347290e-01
-5.477166192275584322e-02,-5.347040007382240778e-02,-2.910828370392423703e-01,1.427666592832254819e-03,1.792684998134388519e-04,4.179091957051511404e-04,2.369786947965621948e-01
-5.982115664189120718e-02,-6.095150278254463094e-02,-2.878379996042145228e-01,-9.397106586094661857e-05,1.172755825874474429e-03,5.423868461833602052e-04,2.274648398160934448e-01
-6.068148667782818917e-02,-6.083205486643081250e-02,-2.887421273186916992e-01,-9.213236589728370602e-04,-5.229007690529269026e-05,1.002421989539214325e-03,2.279976010322570801e-01
-5.161319579943694780e-02,-5.294212983849708176e-02,-2.915399482891768423e-01,9.166436272714402738e-04,-8.461040659672960538e-04,7.429679047964640737e-04,2.392782717943191528e-01
-4.804217896476509209e-02,-5.122568520028555894e-02,-2.847949371805834629e-01,5.845066989288101415e-03,-2.955291673458344511e-04,-3.370112099205241764e-04,2.353962510824203491e-01
-5.116318137576400527e-02,-5.017083832663976617e-02,-2.913477106019941587e-01,2.803861686521285398e-04,-1.031095622077306415e-05,4.082952343618138707e-05,2.406827360391616821e-01
-5.129696692250135248e-02,-4.968702113260348163e-02,-2.910090912748287129e-01,6.860988328610286274e-04,-3.568828719378468921e-04,-9.499457307026214832e-05,2.405249178409576416e-01
-5.423387931296683173e-02,-5.879323525981525189e-02,-2.905499883908759795e-01,2.484432743298408894e-03,-4.983226510571047568e-03,1.023475933137908776e-03,2.342750430107116699e-01
-6.347047954609204290e-02,-6.430928644309284736e-02,-2.925612865999235868e-01,-2.592294327114265991e-03,2.188560264218207194e-03,1.821974310766452795e-03,2.287698090076446533e-01
-5.938157392395104761e-02,-6.681099784736654890e-02,-2.668146229571397576e-01,1.181864441375016749e-02,-6.458513762763538890e-02,-2.566035775518030540e-02,2.375935167074203491e-01
-5.935106387762895119e-02,-4.034336214312991831e-02,-2.868448926397098586e-01,1.264885844138984505e-03,-4.954175053556091968e-04,-3.003174094146704269e-03,2.376372516155242920e-01
-5.247110840604803095e-02,-5.885945880877857528e-02,-2.049114060657401537e-01,7.541811337766802202e-03,-3.183005936425491872e-02,-4.679265835135541785e-02,1.791194230318069458e-01
-5.427644674386036816e-02,-5.234150197191841936e-02,-2.917115733463335747e-01,-1.595466993687057362e-04,8.058629893508738665e-04,9.308188906573016048e-05,2.384127825498580933e-01
-4.697044678057338274e-02,-5.698828697035737689e-02,-2.899732319737523545e-01,1.361802426007582790e-03,-4.543037735580502203e-04,-1.097466776752238957e-05,2.381649166345596313e-01
-5.428047992596529703e-02,-4.316686887132004102e-02,-2.824809839837690850e-01,7.967596564203004161e-03,9.102914929719325922e-05,-1.317699256612893562e-03,2.343731969594955444e-01
-5.524644532420468213e-02,-4.901255672146113962e-02,-2.675978777504198769e-01,9.398516073242496258e-03,-5.974679146202005464e-03,-9.835299842264966577e-03,2.170669287443161011e-01
-4.948780013666340127e-02,-4.998780996780124997e-02,-1.953103329139044553e-01,8.339372054966529002e-03,-3.042095137660663987e-02,-3.973964337974703054e-02,1.700417697429656982e-01
-5.275621030170139780e-02,-4.713237104655018661e-02,-2.892058080014404675e-01,1.156512634799264751e-03,-2.113974166784986935e-04,-2.412138245442547557e-04,2.393201142549514771e-01
-5.946549031273226649e-02,-5.882426669195928159e-02,-2.895041586315713067e-01,-1.245640310911991905e-04,-1.798964211510485243e-03,-1.451499333003618362e-03,2.303948402404785156e-01
-6.485907113603400775e-02,-5.663573888407683055e-02,-2.376527889375148472e-01,-1.634586686955683248e-04,-7.717489566641622112e-02,-4.456488262397334532e-02,2.348878234624862671e-01
-5.560573008430325093e-02,-5.525972603313217268e-02,-2.911402411546509805e-01,-9.936624549336861827e-04,-1.583455823468073349e-03,-4.754188330520869692e-04,2.357313781976699829e-01
-3.788261844412176005e-02,-6.464146667525803858e-02,-2.685238075311585648e-01,-1.423916642249282733e-03,8.297246691344767767e-04,-1.158335450433535090e-04,2.185129076242446899e-01
-5.430624825068622319e-02,-4.707576340940478055e-02,-2.896575443258924132e-01,-2.079094033807344158e-03,-4.372606589446856795e-04,-7.357526699562451020e-04,2.390802800655364990e-01
-3.470854923801712510e-02,-6.496910001809309831e-02,-2.805623679543802762e-01,1.215391097860434659e-05,1.446761867274771172e-04,5.764115196053326996e-04,2.322093695402145386e-01
-4.102194222826552328e-02,-5.930589551174225704e-02,-2.852852474648710501e-01,-2.623014287367747988e-03,-7.534308996381349516e-06,-9.580259040373699300e-08,2.356977015733718872e-01
-4.131488472099734133e-02,-6.471143679345414679e-02,-2.761027999173874536e-01,-5.401432836465543813e-03,8.823706674609901532e-03,-1.827851456743752106e-03,2.247457653284072876e-01
-4.124639646064989784e-02,-5.949297049254045899e-02,-2.865470797515780044e-01,-2.091894431043653420e-03,4.731882721957161452e-04,-5.079851239521086369e-04,2.367362231016159058e-01
-5.553633201699598176e-02,-5.438963184382906990e-02,-2.715315050874347880e-01,-1.042811503284299564e-02,3.438431105663872223e-02,-1.444585790618820899e-02,2.267201840877532959e-01
-4.130842121406769207e-02,-6.180282799331641985e-02,-2.517772584237627509e-01,-8.222119056474703341e-03,6.737737442829167152e-03,-3.454803897970633395e-03,2.019369304180145264e-01
-4.085763975326869857e-02,-6.213458615830211307e-02,-2.870261932386207193e-01,-5.185335744264558955e-04,6.047130106779648011e-04,-3.614355834195864705e-04,2.362546175718307495e-01
-4.557879277546933450e-02,-5.793342159820633053e-02,-2.809371574371545277e-01,-6.852782863622996871e-03,-1.845061501646894780e-02,4.627883707604770087e-03,2.320879995822906494e-01
-4.110968751117136111e-02,-6.108320477306460050e-02,-2.894445471654907287e-01,-1.344455829857898587e-03,-2.815074249499652584e-03,-5.886813931410290329e-04,2.390381991863250732e-01
-4.173550056684037501e-02,-7.402611266101577492e-02,-2.731594540682779071e-01,-5.387363157756093826e-03,-1.114795479054114108e-02,-1.215156851649179569e-03,2.181541621685028076e-01
-6.708929321513004695e-02,-4.028447297152333573e-02,-2.709387843275976038e-01,-1.003057346508661752e-05,1.029444572837731262e-03,-1.083021775404727910e-02,2.192996144294738770e-01
-6.442190694659848116e-02,-3.694925648423266762e-02,-2.854694906882613292e-01,-1.546868784769473435e-04,5.905269284443935953e-04,-2.578984480556578349e-03,2.360309660434722900e-01
-4.040873661759143698e-02,-6.152835502898371112e-02,-2.852961798103262892e-01,-4.345495347158076158e-03,-4.346291053689006756e-03,4.562681930877100626e-04,2.352826297283172607e-01
-5.068691186056059617e-02,-5.394888196095776189e-02,-2.875015415874981883e-01,-7.503196935179086251e-03,9.916299463101968178e-04,-3.118422210037390292e-03,2.356275618076324463e-01
-7.252637619722698825e-02,-4.822559910020077223e-02,-2.421487375675334119e-01,-4.752012526574065504e-03,-2.067741912215399140e-04,-2.051611876705985212e-03,1.832067966461181641e-01
-3.735158244443859132e-02,-5.986703624185002459e-02,-2.839053426104609645e-01,-2.290073547761240988e-03,-2.617997183356628437e-03,1.024002719162848182e-03,2.361861020326614380e-01
-6.143502472271689108e-02,-3.665916680339573186e-02,-2.859332448401716298e-01,-1.550295426226052644e-04,-2.005466910835638160e-04,-2.577537208710883616e-03,2.378982007503509521e-01
-4.658056668310489590e-02,-7.117338467231655585e-02,-2.480967163784025542e-01,-1.110571027229808813e-02,-1.910520677129277575e-02,-3.253539812485660952e-03,1.943051964044570923e-01
-3.974519950716212668e-02,-6.268625482074328958e-02,-2.797459085793752576e-01,-4.329143373508261353e-03,-4.425020940914692509e-03,-3.953899091707718761e-04,2.296436280012130737e-01
-6.347251793533389974e-02,-6.442279732563918615e-02,-2.868632525269990130e-01,1.062759533127814824e-03,-1.001781732406819474e-04,1.015726933283351424e-04,2.229248583316802979e-01
-6.422374791199078614e-02,-3.754495060100192239e-02,-2.873374838595083580e-01,8.518213667083595350e-04,3.476849792210982100e-04,-2.505531470947411354e-03,2.376242280006408691e-01
-7.711206795177460993e-02,-6.193732539078475319e-02,-4.744427141959383087e-01,1.975743928146971029e-03,-5.487938455786817160e-02,-2.276205170010239809e-02,4.180102646350860596e-01
-6.342383468237255961e-02,-4.446008873958204322e-02,-2.924988119292254440e-01,-4.708248419833146337e-06,4.756607427235810793e-04,-4.983917579996851796e-03,2.392786741256713867e-01
-4.247964272950016662e-02,-6.057498708776870577e-02,-2.860308635422893486e-01,-2.508291560258494278e-03,-5.940722442362480473e-04,3.376413052370824241e-04,2.350697219371795654e-01
-5.658982809360302291e-02,-4.885538307658245094e-02,-2.885887838396714034e-01,8.471170647223764255e-04,6.270062429497838194e-04,1.290887872673371177e-04,2.359684407711029053e-01
-5.300571313239510474e-02,-8.319962414252221605e-02,-5.763139178980936084e-01,1.431500286981628178e-02,3.017559187796597583e-02,8.315461766859537363e-03,5.123634934425354004e-01
-5.507364862934427396e-02,-4.593363697275471003e-02,-2.865091304918353510e-01,1.441120396673607534e-03,-2.317813504804551190e-04,-8.822353023704387854e-04,2.361566722393035889e-01
-5.402994096575919336e-02,-5.439721974328880216e-02,-2.910173871335198781e-01,-6.918595481105070861e-05,4.764300573431299907e-04,-7.922247210022589914e-04,2.368094623088836670e-01
-5.725887695376660758e-02,-5.815251293442744163e-02,-2.889941999746163392e-01,-1.373334051063894413e-04,4.880821740032292855e-04,1.159649976013418966e-03,2.313001900911331177e-01
-6.084925097390986304e-02,-4.787684591194568684e-02,-2.905454180548299181e-01,1.308787305670631443e-03,1.344080744837382411e-03,-3.232256248411133001e-03,2.365379929542541504e-01
-6.334045845252955775e-02,-6.340113038851719063e-02,-2.864788787011863791e-01,-8.303274942215825571e-05,2.913946729786237580e-05,-3.890014126764857686e-05,2.231081575155258179e-01
-6.647685992403221111e-02,-3.642141411964769371e-02,-2.817461340220069888e-01,1.543381710248514652e-03,-5.655952751096285543e-04,-4.096812561821427945e-03,2.318893373012542725e-01
-6.171826360648550308e-02,-3.696341692618669572e-02,-2.509420407224742799e-01,4.413331898785961827e-03,-1.610108809560933983e-03,-8.719570139434690628e-03,2.034624069929122925e-01
-6.021426615322045955e-02,-3.896892703305414318e-02,-2.512865808297305992e-01,6.319487434021220373e-03,-3.938736884593218744e-04,-9.426781813913723274e-03,2.034852653741836548e-01
-6.201465251376123144e-02,-3.689886229999778111e-02,-2.819779917459994678e-01,2.037001026499007505e-03,1.166580266054710613e-04,-3.280031105105697675e-04,2.335637807846069336e-01
-7.624370585840398173e-02,-5.559172254978285432e-02,-3.008998218665223101e-01,8.635952262569828635e-04,9.463883912876441514e-04,-3.411858946197557515e-04,2.356729507446289062e-01
-5.488022627381126950e-02,-5.551632187995239609e-02,-2.904570657732113426e-01,1.111689664301075860e-03,-3.178224680312024923e-04,1.550872272553464404e-03,2.352833002805709839e-01
-5.294386329403291680e-02,-6.718651661811921028e-02,-2.226494660383893653e-01,7.440684405472573412e-03,-1.164467057964513677e-02,-8.385364860295719397e-03,1.654376536607742310e-01
-5.825347689490316394e-02,-4.196432532158619888e-02,-2.862912126120912282e-01,1.444011308958026299e-03,-5.219451476068645611e-04,-4.561198979941162969e-04,2.366194874048233032e-01
-5.890128339505870669e-02,-4.755381934435411184e-02,-2.899419021121695250e-01,1.490576515318585730e-03,5.282530547613908554e-04,-3.236302712783780712e-03,2.370003759860992432e-01
-5.097015648795842624e-02,-4.432641813872053443e-02,-1.079603312087631384e-01,2.770404663830887144e-04,4.858290871896698421e-02,4.177190042705763995e-02,1.264375299215316772e-01
-5.701451002226541609e-02,-4.633197884730207161e-02,-2.696028683702993978e-01,7.866510011404728026e-03,-8.928642057169492753e-04,-2.201844408520087226e-03,2.185897827148437500e-01
-5.114175651245794763e-02,-5.275430361334249030e-02,-2.906558825115886369e-01,4.469021876277820158e-04,-4.093379731661160115e-04,2.901361339397449035e-04,2.387147694826126099e-01
-5.914453005337680369e-02,-4.239763350959668831e-02,-2.878927657252146055e-01,2.581231690152569445e-03,-1.041145062747115711e-03,-2.291089032279880651e-03,2.376468479633331299e-01
-5.612597062783961088e-02,-5.179780365228273120e-02,-2.900893735118053041e-01,1.433613860130956725e-03,2.200521910747983581e-04,-1.734876259492757790e-03,2.361897081136703491e-01
-3.901500395887008699e-02,-6.493746641649564277e-02,-2.716850771078224147e-01,-5.303804319417455664e-03,-1.571587306408966770e-04,-1.144866975544989000e-03,2.210528254508972168e-01
-5.765502763943367026e-02,-4.697616806196314165e-02,-2.883578486787309325e-01,2.245542163783777450e-03,-3.339629100141270268e-04,-4.045579115631214233e-04,2.362571209669113159e-01
-5.900291671907947899e-02,-5.626375063652297448e-02,-2.987141556052386182e-01,3.390582447044455331e-03,-3.865773406093385781e-03,-2.870029387593864625e-03,2.413081526756286621e-01
-6.131462564295815654e-02,-6.277182626402111332e-02,-2.877193994031034263e-01,2.478176366668199612e-04,-1.047653858882017109e-03,8.338924510065408476e-04,2.256920337677001953e-01
-7.319495717084803510e-02,-6.238142097216198279e-02,-2.909895585680836172e-01,-3.299824517178966132e-03,9.595452789689618792e-04,1.342054960991877731e-03,2.234891057014465332e-01
-7.398088667164821886e-02,-5.944524514419985417e-02,-2.946787937394309553e-01,-1.403244561401386856e-03,1.668160925142803423e-03,1.773475604405348955e-03,2.283648997545242310e-01
-6.575719489579892607e-02,-5.546309298295309942e-02,-2.969164046531993506e-01,-4.135171704578097240e-03,-6.080568839770148122e-03,-4.168695062746842483e-03,2.369271516799926758e-01
-5.631244031974724784e-02,-5.797837685484144576e-02,-2.909010104162970678e-01,5.546782913681205394e-05,-1.058688487698307152e-05,1.220764524139020431e-03,2.337696403264999390e-01
-6.460413125741759632e-02,-6.322911125450095260e-02,-2.892573671447477013e-01,2.959364349094769503e-03,-1.074898469320832977e-03,1.039383913891869142e-03,2.254170626401901245e-01
-5.667954681702394581e-02,-5.809849867273635116e-02,-2.952698848710201829e-01,1.022103855916346027e-04,-4.889777841785004214e-03,4.661112636938927406e-04,2.380361855030059814e-01
-6.015746742877491060e-02,-7.077077147620351727e-02,-2.931177200854167553e-01,1.177051632028855606e-03,-2.853826372613510421e-04,1.556817671237601796e-03,2.278646826744079590e-01
-6.693614417213472612e-02,-5.869849843109284371e-02,-2.988584652280385501e-01,-2.746333228804687544e-03,-6.537384274752974095e-03,6.030466815665391951e-03,2.366986572742462158e-01
-6.861502456340723421e-02,-5.980665820826766566e-02,-2.970227888726664767e-01,-6.884541668132922567e-04,2.472926048610870394e-03,1.649596019429004114e-03,2.329968363046646118e-01
-6.564951335206345440e-02,-6.094753736959629409e-02,-2.934102742269122377e-01,-1.529453387750735120e-04,1.092281664933161985e-03,1.244478621220731357e-03,2.301657944917678833e-01
-5.619646394082174201e-02,-6.085065065218037139e-02,-2.919438213788720926e-01,-1.512359032688256194e-03,4.193929753161415933e-03,-1.137153884831386234e-03,2.335910350084304810e-01
-6.284790036169971006e-02,-6.090423280514051241e-02,-2.876348413790666969e-01,9.022261121860667560e-04,6.566054132498245436e-04,-6.710726758328471389e-04,2.257763147354125977e-01
-6.064021122266713415e-02,-4.833870426185540858e-02,-2.930003036588042509e-01,-1.012831940618328947e-03,-2.341963557350847460e-04,-2.359599773071012138e-03,2.387904226779937744e-01
-6.005726016974921588e-02,-6.132247990408810912e-02,-2.884972900927836315e-01,-6.470984376536224663e-04,3.854140204994559805e-05,2.123995006513415887e-04,2.278131246566772461e-01
-6.222224790659727778e-02,-5.297464421528677581e-02,-2.908678221937429642e-01,-2.233612251647478300e-03,2.438564027743035136e-03,-7.088303363911652773e-04,2.334803044795989990e-01
-6.105514563245120763e-02,-6.102706994536243046e-02,-2.889762404773671411e-01,1.957743461755982370e-04,-1.761452095373334563e-05,-1.062462208186109106e-03,2.279428094625473022e-01
-5.514108373603451851e-02,-5.107615167004493639e-02,-2.914311653043689665e-01,-8.541677037672644858e-04,1.519612268411817883e-04,-3.644946948201226991e-04,2.383541166782379150e-01
-4.383622382337008794e-02,-5.722737648219583528e-02,-1.445755932886806372e-01,-1.819753136141767039e-03,6.096285915628672607e-03,-6.097362279629355702e-02,1.423148065805435181e-01
-6.467218693048379374e-02,-6.121728703195014609e-02,-2.882609187290312014e-01,3.889522797065935247e-04,-7.608129706405690387e-04,-3.023317276314925776e-04,2.253415137529373169e-01
-6.494437103302766467e-02,-6.069234487798985667e-02,-2.912140024343592426e-01,6.438278101037542885e-04,2.537769612082357504e-03,-2.079958761787915542e-03,2.284987419843673706e-01
-6.004654806505088649e-02,-6.243322340726842334e-02,-2.883466806539123350e-01,2.045976217746037207e-04,1.129656117644958595e-03,-1.027656432500264391e-03,2.271318733692169189e-01
-5.708809155448998918e-02,-5.805233692286798641e-02,-2.891048535230892891e-01,-1.643126455302511149e-04,8.746809193365931477e-04,-8.210405391203836299e-04,2.315456420183181763e-01
-5.951049749806167077e-02,-5.766668899416224625e-02,-2.878604635520088939e-01,-2.119635246799175311e-04,7.492870786605278634e-05,-1.157218128589440533e-03,2.292865216732025146e-01
-6.543630597605981647e-02,-6.034341409000341244e-02,-2.006074322582255542e-01,3.025404287163641157e-03,7.228681084014108860e-03,-8.307059545808959111e-02,1.996796876192092896e-01
-6.389790541488268860e-02,-4.271682855785240152e-02,-2.899764947396917814e-01,9.375968146051601951e-04,6.770585674079910568e-04,-5.553464952704630607e-03,2.375821769237518311e-01
-6.521657583343334896e-02,-3.479711930071859027e-02,-2.737207886587860184e-01,-1.446464582761248282e-03,-1.796592714900400122e-04,-5.453986427573846198e-03,2.254718244075775146e-01
-5.811932867135402581e-02,-5.865519988000293672e-02,-2.918551226088196282e-01,-1.965747615319724320e-03,3.062089187005893778e-04,-2.964683619218733655e-03,2.335502058267593384e-01
-5.969795376550394994e-02,-4.757758295487762856e-02,-2.489746156405003852e-01,-7.453526914019890405e-03,6.497145551900289535e-04,-7.869566352893120472e-04,1.960521638393402100e-01
-6.342926265843372435e-02,-3.706697812546208559e-02,-2.812161005244799838e-01,-1.286046601622861229e-03,7.039310771504345664e-04,-1.078168955956676891e-03,2.321150004863739014e-01
-5.867871576214422902e-02,-4.222329195165049065e-02,-2.908762687674915637e-01,2.772946106808968879e-04,-6.842305582744128908e-04,-5.802022488491334617e-03,2.410601973533630371e-01
-5.618824649645527691e-02,-7.138434342274116440e-02,-2.937505095320741555e-01,7.269593134751080711e-04,-6.850164008478738711e-04,-6.455319344992372938e-04,2.303496748208999634e-01
-6.078257945746859403e-02,-4.307572610538917823e-02,-2.871145831337656995e-01,-1.304510670378919088e-03,-1.036865501668976991e-04,-3.444799389581550630e-04,2.356964796781539917e-01
-5.732995400725821034e-02,-4.409405647223142710e-02,-2.648808034472727169e-01,-7.016552422338866689e-03,2.181443578931291285e-03,-5.908893669600861001e-03,2.150962203741073608e-01
-6.793536346697851003e-02,-6.108523251003747379e-02,-2.889999798177083079e-01,-1.357903922957480990e-03,1.964931797664081165e-04,-1.235620858388057023e-03,2.245908230543136597e-01
-6.309636086019904111e-02,-6.186870328119892237e-02,-2.861155499423246873e-01,-7.074793266033600325e-04,-1.277010282326629820e-04,1.416892582039231590e-04,2.236391454935073853e-01
-6.065417121216126750e-02,-3.820833925351896365e-02,-2.783318971911412643e-01,-4.182223924216484263e-03,2.558042206814058130e-04,-3.826961434887632667e-03,2.299347072839736938e-01
-6.104300381934577024e-02,-7.046878392264754876e-02,-2.906871185700454219e-01,3.404990678033840111e-03,-1.321891668079578047e-04,-5.504126507770181045e-05,2.251566797494888306e-01
-5.806434889604759897e-02,-7.571956242903611634e-02,-2.923901557762091930e-01,-6.545491089068922229e-04,6.731970460265025409e-04,-8.345398110029531892e-04,2.260264456272125244e-01
-6.206137992079338583e-02,-6.492608660590427905e-02,-2.892473837390382441e-01,-1.074816431537945274e-03,1.159196472769774859e-03,6.414971357273000462e-04,2.257866114377975464e-01
-5.972487811414278758e-02,-4.355908767983773799e-02,-2.797404866645680777e-01,-6.369419564536308621e-03,8.058439283023602091e-04,-5.089425150702133350e-04,2.287998199462890625e-01
-5.289845189262457059e-02,-6.004091099382780072e-02,-2.908726371180593295e-01,5.364440197811537817e-04,4.133877646224958847e-04,1.070717208468401722e-03,2.344948202371597290e-01
-5.042847960359983506e-02,-4.247743369496434496e-02,-2.616848382178979526e-01,1.205723414704459699e-02,-2.702284427594174587e-02,-3.121746333583585303e-02,2.278653085231781006e-01
-5.723945456101139917e-02,-6.109881392077651241e-02,-3.112843227995298889e-01,3.810681004974622501e-03,-1.057185199374730336e-02,-6.122414496183218278e-03,2.531097531318664551e-01
-5.518365242567446760e-02,-5.617589149266513648e-02,-2.910145321757307002e-01,9.788430144815579541e-04,2.083284897350931922e-04,8.777859863598304682e-04,2.353476285934448242e-01
-8.238610599164900017e-02,-8.865997163088357169e-02,-5.647097966155860682e-01,6.972358962637104259e-03,-4.440395803669354435e-02,-1.161119803347463245e-02,4.859165549278259277e-01
-5.775058818657224924e-02,-5.384314947091885240e-02,-2.909420451198083679e-01,1.130452223104061942e-04,1.782596185209780462e-03,-1.738341300139031160e-04,2.351900637149810791e-01
-6.431785513130255927e-02,-5.920962633048343360e-02,-3.006025315919143015e-01,-7.580037102747868346e-04,-5.700446092920939678e-03,1.692249411847840173e-03,2.391052842140197754e-01
-5.155906210957270780e-02,-7.148699151104601079e-02,-2.046126965074349657e-01,8.097260742734289224e-03,-1.646803922098807882e-02,-4.465129383288846815e-03,1.477923989295959473e-01
-6.263798838570054650e-02,-6.184676535483699111e-02,-2.876588374548126881e-01,-2.932958795824074007e-04,-1.096512462031100452e-03,-8.059806419294671337e-04,2.254303991794586182e-01
-6.186897045455594379e-02,-6.186280231138016616e-02,-2.875892990533915339e-01,-1.182347354069177557e-04,5.758314145868721669e-04,7.376321614408319497e-04,2.257293313741683960e-01
-6.224358848566534375e-02,-5.893373824326572641e-02,-2.938832477101841478e-01,-3.524260662641039892e-04,-8.046813610152562038e-03,1.717944237515909613e-03,2.337478548288345337e-01
-6.558390559627497174e-02,-6.138626711973992067e-02,-2.949637736135636290e-01,-3.938850576743415537e-05,9.212385506676942283e-05,-1.605090463009045481e-04,2.315074652433395386e-01
-5.513940460042621172e-02,-5.881163838421081536e-02,-2.925918711894167079e-01,2.676233036176223126e-03,-4.113880890003914631e-03,-1.361974163755563533e-03,2.358028888702392578e-01
-3.878614281446317313e-02,-6.048994553212980185e-02,-2.834024418340332363e-01,-1.150918252866329778e-03,-1.537606172854846494e-03,1.531669140971458128e-04,2.345425784587860107e-01
-4.874186026867233235e-02,-5.163887485519400022e-02,-2.831130242359164439e-01,-5.959244998263100480e-03,-4.019036455655434364e-05,2.562454177134748093e-04,2.331651747226715088e-01
-4.435002651228980852e-02,-5.647986984959427192e-02,-2.797178881072128753e-01,-4.989904464915017809e-03,-2.219489770981283860e-03,1.373619150388548154e-03,2.297505736351013184e-01
-5.799631032406837861e-02,-5.943186756700236106e-02,-2.879301857026063116e-01,-1.174914952082558618e-04,-1.237420060650403029e-03,1.278928075190282091e-04,2.292296886444091797e-01
-3.829866100007980889e-02,-6.319107176659674585e-02,-2.723589342047669781e-01,-5.110535744939854845e-03,-2.022424482774115215e-04,2.806895317816255524e-04,2.228367775678634644e-01
-4.137092294897494471e-02,-5.886730861761498013e-02,-2.845489447003030636e-01,-2.022232361557367054e-03,-2.072677804681619606e-04,4.262884368526956009e-04,2.349465489387512207e-01
-4.166498000266721791e-02,-6.177345847093800024e-02,-2.604200916508441210e-01,-6.069148628169400948e-03,-2.991752453327581936e-03,1.227377273996481735e-03,2.097646147012710571e-01
-6.060983535901193209e-02,-6.174942736274999233e-02,-2.890928747951558297e-01,4.021649393347262067e-04,-2.087757898740539599e-04,1.375944682920032846e-03,2.279291898012161255e-01
-4.380393107671140540e-02,-5.664874674626503570e-02,-2.700462708703235126e-01,-8.346615222261582340e-03,-5.485690410629981070e-03,7.014273174621095050e-03,2.211140394210815430e-01
-4.819180192895078374e-02,-5.237007930207748796e-02,-2.835305976447400345e-01,-4.522774222328530824e-03,-2.830608193059215832e-03,2.511144454156837881e-03,2.335012108087539673e-01
-3.713034992071598261e-02,-6.144887033501545553e-02,-2.393737421386559205e-01,-1.833469727637342638e-03,-2.545182333722179058e-02,3.606594279989033119e-03,1.963874101638793945e-01
-4.039833940830234171e-02,-5.867774704600431379e-02,-2.841087351671895966e-01,-4.100719109596430087e-03,-2.772513699585340066e-03,4.833199913188536228e-04,2.352620214223861694e-01
-5.472551008973347564e-02,-6.399836025098455672e-02,-2.923647166085447946e-01,-2.128405177423909646e-03,8.247818757459664295e-04,6.275335168199534753e-04,2.331771850585937500e-01
-4.261247176393090363e-02,-5.960907367400751500e-02,-2.884028648297513597e-01,-2.194963749961998181e-03,-1.416943770260407041e-03,1.019565228232915748e-04,2.377913147211074829e-01
-4.769617810678583592e-02,-6.020331771749033722e-02,-2.881259979468971943e-01,-2.115173775474125592e-03,1.169288187093624871e-04,1.628454846886445362e-05,2.344553321599960327e-01
-5.285604219158747397e-02,-4.397669028326106622e-02,-2.874448711471140339e-01,-3.459105377854905863e-03,-1.790928482796391849e-04,-1.326758027124468400e-03,2.392384409904479980e-01
-4.354395638060708229e-02,-6.428459516178208766e-02,-2.864770435415039951e-01,-1.076998880788178087e-03,-1.612160201869645905e-04,-5.289987747341102315e-04,2.332648038864135742e-01
-5.696312067803789569e-02,-5.898220699981306103e-02,-2.891725484311095662e-01,2.651038781137894044e-04,-8.184231388227471149e-04,-6.130434329211859523e-04,2.312137335538864136e-01
-5.890935528157384415e-02,-6.152360832483627640e-02,-2.899940311166789852e-01,-2.035879013071531258e-04,-1.824935356713799960e-03,-2.045446767342456258e-04,2.298109829425811768e-01
-5.401476904791419065e-02,-5.661943596802107570e-02,-2.924837967143597561e-01,3.148372630511252993e-03,-1.602930411654769974e-03,-2.488980512989363673e-03,2.372955083847045898e-01
-6.149220044827868881e-02,-6.247041100501693478e-02,-2.929892095222271231e-01,1.501210543792892444e-03,1.442519935908078647e-03,-3.117329372853895608e-03,2.311006784439086914e-01
-5.315372408342175503e-02,-5.254019736628759429e-02,-2.905496745011770798e-01,7.929093431458722387e-04,-6.118585056428386439e-04,-9.060439654453842674e-04,2.377148121595382690e-01
-5.992349365528422400e-02,-7.090942535921432310e-02,-2.944855232815847268e-01,8.927267924123790310e-04,2.592693474095060166e-04,-8.569905844960356298e-04,2.292770147323608398e-01
-5.597339409590046388e-02,-5.293082912091262582e-02,-2.904072579830423440e-01,8.443629859503439146e-04,-1.411232344277639494e-03,-7.783864183986874928e-04,2.359908968210220337e-01
-7.292278766477808261e-02,-5.873879148079812207e-02,-3.057676556262099998e-01,5.123571210116528718e-03,2.157590432123972918e-03,-2.377728017830660085e-03,2.404792457818984985e-01
-7.523207511283838689e-02,-6.770419276206915415e-02,-5.158944955668538501e-01,-1.568802163659704929e-02,2.505547766558276906e-02,-3.078853247905488991e-02,4.505804777145385742e-01
-6.256474530388161925e-02,-7.249887109551578224e-02,-2.958735919114233726e-01,1.747510591375790864e-03,5.816088099792051866e-04,-6.051649270786008941e-04,2.285284698009490967e-01
-5.653635933230177768e-02,-6.569382974448129131e-02,-2.985248757350188464e-01,-5.976469981013963085e-04,-9.999138107026368100e-04,-3.189601030412340422e-03,2.376150041818618774e-01
-6.049292780126372393e-02,-5.864425851170945725e-02,-2.933312528732605617e-01,2.078082630345167749e-03,-3.075211259003085909e-03,-4.973652719115794971e-03,2.340151369571685791e-01
-5.842273375237502786e-02,-6.239468556529084720e-02,-2.913522281699381655e-01,3.301430993860557817e-04,-1.831739125111584267e-03,-1.427069257995675598e-03,2.310048490762710571e-01
-5.865942384590985825e-02,-4.605612900533301302e-02,-2.965534369385750546e-01,-2.872292992969872373e-03,1.360139933244100281e-03,-1.163434294841423147e-02,2.453304380178451538e-01
-5.838361166510347422e-02,-7.172895332790397982e-02,-2.942181520418996055e-01,5.296185870069089929e-06,-1.296001400236872041e-03,-3.797532263679832040e-04,2.294650524854660034e-01
-6.547389567883744876e-02,-5.475275962253819961e-02,-2.819120879758790221e-01,-1.268857440931391847e-03,1.463332347892911441e-03,-1.398587452342417090e-02,2.233359962701797485e-01
-6.528909473552037268e-02,-6.524981893495995777e-02,-3.487176001277467741e-01,7.907758826745761886e-04,-2.234900965652199430e-03,-1.191167734040335033e-02,2.842276692390441895e-01
-5.681613236865840078e-02,-6.944889060046774421e-02,-2.970385247675466633e-01,-2.181429972745612712e-04,-1.494631651294610645e-03,2.904113443774633194e-03,2.342303544282913208e-01
-6.789924416054257672e-02,-6.033787812156088393e-02,-2.902337860910582101e-01,-1.342614776646218694e-03,-5.343897092262416687e-04,6.932127591162116388e-04,2.262270599603652954e-01
-6.254273821224770602e-02,-6.833559450788191658e-02,-2.996797796739237851e-01,9.915481217987790440e-04,-2.894536628003923674e-03,1.443708224587741560e-03,2.343675941228866577e-01
-7.387819710641771453e-02,-4.846342420712886068e-02,-2.408270300273391284e-01,2.542248858186378722e-03,-2.384493804534431813e-03,2.640223461730609612e-03,1.811577975749969482e-01
-6.171098219365028781e-02,-3.535432486809940433e-02,-2.819917422240778571e-01,2.730373796393157065e-03,-3.324070918159853743e-04,3.020301914455107573e-05,2.346206456422805786e-01
-5.915575420336416368e-02,-7.177177877521850879e-02,-2.917410837942505664e-01,-1.259006972387507334e-03,5.631132847102171676e-04,-6.519812714250955519e-04,2.265563458204269409e-01
-6.234011986171894559e-02,-6.860463925131879415e-02,-2.902702552570768368e-01,-2.885264335984716842e-03,1.208147807993321683e-03,1.546398503503196862e-03,2.249445319175720215e-01
-6.477651150105920297e-02,-6.285179897915037228e-02,-2.876929021386447349e-01,-6.897362631976438393e-04,2.873956561188046547e-04,2.980720662421873827e-04,2.238892912864685059e-01
-6.356570665967906097e-02,-6.331076058354456748e-02,-2.872002054837585749e-01,-5.306607688482441491e-04,1.264766368712475658e-04,7.122029011933743697e-04,2.237674742937088013e-01
-6.323433133299691256e-02,-6.162442230726761228e-02,-2.863809393984992901e-01,-8.078586736370579760e-04,1.874883063338779194e-04,-9.342892134596084272e-05,2.239605635404586792e-01
-6.085204245415576363e-02,-6.066148969240997557e-02,-2.894206948937605994e-01,-8.711912723817417286e-04,2.044938768093595288e-03,2.220202697716760457e-04,2.286967188119888306e-01
-6.315310762543907552e-02,-6.473818697370398167e-02,-2.922450477699428117e-01,-1.860436825115613889e-03,1.524528315193291426e-03,1.843664783050844719e-03,2.283638566732406616e-01
-5.859275467360988698e-02,-6.035691881719615348e-02,-2.888322721234135027e-01,-1.101108004008506338e-04,8.507299515985630159e-04,-7.767657644022731489e-04,2.293712794780731201e-01
-5.600327608060200191e-02,-7.916101553032055260e-02,-2.988948303751860491e-01,-6.593648471682163944e-05,2.279391877879194221e-03,1.192112504038308433e-03,2.322232425212860107e-01
-4.530381288563437026e-02,-6.005782217969932169e-02,-2.876982800188484513e-01,6.913120071939762336e-04,-7.774203848656446912e-04,-1.086322876615142914e-04,2.353715151548385620e-01
-6.306707096195852957e-02,-6.769641286743194319e-02,-2.884759434113908227e-01,-1.475387313186133590e-03,-8.341895502415652480e-04,-1.068123141562162795e-04,2.231496125459671021e-01
-5.718966313931135581e-02,-5.541150418568122071e-02,-2.929712129733472170e-01,-2.225497681528008345e-04,-1.069011053568051824e-03,4.752017632663953217e-03,2.368262708187103271e-01
-5.988289514560972415e-02,-6.080899412384059566e-02,-2.908063219904182262e-01,-2.990801779292960420e-04,1.904854324012739478e-03,-4.873480629141093844e-04,2.304875105619430542e-01
-5.798426132130847510e-02,-7.811374070299736960e-02,-3.030549462840982922e-01,-2.660563670063290781e-03,-1.265143153058161129e-04,4.787430428265432628e-04,2.356982380151748657e-01
-6.222521977861286691e-02,-6.788712791664799906e-02,-2.891898695271115094e-01,-1.912419875193055669e-03,9.029175858541155881e-04,2.898464280203613035e-04,2.242178171873092651e-01
-5.806545672743620989e-02,-6.008284422664225688e-02,-2.878483930845244787e-01,-3.166259256185184221e-04,6.418838587643003329e-04,5.609578038013692582e-05,2.287842929363250732e-01
-5.979581832105211603e-02,-7.101312888680740010e-02,-2.939950218631478540e-01,-2.626701893343701046e-03,4.604190590700087831e-05,1.737923602289409260e-03,2.288619130849838257e-01
-6.434535672460597877e-02,-6.337122141641089723e-02,-2.872253939560351910e-01,1.362185856660249597e-03,1.110101186294792149e-04,-7.193997972490464177e-04,2.233847230672836304e-01
-6.353626432999169571e-02,-6.436471010845884466e-02,-2.867928413696781975e-01,-8.353319130998097678e-04,2.107344626902295465e-04,-2.482733789281970269e-05,2.228485047817230225e-01
-6.150706106009215524e-02,-6.121906066368798527e-02,-2.872777060583722730e-01,1.088156498474444862e-04,7.215425879704780079e-04,4.321584283928694959e-04,2.259195595979690552e-01
-3.610762267455909502e-02,-6.216379701766259341e-02,-2.690165272505878891e-01,-1.011102949747038227e-03,7.981454541185208432e-03,-3.727030942331462419e-04,2.214754223823547363e-01
-4.759636300039524204e-02,-6.698015953094961505e-02,-2.398432118871806351e-01,-1.090768411274785268e-03,-2.808645035337922063e-03,1.722610195248248412e-04,1.833996474742889404e-01
-3.714507336356068223e-02,-6.503323798208385242e-02,-2.866599292167525403e-01,2.397408452932097279e-04,2.334015924369288626e-03,-1.749153543463558480e-04,2.368406802415847778e-01
-5.333331509250827107e-02,-6.264709978600127571e-02,-2.881834484454193213e-01,-1.507577548845802102e-03,5.596705801936925281e-04,-1.305392657813528312e-03,2.303624451160430908e-01
-5.536158254354187069e-02,-4.653072341122804767e-02,-2.887482389431995644e-01,-3.076848267362938295e-03,1.224614480709519562e-04,-5.653967820482424817e-04,2.379868179559707642e-01
-4.148037748469760033e-02,-6.244919359324475894e-02,-2.849562023189025073e-01,-6.884713937098244693e-05,1.237017999932079389e-03,5.978064380359547191e-04,2.337101697921752930e-01
-5.428426868941119143e-02,-7.591624951748419947e-02,-2.137011127181644987e-01,1.532010377166403460e-03,-5.503526747729569485e-02,5.987094484656719368e-03,1.778605878353118896e-01
-6.329759545296370638e-02,-6.346419692408507285e-02,-2.868972376583102113e-01,5.036967955449131321e-04,5.793616677818791893e-04,-5.567910152245438368e-05,2.235203683376312256e-01
-6.323360698562832671e-02,-6.337616608607735125e-02,-2.865371730308324816e-01,1.340908672772501097e-04,2.102356670507514157e-05,1.585846087034225850e-05,2.232324481010437012e-01
-4.004641998356964216e-02,-6.255426542884641450e-02,-2.871601986367943171e-01,1.496087053521482062e-03,2.373926684412680337e-03,1.467854618885497040e-04,2.367139905691146851e-01
-4.267179602036418051e-02,-6.219356054016317303e-02,-2.884694315437223988e-01,1.538692027805028657e-04,3.927365499139536496e-05,1.663936825775449188e-04,2.366417795419692993e-01
-3.772855686024498278e-02,-6.178632060554806182e-02,-2.833463465313716956e-01,1.499825986285326833e-03,4.393607688447732419e-04,8.193196378211413280e-05,2.345318943262100220e-01
-6.200195615372336433e-02,-7.224586873415064781e-02,-2.906520386328329542e-01,2.352059708316941652e-03,2.701969923095808588e-04,1.967691003936607099e-04,2.237419486045837402e-01
-7.651197037670481871e-02,-5.413606066968307262e-02,-4.930585690924801923e-01,-1.928694448700090519e-02,2.087656967227002891e-02,-1.846312562421136699e-02,4.321787655353546143e-01
-4.604317326775730912e-02,-6.696898653792046630e-02,-2.757808032008620680e-01,-4.981308714635548918e-03,1.944574733968902625e-02,-4.098437182740458963e-03,2.228655815124511719e-01
-3.791889035421855403e-02,-6.632569999622658918e-02,-2.743415796680293006e-01,2.148693097547559570e-03,3.364493806638058949e-03,4.898073762273789846e-04,2.236853837966918945e-01
-4.430926991901247558e-02,-6.142125518332672285e-02,-2.692391168590588246e-01,1.071630474861668889e-02,2.243062891129106451e-02,1.736350829278197547e-02,2.231493890285491943e-01
-5.970107341440575310e-02,-6.913942066207315329e-02,-2.926554549736484212e-01,-1.355226679067916438e-03,-1.741516288131881446e-04,-6.113667463995640233e-04,2.283962368965148926e-01
-5.860274730607144267e-02,-7.021909494425848663e-02,-2.909772817757412255e-01,8.818255720289506095e-04,-1.311419767922847356e-03,-8.203532290098871282e-04,2.268105596303939819e-01
-6.009046770676781946e-02,-5.522959119829102398e-02,-2.144162576686385047e-01,1.483975816328372745e-03,7.328731242029916382e-02,6.011757993781849385e-02,2.270513176918029785e-01
-6.270922086050170763e-02,-6.969244390372093811e-02,-3.322329864676739630e-01,1.770447285614691699e-03,3.376210457898687865e-03,2.080808367192128229e-03,2.662071883678436279e-01
-6.080550965740624814e-02,-6.107708334164668740e-02,-2.999439154603473767e-01,-2.556503238961197085e-03,4.865652577618136826e-02,-3.738290595980819919e-02,2.616041600704193115e-01
-4.648577727044589381e-02,-6.085444430171188523e-02,-2.903517801796973163e-01,-8.250227055798641917e-04,-3.348081021671039242e-03,3.571521314094244239e-04,2.370846122503280640e-01
-6.412027570193978843e-02,-6.054185687979371511e-02,-3.176798566341142438e-01,-5.675468666164785146e-03,2.875456482407360084e-02,-2.718763952901521314e-02,2.645887732505798340e-01
-5.437929749869474527e-02,-7.819225018672942840e-02,-3.192375643182435718e-01,-2.787947987018758104e-04,8.486856248493466343e-03,3.640302583342592321e-03,2.542950510978698730e-01
-7.918145638683622700e-02,-7.260301842371448544e-02,-4.398301952654211089e-01,4.586439394488013750e-03,5.810022065037828004e-02,-4.176351156718603741e-02,3.845853209495544434e-01
-5.664182197589121004e-02,-5.881968227970468810e-02,-2.970709292362371801e-01,9.722958451882774116e-04,2.665444318280538096e-03,1.350367477258438559e-02,2.405378818511962891e-01
-6.625569850212899292e-02,-6.730525908821036185e-02,-3.419481585633727949e-01,-5.130207348640743138e-04,1.247204234683718226e-03,9.600229184401293334e-04,2.751841247081756592e-01
-4.968372485148234152e-02,-4.890493539228879527e-02,-2.821394682312337032e-01,7.339147622361022819e-03,3.350654757917065265e-03,4.032814477707636486e-03,2.333696037530899048e-01
-6.114954205955346056e-02,-6.907103668885251901e-02,-2.903460516594350560e-01,-6.512057009311189972e-04,7.631938162066203126e-04,8.019022569293670038e-05,2.253469526767730713e-01
-5.182639331547636563e-02,-5.294855324437304500e-02,-2.887130461795850422e-01,6.053769208111106116e-03,1.297961531169313865e-03,5.937437699028823160e-04,2.365729808807373047e-01
-5.901850054827918746e-02,-4.190103409322039341e-02,-2.740710340103953979e-01,5.035342544539021456e-03,1.918429826698288959e-03,4.839754777374900493e-03,2.244529575109481812e-01
-5.889063049324660959e-02,-7.532737460328926826e-02,-2.957463154837284280e-01,1.618958741136158940e-03,-6.098891046308527707e-04,1.440297418381249889e-03,2.291131764650344849e-01
-6.004533722800245443e-02,-3.841271931435819020e-02,-2.833354074111874565e-01,4.757248905692685291e-03,1.709052244432415464e-03,2.118295047461573807e-03,2.350465804338455200e-01
-5.445420261044585375e-02,-4.626397521278324820e-02,-2.885954385732922844e-01,1.510759931326851983e-03,-1.996613627951145998e-04,-4.785087320991631863e-04,2.383579760789871216e-01
-5.322136231590716970e-02,-4.779718447029751571e-02,-2.756616982423965023e-01,7.345391981081050327e-03,1.956870083247129607e-04,1.939928117411244190e-03,2.255857884883880615e-01
-7.410044484936403886e-02,-7.948063286003759220e-02,-4.223287375889452355e-01,6.654015805832831990e-04,2.522231314729537349e-03,6.869122856391267351e-02,3.655054271221160889e-01
-6.251854427111924739e-02,-6.436872635102816598e-02,-2.872158012356793022e-01,-6.626858749092426988e-04,1.948421970819044010e-04,1.901767207767015514e-04,2.237813472747802734e-01
-5.687433767022206932e-02,-4.596223747166168494e-02,-2.824815365043138460e-01,3.979056908393525244e-03,2.639448248791684487e-04,1.926177985997011306e-03,2.313835918903350830e-01
-5.709681164889107707e-02,-4.126722070370159035e-02,-2.878200015013110402e-01,1.630273575374762383e-03,1.210931584937998372e-03,3.371209317552639252e-04,2.390580177307128906e-01
-5.370069375620735441e-02,-4.464910907317581890e-02,-2.863188950290578294e-01,3.635419367266740868e-03,3.059558376735417584e-04,-1.242087404515397533e-03,2.373673915863037109e-01
-7.475984355144488225e-02,-5.492078984589716939e-02,-1.808102942272188651e-01,-2.651934987474928104e-03,2.382181303788344015e-02,-5.103562501176431981e-02,1.525833159685134888e-01
-6.927994549911120625e-02,-6.304909107606632146e-02,-2.901919090137146107e-01,-1.606853408024237111e-03,1.001862119898204277e-03,5.066248037188826863e-04,2.241180837154388428e-01
-4.181357056815440676e-02,-5.957638896169359377e-02,-3.029520574587245552e-01,1.348311345584157078e-02,-3.212026849146089325e-02,-8.270854114867732740e-03,2.602230012416839600e-01
-6.246837214103517777e-02,-6.466914975525750453e-02,-2.883106180011911768e-01,-1.016617626499246186e-03,1.135881283260031143e-03,3.528649015016982037e-04,2.247662842273712158e-01
-5.931810024445957619e-02,-5.672542792347991247e-02,-2.895447622642666752e-01,3.360828164192458190e-04,9.608320440523459779e-04,7.393362578938100912e-04,2.315441370010375977e-01
-4.796958124013465941e-02,-5.271732805678168432e-02,-2.711593328580522710e-01,7.559260022953185297e-03,-1.097323704253930221e-02,-8.771033961491900982e-03,2.225758582353591919e-01
-6.442455281090816999e-02,-6.234154916943397684e-02,-2.873643431034450524e-01,-1.171107819450636911e-03,-8.322141061991599376e-05,-1.046979198093200662e-03,2.240051329135894775e-01
-6.388096892929800985e-02,-6.295883900433732472e-02,-2.869780118881475328e-01,-8.890432062736449261e-04,5.329744489165906378e-05,-3.912863425636077639e-04,2.235658764839172363e-01
-4.655194263465486926e-02,-5.336089860154019648e-02,-2.897093513316961744e-01,1.582327845946707558e-03,-2.549298652646372681e-04,-4.824980101145953871e-05,2.398415207862854004e-01
-4.215975864829481223e-02,-7.029327069929486305e-02,-2.488211998562966931e-01,6.501062802674801785e-03,4.989879862609124250e-02,2.610173609236412021e-02,2.175469994544982910e-01
-5.835752417055689589e-02,-7.075387415339715047e-02,-2.984034299320795780e-01,-1.136187507326397454e-05,-2.534288936192854622e-05,-3.046386427092997572e-03,2.341534942388534546e-01
-5.758139911599136074e-02,-5.849585260476020121e-02,-2.877962288381664679e-01,3.078177747025040217e-04,5.199934260309154680e-04,4.661929773982444907e-05,2.297613620758056641e-01
-5.201022615282326067e-02,-5.018718719827519603e-02,-2.898382987908086905e-01,2.806377179757326736e-03,-4.143956320944766061e-04,-8.997171158837530790e-04,2.388004511594772339e-01
-5.823128599791824178e-02,-5.621134802324029289e-02,-2.912981532060059942e-01,-9.518266050146861407e-06,1.353403831784253004e-03,3.422840653717742148e-05,2.340951114892959595e-01
-5.507537054545980082e-02,-4.819191468838426862e-02,-2.883168036178298532e-01,3.268944577344368250e-03,-2.174890487184675647e-04,3.120681694181388953e-04,2.368268370628356934e-01
-5.554314375023583494e-02,-4.600592554299805237e-02,-2.882032991747556228e-01,1.835534560993736918e-03,-3.451190123406627395e-04,2.260563904624794934e-04,2.375947237014770508e-01
-5.863630127264024550e-02,-6.590777040471908210e-02,-2.336602027377880919e-01,7.619369113443149807e-03,4.234837207960525512e-02,5.384193002805012090e-02,2.089610993862152100e-01
-3.848717598319806310e-02,-6.369498611774912500e-02,-2.868101933794661162e-01,-1.359225354466380657e-03,-1.671139176580175700e-03,-2.508092685271128756e-04,2.367576509714126587e-01
-5.463183387672856939e-02,-5.384391246984497614e-02,-2.600621693009330659e-01,1.063616258817589970e-02,8.596779931389197243e-03,9.174938929055107689e-03,2.077925503253936768e-01
-6.317990822890649782e-02,-6.143394570271069888e-02,-2.879738948213405036e-01,2.559639769997496157e-03,-9.778806414168792274e-04,-1.044580959410843337e-03,2.257291823625564575e-01
-5.728730530978179414e-02,-4.931107196746786769e-02,-2.891190029550014806e-01,8.358323499145583774e-04,-4.175128823679617740e-04,-6.726297633914376291e-05,2.359265387058258057e-01
-5.925826524927110817e-02,-4.124324592524397648e-02,-2.821144108703116382e-01,1.837450643209388767e-03,3.786087694650161223e-04,1.110277612207081696e-03,2.324186265468597412e-01
-4.449596365550390065e-02,-6.077019310029102561e-02,-2.810086639716834478e-01,8.125263470721271614e-03,2.809934502493409425e-02,7.993187299661887874e-03,2.347605079412460327e-01
-5.986188856413005022e-02,-6.986675962739245793e-02,-2.911811086584189523e-01,1.332520924637880166e-03,-8.762145633803218288e-04,-6.614153643741061328e-04,2.265023291110992432e-01
-5.409947036685511246e-02,-4.575726741155258792e-02,-2.906913294525884650e-01,1.608435287481549923e-03,4.738204912124241571e-04,-1.292693039453417128e-04,2.408889383077621460e-01
-5.930905320322302221e-02,-7.456017460247396644e-02,-2.922207271538167506e-01,1.414037152129051910e-03,1.017245337861518231e-03,4.854534722410929664e-04,2.256946861743927002e-01
-5.479953989575725437e-02,-5.024346009164118443e-02,-2.888013441829140326e-01,1.333383514012702461e-03,3.385697440425096145e-04,-4.984861266481618175e-04,2.363263815641403198e-01
-6.464084984921368571e-02,-3.447441088935029874e-02,-2.813394657737898208e-01,-5.973568886374683567e-04,-1.389457133038399933e-03,2.078513629575035482e-03,2.332919836044311523e-01
-5.640813176147316255e-02,-7.304461637281726982e-02,-2.938806277229503716e-01,-2.762154150115920517e-04,7.751968735721244578e-06,1.970275833554472472e-03,2.296325862407684326e-01
-5.835608179767860781e-02,-5.489736991295292301e-02,-2.923802411073856966e-01,-1.247986852542950272e-03,-1.697904139672844334e-03,1.802572774716059215e-03,2.358214557170867920e-01
-6.489811366177188068e-02,-4.138407900570023612e-02,-2.807389549198814338e-01,5.106164140040163769e-04,-6.035673709735470778e-04,2.212360408010638317e-03,2.285432666540145874e-01
-6.382751351460920486e-02,-3.363912479299317748e-02,-2.750746704407561194e-01,1.545180808043547372e-05,5.802225622999238833e-04,2.263920024294503036e-03,2.278822064399719238e-01
-6.411563482544774262e-02,-3.469776738501509361e-02,-2.792098450567325196e-01,2.997660467468650893e-04,4.116817341488647112e-05,1.789112981656643597e-03,2.312323898077011108e-01
-5.982507981384385665e-02,-5.934558527748393097e-02,-2.921811250009815897e-01,2.879051370103863014e-04,2.189593861436728468e-03,2.606326197966201763e-04,2.326280474662780762e-01
-6.410863463170328458e-02,-4.088685788890474015e-02,-2.893110882703944786e-01,9.265866225619734040e-04,2.008586757734648169e-03,9.799103389589794433e-03,2.383017838001251221e-01
-5.775332044763586969e-02,-4.660579146438320608e-02,-2.877937454019739993e-01,4.185931046151250730e-03,-4.998998665900434776e-04,2.015714292009901550e-03,2.359507381916046143e-01
-6.250225055958223697e-02,-4.166806321266217084e-02,-2.838225767189017645e-01,7.274637554678216799e-04,1.113863525693278497e-03,3.084058913043940999e-03,2.325115501880645752e-01
-5.859145985566990844e-02,-4.220485355967296126e-02,-2.876542877719808766e-01,3.281633850763734581e-03,5.097648325258422389e-03,5.140420548011858694e-03,2.380785644054412842e-01
-6.605711745446576910e-02,-3.750957973600108075e-02,-2.820130449575986020e-01,-1.746085176829987587e-03,-3.669299018686108757e-04,3.893315666049042474e-04,2.315749078989028931e-01
-5.890828220560770379e-02,-6.700140490088929424e-02,-2.948687134499946572e-01,5.101092628446340970e-04,1.960895278657278067e-03,-1.252049275326878137e-03,2.320564240217208862e-01
-6.709501768063649840e-02,-6.053568648154242227e-02,-2.908070928097316599e-01,-4.002557449058629160e-03,-1.011042817304033236e-03,8.984234281481635973e-04,2.271806895732879639e-01
-4.458550411412917636e-02,-6.867979429379733602e-02,-2.748669036354209894e-01,6.701280247776527157e-03,8.614080288508785960e-03,6.724813331091757801e-03,2.203510552644729614e-01
-7.529124149950358613e-02,-6.444624601729477542e-02,-3.459557142168249166e-01,-6.801809185728876529e-03,1.347052487289853752e-02,-2.889386755410507449e-03,2.775255441665649414e-01
-6.310538055122111301e-02,-6.942847880381511350e-02,-2.988160213960717737e-01,-7.062590937191205601e-04,-9.026912374713340001e-04,-2.354267601494842814e-03,2.326577603816986084e-01
-6.488439019973044064e-02,-4.127718638363636616e-02,-2.710413553687571753e-01,3.084958643315585756e-03,5.016344008656502870e-04,1.366791425296589625e-03,2.189970165491104126e-01
-5.917870139335643098e-02,-7.308820900768608908e-02,-2.918530508612820484e-01,3.418323990468705013e-04,2.344652242609269663e-04,2.464803093787811504e-03,2.260822504758834839e-01
-8.049729982137662776e-02,-6.963578142381374181e-02,-4.917752138789565075e-01,-2.505954921454802342e-04,7.025894610229697045e-03,-2.921764594739673787e-02,4.200522303581237793e-01
-5.931448161269424479e-02,-5.555696226964310092e-02,-2.895710680083395383e-01,3.675045192629045900e-04,-1.790543247962029507e-03,2.737006342604996183e-03,2.322281301021575928e-01
-6.159899096229271009e-02,-3.970210467090162787e-02,-2.776539330345010326e-01,5.278867233003605580e-03,8.656415621124677936e-04,3.472385695907141082e-03,2.280617505311965942e-01
-5.702678390072585257e-02,-5.713252300273463646e-02,-2.792515692483754641e-01,1.106438137174891104e-02,3.981814675214962254e-03,6.153023871236277219e-03,2.233579456806182861e-01
-7.293752392089579428e-02,-6.941635055202646787e-02,-3.452879580692955752e-01,-1.918095778574326407e-03,-4.589052559014164534e-03,1.269955786661706824e-02,2.751439809799194336e-01
-5.959353030047330468e-02,-6.350116438843560196e-02,-2.163416661634699201e-01,-6.354190426936406379e-03,-6.512492740595970941e-02,-7.924503904126652121e-02,2.359172701835632324e-01
-7.629641989258725832e-02,-7.008040894523204223e-02,-4.919852783973494570e-01,-8.715088980526587183e-04,-1.410187073926261409e-03,-2.382951968560999625e-02,4.208700358867645264e-01
-8.063986260314526255e-02,-5.870046725639244123e-02,-3.202775127812517164e-01,-1.997845614892853911e-03,5.072616905266814913e-03,-2.845966028179701748e-03,2.515521943569183350e-01
-5.822317196104684345e-02,-5.684797599814751801e-02,-2.918856100765594430e-01,2.850975850973772301e-04,-1.856823168980256504e-03,-2.111850708731007227e-03,2.344041913747787476e-01
-5.925055187733517525e-02,-5.983272691687094302e-02,-2.895243258656668428e-01,-8.480240293517218560e-05,-1.439408056001516886e-03,-5.819545870335352585e-04,2.299990057945251465e-01
-5.460543876862572477e-02,-5.043734940104065145e-02,-2.895090962827425729e-01,1.041772231749898839e-03,2.789488161025625900e-04,3.893162838162934761e-05,2.370225638151168823e-01
-7.131424328156012182e-02,-4.741136299121929965e-02,-2.360262747859979693e-01,-8.976124203540299020e-04,-1.499809428127596911e-03,1.500998942637086359e-03,1.779168844223022461e-01
-6.054052905017892616e-02,-6.197680227797025543e-02,-2.889955379054368612e-01,-3.393181950624278185e-04,-9.728272875846876735e-05,-1.395210723791060967e-03,2.277539074420928955e-01
-6.121572018881962784e-02,-6.916047064952741963e-02,-2.908814320521070917e-01,-1.601598532133580773e-03,-3.665101448742648328e-04,8.531479758995004882e-04,2.258209586143493652e-01
-5.985238802329317931e-02,-5.938534081054641645e-02,-2.882482304420420638e-01,4.014658497080083200e-04,2.505544343124006595e-04,-6.427283374687211160e-04,2.286339104175567627e-01
-5.477442834686044315e-02,-5.499523117107833758e-02,-2.898895076728809639e-01,1.366917385750497562e-03,1.734045597213624071e-04,-7.988438666320371107e-04,2.350209504365921021e-01
-5.932691067644491056e-02,-5.792225265962777647e-02,-2.877958964764436578e-01,-1.415383171173511222e-04,3.517951297066533654e-04,-8.450722132257484616e-04,2.291801571846008301e-01
-5.778295256693916082e-02,-5.846613988314466881e-02,-2.902566633522880579e-01,-4.992316114719029421e-05,-5.422631138076151013e-04,-1.160043006106292480e-03,2.321434766054153442e-01
-4.668493784503302546e-02,-5.919630103701187251e-02,-2.882341074577995377e-01,2.614182977913605179e-03,-2.920450503929268105e-04,5.225420200071774187e-04,2.355886250734329224e-01
-6.299381343360163643e-02,-6.104597819944433679e-02,-2.891974535609067587e-01,-1.213491514745964359e-04,-7.376078496914601369e-04,-1.711199609031888343e-03,2.272068411111831665e-01
-5.899022520872862496e-02,-6.073749023753897969e-02,-2.896603288727153114e-01,3.741760721144376210e-04,-1.682311148598319766e-03,3.916000020782620735e-04,2.298218458890914917e-01
-5.889301659322976334e-02,-5.821258267776530104e-02,-2.908508322796958812e-01,-4.463006805329291149e-04,3.398993654556036652e-04,-8.995760186752996095e-04,2.323060333728790283e-01
-5.878757135361439845e-02,-5.810418509459688852e-02,-2.902271906705943261e-01,-2.132582884136736574e-05,2.411512617541055551e-04,-1.882903160663902328e-03,2.318053841590881348e-01
-5.146873903465148947e-02,-5.545747581138849025e-02,-2.899911862471632462e-01,1.791068253875938978e-03,1.289510129243610394e-03,-8.266059559052791987e-04,2.365885227918624878e-01
-6.260960665749797094e-02,-6.022666269351550916e-02,-2.889233221675328589e-01,-4.990970384567015774e-04,-1.023889596307627024e-03,-1.137059281339412430e-03,2.275316268205642700e-01
-5.215092030436582760e-02,-4.942633878633201361e-02,-2.901555022790890392e-01,-1.940808294509608354e-03,1.492561761049389629e-04,-5.397583475577909831e-05,2.394022643566131592e-01
-5.100838193926991726e-02,-4.909557772670358755e-02,-2.914158454730362280e-01,-1.418713176073664161e-03,-2.914405273691859878e-04,3.335497494131075668e-04,2.413832843303680420e-01
-6.039686443164782315e-02,-5.577415074170691267e-02,-2.914849532804903443e-01,-2.599810585215096359e-04,1.296013192882490301e-03,3.401358382032719421e-03,2.335193306207656860e-01
-5.330248872451343045e-02,-5.157289148014096436e-02,-2.906659564710400989e-01,-3.406221864026883210e-04,-1.014134754731492829e-04,3.631848694998538558e-04,2.382345944643020630e-01
-5.111120716083547566e-02,-4.792283798674248918e-02,-2.844346504507872520e-01,-4.164653357532729049e-03,8.415601183148565959e-05,3.397183054501624801e-04,2.350453436374664307e-01
-5.809532189657561074e-02,-5.949096868910261349e-02,-2.876342960406786942e-01,7.184542158756622790e-04,-3.425359035151817654e-04,-1.705859424104194579e-04,2.288486808538436890e-01
-5.106251012538960687e-02,-5.106959129415086784e-02,-2.886169739424558345e-01,2.418694367233426706e-03,-1.797851210096924608e-04,2.578422462762830470e-04,2.375884801149368286e-01
-6.253831744099430656e-02,-6.009365469238295288e-02,-2.888765133474486824e-01,3.851083737921275670e-04,-4.297683207461924868e-04,-1.402313258781747850e-03,2.275855392217636108e-01
-6.068103407049149634e-02,-6.390409549961739710e-02,-2.909269734422538223e-01,-1.032087107296146929e-04,-1.080088171756964218e-03,-1.452065742319823879e-03,2.286729961633682251e-01
-5.682636469348278929e-02,-5.736313598961151339e-02,-2.916497242777114085e-01,8.668305956270638043e-04,-1.662151909953603519e-03,-1.969430916946069733e-03,2.346027046442031860e-01
-6.178039167991533631e-02,-6.149665955478242352e-02,-2.889981600320083999e-01,-1.837056626890311902e-03,-1.716125615804158086e-03,-2.080078675749489747e-03,2.274300009012222290e-01
-6.141237044361527730e-02,-5.445477758894953779e-02,-3.118687848857195632e-01,1.005700455781088042e-02,1.986908314343027726e-02,1.278231385934470825e-02,2.578707635402679443e-01
-5.171396734505559478e-02,-5.349711982292364165e-02,-3.098955124379262349e-01,1.013559609614801856e-02,1.629741428358825323e-02,1.358820229455375179e-02,2.604984343051910400e-01
-7.082333805619692169e-02,-6.377846140956722198e-02,-3.029331559794067319e-01,5.739531184029604896e-04,-3.995350969451935338e-03,2.570664396608631636e-03,2.358569204807281494e-01
-4.601410430999641754e-02,-6.080599612971723800e-02,-3.025355635931963327e-01,-6.585217156430425885e-03,1.992090161662424946e-02,-5.722379015444359861e-03,2.522825300693511963e-01
-4.703676435362852404e-02,-6.490700161392418122e-02,-3.032689958812277431e-01,-5.413211268165137036e-03,2.174890377385798462e-02,-9.799594189656790286e-03,2.513770461082458496e-01
-6.200655908324959054e-02,-4.147663443267771144e-02,-2.831680221251322571e-01,-3.028064822322256745e-03,4.029078422309646953e-04,3.586093813604487217e-04,2.321695089340209961e-01
-5.381097387622885142e-02,-6.071976502190357117e-02,-2.949674794167406189e-01,4.502210712958299962e-05,-1.190687664935037538e-03,2.365170434849245794e-03,2.378216385841369629e-01
-5.499894283615575086e-02,-5.446648786827258670e-02,-2.751019927120894049e-01,-3.126950733989409918e-03,-3.378641615555360439e-02,2.727264221213428555e-02,2.329122573137283325e-01
-5.885270194618018313e-02,-6.686701817811180337e-02,-3.143544844261808580e-01,-6.229862039285979924e-03,-3.300700047764192069e-03,-1.376663735871961301e-02,2.530126273632049561e-01
-8.102736361253481956e-02,-6.249138802524972780e-02,-4.831690720970042152e-01,4.412061618890532680e-03,1.255084107842235636e-03,-2.933549715374713859e-02,4.149222373962402344e-01
-6.517537054949118502e-02,-7.355015704458053860e-02,-3.065669803224230217e-01,-7.619175746127016674e-03,-6.763853557377262193e-04,1.117092387230171190e-03,2.376924753189086914e-01
-5.672718406062757235e-02,-6.740132558312253441e-02,-3.333404276632627727e-01,-3.046797700123148218e-03,-3.819066184853168663e-03,6.482592473099628612e-03,2.717975080013275146e-01
-5.912650471672159513e-02,-4.742495007033714627e-02,-2.898940841885605524e-01,-1.599388186447892263e-03,4.001487912505307179e-04,3.488993507523997350e-03,2.369295507669448853e-01
-5.721984512947253521e-02,-5.028416666782170585e-02,-2.904993687090264842e-01,-1.095358418089698981e-03,8.266974971517509086e-04,6.674682118162228190e-04,2.368382960557937622e-01
-5.077753915731249290e-02,-5.284342644594972049e-02,-2.735054636165105135e-01,-8.053147026451646512e-03,-8.787808962276716027e-03,1.395456370174930766e-02,2.239693999290466309e-01
-5.937659472295467311e-02,-6.261263741574424335e-02,-2.909237462572936694e-01,-6.851979478690510637e-04,4.878995465715626123e-04,-1.493338091633143435e-03,2.299653738737106323e-01
-5.965190114050722414e-02,-5.588934189054675650e-02,-2.915503700509852747e-01,2.983222600644398802e-04,-1.238880708368591578e-03,2.831076901157053138e-03,2.338642925024032593e-01
-5.988016844970782404e-02,-4.379450896987822917e-02,-2.871006588422941874e-01,-8.895364534636311356e-04,-4.058371404168068007e-04,7.112702855996755943e-04,2.356846928596496582e-01
-5.987391592848195776e-02,-5.975480042416142501e-02,-2.896378188552771737e-01,-1.456877398140950523e-04,-1.928477053516978014e-03,1.210471265285836991e-03,2.298574596643447876e-01
-5.904593874501876116e-02,-5.109889940402714825e-02,-2.819691584001648432e-01,-1.171069095030303174e-02,-1.303574855736887826e-02,5.827023210092433653e-03,2.292434722185134888e-01
-6.013880071506846892e-02,-6.820897727523647647e-02,-2.923884580422726476e-01,1.147488417472841997e-04,1.730663125300201111e-03,-3.351442439899654513e-03,2.284151017665863037e-01
-5.920448568575245596e-02,-6.128833970299345235e-02,-2.921077819637762918e-01,6.305788961140150429e-04,2.552304959684590941e-03,5.356315500987600745e-03,2.320985943078994751e-01
-6.546513290879332758e-02,-6.136533331845780981e-02,-3.243966078459531999e-01,-2.720237224967943603e-04,4.165585632115395044e-03,7.407630190901591527e-03,2.614206969738006592e-01
-5.130570867699335569e-02,-5.094247850523914156e-02,-2.879105869525222516e-01,3.415160757083634049e-03,-3.061999621728906783e-04,-5.187631784267241131e-05,2.368611842393875122e-01
-5.456086745795700466e-02,-4.018769468728351779e-02,-2.592824813592416455e-01,-9.686117777383922156e-03,-1.430597505722623793e-02,3.473682797989026405e-02,2.226553708314895630e-01
-5.779511411280777167e-02,-5.978192559751721591e-02,-2.877616450135181969e-01,1.693389990092452799e-04,-1.181103096231481304e-03,-7.936451078143531704e-05,2.289889603853225708e-01
-6.046210035852460363e-02,-5.409675735382685202e-02,-2.906235978966134059e-01,2.466906867108624966e-03,2.901362236482794930e-03,1.486052144237180218e-03,2.335166484117507935e-01
-5.841709300942117544e-02,-5.656904115134422928e-02,-2.905565565506469383e-01,-1.451958763039525816e-03,-1.684722814718648274e-03,7.609730530476080477e-04,2.331045418977737427e-01
-6.522191203650598568e-02,-6.311964690433911895e-02,-2.974247429814271815e-01,-3.696038999284842388e-03,-5.502584351648982970e-03,-7.104236558998615510e-03,2.338673919439315796e-01
-6.051345656125367567e-02,-6.383887927141931873e-02,-2.905627624846394141e-01,-1.129752460146750978e-04,-1.892760787735899572e-03,-1.116009406929788315e-03,2.284365445375442505e-01
-5.540838338856182710e-02,-5.524123141840370232e-02,-2.907784213335873891e-01,1.077613571488842629e-03,-1.629215200397008930e-03,1.068272466327166355e-04,2.354780435562133789e-01
-5.405954435820337078e-02,-5.406168447033299351e-02,-2.909587268214280931e-01,1.742487343600320968e-04,-5.008174060727051645e-04,-5.810733612427684304e-04,2.369020283222198486e-01
-6.321386562263310582e-02,-6.469762981124213552e-02,-2.907058472079107059e-01,3.213748805603780078e-03,-2.095253348837727847e-03,1.956422405708573703e-03,2.268763929605484009e-01
-6.252568914916781240e-02,-6.448178111470884155e-02,-2.891062611839832486e-01,2.160891959814518516e-03,-1.204426690575167340e-03,1.205875198021660400e-03,2.256592363119125366e-01
-5.839209180095225604e-02,-5.930916252260831634e-02,-2.880480795700564034e-01,-1.488792991784978429e-03,-3.298298068517786568e-04,-3.514504880050714703e-04,2.292148470878601074e-01
-5.398175016371103974e-02,-5.546772948541095483e-02,-2.897975186037615725e-01,4.275829648243893006e-04,-4.871277287212369585e-04,-1.918746313473722358e-06,2.350789755582809448e-01
-5.029135652796148936e-02,-5.301349430387372608e-02,-2.900302046778758802e-01,-4.371235790143912329e-03,1.410463334878722772e-04,3.905172901627213260e-04,2.385107129812240601e-01
-6.079053939304622511e-02,-6.481026534019083962e-02,-3.265053485742963613e-01,-5.108673824988601946e-03,-9.050649966071463569e-05,1.338375599097819902e-04,2.638764679431915283e-01
-6.594059528233861545e-02,-7.453237194796882847e-02,-3.626529096565452859e-01,-5.108868048477030466e-03,-4.260563342033462514e-03,-5.500611039051627252e-03,2.928929030895233154e-01
-4.572971297901019805e-02,-5.211886296894790993e-02,-2.898522368772916691e-01,-9.634139631208612619e-04,1.167903496063990749e-03,-5.698385872249613938e-04,2.410077601671218872e-01
-5.587294656278381233e-02,-5.764428973983168336e-02,-2.907317558594412210e-01,-1.244556936341974836e-03,4.641247731538489165e-05,3.433215466336803794e-04,2.339888662099838257e-01
-6.211716541699607852e-02,-5.528314846049330045e-02,-3.088892875037748675e-01,1.160126828937340466e-03,2.894342057480995059e-03,6.013720670191850109e-03,2.505340278148651123e-01
-6.397304168177428418e-02,-6.998764417337341448e-02,-3.273877797264327927e-01,-4.166782003836634954e-03,-8.039106041086995641e-03,-1.327916489407209369e-03,2.609414160251617432e-01
-6.498759322691904927e-02,-6.241075240408938685e-02,-2.875775224647293404e-01,2.730236225753805224e-04,6.806627997755282336e-06,2.541055980249315709e-04,2.238904088735580444e-01
-5.996798605737641008e-02,-7.761686278167970188e-02,-3.177280404854042617e-01,-5.560782865679909925e-03,-1.592727392238588993e-03,4.348285714791297676e-03,2.497191429138183594e-01
-6.372067622550051103e-02,-3.544576037042374006e-02,-2.820737898929518428e-01,-5.297283655592141191e-04,-4.904276062131286175e-04,1.641478770104607939e-03,2.337971627712249756e-01
-4.761496004559864770e-02,-4.994518929635802240e-02,-2.805753499628164116e-01,-6.680799376399184676e-03,-8.910484117157905538e-04,7.363784179043491359e-04,2.321013361215591431e-01
-5.432818176373439834e-02,-4.372933592198015307e-02,-2.842156908858712860e-01,-6.060810815254897253e-03,6.805523587829253110e-04,-1.542019792453106766e-03,2.356180548667907715e-01
-5.582847262067247573e-02,-5.514325885413071116e-02,-2.901314452334983196e-01,-1.899485367628244055e-03,8.151223683874180568e-04,-5.437242491038332508e-04,2.346755266189575195e-01
-6.330685816878905969e-02,-4.120679591038348133e-02,-2.845067573187489707e-01,-3.993962029744314857e-03,-6.185747078426883164e-04,7.811283101307298950e-03,2.335345596075057983e-01
-7.138213116832967109e-02,-4.051329075665124901e-02,-2.465461501299192615e-01,-3.089731351882746106e-03,-2.839569309726404367e-03,9.315990610428136545e-03,1.932760179042816162e-01
-4.620140996384537735e-02,-5.061959924921264481e-02,-1.308463309100874050e-01,1.107998248488654969e-02,-3.179492680600813637e-02,6.422083599153080580e-02,1.502807438373565674e-01
-6.284489835432899296e-02,-3.836613456381952891e-02,-2.844431587879460155e-01,-1.960993250198968165e-03,4.609602201880134975e-04,1.574987055513104878e-03,2.348383814096450806e-01
-6.499288937217530260e-02,-4.439351212491057797e-02,-2.995228941938403167e-01,5.852389763073726110e-03,4.751718632717601663e-03,9.895211191288891955e-03,2.464225292205810547e-01
-6.113583224814896078e-02,-3.813027428293153109e-02,-2.809878626793154144e-01,-2.316881752275777064e-03,-2.228530162824884486e-03,1.517532607824356207e-03,2.322927117347717285e-01
-6.074107615668865312e-02,-3.987272846099282342e-02,-2.843770756543858025e-01,-9.866745826488708751e-04,1.511651830866514510e-04,5.803468091016071410e-04,2.347753494977951050e-01
-6.316306457766557303e-02,-4.380993010529750376e-02,-2.899988752325909358e-01,-4.710116703494993465e-04,1.099150758491241947e-03,3.838526543737159555e-03,2.372077256441116333e-01
-6.143648632311581037e-02,-3.680211105109104652e-02,-2.844795725321799251e-01,-2.085774465710753581e-04,-1.175248244861087400e-03,3.191676225575338852e-03,2.363988906145095825e-01
-6.085389807452201705e-02,-4.770334728323190332e-02,-2.903758169548486534e-01,-1.279773536773135163e-03,1.106651332540488147e-03,3.488647833819855711e-03,2.364670932292938232e-01
-6.050392386029131153e-02,-3.680377729144132526e-02,-2.817498777597468029e-01,-8.082859162724580302e-04,2.686580325017433367e-04,-4.778894423913758157e-04,2.340040504932403564e-01
-5.749210610234134489e-02,-5.127874009770133634e-02,-2.789491428914083748e-01,6.810435210637429473e-03,-6.847802245333229482e-03,-1.008631514714145028e-02,2.259266376495361328e-01
-6.527504792894703312e-02,-3.691334497483052257e-02,-2.815722789771695211e-01,-2.705907303875906660e-03,-1.893900635597435019e-05,3.264149173246969331e-03,2.318994700908660889e-01
-4.731426982645836610e-02,-6.405438504010897705e-02,-2.484111746369595808e-01,7.539640815952944330e-03,-3.103542843609846322e-02,-8.914459552808222387e-03,2.016242742538452148e-01
-6.118509997617203877e-02,-6.255862300356548888e-02,-2.887056685566145031e-01,3.238664321009579594e-06,1.553764293272912695e-03,-8.218565696894202443e-04,2.268573492765426636e-01
-5.446739926089838590e-02,-5.029762920314634345e-02,-2.900019003624683123e-01,-1.298849620956504889e-03,1.588228699272584621e-04,-4.680839915090754155e-04,2.376590073108673096e-01
-5.854144718735128372e-02,-5.748048234180677674e-02,-2.899270727364519629e-01,9.731290202740533100e-05,-8.827559861705698346e-04,4.140269431502989180e-04,2.319241315126419067e-01
-5.126106371928787486e-02,-5.137403958608102728e-02,-2.909618696241442759e-01,-5.197859137808609128e-04,-1.514512690011912601e-04,-1.038904021760360657e-03,2.396529316902160645e-01
-5.634688207596079412e-02,-5.560143201117762057e-02,-2.889630479466333002e-01,9.384688018295441955e-04,-1.061727198514469343e-03,-1.393924027540763234e-03,2.330152243375778198e-01
-4.392090282799894496e-02,-5.857099988719018102e-02,-1.377318513074788364e-01,-2.138139158973608421e-03,1.563041890678995571e-02,6.215445750482619797e-02,1.413398534059524536e-01
-6.751357191894698240e-02,-3.596228662769548889e-02,-2.835923740883036226e-01,-2.330573892162280097e-03,8.471100261012744475e-04,2.946332731113284788e-03,2.335542440414428711e-01
-6.088150500678828070e-02,-3.816027547882838711e-02,-2.863717236701711633e-01,8.892615146287934872e-04,4.773941520377495405e-04,5.840359424449782875e-04,2.376753836870193481e-01
-4.245410659557004307e-02,-5.749874885927423740e-02,-2.635419135697624760e-01,8.294109587160071462e-03,6.773127574286254282e-03,1.265137632799587632e-03,2.147761136293411255e-01
-6.339908764304340305e-02,-3.718470016772593145e-02,-2.822045553498191972e-01,-2.106315537787164724e-03,6.698151109905856829e-04,3.657824449345223198e-04,2.330535054206848145e-01
-6.376702940714625012e-02,-3.562610041365760205e-02,-2.816228447787011424e-01,-4.040922453815646155e-04,-2.508663479876516880e-06,7.808814352379551396e-04,2.332081794738769531e-01
-6.292713427806537196e-02,-3.611334018685447012e-02,-2.740203598424387210e-01,1.357374910477832618e-03,3.480648857972186601e-03,1.335599535661296210e-02,2.269725948572158813e-01
-4.615647718373230846e-02,-5.369225434565041977e-02,-2.878800405027717169e-01,4.896270092312584102e-03,1.069578361798814497e-03,6.392452337892387104e-04,2.382059395313262939e-01
-5.700119097629849363e-02,-4.557183265744657596e-02,-2.903013074513663971e-01,1.066989153194708179e-03,-1.907230865389794431e-04,7.411278477193984290e-04,2.392304688692092896e-01
-5.851358914775936504e-02,-5.560784311541580593e-02,-2.906885109465131567e-01,3.959913668300906061e-04,-6.779997402368946602e-04,-7.551667978386174241e-05,2.336453348398208618e-01
-6.394144476554070033e-02,-3.987293626224383547e-02,-2.712187352783577143e-01,3.778239527148807321e-03,2.638464170747574587e-03,2.552467506369993783e-04,2.204448431730270386e-01
-6.027131977454242007e-02,-5.963498136185849119e-02,-2.897128816268412788e-01,-3.812116441666150751e-04,-1.617816452758817202e-03,-7.588762159790784969e-04,2.297821938991546631e-01
-5.753849600787563912e-02,-5.962510898007220006e-02,-2.964180165193138206e-01,5.012944580130568447e-04,-2.046385642206201283e-02,-3.346584803885435666e-02,2.473586052656173706e-01
-6.232339801527057854e-02,-6.649305313583250832e-02,-3.338745050889701527e-01,-1.102963820544280407e-04,-2.399807747661823060e-02,-3.848106375498657611e-02,2.807049155235290527e-01
-5.121731687427594215e-02,-5.077719244331421744e-02,-2.913806424742314549e-01,1.788414567747160372e-04,-4.217434160610659477e-04,-2.508030014692216262e-04,2.403853982686996460e-01
-4.974723797657229496e-02,-5.437595523408071674e-02,-2.908302991955015182e-01,3.252603905850180092e-04,1.624467537252243334e-04,-7.475321463039600201e-04,2.388066947460174561e-01
-5.982392931992891461e-02,-6.273741276234667819e-02,-3.088741364629254416e-01,8.348218848895398118e-04,-7.629874681847379804e-03,-2.618199227289038852e-02,2.520756125450134277e-01
-6.987756933904712420e-02,-5.487902526533514069e-02,-4.847671104621217308e-01,1.478369600536989792e-02,4.920930171591265945e-02,6.432176167790945587e-03,4.320017099380493164e-01
-6.096546479529371676e-02,-5.877285361652836992e-02,-2.902510273656245809e-01,-3.444761276003163535e-04,-3.894474170001853181e-04,-1.360618560479247285e-03,2.304035127162933350e-01
-5.368023638772935480e-02,-5.179928533588817885e-02,-2.908065530012059474e-01,-1.252499125998940573e-04,4.208893562948697758e-04,1.020095621474220417e-04,2.380736470222473145e-01
-6.134419412847272324e-02,-6.856367573689808870e-02,-3.224910393780405782e-01,-1.839119040264213141e-03,2.353243425107192158e-03,-3.670653308125938243e-03,2.577433586120605469e-01
-6.309453643298539027e-02,-6.558861113955863353e-02,-2.909691971974329716e-01,-2.501533816517772027e-03,-3.833991861192396285e-04,-1.357885461732143487e-03,2.266924977302551270e-01
-5.310062366617564200e-02,-4.810799317227594518e-02,-2.900172043136892697e-01,-9.089449657795075450e-04,-7.995967309137957349e-05,6.563542507127622348e-04,2.394598424434661865e-01
-6.507501870437437663e-02,-6.725646965634338170e-02,-3.043050701508898115e-01,-5.889403728742733345e-03,4.689450807056886987e-03,2.701679121190165775e-03,2.385494410991668701e-01
-4.879461034932400243e-02,-5.042347481354958472e-02,-2.844775489507235799e-01,-4.231033197925169673e-03,9.253471973458104582e-04,-5.493846635242205772e-04,2.349944412708282471e-01
-5.158857205040084937e-02,-5.158750177542484328e-02,-2.911033835453240570e-01,-1.250835258547681583e-04,-1.470329214086511034e-04,1.019435811633448479e-04,2.395156472921371460e-01
-6.849959076332320929e-02,-6.354602815497716051e-02,-2.882362183882833939e-01,-1.865599950813415101e-03,-5.074225613104319400e-04,-3.947632445228733728e-04,2.222810983657836914e-01
-6.463650490472036547e-02,-6.290512902396599992e-02,-2.872202397622218850e-01,-8.198729542112833659e-04,-3.514874722240626868e-04,-1.692903555618974437e-04,2.234599888324737549e-01
-6.529519650479397030e-02,-6.243615988784334547e-02,-2.872631513809495996e-01,-3.118045134872868144e-04,-3.281324265804423787e-04,-2.158197270082701691e-04,2.234128862619400024e-01
-6.416767653106220104e-02,-7.462197508547754876e-02,-3.061723912852516438e-01,-9.319408475976946604e-03,5.025811546355222603e-04,-5.305269495570169146e-04,2.375031411647796631e-01
-6.053196384323307477e-02,-5.984667116585803970e-02,-2.883643885220722458e-01,1.824120630083580672e-05,-8.134451478587289381e-04,-1.127821393427917186e-03,2.281885594129562378e-01
-6.022848691543858379e-02,-6.640293161368537866e-02,-2.924804207278091095e-01,9.221900391237473514e-04,-2.388540993644945313e-05,1.935746832787945608e-04,2.292329072952270508e-01
-5.251536756953692486e-02,-5.264087841914645571e-02,-2.904262137679983757e-01,1.547244275959560895e-03,-9.467194037189789833e-04,-8.680510729967370193e-04,2.378736138343811035e-01
-6.183342782190703185e-02,-4.193339729563740070e-02,-2.548968590856562910e-01,-7.459134974941166070e-03,-5.777664909006514655e-04,7.450911623993928742e-03,2.045627832412719727e-01
-4.399171176639449232e-02,-4.951467428633331280e-02,-2.644055525699060549e-01,9.200482107710489677e-04,-4.646679797632327635e-02,-4.947351961595838898e-02,2.474234104156494141e-01
-5.563152208463983950e-02,-4.498143915154170780e-02,-2.865144717745728431e-01,-1.483452381144831096e-03,-7.142017746732974353e-04,5.718658393052188180e-04,2.364072650671005249e-01
-5.962068221124225409e-02,-5.969804993498012413e-02,-2.891177556744871646e-01,-2.277437307845543485e-04,5.067592871293062975e-04,-1.926751208647261996e-03,2.294846773147583008e-01
-6.429747316816011860e-02,-3.550732617953361592e-02,-2.764568854314262136e-01,-2.539828060861104835e-03,-5.647730336716780437e-04,1.883004319161661914e-03,2.279902100563049316e-01
-5.513622463029926868e-02,-5.988555057605274290e-02,-2.943585417389590342e-01,-3.538387254167245561e-04,1.754129143969014766e-03,-6.215441653686170449e-04,2.369060814380645752e-01
-4.523450144598686884e-02,-6.283522934484098155e-02,-2.962641272374578749e-01,-2.203208160042780146e-03,-7.470719734004426481e-03,3.034598497083539157e-03,2.431398332118988037e-01
-5.929390389786762250e-02,-4.160510942756520669e-02,-2.850945636206483336e-01,-1.823833075918401738e-03,-6.510057234024124815e-04,2.837608758565839627e-03,2.352198511362075806e-01
-6.055887210385534070e-02,-3.830789118316157982e-02,-2.844807380966390964e-01,-1.219597023789544118e-03,-2.469806537378848406e-04,1.648821027524363181e-03,2.358630746603012085e-01
-6.032348678243890094e-02,-7.139936654016687534e-02,-2.946734483831762730e-01,-1.479526828444024424e-03,4.372099978655291197e-04,-8.535818741061242457e-05,2.290286272764205933e-01
-5.095214742990376855e-02,-4.948814590335547103e-02,-2.892881617520369208e-01,-1.490429352857570999e-03,-7.647500420047895339e-04,-4.196171012912871840e-05,2.390889972448348999e-01
-5.254253890250712433e-02,-4.551086421866341880e-02,-2.824490701529018821e-01,-4.947792993405130194e-03,-2.696162480905742523e-03,1.887249352680561536e-03,2.337285131216049194e-01
-3.578150766614217326e-02,-6.325314699492332049e-02,-2.818267528005654610e-01,8.146008622880517936e-05,-7.543793504736092358e-04,1.216290143830123428e-04,2.335282862186431885e-01
-3.574654283567293978e-02,-6.364009230072231738e-02,-2.821981396700272149e-01,5.230209464460737923e-05,-6.236049640864498207e-04,4.252369819747810089e-04,2.337600141763687134e-01
-3.954287549491503073e-02,-6.395617116484789144e-02,-2.826105779599983880e-01,2.951530248701037147e-03,-3.612445840533426867e-03,2.962365610340370048e-05,2.319679260253906250e-01
-6.089896442973139618e-02,-4.337765295161263857e-02,-2.649201564287674837e-01,-7.524208104575035375e-03,-2.763937232933312560e-03,6.673999859281740284e-03,2.140858471393585205e-01
-4.847281585749391164e-02,-4.986888226203163577e-02,-2.672833136057213288e-01,-8.625213140392981592e-03,-8.093077757588523768e-03,8.473109866869492357e-03,2.195667624473571777e-01
-5.603322688769285520e-02,-4.400735705349559379e-02,-2.875766196841721412e-01,8.755017824325887635e-04,-2.340577976183565341e-04,-4.736200667778968604e-04,2.377911061048507690e-01
-5.997830438432780187e-02,-4.006541126334389746e-02,-2.890937169222521086e-01,8.489869918832593709e-04,7.159251718984092037e-04,1.597244870857723225e-03,2.397167086601257324e-01
-4.017864811164803540e-02,-6.722870375780357066e-02,-2.746469416440684430e-01,1.409758759628345736e-04,-1.252699367441746300e-02,7.080452432549375703e-05,2.232387959957122803e-01
-5.432192929305493245e-02,-5.446109312027661020e-02,-2.899963894853202495e-01,-2.333179523145812156e-03,4.720533199088863298e-04,2.533148474052054487e-04,2.356413900852203369e-01
-5.973890030357621034e-02,-4.319759855255701775e-02,-2.627007899472501573e-01,5.677269548974183365e-03,2.813244737831971419e-04,2.596081122773941270e-03,2.119942158460617065e-01
-4.971508756521866856e-02,-5.164675824586593966e-02,-2.911403351789388916e-01,7.724441801644335625e-04,-2.527781373482126080e-04,1.508779005974600232e-04,2.404695004224777222e-01
-6.324611412782557562e-02,-5.728886239876547493e-02,-2.967744609820509027e-01,1.073161294381448275e-04,-1.186909713149209358e-02,-1.856972854087425703e-03,2.374766767024993896e-01
-3.835102967363118731e-02,-6.454524910014301786e-02,-2.858471819987220552e-01,-4.973755065373435241e-04,-8.629098180757761166e-03,-6.622875221999678479e-04,2.359723597764968872e-01
-6.328854250173626683e-02,-4.057184248332872112e-02,-2.675333249097475719e-01,5.061814400235567328e-03,-2.151492944632156859e-03,4.024115152662568876e-04,2.167094498872756958e-01
-6.098990456363051482e-02,-3.971322836779406229e-02,-2.858010004196697151e-01,1.137790606927492707e-03,-3.171793927761610221e-05,2.185132810442024908e-03,2.362079024314880371e-01
-5.649805422419013068e-02,-4.539742642788965887e-02,-2.895212172842114295e-01,1.066489204598704407e-03,-6.021879336255348599e-04,7.408168089807611132e-04,2.387799620628356934e-01
-5.357257632063364139e-02,-5.086419280227230666e-02,-2.907303843934770926e-01,1.075129326724292341e-03,-5.920323622938621598e-04,-4.102460392329276861e-04,2.385340631008148193e-01
-4.398454645822674758e-02,-6.491719542969401346e-02,-2.696366200010992809e-01,5.863873440574476556e-03,-6.851309096975107503e-03,3.309861332994823652e-04,2.165129184722900391e-01
-3.371398815635395785e-02,-6.076973802960747295e-02,-2.409924911892358246e-01,-4.576848362137880236e-04,-1.084198387424768414e-02,5.960897813486966314e-04,1.960679888725280762e-01
-7.741683104270559446e-02,-7.810956937250788934e-02,-3.859109250069752139e-01,5.536336361077531798e-03,-6.167654524108018288e-02,5.273133626612871994e-02,3.388231098651885986e-01
-5.123531868808461898e-02,-5.146222281229387296e-02,-2.909410545387406399e-01,5.853690125648524506e-04,-8.923380000435375548e-04,-7.151763849543797181e-05,2.395995259284973145e-01
-5.254265549173864347e-02,-4.911438340771701050e-02,-2.910347890729975684e-01,4.663853753541634829e-04,-2.225961081870930270e-04,5.778931773909607578e-04,2.402283698320388794e-01
-4.342151844297739705e-02,-5.018639954435147321e-02,-1.361024274461448968e-01,-4.087350695364245362e-03,1.599428940403590030e-02,6.202058636898426930e-02,1.427086889743804932e-01
-8.590975466093123125e-02,-7.165607204461424407e-02,-4.860363462810729507e-01,-2.468695562497785355e-04,-2.155484006017744508e-02,-4.046408939881611377e-02,4.151069521903991699e-01
-3.645517632385511519e-02,-6.505849431558247131e-02,-2.821068276408850162e-01,4.346493415333573733e-04,-3.398450224353957629e-03,-2.541511785002319022e-05,2.327480316162109375e-01
-3.631058042976023637e-02,-6.370779401582804535e-02,-2.821609380685087265e-01,5.280684464365920398e-04,-3.274732574444493959e-03,4.121082196446347341e-04,2.334328740835189819e-01
-5.104754361792529505e-02,-4.804450378655185372e-02,-2.889547469070188335e-01,-4.660235739160502322e-03,6.547103281095112111e-04,-3.339148303079775802e-04,2.395622581243515015e-01
-5.593225023449188704e-02,-4.101634812960358589e-02,-2.866515050565169309e-01,-1.386360367033996187e-03,5.652093586776252548e-04,-9.977989981157717181e-04,2.385475933551788330e-01
-4.466426242417471937e-02,-6.534091056372870465e-02,-2.585187138615216429e-01,-7.165088152157567808e-03,-1.323049658091755149e-02,5.367565243891684115e-03,2.061675041913986206e-01
-4.792293774474612467e-02,-5.479423529425005157e-02,-2.823837729310959554e-01,-6.755107907781300429e-03,9.775977666821602206e-04,-7.914941697412626121e-04,2.314080595970153809e-01
-3.687048145991864145e-02,-6.441344013346927966e-02,-2.862650994525900439e-01,-3.083371064926834857e-04,-1.759477609714559833e-03,-2.685854627252308576e-04,2.368480861186981201e-01
-6.387765027175289212e-02,-5.708523371640571165e-02,-2.523176960921860723e-01,-3.292218289209966273e-03,-7.175276845823455943e-03,6.304158651673957836e-02,2.212361693382263184e-01
-4.932320826645379686e-02,-5.454310219721807129e-02,-2.904569513680653747e-01,-9.334369693492534795e-04,-3.858871711725293981e-04,-2.480455440386495941e-04,2.385734319686889648e-01
-4.840277001012750768e-02,-5.229466354899836578e-02,-2.915138811231131610e-01,-1.066776755627606675e-03,-1.230060829498972707e-04,-3.861240538831942981e-04,2.411968111991882324e-01
-5.186630348713294758e-02,-5.987211797029473592e-02,-2.948863198898660776e-01,-4.186474279288134428e-04,-6.181162085774520761e-03,2.146073969696373623e-03,2.393871545791625977e-01
-3.463353324541848521e-02,-6.325836584116328876e-02,-2.825472847757970474e-01,-6.000984615261335808e-04,-1.455104969538908392e-03,4.454143258634603352e-04,2.349300831556320190e-01
-3.742622937390255311e-02,-6.216764913522813962e-02,-2.846714848320701097e-01,1.326839404905536413e-03,-6.739187105630857141e-04,-3.707676814919100327e-04,2.358648180961608887e-01
-3.376375536252661236e-02,-6.357318301306361108e-02,-2.802761645203770691e-01,-2.010663252904115121e-04,2.404122029013378362e-04,-3.947826658872231984e-05,2.330426424741744995e-01
-4.178852977312839945e-02,-6.284841233597462939e-02,-2.582358197993708804e-01,5.730220591773788237e-03,-4.383581876697237485e-03,-1.711842599691015690e-03,2.071220427751541138e-01
-3.729185638964779836e-02,-6.427576225522291242e-02,-2.869423893739886378e-01,-1.690931058197473434e-03,-3.224257484439779428e-03,-6.677053056333272316e-04,2.373985648155212402e-01
-4.097609097298675340e-02,-6.201043670432236643e-02,-2.849442082948023813e-01,3.724783827781252572e-04,-3.029468874963772338e-04,4.123926995291958314e-04,2.341631501913070679e-01
-4.839894099420793960e-02,-5.739827251911171213e-02,-2.897034168549583732e-01,-9.708329222823318090e-04,2.534733590746334614e-04,-6.861671824794178661e-04,2.369423806667327881e-01
-6.445431056185643715e-02,-3.728077111141968325e-02,-2.852996408308536291e-01,-9.535191644083491338e-04,3.984616602864158403e-05,3.198551288456607557e-03,2.356812208890914917e-01
-6.599814090733159555e-02,-6.991985764866488762e-02,-1.575859056969439453e-01,-5.903186992908811964e-03,-2.267469368749762404e-02,3.955212200577430670e-02,1.199358031153678894e-01
-3.541471717161781552e-02,-6.414491898587854068e-02,-2.842295206879814629e-01,4.756071406267648599e-04,-1.058508893991235529e-03,-2.898796087769866603e-04,2.357753664255142212e-01
-4.325570902414324626e-02,-6.306179009262004309e-02,-2.856626412677184534e-01,1.427438052700630159e-03,-3.095708959849247143e-04,-9.546375034934386069e-04,2.331553250551223755e-01
-4.976466452125691969e-02,-5.541879245027382661e-02,-1.973216057349291841e-01,1.728079209968656597e-05,-7.613492799811213962e-02,2.812532589343100242e-02,2.018251717090606689e-01
-6.303945410673743310e-02,-6.963089315866566320e-02,-3.049942816685327074e-01,-1.186285770337248968e-02,6.169586382605034974e-02,-2.393998021739180901e-02,2.656152248382568359e-01
-3.765396386480215907e-02,-6.146740729773397804e-02,-2.789448377252394251e-01,-2.947090623343625281e-03,-1.549069485615722688e-03,5.521850117595047871e-04,2.303835302591323853e-01
-4.314572228038564272e-02,-6.571398918565160563e-02,-2.884403348332998940e-01,5.576623798983043091e-03,-7.640219597789367663e-03,-5.926148012421663530e-03,2.356197685003280640e-01
-4.635793864173397283e-02,-5.537464912583447280e-02,-1.494365644712379315e-01,-2.272724626233184504e-03,-2.367922069690333968e-03,-7.475384624245426379e-02,1.630147397518157959e-01
-3.484962955709555721e-02,-6.254735256768378937e-02,-2.812756242543779095e-01,2.195673442867907259e-03,6.489657065804221468e-04,1.615201645576059435e-04,2.338446080684661865e-01
-5.225440814958647040e-02,-5.349607168328306128e-02,-2.452665943499407475e-01,-1.199057803871967157e-02,1.033342258486407740e-02,-1.307578175474518115e-02,1.956532150506973267e-01
-7.144103000257544245e-02,-4.051553100935806340e-02,-2.687238639375215121e-01,-2.658059280041778338e-03,-1.386393436039694022e-03,-7.325824575232975713e-03,2.148625999689102173e-01
-3.691437512217371486e-02,-6.310528835965345529e-02,-2.826650022514131666e-01,1.525130305551190661e-03,-1.020455986392086040e-03,-3.130697809781025215e-04,2.337804436683654785e-01
-5.628271162339659739e-02,-4.348101095250839210e-02,-2.869952849027148645e-01,1.197408773384626372e-03,-2.926793549646946897e-04,-8.186072342500611389e-04,2.373863011598587036e-01
-6.197847698021448359e-02,-5.111283066193900854e-02,-2.158723494717823543e-01,-1.308203653239756528e-02,1.730668861950440673e-02,-3.747326284031013421e-02,1.763469874858856201e-01
-6.150337022340449100e-02,-7.034067686076753145e-02,-2.302797093380171689e-01,-4.947432389108800607e-03,-1.410349800515696937e-02,5.762383069021098127e-03,1.668586134910583496e-01
-6.145321017790220108e-02,-5.454043529347878116e-02,-2.398973324842172405e-01,-9.743061109368776965e-03,1.139187526180745732e-03,-1.079709720963909804e-02,1.837445050477981567e-01
-6.504032913100021851e-02,-3.769294893532146307e-02,-2.692781767546498783e-01,-2.928039064373758396e-03,1.646661444356756253e-03,-8.470029486117768014e-03,2.197622060775756836e-01
-5.618608791485357745e-02,-4.362737489590551299e-02,-2.862353980183380830e-01,1.012004228123444122e-03,-1.082316600702216671e-04,-1.005192772124198801e-03,2.365917712450027466e-01
-5.342728055623685579e-02,-4.456947489538150287e-02,-2.858380291827785635e-01,3.511819968677724196e-03,-7.813933846389156798e-04,-1.312261088701163715e-03,2.370566725730895996e-01
-5.653102606001259023e-02,-5.705885280729372511e-02,-2.913504723045992062e-01,1.702140566423157066e-03,1.434281779353019544e-03,2.276218609414636801e-03,2.346207946538925171e-01
-6.313407960114619799e-02,-5.158943680031522622e-02,-2.183974838132825558e-01,-1.094674036501008980e-02,8.921835550683447982e-03,-1.128499461776964752e-02,1.643557399511337280e-01
-5.926612390523013085e-02,-5.731859808159237013e-02,-2.947922810254553494e-01,-1.732953739026868532e-03,-2.099130263793834265e-03,6.390503186597444813e-04,2.365555167198181152e-01
-6.284005934192252174e-02,-5.963328349064617173e-02,-2.880423486665152355e-01,3.096692722065971532e-04,-1.054157726823302076e-03,1.250346481874840213e-03,2.268410027027130127e-01
-3.980779256524447085e-02,-5.530963407865260861e-02,-2.862864273573118012e-01,3.443814122090247971e-03,-3.139081618595535961e-04,4.871530242336991295e-04,2.391813993453979492e-01
-4.907016965333835246e-02,-5.037046548032719784e-02,-2.914341237348551661e-01,9.252458269061337309e-04,-2.082851647452841487e-04,2.024941510713610716e-04,2.417222708463668823e-01
-5.794067830533293495e-02,-5.610571800908378814e-02,-2.902106291831572094e-01,-2.405519199158062172e-04,-1.038306441574756919e-03,1.276949958408540777e-03,2.332106381654739380e-01
-4.858446925477927225e-02,-5.612194536179393456e-02,-2.843930921966210112e-01,5.055452751614859970e-03,-6.801530771384117248e-04,-2.735788316623219922e-05,2.322997599840164185e-01
-4.380485671823444727e-02,-4.881623420337777991e-02,-1.966966275165480671e-01,1.533163265499622435e-03,2.547350430092208337e-02,-5.325236051886702432e-02,1.819230616092681885e-01
-5.083679091614329293e-02,-4.854766970429738593e-02,-2.908953381953598427e-01,9.794231890845070485e-04,-1.697186800045914713e-04,-1.197266090454384297e-04,2.412174940109252930e-01
-5.143669070475287430e-02,-6.187518968313809875e-02,-2.181887778625902219e-01,-1.309186882678008146e-02,3.176705023015443524e-02,-2.028438108276710977e-02,1.759277582168579102e-01
-4.907189547452869838e-02,-5.107242744700984938e-02,-2.897760590652219692e-01,2.823524645054293833e-03,-4.038217784362659220e-04,5.304586246736165810e-04,2.397628277540206909e-01
-5.497015736065861968e-02,-4.988915129521676040e-02,-2.907534209766029498e-01,6.316527109194952725e-04,9.431894053497230646e-04,-4.535671536918655386e-04,2.383737862110137939e-01
-4.469265058887617048e-02,-5.091574996236070128e-02,-2.896754405726965076e-01,2.811571167098500523e-03,-1.239254104442063902e-04,1.016249516930607173e-04,2.419804483652114868e-01
-4.708814170261596543e-02,-5.314952199834237223e-02,-2.729866548533222415e-01,7.604968266026599331e-03,-3.330376079269550035e-03,-1.052101180921305473e-04,2.233930081129074097e-01
-6.152899491238533747e-02,-3.692760617949249202e-02,-2.852850182747793673e-01,-7.352139782769160411e-04,-5.612934020409838322e-05,2.665980174732377958e-03,2.370646446943283081e-01
-5.396665192553366797e-02,-4.752253588930291373e-02,-2.829978686462952808e-01,-6.954106477332506683e-03,6.641788241203966771e-04,-2.491345464758722887e-04,2.326355874538421631e-01
-4.413638186888388382e-02,-5.844038919869695703e-02,-2.759505405531154643e-01,8.586807791906779855e-03,-6.583721757655694971e-03,-2.931182427636129691e-03,2.258396595716476440e-01
-3.917192793684606822e-02,-5.786726829633076497e-02,-2.823407767924503986e-01,4.638654118458960390e-03,-2.495590778492002421e-03,-1.037199056573021158e-03,2.345654368400573730e-01
-5.284524737088551471e-02,-4.958593036574224233e-02,-2.852176956742649150e-01,8.006814980186488517e-03,-2.755990525009550419e-03,-4.026735493020543698e-03,2.345819920301437378e-01
-4.189622733603809435e-02,-5.880499980192954723e-02,-2.724162918187269522e-01,5.750587056440990483e-03,-5.645072325487414042e-03,-4.699383871367241068e-03,2.231337130069732666e-01
-5.345560813964181368e-02,-3.974723079812125803e-02,-3.387950389019126485e-01,-6.785997560884096322e-03,1.372381650019099258e-02,-1.834169609208578106e-02,2.953480780124664307e-01
-4.785311123087547525e-02,-4.877136530893746991e-02,-2.820948644839087471e-01,7.012243784397661876e-03,-3.251574959936666745e-03,-6.220528126094117261e-03,2.344147264957427979e-01
-5.227094666163195624e-02,-4.700463322445963543e-02,-2.892527771787813951e-01,-1.289539333865139014e-03,7.366908918000528812e-04,-2.114513684317563275e-04,2.396724671125411987e-01
-5.972737642648361100e-02,-5.961368520910256125e-02,-1.856531089128936607e-01,3.594870239501942160e-03,7.399705994576448453e-02,-3.559864160487055673e-02,1.901022642850875854e-01
-6.435043310729399169e-02,-3.474353905270094467e-02,-2.838165746566179148e-01,4.772847044288644892e-04,-2.937492602812460962e-04,1.001162366733144389e-03,2.356769293546676636e-01
-5.764037438221830678e-02,-4.326585251139684896e-02,-2.831123751482330642e-01,-4.349745362385065012e-03,-5.217744556211672277e-04,1.247136034865406820e-03,2.331255972385406494e-01
-4.758519747192781202e-02,-4.568208996934679939e-02,-9.140993390505168514e-02,1.111811283764973027e-02,-3.986752082136264808e-02,2.925321601303717059e-02,9.855952113866806030e-02
-6.490291891527744106e-02,-3.762948276115093971e-02,-2.880998166573665586e-01,6.354950920413287956e-04,-8.000926392938996880e-04,3.876598450884960207e-03,2.381097674369812012e-01
-7.175493878761357580e-02,-4.136225323663386688e-02,-2.759654503877378429e-01,-4.445440562253634431e-03,-1.106141662203156614e-03,1.089431531284517545e-03,2.211304455995559692e-01
-4.865150138351670428e-02,-5.170888300240322755e-02,-2.857353400890489947e-01,3.510595955288783442e-03,-2.921995152047327567e-04,-1.028972302827247829e-03,2.356557697057723999e-01
-4.595801245754511932e-02,-6.194412111972226465e-02,-2.804219731429634654e-01,-5.690443915644118576e-03,6.768009079134511621e-03,-5.093645117559277360e-03,2.275810539722442627e-01
-4.567752514776825257e-02,-6.030098919672743918e-02,-2.878741987771439859e-01,-6.715432134319381701e-04,-4.850532567051296933e-04,-1.315444856349799697e-04,2.352305948734283447e-01
-4.160497049282330106e-02,-5.781567949295882136e-02,-2.872630922753872662e-01,-1.690447301059943555e-03,5.548564743685551262e-04,-4.239256750603382132e-04,2.379883229732513428e-01
-5.724502555802649106e-02,-4.883492515393036970e-02,-2.826004515087044977e-01,-8.165322289400466296e-03,4.251567835302236600e-03,-4.076635448558666233e-03,2.303370535373687744e-01
-6.081689782881660733e-02,-5.952743500402712939e-02,-2.924966811413725054e-01,-8.684163345148714248e-04,5.562073577392382664e-04,1.787491074866159706e-03,2.323546856641769409e-01
-3.606325194591518402e-02,-6.434547539251943282e-02,-2.791635587258790574e-01,-2.370287956330776290e-03,-2.580186300599401211e-03,1.458188789023899187e-03,2.303593605756759644e-01
-4.238001169170321769e-02,-6.205747376998929643e-02,-2.870737279888746496e-01,4.240894508426493875e-03,-8.958219134438377002e-03,-8.178135627104022795e-04,2.361016273498535156e-01
-5.775220205795908446e-02,-5.819814920597872476e-02,-1.985503841147002180e-01,-1.121529055091631706e-02,-4.422507303559740366e-02,7.005833684870541034e-02,2.018191516399383545e-01
-6.466478228947449003e-02,-3.831284409113752676e-02,-2.736567846176304331e-01,-8.085062316813742406e-04,3.299773697760847134e-04,1.507598536016976432e-03,2.233574092388153076e-01
-4.845240931566960341e-02,-5.615770073911358073e-02,-2.813519704938264310e-01,-7.955490564523630057e-03,4.022859344374435375e-03,-4.559415095916336327e-03,2.297994792461395264e-01
-4.695309113671161660e-02,-5.856377540027229989e-02,-2.877951143084306329e-01,-1.758865331649780202e-03,-3.019788732195587285e-04,8.835257078100862264e-05,2.352720201015472412e-01
-5.075478297997690347e-02,-6.382417572576593034e-02,-2.568506901580435153e-01,-8.874858494690076455e-03,-1.604971642383167234e-03,7.975481171909099996e-04,2.004961520433425903e-01
-3.875331013830818350e-02,-6.064518416073463869e-02,-2.786007069237628198e-01,-4.204651039398126476e-03,3.981586298749687815e-03,-2.597030252353969056e-04,2.299045771360397339e-01
-4.848364622898292120e-02,-5.411124218185717205e-02,-2.904539406945047531e-01,-3.412502369629658895e-03,2.986740088375262718e-04,-2.286791752874198843e-04,2.392800450325012207e-01
-4.056114656822151776e-02,-6.262078694751840868e-02,-2.857837071592640443e-01,-3.293285709564050274e-03,7.859793428685986350e-03,-8.117240094621448222e-04,2.354380041360855103e-01
-4.364426449828975874e-02,-5.814935964024819937e-02,-2.877766904161423445e-01,-3.594862339675831617e-03,1.051110213437035472e-03,-4.749939857839293096e-04,2.373028397560119629e-01
-4.363288685270830247e-02,-6.059798194682376737e-02,-2.708276230560744402e-01,5.386288047255326748e-03,-9.747039283365445134e-04,4.306342904825612877e-04,2.194113135337829590e-01
-4.002772445632664378e-02,-6.421342194663574865e-02,-2.612773729784194088e-01,2.811815029185021214e-03,-1.960818904701333402e-03,6.307979168294070428e-05,2.102868109941482544e-01
-4.550960884339322332e-02,-5.663728126457395762e-02,-2.904048409330296510e-01,-4.916547019194243695e-03,3.310215820153157226e-03,8.764840397851474184e-05,2.397452741861343384e-01
-4.532233178269032270e-02,-5.840913051594215366e-02,-2.881309080980271053e-01,-4.810429525260467680e-03,3.678327021284310151e-03,3.077062456163832819e-04,2.367698848247528076e-01
-4.565955491339883376e-02,-5.317693019724673009e-02,-2.646755013970483184e-01,-7.897316827118120233e-03,3.127877967498614471e-03,-5.956265559289470289e-03,2.161040455102920532e-01
-6.533459471575497890e-02,-6.181118095228242681e-02,-2.881778849621311478e-01,8.106973811868072510e-04,1.314511637591945852e-04,2.329630009367657868e-04,2.246305942535400391e-01
-7.374648598523314558e-02,-7.750158331069244289e-02,-1.714404697421691159e-01,-2.092351365627172742e-03,-1.709043029353283019e-02,-2.625889149926187958e-04,1.004039570689201355e-01
-4.945329176346752176e-02,-6.022644429029187785e-02,-2.359478658999206169e-01,1.353442437709121045e-02,-2.809362093109403838e-02,-1.517871684756761860e-02,1.910382956266403198e-01
-5.965296498442902023e-02,-7.190229765019616470e-02,-2.207708067064791946e-01,9.548300388355530910e-03,-1.803386704626974008e-02,-5.251977937212128772e-03,1.595848947763442993e-01
-4.775873638988131775e-02,-5.356443591143016103e-02,-2.893632342667291635e-01,2.032328838197097580e-03,-6.062706859329646241e-04,3.351294144239970550e-04,2.387835532426834106e-01
-6.249899134734898665e-02,-6.550565300739530361e-02,-2.879848310131717382e-01,1.120469202118196984e-03,-1.056601541039359909e-03,8.634206175134318244e-05,2.240135818719863892e-01
-6.227320371641702906e-02,-7.167759402442568095e-02,-1.783344171196162287e-01,2.778519367036514590e-03,-1.309143776367208134e-02,-4.797397855479114642e-04,1.140402182936668396e-01
-6.014464586274097246e-02,-3.770316683197984242e-02,-2.836402930262308941e-01,1.421986798633531569e-03,-7.505922088523614161e-04,-1.622172193381764879e-03,2.355528622865676880e-01
-7.719843902691625459e-02,-6.639260427195804726e-02,-1.787382203286332627e-01,1.659541283002193349e-03,-5.888147481101322234e-04,-1.257197805346538765e-02,1.095800250768661499e-01
-5.175509517797646786e-02,-5.169541701234994791e-02,-2.890792079511984580e-01,3.413166733086936237e-03,2.371380968487983413e-04,1.634486369290030403e-04,2.374280989170074463e-01
-6.203599074438941735e-02,-7.751337102052391348e-02,-2.247470832167371424e-01,-3.016941238803554168e-03,-2.931094469873549158e-02,1.544023527656105538e-02,1.658795028924942017e-01
-3.834281644022161095e-02,-6.274660165265222300e-02,-2.731653763663102197e-01,-5.617582299375652177e-03,-6.748774876566363684e-03,4.322668590148428386e-03,2.242632061243057251e-01
-5.036566250323085137e-02,-7.039776861348084891e-02,-2.386816618478154184e-01,2.621407068323597291e-03,-2.211374605372688068e-02,-5.164899138726620174e-03,1.834653466939926147e-01
-5.482456245754842306e-02,-4.594963242933484959e-02,-2.563942703422371072e-01,-1.286388759836799324e-02,1.656323831492678353e-02,-4.833621377298416566e-02,2.254476845264434814e-01
-4.806852786484736018e-02,-4.825861785675988891e-02,-2.874327352293637450e-01,5.967849382922855647e-03,-4.114888634377048536e-04,-4.249206988036656669e-04,2.394945770502090454e-01
-6.315071741583502818e-02,-7.231628225904435103e-02,-4.483820618448766115e-01,1.229878669453462938e-03,2.830753547285215152e-02,1.871121368625480730e-02,3.852468729019165039e-01
-5.332204690770439570e-02,-4.970757123379679343e-02,-2.908815705855756772e-01,9.973972493805016194e-04,4.601842497025782595e-04,-3.403554666648223211e-04,2.393955141305923462e-01
-4.856185800452478274e-02,-5.237107493704616645e-02,-2.897748276646625598e-01,1.202331893497506077e-03,4.667945304335683015e-04,6.744032132438073377e-04,2.393443733453750610e-01
-5.815388174537253207e-02,-4.054786956832137634e-02,-2.867538147452450281e-01,1.179804826150539915e-03,-2.506445362057047911e-04,-7.715382999521230335e-04,2.379049956798553467e-01
-6.105131593994022471e-02,-5.140498247806971066e-02,-2.460167321381542260e-01,8.156515126606343064e-03,2.406069479480891452e-04,-1.854876522933837603e-03,1.905244737863540649e-01
-5.770483604776421860e-02,-5.606954752840352663e-02,-3.356657917820456416e-01,-2.846751253665488583e-03,4.598844157049044494e-04,2.725373555132285311e-03,2.788668870925903320e-01
-5.486726579759609868e-02,-6.041585652293635089e-02,-2.935263599876767326e-01,2.665770510951754029e-03,4.493236840945687496e-03,3.771379990512268611e-03,2.361975610256195068e-01
-5.880181856211882940e-02,-4.737811563861812902e-02,-2.900009959756619793e-01,-2.241876997575160241e-04,4.192229944429825151e-04,3.647064959568006425e-03,2.372030615806579590e-01
-6.184483870347892709e-02,-5.208566799857078378e-02,-2.953321022496103732e-01,1.371199221754643540e-04,3.327361540312855363e-05,1.885455867721087168e-04,2.385169863700866699e-01
-5.166249166172454110e-02,-5.363739789042001882e-02,-2.715802840393895523e-01,-8.362891222873295241e-03,1.455049073876217678e-04,8.488299001382942520e-05,2.194158583879470825e-01
-5.365957432039580866e-02,-6.052514026342700748e-02,-2.935073373424241239e-01,8.412310017826593166e-04,-2.261970526879810697e-04,3.434486523728060101e-03,2.365693449974060059e-01
-5.279297103027928706e-02,-5.198913120739745430e-02,-2.714624430918302078e-01,-8.176391318603121183e-03,1.147811045383349224e-04,1.249728886470835403e-04,2.195299714803695679e-01
-4.252466321618772471e-02,-5.983854109828123935e-02,-2.888242370790329305e-01,7.082834485689545531e-03,1.295014743207882971e-02,8.620660272728026402e-03,2.399487793445587158e-01
-5.428618986967434501e-02,-5.855230943075223626e-02,-2.941387886037039046e-01,-8.865490436237603508e-04,1.918696302958421271e-03,-1.792960544814201909e-03,2.377967089414596558e-01
-4.389540831318358705e-02,-5.631924187531978099e-02,-2.853763328475342753e-01,-3.418860380579371531e-03,-2.011263078808177979e-03,9.687622370800385088e-04,2.356210649013519287e-01
-5.776361602759158553e-02,-4.035153013555520252e-02,-2.863260180645734176e-01,-1.988120048533560322e-03,-6.754406566763296576e-04,9.347170326549406570e-04,2.377804666757583618e-01
-6.487345725595282386e-02,-3.731661632249594351e-02,-2.804804923271029260e-01,2.296582320274236089e-03,3.391411923853340175e-03,5.780728755445720471e-03,2.309497743844985962e-01
-5.541532646493610437e-02,-6.046351786154724461e-02,-2.951455896099641762e-01,-1.843155035220398010e-06,-1.765450496948942505e-03,1.623988362624744939e-03,2.372828274965286255e-01
-4.661302907805033729e-02,-5.392383525186889709e-02,-2.086430557367468519e-01,-8.315783802608469472e-03,-4.576274294570871481e-02,2.260814937169946387e-02,1.820608079433441162e-01
-6.948806816147423682e-02,-6.284469062869138534e-02,-3.009808350670019061e-01,4.525264749356124007e-04,-2.695702128998990216e-03,3.573745607297276836e-03,2.350141704082489014e-01
-6.804793368650373375e-02,-5.872114447888079902e-02,-2.953004823044011462e-01,2.263028010757161266e-04,-1.734113741809588816e-03,9.648237198058315183e-05,2.320763915777206421e-01
-8.562558974302919568e-02,-7.039583148134166690e-02,-3.953502474139168332e-01,-5.837870751921780260e-03,8.695948598391552153e-02,7.750960931113044794e-02,3.764168620109558105e-01
-6.360507053902866859e-02,-6.322555500748119894e-02,-2.875648164408364238e-01,1.463837695387159698e-03,-5.651846487863679876e-04,6.828771166764375285e-04,2.241693437099456787e-01
-6.814449485527879213e-02,-5.933230187962465485e-02,-3.006123200840983278e-01,-3.546203801927035352e-04,-2.342139423532451758e-03,-1.450080041620547579e-03,2.370456457138061523e-01
-7.430483136817803147e-02,-5.863366887758733603e-02,-2.929227160869434798e-01,7.726348827599762445e-04,-1.449581829105418568e-03,-6.983218913289684351e-04,2.268808484077453613e-01
-6.216880295854579352e-02,-6.354690627165725247e-02,-2.874143797846063775e-01,2.836912753053093868e-03,4.499970445697842186e-05,6.885981676501792305e-04,2.246166318655014038e-01
-5.943779117439393356e-02,-4.374261571377474622e-02,-2.793441556295275241e-01,-6.627998290393470084e-03,-1.433697524384631040e-03,7.883564444318303527e-04,2.284653931856155396e-01
-6.420521711336657500e-02,-6.286566416983860317e-02,-2.876029405167426223e-01,5.220609366756790489e-04,-6.127832935038458927e-05,-3.478910628577494080e-04,2.240731567144393921e-01
-7.449254164264312861e-02,-6.484170398279207048e-02,-2.031066620084613916e-01,-1.028083082806087803e-02,4.826784006659088494e-02,-3.467704082786813441e-02,1.696758568286895752e-01
-6.281862931200443700e-02,-6.291462026869673596e-02,-2.307043670512081146e-01,-7.505753217618713405e-03,-2.267604565548877148e-03,1.702910917333860970e-03,1.684121489524841309e-01
-6.824703310338840756e-02,-7.173122359640707324e-02,-3.042412760531149063e-01,9.620738191903784736e-03,-3.703073978439606114e-03,3.368582080838690082e-03,2.350234687328338623e-01
-4.032355446663080101e-02,-6.806796886963471793e-02,-2.491835552169392454e-01,-6.458263156012524625e-03,-2.434481266787362139e-02,1.791373477163049621e-02,2.036256343126296997e-01
-6.194031015779187521e-02,-6.116599567210365129e-02,-3.028158101124170942e-01,4.465961108413412858e-03,-3.919008743948745790e-04,7.650082292470554608e-03,2.417519092559814453e-01
-6.198918253956547941e-02,-6.254245460167290327e-02,-2.883132649010682891e-01,4.827910856016611146e-04,-2.283985656283671871e-04,4.859269063427140104e-04,2.260514199733734131e-01
-4.845169956637085384e-02,-5.609348374784475788e-02,-2.829676501015544465e-01,5.325991695990532973e-03,4.788460399091207156e-04,1.276671949150571671e-04,2.309758514165878296e-01
-6.135851039921144667e-02,-6.325081104920213249e-02,-2.895759604393862152e-01,6.921015940572726455e-04,-2.209728087211657380e-03,7.527562626828066461e-04,2.273163348436355591e-01
-5.942827888854596008e-02,-6.941013360128564513e-02,-2.025690079016750911e-01,4.364891358972863671e-03,-1.589765803011193059e-03,-4.398483194371715461e-04,1.386557370424270630e-01
-6.381766483832716774e-02,-6.267779452204830237e-02,-2.874309293942620691e-01,1.360377690661601548e-03,3.733200494850318595e-04,-2.889922458425130819e-04,2.241992503404617310e-01
-5.860397467053682363e-02,-4.244993996267519554e-02,-2.832488958969561210e-01,4.806591984404187320e-03,-6.325474054405291454e-04,-3.069545094906526560e-03,2.333537936210632324e-01
-5.141189150401762054e-02,-5.478929084995396576e-02,-2.355689896712930831e-01,1.164254270866696243e-02,-2.255080143171550242e-02,-1.992031045690154448e-02,1.908559352159500122e-01
-5.198576632446029466e-02,-6.510463997639764910e-02,-2.167276905713849122e-01,7.500823803746630228e-03,-1.298340377225958714e-02,-1.133041606825840528e-02,1.618962883949279785e-01
-5.426367488431717290e-02,-4.512701628552862054e-02,-2.882701539573463423e-01,3.788439755215301970e-03,-2.907483824926249908e-04,-6.927525403448452947e-04,2.387997061014175415e-01
-6.596147454185175008e-02,-3.595272718338682338e-02,-2.788175361339217950e-01,1.551938000674288201e-03,-1.617391235632061096e-03,-3.527473578899092445e-03,2.294518947601318359e-01
-6.313828532506199354e-02,-3.591173624784713136e-02,-2.816558155701980315e-01,3.853288137603559692e-04,-5.458514058699919956e-04,-8.675308990038311597e-04,2.333329617977142334e-01
-5.788560611066871642e-02,-5.576377828171005802e-02,-3.267150791278062849e-01,-2.036600279797974242e-03,4.234175023780299696e-02,1.557845277735177454e-02,2.810038626194000244e-01
-5.345850278737790395e-02,-5.371770689635252394e-02,-2.682006377501461314e-01,8.231588064531598567e-03,-6.249184542605970430e-04,-2.326552287174305075e-04,2.150888144969940186e-01
-7.343142246394676609e-02,-6.021390924191455385e-02,-3.259684345530690086e-01,-4.099918323810772605e-03,-4.918809221815666211e-03,-6.144275128167063157e-03,2.598534822463989258e-01
-6.616846101417464543e-02,-6.532901291385787013e-02,-1.391239040540390159e-01,1.357281499247212477e-03,-6.833675079483039760e-02,5.067234887298859014e-02,1.646291762590408325e-01
-5.606854356620075142e-02,-4.875903118987592877e-02,-2.841728894605251576e-01,5.332491976464113527e-03,2.699337817512135465e-04,-2.189433058367968134e-04,2.320302128791809082e-01
-7.490915645065009121e-02,-5.481099150649667434e-02,-2.155761892654342593e-01,-5.366370357618443186e-03,2.491596470876241906e-02,-4.286492295866060898e-02,1.745832562446594238e-01
-5.879297699498774177e-02,-5.448352635387490595e-02,-3.231941149523109291e-01,1.164039320857111347e-04,3.905792430824685246e-02,1.725335160881066171e-02,2.766506671905517578e-01
-5.498940340810846983e-02,-5.595111313281986298e-02,-3.230876727879011256e-01,5.407021177681430903e-03,-1.837998726155893464e-02,-1.279996197349809843e-02,2.705780267715454102e-01
-7.204003655843199683e-02,-6.040009542522231656e-02,-3.171866018756077654e-01,-5.950287126914094969e-03,-7.872611617660084382e-03,2.833143403525422484e-03,2.517976462841033936e-01
-7.087559599518387932e-02,-6.026237333781359062e-02,-2.939136487809503873e-01,2.587487486360383251e-03,1.907104219067866022e-03,-1.974123370433863642e-03,2.286229580640792847e-01
-6.316592110720713193e-02,-3.533803479277533577e-02,-2.823089266218575255e-01,3.723196364593577890e-04,-5.203466131206962303e-04,-1.303897654004127805e-03,2.343131750822067261e-01
-7.746212433282785581e-02,-5.680183341397300467e-02,-3.000475274822725358e-01,4.483705160504518686e-03,-1.462809482966186386e-03,2.912176533193140942e-04,2.337450981140136719e-01
-7.641239500906354953e-02,-5.966647795896806716e-02,-2.926123566555762778e-01,2.485726416161750628e-03,8.110919138687774227e-04,-9.031317254129698699e-04,2.250916957855224609e-01
-7.208169760322405417e-02,-5.890925309663017084e-02,-2.920921362360923701e-01,6.584736411304525699e-04,1.599790952119630773e-03,-5.772437497597736507e-04,2.269056141376495361e-01
-6.019542203434007088e-02,-3.911388027664913780e-02,-2.828046471714080745e-01,9.407940501825652483e-04,-2.854234282301385591e-04,-1.443267775347811376e-03,2.338832914829254150e-01
-6.462059303372080787e-02,-6.011985216343512795e-02,-2.896680112519136596e-01,7.222383327800096500e-04,2.229326663241796777e-03,-1.757401826992804981e-03,2.273878157138824463e-01
-7.117976350598512192e-02,-6.491232577364061673e-02,-2.924782954247832079e-01,5.043335172952871995e-03,-1.399707769123229983e-03,1.262420448486874962e-04,2.246809452772140503e-01
-6.421843691752440741e-02,-5.938086949082041488e-02,-2.942066990184271091e-01,-3.984461052359299825e-05,1.714360842874827068e-03,-2.558091549406279336e-03,2.325060069561004639e-01
-6.218646266888472329e-02,-5.167686476774929760e-02,-2.740633549572539240e-01,1.216333882802875591e-02,-3.694161328597952727e-03,-1.173858714605761216e-02,2.193790674209594727e-01
-4.933538506165455195e-02,-5.198422536258089782e-02,-1.187649683286175761e-01,5.681150791285702155e-03,2.359050141297575759e-02,-6.941800064832745476e-02,1.444524675607681274e-01
-5.206014055138626084e-02,-4.792062007193956252e-02,-2.885871831862488190e-01,3.760656226611252574e-03,-5.677037446767849941e-04,-1.379717053527651635e-03,2.387266010046005249e-01
-5.165126936399631885e-02,-5.530343928369343964e-02,-2.903802030701564396e-01,-1.370415704390345142e-03,1.289316593415059265e-03,4.926940672906920168e-04,2.369479089975357056e-01
-5.471789042463781616e-02,-5.328936021021678238e-02,-2.896138703803793346e-01,-2.105256247438624939e-03,-5.809228854568571337e-04,-7.474404236375239996e-05,2.356438934803009033e-01
-5.670535516381819408e-02,-4.595310564304547207e-02,-2.901052963513354732e-01,1.224496773148934462e-03,-6.576864108069559352e-04,5.944640936297206817e-04,2.389719039201736450e-01
-5.047614824785939813e-02,-5.498948221114949297e-02,-2.897856325928284127e-01,-1.069215915061696000e-03,1.067715357952111886e-04,-6.709798540746843081e-05,2.370923757553100586e-01
-5.825554734423299408e-02,-4.887228452828877578e-02,-2.885492390963313447e-01,1.478023711134048316e-03,1.184154371105304262e-04,3.300291985295588076e-03,2.352092862129211426e-01
-5.298809123823683409e-02,-5.266043155328546665e-02,-2.907654853712096643e-01,-4.816839956639689183e-04,-5.367768964229596099e-04,8.795753450352436021e-04,2.379495501518249512e-01
-5.669370861504988146e-02,-5.835436792608603151e-02,-2.909805045906988519e-01,4.066882370023579041e-06,-1.098190016016045017e-03,1.314422676850984968e-03,2.334797382354736328e-01
-6.138205157912168114e-02,-4.791266533399787808e-02,-2.497059054926460409e-01,-6.621417530156503868e-03,-1.559848074570191999e-03,1.976408530089488174e-03,1.957918554544448853e-01
-6.295196424218424402e-02,-5.558627184743451799e-02,-1.525887019514489407e-01,-7.370502341486148516e-03,-2.330630131496375101e-02,4.352129099951750762e-02,1.273737251758575439e-01
-5.116796855696248425e-02,-5.130129394962350264e-02,-2.882796827246566496e-01,-2.481120522846672061e-03,6.885509841845473484e-04,-6.536283261970113074e-04,2.370897382497787476e-01
-5.976639196724817249e-02,-5.374286403127390838e-02,-1.219973871819293731e-01,2.607902954835861903e-03,1.435170957082300934e-02,6.257968540152501757e-02,1.291154474020004272e-01
-6.347085016106185362e-02,-4.386825304587640972e-02,-2.713176620239299286e-01,8.299855869963280314e-03,5.530812406427085964e-03,8.460151696790749187e-03,2.194813191890716553e-01
-6.275442638518137495e-02,-4.028128609684519801e-02,-2.750512469219952294e-01,5.692435063306502431e-03,-6.724263990031849325e-04,1.082832684663271325e-03,2.246064245700836182e-01
-5.716241639521889295e-02,-5.868566781898190698e-02,-2.913165300576153749e-01,-4.249162579321159416e-04,-1.385024051422681108e-03,7.976541541390788507e-04,2.334138005971908569e-01
-7.560803001021298986e-02,-6.676116007759683169e-02,-3.694616562220515155e-01,2.104474697186925437e-04,-9.726655309763289348e-02,-6.480277302273983187e-03,3.428357839584350586e-01
-6.453398869472662391e-02,-4.789189937565915822e-02,-2.667663961957743579e-01,1.233654153736304764e-02,2.553934419484570062e-02,3.898104756915196645e-02,2.269634008407592773e-01
-5.718602511405276867e-02,-5.355184217521075096e-02,-2.742244981303261220e-01,2.873595007102367795e-03,1.136815878004837285e-02,3.298676838535501837e-02,2.271222621202468872e-01
-3.540053811892046598e-02,-6.326364453396411680e-02,-2.819467389074709063e-01,-6.389044493611743900e-04,-1.155021665108813510e-03,4.987729922652843441e-04,2.338756322860717773e-01
-6.176422067306684693e-02,-5.846352635524604269e-02,-2.922096322765327936e-01,-1.622684280079561428e-03,-2.553932480986535400e-03,2.968284565727821972e-04,2.321730852127075195e-01
-6.201302961917365408e-02,-5.382450559048529426e-02,-3.002665310272677468e-01,-7.122006646751802565e-05,4.936859520422096949e-03,4.301023528347220314e-03,2.427166253328323364e-01
-8.138789916482508380e-02,-5.240383299863983491e-02,-3.277658923032709115e-01,8.493498236101515442e-03,-1.061834172625562150e-02,4.618272761962240180e-02,2.750207781791687012e-01
-7.875659049709168857e-02,-5.380953792180528938e-02,-2.361656977485391273e-01,3.634175311571551450e-03,1.828903393198772626e-02,5.373961477131237313e-02,1.975697427988052368e-01
-4.372173637168760840e-02,-5.795341641459572646e-02,-2.791532780876443409e-01,6.496503612120768829e-03,-7.085526774309239804e-05,-1.383025438823092847e-04,2.289249897003173828e-01
-5.370952451536664674e-02,-4.783781090861441432e-02,-2.747307365656272427e-01,7.535057031229044043e-03,-3.194777658667032039e-04,-2.664756320397281518e-03,2.244427949190139771e-01
-5.446296985530604817e-02,-5.057238608007887104e-02,-2.612233768011728019e-01,1.018295649782799406e-02,-3.973395969326967009e-03,-4.321416222104560454e-04,2.095910906791687012e-01
-5.137884281380294960e-02,-5.059944845474283193e-02,-2.436655850734482653e-01,1.024090168901320257e-02,-7.344760603519364349e-03,-8.841689503041948173e-03,1.945139020681381226e-01
-5.130870434566718596e-02,-5.528329956472547574e-02,-2.304934470033807581e-01,-9.915222004633739150e-03,3.140416189852053563e-02,-2.570419042839259052e-02,1.914327442646026611e-01
-5.211020927589012086e-02,-6.839593387026995930e-02,-2.420852663118707448e-01,4.577557670540893103e-03,2.510968060652288281e-02,3.998624582220710981e-03,1.877876073122024536e-01
-5.079938626852990857e-02,-6.496647593327387060e-02,-2.439034647474115636e-01,1.458263346891268235e-02,-2.422697308737041880e-02,-3.271784809070586719e-02,2.009087800979614258e-01
-6.468994731244086249e-02,-6.226626019266157108e-02,-2.387162627790673786e-01,9.124410685573281637e-03,-1.010666906237437214e-03,-2.463775233036296503e-03,1.760223209857940674e-01
-6.214386074674954630e-02,-4.510345657888240045e-02,-2.867535251299888621e-01,6.295725146209399034e-03,1.120729420972873744e-03,-3.587520103620691746e-03,2.339414507150650024e-01
-4.677966494154517374e-02,-6.489144833556922953e-02,-2.329052709961137446e-01,4.366946881470232765e-03,3.490696478944214313e-03,-7.904330468033041786e-04,1.780318766832351685e-01
-6.504426038119934250e-02,-6.798334872645095395e-02,-2.400126198635254005e-01,7.003316643078618883e-03,-1.201589143117002059e-03,-8.046687634230959268e-04,1.739589869976043701e-01
-5.790504062557201570e-02,-5.938981976142879149e-02,-2.834597259490203580e-01,2.712858426014443081e-04,-4.118176003291048291e-03,-7.243040005710400103e-04,2.249330878257751465e-01
-6.351311935760553529e-02,-4.824716980122098486e-02,-2.499707620429100219e-01,-9.049900079135900569e-03,-6.649347222711167594e-06,-7.921057778535823060e-04,1.951756626367568970e-01
-6.178823618747461555e-02,-3.647814391590796512e-02,-2.827080314829935048e-01,2.382529964108298821e-03,4.877921353282309563e-04,-1.165850322896048183e-03,2.346475571393966675e-01
-6.161482035453447192e-02,-4.312692349080639309e-02,-2.760597379681725139e-01,5.294204393408515237e-03,2.122080743315993864e-04,-1.409461865397719288e-03,2.244621217250823975e-01
-6.636436361834659181e-02,-3.702305969160049615e-02,-2.709282347192734086e-01,1.851581746988819254e-03,5.013367542835546687e-05,-7.905448699549049579e-03,2.211498171091079712e-01
-4.184246225390525487e-02,-6.158324367100067448e-02,-2.585382832253440011e-01,7.822318132439463889e-03,-5.355653178427552397e-03,-1.470624714544561343e-03,2.081949412822723389e-01
-5.799397873543646331e-02,-4.123734049350226416e-02,-2.815058179534170035e-01,2.023382942154461871e-03,-2.141974762869230074e-03,-1.019370383402369660e-03,2.324065417051315308e-01
-6.054110938707540912e-02,-4.266249660415841194e-02,-2.777104665113208082e-01,2.866762881251552764e-03,-1.224768147552497992e-03,-1.022765472155321917e-02,2.273935675621032715e-01
-5.475077243070200494e-02,-4.694666646097118978e-02,-2.900204511649640549e-01,1.769384869455863790e-03,2.967357658964844282e-04,-1.101284375702575070e-03,2.392949908971786499e-01
-5.092587394719907956e-02,-4.586592736818785598e-02,-2.727896268034231131e-01,1.125211713732719027e-02,-1.347961671167347865e-02,-1.360000819123635858e-02,2.277093678712844849e-01
-6.159917023707768557e-02,-4.264929987988350102e-02,-2.777995042220913757e-01,6.680265500112870722e-03,-3.492456404843938007e-03,-9.246846939613903582e-03,2.272127419710159302e-01
-6.739382154551300241e-02,-4.191904122802070365e-02,-2.538776400956405666e-01,2.989045657147847927e-03,4.976785328776838472e-05,1.236776992672717831e-02,2.016469985246658325e-01
-5.997536818260701397e-02,-4.392428451734800565e-02,-2.880109694814945165e-01,8.851455202223219767e-04,3.927636106707871246e-04,4.686855013051490198e-04,2.364774048328399658e-01
-6.883023681244306025e-02,-3.780205756500554237e-02,-2.665785211914278863e-01,2.309735347843944013e-03,-2.286183291333583839e-04,4.529503267634523204e-04,2.149876207113265991e-01
-7.904623328750155775e-02,-6.074004524149344275e-02,-3.074102237356376444e-01,6.273091788979837796e-03,-1.150182777775265227e-03,3.856370515949160589e-03,2.383953481912612915e-01
-6.128398010723498657e-02,-3.679630450892212856e-02,-2.742342343622745648e-01,-3.561121806696029412e-03,-1.407301751435515065e-03,4.436430055613341944e-03,2.264180779457092285e-01
-6.549986046477318524e-02,-5.719293358977226710e-02,-1.928853990738202406e-01,-6.621142333914754137e-04,-2.414035484662315975e-02,-6.619690072610270870e-02,1.795826703310012817e-01
-6.240314962966522772e-02,-4.238226976541799307e-02,-2.824734617221338340e-01,1.230615806309811461e-03,-9.229204628772531621e-04,4.622183683337184774e-03,2.308873534202575684e-01
-5.523684746453746963e-02,-5.079738433599663427e-02,-2.845736349163100476e-01,1.037691127016045559e-02,-9.791790593493176348e-03,-8.440626146593934592e-03,2.333615571260452271e-01
-5.588306950288041142e-02,-5.593863292579119573e-02,-2.655439087430459533e-01,1.241384027389559261e-02,-1.028307238857509125e-02,-5.695340296907723358e-03,2.117141187191009521e-01
-6.499278838058208940e-02,-3.924628393458851061e-02,-2.660311437637774556e-01,3.162740161905900835e-03,-5.278936813240485935e-04,6.061346997323222496e-04,2.151447981595993042e-01
-5.410015878169237291e-02,-5.693131802700693300e-02,-2.717369197596428698e-01,1.016258433818170194e-02,-3.840905570045551748e-02,-1.965977165244702646e-02,2.294618338346481323e-01
-6.323355324627472074e-02,-5.912541136252265350e-02,-2.889604257776864360e-01,-3.807171092382163262e-04,3.468559100210398321e-04,1.701228075119517319e-03,2.278295308351516724e-01
-6.594498864946653216e-02,-4.744373514839671235e-02,-2.339288893617381127e-01,-2.099696766489080827e-03,7.304646297566948221e-04,1.211585819378706210e-03,1.780113279819488525e-01
-6.341596245518199559e-02,-6.162151241059471429e-02,-2.893881069771553349e-01,-5.691688052524711446e-04,-1.434121222536533966e-04,5.128733478300046607e-04,2.268787026405334473e-01
-7.655986736094429201e-02,-6.954059483171787237e-02,-1.506466190408213557e-01,-2.374949651012090595e-04,-8.878615153392939051e-04,-1.333059003228665102e-03,7.788464426994323730e-02
-6.015493699446784748e-02,-6.166563992195708832e-02,-2.887619832550858412e-01,-5.274728644410990862e-05,8.218828548743680341e-04,5.643493244735396305e-04,2.278620153665542603e-01
-4.448712336348809027e-02,-6.127441988239992060e-02,-2.631910816718756041e-01,8.488453393581760903e-03,-6.798672798079170854e-03,-7.872961182538588997e-04,2.116564959287643433e-01
-5.206157918458208245e-02,-7.861803106745064718e-02,-2.442874644025921638e-01,5.133180727590310258e-04,5.554264504565725735e-02,5.929875749386069291e-04,2.044700533151626587e-01
-7.010439163172686727e-02,-5.925078614928085824e-02,-2.027499308819402379e-01,-9.020239518745180700e-04,-1.278567276210336705e-03,3.019926038373816311e-03,1.385172456502914429e-01
-5.905471594631883647e-02,-5.790486516176060472e-02,-2.891327325091126443e-01,-1.960641423331878233e-04,3.344594034428745441e-04,5.255663484008369236e-04,2.306578606367111206e-01
-5.743708956206164395e-02,-4.094063285721051548e-02,-2.844339680292810590e-01,1.288618625735653668e-03,7.916373360088515849e-04,4.737489556533040140e-04,2.356944978237152100e-01
-5.511637699766262777e-02,-5.853865271217154054e-02,-2.895215215187560975e-01,1.603588427553419076e-03,-1.115287794160940964e-03,7.092313505811952048e-04,2.327407151460647583e-01
-6.615853215417985544e-02,-4.706193724324909955e-02,-2.340956118582020462e-01,4.646625755572474092e-03,1.255677591209205905e-03,-2.462864801694979004e-03,1.785000562667846680e-01
-6.800026121886973418e-02,-7.132880022573687140e-02,-2.390468929700166334e-01,3.980339226674796393e-03,3.098008646773119101e-02,-8.012256882825813387e-02,2.255757004022598267e-01
-5.713074446660842964e-02,-5.718834565363434264e-02,-2.735420510148247608e-01,-1.165959489856190599e-02,1.814478505859103488e-02,-3.076989243942566260e-03,2.196481972932815552e-01
-6.297182045400899486e-02,-6.080961003070375903e-02,-2.889710456008236505e-01,-1.436304909014472103e-04,8.391363978063268170e-04,1.560928875784614589e-03,2.271089255809783936e-01
-7.966704133920245179e-02,-5.924970210714289309e-02,-3.027965502714599078e-01,-5.281416641490576519e-03,-2.083271168768058268e-04,1.907024634962083348e-03,2.342094779014587402e-01
-7.649789645669308191e-02,-6.346911187655611408e-02,-3.818159008626053619e-01,7.251426947188319150e-03,4.878725230733732543e-02,-4.437010728034461449e-02,3.325225114822387695e-01
-7.581947982222705940e-02,-6.545519951823605687e-02,-3.268129228907507011e-01,-5.359089888261403707e-03,2.039663637924600016e-03,1.317789596524786451e-02,2.575385570526123047e-01
-5.378494232780040019e-02,-6.059159828949214899e-02,-2.926940105358067923e-01,5.257016527911992972e-04,-2.503545292355744897e-03,-1.220873951466791996e-03,2.356306612491607666e-01
-4.968213913612774812e-02,-5.395608132900379245e-02,-7.656535091474635235e-02,3.749928308089422058e-03,-2.953362223321885985e-02,3.662919724531363275e-02,8.549889177083969116e-02
-5.736968702055304792e-02,-5.160758349295992142e-02,-3.475931162768235994e-01,2.519059496150269001e-05,-8.412062083192180240e-03,1.807324184947582874e-04,2.935089766979217529e-01
-5.164662311982767817e-02,-4.407073062058841639e-02,-2.597410771821465625e-01,-1.036525946982782762e-02,2.627950261712634974e-02,-4.355870945709093556e-02,2.302681803703308105e-01
-4.006866262422210945e-02,-6.033163107546567205e-02,-2.833959420919916483e-01,1.062265451573018733e-03,-2.240549499212265511e-05,-6.009102124332572556e-04,2.338646799325942993e-01
-5.983480019668485639e-02,-5.780732829654669502e-02,-3.549555324577489124e-01,-2.330521850973837298e-03,-3.188537861216792640e-02,-4.349024367592418255e-02,3.105466663837432861e-01
-5.001950540636222742e-02,-5.263906379779105527e-02,-1.893073625138226579e-01,-3.375807228677218420e-03,-1.560345565478334778e-02,-7.078358632950931817e-02,1.866511106491088867e-01
-6.288212044729801775e-02,-6.351384296263232199e-02,-2.140622389380448798e-01,-1.603642823521397517e-03,-4.592841904821732407e-02,-7.922306643006327143e-02,2.189182043075561523e-01
-7.919595608666332720e-02,-6.541202718404828809e-02,-1.919110734662242412e-01,6.275838505993466257e-04,-1.155724349710032406e-05,-3.762717616561246994e-03,1.203827559947967529e-01
-4.109551272564221369e-02,-6.794674800308053708e-02,-2.774346717285774977e-01,-1.902203717683430360e-03,-1.130629952874554443e-02,1.653127712941688653e-03,2.250194251537322998e-01
-3.646737329645297065e-02,-6.278492191474131789e-02,-2.825659388816611495e-01,-2.049494625577956419e-03,-3.681632807361628294e-03,3.785420771051484874e-04,2.341668158769607544e-01
-6.574557238904055190e-02,-3.515493124291796390e-02,-2.805086793862828221e-01,3.562185243061824513e-04,9.187269975040305192e-05,-2.368303496820566337e-04,2.315800040960311890e-01
-6.063846063312330892e-02,-3.911140595882506288e-02,-2.859191759572841107e-01,-1.097164236997632322e-03,5.927489547037220405e-04,-4.331805531602308059e-04,2.367903590202331543e-01
-7.094704433659471121e-02,-3.778232080201895937e-02,-2.722740720387478719e-01,9.815672310738174453e-04,7.675849094659006758e-04,-9.284989834885156021e-04,2.198105305433273315e-01
-6.080386904637861967e-02,-4.927610000445363514e-02,-2.322619404882148575e-01,7.762778469508162076e-03,3.918736747782522456e-03,-2.244780037204192891e-03,1.781832128763198853e-01
-4.078746299024904598e-02,-5.826458990825920947e-02,-2.869940918237052774e-01,-3.866650586492534347e-03,-2.478548815232096796e-03,-2.517224288303702073e-04,2.380832731723785400e-01
-5.353207862726463984e-02,-5.352308001511300872e-02,-2.821687751612863559e-01,-7.060751222956730862e-03,1.523735682723185731e-03,-2.734092061422313882e-03,2.290322035551071167e-01
-3.921679817868556350e-02,-6.127422163559478885e-02,-2.836968210268063229e-01,-1.213250888196895725e-03,-1.927819787057232046e-04,-2.328632850546049845e-04,2.342415452003479004e-01
-4.179575870427212902e-02,-6.207784442078190246e-02,-2.852000842056786056e-01,3.869643581700891587e-05,-7.069013398691707979e-04,7.541705135784451433e-06,2.339268773794174194e-01
-5.967992104281236165e-02,-3.818913587291691836e-02,-2.698895322384540219e-01,-3.026011095706242736e-03,2.873960396727711286e-04,9.211933013798127845e-03,2.223731130361557007e-01
-6.633414143902183202e-02,-4.031009323137160760e-02,-2.732532634475297595e-01,-4.320119279256327133e-03,1.452340639686082848e-03,1.193226190884855587e-03,2.212334424257278442e-01
-6.256955845551692708e-02,-6.209004685832812676e-02,-1.678593614699591952e-01,-1.371286776399281444e-03,-5.007868741990292513e-03,7.407428693376365281e-02,1.663686782121658325e-01
-6.280197516395166768e-02,-4.249119575503484958e-02,-2.687651112512390306e-01,-8.641549697655332915e-03,6.022423933675022118e-04,5.221051323341724046e-03,2.175396680831909180e-01
-6.089979599594735893e-02,-3.836263220059471513e-02,-2.862978751914230235e-01,1.408418876199185946e-03,-5.523627618256310434e-04,1.717475893746982013e-03,2.375031858682632446e-01
-4.944343181774417395e-02,-5.133148175283422376e-02,-2.745044414175938363e-01,-1.184501513411990135e-02,-1.475011442817864872e-02,1.465411541277586265e-02,2.279230952262878418e-01
-4.887814667760193021e-02,-4.821385846827799804e-02,-2.792323863537212736e-01,7.533249152149517486e-03,1.986431857261799182e-03,3.300990542926279629e-03,2.311521470546722412e-01
-7.146026496985966037e-02,-4.819516746979685129e-02,-2.572960968072466326e-01,1.229170143362873571e-02,1.086173553336329707e-02,2.859620908197839026e-02,2.065432816743850708e-01
-5.680544483756104490e-02,-4.359964532287659289e-02,-2.631818231322026191e-01,-7.355559554657093053e-03,-2.679445574667533095e-03,6.604000517610318817e-03,2.140225619077682495e-01
-6.185442106773958448e-02,-3.740844430261416886e-02,-2.855772782219728745e-01,-1.337221847978900188e-03,-4.913535195616200012e-04,1.163483668401245688e-03,2.369151711463928223e-01
-4.737620660873757827e-02,-6.336657355860567109e-02,-2.923037307623066461e-01,-1.919112066096536880e-04,3.180880436417159434e-03,6.299285371627705125e-04,2.374033629894256592e-01
-6.087799705194524291e-02,-6.052105769260485157e-02,-2.899625503101070922e-01,-7.481449958054158401e-04,-2.157677943006481268e-03,-1.691904471545735661e-04,2.292975336313247681e-01
-6.278737223073904694e-02,-4.342236394213340456e-02,-2.864675513403600049e-01,-1.699495039749844127e-03,-7.247240998028552659e-04,-2.834720485969384300e-04,2.339869141578674316e-01
-7.030407101671098946e-02,-7.311119629586200486e-02,-1.603629733751981701e-01,2.557098818705975246e-03,8.506805776129204187e-04,5.204498287967656775e-04,8.881598711013793945e-02
-6.204157851210957697e-02,-3.801461944634100532e-02,-2.862909193701890787e-01,-1.315442070522923872e-03,-5.323754817441178752e-04,1.686163912678838393e-03,2.372080534696578979e-01
-5.627622331579715254e-02,-4.566411023779179401e-02,-2.812426875836122608e-01,-4.750509969671348406e-03,-4.800108700394708139e-04,2.053724922421908215e-03,2.306316196918487549e-01
-5.763158072846163993e-02,-4.645477067659048442e-02,-2.878531124441203737e-01,-1.951606722774545119e-03,2.102186345548246864e-05,2.418827510585717119e-04,2.360330969095230103e-01
-5.425439900641200464e-02,-5.498646183464017678e-02,-2.893400492726020401e-01,-7.615005052538185168e-04,3.797993645637999386e-04,1.532415439087164995e-05,2.347251027822494507e-01
-5.151853404989223395e-02,-5.227983108679740143e-02,-2.727441402941584991e-01,9.365463191881653882e-03,1.185597955210510528e-04,1.713639721181458610e-04,2.214411795139312744e-01
-5.405611970955272183e-02,-5.340215606387746505e-02,-2.828087479472459753e-01,9.052954780407965890e-03,4.141336340586298376e-02,2.905202418866487460e-02,2.457659840583801270e-01
-5.933598748235971443e-02,-3.955833297023789163e-02,-2.826225655663321401e-01,-4.762605150641653282e-03,1.575757437166108114e-03,-2.766083208951213880e-03,2.340140789747238159e-01
-6.444319544073073835e-02,-3.953817449618503288e-02,-2.777922696136175817e-01,-4.367677778129925442e-03,7.068015100452375559e-04,-2.942197932000805653e-03,2.270159721374511719e-01
-6.289330352316650774e-02,-3.868267256640284257e-02,-2.867369953944571837e-01,-1.943700546397073882e-03,4.634981241771869926e-04,-2.248358176105451182e-03,2.369360476732254028e-01
-7.277370012672565447e-02,-7.679594697388687774e-02,-1.712872767895206594e-01,-1.346454783910634072e-03,2.740165315730621904e-03,-1.805396305157033017e-03,9.676052629947662354e-02
-5.755130684347898457e-02,-6.269726872993901245e-02,-2.168862404475677130e-01,9.204373713101229176e-03,3.198858297938424883e-02,3.970771622613723795e-02,1.806882619857788086e-01
-6.267891007065740094e-02,-3.624498353032934439e-02,-2.766539919064237019e-01,-2.490811287278849907e-03,4.956540493103059417e-04,-3.104697987342839444e-03,2.284481525421142578e-01
-4.721909284788863848e-02,-5.611756229913106298e-02,-2.870956373931546346e-01,-3.850572541619020923e-04,-4.392054107064113921e-02,-1.253389767575332180e-02,2.484837770462036133e-01
-5.128458373690947952e-02,-5.635118054161906975e-02,-3.559530053106911562e-02,2.149625079395143731e-03,-3.623145846818513760e-02,-1.138330177313368746e-02,6.849870085716247559e-02
-6.345277162205135990e-02,-3.580522701094304705e-02,-2.801614398621072866e-01,-4.559198220958980263e-04,8.524504156189270903e-06,-1.352509814361610701e-03,2.317856997251510620e-01
-5.109724801257112259e-02,-4.954093935492115408e-02,-2.896770193764136581e-01,1.041894265215431671e-03,-1.947357290323257172e-04,-7.596637799490593517e-05,2.393687963485717773e-01
-6.649019746686229970e-02,-6.448804868313515182e-02,-2.378444029423460171e-01,9.156005698796052319e-03,5.815458338483461137e-02,-7.709738709505714604e-02,2.407046556472778320e-01
-6.126079247809393391e-02,-3.879401891912505340e-02,-2.831997321681053448e-01,-1.096744657111104436e-03,-8.867939218704805110e-05,-4.327933634311245518e-04,2.339916527271270752e-01
-6.637768547000270913e-02,-3.799018074459310779e-02,-2.698252724233727307e-01,5.775163959703128857e-04,-1.154311033644337629e-03,-5.371532218725833061e-04,2.190388143062591553e-01
-6.366937589194829328e-02,-4.257701842152866734e-02,-2.838732861491750636e-01,1.501787056773377970e-03,-1.893876164040036937e-04,-1.525323028602326107e-03,2.315018922090530396e-01
-6.559563188629682906e-02,-3.574257257235527452e-02,-2.827171065058093347e-01,3.434947006186232451e-04,-2.928718568779285791e-04,-1.111385778383905615e-03,2.334930300712585449e-01
-6.357091652174295948e-02,-6.845869713760763253e-02,-5.917415082639548851e-02,-5.327069490842271590e-03,-3.968067786293738922e-03,-2.605852576074010191e-02,4.726755991578102112e-02
-7.192112343177334277e-02,-6.177413805806582919e-02,-1.742336171960746083e-01,-4.889588115253032212e-03,1.239467127605517471e-03,-3.717227185805859011e-03,1.082901507616043091e-01
-5.763182000518697612e-02,-6.351019869835500264e-02,-1.603386364398415864e-01,-2.654259696238949699e-03,3.119691906747156050e-03,-1.318283774169125115e-02,1.027189865708351135e-01
-6.288650552799179838e-02,-6.301404103562284476e-02,-1.116410101086275919e-01,2.832607992625424138e-03,-5.299811482278561636e-02,-3.216697168022640552e-02,1.180059909820556641e-01
-6.340430232259013088e-02,-3.711817327586106052e-02,-2.810217603049930402e-01,-1.870099738559717357e-03,-2.164399687450434587e-04,-1.780601989889447467e-04,2.319037914276123047e-01
-6.889384940692561132e-02,-3.917345185574658273e-02,-2.720479456871271462e-01,-4.020817092031187673e-03,5.050189550313039129e-04,-3.036729370563488045e-04,2.196411937475204468e-01
-6.736807662919425121e-02,-4.698344427418249536e-02,-2.353460802218788062e-01,-1.554579524606633685e-03,1.650434813090460948e-03,-1.865101982540548356e-03,1.791149675846099854e-01
-6.402097634961301242e-02,-3.480068471147912401e-02,-2.788890958465202186e-01,4.315541111863849776e-05,1.601447449528283504e-04,-4.222392206093794994e-05,2.308695167303085327e-01
-5.705846343441368929e-02,-5.196266731170640085e-02,-2.900216957737630219e-01,3.245030779802025346e-03,-4.334203750691036582e-04,6.544186423425750639e-03,2.358932048082351685e-01
-5.514283447239781699e-02,-4.994332669112162837e-02,-3.063299329990233910e-01,4.498620957951110846e-04,2.557462596369548119e-02,3.802581136656642269e-02,2.659487128257751465e-01
-6.399188840057065675e-02,-3.665890583560525717e-02,-2.703605145838039459e-01,-1.364792993429694715e-03,6.447251919264153711e-04,-2.478192412689031107e-04,2.213205546140670776e-01
-6.794276319533153197e-02,-3.769926892391933793e-02,-2.819636500757157771e-01,-1.865496282248982991e-03,-1.489374208529693094e-04,-3.478406359005698726e-03,2.307361066341400146e-01
-5.929123131064387153e-02,-5.189705772500695369e-02,-2.965356415448222593e-01,5.434316909205704448e-03,6.649127872920136684e-03,2.704298809394288863e-02,2.459857910871505737e-01
-6.302296564037690452e-02,-4.328235638994554213e-02,-2.740572618613458244e-01,-7.456325427574324663e-03,-5.694696843005689059e-05,2.877525575639359448e-04,2.219417989253997803e-01
-3.961384030852449500e-02,-6.021875016771310873e-02,-2.791713691442049283e-01,-1.990304741587004510e-03,-1.041775275743553331e-02,1.742841198592436731e-03,2.307008802890777588e-01
-6.194272508542847389e-02,-3.854969698503950271e-02,-2.861395432596300914e-01,1.501636732403451024e-03,1.957032811316116762e-03,1.059244985632158860e-02,2.375098764896392822e-01
-5.156138964492319732e-02,-4.864734248481425438e-02,-2.874298895271806265e-01,3.434702823885765581e-03,3.983412488358895292e-04,3.519970874988594470e-04,2.374152690172195435e-01
-5.198221242429912348e-02,-5.267916885973490670e-02,-2.906456663675560659e-01,1.615091976412364513e-03,-3.818939432691022154e-04,-3.682690414954589318e-04,2.383339256048202515e-01
-6.306430372311969124e-02,-5.144609359549741356e-02,-2.845849820786385820e-01,6.218619342164795512e-03,3.231398016804307161e-02,3.224501509270787103e-02,2.411387264728546143e-01
-6.407837643724180465e-02,-6.263935674737589054e-02,-2.869166685895288005e-01,9.493172438208397979e-04,1.389289166930154093e-04,1.658836437528179769e-04,2.235676348209381104e-01
-6.198344403966329907e-02,-6.681458758103886453e-02,-2.899232021272610815e-01,3.018428426010772749e-03,3.702843592844767568e-04,4.107456535319900385e-04,2.256256043910980225e-01
-6.134090346554707529e-02,-6.684619910867370396e-02,-2.981693654665357185e-01,4.381712257874079142e-03,-1.451664892451334701e-03,-3.625543163497371626e-03,2.343449890613555908e-01
-5.634551895805715860e-02,-4.521366128305326360e-02,-2.887179331405974048e-01,1.271615838845168702e-03,-5.245774139244897653e-04,1.606612418606782802e-04,2.381456494331359863e-01
-6.252285476718408286e-02,-6.557087748375614589e-02,-2.897767633344380256e-01,1.495644226307928093e-03,-6.975733603241363566e-04,-2.933284492515312407e-05,2.257634401321411133e-01
-6.746397945488036285e-02,-8.022149162490985197e-02,-2.065185254299085615e-01,-8.115432033899647133e-06,3.189058705430937880e-03,-1.652482133155352018e-03,1.332802772521972656e-01
-6.278394535459003167e-02,-6.714287513722755341e-02,-2.879870707466162250e-01,1.312406873517984194e-03,6.549169593743724409e-04,-3.783989774012010490e-04,2.230710387229919434e-01
-4.206665881555032849e-02,-5.882134624233227582e-02,-2.868231159976606381e-01,2.704505321844242940e-03,1.699353807454939626e-04,9.058747567457567504e-04,2.368757426738739014e-01
-6.775447868858036626e-02,-7.164333461553236415e-02,-1.934750148591822261e-01,-3.043868708935642750e-03,7.209826594646390197e-03,-2.348593698380676154e-03,1.246280670166015625e-01
-6.336569240285666593e-02,-6.354677790433094220e-02,-2.866441281223126025e-01,1.635402504614694207e-03,-9.121610866779022249e-05,2.087495275236141769e-05,2.232059836387634277e-01
-4.419050616782659036e-02,-5.355019976040754914e-02,-2.814083550815387191e-01,7.755116189959129422e-03,1.190647265813532399e-03,4.665339519499491394e-04,2.330771535634994507e-01
-6.765417597652312320e-02,-6.280350748917205850e-02,-2.882873085992980755e-01,3.872757104092277875e-03,-1.390912550487326087e-04,5.439171627718943688e-04,2.232009619474411011e-01
-6.102264134958899910e-02,-6.163738867150816980e-02,-2.643153274282282750e-01,-1.133309519254583134e-02,4.201064672222731833e-02,6.958400818446788816e-02,2.478086501359939575e-01
-5.362372182595057102e-02,-5.354871086893614462e-02,-2.735076655584567917e-01,8.168593287898460314e-03,-1.759975267458735383e-04,2.846730395249864502e-05,2.203763127326965332e-01
-6.052540701677935897e-02,-5.924725409319718528e-02,-2.874088120181561568e-01,5.721898332571118758e-05,-1.300635755274254669e-03,1.260704517405973179e-03,2.275468260049819946e-01
-5.515155934968990481e-02,-5.363195426397837640e-02,-2.889444673726183632e-01,4.460749986090277431e-04,8.880625879928915820e-05,-1.355260853437577177e-03,2.345694750547409058e-01
-7.638731012809779619e-02,-6.827140437152012797e-02,-4.757054883951053470e-01,9.123285851768291391e-03,2.571806772914088032e-02,3.395367935966164818e-02,4.104317426681518555e-01
-4.111176586830951607e-02,-6.197540357505042230e-02,-2.705730468655163645e-01,5.791040528053962438e-03,-1.099217648848751627e-03,5.128948576416786625e-04,2.200122624635696411e-01
-6.199369559254486184e-02,-6.317759283227430966e-02,-2.890108353613869419e-01,2.237350348077035873e-03,1.162023839815185368e-03,-7.406804818646764866e-04,2.264732420444488525e-01
-6.414485941802308688e-02,-6.183612681049593940e-02,-2.883812001570082995e-01,1.235382885479294202e-03,4.022220329181743024e-04,-7.060540392520623341e-04,2.254141271114349365e-01
-5.852455074784208844e-02,-6.366514262111966360e-02,-3.068992589544387029e-01,9.158043842806863621e-03,1.051661668595455651e-02,3.030205348129632117e-02,2.525424361228942871e-01
-7.415525456443246288e-02,-7.347140658420915627e-02,-1.769987441304980980e-01,-1.894050153527721556e-03,1.118979703582186416e-03,-3.543097105593600096e-03,1.034396439790725708e-01
-4.798874887680898427e-02,-6.293287131240740684e-02,-2.425704538244329023e-01,7.607999805083916905e-03,1.840830642174416188e-03,3.087488552092343408e-04,1.880468279123306274e-01
-6.294660053205430872e-02,-6.295995576998553167e-02,-2.881293155781373128e-01,1.627553511225112272e-03,-1.257241609789073490e-03,7.921698783463439111e-04,2.252083867788314819e-01
-6.134328769728855657e-02,-6.201326695686185109e-02,-2.874340340174456609e-01,4.814994845396302400e-04,-7.621614085315424943e-04,5.933839902021709710e-04,2.257642447948455811e-01
-6.151055874052757666e-02,-6.262803635059580043e-02,-2.876125574199639434e-01,1.329000805253803628e-03,-7.726927325972907275e-04,6.413680560258918414e-04,2.255637943744659424e-01
-6.325738691035243111e-02,-6.164357655959455673e-02,-2.861513808787898849e-01,7.335780927743035685e-04,-1.275627196063763413e-04,-1.353132276392905254e-04,2.237091064453125000e-01
-6.588104911920325546e-02,-6.140694560127374357e-02,-2.878802496156325774e-01,1.136215070049108105e-03,3.877883005840481248e-04,6.090504164070293866e-04,2.242818474769592285e-01
-6.010089525721835912e-02,-5.975072246984650115e-02,-2.917645015990150137e-01,1.390247540673872698e-04,3.624658570021433704e-04,2.207096564949051053e-03,2.318713814020156860e-01
-4.547339661127119959e-02,-6.051569905176325259e-02,-2.888044948602126460e-01,9.549941670411557807e-04,-3.468955239704009808e-04,-6.124023608740462041e-04,2.361784428358078003e-01
-4.811460947609048910e-02,-7.318653431722799141e-02,-2.474181449054019544e-01,-4.262162941605575524e-03,1.876351405169550532e-03,-3.302902141591829112e-04,1.881992667913436890e-01
-3.721805029792560338e-02,-6.642565239594015736e-02,-2.805184191148580863e-01,-1.848876287829361639e-03,1.125335404933882607e-04,2.258738696399513430e-05,2.301135063171386719e-01
-6.357845747602289266e-02,-6.327358290139817321e-02,-2.869473218926280600e-01,5.319705641825283769e-04,-8.264412787079350648e-05,6.447094248148903337e-04,2.235261946916580200e-01
-6.191934043886399008e-02,-6.163438341262732212e-02,-2.098219526681936731e-01,-6.880873701594234122e-03,2.144754141312007253e-03,-3.255139603863428654e-03,1.486776322126388550e-01
-5.779889395274431796e-02,-5.015761300264828804e-02,-2.894263726779586765e-01,1.810688853154657349e-03,1.077754800230271582e-03,-3.054711029529829746e-04,2.355699688196182251e-01
-6.008599871175501761e-02,-6.611052578879145214e-02,-2.960376495231035188e-01,-9.805791483473748349e-04,1.767605323828686740e-03,-5.686486749108181013e-03,2.332321703433990479e-01
-5.372699190210009079e-02,-5.500807413829200687e-02,-2.896237288753614747e-01,-4.908508167441748195e-04,2.226294543360717070e-04,5.265418571688059313e-04,2.352624386548995972e-01
-6.305633669536753194e-02,-5.768249239750190827e-02,-2.775571874164908248e-01,-1.096406131927589369e-03,1.472067880143872187e-02,-3.875223940591557281e-02,2.288036197423934937e-01
-6.213106615635803631e-02,-4.166830168039778459e-02,-2.830058060342301451e-01,-3.321451106050648302e-03,1.857110632435216710e-05,8.232254832950673977e-04,2.318603247404098511e-01
-5.829328638007699737e-02,-5.351172506963453035e-02,-2.966497786631273614e-01,2.069768927087143641e-03,5.053440239818587226e-02,-1.805876864047538388e-02,2.581255137920379639e-01
-6.073333920634907401e-02,-6.399712351034332614e-02,-3.702015644668563144e-01,2.752172183356450027e-03,5.705333030602891681e-03,-2.784041178658256885e-02,3.117961585521697998e-01
-5.276876118697004792e-02,-4.944448642830420737e-02,-2.897273088483235393e-01,-6.479551168295945816e-04,-3.302786573097049681e-04,2.896322560371461909e-04,2.386419028043746948e-01
-5.143590958790003609e-02,-5.281645199777469657e-02,-2.734437703146779253e-01,-8.986425763611950723e-03,1.328658227265339703e-05,7.839424820280822001e-04,2.218716293573379517e-01
-6.474431604646524452e-02,-3.876590174386117249e-02,-2.710805590841197654e-01,2.847002566027006468e-03,7.652793782046752626e-04,-9.276037393077771502e-04,2.205412983894348145e-01
-6.000549597609351749e-02,-3.810381523089594047e-02,-2.721899546840414463e-01,-4.512006394368630463e-03,7.413137670332223467e-05,5.777480541386411598e-04,2.240785956382751465e-01
-5.813829858889286994e-02,-6.630243182417530634e-02,-3.325211787533695063e-01,-9.897992269074099361e-04,2.101969316921124820e-02,-5.718316497025255352e-02,2.902596890926361084e-01
-5.368464169098505212e-02,-4.630273276890714551e-02,-2.891513017858299284e-01,-1.537611651720871423e-03,1.694120144045807965e-04,-2.833008798900711785e-04,2.392585426568984985e-01
-5.456481150700960570e-02,-4.792084923334452573e-02,-2.816621798522190856e-01,-6.824598538853302553e-03,-2.870571826262539221e-04,1.059175227003360427e-03,2.308019101619720459e-01
-6.366080478526985054e-02,-4.414921962271718681e-02,-2.979483783690193288e-01,-2.658491324717033883e-03,-5.196404771931167595e-05,-1.303969759951310696e-02,2.457112222909927368e-01
-5.394395939220930636e-02,-5.201816029074524117e-02,-2.918730257463673095e-01,-9.150082108202570088e-04,3.920010289598708001e-04,1.818305762281350441e-04,2.389042228460311890e-01
-6.133975049567576276e-02,-5.454624198018007131e-02,-3.007688782242955994e-01,2.283103969918145668e-03,-6.681364668682568050e-03,-2.166772457877428476e-02,2.460834234952926636e-01
-6.075050457561995132e-02,-6.955352115606214247e-02,-3.449204689696418469e-01,-1.604390075876964677e-03,3.173433981485662084e-03,-3.539616710892690837e-03,2.800071835517883301e-01
-5.132486561600282937e-02,-5.264741595062916169e-02,-2.909525126092353808e-01,6.958717502996745281e-04,4.093116751763240142e-04,-7.559871602934066786e-05,2.389732450246810913e-01
-5.346630270371142968e-02,-4.330288488769348798e-02,-2.810321131593392918e-01,7.249750156121313911e-03,1.132259681590407448e-04,7.189928740427661185e-04,2.331557571887969971e-01
-5.129210788025920231e-02,-5.159998319421105206e-02,-2.895616330900975810e-01,3.344245235233211846e-03,-3.816365354175574342e-04,-3.894368675511064234e-04,2.381880581378936768e-01
-5.584227077650799620e-02,-4.884885958528825678e-02,-2.828485785948707809e-01,4.420661797241814440e-03,1.451177491443526987e-04,8.317511862685614873e-04,2.307142913341522217e-01
-5.852554406002143800e-02,-5.742477288085765658e-02,-1.931991782033648242e-01,6.510284770548491196e-03,5.881048309477410890e-02,-4.361573139595392723e-02,1.857326328754425049e-01
-5.339568491994869937e-02,-5.627246928439220974e-02,-2.900267396713567258e-01,1.087540434593045700e-03,-1.002082847945665782e-03,-1.136887872312472092e-03,2.352280467748641968e-01
-5.084784998271721368e-02,-5.533670850037758493e-02,-2.896380880885851550e-01,4.251287639271926488e-04,9.792687944487467409e-04,-4.749721833890735586e-04,2.365864068269729614e-01
-4.713507636553432301e-02,-6.194129561222609659e-02,-2.946694956553022604e-01,-4.032044177234688984e-03,1.110495412714262997e-02,-1.433390927113076946e-03,2.413552552461624146e-01
-4.663903104793076793e-02,-5.468232657069709013e-02,-3.082559870358810850e-01,-5.813529039762527911e-03,1.732822528269861023e-02,-9.602506129907144306e-03,2.601589560508728027e-01
-6.927529426078260499e-02,-6.392047626248076320e-02,-2.878635780881609874e-01,-6.970743347832549387e-04,3.458111673627157351e-02,-2.148121846079175529e-02,2.322786301374435425e-01
-5.638158404244897337e-02,-6.430930921997812799e-02,-2.971678265847296219e-01,2.014279501699814401e-03,3.492419918343001028e-02,-1.808678248238949557e-02,2.465454190969467163e-01
-4.434988291857831777e-02,-5.771060643762428166e-02,-2.881686801127976150e-01,4.342667445265867288e-03,1.595225872391359484e-03,4.218083067782623773e-04,2.375568598508834839e-01
-6.534600403605908547e-02,-7.659749094661499891e-02,-2.171682723663668213e-01,3.508801232763296245e-03,7.561597978492257122e-02,-5.896239548386113249e-02,2.215588539838790894e-01
-3.509894034107505223e-02,-6.343866696251969362e-02,-2.807595043785960920e-01,-3.663376064023617551e-04,3.015183310415787531e-03,-1.160494496953331085e-04,2.328476309776306152e-01
-4.346652359420832834e-02,-5.621556039198977173e-02,-2.866014025381488084e-01,1.598443066092109822e-03,6.502549549044497243e-06,-5.814010885691126007e-04,2.370359748601913452e-01
-5.421770884245530331e-02,-5.753013144592430267e-02,-2.064631874371715969e-01,-5.447244139203387923e-03,6.625880988020774187e-02,-4.244729856271291235e-02,2.033479362726211548e-01
-6.950012916078321390e-02,-5.962362327024008091e-02,-2.951390099185986493e-01,6.676094763410548140e-04,-1.770387514270424425e-03,2.996412188057581607e-03,2.308173477649688721e-01
-3.842843379205483634e-02,-6.218982219159402414e-02,-2.887553085942775599e-01,3.249941724357200204e-03,7.724482510688890878e-03,6.238045565530099968e-04,2.397746592760086060e-01
-7.084437568244927874e-02,-6.334191677293467271e-02,-1.803588999496193723e-01,5.239100885332340432e-03,8.369510861587910969e-04,1.405749944249486301e-02,1.163985878229141235e-01
-6.233091293920192677e-02,-6.449012346961417730e-02,-2.880413090265748766e-01,-7.485441090217287863e-04,-1.254631696609680722e-03,1.051538850130719158e-04,2.246529012918472290e-01
-4.808137452057389960e-02,-5.504685800716557775e-02,-2.870440267317963534e-01,-5.792614946881007379e-03,4.577724390953785542e-04,-5.512249588438267178e-04,2.357739955186843872e-01
-5.851676267057037695e-02,-5.271306091176694575e-02,-3.152900356855575792e-01,3.958380763941542028e-03,1.310067274735284872e-02,2.985159141082287942e-02,2.658790647983551025e-01
-4.712878709017544188e-02,-6.070771530478584477e-02,-2.516243013050329935e-01,-6.560290238803482936e-03,2.631332931573239671e-04,-1.735389961255429363e-03,1.984044611454010010e-01
-4.572879208138996843e-02,-5.329986268934269744e-02,-2.879506734417982550e-01,-1.383598914080872832e-03,2.117844952916901114e-04,1.334290451707966407e-04,2.385389059782028198e-01
-5.286179163769488820e-02,-4.871908386168199989e-02,-2.863455110760974032e-01,-4.106393121325192797e-03,8.793788675712165773e-04,-1.180863405571107392e-03,2.357035279273986816e-01
-5.180011556533330175e-02,-4.800957200936131763e-02,-2.845500577035449119e-01,-5.402466858647586925e-03,-2.223438140819773213e-04,-3.166762721753994076e-04,2.348556220531463623e-01
-5.089117480813727667e-02,-5.516560057429850672e-02,-2.897901483563093405e-01,7.473454822896695264e-04,-1.407626164440878107e-04,-3.827774241675375175e-05,2.367943674325942993e-01
-5.277270849008568188e-02,-5.296343714564344385e-02,-2.904410474511286422e-01,8.493538044974767312e-04,4.727724874577730863e-04,3.252034076860874003e-04,2.375796586275100708e-01
-4.663047074522996827e-02,-6.637479187736280983e-02,-2.455949510679951708e-01,-1.326549082485144367e-03,1.862541058800197243e-03,-4.850990115177583302e-04,1.899070143699645996e-01
-5.223576042840748224e-02,-5.270185514695344131e-02,-2.904795091837965026e-01,7.682710997759124166e-04,1.011296845005397104e-03,3.715321799202453076e-04,2.380220741033554077e-01
-5.239328904214274329e-02,-5.629761608126712669e-02,-2.900609285830124118e-01,1.725233562245624469e-03,-1.136135453821472945e-03,7.348016477454823473e-04,2.357703149318695068e-01
-5.264058123460173266e-02,-5.314940075534280162e-02,-2.906766996509975165e-01,1.515800531995733147e-03,9.850926185575705277e-04,5.027698119215697143e-04,2.378043234348297119e-01
-5.433413457613767150e-02,-5.521747629967378723e-02,-2.897096245592970520e-01,-4.916437113794125662e-04,-3.968479323817061615e-04,4.236245794380115101e-05,2.349376231431961060e-01
-5.833515450465286134e-02,-5.591591667360167051e-02,-2.911133123003665224e-01,-3.108981015481152303e-05,1.332752527090553911e-03,5.377969131542946371e-06,2.340085506439208984e-01
-5.856333870583535495e-02,-4.145330324960422308e-02,-2.844929467457686934e-01,-2.311961613142026264e-03,-6.250235928179014803e-04,-1.520648899038149035e-04,2.349891066551208496e-01
-6.294835260131091681e-02,-6.343959804812927816e-02,-2.880901456164306484e-01,-1.369363412339033321e-03,-1.104569939637573602e-03,-1.135116970897810749e-03,2.249258160591125488e-01
-5.035141750935107074e-02,-4.919936736622552986e-02,-2.912508622088088028e-01,-7.825893285600129482e-04,-2.647572925994849105e-04,-8.278262854833335726e-05,2.414818108081817627e-01
-4.833899682358407113e-02,-5.707735123733868876e-02,-2.691515649732674764e-01,7.874187896925977440e-03,-3.518299267052601726e-03,-2.099405091310862018e-03,2.171206474304199219e-01
-6.605681187722993453e-02,-5.790123074309573570e-02,-3.028155903445408637e-01,-2.762827957672910843e-03,7.225718392438282289e-03,1.774111671178984443e-03,2.413319498300552368e-01
-4.946709722333152148e-02,-6.118999123955881636e-02,-3.328664473874415330e-01,2.764839775492713720e-03,2.344930196552184182e-02,1.554147369326776794e-02,2.820062339305877686e-01
-5.243516033569026180e-02,-6.024705861643334104e-02,-3.090608777532756202e-01,7.362533078533832313e-03,1.517339768727643708e-02,1.471656277324670352e-02,2.557657063007354736e-01
-5.234731492963116961e-02,-4.562928377032157701e-02,-2.871745216572351156e-01,5.069282154822054957e-03,4.013004522682835301e-04,9.745469843998965211e-04,2.384259849786758423e-01
-5.717330751613719508e-02,-5.810676790065526232e-02,-2.907326529984362584e-01,9.557994849973794034e-04,2.587180546711983532e-03,1.227152270553940813e-03,2.331526577472686768e-01
-3.974291365755316940e-02,-6.070097970267690490e-02,-2.870731128002089183e-01,1.482687994801847346e-03,-8.546965904740975182e-04,-4.691598028465084839e-04,2.375654727220535278e-01
-5.118790525417082904e-02,-4.902281159522167697e-02,-2.908392776537028768e-01,1.544893032156121823e-03,-2.852263147895078518e-04,-1.079417350122864968e-04,2.407566756010055542e-01
-6.518279312190325414e-02,-6.002712927003714394e-02,-2.894357310343289580e-01,-4.990142017733316480e-04,-1.750402677464316928e-03,-1.961455739814705994e-03,2.269220501184463501e-01
-5.760279108666965797e-02,-5.511786929648390676e-02,-2.907184976946722843e-01,1.285309012373330546e-03,-5.170855501766930765e-04,-9.961943458455350953e-04,2.343866825103759766e-01
-7.522831127816209662e-02,-5.548261819317768656e-02,-1.973767321591644586e-01,-1.234602153328783966e-02,-1.042977546897078250e-01,-3.236702335066843350e-02,2.322848290205001831e-01
-4.003232416456772857e-02,-5.543796917564386417e-02,-2.856150531482855026e-01,3.690482682046649764e-03,2.934500467873384392e-04,-2.059606641776071318e-04,2.383402884006500244e-01
-6.872286647550585048e-02,-6.103359230832949844e-02,-2.954870443863784057e-01,-3.018679487385562705e-03,1.773485239598093528e-03,-7.191297721169178660e-05,2.307846546173095703e-01
-4.571077784498051022e-02,-5.414569106021402400e-02,-2.880539296548450534e-01,2.503586682636485018e-03,-2.945024316385837964e-04,-6.203259291920587126e-04,2.382801473140716553e-01
-6.214593642888870118e-02,-6.357180339836447647e-02,-3.161921279590325096e-01,-1.577188391818510347e-03,5.921954166441529936e-03,5.285069946108382488e-03,2.537237405776977539e-01
-5.770228964101348224e-02,-4.667006968873819994e-02,-2.886003341276213163e-01,-2.525609845320729487e-03,5.867801980357738312e-04,5.824137390794670559e-05,2.366497665643692017e-01
-5.717715587637656194e-02,-4.932474534318634363e-02,-2.884064404860119946e-01,-9.422624078719904397e-04,-3.813726335532078280e-04,4.861908337598405114e-05,2.352603971958160400e-01
-5.917474035653902398e-02,-6.137696707295488274e-02,-2.924632046693383947e-01,8.730466670283024816e-05,-2.390688748569636153e-03,2.597032744295959053e-03,2.322757095098495483e-01
-5.362217229392768347e-02,-4.613807572787857747e-02,-2.878433397085098377e-01,-1.448175066396704437e-03,-1.011928569759186031e-04,-3.085034440020314409e-04,2.380653470754623413e-01
-5.440188150266617173e-02,-4.988224844167991889e-02,-2.878612180476030069e-01,-1.517667667509611275e-03,-1.252415479510053187e-04,6.042433341037756156e-06,2.357663959264755249e-01
-5.532360963503309137e-02,-5.189717832290513533e-02,-2.890512967800547006e-01,-3.331934970369002103e-03,-8.360647130913773659e-04,-8.246516525670938161e-04,2.355390936136245728e-01
-3.939439318034919368e-02,-6.923124132133720576e-02,-2.699099520175509692e-01,-3.607506256795679246e-03,6.744508795224128488e-04,-9.880015026886520592e-04,2.172398120164871216e-01
-5.425764198035164243e-02,-4.701385743019018126e-02,-1.261453971866909607e-01,4.935946064897459885e-05,1.737033206891963610e-02,-6.272891060964155829e-02,1.358344703912734985e-01
-4.993598974985885564e-02,-5.395543511051273389e-02,-2.658512409284544131e-01,-8.176349447816939203e-03,8.145877057540842903e-03,-5.273759832485439350e-03,2.150598913431167603e-01
-6.100625101386186050e-02,-4.297289925539909961e-02,-2.615010531897571933e-01,7.238754381000068322e-03,7.172791022717251884e-04,5.370297419007297179e-03,2.106756418943405151e-01
-7.908269703828152419e-02,-7.592357688048381736e-02,-2.550550071263677498e-01,2.321025871649202467e-03,6.756187017024883890e-02,-6.990163665995491327e-02,2.447464913129806519e-01
-5.646486256145974436e-02,-5.735125337668106615e-02,-2.901507612695180538e-01,-1.558612624027819887e-03,6.093777211739778796e-04,7.251072594587573304e-04,2.332653552293777466e-01
-6.904299532007010520e-02,-4.501688925612898351e-02,-2.770624785624734576e-01,-9.568344584312859710e-03,4.830641301636687951e-03,-1.556883053560026084e-02,2.234258055686950684e-01
-5.002764396418325765e-02,-5.773260540402828933e-02,-2.781587690856107686e-01,7.175211900725751712e-03,2.556452004153273068e-03,1.038633053791739036e-03,2.247726172208786011e-01
-6.524944382852387870e-02,-6.576122096243380843e-02,-3.046174706366771012e-01,-6.709342142904844292e-03,-5.793907005865572835e-03,-4.439391886338128757e-03,2.397283613681793213e-01
-3.848811975698163135e-02,-6.394326352673325442e-02,-2.703308865064921740e-01,2.974534386569841708e-03,-9.830444695684160267e-04,-3.327800064889566926e-04,2.202889323234558105e-01
-5.676952368890333250e-02,-6.186509907775749467e-02,-2.200975664250231500e-01,-5.847741820612534572e-03,3.595402383811374669e-02,-4.169436978445846542e-02,1.872583478689193726e-01
-6.233078747294328731e-02,-5.527626904423208615e-02,-2.290199834315326810e-01,-9.023822978578673742e-03,8.486572924773547189e-03,-3.159216259352166933e-02,1.801818907260894775e-01
-6.017196624043749664e-02,-5.323061139959042731e-02,-2.927230097523606522e-01,-7.734194921828049449e-04,-1.150234992576746901e-03,-1.053590957059199335e-03,2.361175268888473511e-01
-3.918363889898630881e-02,-6.351922964106057612e-02,-2.821763875918607001e-01,-3.425651432985813479e-03,3.278564684020263478e-03,-5.436249612118348833e-04,2.319324612617492676e-01
-6.699250551576632629e-02,-5.849483798117960376e-02,-2.952867107254172341e-01,-1.242374233164390655e-03,3.621833077830175548e-03,-2.392814764604070662e-05,2.327539622783660889e-01
-5.817334162540621634e-02,-4.376616840061459124e-02,-2.862166957164152814e-01,-4.367102554372684353e-03,-4.620218440744057345e-05,9.619467611373089776e-04,2.357048839330673218e-01
-6.560136143695352584e-02,-4.050745789306285649e-02,-2.859539500108544408e-01,1.209102344127711555e-04,-4.919870056817584941e-04,1.032249389262647477e-02,2.345951944589614868e-01
-6.041633556423534057e-02,-5.304361543030110260e-02,-2.945599984737682364e-01,-2.295349644735638055e-03,-1.182387816763584738e-03,-1.998855453287814142e-04,2.379579991102218628e-01
-6.299497629281988753e-02,-3.820591550088076049e-02,-2.829858328646713272e-01,-3.525185137894587366e-03,-3.996889066258628030e-04,4.256528485438799275e-03,2.335721701383590698e-01
-6.086161755285687813e-02,-3.948218118237570295e-02,-2.858696475637847456e-01,-9.269743749701005479e-04,-2.657323911245637496e-05,6.475033794820880166e-04,2.364319711923599243e-01
-5.002890906068492571e-02,-5.026695390243290928e-02,-2.915896431534559241e-01,-5.673974069180956568e-04,-5.646437721702111484e-05,-4.511753269838483663e-04,2.414450794458389282e-01
-4.933391139588025331e-02,-5.013339785692372264e-02,-2.912595032540185036e-01,-3.956601083388477567e-04,2.706170407409740856e-04,-2.854748455809277309e-04,2.415287792682647705e-01
-3.949390135744476615e-02,-6.059440586289827069e-02,-2.853121378860338231e-01,-8.555658713192085957e-04,-7.058092631408274917e-05,-1.221376591519180246e-04,2.359813600778579712e-01
-4.894819840141279021e-02,-5.387991185239845993e-02,-2.787368401221450576e-01,-6.687643463771017309e-03,2.926860375417378486e-03,-1.480102009467287264e-03,2.277286499738693237e-01
-5.292985693591470420e-02,-4.621576411421213226e-02,-2.886044671209205825e-01,-1.676234215615734656e-03,2.264052580165183052e-04,1.103204668059512756e-04,2.391203939914703369e-01
-5.305925197182904951e-02,-4.610823237118466533e-02,-2.895453996146443165e-01,-1.643855207265649144e-03,1.837397518794777970e-04,3.928868445328153225e-04,2.400552183389663696e-01
-5.300837130451419021e-02,-4.727043814070897021e-02,-2.882172198978992239e-01,-1.840016001149649911e-03,-1.845082104349779310e-04,-4.708297456585722423e-04,2.381526082754135132e-01
-5.316518721199678388e-02,-4.801646973845646871e-02,-2.905459672574068897e-01,-1.413937544538229488e-03,1.048040532915140051e-03,-9.128709509256179044e-05,2.400159686803817749e-01
-6.299124858266479110e-02,-6.289143062938651330e-02,-2.880168680298499373e-01,9.793361588980370111e-04,-3.824385715761219632e-04,6.553033597250527888e-04,2.250857800245285034e-01
-5.138731536147930767e-02,-5.020988286760083574e-02,-2.921829785146842218e-01,-6.079792605086771582e-04,1.871656280931155913e-04,1.372231586105237058e-04,2.413891702890396118e-01
-5.112611554888586707e-02,-4.900576401764791812e-02,-2.899662027392186925e-01,-2.974079209862556718e-03,2.357884381612772393e-04,-1.282817502654513288e-04,2.399630397558212280e-01
-5.071900060104708730e-02,-5.019895669045906783e-02,-2.919639951101138942e-01,-2.665463655118380194e-04,-2.104967165411330311e-08,1.400240101288891415e-04,2.415059953927993774e-01
-5.072736029219226950e-02,-4.836256923226169013e-02,-2.878296483289708996e-01,-4.252481539235259539e-03,-9.856859346929805997e-04,7.768851826451259653e-04,2.384171932935714722e-01
-5.338711568639786798e-02,-5.341578182347597736e-02,-2.908190171843326732e-01,-1.315210500957397994e-03,8.244576827926460288e-05,-8.396374925733864417e-04,2.374330013990402222e-01
-4.265503696211790652e-02,-6.286591007214641091e-02,-2.860455702424296032e-01,6.334387326857181429e-03,5.903414559551813795e-03,4.608933655207205285e-03,2.345569133758544922e-01
-4.899617300059776193e-02,-5.614334495158371241e-02,-2.910587078826945562e-01,-2.896596350848924546e-03,-1.445659683402780726e-03,-2.032322976368837486e-04,2.386354058980941772e-01
-5.552018145879925037e-02,-5.800540972287290820e-02,-2.934693145882234511e-01,-9.996878274737299157e-04,1.792831392776037328e-03,-5.225289211285411408e-04,2.367447316646575928e-01
-5.171829852434678410e-02,-5.418365767991087378e-02,-2.917341616447947095e-01,-1.109124448413920973e-03,-1.479751268655829857e-04,1.012946913228217523e-04,2.388006597757339478e-01
-5.799966715724588773e-02,-7.331445091675320436e-02,-2.958636837900948668e-01,5.880533915741806891e-04,2.562469093155744781e-03,-1.068113756893725955e-03,2.306407541036605835e-01
-6.781695848378643809e-02,-6.708236356750951757e-02,-2.917594415748540060e-01,5.806868421238248028e-03,-2.370537117739829965e-04,-5.211464029523741595e-04,2.245382517576217651e-01
-3.778122339691369902e-02,-6.321816451811274051e-02,-2.846279375375341258e-01,1.130149594301795924e-03,5.070266839968040140e-04,4.161022254049928561e-04,2.351731956005096436e-01
-4.526415952645157503e-02,-5.061661457651774054e-02,-2.879370510893197732e-01,2.656801850457710199e-03,-2.133610995344038233e-04,-4.334059944026098310e-04,2.400869876146316528e-01
-4.906930286048666323e-02,-5.263947806468835533e-02,-2.892874706393528950e-01,5.606451899077525246e-04,1.021352041227924830e-03,6.211198572490514490e-05,2.384616881608963013e-01
-4.878373512468411888e-02,-4.869553527575568030e-02,-2.906087030281299666e-01,1.208098395257786901e-03,-1.186937396210529849e-04,-2.690966852836333060e-04,2.418786734342575073e-01
-5.345099926904808840e-02,-7.954650395187613798e-02,-3.025725731515468420e-01,6.162740510745444086e-03,-1.377253381209871987e-03,6.355888324704178768e-04,2.374077141284942627e-01
-6.327224099182232608e-02,-6.390422740935744472e-02,-2.875111197676127883e-01,-5.992118475093728951e-04,-6.945719894411044081e-04,-2.827921384466426311e-04,2.239297330379486084e-01
-4.835449785433307279e-02,-5.313200775846818602e-02,-2.901351517395489021e-01,7.862575094088340754e-04,-7.325172979397330184e-04,-3.840583124174497677e-04,2.394358068704605103e-01
-5.699084120103556361e-02,-7.098457892703782801e-02,-2.989518866011648957e-01,3.926725061214523735e-03,-1.785452610682049072e-03,-6.842952247288262803e-04,2.353980839252471924e-01
-3.495076919717965414e-02,-6.528534635110927464e-02,-2.818915715736316496e-01,8.078734051976346362e-04,1.102555466945281286e-04,-1.389726503980732997e-04,2.332619875669479370e-01
-5.092523742708586487e-02,-4.517938241937677346e-02,-3.237482337936918864e-01,-1.391156054547822802e-03,-3.449763789285688678e-03,1.443821919724594890e-05,2.758160829544067383e-01
-5.215300335322217706e-02,-4.706956652825985965e-02,-3.274151072980897026e-01,-2.692009379173717146e-03,-1.813312473165438338e-03,1.621017792971145332e-03,2.779097557067871094e-01
-3.683297214588489299e-02,-6.214182441884269492e-02,-2.847177561813957203e-01,2.366031825374344168e-03,5.775646192509534954e-04,-1.603166538777881520e-04,2.362871021032333374e-01
-5.363697335356179541e-02,-5.564333771987203803e-02,-3.138098132598755585e-01,-8.181232182525594986e-04,2.626527246841104876e-02,-2.847326362566847749e-02,2.677232027053833008e-01
-6.514578984184196675e-02,-6.442721094407846683e-02,-3.288749734022989868e-01,-1.333144669320813699e-03,-3.455476352225054539e-03,-5.820014927120250453e-03,2.643593847751617432e-01
-3.892680432874054408e-02,-6.109803489148898925e-02,-2.864516460675149978e-01,-1.277219984523320518e-03,1.432785046175056188e-03,5.543120987453998248e-04,2.372428178787231445e-01
-3.667071491241451209e-02,-6.403912644930423448e-02,-2.819956777878688814e-01,6.394595362129834029e-04,1.486442860600698868e-04,-1.693139750937540421e-04,2.328531593084335327e-01
-5.070900439736569787e-02,-4.777332573241218489e-02,-4.000607144706568030e-02,1.947966775240452322e-03,-3.726544130198659877e-02,-1.738392894641440506e-02,7.194356620311737061e-02
-5.859289975529746730e-02,-5.898367975584700718e-02,-3.377020448492724647e-01,4.648999562973786526e-03,-2.426596678370685628e-02,-1.946187082577379573e-02,2.841841578483581543e-01
-7.028468612625021761e-02,-7.594524010828973548e-02,-4.979536737407492808e-01,2.374621598849838578e-03,-3.991318579649477671e-02,-1.759787629527272829e-02,4.315519928932189941e-01
-5.134010807070422955e-02,-5.581558852522716663e-02,-2.916875390162704806e-01,9.451172319758219991e-04,1.547436459229141600e-04,4.349214428290960432e-04,2.381481975317001343e-01
-5.659271903044391094e-02,-6.556300594471492493e-02,-3.363447116337442422e-01,-1.443431690011402410e-03,-5.207692986181968603e-02,-1.851915748851645088e-02,2.915533185005187988e-01
-6.868403953847562748e-02,-6.514651708924634743e-02,-3.365454683341784214e-01,-1.888150168619667389e-03,-8.943861379986697488e-03,-4.517961244135768051e-03,2.702253460884094238e-01
-5.650024125051847368e-02,-5.579984386425296261e-02,-2.898094914864340899e-01,-1.092002616072356228e-03,-6.752847486737570577e-04,1.261787434395932311e-03,2.336810380220413208e-01
-3.444495554925533498e-02,-6.409784963568923577e-02,-2.793486046413711232e-01,-1.825744690919744222e-05,-1.975255035311702272e-04,-2.134421259075258541e-04,2.315064668655395508e-01
-4.095556495836855104e-02,-6.132332460458078671e-02,-2.888876840163602244e-01,-1.168596332021564800e-03,1.300563586505957539e-03,4.777914471072727885e-04,2.384223490953445435e-01
-5.329132460844429597e-02,-5.460746807941875558e-02,-2.910853576393543918e-01,-6.055838521645334153e-04,-4.058579303087005456e-04,8.578410048185973458e-05,2.371421158313751221e-01
-5.483241947599112875e-02,-5.509476689036997554e-02,-2.898982227202174800e-01,-1.410151403756007256e-03,2.687232875162664462e-04,6.169656722240003405e-04,2.349503338336944580e-01
-4.432422995432552804e-02,-5.623629901123056163e-02,-2.879907879329398623e-01,-9.958709437518030970e-04,-4.167781029176503946e-04,-3.496528174991929525e-05,2.379416227340698242e-01
-5.817514414015911850e-02,-5.803436054618603401e-02,-2.897256572090382010e-01,-1.286528248884228546e-04,-8.596797580418696384e-04,9.594746328957946737e-04,2.316317856311798096e-01
-5.643995104879563629e-02,-5.532541931328324725e-02,-2.916216913772489150e-01,-6.931623667494463386e-04,-1.090080336233874292e-03,4.381931934232931401e-04,2.357528209686279297e-01
-4.453815828402413191e-02,-5.759351060909538578e-02,-2.880858690329026195e-01,4.284696363239463845e-03,-8.276372488161807574e-04,3.761682729335853400e-05,2.374099045991897583e-01
-4.360303146372748739e-02,-6.401237630274574097e-02,-2.759223872046523418e-01,-7.481799253705579029e-03,-4.442831047382479834e-04,-8.871015012362183866e-04,2.231999635696411133e-01
-4.177693239973398476e-02,-5.701900230554446392e-02,-2.870433995306387875e-01,2.387754447244227508e-03,1.087483000871448810e-04,-2.329363961619204280e-04,2.380480915307998657e-01
-5.300647086991952528e-02,-5.338567937717289547e-02,-2.909649478561301406e-01,1.707755216410362540e-03,6.133006196108954687e-04,6.638678773825887336e-04,2.377926558256149292e-01
-5.002671619781659529e-02,-5.119789683324210694e-02,-2.913870139553097482e-01,-2.787747378339136745e-04,5.002489647184624758e-05,-1.251077915245529493e-05,2.407773435115814209e-01
-4.505631397898005042e-02,-5.372018326019907530e-02,-2.889202177799181648e-01,3.410893277694458051e-03,-1.131013797526678969e-03,4.163542545823091913e-05,2.397302836179733276e-01
-4.683234053843765565e-02,-5.885272394353657788e-02,-2.879090043828784751e-01,1.303763183715324738e-03,9.637045722614820311e-04,1.547897145376644882e-05,2.353136241436004639e-01
-5.215220046489366101e-02,-5.504891919186526150e-02,-2.909782265035034676e-01,4.551306272889273324e-04,1.138996134536050028e-03,7.058189030287763052e-04,2.374035716056823730e-01
-6.272769047100765216e-02,-6.318817508697366359e-02,-2.879826084727928337e-01,-9.230668964375548851e-04,-5.183797326873818131e-04,-8.731878679437973323e-04,2.250375747680664062e-01
-6.324460030333056704e-02,-6.434982572071358542e-02,-2.869874935976294283e-01,-1.270889258375390834e-03,-4.719024022613280979e-04,-8.420174832354260653e-05,2.232047319412231445e-01
-6.169746582374438515e-02,-6.189314003461324210e-02,-2.874561095461327653e-01,6.202177274522685090e-05,-4.938284516371023664e-04,-8.210874659987412979e-04,2.256669998168945312e-01
-6.317817043752255168e-02,-6.270337340586254471e-02,-2.868452740787850175e-01,-1.208854335071691839e-03,-1.171849746817191457e-04,-1.605099778079748115e-04,2.239149361848831177e-01
-4.775527909848359398e-02,-5.325356036733529252e-02,-2.914380894885808537e-01,1.058880574874750125e-03,1.252397130860680293e-04,4.136266198517958678e-04,2.409888654947280884e-01
-4.099360099698157178e-02,-5.803857876396809057e-02,-2.864545195321727689e-01,2.581709939844059956e-03,4.220008358615795073e-04,-1.930801285480197067e-06,2.374410480260848999e-01
-5.322308009378944049e-02,-4.946175138493306978e-02,-2.908982626046119346e-01,9.386506220572399944e-04,-5.317942076922786698e-04,3.195916141325210250e-04,2.395859211683273315e-01
-6.061042276706879450e-02,-6.532214778742485850e-02,-1.036081040973652334e-01,-2.068309700705918582e-03,4.360034363724042683e-02,2.355979528817732718e-02,9.512834995985031128e-02
-5.371011258264591498e-02,-6.326070111212102332e-02,-9.089569808962061348e-02,-2.948376685297095928e-03,5.502497726523364330e-02,2.641529309447175622e-02,1.110020875930786133e-01
-4.352636063834794400e-02,-6.084838765875075217e-02,-2.707651206669886568e-01,5.391847477199051067e-03,1.348290593084762110e-03,-9.752283272181389451e-04,2.193098068237304688e-01
-5.632126510208247672e-02,-7.332927823222955277e-02,-1.311753338646174105e-01,4.014565703921633977e-03,2.399305296480508040e-02,7.755855853062054023e-03,8.108695596456527710e-02
-4.677383751093874831e-02,-5.673314633915384209e-02,-2.879233415781657923e-01,1.344978774615961797e-03,9.654079148710426874e-04,-7.240133794332273727e-04,2.363480180501937866e-01
-6.927208964733068408e-02,-6.592294811880732019e-02,-1.403444651616418959e-01,3.137743725770661581e-03,6.712628468539184011e-03,1.824312715008815505e-02,8.039701730012893677e-02
-6.459057826466360619e-02,-6.272921811278890647e-02,-2.899285247961954637e-01,-3.332498332657128984e-03,-1.560448209027946297e-03,-1.821087027887116540e-03,2.263860851526260376e-01
-3.663430681436094516e-02,-6.105661453497800151e-02,-2.860276901285291329e-01,-2.713958715077789338e-04,2.760358894651878271e-03,-2.431109347467736857e-04,2.381722182035446167e-01
-4.071769248620696335e-02,-6.134786715693321679e-02,-2.854242326715161759e-01,1.258169028483155242e-03,5.788345491738815761e-04,-1.602374284092138157e-04,2.350837886333465576e-01
-7.444552580107448303e-02,-8.037698910187116019e-02,-1.378418554663954632e-01,6.461697195391903148e-04,-3.055872328584221739e-02,-1.087461896963367453e-02,8.267875015735626221e-02
-3.701448653883185336e-02,-6.460112964478582909e-02,-2.868418005305031215e-01,-5.443667986926364541e-04,2.477600076539293074e-03,7.854694296208350121e-04,2.372845709323883057e-01
-4.647540888561825512e-02,-5.377387061787136657e-02,-2.898614868527399357e-01,-1.868241637414656516e-03,5.844766937392520314e-04,3.968647362671503566e-04,2.398451119661331177e-01
-6.163505295655938299e-02,-6.305189890903988015e-02,-2.866047333738195313e-01,-9.790060349553783927e-05,5.179368981991187967e-04,3.824696357865886597e-05,2.242664843797683716e-01
-5.606606176819256548e-02,-4.329256501306696925e-02,-2.886999473384971315e-01,6.337078073029987768e-03,6.155240513865396605e-03,8.033589893711435420e-03,2.401686608791351318e-01
-4.722398686469395090e-02,-5.897610507984832329e-02,-2.901193936996553924e-01,1.006195648008621898e-03,2.213698630631707499e-03,-1.497519555265047590e-03,2.372893244028091431e-01
-7.502325915370350318e-02,-5.929205200616968763e-02,-2.952364907779081449e-01,3.565694052761600539e-03,4.925814207848140322e-03,1.456408893601413967e-03,2.287418991327285767e-01
-3.919258820043944325e-02,-6.100314806608897467e-02,-2.844385891495577745e-01,1.419341713178676016e-03,-2.279296395337896200e-04,-3.163237261907925852e-04,2.351145446300506592e-01
-5.834760658029181091e-02,-5.366742817674538535e-02,-2.541956455321863206e-01,-8.974327699758968260e-04,3.321671642072334101e-03,4.936766903885386748e-02,2.159675359725952148e-01
-4.754329280441221828e-02,-6.104560478946131907e-02,-2.905991716757300170e-01,9.774810776573129682e-04,2.214382544663592422e-03,-6.906092548800813564e-04,2.366340309381484985e-01
-4.042349232091552169e-02,-6.185740052384644527e-02,-2.798797066589338023e-01,3.672850854147006669e-03,4.225806403485635014e-03,4.736875704144198878e-04,2.296974658966064453e-01
-6.731536034004731439e-02,-6.203716419202344456e-02,-2.869991536749148531e-01,6.183497262251398154e-03,3.443008266571083442e-02,-2.161961870557371074e-02,2.334985733032226562e-01
-5.575940284053963747e-02,-5.557827988898819682e-02,-3.341525877255971388e-01,-1.383497100515221822e-03,2.135270691361094986e-03,-4.422289846031281224e-02,2.888591885566711426e-01
-3.693353484397952913e-02,-6.564659651288264064e-02,-2.780834589554053160e-01,-2.482192309745722379e-03,4.081351476649853691e-03,-1.571749947074383650e-03,2.283187210559844971e-01
-7.830832285200331477e-02,-5.950046559398339263e-02,-3.097874594781471203e-01,4.958777876943938623e-03,6.989866046371258357e-03,-1.229988717872104644e-03,2.418984025716781616e-01
-8.303364174772813466e-02,-7.439908260948242813e-02,-3.782282698705498047e-01,-3.015208876687658791e-03,9.077874311573769228e-02,3.825284980921012101e-02,3.448227941989898682e-01
-7.099151644547548046e-02,-5.937874403578999316e-02,-3.315724162848650014e-01,4.348576918480365379e-03,-4.582972111411861768e-03,-3.150711038004895288e-03,2.668573558330535889e-01
-3.428125238579715628e-02,-6.352601297531193514e-02,-2.733623333693998569e-01,-1.786085794836095840e-04,4.416155570141264662e-03,-3.830262320368350197e-04,2.260137051343917847e-01
-6.636160025537343743e-02,-6.084225801970491454e-02,-3.868904968869994465e-01,-2.272529181298629450e-03,3.962938434530199894e-02,9.155881980009498294e-03,3.309332132339477539e-01
-7.814244767419691040e-02,-5.292533025902600163e-02,-3.189521241951213670e-01,8.968799242236198937e-04,2.954594412347530744e-03,1.607807070776035366e-03,2.544289529323577881e-01
-4.626690259921167891e-02,-5.590657959281924994e-02,-2.875740547066369945e-01,-3.044680682330607943e-03,-2.853876426517717611e-04,3.661927584239514015e-04,2.366947382688522339e-01
-7.430062728123648652e-02,-5.909692094915161564e-02,-2.940533456104779120e-01,-6.651686408617736405e-04,1.855967551145849045e-03,8.623427194866917873e-04,2.277660220861434937e-01
-4.036908138933276158e-02,-5.941253796307606472e-02,-2.864045764621740986e-01,-1.489842247705200871e-03,1.686914672483012714e-03,-9.258997683181196224e-04,2.371255308389663696e-01
-3.738939247875634753e-02,-6.252842960045557064e-02,-2.803555903159611340e-01,1.054600666754853524e-03,1.292380281232114727e-03,5.135270585319886682e-04,2.314427495002746582e-01
-5.951170368861542770e-02,-4.231937835482130206e-02,-2.841651782354208677e-01,8.725000089286195741e-04,7.340597580537508611e-04,2.496163003578594480e-03,2.337726801633834839e-01
-6.685358164621865718e-02,-4.267283671193827788e-02,-2.722671393175645216e-01,3.535513953862369409e-03,4.169316303371561547e-03,1.012084908570622804e-02,2.194161266088485718e-01
-5.960305420006906107e-02,-4.256286464639133515e-02,-2.824797855828625748e-01,4.253568503612274385e-03,1.537336416459652829e-04,1.242511550619723824e-03,2.319940626621246338e-01
-3.693087654689498900e-02,-6.311934799206254942e-02,-2.812891302371580693e-01,-1.907010000151424661e-03,7.411670992425378941e-05,2.697594834025835432e-05,2.323969751596450806e-01
-5.167010132064545069e-02,-5.701742366995662947e-02,-2.905380092332778830e-01,-2.212511573581048014e-03,7.555906847823112534e-04,1.184962879558980244e-03,2.362832576036453247e-01
-5.996778078135497903e-02,-4.125245876706457038e-02,-2.868707979511858630e-01,1.737290111500026501e-03,4.502065848078192823e-04,6.121983528096014079e-04,2.368387430906295776e-01
-4.929473454495093138e-02,-7.160437875661961049e-02,-2.114387294647562809e-01,1.981337842793518792e-04,1.999676209714284364e-02,-4.154262046057219382e-03,1.562770754098892212e-01
-4.325511012456392801e-02,-5.583710112466777620e-02,-2.862261959840277648e-01,-1.262988319762349890e-03,5.605324832951768610e-04,-5.900031714606702830e-04,2.369450777769088745e-01
-6.935997591586050282e-02,-7.965508030305670784e-02,-1.643649110833374505e-01,-1.096368893858719345e-04,-2.265981145127862056e-02,-9.181995178231275312e-03,9.973567724227905273e-02
-6.177574109034382477e-02,-3.420035144209716826e-02,-2.752748899092525847e-01,3.170087277211396451e-03,1.079646941684801178e-03,3.957840604588908247e-03,2.287143468856811523e-01
-4.611142505253065793e-02,-5.360812563929673313e-02,-2.884140298550059156e-01,-2.102082164803318037e-03,3.964005005279224803e-04,3.688738491863562466e-04,2.386721968650817871e-01
-4.528167776744200512e-02,-5.644960473526942912e-02,-2.887516446926252645e-01,-1.333474434734309173e-03,9.853289666352667807e-04,5.702550016101081727e-06,2.380998581647872925e-01
-4.890555343521868492e-02,-5.114689176057349296e-02,-2.911151670657250445e-01,-7.012479995275661864e-04,3.226330209681469905e-05,5.375310628388891491e-06,2.410998195409774780e-01
-5.601614849859573586e-02,-7.008192949841010599e-02,-5.117374121357458616e-01,-1.710172187089147727e-02,3.152853356421593534e-02,-2.768860814765312581e-02,4.556634426116943359e-01
-6.128499305146045684e-02,-4.004535840926609636e-02,-2.829674448287059496e-01,1.203094210981118465e-03,-5.825672908907511376e-04,1.017238829417163593e-03,2.330475300550460815e-01
-6.281777089309094342e-02,-3.535649390961209670e-02,-2.810744508951254494e-01,1.534632755217885591e-03,3.214704292959593736e-04,-5.669017924290988735e-04,2.332210242748260498e-01
-5.297802673405413443e-02,-5.062752059328859411e-02,-2.901723479181610443e-01,-1.279538343944859992e-03,-9.400217343435178291e-04,-2.300230254006041357e-04,2.383944541215896606e-01
-6.500108159906820005e-02,-6.157022736870615409e-02,-2.903184325499879592e-01,2.694413682430964272e-03,-1.051337845091305807e-03,1.384694768073609170e-03,2.271201461553573608e-01
-5.274455268941175001e-02,-5.261095047005753811e-02,-2.905362660065820002e-01,-9.489332165319230373e-04,-2.843514909924956457e-04,3.424292245160191631e-04,2.378654778003692627e-01
-4.815546106954823879e-02,-5.318802084150685283e-02,-2.886054288480036645e-01,5.655881916509141773e-03,1.987095225595906080e-04,-6.046142922916335053e-05,2.381754219532012939e-01
-5.419632665515840275e-02,-5.378927442714223628e-02,-2.907897820265157307e-01,4.992420268812023304e-05,-6.326275188901792773e-04,-5.537212694558724026e-04,2.368017435073852539e-01
-5.074919922629556046e-02,-5.336006669115730960e-02,-2.897032546952820753e-01,1.404394007747232758e-03,-1.061893467223969778e-04,-9.856764043424484124e-04,2.376780360937118530e-01
-5.202831171391562870e-02,-5.288272923925205204e-02,-2.904496559606811190e-01,1.075704867487608466e-03,-6.289929061436224690e-04,-5.691285346823612284e-04,2.380071133375167847e-01
-5.702043449754862214e-02,-4.158023893302442708e-02,-2.874688444350013694e-01,-1.749877269998121460e-03,1.094755466271049539e-03,-1.130033344962530018e-03,2.385783940553665161e-01
-5.146514306177285558e-02,-4.520013997282040785e-02,-2.799002888988533222e-01,4.466044490148559504e-03,2.579500948459473482e-03,1.875499999932142602e-03,2.318261563777923584e-01
-6.941808592019814428e-02,-4.856364491208438328e-02,-2.466017780935515491e-01,5.741976371083069852e-03,3.925808372369534761e-03,1.044330354724515818e-03,1.888715326786041260e-01
-5.465399813123217321e-02,-5.571727961248962302e-02,-2.891452634155901036e-01,2.416470212754388315e-03,2.954364997406324321e-03,1.643095558817659479e-03,2.340721189975738525e-01
-4.575681738793836717e-02,-7.257250973025608509e-02,-2.343538328587880248e-01,2.040270942455848883e-03,3.069430597795202824e-03,6.376512941184239898e-04,1.768404096364974976e-01
-5.744871801538203870e-02,-5.903854358840346372e-02,-2.901320913807658997e-01,1.661159649913690028e-04,2.028338836880770601e-03,-1.781107005953767950e-03,2.319398522377014160e-01
-5.110362502229187642e-02,-4.973087348010510333e-02,-2.898354068796712424e-01,3.228056244690611504e-03,-2.792489815983659109e-04,-8.029019529623209958e-04,2.394909113645553589e-01
-3.996917169274784298e-02,-6.243453000202103809e-02,-2.679676683016615768e-01,2.681475399023919813e-03,1.654501752193190955e-02,2.566353312023255707e-03,2.196098417043685913e-01
-4.895839202326604522e-02,-5.327050168918048834e-02,-2.755748147731310604e-01,7.554472020614995398e-03,1.853177096057730903e-03,2.910474754135480542e-04,2.248959094285964966e-01
-5.122780148042407888e-02,-5.812790213897947589e-02,-2.903710185696089519e-01,9.087986580224637154e-04,1.183732478927396496e-03,-9.124062970469532701e-04,2.357883751392364502e-01
-3.899044364915080219e-02,-6.512594631865339934e-02,-2.775037629946196516e-01,1.903358392069293874e-03,2.003216819214084527e-03,5.676515732442703743e-04,2.266315817832946777e-01
-4.247110832873296493e-02,-5.996913649864836493e-02,-2.876803610995983806e-01,9.697896570633024026e-04,2.119565824641140867e-03,-5.746375187713290839e-04,2.369817942380905151e-01
-7.497563031193646421e-02,-6.277312800619697097e-02,-4.877924434419848021e-01,1.284686574774912896e-02,-7.743370165480356268e-03,-1.951986920533266279e-02,4.212150275707244873e-01
-6.015644228841701691e-02,-4.048476060604001836e-02,-2.857275134895383428e-01,-4.731106037786076898e-03,-1.940822929590280219e-03,3.020024451300297539e-03,2.362466007471084595e-01
-4.435892681498641854e-02,-5.885688448865426803e-02,-2.878545339313078877e-01,2.644253514151543010e-03,1.666893233076823921e-03,4.226941212900213094e-04,2.366431057453155518e-01
-5.057664576992700056e-02,-5.170972612295922366e-02,-2.814682933122800712e-01,6.022804718816758378e-03,2.607458179235960924e-04,8.344001544077822487e-04,2.305682897567749023e-01
-5.938877013227186752e-02,-6.003967594155980303e-02,-2.884428151060235423e-01,-1.903818999832529533e-04,-8.157421673852542545e-04,6.894909334117821798e-05,2.287339121103286743e-01
-5.779562535242879773e-02,-6.898252398665428997e-02,-2.885194055552477432e-01,9.725811016946207463e-03,2.327354724835513367e-02,2.872046167907433070e-02,2.348635047674179077e-01
-5.962801131403933086e-02,-4.000958007491606239e-02,-2.829169859317489655e-01,-4.738103425841263747e-03,-2.510186606657509138e-03,3.252562636276243140e-03,2.339688390493392944e-01
-6.639995807820560370e-02,-6.193584157315168426e-02,-2.881371889870456560e-01,-1.347990805314329844e-03,5.390291827358811199e-04,-3.855014233840251122e-04,2.240177541971206665e-01
-5.910958032599737677e-02,-5.429362436343324050e-02,-2.911388234835523559e-01,-3.292431629471699226e-04,-2.698176103736554983e-03,-3.392374274744669807e-03,2.345951795578002930e-01
-4.773578113024896930e-02,-5.405484336816521185e-02,-2.891638490634923508e-01,2.423549549555056512e-03,9.624166677595618474e-04,1.895796399858335022e-04,2.383743971586227417e-01
-3.675375131584598942e-02,-6.165972429016210177e-02,-2.862249262064565647e-01,5.524721693045211730e-04,-2.552399474225395398e-03,1.587132846934398802e-04,2.380407303571701050e-01
-3.673039491671570289e-02,-6.609463715878061141e-02,-2.720948714924171230e-01,3.262210756597025353e-04,1.217502992393212067e-04,-1.716903466265794404e-04,2.221437543630599976e-01
-6.462392603568743732e-02,-6.259276877497707559e-02,-2.897325492697975791e-01,-3.182346039569691667e-03,-1.596408912750080710e-03,-1.489774083587307564e-03,2.262298315763473511e-01
-6.190985482173400056e-02,-6.421077525537524644e-02,-2.887070424434841076e-01,-1.033040216989126580e-03,-6.482188244310289719e-04,-2.643728012694282719e-04,2.256658822298049927e-01
-6.118422980673537959e-02,-5.883589261787594560e-02,-2.923085476223803436e-01,-1.492999781138543776e-04,-1.232868324606928171e-03,-1.007205871381370871e-03,2.323238998651504517e-01
-4.703817738886399702e-02,-5.683466556821162308e-02,-2.896475477856285119e-01,1.358347752942659810e-03,1.067643223828772855e-03,-1.319995069374892680e-04,2.378814071416854858e-01
-6.227877364159595253e-02,-6.526001280537226112e-02,-2.877592026628140731e-01,-3.560571007943994642e-03,-7.925359039974295668e-04,-7.245060035639056591e-04,2.240972816944122314e-01
-4.477545191912402078e-02,-6.374741827623811585e-02,-2.920922332191693283e-01,7.894821334105309825e-04,-8.885106018849158599e-03,-1.388090578474215821e-03,2.389098703861236572e-01
-5.128192669989772856e-02,-6.099005299945348124e-02,-3.169628891864011977e-01,4.446537257800535665e-03,-9.608041409607595562e-03,-1.314076157300879963e-03,2.616157531738281250e-01
-7.069761569284897795e-02,-6.232269981697478867e-02,-2.073656593010111959e-01,4.346678674810016546e-03,2.654400598895844277e-04,2.764034775234196564e-03,1.413247585296630859e-01
-7.176603692672359203e-02,-6.133945860300191177e-02,-2.920131006539501972e-01,4.482712447977762332e-03,5.293883068263241076e-04,9.654953240273981456e-04,2.257826924324035645e-01
-4.294850615694967289e-02,-6.126313893287493872e-02,-2.876330494913699742e-01,-1.450182869540586833e-03,4.830824551458673594e-04,-1.279011836269930511e-03,2.360859215259552002e-01
-6.812310594864214031e-02,-6.223843561031351668e-02,-2.910993822377927476e-01,-1.204817822995035356e-03,-9.472991064440156820e-04,-2.251299259000648899e-04,2.259920090436935425e-01
-6.207911569202240187e-02,-6.461943380502604972e-02,-2.875134110821774835e-01,-5.629191074308687211e-04,-1.625323877592132560e-04,-2.668988952629923255e-04,2.241777032613754272e-01
-4.984293144807380727e-02,-5.519998014707765133e-02,-2.900987257937062136e-01,1.418906367680285900e-03,3.685104234132062506e-04,3.208680668365732546e-04,2.376367747783660889e-01
-4.853860291571752972e-02,-6.284657899087006672e-02,-3.026060073255035787e-01,5.012616444258876335e-03,-3.062163864181541642e-02,-5.455009749272482847e-04,2.530001997947692871e-01
-4.946026007959185289e-02,-5.414537283249275246e-02,-2.898809217749762634e-01,-1.957671483294203939e-03,-3.708029547773339547e-04,3.150376513637728683e-04,2.381383031606674194e-01
-4.554750648949035252e-02,-5.673942292815883914e-02,-2.903359989269290731e-01,-1.330417589882860845e-03,6.885242719063076194e-04,6.081819656994968872e-04,2.394052147865295410e-01
-4.341781150727422323e-02,-5.476786914409652318e-02,-2.824056663984063631e-01,-5.689779526202089557e-03,3.832367398171879409e-04,7.999560516786289287e-04,2.337327003479003906e-01
-4.360950317785802777e-02,-5.866883407266729189e-02,-2.804556164084480718e-01,-6.314574459355938585e-03,6.858358673936309699e-04,-6.687516893039617636e-04,2.299532443284988403e-01
-5.310111957156347928e-02,-5.761906129297672541e-02,-2.901040921712998988e-01,-4.956750253444427989e-04,1.077835419439529194e-03,8.118687737953197980e-04,2.347898036241531372e-01
-5.875374950576106592e-02,-4.595028292514020951e-02,-2.721159042737965050e-01,-8.292871873122172055e-03,5.030762147361626628e-03,-7.112929445646684092e-03,2.210274487733840942e-01
-5.051951225659331857e-02,-6.065872609816852501e-02,-2.935626899751160868e-01,-2.133740455860718170e-04,-8.839407886951533566e-03,-1.109011322089153984e-03,2.386351972818374634e-01
-4.974895897520824339e-02,-5.116109512368147150e-02,-2.905168442994887634e-01,-1.285845256106628396e-03,1.377403835006768182e-04,3.194832934801916636e-04,2.400760203599929810e-01
-5.549328232241479419e-02,-5.833094209611941472e-02,-2.906477454158666873e-01,5.409990241529844240e-04,1.340431130714130493e-03,7.041234543424257364e-04,2.337651401758193970e-01
-4.359276505643733257e-02,-6.145363681069386519e-02,-2.890647334216515096e-01,6.177523669035098024e-03,-6.689923194499305947e-03,-4.253021928185992534e-03,2.376850247383117676e-01
-4.678519087833257761e-02,-5.570319541381925366e-02,-2.876742934736851165e-01,1.084194428704460082e-03,3.065521610010772452e-04,8.443925822822944457e-05,2.365643084049224854e-01
-5.795707627200152867e-02,-5.585632491595307614e-02,-2.906340188885943032e-01,-8.809837769884484122e-04,2.807484328742482086e-04,-4.148737655167406246e-05,2.337398976087570190e-01
-5.404385711029269235e-02,-5.526310524133615232e-02,-2.898720921220532265e-01,-4.953133668033685415e-04,-1.207905272995300847e-03,-1.587502513624881864e-05,2.352318465709686279e-01
-4.942828749120441179e-02,-5.464510993448080944e-02,-2.907471688724774239e-01,-4.917955923235057310e-04,2.080118922047274682e-04,7.729652841889908315e-04,2.387587577104568481e-01
-4.325577640363958976e-02,-6.062845966578642165e-02,-2.877165436484794281e-01,1.564961773667612310e-03,-2.083893766021015410e-04,-8.803484190386840500e-04,2.362747192382812500e-01
-6.335066973828790138e-02,-3.661384490785450641e-02,-2.836714424970760429e-01,-1.185862673247301859e-03,-2.023520533132115826e-04,6.056153528413892387e-04,2.348451018333435059e-01
-4.165993179083757325e-02,-6.700769045655453893e-02,-2.764142570873662219e-01,3.193724960698005738e-03,-1.024360768422426585e-02,-1.042424613811654627e-03,2.239425331354141235e-01
-7.105367537252824106e-02,-6.835666958404246207e-02,-4.632922034829585201e-01,8.504609501047966785e-03,3.366624485225566676e-02,2.773888156819112258e-02,4.010508358478546143e-01
-5.119899259717891615e-02,-5.750329651318827895e-02,-2.906930166059235598e-01,8.958337633018881264e-04,1.175449489193511289e-03,-1.004211134377112381e-03,2.364251762628555298e-01
-6.016902610081228953e-02,-4.784717963531567864e-02,-2.503449139089355402e-01,-6.834461267066153922e-03,1.035120074477802665e-03,-1.162840005554486179e-03,1.970010548830032349e-01
-3.941647325263090973e-02,-6.113668113275935734e-02,-2.844497046204952362e-01,1.300710120490031424e-03,-3.484200576711716049e-04,2.409680963921347941e-04,2.349393367767333984e-01
-7.816737183699654090e-02,-6.533469180530437903e-02,-4.656390898654887978e-01,9.767314692626314840e-03,1.491299300643010757e-02,3.326213334125130427e-02,3.994293510913848877e-01
-6.499881899647752537e-02,-7.011464246129611722e-02,-3.000088847674784454e-01,6.237524598811059265e-03,-5.020616425131060878e-03,5.568817960515927423e-03,2.331072837114334106e-01
-6.412831662612980543e-02,-6.062253459434156777e-02,-2.867199230763252671e-01,-7.396605088859131748e-04,-1.177719605112542678e-04,3.047639450035567396e-04,2.243694067001342773e-01
-6.407440565762936857e-02,-6.271405963960280383e-02,-2.871800905480921262e-01,-6.943082584536335294e-04,-1.344874162571805002e-04,3.417348387283633505e-04,2.237930893898010254e-01
-4.968303307672566893e-02,-5.710426252226143140e-02,-2.875692400574286767e-01,6.168988087474154038e-03,1.406503136483986532e-02,3.708996685499657900e-03,2.358568012714385986e-01
-6.037761997345122977e-02,-7.436547262363209232e-02,-3.247050407940191841e-01,3.103529030652416856e-04,3.993517868187408497e-03,-3.667600796024995946e-03,2.577901482582092285e-01
-7.869823736181916218e-02,-5.845673937674857046e-02,-2.935893338981538925e-01,-1.823886755513555674e-04,7.538499937242822352e-04,2.078283876432664883e-04,2.256979197263717651e-01
-3.929959930555375347e-02,-6.374230133680812427e-02,-2.745525199613920164e-01,6.079863162697622322e-03,-9.870362587332127523e-04,2.576039165471585022e-04,2.242881655693054199e-01
-5.976448403763490180e-02,-6.053757966309836203e-02,-2.898217648167826233e-01,-6.543633417120401025e-04,9.188740903359926451e-05,2.050493367209325034e-03,2.297020256519317627e-01
-5.688508441939452154e-02,-5.928261667197232132e-02,-2.873736328718047295e-01,-5.853940060933614242e-04,-6.596296238000808271e-04,8.945436303884682361e-03,2.298271358013153076e-01
-5.005589037724304802e-02,-5.716766011244256429e-02,-2.896041142100945209e-01,-5.022991177484222285e-04,-8.131414636711684898e-04,8.144585467511239766e-04,2.360827177762985229e-01
-6.870041127908840806e-02,-7.998128229118661725e-02,-2.069535662893084715e-01,-1.729332772514756422e-02,-8.592555930992945568e-02,-9.436466724366004977e-02,2.596968114376068115e-01
-5.830163412041605708e-02,-8.438794788678292969e-02,-4.800992256554462156e-01,9.085319513189471508e-03,-3.699705265242304864e-02,-2.895083085888667043e-02,4.176828861236572266e-01
-5.807641059107104820e-02,-6.804613388929700579e-02,-3.326430747743061023e-01,4.089026028880413631e-03,1.757813487197621002e-03,1.072368013370693417e-03,2.698365747928619385e-01
-5.865939002226447374e-02,-5.083601740438305205e-02,-6.014273064587883494e-02,-3.620984054504993669e-03,-1.867095272278558593e-02,4.524929195053039449e-02,8.545556664466857910e-02
-7.644911732762482703e-02,-6.554540879789852448e-02,-1.508920907272628398e-01,-7.526694568179752819e-03,-3.191770406390283428e-03,4.425548594966012550e-02,1.120201349258422852e-01
-5.666206129630801946e-02,-7.684982829879122290e-02,-4.865664403062765486e-01,1.632209338633707624e-02,1.760223333025963399e-02,1.286787656739883656e-02,4.228143990039825439e-01
-7.148510704812835459e-02,-7.857862595207713852e-02,-1.616577098770946852e-01,3.135692524021903814e-04,8.462573046410345112e-04,2.503626922465154400e-04,8.685854077339172363e-02
-4.838150659866227721e-02,-6.099937449750031382e-02,-2.902850722171569364e-01,-1.032914324938328209e-03,1.976978573901732456e-03,6.446002843549528344e-04,2.358821928501129150e-01
-7.344009815031103672e-02,-6.523406186107677529e-02,-1.912184135708783761e-01,-7.280782688614752154e-05,5.313261979959240169e-03,1.968420190450165599e-02,1.270931810140609741e-01
-6.163511718896916292e-02,-6.228747384751117527e-02,-1.023502021620132096e-01,6.290355727663163310e-03,2.571472605589350188e-02,2.413351290257114562e-02,7.403586804866790771e-02
-5.380731760418328014e-02,-5.420148971316643416e-02,-2.903209015440350038e-01,1.346558055800294322e-04,7.652098069822244096e-04,7.150909315946137740e-04,2.363238185644149780e-01
-6.097432562018847979e-02,-3.693964242794178787e-02,-2.825312581743302243e-01,-9.759602821440245069e-04,6.878466142110723977e-05,-6.825313241286144663e-04,2.345089763402938843e-01
-6.465372255968865334e-02,-6.657400605188563969e-02,-1.270902908144619925e-01,-1.438726397450570049e-03,2.497093621182172943e-02,5.356844149514256720e-02,1.194474920630455017e-01
-6.674234110787133356e-02,-5.837516639980172561e-02,-2.908241429178065607e-01,-3.274547781587265009e-03,1.805347182475924243e-03,-1.147599129357127238e-03,2.284808307886123657e-01
-4.407067745092531352e-02,-5.834811023515140693e-02,-2.903790205254048740e-01,-1.571858447848691271e-03,3.830561924788783434e-03,-7.148447776994147022e-05,2.395964115858078003e-01
-7.843548689378201932e-02,-5.934590663917285736e-02,-2.958548744235246497e-01,-1.604138738465220575e-03,-1.689779952674154602e-03,-3.631531439133783498e-04,2.276021242141723633e-01
-6.970805155554184174e-02,-6.316789913136361401e-02,-3.016007253568305235e-01,1.401543998393261830e-03,-3.478990299773987264e-03,1.857064238892846327e-03,2.353426218032836914e-01
-7.203706428944063600e-02,-5.786805061939800932e-02,-2.909647718398159499e-01,-1.376084988676162281e-03,2.029603805000315155e-03,-1.355855505069514634e-04,2.263850420713424683e-01
-7.254559796066631372e-02,-6.870505736894708115e-02,-3.391088340447880878e-01,-9.021874689631968758e-03,2.584461326139188275e-03,-1.631480231267005282e-02,2.704758644104003906e-01
-6.269986002010098647e-02,-4.144445732763783752e-02,-2.839626161043307118e-01,-3.216482151313646617e-03,2.654025741684715883e-04,1.850703186399275555e-04,2.326872944831848145e-01
-6.798097468711696012e-02,-6.020374057350341701e-02,-2.902962707437914958e-01,-3.162154896880277864e-03,1.573940062330662134e-03,-1.163762860800442471e-03,2.263958156108856201e-01
-7.326175186925279470e-02,-6.251893266282410044e-02,-2.918908423331398883e-01,-3.245002469462098839e-03,-3.360064539790711541e-04,-5.757151044548977203e-04,2.242670357227325439e-01
-5.338374231347206567e-02,-4.577609990699584019e-02,-2.644479714656741143e-01,7.813269962033641408e-03,5.515269599655925337e-03,3.825408898009759629e-03,2.157080918550491333e-01
-7.463326398564495978e-02,-5.899911777625565373e-02,-2.159367554525994659e-01,1.096504011914904361e-02,-3.236046568147789293e-02,-4.288548045689319355e-02,1.773134320974349976e-01
-5.768138236956407705e-02,-5.791422933500539605e-02,-2.936039809827026836e-01,-9.004163151573341692e-04,1.221823605235699585e-03,6.986809328972350738e-04,2.358240187168121338e-01
-5.941129240276968315e-02,-5.709254665115066907e-02,-2.926990710155558117e-01,1.337255300992603972e-04,2.909621303685257752e-03,-9.649862698198311982e-05,2.345100790262222290e-01
-5.553775875814420671e-02,-5.308024587035228142e-02,-1.542308479002262311e-01,-2.438932184038665701e-04,-7.018841688400096097e-03,-7.403175516419327473e-02,1.630306094884872437e-01
-5.415021077351050982e-02,-5.759566954242283099e-02,-2.903433597033385216e-01,5.004961342459398585e-05,2.173937069809375754e-04,1.585674110316762477e-03,2.345058023929595947e-01
-6.413796077747255242e-02,-5.145065462305523085e-02,-2.929874837261143838e-01,3.704360615969415251e-05,-3.037782898917117547e-04,-1.023379191653181648e-03,2.354569584131240845e-01
-5.838849660965983457e-02,-5.741852038557454518e-02,-2.898828970061117505e-01,1.895377191885146685e-05,-1.603807703115788744e-03,1.135350112474849994e-03,2.320058792829513550e-01
-5.517863100100849072e-02,-5.235192697970300624e-02,-2.906468140516217380e-01,-3.040085940341816879e-04,-9.147102634746056334e-04,6.073978446729038586e-04,2.369024008512496948e-01
-6.169121979322310378e-02,-5.998066449746790318e-02,-2.885503637964916268e-01,-6.044752137579676408e-04,1.391587796387233839e-04,8.434526874162324040e-05,2.277218252420425415e-01
-6.869685607425721208e-02,-3.885826328881863967e-02,-2.843391781782079186e-01,1.832707092633008295e-03,4.099329136306755134e-04,-9.379836865976248078e-03,2.325960844755172729e-01
-6.276739347763564403e-02,-6.220463885329689802e-02,-2.879171441934795794e-01,6.006141400265697320e-04,-1.252452265440394527e-03,7.258975685829065390e-04,2.254479974508285522e-01
-6.120747016282902797e-02,-3.805141123184729857e-02,-2.770711694263492397e-01,-4.218637627131347628e-03,-1.957777457689235912e-04,5.692445867386956501e-03,2.286539077758789062e-01
-5.766932282263285969e-02,-5.910138528991804030e-02,-2.915791689451547875e-01,1.379644028438027452e-04,1.829639811060935952e-03,-1.289063088444951030e-03,2.332294583320617676e-01
-6.758750655914136374e-02,-6.278049303711594198e-02,-2.882981798217200131e-01,-1.558428461684180409e-03,1.970147994002694445e-04,3.998110096758625124e-04,2.231706678867340088e-01
-5.873790648295992844e-02,-6.092005237665183703e-02,-2.927757884285271395e-01,-1.263162846447960571e-04,3.937905588037124861e-04,6.379581544048806927e-04,2.329581975936889648e-01
-6.300848392070970694e-02,-3.695027607437705031e-02,-2.814463944034745202e-01,-1.121204815456798218e-03,-5.086260339155146892e-04,8.409391924866256715e-04,2.325788438320159912e-01
-5.627560909319809235e-02,-5.335876027189498383e-02,-2.910667706273024069e-01,2.788715389613486643e-03,-2.939122076317029694e-03,-2.794289689176879341e-03,2.364168316125869751e-01
-4.796895683363669449e-02,-5.743339299477791260e-02,-2.898875844484543052e-01,8.551874317750912495e-04,-1.017047320399502592e-03,1.211830550402773383e-03,2.373484373092651367e-01
-5.876359307458695058e-02,-5.748039515705852254e-02,-2.919121657711769013e-01,-1.121320652837534362e-04,4.046175698926817300e-04,1.966839242129653144e-04,2.337941974401473999e-01
-6.630851644448165771e-02,-4.731788970800834826e-02,-2.255497347644817574e-01,6.591647944610022972e-03,-2.244352353898475434e-03,-4.246189677675904495e-02,1.851944923400878906e-01
-5.879967994273123388e-02,-5.942333302839920839e-02,-2.887221777365305275e-01,-1.101531193659262422e-04,-8.211717942288771638e-03,-9.345319908315472685e-03,2.306202352046966553e-01
-5.291174006660205598e-02,-5.072355807735628996e-02,-2.900621994299376061e-01,-1.700285014768154529e-03,-6.646943600478082614e-04,1.129673859698567337e-04,2.382731437683105469e-01
-5.001158539358471766e-02,-4.904261524749388423e-02,-2.914703297364671930e-01,-4.582860441801655713e-04,-3.405437939132345874e-04,3.842052920599542225e-04,2.419476211071014404e-01
-7.584237252674366769e-02,-5.141463487194744553e-02,-5.149410702453749433e-01,7.722742254484383541e-03,-3.860042280818557631e-02,4.658082099442782675e-02,4.639922380447387695e-01
-6.196200320802643102e-02,-6.402594546679793441e-02,-2.872421679890535540e-01,-5.128815817722165264e-04,-1.454945768017658011e-04,3.724790351371457388e-05,2.242572307586669922e-01
-5.004501146010441326e-02,-5.064018438280423751e-02,-2.919712355870673903e-01,-2.787296070033625796e-04,5.003575616545016553e-05,-7.865702677628311663e-09,2.416296899318695068e-01
-5.028814265960626639e-02,-4.900391843812890169e-02,-2.909790822222421136e-01,-7.875788826326996081e-04,-2.691118630785169046e-04,6.641292312198556369e-05,2.413399517536163330e-01
-7.803896323492270914e-02,-6.243281915657727943e-02,-4.918771414328000358e-01,1.121836982030303964e-02,-5.252678571869832079e-03,-1.730327821505036473e-02,4.234649240970611572e-01
-6.777847902799891133e-02,-6.179148762511904591e-02,-3.097436868543831379e-01,1.893466479171405524e-04,2.674061466263237194e-02,3.059061292882177350e-03,2.494093328714370728e-01
-7.059706054888570392e-02,-5.840158760553031125e-02,-2.917414742925314997e-01,-6.669231639330641019e-04,-2.823200538794398373e-05,1.064411051221286894e-03,2.274978607892990112e-01
-6.638620050825130847e-02,-6.035861063712141816e-02,-2.876710312174139972e-01,-9.188209996603356180e-04,-5.561889088175093077e-04,2.311004447831370315e-04,2.243674248456954956e-01
-5.709044711461536137e-02,-5.757368825349110097e-02,-2.910973835062879989e-01,-4.051978961408287424e-04,2.813025232503171477e-03,-2.041606139048409135e-03,2.338442504405975342e-01
-5.500848540815825305e-02,-4.748590225213515648e-02,-2.152196231807086968e-01,8.006873275120198613e-03,-2.206321414453876056e-02,-5.360300467235931676e-02,1.928780227899551392e-01
-3.501230311100415882e-02,-6.511998481284110574e-02,-2.807457200042553502e-01,6.260898369534575233e-04,-2.430224552685295459e-04,1.707550758095637054e-04,2.321515977382659912e-01
-5.089980442451365328e-02,-5.131699892519156481e-02,-2.914707011916419788e-01,-2.235714932029457872e-04,-2.539715242819589095e-04,4.089613247727851930e-05,2.403632998466491699e-01
-4.919179781121235662e-02,-5.118093992826319716e-02,-2.911111941451309804e-01,-1.156331995667442183e-03,1.216707644368485847e-04,4.443461455749232411e-04,2.409406304359436035e-01
-6.010750302173464843e-02,-5.665841377058256079e-02,-2.923550781313660751e-01,-1.115128263679025398e-03,5.460877526789927050e-04,3.350261488462329823e-03,2.340730130672454834e-01
-6.165023162641970755e-02,-5.261487159479222298e-02,-2.935972367587763587e-01,2.110219663358793281e-04,-9.950420960498666464e-04,4.695598223785413423e-03,2.367404252290725708e-01
-7.141104990317335977e-02,-5.517914157830181021e-02,-2.429711285713297975e-01,-1.640261925786975139e-03,8.482221265746811567e-02,1.800337610885557188e-02,2.346187233924865723e-01
-5.900952320868081691e-02,-6.932297630197872818e-02,-3.012205172624942140e-01,-1.042200487733681643e-06,7.469218143690234965e-04,-2.610833072748376671e-03,2.372691035270690918e-01
-5.760346224466678100e-02,-6.177920137919359900e-02,-2.951568662555963396e-01,-1.698565158277000418e-03,-4.169425526102905205e-03,9.966130676694398560e-03,2.362538278102874756e-01
-6.965923429776760267e-02,-5.827829145747127904e-02,-3.299245106533246208e-01,1.529120627655328722e-04,-6.026452417160154361e-03,1.097213872261125836e-02,2.670201957225799561e-01
-6.108020610198502953e-02,-5.956691799869837101e-02,-3.036423334179154665e-01,9.406073388291786783e-04,-9.780169875261163909e-04,1.319834311360241520e-02,2.444051057100296021e-01
-6.482573569386797241e-02,-6.243301586249926094e-02,-2.878740743647777434e-01,1.032384791809831366e-03,-1.897555046222978748e-05,1.054747245423173947e-03,2.242688387632369995e-01
-5.792240346819728380e-02,-5.777219036595312995e-02,-2.894724302451248676e-01,-9.856662489482009805e-05,8.376821111706210694e-04,1.068619461385024189e-03,2.316371649503707886e-01
-3.995631053628202756e-02,-6.412576641664222143e-02,-2.769816781246314807e-01,-4.862937257381920800e-03,-3.716961817043613284e-03,4.101353076541109570e-04,2.261621356010437012e-01
-5.972502437836091360e-02,-5.884014484845986881e-02,-2.898720658723793475e-01,7.507855206852190235e-04,-1.229407326739356777e-03,1.446802243537778990e-03,2.306178659200668335e-01
-6.288871080882207920e-02,-7.707902522859744199e-02,-2.107209668984571793e-01,1.345201193113042346e-03,3.442609165895792016e-03,-3.102062029159049356e-04,1.414186209440231323e-01
-6.225553098397060281e-02,-6.447114354124708346e-02,-2.881322382500435264e-01,9.676111647098892309e-04,9.948382788748785441e-04,-3.940198471414895084e-05,2.247899472713470459e-01
-6.206478652825866971e-02,-6.221968973318221796e-02,-2.880315973113755645e-01,-7.324049944766345896e-04,2.511210217744538594e-04,5.493774462326817551e-05,2.258933931589126587e-01
-5.706276032726771696e-02,-5.448323886009198702e-02,-2.917495489992422142e-01,2.574655924108442458e-03,1.020688101695990235e-03,8.411918210878589763e-04,2.360403686761856079e-01
-6.593104088390028261e-02,-6.310050495036845231e-02,-2.891095707724671282e-01,-1.976658697116821795e-03,7.076920505955514029e-04,1.223313988191945334e-03,2.246465981006622314e-01
-6.177736909379993868e-02,-6.318222013281993288e-02,-2.864518193774248100e-01,2.799350197157977156e-04,-4.711824221336495446e-04,4.322116285007641273e-05,2.239773571491241455e-01
-6.140645664086991085e-02,-6.171859242504967868e-02,-2.892259367822458405e-01,3.713521308614787489e-04,-1.283881306169262857e-03,7.916309659998247632e-05,2.276753783226013184e-01
-7.579649096467262759e-02,-5.376764453884383399e-02,-3.007762434628469261e-01,4.952814391089884263e-03,1.795619636868260637e-03,-2.210071902027483173e-03,2.369707226753234863e-01
-7.713319752984522382e-02,-5.585308702190380781e-02,-2.926487452644749854e-01,-1.643879486688152236e-03,-1.680333843118303038e-03,2.869990352220234964e-03,2.269961982965469360e-01
-6.128873445310556445e-02,-5.603787762009659890e-02,-2.938385923453048498e-01,-2.921031402468616416e-04,5.176351311756747196e-04,4.756749613999106119e-03,2.353657484054565430e-01
-6.839942062128881450e-02,-5.908194004858002835e-02,-2.991971141276177359e-01,-4.396951308732104189e-04,9.989809517497116008e-04,-5.561315489900908737e-04,2.356042116880416870e-01
-7.034849909555312975e-02,-5.955862270792439128e-02,-2.995596844741338916e-01,1.538973256122606534e-03,2.559145598544597649e-04,-4.526146150657943575e-04,2.348089963197708130e-01
-7.407468849735496241e-02,-5.777418878267398528e-02,-3.006752515962962669e-01,2.183717261768486611e-03,8.152958773071345517e-04,-1.033162354968610074e-03,2.352163344621658325e-01
-5.977584964014362456e-02,-6.076062127490045039e-02,-2.898425253495713338e-01,6.976303968892317393e-04,-3.700225768058602524e-04,2.108695774414323740e-03,2.296089977025985718e-01
-6.435380025582482233e-02,-6.366716498073060615e-02,-2.868904328866613840e-01,8.891621649490171007e-04,2.728787085277407356e-05,9.389323736620276044e-06,2.228860706090927124e-01
-7.787691918438061078e-02,-6.336499353687441438e-02,-2.010280261344590536e-01,5.538383751653133853e-04,-2.156065136555896560e-04,-2.009458828118501281e-03,1.310615241527557373e-01
-5.742781305722705065e-02,-5.324783228142457303e-02,-2.853572114003314342e-01,-7.008209318922688225e-03,-8.242660125732899964e-04,5.892202799400510227e-03,2.305982708930969238e-01
-8.019256745858288626e-02,-5.946208170577627072e-02,-3.026503376839747572e-01,1.164232993008090539e-03,3.620426030227625030e-03,8.033849188840439188e-04,2.336112111806869507e-01
-6.320674707809804949e-02,-5.821472817737660677e-02,-2.908918975292270059e-01,3.818071882715960252e-04,-2.689329244330735183e-03,-1.331472517973400060e-03,2.302813678979873657e-01
-5.297492170150015778e-02,-7.484316843299991528e-02,-2.258670725068216700e-01,-2.083773218953295300e-03,-1.490715460597426094e-02,9.359763103312856644e-03,1.659264266490936279e-01
-6.655995712520257346e-02,-6.071734840753781337e-02,-2.878993406183257830e-01,-1.145967235686484124e-03,9.373146425784997056e-04,-1.431825599047010416e-03,2.243461310863494873e-01
-5.967863378233531635e-02,-5.667755667875695735e-02,-2.907102552813601304e-01,1.213433471126238589e-03,1.133742700115591452e-03,2.973717317751160306e-03,2.326215058565139771e-01
-5.961631135213422972e-02,-5.480765352070181284e-02,-2.938942735840415210e-01,-4.834779118696578052e-04,1.099520560434396037e-03,-1.862518687503131971e-03,2.367500513792037964e-01
-4.604600365352892744e-02,-6.194541149822195558e-02,-2.907973323491004347e-01,-1.292810470009426267e-03,3.675746860362937712e-03,-3.426791925169791683e-04,2.372983396053314209e-01
-6.037688070898269976e-02,-5.674567334454039269e-02,-2.976892628832291665e-01,-1.037642389309779371e-03,1.419782696838575199e-03,5.075131119406991326e-03,2.393295466899871826e-01
-6.703419591261139399e-02,-6.039879644304403661e-02,-2.913474331277495777e-01,-1.175446574551902712e-03,8.385858135514861426e-04,-4.063239416470162133e-04,2.277182787656784058e-01
-4.772296645614432231e-02,-6.637594528748494427e-02,-2.986075314671819969e-01,-4.385417741341743163e-03,2.777371111962030278e-02,-5.041142105338157660e-03,2.471018582582473755e-01
-3.715184950765897109e-02,-6.821263648556952219e-02,-2.732411315487767167e-01,2.369841414666879961e-03,-8.693113119866746662e-04,6.949687770875336620e-04,2.222394347190856934e-01
-4.924435196098592149e-02,-5.494152532918802900e-02,-3.311670106994917262e-01,8.230364504486390538e-05,9.367085028107634964e-03,7.767486152643974379e-03,2.799123525619506836e-01
-7.190086768768594316e-02,-7.419321600492302660e-02,-3.773242493550946763e-01,3.703012959866661298e-04,-2.894618988122391046e-02,-8.284267332978420550e-02,3.401342928409576416e-01
-4.608148868340049276e-02,-5.993746074783015687e-02,-2.880247225814975831e-01,6.557618704482611437e-04,8.549478217837550844e-04,3.667226628098883986e-04,2.353296428918838501e-01
-5.370981354777132344e-02,-6.012609335244332998e-02,-2.912653319405460461e-01,-6.890593099965362572e-04,1.571353718785123811e-03,-1.774773086321311099e-03,2.344522327184677124e-01
-4.784207326343470346e-02,-6.060504218209150640e-02,-3.030109206070362160e-01,-5.251953231948638424e-03,7.096469670818731507e-03,-5.344800264955679170e-03,2.496734857559204102e-01
-4.846186287543380322e-02,-6.003676880322833531e-02,-2.949130564134393451e-01,-2.799477298571157249e-03,2.182279763457813451e-02,-1.162506913931280264e-02,2.446981072425842285e-01
-7.247334447899136944e-02,-5.869371290881483794e-02,-2.921967383206679481e-01,-1.011971972939660659e-03,1.602310319120608213e-03,-9.371271757531545983e-04,2.269567400217056274e-01
-6.895557976489403995e-02,-6.198873217532720192e-02,-2.994936660098481696e-01,-6.019050624220880245e-04,-2.082937401169700740e-03,-2.396408728813342187e-03,2.341661751270294189e-01
-5.047706409228187863e-02,-5.317807286198808492e-02,-2.725393486294305223e-01,-9.079251582540501936e-03,-5.236188516357764399e-04,-9.651628460451396941e-05,2.212855815887451172e-01
-5.415715187233306749e-02,-4.939059603099710261e-02,-2.899670496414121779e-01,-3.043057988301905645e-03,2.120166450871228362e-04,-3.668335874203784556e-04,2.382883727550506592e-01
-4.142629559056601463e-02,-6.200059376767519392e-02,-2.838997801764818751e-01,-3.262712911631017280e-03,8.316875727628998878e-05,-1.637311427901004578e-04,2.329377830028533936e-01
-6.638099612436004771e-02,-5.992403783143913920e-02,-2.876585400511451063e-01,9.335689326572655083e-04,3.341369745786562347e-04,5.112449981861380208e-04,2.245839685201644897e-01
-5.894835372874485113e-02,-4.379289877932582287e-02,-2.827336826753309440e-01,-4.124539188337062075e-03,1.994719726905000326e-04,-1.150958855272244188e-03,2.318539619445800781e-01
-7.391069351200332815e-02,-5.693871606654052342e-02,-2.932666690721099645e-01,1.099775592230967690e-05,1.787962806575161406e-03,-8.744112041064239964e-05,2.283366173505783081e-01
-5.813255465750782891e-02,-5.821632806017726369e-02,-2.913336932095209608e-01,-3.329501608781125239e-04,-2.381077926493998381e-03,-2.086404752864616172e-03,2.332244515419006348e-01
-5.354803900537478956e-02,-5.175585410578537049e-02,-2.948362391678308603e-01,-8.807676415307750389e-03,-4.771247381941545393e-03,1.118921815437878484e-02,2.435821294784545898e-01
-5.548400171926795577e-02,-4.412345303586034939e-02,-2.833871174839099893e-01,-4.264663624585879678e-03,4.550191954962713812e-04,-1.972764578556286761e-03,2.339334487915039062e-01
-5.342734638234417077e-02,-4.577486095465160831e-02,-2.882177635592877429e-01,-2.395225304935460521e-03,-3.041093926047248788e-04,-1.054536710797336884e-05,2.387453019618988037e-01
-5.987845394423219059e-02,-4.768155692746028906e-02,-2.732359203985000318e-01,-7.496233656155332908e-03,1.051214479447202393e-03,-2.075230083589831194e-03,2.201301604509353638e-01
-6.157582209795561812e-02,-6.530368788866131036e-02,-2.873638216609428753e-01,6.456124078591702091e-04,-6.602251759958573888e-04,1.258575099621511728e-04,2.239531576633453369e-01
-6.455463635294375613e-02,-4.229407066999001097e-02,-2.724403512707780362e-01,-3.799457955886271186e-03,2.938809523674110712e-03,-1.060201141189112337e-02,2.207851558923721313e-01
-5.770317462826006494e-02,-5.812657102359342076e-02,-2.979710551905047078e-01,9.624006983087605082e-04,1.156199643341360682e-02,-8.642227005081017793e-03,2.413606941699981689e-01
-5.661210604219416020e-02,-6.197246870939215890e-02,-2.913185712064461641e-01,-1.200261444047250812e-04,5.757946033692258950e-03,2.367397385306354782e-03,2.323231846094131470e-01
-7.117102409942438479e-02,-5.897527046770137393e-02,-2.933177797367432782e-01,1.064903503902523297e-03,-1.704506635606941266e-05,1.169097039712239591e-03,2.285052835941314697e-01
-6.858825853188896260e-02,-5.808191990228381285e-02,-2.893357154719919944e-01,1.174027760348167687e-03,-5.497602020540620074e-04,-1.178823977129974439e-03,2.262040674686431885e-01
-6.184986664718883365e-02,-6.316952233648977233e-02,-2.861258277170117825e-01,6.813073113940763511e-04,-1.343792124938505950e-04,-1.035249311666194176e-04,2.236223667860031128e-01
-7.237733543738346376e-02,-6.776896221472432369e-02,-2.233546071933694699e-01,-3.927139277528220521e-03,7.666921204128262189e-03,-1.287392954331495649e-02,1.556629687547683716e-01
-4.481789112742867731e-02,-7.231517252083100034e-02,-2.596022070229784262e-01,-2.933170724584972886e-03,2.349422019264874040e-02,1.519070970002412129e-03,2.065698057413101196e-01
-5.839045398628227301e-02,-5.903263013220497180e-02,-2.911999863274546962e-01,-9.565009884355711242e-04,1.597436146075817930e-03,4.744129580296539911e-04,2.325129210948944092e-01
-6.317622265239547508e-02,-7.777838669125676507e-02,-2.159502548400891730e-01,-5.520013749946492757e-03,2.211474635856798543e-02,-3.131726783797245898e-03,1.513615399599075317e-01
-4.304448366337600140e-02,-6.119166760102148772e-02,-2.875616569698944969e-01,1.091756310251856474e-03,-2.420601217317255860e-03,9.104175643621811821e-05,2.360123842954635620e-01
-6.105509269976958087e-02,-6.408315310615178562e-02,-2.865303834194897203e-01,7.982239326238548026e-04,8.897421299044089597e-05,1.716585615956023672e-04,2.239811271429061890e-01
-6.642084012322058140e-02,-7.006843486644467878e-02,-3.579435698916185737e-01,-2.353766730535928817e-03,-3.105465737306716337e-02,-4.217124704100162769e-02,3.036124110221862793e-01
-6.255505232302774332e-02,-5.400945278671111932e-02,-2.192962175182314177e-01,-1.199547463358818442e-02,7.188291603148404783e-03,-1.244869127158970516e-02,1.644137054681777954e-01
-7.584618447588509227e-02,-7.091807425143879795e-02,-3.532445674740792851e-01,-4.980860467673775722e-03,4.269096069471327130e-03,7.223563354203197708e-03,2.804047763347625732e-01
-6.137445604965492685e-02,-6.529722568237683600e-02,-2.884113997122529915e-01,-6.727886027837703909e-04,5.207478743013574472e-04,-9.180315389121344069e-05,2.251060754060745239e-01
-6.517180944487527272e-02,-7.795518272038512442e-02,-3.008603354482800030e-01,-4.789256414337906415e-03,-2.455397601323012699e-02,-9.775284387152449739e-02,2.885203063488006592e-01
-6.181614656263229035e-02,-4.368994492143553343e-02,-1.574871124594192096e-01,-4.964872237983238533e-03,1.593605683633692385e-02,-4.294048518428052880e-02,1.326013654470443726e-01
-7.772145811729477827e-02,-6.573663058359055511e-02,-2.108258253373529179e-01,-3.991388816141293663e-03,4.642859121465488757e-03,-1.620502093385160769e-02,1.426741480827331543e-01
-5.909443882945739079e-02,-4.199729055870196626e-02,-2.776492610117702320e-01,8.723778158477392408e-03,-6.672277293065294150e-03,-1.657064076508788647e-02,2.301756143569946289e-01
-7.887703047944630286e-02,-6.455871882971575548e-02,-1.867458186562578892e-01,-6.771633443612632948e-04,-8.088088883654347833e-03,-3.433304783169679152e-03,1.166969537734985352e-01
-6.445165062495208930e-02,-6.212300005217205601e-02,-2.876335903073657940e-01,-1.013623057883028186e-03,-2.231819835157553315e-05,1.082640217828020977e-03,2.243700325489044189e-01
-4.790818020435624880e-02,-5.698191943006342131e-02,-2.898459585780071568e-01,9.636386362180076985e-04,-9.993173313528444686e-04,1.054356602994294904e-03,2.375501096248626709e-01
-5.912962780069028201e-02,-5.778529654425718087e-02,-2.878351576266889311e-01,-1.232134316739246882e-04,-1.573913561508179281e-04,5.246498899675430989e-04,2.293827086687088013e-01
-6.773676121910303383e-02,-6.400457420748939530e-02,-1.919261891807970133e-01,-5.907164069900170192e-03,7.808082441786721832e-03,-2.910900567540462228e-03,1.273320168256759644e-01
-6.364091054386639135e-02,-6.890997291514386336e-02,-1.641648340849814480e-01,-6.651538251470650101e-03,1.141449484355258441e-02,-8.242347332662484927e-03,1.016393899917602539e-01
-5.556196389143583381e-02,-5.370016566561899851e-02,-2.897594934131664246e-01,-2.792365572282911809e-03,7.924638643038344268e-04,1.003250419598759619e-03,2.351941168308258057e-01
-7.229509896025830551e-02,-4.627573256811210595e-02,-1.597067027858705135e-01,-1.077326607807218813e-03,1.185410094340691792e-02,-4.798814149132088480e-02,1.338873207569122314e-01
-5.766829548295909769e-02,-5.791932679181627242e-02,-2.899719396765451096e-01,2.247364235070633599e-04,8.825256282128303865e-04,1.190982614940013559e-03,2.321927547454833984e-01
-5.924709253108570439e-02,-5.995327482499740457e-02,-2.909236793021554024e-01,-1.312276480533231177e-04,-7.366722573564322366e-04,1.822698123978481544e-03,2.313494831323623657e-01
-6.391624171892415496e-02,-5.674844896647018855e-02,-2.941156363131747220e-01,-2.272448121597865070e-04,-3.624590811347150505e-03,-3.924781869077904385e-04,2.339512556791305542e-01
-6.596084029418837480e-02,-5.815296284149135131e-02,-1.597943622020628618e-01,-9.305308774123870891e-03,2.379605580284454083e-02,-1.232539973558784314e-02,1.096020191907882690e-01
-4.494589556321043622e-02,-6.255829430516147982e-02,-2.771381720515602165e-01,-7.971967819934897698e-03,1.364731588978839653e-04,3.286659401881433882e-04,2.243323922157287598e-01
-5.313199270000149022e-02,-5.823529218730821855e-02,-2.901811183365917701e-01,-2.428730722462729436e-03,-5.297652079791316422e-06,5.876167133036491177e-04,2.345790565013885498e-01
-5.080073612267552163e-02,-5.128752445132980786e-02,-2.690730444934640309e-01,9.701129212374599853e-03,-2.695037551171333571e-04,-9.564832512374630137e-05,2.186764031648635864e-01
-6.411847002378021076e-02,-6.975404832581311165e-02,-3.479571827562578656e-01,-6.447151785488850102e-04,1.159364398484970075e-02,-5.540316265337971724e-02,2.976736426353454590e-01
-3.631234989205231467e-02,-6.454557512486705506e-02,-2.705179250021027548e-01,-3.703927097733639845e-04,-5.527879321707406673e-04,8.238000715007891966e-04,2.214505672454833984e-01
-5.744734246807126077e-02,-7.933219233788249558e-02,-3.012580520934771133e-01,-4.270265718241687131e-03,-2.052355668161075578e-03,-1.522990633701861709e-03,2.337972372770309448e-01
-7.848758449876616639e-02,-6.068415528880614918e-02,-3.230143694257123776e-01,5.036528679098636885e-03,-2.216573694340514666e-03,3.315285535504447923e-03,2.541407942771911621e-01
-4.096410196459115971e-02,-5.994243932442716583e-02,-1.611548885076726778e-01,-1.586825604999397843e-03,-4.555467037275562348e-02,-1.851081404427960125e-02,1.406633257865905762e-01
-5.954880260849983176e-02,-7.782844046938366955e-02,-3.006889229432051502e-01,-3.970068259203429761e-03,1.159095565023479570e-03,9.080229531136720534e-04,2.326554059982299805e-01
-7.709748225179430259e-02,-5.956416374830833527e-02,-2.952752450675268925e-01,6.310528384118939491e-04,-7.435016828067895524e-04,5.173290185534771884e-04,2.274598628282546997e-01
-5.883613180525598674e-02,-7.500099669958740223e-02,-2.999876893789440446e-01,-1.227506613316851902e-03,9.018406531106200547e-04,1.198909232146148831e-03,2.335133105516433716e-01
-6.474968006552991873e-02,-6.184422482470251781e-02,-2.954980205613414457e-01,9.077476235776210526e-04,-3.639695133246464726e-03,1.686091410495380331e-03,2.323239296674728394e-01
-4.468389636105662976e-02,-5.829119399936680268e-02,-2.816346954583718309e-01,-2.613666487030019345e-03,-6.652289236017143795e-03,2.250082017829346109e-03,2.308138161897659302e-01
-6.096651939884992211e-02,-5.924317409514745503e-02,-2.900185074658193640e-01,7.907595164038280474e-04,2.324880776889204533e-03,-1.451211084596660617e-04,2.299579828977584839e-01
-5.736998907170555440e-02,-7.971429609025237895e-02,-3.014849012092888358e-01,-2.067982979402718975e-03,-1.140270583492783690e-03,7.420474364062490478e-04,2.337844371795654297e-01
-6.503130686734107102e-02,-6.235269475640095593e-02,-2.871505391904432547e-01,8.719922068532705512e-04,1.790738258644871401e-05,-9.051345210494361661e-04,2.234811782836914062e-01
-6.912312383038314578e-02,-5.960912005510032863e-02,-2.916249589063928394e-01,1.581642095114363725e-03,-1.156233068714496767e-03,5.712929874855849250e-05,2.274334877729415894e-01
-4.588548569189107584e-02,-5.626054792121243375e-02,-2.874836135073313148e-01,-3.033082247391611849e-03,5.239133733636847871e-04,-4.738859839134470890e-04,2.366427630186080933e-01
-6.393760437532652885e-02,-6.347394958649593688e-02,-2.887048014354968162e-01,1.708948422228920511e-03,3.067377900779479040e-04,-8.172730161768710202e-04,2.250239253044128418e-01
-4.428393913138312099e-02,-6.746877047813079620e-02,-2.775528046590227671e-01,-8.408404301890095786e-03,-2.512966196257076720e-02,1.828068757292514515e-02,2.294618785381317139e-01
-6.653442104833882931e-02,-5.731183534034793581e-02,-3.002492378552905072e-01,-7.029539008650042067e-04,-1.060754823949607017e-02,3.211557065691171987e-03,2.392344325780868530e-01
-5.520019832674739890e-02,-6.044611223944004741e-02,-3.022033866213695297e-01,-2.259057617157018711e-03,-4.284869378219131886e-02,2.292004686037395905e-02,2.585375607013702393e-01
-4.907889557190484031e-02,-4.912159490765627412e-02,-2.413416882691300225e-01,6.399674787285114432e-04,-2.478141868142337903e-02,-6.447626335652439922e-02,2.264330387115478516e-01
-5.980089343271927094e-02,-5.809701468781461320e-02,-3.000911262821507886e-01,3.772521387130327178e-04,-4.591955904948422616e-03,8.228930109320044956e-03,2.416993081569671631e-01
-6.050328567282423076e-02,-6.194700020529866902e-02,-2.976816001256196165e-01,3.069663779759978194e-03,5.883197398475186607e-03,7.911616752298115951e-03,2.371352016925811768e-01
-6.159680121460858748e-02,-6.135775683550345749e-02,-2.874509048645196851e-01,1.024861169141060084e-04,5.836375445436442488e-04,-7.603693639878189407e-04,2.259798943996429443e-01
-5.541405557870679455e-02,-4.925317110851230862e-02,-3.226909694106891990e-01,-8.543311472368450609e-04,5.407807349983619928e-03,-3.817229806965522724e-03,2.706569731235504150e-01
-5.827837163402953269e-02,-5.524110278381444417e-02,-2.962598439395607297e-01,-1.096764018435805255e-03,-1.389479836504582504e-02,4.253502354633496851e-02,2.517493069171905518e-01
-5.750788807454626506e-02,-5.761114552998289340e-02,-2.891553458026461798e-01,-2.562211284918018868e-04,8.695098061841821007e-04,-1.213805139534676874e-03,2.316107153892517090e-01
-5.661934683694758164e-02,-5.673885156985153388e-02,-2.947217516919418134e-01,1.242861840772538828e-04,-1.683563936655733950e-02,4.364058408282255053e-02,2.514521479606628418e-01
-6.084802661549224001e-02,-6.907924339160292915e-02,-2.900904986396702911e-01,-1.245627478836135692e-03,1.144760927783841815e-03,-2.906277059218886601e-04,2.252593189477920532e-01
-6.978459637636913460e-02,-4.910781409318522306e-02,-3.127158183730461838e-01,-6.120087420605491157e-03,5.314158176808265327e-03,3.384781023364726027e-02,2.609602510929107666e-01
-6.134133754203342781e-02,-6.091317221569328422e-02,-2.969307363055212479e-01,-4.888360250908502756e-04,1.161226273194670809e-04,5.078504064280448763e-04,2.358070164918899536e-01
-5.812020632050088342e-02,-5.605112867133305032e-02,-2.754203066817049739e-01,1.892520026228479424e-03,2.594371504713159117e-03,4.941479660720173028e-02,2.345839440822601318e-01
-6.508046322421920382e-02,-4.258549638331801668e-02,-2.978939023654177953e-01,8.600640051237102776e-04,-3.324000355560876446e-04,1.111466936796793453e-02,2.455980628728866577e-01
-5.864693887680468704e-02,-7.941789479612033908e-02,-2.079266251908685748e-01,-9.042080638585288030e-03,-3.609004780934257917e-02,-9.780955458403854663e-02,2.290590703487396240e-01
-5.587045027580027357e-02,-5.402568897687444471e-02,-2.895710296625870761e-01,7.450972367180431826e-04,2.953685363801601856e-04,4.331161003216044765e-04,2.346336990594863892e-01
-6.077179293069051580e-02,-5.972653950321424321e-02,-2.895120854648532971e-01,2.763244108703802999e-04,8.076274933996116382e-04,-4.350039476101537524e-04,2.292707115411758423e-01
-6.033846210132384758e-02,-4.746304715344112912e-02,-2.926752477044867184e-01,-9.871252818248563588e-05,3.823013642073498208e-03,1.095911890608355574e-02,2.398786693811416626e-01
-5.940690274495487311e-02,-5.127053223400630799e-02,-1.414559688029829732e-01,4.168967190057680516e-03,-6.305100264478527561e-02,4.465641126982276138e-02,1.594579666852951050e-01
-9.037756327547688540e-02,-6.280733386478651314e-02,-3.137880719345610969e-01,-6.908507762246138967e-04,-8.771756582461481822e-02,1.725639488614336831e-02,2.842705547809600830e-01
-5.530949671362440923e-02,-5.877623811878396332e-02,-2.983222694566919908e-01,-3.768912996724160802e-03,-4.011308109346485573e-02,2.637188838801531737e-02,2.553056776523590088e-01
-5.703656740722067020e-02,-4.733304500825726013e-02,-2.839367217334117788e-01,6.378728768997399788e-03,-6.948011644039484534e-03,-6.402817655916395734e-03,2.327433079481124878e-01
-6.004859901797741928e-02,-6.857855776013431492e-02,-1.761809162574259902e-01,4.451399025699120764e-03,-2.067104877315654749e-03,9.946399208225908603e-03,1.137450113892555237e-01
-6.812805009959671532e-02,-7.007648992555279288e-02,-1.328184605019673281e-01,1.190668136727753663e-03,-2.626866983698060432e-02,-2.024563205695773405e-03,7.841733843088150024e-02
-4.108269707000353210e-02,-6.104016056842390126e-02,-2.881539532547765514e-01,1.244179028449703302e-03,-1.161299899684320718e-03,5.811317043294586104e-04,2.377420663833618164e-01
-6.597665482635999001e-02,-4.659719667858529257e-02,-1.493201568379763644e-01,-1.425873388195274087e-02,-8.464186223691874678e-02,-5.345275297547483900e-02,1.990254074335098267e-01
-7.320673838728704308e-02,-5.651265699026297717e-02,-2.919980964916141786e-01,9.502834588882380727e-04,1.051412660607353809e-03,7.511861648996429183e-04,2.276149988174438477e-01
-5.808187988001459190e-02,-5.919932417731457730e-02,-2.892080062848021438e-01,-1.480341117544708702e-04,4.575899833583080842e-04,5.901991158440509505e-04,2.305732071399688721e-01
-5.760306705610476752e-02,-6.356793580104996844e-02,-3.009514301524101598e-01,2.247765331864399769e-03,-5.917245814149603433e-03,-1.233876748791644211e-02,2.416182905435562134e-01
-4.857448337449881554e-02,-5.364213388155443518e-02,-1.878575513120004647e-01,7.069218873255539437e-03,-6.684118898022364808e-02,1.112598735014129481e-02,1.806768774986267090e-01
-4.968661452163285197e-02,-5.944004034756428245e-02,-1.112823565888624855e-01,2.402788048756944114e-03,-5.621052217699645803e-02,-1.380258204930056611e-02,1.155686676502227783e-01
-6.065482428979256102e-02,-5.030320382635444787e-02,-1.501220704212509471e-01,5.420688777412675796e-03,-6.272163065775698820e-02,3.441702804959038964e-02,1.564654260873794556e-01
-4.532384685758886200e-02,-6.286353108383231636e-02,-2.198358627943660659e-01,-8.858193559969071429e-03,-1.211674434895361474e-02,5.680370300120083857e-03,1.687419563531875610e-01
-3.528570866050510790e-02,-6.152183152782846054e-02,-2.757404918799635785e-01,-2.414275616415359309e-03,-4.424594701822002867e-03,-6.232578015761358430e-05,2.286361008882522583e-01
-5.840025614001131266e-02,-5.772543895440374051e-02,-1.827733617460257642e-01,1.035791957702726640e-02,5.639197204747398856e-02,3.822461353293405556e-02,1.726222485303878784e-01
-5.320269805214213055e-02,-6.230732092314436588e-02,-2.455063631749386799e-01,1.187992707415131202e-02,1.144508676053762261e-02,7.267084138446697726e-03,1.904928833246231079e-01
-6.169737031339461719e-02,-6.168572110029005295e-02,-1.802879752830408022e-01,7.378329879881865595e-03,7.476807709060948222e-03,1.391356264407972096e-02,1.223801523447036743e-01
-6.959942115613972080e-02,-7.710612053516865960e-02,-2.794178021188666872e-01,8.492142100405519452e-05,-2.535422758127643846e-03,-1.000539682030371219e-01,2.693636119365692139e-01
-6.220559430136880785e-02,-6.500578671726342517e-02,-2.873387846212944186e-01,3.192544908798583439e-04,3.097889516376370962e-04,-9.345540275859969063e-06,2.237475663423538208e-01
-6.154611826797914270e-02,-5.037991083793345870e-02,-2.314535840132222744e-01,1.080191018190595695e-02,2.971459639614153388e-03,9.968235757284144016e-03,1.776656508445739746e-01
-4.778413816547882886e-02,-5.680811692778439670e-02,-2.876228702713921059e-01,-7.719940822436034428e-04,-4.484391779054308050e-04,-1.473676969046553765e-04,2.354616820812225342e-01
-5.878821983810333940e-02,-6.029040829711039551e-02,-2.940615023315191756e-01,-3.142136048143915846e-04,-2.408648816983301535e-03,-5.402259870806957976e-04,2.345653921365737915e-01
-6.659566493477257765e-02,-6.221815235934025079e-02,-2.103506033571457268e-01,7.409696788896007018e-03,8.169397244208273512e-03,2.185775358932212989e-03,1.472861021757125854e-01
-6.478166923033934488e-02,-3.904586040533822300e-02,-2.452545422883085913e-01,6.924213284853205719e-04,3.530200860753738082e-03,1.253290609795770436e-02,1.959271579980850220e-01
-6.298455788308561509e-02,-7.409272107204986635e-02,-3.620540507126362995e-01,-4.573813381397502480e-03,-4.897170792609775725e-03,-5.792323430612443536e-03,2.940734624862670898e-01
-6.758503647397734460e-02,-7.694414932930329631e-02,-4.345416408873474245e-01,9.721478099153564893e-04,1.496388051145832419e-02,2.256895177481368225e-02,3.653943240642547607e-01
-6.788214345022590412e-02,-5.577642495307369441e-02,-4.468512932429704598e-01,6.008925292925932672e-04,1.849142850952460032e-02,1.260160705719229508e-02,3.871112763881683350e-01
-5.779204585111796799e-02,-5.927396715130887894e-02,-2.896433043132477514e-01,-1.224261696861825006e-04,-6.230314362810926519e-04,-1.923384088752206527e-03,2.311404794454574585e-01
-5.797524659976666106e-02,-5.865703925236438743e-02,-2.913991712698866809e-01,-1.195111699893805919e-04,-6.180846833292506868e-04,-1.545304300485886339e-03,2.331016957759857178e-01
-5.032592670529011103e-02,-5.752172937402605379e-02,-2.902831551775695296e-01,-8.893827099602218816e-04,-2.533894681799631586e-03,-3.628680112835559269e-04,2.364880442619323730e-01
-5.834308800848078680e-02,-6.524195620601211387e-02,-3.502306336788649777e-01,-3.096710363713311553e-04,-1.126966021057196690e-02,-2.266956464831072771e-02,2.918137609958648682e-01
-4.931457959734580898e-02,-5.274772752486277250e-02,-2.913181569361454892e-01,6.484993800570275965e-04,-6.281594551623476868e-04,-1.909196259921513777e-04,2.403107136487960815e-01
-5.802968574908183574e-02,-7.834137348803599243e-02,-3.203715760420841052e-01,-3.784304674062355031e-03,-2.606789876472190813e-03,-1.787614896804532198e-03,2.529430091381072998e-01
-5.794563038560188173e-02,-5.713000475781612741e-02,-2.900013162048766802e-01,-1.232911560939917509e-03,4.943988242317936621e-04,-2.669036849499302998e-04,2.324764132499694824e-01
-6.312120351786465466e-02,-5.889197964578844757e-02,-3.562134711686787969e-01,-4.169270970910861351e-03,-6.545830724608112106e-02,-3.902232442716283001e-02,3.234737515449523926e-01
-5.657415435659038372e-02,-5.749977310482078108e-02,-3.262696841953641735e-01,4.919849495798881561e-03,-1.715576832280552022e-02,-6.206076108065094674e-03,2.712158262729644775e-01
-6.345061264858742334e-02,-6.188709793344224219e-02,-2.754367280218428249e-01,-3.483020480280170535e-03,-8.387447595248846699e-02,-2.992168700284115329e-02,2.628670632839202881e-01
-6.849514425628935865e-02,-5.082738922694712835e-02,-3.058149213580118042e-01,-2.612209208511444446e-05,-2.887724630911471871e-03,-4.160669623939482198e-02,2.569904625415802002e-01
-3.844826953859030449e-02,-5.994975715821659890e-02,-2.852538613494191022e-01,1.579322924962613204e-03,-2.101646872652741804e-02,-1.290152604029262164e-02,2.406252920627593994e-01
-5.588100038622159649e-02,-5.836597511486758816e-02,-2.845387430567302145e-01,1.557527073815809758e-03,-3.194543736924873763e-03,1.673661352260879653e-03,2.275272011756896973e-01
-4.834751021739330801e-02,-5.432203980677734190e-02,-2.892388156443288505e-01,9.003550307220609984e-04,-6.357665015317604147e-04,2.720727411041187673e-04,2.379684299230575562e-01
-7.609240940702817479e-02,-4.920912032863017371e-02,-2.456505095147462625e-01,-5.627709854948022804e-03,2.026248476034674811e-03,-2.731557839850644667e-03,1.848260164260864258e-01
-4.374049732517920619e-02,-6.187788503793048567e-02,-3.171938514504523132e-01,1.090799578130064763e-02,-3.237317009077728125e-02,-2.214284245875738216e-02,2.740764617919921875e-01
-5.632280943956421981e-02,-5.790628966017827284e-02,-2.946103535108047788e-01,-1.462735885684566866e-03,-3.600034082228219939e-02,-1.873740139722982574e-03,2.455833107233047485e-01
-4.857772376109778523e-02,-5.869704070740011659e-02,-2.900091832735440800e-01,1.410270413746816248e-03,-1.803319922941348189e-03,2.638841270236217469e-04,2.365678697824478149e-01
-4.619704471927801870e-02,-6.815537682542563425e-02,-1.989704858571936519e-01,-3.619356918742387512e-03,1.640785121388704110e-02,-8.022096704456454369e-03,1.466535329818725586e-01
-3.883154995082611916e-02,-6.098931694463796682e-02,-2.781919105494872202e-01,3.782270149771358846e-03,-3.495289555808066620e-03,-5.947172613287991273e-04,2.292624861001968384e-01
-5.202459325194760953e-02,-4.355885262167588645e-02,-2.876802031287492012e-01,-4.259440982020145511e-03,8.951927454748594181e-04,-2.085558016532052146e-03,2.401460260152816772e-01
-3.826061344700927569e-02,-6.171078175255888254e-02,-2.635806837999896679e-01,4.077657351472438983e-04,-3.299768459875720289e-02,-1.834706995705467567e-02,2.243036627769470215e-01
-5.841278887035079859e-02,-4.105626167199083465e-02,-2.841459139793429123e-01,-1.685789396576235647e-03,3.787297874645927857e-04,-5.312703062590672879e-04,2.349136769771575928e-01
-5.642178631173808134e-02,-4.433606289246924681e-02,-2.893874525431461286e-01,-9.970105811318045672e-04,-2.501565739083544556e-04,6.970744801703461935e-04,2.392472624778747559e-01
-5.858652325393909344e-02,-4.125163838289142015e-02,-2.848448384760566832e-01,-2.586940381494144247e-03,-1.265708447547364340e-04,-2.535547771084188662e-04,2.354480922222137451e-01
-3.894080931918733612e-02,-6.095005294870411983e-02,-2.862757734829444733e-01,-1.195875234395253096e-03,-1.829146592964031202e-03,7.130032187435214825e-05,2.371279746294021606e-01
-3.941395014463765223e-02,-5.704464900268615968e-02,-2.789206866575250077e-01,-3.678331365268802146e-03,-3.765872629635011633e-03,-1.442631221848300681e-04,2.313759773969650269e-01
-7.847147292981537792e-02,-6.777697296832800589e-02,-1.711217251052599697e-01,1.145841629600680736e-04,2.949259928523825184e-03,-1.375280974608152247e-02,1.014043539762496948e-01
-5.015641690254013518e-02,-5.803189828141910866e-02,-2.838626608384824390e-01,-5.557865667444500217e-03,1.114737688611378875e-02,-3.968090056737502355e-03,2.309822142124176025e-01
-7.835644776819718216e-02,-5.763263501433341096e-02,-2.002692882613911762e-01,-2.511899380321781176e-03,2.364870142227527144e-02,-5.203639000094791717e-02,1.662491708993911743e-01
-4.404474801627412950e-02,-6.348905545630648128e-02,-2.908000969494212162e-01,-3.100812546281565330e-04,-3.828628671994107214e-03,4.811109005508707251e-04,2.377251684665679932e-01
-3.623150541911193678e-02,-6.686100397878183554e-02,-2.774046731357256990e-01,-1.351847758882673703e-03,-3.918851445558645639e-03,-9.790599647580323656e-04,2.275303900241851807e-01
-7.304975267534231931e-02,-6.341255410277152338e-02,-1.556421369045300762e-01,1.887322467619436317e-03,-1.034956673936784054e-02,-2.495919930089485900e-02,9.955525398254394531e-02
-4.318775902543101064e-02,-6.013758021647174629e-02,-2.629093555405136451e-01,-8.145587903921325951e-03,-5.030177728279918402e-03,5.432468342579603983e-04,2.124063968658447266e-01
-4.541918277722037378e-02,-5.367020292302582263e-02,-2.884834903290510177e-01,2.074409094368095084e-03,3.000192429136666139e-04,8.986470191857926339e-04,2.390782535076141357e-01
-6.253603808671237552e-02,-7.667183395471383056e-02,-1.970196403668509344e-01,9.621047862430050310e-04,-2.826931736407609780e-03,-2.636488079906293587e-03,1.281882673501968384e-01
-5.080232647095697662e-02,-4.964236359033830093e-02,-2.899882717134023569e-01,1.888918854237885570e-03,2.741599358982857112e-05,-6.594610431831590550e-04,2.397930771112442017e-01
-5.314730943141102171e-02,-5.177801060411223177e-02,-2.913275085030125888e-01,-1.568131237510570625e-03,5.529549312732633982e-04,-1.193969777541034541e-05,2.388851493597030640e-01
-5.087942123963057339e-02,-4.924403858260106848e-02,-2.915553982788742782e-01,8.588115228093474779e-04,6.892854964480506761e-05,-1.903568714836652667e-04,2.415026575326919556e-01
-5.115816991426527793e-02,-5.095368106486442006e-02,-2.912518319332330075e-01,1.216678298240928896e-04,4.253585971234044626e-04,2.987195819954148847e-04,2.401977479457855225e-01
-5.489934817302984105e-02,-5.147702085073058154e-02,-2.907355118971933772e-01,-5.089968991385477454e-04,1.011979127391648969e-03,-1.448659461468230309e-03,2.375871688127517700e-01
-5.010385707446490811e-02,-5.324513592673790763e-02,-2.954328538494865874e-01,-6.644243351765354022e-03,-2.540534881267779779e-03,3.318642208613913590e-03,2.441523671150207520e-01
-4.667471690399593864e-02,-5.560147960628547548e-02,-2.726510300163648148e-01,-7.121928529362291441e-03,-1.577865223706433929e-03,1.662659722024084326e-03,2.220262885093688965e-01
-5.028580525367157272e-02,-5.062830876782140055e-02,-2.916551056405464193e-01,7.493287496931498400e-08,-2.502168811645186751e-04,-4.586052771934173125e-04,2.411999255418777466e-01
-5.060461295966353634e-02,-5.284528145227722351e-02,-2.905474024772230490e-01,1.635064720110426025e-03,3.549382505872819316e-05,9.704148305580022121e-04,2.388530522584915161e-01
-5.119322251663707690e-02,-5.002052772984919016e-02,-2.922579404893043686e-01,5.775863508485502406e-04,-1.840314343449508754e-04,1.089783421729087028e-05,2.416554838418960571e-01
-5.730538969187216891e-02,-7.521891083226370234e-02,-2.995174343614442347e-01,3.273304520370145729e-03,-4.485663549796758769e-04,5.860356565975280256e-04,2.338428497314453125e-01
-5.598977703385241145e-02,-7.434149590423014264e-02,-3.069793458609256787e-01,1.324565356241047933e-03,6.445446511185676057e-05,1.309937699086716634e-03,2.423569262027740479e-01
-5.717438870449317867e-02,-7.051399141995030873e-02,-3.032491121360922914e-01,7.949648546321275459e-04,2.434497630637076453e-04,-3.111668058191167756e-03,2.397484034299850464e-01
-5.597454907170271166e-02,-7.445804876136064010e-02,-3.077845153120268851e-01,1.299570433999283885e-03,2.745340021209923578e-05,1.271693555280221065e-03,2.431161999702453613e-01
-7.015495351158505810e-02,-6.231693009364161484e-02,-3.054017533817106611e-01,6.008087370258151892e-03,6.241388508549301252e-04,-8.471995147669563603e-04,2.394952476024627686e-01
-4.806578946939951691e-02,-5.281256741811216071e-02,-2.895365672604983676e-01,1.038098759581836551e-03,-3.442383824112298183e-04,-1.487431667054845222e-04,2.391403615474700928e-01
-5.276797497880464372e-02,-5.427018562079367892e-02,-2.916452632179534765e-01,1.792784051934552861e-04,1.210385783846985088e-05,6.270202040268655491e-04,2.381324172019958496e-01
-4.899169661941429887e-02,-5.172183207882155576e-02,-2.855384158403690975e-01,4.182300149510180184e-03,-1.411555225704604847e-03,-8.262221205889685441e-04,2.353221178054809570e-01
-4.785767832494207397e-02,-5.675354200551682715e-02,-2.896886994999942067e-01,9.043078810129710461e-04,-1.314120030710016563e-03,5.294286631393147011e-04,2.375259101390838623e-01
-4.834078435531619089e-02,-5.296259758099561288e-02,-2.903186213868548249e-01,8.998869767481029952e-04,-6.359053936873291330e-04,1.885185688973238212e-04,2.397081702947616577e-01
-5.597898084957023124e-02,-5.280342887416986097e-02,-2.890022139930817913e-01,7.992814159716968596e-04,1.103964416739054103e-03,1.081082539504920259e-03,2.346464693546295166e-01
-5.802290104720309039e-02,-4.146613827278268494e-02,-2.860898579352485482e-01,1.687821587606279112e-03,-4.521530320341768578e-04,-6.022965371441613928e-04,2.368015199899673462e-01
-4.912246296308780957e-02,-5.097606658493300524e-02,-2.883682573766282453e-01,3.782323746826611599e-03,-1.294282082562190055e-03,-9.528461013664745989e-04,2.384306788444519043e-01
-4.968309248971444769e-02,-4.969038058255001444e-02,-2.906206850421123034e-01,1.577831966601728805e-03,1.809617944245813664e-04,1.862566703442686467e-05,2.409496605396270752e-01
-5.354345101723199940e-02,-4.526516334213927240e-02,-2.861237805464826311e-01,3.811817141725088592e-03,6.188636409690303347e-04,-8.733700433249043686e-04,2.369272708892822266e-01
-4.536577407500758108e-02,-5.611487720762528553e-02,-2.874963969396912011e-01,6.369112982804084984e-04,1.656962249078864843e-04,3.350418332146829653e-04,2.369424700736999512e-01
-4.083570176710335509e-02,-5.553074460305670867e-02,-2.863647550438856992e-01,3.078081215083450489e-03,-3.381012640971859003e-04,3.844003938434905005e-04,2.385825067758560181e-01
-3.860528744595959072e-02,-6.008478830747723820e-02,-2.881784897568422377e-01,3.243943823040476050e-03,-9.128667477715018616e-03,-8.529820116494253070e-04,2.401482760906219482e-01
-4.388166667416953937e-02,-5.430461679253197060e-02,-2.832989223473840745e-01,7.481746209895209776e-03,-1.019221214900165647e-03,3.891459815002382231e-05,2.347442805767059326e-01
-3.965725151624088785e-02,-5.819732349682935069e-02,-2.840874157314229320e-01,4.622040494303021260e-03,-3.679567538423460672e-03,-1.291244741859193636e-03,2.359402328729629517e-01
-3.663537514232653725e-02,-6.594423235758856139e-02,-2.824045536697751269e-01,2.224936211521606061e-03,-4.086559406265428442e-03,5.803472552032174370e-04,2.326461821794509888e-01
-4.061103287361142455e-02,-5.902934295115591645e-02,-2.865550862273400501e-01,1.621125574918062546e-03,-1.368473850021859582e-03,-5.704552912189208170e-04,2.373021692037582397e-01
-4.173245716242129921e-02,-5.837502370971611731e-02,-2.854912771885620981e-01,1.698721220340269292e-03,-5.518912033869132058e-04,-1.828946898483751072e-04,2.358987778425216675e-01
-3.815219345871374845e-02,-5.994078117721242382e-02,-2.833724847735972774e-01,1.225135082393918971e-03,-9.877610422831042958e-04,-7.013832754148717659e-04,2.351034581661224365e-01
-3.866648122093283013e-02,-6.889131007128065920e-02,-2.440513155054211125e-01,4.097120330184800610e-03,-8.522888083363530654e-03,-3.974720344059282096e-03,1.928844749927520752e-01
-3.960697577904043198e-02,-6.040618015130178042e-02,-2.852094599223284899e-01,8.770519922197745526e-04,1.835197676918554684e-04,-1.239989235202168440e-04,2.358968108892440796e-01
-5.601797705271654992e-02,-4.622899513968770080e-02,-2.880640727166332571e-01,-9.179415204640577284e-04,3.961509765646429606e-04,-5.159732065073156706e-04,2.371001988649368286e-01
-3.541328600823354100e-02,-6.330062306072495315e-02,-2.824358706750192960e-01,2.723730455482263396e-04,-1.050818890250548431e-03,-2.736554254423368315e-04,2.343348413705825806e-01
-6.079522253387631414e-02,-4.201866073438390026e-02,-2.894268655434473758e-01,-4.268327977684115669e-03,-6.511566966269995323e-04,6.544719849577657414e-03,2.389609366655349731e-01
-3.659427320388991545e-02,-6.146692007384770007e-02,-2.855152176262072405e-01,8.514814785521262726e-04,-2.268113495057171025e-03,-7.793380144284657715e-04,2.375045120716094971e-01
-6.367892366214640554e-02,-4.254862629862013468e-02,-2.856291980979421830e-01,-1.385256658303039108e-03,-4.627987799693548867e-04,1.067212458071478860e-03,2.332554459571838379e-01
-3.571077116306647925e-02,-6.362359690758387365e-02,-2.834375558977530463e-01,-5.613721088108406324e-04,-1.085463110863945247e-03,1.187420523633989046e-04,2.350264936685562134e-01
-3.641084983456757684e-02,-6.177093679161865802e-02,-2.858859000029876363e-01,8.073410814836663523e-05,-1.972554997918147916e-03,-5.534643272239122853e-04,2.378378361463546753e-01
-3.674031375340669481e-02,-6.417958985562156882e-02,-2.861802305384378853e-01,-4.342566331833212561e-04,-2.044322742170587466e-03,2.999152880038462397e-04,2.369432598352432251e-01
-7.297820920219111329e-02,-6.041887007942611798e-02,-2.641398336200027619e-01,-1.410819158594903491e-02,-2.140998487938821845e-02,2.300919877069014519e-02,2.065476328134536743e-01
-3.813231285847881735e-02,-6.118288706565427892e-02,-2.708256429271517218e-01,-3.019830600722454676e-03,-6.915143379245118280e-03,1.331274819736126113e-03,2.224633246660232544e-01
-3.958906203611903263e-02,-6.105991219324813368e-02,-2.864543398577658051e-01,-1.363650510422517509e-03,-7.436311237756020954e-04,5.901781944565721687e-04,2.368783205747604370e-01
-5.981791692151587625e-02,-4.516674165057130153e-02,-2.856118526493136578e-01,-1.067651801240291319e-03,4.746650623472333159e-04,6.890690444012229857e-04,2.334763854742050171e-01
-5.584198691698169514e-02,-4.493241433645148164e-02,-2.830247088887832274e-01,-1.703426151970859580e-03,-2.616450879557986539e-03,2.155980957245364025e-04,2.328923642635345459e-01
-4.139264967509989623e-02,-5.844642996948125335e-02,-2.853450231726389896e-01,-1.669407608053724047e-03,4.271590626431017324e-04,-2.764137558779405186e-04,2.359076440334320068e-01
-3.894389946160400906e-02,-5.947753589293053311e-02,-2.875270889333957358e-01,-8.260009968320688404e-04,-1.502632238823915995e-03,1.288949373927496919e-05,2.389973551034927368e-01
-4.156641862154086819e-02,-5.844303318714377804e-02,-2.850777719055052062e-01,-2.649156496973320302e-03,2.485738895153283452e-04,2.302270577841465844e-04,2.355723828077316284e-01
-4.354864676026626302e-02,-5.646135844685845617e-02,-2.896315639086095572e-01,-1.280147981151443437e-03,4.556685867212436128e-05,6.564738359533361500e-04,2.399003058671951294e-01
-5.515775531182535996e-02,-5.761372536204657779e-02,-2.917575983706794940e-01,-2.245916662909369470e-03,2.991007333265802929e-04,-1.305569399388517831e-03,2.354250401258468628e-01
-4.390418837420552445e-02,-5.624475482200838594e-02,-2.879216414795869872e-01,-1.385262220262975996e-03,-1.165075862540459854e-03,-3.900509042396557756e-04,2.381087541580200195e-01
-4.832106636291959301e-02,-5.467782535872191263e-02,-2.884694919516899159e-01,-3.531006305347033844e-03,1.944673621593324237e-04,-2.689518070875015609e-04,2.371135652065277100e-01
-4.606400873501662052e-02,-5.372837868774421599e-02,-2.898807350976705388e-01,-1.336948469950229035e-03,2.587726898394218005e-04,-6.274766225095298935e-04,2.400903552770614624e-01
-4.374212769076189777e-02,-5.624116970564055351e-02,-2.892305956713676629e-01,-1.250984317501402463e-03,8.826444285728313318e-04,5.066565652325127813e-04,2.394999861717224121e-01
-4.527254576155567700e-02,-5.358365279156079852e-02,-2.889665394341515148e-01,-1.447809474293207995e-03,3.082030587788816677e-04,-2.623480316241625200e-04,2.396606951951980591e-01
-5.718882990203287553e-02,-6.770610552287976980e-02,-2.947001657599236379e-01,6.821698084198659284e-04,2.030911057554250256e-03,-1.454481204670874956e-03,2.324744910001754761e-01
-5.746260040057619978e-02,-5.668652781632221860e-02,-2.971732110957613360e-01,-2.620721243457483241e-03,2.759302152761270582e-03,-1.201327280565010324e-03,2.401990592479705811e-01
-5.912938448930643576e-02,-5.715484902316808613e-02,-2.915043699990758075e-01,-8.756488765283120933e-04,-2.673719482024196565e-04,2.373667935757230694e-03,2.334101200103759766e-01
-4.937933201526945037e-02,-5.139666002511009135e-02,-2.905301917708447701e-01,-2.019219081087342618e-03,3.872480416227656484e-04,-2.966738593061542923e-04,2.401755005121231079e-01
-5.028734838974735499e-02,-5.485074723393633389e-02,-2.915392923982591533e-01,-1.223877691289244332e-03,-1.218765141782878099e-03,-1.606871364815262910e-04,2.390218079090118408e-01
-5.622744994103014149e-02,-5.674010653905182944e-02,-2.904047637181412789e-01,2.396062766535583290e-03,-2.604008191092189702e-04,-4.539504873437572030e-04,2.339599728584289551e-01
-5.582992821292395713e-02,-5.483721525745077763e-02,-2.892218301313186357e-01,2.167331669181127816e-03,1.733717611990254551e-03,9.258528915605854616e-04,2.339447289705276489e-01
-3.243771630474914097e-02,-4.325273591354714120e-02,-8.053256976977007930e-02,-2.535489152912356967e-03,5.151084523803638876e-02,-2.870546443473003320e-02,1.111815273761749268e-01
-7.380518266126401272e-02,-5.872732162035684822e-02,-2.928314468992042618e-01,1.274610902376416017e-03,1.772605234335334625e-04,-4.656999465041066735e-04,2.269535511732101440e-01
-4.684243603824048141e-02,-5.791791166724008511e-02,-2.862721895436174391e-01,-6.027822303207346771e-03,4.861180173856601526e-03,-2.129201941967492993e-03,2.345015406608581543e-01
-7.296101508421581894e-02,-6.666597977817165233e-02,-4.701664030804864614e-01,-4.044621334887402511e-03,-1.726344203354912565e-02,3.667397109696936275e-02,4.065590500831604004e-01
-6.125347081471962940e-02,-6.852512255911126504e-02,-2.896435586343511503e-01,5.171386412440221771e-04,7.686567182460207585e-04,-2.356980087966910288e-04,2.248485684394836426e-01
-7.275735606727953830e-02,-5.854001288117281765e-02,-2.912801199920820316e-01,-5.186265701576891866e-04,2.345777677823685479e-03,-1.073659282403060600e-03,2.260130941867828369e-01
-5.320852301173394083e-02,-5.158714787639748223e-02,-2.909940896465593174e-01,-4.336386793409029465e-04,-1.532484127924508633e-04,-8.361216405261919817e-05,2.386017590761184692e-01
-5.746090784916157990e-02,-5.870487776789876100e-02,-2.875227679648166279e-01,4.427905924605222998e-04,-9.677250391482219993e-03,9.999698218080672885e-03,2.307061702013015747e-01
-5.492171597348474710e-02,-6.287556868031886348e-02,-3.039162432935500480e-01,-4.342167541026262928e-03,-5.230773309592719883e-02,-7.724107473158615955e-02,2.936741113662719727e-01
-7.882513109099986703e-02,-6.938604843982265624e-02,-4.823280251035111377e-01,7.544279642825562618e-04,3.358612051191884468e-03,-3.095427790496219772e-02,4.118524491786956787e-01
-7.295086307310996721e-02,-6.675215022432966216e-02,-1.671394496289638765e-01,1.353095379037075503e-03,4.839786061257529866e-03,2.015811893567586582e-02,1.038680598139762878e-01
-6.044741089001155754e-02,-5.386342625962826924e-02,-8.625014002420502979e-02,-9.755084013528043940e-03,2.307631448960795542e-02,-2.042851135740640645e-02,6.335629522800445557e-02
-6.023260549824344112e-02,-6.381953815611832170e-02,-2.903122023174099509e-01,-5.580176947896634725e-04,2.667026617196414061e-03,-1.733926098514800267e-03,2.283757925033569336e-01
-5.498148140387867921e-02,-4.677936005141372644e-02,-2.900646313601114579e-01,1.471052056545032582e-03,-5.567097733416478391e-04,-3.010700930145975728e-05,2.393051832914352417e-01
-7.628901835711932033e-02,-6.098295347885950013e-02,-2.082511807951908378e-01,2.874125506473798608e-03,-1.360621325317100958e-03,3.421317198248588660e-03,1.404761970043182373e-01
-4.807725201532236925e-02,-5.912499434551518607e-02,-2.897497460000615366e-01,-1.387822847866019074e-03,1.981114197955029504e-03,-1.258800976142817100e-04,2.363795936107635498e-01
-6.035121607508228680e-02,-7.989789538582287021e-02,-4.644677983547403910e-01,1.055030338200969864e-02,2.008973034351099751e-02,1.881193081438141401e-02,3.979943990707397461e-01
-4.829460842918462116e-02,-5.730085444129673355e-02,-3.013295720094009145e-01,-2.333348263928610583e-03,-4.900900047443712548e-02,2.953953381596999706e-03,2.628251612186431885e-01
-8.176680182100887206e-02,-6.558002664098588896e-02,-5.220324228174857417e-01,-1.017333450816512025e-02,1.632830062486593375e-02,-2.434560254450428285e-02,4.517861902713775635e-01
-5.934633298835267912e-02,-5.656875005725389705e-02,-2.901452176977331598e-01,1.207349777664257565e-03,3.122000729617970417e-03,2.239534450672718438e-04,2.322728335857391357e-01
-6.767361732489074466e-02,-6.473912566062745011e-02,-3.013388199595468109e-01,6.896180261108758765e-03,-1.333696844971132443e-03,7.236777111235125504e-04,2.354640215635299683e-01
-6.801705327517690303e-02,-6.253533405292369118e-02,-3.417795397287772818e-01,-3.844329918829155184e-03,9.884984671531909378e-03,-4.598036689068583927e-02,2.883690297603607178e-01
-6.417301507602780897e-02,-6.108168328827814908e-02,-3.347073293733421329e-01,3.265412817385913383e-03,-3.743364809754130395e-03,-1.354386733735913999e-03,2.722392678260803223e-01
-7.904313231007673024e-02,-6.597352077675555648e-02,-5.192550822833569280e-01,-7.423761892928485567e-03,-5.387708013824436121e-03,3.909776775089074397e-02,4.522710442543029785e-01
-7.878852011008478928e-02,-5.730026867202417384e-02,-2.951505174578558655e-01,-5.011614827563032164e-04,3.739626953590812234e-04,3.484300971015084165e-04,2.278706580400466919e-01
-7.546797042314828952e-02,-7.498465369357598664e-02,-3.370287477946062871e-01,-1.698775175229162151e-03,-6.204607909175159641e-02,-6.999473689021229461e-02,3.078900575637817383e-01
-5.919870431141432965e-02,-5.833262997262698979e-02,-2.917363554821489346e-01,1.815610607958255461e-04,1.706530733268450672e-03,-2.784828359037839866e-03,2.330407798290252686e-01
-6.072681391212264579e-02,-6.896506292687534789e-02,-2.894313088514635091e-01,-8.892893880260683377e-04,-7.226596690494103362e-04,-1.870279551618868775e-05,2.247074395418167114e-01
-5.273881689719099597e-02,-5.185066357761644595e-02,-2.911241109843408781e-01,8.652931770001989461e-04,2.409882100964152313e-04,-3.366687226801569105e-04,2.388363927602767944e-01
-5.849265766637086472e-02,-5.692252649471335468e-02,-3.375282769599136090e-01,1.841915912272821913e-07,-1.218261229498822720e-02,2.423858792423770614e-02,2.837415039539337158e-01
-7.790275127709994640e-02,-7.809065462680447878e-02,-5.033415133584420165e-01,-5.027956106364687115e-03,1.908525906252112742e-02,-9.006240033749182694e-03,4.270013570785522461e-01
-7.982461510802776883e-02,-6.131820325893904550e-02,-2.051856439678919064e-01,-4.983887288961499906e-03,-2.026862677466541296e-04,3.069820583932299229e-03,1.359439939260482788e-01
-6.505519730289852087e-02,-3.765036145655151212e-02,-2.537847957758605499e-01,-6.692099681099546518e-03,-1.109648106310725038e-02,1.907225272132335309e-02,2.076944708824157715e-01
-6.323857865446545767e-02,-3.819183570666065397e-02,-2.799502109062310673e-01,2.478323550019091194e-03,5.686607455313388328e-04,3.100503796120894148e-03,2.303636819124221802e-01
-7.192032283334916232e-02,-7.088331031713417107e-02,-4.066980445732989446e-01,4.864490787298521909e-04,-6.751337982249241976e-02,-3.857216482892254772e-02,3.613345921039581299e-01
-5.822740761272576782e-02,-7.409199794072285350e-02,-2.916073657098598448e-01,-1.887410540801820816e-03,-1.699385057425418784e-04,1.415589441533216756e-03,2.259030789136886597e-01
-5.433230765845578625e-02,-4.600692108632985222e-02,-2.627337676017515444e-01,-8.884996560443959510e-03,-7.459284926944806556e-03,4.028973414336547640e-03,2.137474119663238525e-01
-6.524722348267969485e-02,-3.454682336679630594e-02,-2.831465329932467134e-01,-9.757735075176093289e-05,-2.694256327650882747e-05,7.215971463667175028e-04,2.347633093595504761e-01
-7.429626864437455236e-02,-5.927175382016823535e-02,-2.938797056227240301e-01,-1.205683818135208651e-04,1.885819772099726118e-03,6.313348141726102952e-04,2.274943143129348755e-01
-6.393033585813764907e-02,-3.413010388489030877e-02,-2.804655296057412261e-01,-4.216807785214091381e-04,-1.800851856826500498e-04,1.543277471091499377e-04,2.328713089227676392e-01
-6.192099056224756315e-02,-6.068573831793816487e-02,-2.888634179459572682e-01,-4.128875162007515425e-04,1.313305534865572693e-03,1.023173948822253239e-04,2.275751233100891113e-01
-5.921408040132583595e-02,-7.114875216167212968e-02,-2.963134767364924982e-01,5.317753747754749329e-03,-2.733495443215007295e-04,3.900779609268159413e-03,2.316453456878662109e-01
-6.698874191713410919e-02,-6.785685914978450972e-02,-1.411487235338864943e-01,5.688902705515829373e-04,-1.695653397419209828e-03,4.567299646728169293e-02,1.081838309764862061e-01
-5.395341094692540640e-02,-5.524426487294435695e-02,-3.366573733378578348e-01,-1.550325384332373185e-03,-4.223321368865003145e-02,-2.377225551478856502e-02,2.942987680435180664e-01
-6.578702564992824908e-02,-3.739044431542958014e-02,-2.816394735436489327e-01,-2.259207109628121740e-03,-1.640419066242499281e-04,1.924342343042443086e-04,2.313949465751647949e-01
-6.439826964316686109e-02,-3.407358104705435209e-02,-2.780407316409163609e-01,1.179068649578000514e-04,1.545610029260515448e-04,2.504186924977256506e-03,2.303481251001358032e-01
-6.490153727025985142e-02,-3.709688444553126130e-02,-2.846950996863792938e-01,3.499719566421083545e-06,-8.041472285044202030e-04,2.417477448565367917e-03,2.349746078252792358e-01
-6.425682624638751061e-02,-3.649985778276956805e-02,-2.817614055674813600e-01,8.328179736848479375e-04,-6.378032827947931627e-04,8.903179485257787075e-04,2.326405793428421021e-01
-6.871244184035514568e-02,-7.010814206051151076e-02,-4.120109812580459163e-01,-1.139478776347767949e-03,-1.206681364434459940e-02,4.080112068042764106e-02,3.504448831081390381e-01
-7.252669605842662626e-02,-6.615115108727984139e-02,-3.276092343887386793e-01,2.755901676600012399e-03,-6.031955586365007199e-02,-5.545002027676265016e-02,2.947817444801330566e-01
-5.913927897323620342e-02,-5.924612155880790154e-02,-2.919571799885776753e-01,1.172908839096020130e-05,-2.316248725143843328e-03,2.844809775521348755e-03,2.328512072563171387e-01
-5.993271329702321015e-02,-5.850041869440868181e-02,-3.227502540829018107e-01,1.646113543619230190e-03,3.854320243256315059e-02,1.865879283211621664e-02,2.737898230552673340e-01
-5.970396033937958036e-02,-6.373593578351444133e-02,-3.388227040179508376e-01,9.587674113832809738e-04,2.519526037119842587e-03,3.487402769683277740e-03,2.772299051284790039e-01
-7.024941400356236876e-02,-6.134401007204283440e-02,-3.107421452894265079e-01,5.677552379187851030e-03,-1.013044490930412739e-02,2.540366332039023078e-03,2.459302544593811035e-01
-6.092882579715024061e-02,-4.338543452030736713e-02,-2.753365493929296193e-01,5.238738635569568924e-03,-7.257754565516715863e-04,1.162462046290011711e-03,2.238924950361251831e-01
-5.794672874717375632e-02,-5.957907549048888085e-02,-3.060127650609220096e-01,3.814396880293381871e-03,3.203183843275214659e-02,2.135935938525444777e-02,2.561736106872558594e-01
-5.731071783989571955e-02,-4.238501591949164760e-02,-2.883278154333602794e-01,2.158737096675883427e-03,1.939811465663085401e-04,1.254239714042024601e-03,2.388693839311599731e-01
-6.543313851512114199e-02,-3.810773096717577635e-02,-2.684255558144931775e-01,-9.703493445784065145e-04,-3.722543713999951535e-05,7.018501978470802552e-03,2.182889282703399658e-01
-7.005201028046817435e-02,-4.892065783098389908e-02,-2.831610336468764477e-01,1.240634667381916405e-02,1.239007482921325280e-02,4.250582360228644802e-02,2.381339967250823975e-01
-5.895912781121474822e-02,-5.236393763591215555e-02,-2.528283226737874090e-01,6.778570720500428238e-04,-2.582716620854824674e-03,4.822591914129382290e-02,2.142567932605743408e-01
-4.855386967835140233e-02,-5.342882752165530047e-02,-1.071042709725875952e-01,9.492999640300554126e-03,5.812104586137581408e-02,-3.791869241100111892e-02,1.337328851222991943e-01
-7.353459798366129840e-02,-6.296836314136676493e-02,-3.458310613930565269e-01,8.307915254198300348e-03,-3.083470559355828196e-03,-1.347677584715702755e-03,2.781639695167541504e-01
-5.133774635604373970e-02,-6.270694776139312809e-02,-1.736391102475067227e-01,-5.748738265045432415e-03,5.317496471220655579e-02,-5.844228818086399935e-02,1.803463101387023926e-01
-4.043103356736245380e-02,-6.040755428062893895e-02,-2.687364285270097963e-01,5.762754756189130551e-03,2.262932594455713438e-03,2.787098070803883595e-03,2.193170338869094849e-01
-6.002367673778385981e-02,-6.779970379302838190e-02,-2.879432445141407726e-01,1.358670446177000484e-03,5.024821908918698207e-05,-2.889424048000125604e-04,2.241456806659698486e-01
-5.445586733405895219e-02,-4.641758112616897747e-02,-2.895628872470473736e-01,-2.019617915706024489e-03,-2.672862130551209516e-04,1.522418551511982342e-04,2.392536401748657227e-01
-4.483739005969644698e-02,-5.419659839787044353e-02,-2.892140570810616262e-01,-3.798735067980068755e-03,1.445014283659369538e-03,-1.734073007505074942e-04,2.399375438690185547e-01
-5.667867059061099111e-02,-7.360176031483132986e-02,-3.191472396874164286e-01,2.751743602184117312e-03,-1.624625372655538573e-03,-8.594264885201409465e-04,2.544940412044525146e-01
-7.550278891473055642e-02,-6.172134720515455586e-02,-3.098381238386410663e-01,-1.211567587405423547e-03,3.490820808226736353e-03,-3.426143203845391505e-03,2.416787743568420410e-01
-6.356534910668354410e-02,-5.654790442770633863e-02,-3.410981395105864289e-01,3.412835811493579279e-03,-1.748042659355319994e-02,2.709308450746453212e-02,2.866618335247039795e-01
-6.080274255104908820e-02,-5.184775667617151640e-02,-2.935098533947372856e-01,-6.408919523998696764e-03,6.612711604404572030e-04,-2.837920530393233873e-02,2.426053434610366821e-01
-6.761847408774715462e-02,-5.735815593747534136e-02,-4.514625571949694716e-01,-1.311616683498425433e-03,7.363303684650834152e-03,-3.691079850276480362e-02,3.945059478282928467e-01
-5.737702425061015632e-02,-4.549977714140981955e-02,-2.888531320978350303e-01,4.715441742684497138e-03,4.451663194145830127e-05,-3.068392627874577498e-03,2.378371506929397583e-01
-6.693877142781340384e-02,-6.508413975285060049e-02,-2.888403378087007756e-01,3.346287663820063461e-03,-1.759106952856591129e-04,1.697106251410645649e-04,2.229104340076446533e-01
-5.974931600498635531e-02,-7.737883688558115647e-02,-3.220461822446922806e-01,-1.483026837940472950e-04,-9.826396690288407426e-03,4.669136438743818241e-04,2.545126080513000488e-01
-7.625885294444144369e-02,-6.488310357468476952e-02,-4.616018701544468694e-01,7.074309328490916739e-03,-1.221134606403353681e-02,-2.967368140492990594e-02,3.952736854553222656e-01
-6.137733703559390686e-02,-4.018362457984564484e-02,-2.807343763158427485e-01,4.329838291876214086e-03,-5.697126405805152775e-04,-1.770756424238218840e-03,2.308295816183090210e-01
-7.389818599533318211e-02,-6.921850474933685660e-02,-4.976164634461043290e-01,-2.059922573629535420e-03,-1.921295699113809326e-03,-3.087861106953232460e-02,4.294487237930297852e-01
-7.269990877015250486e-02,-5.562385380531492673e-02,-2.933395172722802480e-01,3.313718564846724192e-04,1.679760332507100390e-03,-8.123494881941080480e-04,2.296777218580245972e-01
-4.960161338028433453e-02,-6.025698810279320888e-02,-2.562275155276218519e-01,-6.945306930999040063e-03,1.398354605167805281e-03,-4.907244355814952431e-04,2.018846869468688965e-01
-6.402277977020301436e-02,-5.673570579026121496e-02,-3.713450075400309691e-01,-8.457199327734062425e-03,3.662920851402800410e-02,1.870621401906318731e-02,3.194197416305541992e-01
-7.057247332584982991e-02,-5.430536143008475591e-02,-1.913872587965388949e-01,8.933028664955069715e-04,4.173387921464788777e-03,-4.466579574241481138e-02,1.512146890163421631e-01
-5.943996331622239393e-02,-5.977066730370445002e-02,-2.907231826972024313e-01,2.369881729301384317e-04,-1.594028693751502797e-03,-3.851743748470141146e-04,2.311358600854873657e-01
-8.004661765513357286e-02,-7.022690428175901167e-02,-4.906038685893705509e-01,-6.614213734782231451e-03,2.501201801505946454e-02,-2.727472170143300720e-02,4.206245541572570801e-01
-5.975875164467592260e-02,-4.031155520670476333e-02,-2.879127968829695017e-01,3.868995223099661648e-03,-2.038193484721929633e-04,-6.309328071270316370e-03,2.388176620006561279e-01
-5.940812850663980405e-02,-4.596223509902441773e-02,-2.802803657528591952e-01,3.119853411335143586e-03,-4.871910535625011054e-05,-6.591137222229282236e-03,2.282426357269287109e-01
-4.916166654680671766e-02,-5.029564077245646248e-02,-3.271609606875345300e-01,-1.606829457205278351e-03,-1.544369196206626330e-03,-3.239933715768313766e-02,2.830789685249328613e-01
-5.388509160005777732e-02,-6.980184713520486139e-02,-2.584100985099437864e-01,8.791858299939645655e-03,1.252199722149266101e-02,1.427220468189205685e-02,2.003542482852935791e-01
-4.984829119584590490e-02,-5.052212554830780300e-02,-2.037561996814507004e-01,1.996615848518565935e-03,6.680454763352658420e-02,-3.886692521327110572e-02,2.037567347288131714e-01
-5.619836780999323822e-02,-5.821707877271664611e-02,-2.901318859255324623e-01,1.849327948979352459e-04,-1.443190980666744436e-03,-6.423916974865133932e-04,2.329470068216323853e-01
-5.796357065223581295e-02,-7.170757400019436845e-02,-2.928125989484260394e-01,1.259936524504944163e-03,-9.811585993995459076e-05,-2.047294107367028312e-03,2.283255606889724731e-01
-4.905346441598072704e-02,-6.715580314801350426e-02,-2.384615984066845717e-01,4.145858842737031730e-03,3.036702550235693444e-03,-1.876611034402401697e-04,1.812560111284255981e-01
-3.611372029332657330e-02,-6.417535964781738433e-02,-2.826490270125833204e-01,5.032238523617778552e-04,2.576309369864390785e-04,-3.557031482344359761e-04,2.337739616632461548e-01
-6.337500313585125999e-02,-5.456230952952478841e-02,-2.910443574646693898e-01,-6.665216257465546995e-03,4.128727897676148784e-02,-1.185631695774069967e-02,2.441030293703079224e-01
-3.559272608082446332e-02,-6.213167609513087913e-02,-2.753316525152969541e-01,-1.950976691241873952e-03,3.176463934804993425e-03,-2.122756324054105872e-04,2.277245521545410156e-01
-4.293070635567440563e-02,-4.638281936670383965e-02,-9.926195687277514224e-02,-5.722135759803410231e-04,-5.361555809887955798e-03,-4.915508606824352256e-02,1.016196534037590027e-01
-5.616847323461549024e-02,-5.602148496959677426e-02,-2.912289458069057257e-01,-1.823514768354520237e-03,-7.553825625635837964e-04,4.185044173118142720e-04,2.351599633693695068e-01
-6.609926192489101737e-02,-7.829008172632295759e-02,-3.372506989986677750e-01,7.822381166209271819e-03,1.120289058745607344e-03,1.569755566206746137e-03,2.656329870223999023e-01
-5.859221179157410309e-02,-4.433960684424466392e-02,-3.247044777284781580e-01,-4.565544128149544951e-04,1.170792440149487704e-02,-2.243292080719096887e-02,2.770076394081115723e-01
-5.535071494736207298e-02,-7.850614080698670172e-02,-3.450066311597791424e-01,2.241651724816417710e-03,-4.344044238777320863e-03,-5.202936811867753600e-03,2.790744006633758545e-01
-6.004154612162834748e-02,-7.374211039447296778e-02,-3.373353372801843331e-01,6.546019268251171419e-03,-1.184965487848569331e-03,-1.472007962206325037e-03,2.709607481956481934e-01
-3.789537756908052668e-02,-4.136785246684861195e-02,-8.758422381655837918e-02,1.200366993123981076e-03,1.477695166102803784e-02,-1.712479613613548945e-02,6.202958896756172180e-02
-5.796969580934992206e-02,-5.883945608812869710e-02,-2.889711871862730153e-01,3.521738370828059075e-04,-5.307371485732284653e-04,6.092758211180388482e-04,2.305728942155838013e-01
-5.104984446779278762e-02,-6.224890709021321800e-02,-2.575702606934712202e-01,8.212892602200577014e-03,1.701458431401585338e-03,6.031946886038364259e-04,2.016814202070236206e-01
-6.204722558149555756e-02,-7.832450340505300868e-02,-3.472909867193989530e-01,2.288284647399814117e-03,-2.490441744579697733e-03,-5.359972229264558033e-03,2.776805162429809570e-01
-6.857101836168640052e-02,-6.218451608848857282e-02,-3.331953849676613233e-01,-1.151775823461769106e-03,-6.001575488730542460e-04,-6.723833911143577277e-04,2.678866982460021973e-01
-5.691016907779450351e-02,-5.554335672623507414e-02,-2.669445145764614002e-01,-1.181361590336659981e-02,4.522530118484795192e-03,-4.898497432217976608e-03,2.120268940925598145e-01
-6.579041332964333244e-02,-3.786179434701632263e-02,-2.793521550638753959e-01,-3.095827271076144385e-03,4.564454512429076617e-04,2.221244843191643933e-02,2.320833206176757812e-01
-6.573756925784621230e-02,-5.967583489692671050e-02,-3.009020731446455654e-01,1.649769113137820875e-03,1.781285233194377293e-03,3.329123729210942302e-03,2.383600771427154541e-01
-6.313705933600557985e-02,-6.479318600847765175e-02,-3.096703980288669777e-01,-1.268367611340321310e-03,2.231375407676682368e-02,4.127693996156229367e-02,2.588108181953430176e-01
-6.372873806755506576e-02,-6.458740376593763433e-02,-2.867628983579920132e-01,1.329826136467114183e-03,-3.662787667072765979e-04,-6.905708843541739537e-05,2.226189225912094116e-01
-6.170561365268269205e-02,-6.326629285877506670e-02,-2.883962352217351865e-01,-9.707414165113058139e-04,-8.780831376255600253e-04,-9.024123155408894301e-04,2.259311079978942871e-01
-7.031689446794842091e-02,-5.915029603810793846e-02,-2.891004008380129719e-01,-1.129253150180879869e-03,1.537479872011830815e-03,-7.324551701248072739e-04,2.246030122041702271e-01
-7.047578678201298075e-02,-5.845235866725805030e-02,-2.907454108007775373e-01,-9.289445196507616727e-04,1.197867702692678379e-03,-1.044898710637648821e-03,2.265432327985763550e-01
-5.982759128555642514e-02,-6.632111197633325239e-02,-2.938473195440640673e-01,1.920453034379962824e-04,-1.417404428474053476e-04,-2.425612949060260018e-04,2.308422327041625977e-01
-5.605255636729380986e-02,-5.901387507007432864e-02,-2.922321152460930493e-01,2.441091387030156564e-04,-5.040559043476412586e-04,-1.850901602150144373e-04,2.347151339054107666e-01
-7.571549801256852175e-02,-6.773025963795772930e-02,-3.551156038198219900e-01,-1.298179517854056511e-03,9.125882230787352167e-02,3.700536766075827877e-02,3.308429121971130371e-01
-5.503471697057545076e-02,-5.913593147836973540e-02,-2.975600212749950346e-01,-1.145673975569271898e-03,4.272625615767907531e-03,2.970719298926489168e-03,2.406779527664184570e-01
-5.751045662519670143e-02,-4.152843659659137543e-02,-2.837651980569625421e-01,-2.196452648202372633e-03,-9.453512983456347461e-04,3.138743890418364628e-04,2.346914857625961304e-01
-5.685169048624066912e-02,-6.034747670878713721e-02,-2.949092276864297979e-01,1.599393663544034991e-02,4.126948111140836539e-02,2.127178828536645944e-02,2.511688768863677979e-01
-5.880413123214556226e-02,-6.560508316356300496e-02,-1.469362380134813240e-01,-6.275558185762147509e-03,-4.525405731562873179e-02,1.291697973825667138e-02,1.182227581739425659e-01
-7.394354037200488727e-02,-5.878617423034060430e-02,-2.953617175099218506e-01,-4.837297188158968392e-03,9.071108258361414763e-04,-1.342064547236501140e-04,2.295312434434890747e-01
-5.601289565274306104e-02,-5.963484415394185167e-02,-2.915731266627303864e-01,-1.117242746215513921e-03,-1.337575223084477676e-03,3.406486676522922554e-03,2.338642328977584839e-01
-5.674450338335645938e-02,-7.284716095867993513e-02,-2.304713939065730632e-01,1.440022702741338648e-03,-1.162491492666417256e-02,8.669477789288462799e-02,2.249498963356018066e-01
-4.928235975696641791e-02,-6.434493839044674868e-02,-2.423905579336838034e-01,7.296459369678468324e-03,2.220154672436689021e-03,6.364560239007416298e-03,1.868287324905395508e-01
-6.188939015358713158e-02,-5.669622656530773352e-02,-3.166056964636205784e-01,-1.260984017051104385e-03,3.757704783709070462e-02,2.765783760293431467e-02,2.697515487670898438e-01
-6.237530299024232616e-02,-7.483936935910580346e-02,-1.976810525749037595e-01,2.617658428817397527e-03,-3.122956187110219328e-03,-3.528413349701992616e-04,1.297178715467453003e-01
-8.273227258290798136e-02,-7.323423286047861525e-02,-3.167385869359335970e-01,4.022310945280402859e-03,9.475517381762044167e-02,-2.986140789467046572e-02,2.945013642311096191e-01
-5.835830695567967297e-02,-5.999829265531539391e-02,-2.989229075701516081e-01,1.195480283330174927e-03,2.218277272092748775e-03,-5.563095628283562435e-04,2.397904694080352783e-01
-8.578326834583674398e-02,-7.786651157690377412e-02,-5.022850965059519890e-01,6.082190562407578313e-03,-3.259462914445856313e-02,-2.173089701654228739e-02,4.260853230953216553e-01
-6.653264138123807236e-02,-7.162657147380302458e-02,-2.930580722156939100e-01,-6.715314378281165945e-03,1.156477345905512289e-03,6.037853659571627059e-04,2.243350297212600708e-01
-6.425897203915892364e-02,-5.036867814613832373e-02,-2.508862984186748246e-01,-8.519182635629403422e-03,-2.033513111315202963e-03,1.600097414314929347e-03,1.945580244064331055e-01
-5.830234289519836688e-02,-6.422598812120970668e-02,-3.067556621270686179e-01,5.433678614587112050e-03,3.414248164341114004e-03,4.425150323519144724e-03,2.459160089492797852e-01
-5.600079372090158158e-02,-5.574031125645143026e-02,-2.900464616200996715e-01,1.854621564775987570e-03,-4.459254987794735716e-04,-2.241282302601074012e-04,2.341996431350708008e-01
-5.883156868871788903e-02,-5.867396368113933502e-02,-2.891793388553962618e-01,6.403849621735356970e-05,-9.868988366736012197e-04,8.472078948125729911e-04,2.304376512765884399e-01
-7.824649132183938982e-02,-5.709115838712158775e-02,-2.949804524764475522e-01,2.037389033754168912e-04,1.400497169521120453e-04,-3.924906626405050259e-04,2.280501723289489746e-01
-5.785619920258928961e-02,-5.690769713140578223e-02,-2.930692222633558552e-01,8.198761837297024405e-04,-4.394791400519178909e-03,-1.787671410092950492e-03,2.358361929655075073e-01
-7.440343087573458858e-02,-7.846810449955927969e-02,-1.816114044586723542e-01,7.625690836610958968e-04,-1.789167973463832995e-02,5.726965601514063912e-03,1.101579815149307251e-01
-7.420070385249838418e-02,-7.658525339603247661e-02,-4.326399075525932947e-01,1.759217899435414588e-05,-6.857280364804133055e-02,-4.487525323873908095e-02,3.844186365604400635e-01
-7.472332013559737640e-02,-5.889447242420961515e-02,-3.360697129866427879e-01,-3.735960220028347080e-03,-4.765901746880726875e-03,3.535235101573474745e-03,2.698829472064971924e-01
-5.779383844086546929e-02,-5.943284731954215361e-02,-3.000185281426718809e-01,1.264485996118612380e-03,-6.256191459345014638e-04,2.210409396186024510e-03,2.414520829916000366e-01
-8.103018189510734215e-02,-7.840356666816918063e-02,-1.726072358726705724e-01,-1.038058981394245073e-03,9.986129594316248831e-03,1.337975093096537872e-02,9.733060747385025024e-02
-7.102436980032818259e-02,-7.639397519090261601e-02,-3.388730032621913857e-01,-3.773517004236481495e-03,4.094913798884017991e-02,1.023857063451755339e-01,3.268871307373046875e-01
-6.481272865785647763e-02,-6.319774086049331774e-02,-1.835085233402850013e-01,8.813264401292462275e-03,1.251816399491379080e-02,8.186909010263594688e-03,1.232363730669021606e-01
-7.786595301023656324e-02,-7.525676862721013272e-02,-1.711011463584823367e-01,3.061329629777592492e-04,-1.638235000690396043e-02,-4.736491798746840162e-03,9.907373785972595215e-02
-7.981940489101743696e-02,-7.610292129281671925e-02,-1.470731948939575928e-01,9.404802541842946463e-04,3.064310759434608292e-03,-9.601979763225349310e-03,7.137401401996612549e-02
-7.075181308427867799e-02,-6.719113776901408652e-02,-8.644166522509080797e-02,-1.069365289312092368e-03,2.171319755247022934e-02,2.191534387869947809e-02,5.633278563618659973e-02
-6.194581918307948132e-02,-6.451589643940947028e-02,-2.902571119543616573e-01,-9.819191677949549481e-04,-6.466498173814444386e-04,3.429442746296386391e-05,2.270463109016418457e-01
-6.986529156861107093e-02,-7.882178763322433834e-02,-4.880520459768585839e-01,-2.831157134485077533e-04,1.881111518173345099e-02,-3.366296127216149899e-03,4.151032567024230957e-01
-6.021622091497425000e-02,-6.101491667110084394e-02,-2.948932629878904255e-01,-1.000336880334980097e-04,2.984649168494645129e-03,1.868603716170477887e-03,2.343581616878509521e-01
-6.578102606764225924e-02,-6.682651788202213783e-02,-1.162348820849640890e-01,-1.483195900106167205e-03,-2.828204009748158665e-02,-3.257507349918154329e-04,7.000339031219482422e-02
-5.366531976869587384e-02,-7.449311528882245070e-02,-3.042184290122650347e-01,2.328661736217755261e-03,-6.524573744471810245e-03,3.099321476356654576e-03,2.411741763353347778e-01
-7.080839093780544324e-02,-5.910562567100108300e-02,-2.907904785964822159e-01,1.195758401365886597e-03,5.369142944186963348e-04,3.857853447473132504e-04,2.260731607675552368e-01
-5.659885301463704610e-02,-6.769232533828160869e-02,-2.995849993833747948e-01,-8.342743100862870260e-04,-3.633927219303284312e-04,-1.502044663630981453e-03,2.376531660556793213e-01
-7.641038384977821840e-02,-5.716193177189674013e-02,-2.927282966133890607e-01,8.405429290782714599e-04,-9.261105393477951121e-04,-1.088637309035330250e-03,2.265744358301162720e-01
-6.418561758726083755e-02,-5.933467417648849440e-02,-2.915860762401579764e-01,6.175586545881090166e-04,9.939179949602144556e-04,1.082495140375553788e-03,2.298808991909027100e-01
-6.728523863496230217e-02,-6.304414826133172833e-02,-2.998084629207898866e-01,-3.265410636902303741e-03,7.301599875432236014e-04,-1.159091936005765631e-03,2.347526550292968750e-01
-5.028527431054675978e-02,-6.693454981675668602e-02,-2.537060781778421314e-01,-9.904690284861765101e-03,6.270603376910017113e-04,-7.693690146598991617e-04,1.963865458965301514e-01
-7.314997335093786912e-02,-5.939989508339940660e-02,-2.965197200054714433e-01,-7.977396929658655709e-04,2.327061974071724002e-04,-6.908581833739216565e-04,2.305601090192794800e-01
-7.414604666444427061e-02,-5.835208219423644593e-02,-3.030209980137481551e-01,-7.265047958632015086e-04,4.192504817628749103e-03,4.761986907938225858e-04,2.372825890779495239e-01
-5.603203903463153251e-02,-6.099066419217489404e-02,-8.855344900773093331e-02,9.006002361407606897e-06,-8.435599523415073658e-03,6.522263019041467380e-02,1.178830862045288086e-01
-4.090211713351998846e-02,-6.217374746378873107e-02,-2.847916841348978600e-01,-5.236862420221620636e-04,-8.917146249088345796e-04,2.910154091544079705e-05,2.339869290590286255e-01
-4.342052954536042286e-02,-5.992325826209778106e-02,-2.894329565992570519e-01,3.870344817669384846e-04,-3.899651030490071044e-03,-1.087485282563701618e-03,2.382943481206893921e-01
-6.054249583063323059e-02,-6.153657473582324622e-02,-2.874088923599522616e-01,2.959154018851548225e-04,-3.605425358900978591e-04,-3.119064304413262777e-04,2.263730764389038086e-01
-5.892284670745996655e-02,-7.067217523102868604e-02,-2.995168898975547611e-01,1.600449673176333027e-04,-6.308901668675162230e-05,7.512334903990996061e-04,2.349436134099960327e-01
-8.202676477057807558e-02,-6.987495132462330505e-02,-3.183559123722987105e-01,-4.202512206404194345e-03,-9.445101014920226357e-02,-2.823801248136002459e-02,2.967812120914459229e-01
-4.931176379292755152e-02,-7.309002919414930854e-02,-2.333435805953956721e-01,-5.175577840092521371e-03,-2.361523894893505574e-03,1.376640526240557362e-03,1.736661493778228760e-01
-5.803597251138412072e-02,-6.965983198349884331e-02,-2.985231703945426252e-01,-4.531577033116795505e-04,4.828634927388998545e-04,1.255032622853121294e-04,2.348939776420593262e-01
-5.381072507739934063e-02,-6.214285798024585250e-02,-2.890433084090233695e-01,1.779981477387167698e-03,-1.542100228421673148e-04,-1.092217418631386645e-03,2.312076091766357422e-01
-6.216317673823018586e-02,-5.733738492209924931e-02,-3.307014085548141691e-01,3.473375081948802462e-04,6.767093794528568872e-04,1.607524582021948450e-02,2.724131941795349121e-01
-5.791288832689017729e-02,-7.468089346307268950e-02,-2.935074174397734326e-01,-3.999845659211776340e-04,6.920198538091277716e-04,4.958326788422836445e-03,2.278402298688888550e-01
-6.286929011320604999e-02,-6.161551766977320377e-02,-2.865680193366295647e-01,-1.772214354890837621e-04,-9.026543929475571370e-05,-4.951454998949089996e-04,2.243301421403884888e-01
-5.259775239708497363e-02,-3.887077662549518614e-02,-1.231834812994519746e-01,-1.208305350895630750e-02,-3.791647279275602023e-02,-2.599469035180343099e-02,1.136567294597625732e-01
-6.176259510527777608e-02,-6.230633706936448968e-02,-2.955181074366812766e-01,1.524939571043209749e-02,-7.804981724441550917e-02,2.593413185517257774e-02,2.747826874256134033e-01
-7.593656933932113606e-02,-7.433638306751155778e-02,-1.820547797793528322e-01,2.854529378651546930e-03,-1.074853640709283811e-02,-4.885719785580916897e-04,1.086517274379730225e-01
-6.685938719513241646e-02,-7.345044566292470434e-02,-1.181899030891835206e-01,-1.048665506384639356e-03,-2.842428675223646062e-02,-2.005468579787632235e-03,6.913122534751892090e-02
-5.845837218178345784e-02,-6.096219606163275073e-02,-2.895201591387159823e-01,-1.271258715046319021e-04,1.581409482422983922e-03,4.279835180179480340e-04,2.298377305269241333e-01
-5.787361705380997257e-02,-5.144959245598888786e-02,-3.668195474849018645e-01,4.092550562622468933e-03,-1.029689595061115785e-02,-1.218767073278171319e-02,3.135083317756652832e-01
-6.108901835485872067e-02,-3.828811607923997273e-02,-2.869158879025979214e-01,1.424918078460372375e-03,6.011098065060900553e-04,-1.626395226525465150e-03,2.380794435739517212e-01
-5.438210345103158816e-02,-4.826130276451909284e-02,-2.864728189472606212e-01,3.219749222657571248e-03,2.621248468123666200e-04,-2.751667749067165675e-04,2.352778762578964233e-01
-6.567598404195607031e-02,-3.844284131998181031e-02,-2.521914699908239799e-01,-3.120892672261852633e-03,-1.325847421757416975e-04,-9.694849530449512615e-03,2.022877037525177002e-01
-6.308776065995752580e-02,-6.318162423928477822e-02,-2.867271872903687235e-01,-2.058259009060194652e-04,-9.451729896258160917e-05,5.606472235550478874e-05,2.235928773880004883e-01
-6.875763528765276023e-02,-7.138080880153020724e-02,-3.210982996854929716e-01,3.464822256752249884e-03,2.182394062213214442e-02,-9.011385508946313794e-02,2.980723977088928223e-01
-5.794465610123583632e-02,-5.139565133938746311e-02,-2.838311942224852613e-01,-5.747754509443638200e-03,3.404546902508745303e-03,-3.233195110948754430e-03,2.295913547277450562e-01
-5.630300100997011337e-02,-6.168051625229858947e-02,-2.919825843855889946e-01,6.074917973806085239e-04,-5.414631825784986009e-04,-3.169227386163255607e-03,2.331062704324722290e-01
-7.977496677094375599e-02,-7.208313891449436017e-02,-1.630893054513756213e-01,1.126528766065694508e-03,1.043197106754448905e-02,-1.903995044517974933e-03,8.934452384710311890e-02
-6.187188600807363992e-02,-6.107262386885842220e-02,-2.961129317773627534e-01,-2.376247827577556131e-04,1.589863311758682105e-02,-4.235184275309093749e-02,2.473787218332290649e-01
-5.969531736082225176e-02,-6.575236423232647121e-02,-2.102264588094774622e-01,-7.543772071199482745e-03,2.813821633008206820e-03,-4.281135409937956125e-03,1.484385430812835693e-01
-7.352093893251462897e-02,-7.999927288476219034e-02,-3.980594551432825590e-01,2.378929109491867942e-03,4.082375526726457482e-02,-7.023347110034133811e-02,3.508271574974060059e-01
-7.805457578900351634e-02,-5.950375868176296934e-02,-2.935300101142844786e-01,-3.505170034718844713e-03,-4.144373740508826916e-04,1.557855674373060458e-04,2.254073768854141235e-01
-6.288800814726699939e-02,-4.592042250529181080e-02,-2.904788312617221924e-01,1.764509474969417789e-03,-7.834313199704060881e-04,-4.116273210399951088e-03,2.366625517606735229e-01
-6.106870866317129498e-02,-6.293918458945216288e-02,-2.928226506524759798e-01,7.483842042553277623e-04,-5.128175979721308429e-04,-1.551138607331286907e-03,2.308453768491744995e-01
-5.656798314110791925e-02,-7.608351407366521768e-02,-2.960449888104978444e-01,-6.587106933829939932e-04,1.392285972985034606e-03,-8.431673666649988456e-04,2.303601950407028198e-01
-5.963109909418191912e-02,-5.814130253719052011e-02,-2.864153140218519966e-01,1.051822033936675085e-03,2.119018853547920134e-03,-1.619576215467011249e-02,2.292920798063278198e-01
-6.292538127035951501e-02,-5.798442349886140379e-02,-3.282270385154029690e-01,-1.256998683432024571e-03,-1.579813873027098754e-03,-9.808477077579737247e-03,2.683674097061157227e-01
-6.371815571877062490e-02,-4.705300630257326644e-02,-1.698487211442591960e-01,-1.155119179491810762e-04,8.305785976372109802e-02,-1.150989057004278213e-02,1.854815483093261719e-01
-4.317994829046326033e-02,-6.142221008365641999e-02,-2.908601122492365798e-01,-9.423290533318674561e-04,7.268370635124744156e-03,-3.778053680368741781e-03,2.395077645778656006e-01
-5.487623295112770139e-02,-4.585705271794313087e-02,-2.898344318911721396e-01,4.099012829323448424e-03,-5.348054221650214331e-04,2.981571309892011926e-03,2.397577166557312012e-01
-6.234515700890339018e-02,-6.048137710506803350e-02,-2.248479080504411365e-01,-7.343547673737190785e-03,-1.666165383529210828e-03,1.930653510497281223e-03,1.639962792396545410e-01
-6.820861382824507102e-02,-5.809214615374290458e-02,-2.947628980445293756e-01,-6.913173874375306205e-04,-1.704210858756288792e-03,-2.108583332407083007e-03,2.318288236856460571e-01
-6.047575796961483785e-02,-6.895147458529923834e-02,-2.968747675950931253e-01,-8.465209340101407338e-04,2.666552907092983177e-03,1.870546022715142108e-03,2.323502898216247559e-01
-5.671974444697501505e-02,-5.008376098888245309e-02,-2.895499363845742691e-01,-6.811774367954244154e-04,2.693199338168361006e-04,6.571713732493662157e-04,2.362242490053176880e-01
-5.915844025899499870e-02,-7.427750139214200908e-02,-2.904725575866995424e-01,1.394370639178992965e-03,3.967471968428881550e-04,2.751128153928086568e-04,2.241519242525100708e-01
-8.175328145128896162e-02,-6.258923959026252426e-02,-4.730161231626331397e-01,-1.122241335066661606e-02,-2.207736196201146375e-02,3.682697562629169696e-02,4.084859788417816162e-01
-6.001380643947648585e-02,-6.786730083294531535e-02,-3.021977519290155456e-01,-2.213701107857462755e-03,2.932511859385983442e-03,-3.464428625912818836e-03,2.385146915912628174e-01
-5.868724367611988235e-02,-6.064723966210414097e-02,-2.919325544574031261e-01,-2.234881765984117691e-04,1.970200484684840950e-03,-3.693928756282644985e-03,2.323849946260452271e-01
-7.269197812446542839e-02,-7.828768408480954455e-02,-3.594682210720782090e-01,4.091267912970603625e-03,2.740857684332444547e-02,-9.628699721508693354e-02,3.328433036804199219e-01
-6.342376308757455283e-02,-6.878916638002291473e-02,-2.902224106038843177e-01,-2.004872556176530169e-03,-6.858858688212063955e-04,-9.981216048716335006e-04,2.242008149623870850e-01
-6.774125544136305743e-02,-4.344174549798084095e-02,-2.566148338426402220e-01,1.063139901129913148e-02,-1.896845716244360824e-02,-3.947106834337976711e-02,2.166693657636642456e-01
-5.531758766955449658e-02,-5.640548052650606881e-02,-2.775706745082698879e-01,-2.384436236726341415e-03,-1.674120663010264520e-02,-8.677630892934743920e-03,2.241419106721878052e-01
-5.961038303296276042e-02,-5.270433192334429695e-02,-2.922631439616312221e-01,-7.703100072326339413e-04,-7.627612634915985866e-04,-5.543780632802338196e-04,2.361909449100494385e-01
-6.902172309337382961e-02,-6.071445103453851355e-02,-2.900268071193289332e-01,1.409785889173277964e-03,-6.623720028149901505e-04,-6.516129530313429516e-04,2.252926081418991089e-01
-5.503065927141596869e-02,-5.326768644442628209e-02,-2.901530507121844460e-01,-7.013390311930340921e-04,1.508062666983876884e-03,4.756019089740227621e-04,2.360278367996215820e-01
-7.150730057435292220e-02,-5.938813925610500477e-02,-2.918841707317924028e-01,2.229158257535629288e-03,8.617903286619277249e-04,-6.316541776833194946e-04,2.267199903726577759e-01
-5.767858665649389094e-02,-6.055548489534995360e-02,-2.913871769242277754e-01,-2.982264031619481217e-04,1.746995050701110079e-03,8.269909454087522559e-04,2.323081940412521362e-01
-5.960034895375845854e-02,-5.863384025764899199e-02,-2.893135964935810156e-01,5.265182864941379050e-05,6.001236206914569316e-04,1.054045881960247004e-03,2.302076220512390137e-01
-5.898592054560282405e-02,-5.894046976969936902e-02,-2.906909125435873653e-01,-1.074962243356515385e-04,-1.563032923837879250e-03,-1.422493883931866872e-03,2.317567020654678345e-01
-5.896636543617567172e-02,-7.226735081134567917e-02,-2.950027459353818382e-01,4.572497473466611423e-03,9.451070391421127715e-04,-2.051405688959744358e-03,2.298447340726852417e-01
-7.468267931639288593e-02,-7.407338841215119207e-02,-1.436053316634855470e-01,-1.263127425957559437e-04,-1.918770998105249473e-03,-6.959651518412966059e-03,7.034984230995178223e-02
-7.570122619203716041e-02,-7.556615767649851878e-02,-1.453762758163457403e-01,-1.141647471785448383e-04,4.559692931919890821e-03,-1.018720729682030118e-02,7.237258553504943848e-02
-6.539547411557265766e-02,-7.564663138250599106e-02,-1.908610555548758969e-01,2.003566195429462571e-03,-2.230714528834873769e-02,-7.888440607456961504e-03,1.274836510419845581e-01
-6.475379826751952173e-02,-7.626975084102552427e-02,-1.643510355483652763e-01,-3.082291893154019951e-03,-4.153893655084783115e-02,7.933191100244455125e-04,1.187943965196609497e-01
-6.112822035962614531e-02,-5.964372528800037515e-02,-1.019495242311573013e-01,8.772539307500014155e-04,-3.393081077884008145e-02,3.583589469360548563e-02,9.506852179765701294e-02
-5.932248985126054031e-02,-6.155313388268643382e-02,-2.923595270152594683e-01,-3.659424789968264836e-04,-3.486135996714531237e-03,-1.281453511189978908e-03,2.320198267698287964e-01
-7.659997702239182416e-02,-5.907092166214512885e-02,-2.942363178882806962e-01,-2.773527997339402277e-04,-1.790630814938525602e-03,-1.023921750204520370e-03,2.269378751516342163e-01
-5.824147839956114736e-02,-7.206156561109312852e-02,-2.966879570345043460e-01,-7.855534874470317726e-04,1.411477013288041631e-03,3.231442986956874035e-03,2.319299876689910889e-01
-8.013568996655136278e-02,-8.202138337393753698e-02,-1.568720766354676222e-01,-1.973137445540102015e-03,1.189830074492911546e-02,-7.000214430848300008e-04,7.864595204591751099e-02
-6.413967002359369229e-02,-6.917883383889307514e-02,-1.209389596154143154e-01,1.410328945109725913e-03,-1.636194347130387819e-02,-9.762646152946207606e-03,6.372100114822387695e-02
-6.018270884848168911e-02,-6.011459828380420756e-02,-1.100671780502530811e-01,3.535988382711255373e-03,-3.770790825088474879e-02,2.346840977653646271e-02,9.190935641527175903e-02
-5.383716234151875168e-02,-5.193432176839890557e-02,-2.919865232633716001e-01,7.567904728798251646e-04,2.707713549860582352e-04,-9.377644706664751430e-05,2.391105741262435913e-01
-5.838536667388263823e-02,-7.526060003062265413e-02,-2.948311470914270482e-01,-3.211022270868920184e-04,6.899853430336915687e-04,1.391116203777449743e-03,2.284925580024719238e-01
-5.815730911081304355e-02,-5.920831369225193486e-02,-2.894962278610224704e-01,-1.159606206302419629e-04,-5.527754500068619934e-04,-6.036292208154075750e-04,2.308196574449539185e-01
-5.836455043242151641e-02,-4.369620632145598815e-02,-2.913962294363737771e-01,-1.929356858424048496e-04,-1.474469446878011111e-03,-4.982389308829673034e-03,2.408697158098220825e-01
-5.983647660235036359e-02,-4.512829397489788452e-02,-2.903167363198877471e-01,-9.869225876335584527e-04,-1.746494138257293004e-04,4.687256521202208558e-04,2.381829172372817993e-01
-5.533784458047724675e-02,-7.337419135983394569e-02,-2.951446602374735995e-01,1.550045009480363709e-04,2.644249054173101760e-03,-2.089978411661426883e-03,2.313904315233230591e-01
-5.442005568192712084e-02,-6.133929982214164633e-02,-2.416446206205194458e-01,9.660041265953062811e-03,-9.141924793491292695e-03,-2.341454301557374315e-03,1.853445023298263550e-01
-6.072869204615363725e-02,-5.859539241319808300e-02,-3.064600348740471603e-01,-2.668511588277231329e-04,1.127885274980510279e-03,-1.026546788691166771e-03,2.468194812536239624e-01
-5.948257926029934528e-02,-7.538253672251718496e-02,-2.951330872193723698e-01,-1.988576908917567658e-03,-9.151658651459553201e-04,-5.634034402136387345e-04,2.281500995159149170e-01
-8.114361691995541914e-02,-6.821297537759954399e-02,-4.866335055049367808e-01,-1.830735491016204477e-03,6.573134401710189860e-03,-2.650444753618624513e-02,4.148248136043548584e-01
-5.809724534995101830e-02,-5.666289685473541171e-02,-2.965606354698927527e-01,2.135304922335441724e-03,1.765440761485109625e-03,3.839393347649395355e-03,2.393243312835693359e-01
-5.892462391263952881e-02,-5.711040946404619123e-02,-3.050253255820650766e-01,1.560552730280324483e-03,-1.664020062570759767e-02,-6.390848783643642006e-02,2.722245454788208008e-01
-6.995120681880681590e-02,-7.644529566759972194e-02,-3.034736003044103958e-01,-3.012715730998528213e-04,-3.549355487386880725e-02,-8.921432243613171276e-02,2.841049134731292725e-01
-6.211106948701328179e-02,-5.991371735790303188e-02,-3.150914286291721655e-01,-2.809861463502645856e-04,-1.650258369068220710e-02,4.710104226213059075e-02,2.683888077735900879e-01
-6.126547726703754360e-02,-6.153223562941882718e-02,-2.890348628286682486e-01,-3.875084224777082032e-04,-3.171854760908771097e-04,1.532334816883519375e-03,2.276532500982284546e-01
-6.781046147703584381e-02,-5.970242578101987718e-02,-3.021193402428620223e-01,-5.467329703581627143e-04,-2.363225269497802594e-03,-3.720009808085328936e-03,2.385903298854827881e-01
-6.097109672776297729e-02,-6.961107232675360634e-02,-2.958970137716013804e-01,-4.759477358163496929e-03,-1.021800083228226836e-03,-2.922196825955533520e-04,2.308818548917770386e-01
-5.903476515369410205e-02,-5.892771639034891096e-02,-2.911724199383931011e-01,2.117647067943800496e-04,-1.526737304744591557e-03,1.828383372949483193e-03,2.322281450033187866e-01
-5.495707522957113400e-02,-7.095716497504536702e-02,-2.951193657224675526e-01,5.976139708779948465e-04,4.364797343940079663e-03,3.825597906464207540e-03,2.327948510646820068e-01
-5.860957007529625507e-02,-7.195951458081054075e-02,-2.955680463215091813e-01,3.880460053504700309e-04,6.846897843884782592e-04,-4.758861784484696143e-04,2.305790483951568604e-01
-6.083182261045655403e-02,-4.440409666416607337e-02,-2.911179612705470099e-01,8.218309125796217441e-04,9.026409235901424258e-04,4.575918157534421271e-03,2.390647232532501221e-01
-5.954818724244745343e-02,-4.941960874914752555e-02,-2.923996569660632927e-01,3.076770572779568506e-03,1.796229846653857906e-04,1.600250656812145147e-03,2.381533682346343994e-01
-6.276811782863100930e-02,-7.012179468207449529e-02,-3.071216099493822016e-01,-4.727279555437963882e-03,-4.715442812791295965e-05,3.425825125618509482e-04,2.409008294343948364e-01
-6.054195416338579994e-02,-4.801467475626386427e-02,-2.930648479925549998e-01,3.029492423798319303e-03,-1.159059605463699403e-03,8.758903244046049169e-03,2.395796924829483032e-01
-5.833915679545895183e-02,-6.137060110766479060e-02,-2.972935823467944827e-01,-4.735639100212541861e-04,1.163218692757370283e-03,4.248203189810575119e-03,2.375771552324295044e-01
-4.617059498140588247e-02,-6.367485416821810906e-02,-2.916326097392314409e-01,1.996445305845992750e-04,-3.540322345276261835e-03,-1.172594728704875848e-03,2.372829914093017578e-01
-4.265060377490602350e-02,-6.512086414787271460e-02,-2.572594688315606448e-01,5.424469671724828877e-03,-3.215507305180559383e-02,-7.126490385542708951e-03,2.123253196477890015e-01
-5.495431683224458186e-02,-6.615703222908612957e-02,-3.073948910194858053e-01,-4.060454479198903448e-03,-4.953553049426918237e-02,4.029053810857120832e-02,2.707479894161224365e-01
-6.788365394209282255e-02,-6.624000055432971434e-02,-4.103290957653670246e-01,2.970084005695335701e-03,-5.422199769096810312e-02,-1.706283566539361363e-02,3.571476042270660400e-01
-5.607892881064965862e-02,-6.181313733818341594e-02,-2.941537413837858606e-01,7.547424145802543276e-04,4.766224044679032504e-03,5.224025732932370374e-03,2.355823814868927002e-01
-5.650630015655582622e-02,-6.885045925569699410e-02,-2.077710800139939140e-01,-3.921305826850170727e-03,-3.623713455393606786e-02,-8.383345958286456123e-02,2.150252163410186768e-01
-5.873500915235918551e-02,-6.278875328108099452e-02,-2.984437815852635789e-01,-2.111463811680463782e-03,1.077676639258876370e-03,2.067420589128224438e-03,2.377702444791793823e-01
-5.931030786579441494e-02,-4.520082608133214885e-02,-2.890880584826016619e-01,2.291253549931523970e-03,9.467670095021427220e-04,-8.746978165347828399e-04,2.371912151575088501e-01
-6.147940902899401427e-02,-7.500641173247199478e-02,-3.205127210447359376e-01,-1.328325191236042185e-03,7.274932504316266278e-03,8.385678780323200512e-04,2.528704702854156494e-01
-6.339557883819071926e-02,-6.357078315961331438e-02,-2.866153503551361892e-01,-1.646091629015335829e-03,4.179559941114756392e-05,9.199413201668312184e-05,2.231505066156387329e-01
-4.879988726554362194e-02,-5.841846575741561909e-02,-1.977287802580184883e-01,1.060249235399535889e-03,-4.312007936251108231e-02,-4.558773019842733698e-02,1.807096153497695923e-01
-4.966608709040913616e-02,-7.508280756646665277e-02,-2.466343805390379396e-01,2.184028227591428093e-03,-3.486023232992711482e-03,2.263704021534301315e-03,1.857481300830841064e-01
-6.683065187056522194e-02,-5.375605463328561595e-02,-3.795577330042479436e-01,-2.232054412694059724e-04,2.317479609507365479e-02,-3.309114781688467233e-02,3.270388245582580566e-01
-5.794791227342827034e-02,-7.912432174798245121e-02,-2.995633640433166822e-01,2.991781759311745639e-04,6.223429488988095832e-04,-1.880967339430521983e-03,2.317799925804138184e-01
-6.298544317124962766e-02,-6.538273050540488462e-02,-2.875517048105735163e-01,-3.880604644688316358e-03,3.058613510318756502e-04,-5.243402640444424362e-05,2.234790176153182983e-01
-6.397471406089505486e-02,-4.857576028433646664e-02,-2.460404726966263778e-01,8.122190578312968312e-03,-3.653081895162387546e-04,-1.261178359894786234e-03,1.907662749290466309e-01
-6.599938694741797063e-02,-4.683796202035071798e-02,-2.971378185139656458e-01,-2.485608088975470049e-03,1.316083372528017775e-03,-3.741266781800186431e-02,2.498878389596939087e-01
-6.041152038401076396e-02,-6.043777960067506227e-02,-3.008170739570406593e-01,5.592135875798526397e-04,3.685849115082979761e-03,1.898581778436864110e-03,2.405016124248504639e-01
-4.931567737145554908e-02,-6.281123636848436054e-02,-2.555335111907202639e-01,7.640529355129392977e-03,-1.963901220366767904e-03,-1.021959970270776286e-03,2.002866417169570923e-01
-5.526170144905724613e-02,-5.337358028839422897e-02,-2.898218036697970401e-01,6.170907087063833354e-04,6.254219959250803887e-04,-2.634039128149963859e-04,2.355151921510696411e-01
-5.783739430372386581e-02,-5.768490020127506335e-02,-2.888098387918301979e-01,6.342475341972758792e-05,6.093233103707370799e-04,6.558878472019448458e-04,2.310539633035659790e-01
-5.988849352961875261e-02,-7.476204946564317388e-02,-3.039193526496324349e-01,2.578863205691653195e-03,-2.025145945982153618e-03,2.492875357444310561e-03,2.370518445968627930e-01
-5.535987126645898482e-02,-4.798972404634477273e-02,-3.056926039112392579e-01,-2.222516369336923359e-03,1.589648026791495861e-02,-3.093875379491164632e-02,2.611710429191589355e-01
-6.577492628526554475e-02,-6.607807295824766336e-02,-2.770766373998269083e-01,3.341087448726469573e-03,1.849032120879252894e-02,-7.433207795012852781e-02,2.494381368160247803e-01
-5.952154784199928383e-02,-8.025743664197790284e-02,-3.473211181619733634e-01,5.544266238574364208e-04,-7.012665133277058184e-03,-6.359301371782525268e-03,2.784969806671142578e-01
-7.823232533683341372e-02,-8.609316420480808696e-02,-4.484892965631457340e-01,-1.020879038317894141e-03,-2.729953543117334333e-02,-1.070148153631904353e-01,4.133242368698120117e-01
-5.079074314206521307e-02,-6.653453202329241700e-02,-1.977876434495034197e-01,-2.323412882288009972e-03,-5.982349767668137044e-03,-8.513479635506299159e-02,2.034920901060104370e-01
-8.227212927782462382e-02,-6.788545138096996334e-02,-5.249992142378789861e-01,1.668803042585051757e-03,1.536743792285661520e-02,2.959628355523480706e-02,4.537931978702545166e-01
-5.754620505826432697e-02,-5.838684673121991020e-02,-3.586504981887238541e-01,-4.632647734569101880e-03,-8.085436133648921456e-03,2.369864689651469958e-02,3.039025664329528809e-01
-5.379346194723569341e-02,-5.722422827596189421e-02,-3.016387927115585232e-01,6.765298700441345868e-03,6.960529696424043455e-03,1.241825947765174288e-03,2.467307448387145996e-01
-6.442501121935897967e-02,-5.642172862006557266e-02,-3.316370722946036520e-01,-2.546635092435567231e-03,-1.183750616818598882e-02,2.353819528431034397e-02,2.751488387584686279e-01
-7.659506613232369698e-02,-7.102043231850704852e-02,-3.833863328744645527e-01,5.165234016449722979e-03,7.543983591492137153e-02,-3.559007384037785049e-02,3.417831361293792725e-01
-7.403703868502053975e-02,-6.063205446535342713e-02,-3.091683218882440576e-01,4.463433071468687896e-03,3.026452013374811463e-03,-5.560732312768952319e-04,2.422942817211151123e-01
-5.801585400878409016e-02,-5.104010591611644887e-02,-2.907225205230427045e-01,-1.248028264572968553e-03,-1.411059333764803653e-03,-1.962615323319817119e-03,2.363187670707702637e-01
-6.179773894625920777e-02,-4.520505948458716783e-02,-2.644825846801871494e-01,-7.983580736829344604e-03,2.378572376371327734e-04,-6.256762263215389502e-03,2.121988981962203979e-01
-5.242027341330682266e-02,-5.501642631141070994e-02,-2.907664805010719000e-01,-5.788784882015320533e-04,-7.499108938613537577e-04,6.918215649251531138e-04,2.370675057172775269e-01
-5.912207200074173774e-02,-5.784528578771555574e-02,-2.878640983279750487e-01,1.301125301908752970e-04,-1.303454094481214308e-04,5.331665933057345768e-04,2.293851673603057861e-01
-5.364593111489664168e-02,-5.049763780572273653e-02,-2.734190383775294553e-01,-8.946796105238810637e-03,2.613456382387351496e-04,5.267360157804863805e-04,2.219081223011016846e-01
-5.674393312317885241e-02,-4.547839959152963352e-02,-2.891188224346540880e-01,-1.080006360165959014e-03,-5.722540582321467657e-04,-6.362858732468638142e-04,2.382194846868515015e-01
-5.780071330784106176e-02,-7.697133300223435448e-02,-3.031098770407700815e-01,2.931736570188040771e-03,-7.027821404779264862e-04,3.590860739429633814e-03,2.364472895860671997e-01
-5.776873247995287231e-02,-7.914495979643622336e-02,-2.993748431591161108e-01,3.046409348709321974e-04,8.761302142576908288e-04,-2.018434078230343584e-03,2.316908091306686401e-01
-5.559925994160884455e-02,-5.039335492697503971e-02,-1.851110379961253549e-01,-1.064595034831067929e-03,7.055758170353801373e-02,-3.518917584125429848e-02,1.900736093521118164e-01
-3.883121395584911151e-02,-5.992763464626796321e-02,-2.739004245029266205e-01,-4.297592970442768931e-03,4.127742437369521459e-04,-2.091501064535191106e-04,2.253874987363815308e-01
-7.370381491334165869e-02,-7.359276280195248265e-02,-3.166356080474196366e-01,5.379305950139958922e-03,5.718023964795172082e-02,-6.999146051254973022e-02,2.891968488693237305e-01
-6.065679790968997454e-02,-6.170286813587230745e-02,-2.890755878040127680e-01,-1.428744562790667497e-04,7.643279629625157596e-06,1.282949615487576512e-03,2.279085218906402588e-01
-6.337899812755901086e-02,-8.000356646322658027e-02,-2.635546839990834944e-01,-5.252312059202533800e-03,1.182550950878775292e-02,1.069093391610008020e-01,2.679738104343414307e-01
-5.698076458992935855e-02,-4.536659775280464657e-02,-2.678486899149877254e-01,-4.618286093079069718e-03,7.627494783999386532e-03,-1.766292029796424565e-02,2.195989191532135010e-01
-5.998847674205597114e-02,-5.924647391062370927e-02,-2.992119445197043426e-01,-4.937881768108191285e-04,1.077878307967617029e-02,-9.353885046771462722e-03,2.408686131238937378e-01
-7.046647330164733380e-02,-5.796147992365169310e-02,-2.919288331532733927e-01,5.357266090355492470e-03,-2.445898125541839246e-03,-1.177152236396973931e-03,2.282094210386276245e-01
-4.926425301888801012e-02,-5.312979218957283867e-02,-2.908842610246363258e-01,-8.289635648268821495e-04,1.001784217683975665e-04,3.353825864598819679e-04,2.397156804800033569e-01
-6.077364343212926512e-02,-4.264096785661652955e-02,-2.894185894717954399e-01,-1.851056734286572747e-03,2.040339399240317410e-03,-1.502473378910374911e-03,2.382913976907730103e-01
-5.247322471933879573e-02,-7.491103737158594233e-02,-3.018269991372881100e-01,2.184508565825466983e-04,-1.437691009543046313e-03,3.520416895518672842e-03,2.390174269676208496e-01
-5.728549354304135477e-02,-6.977162372985214189e-02,-3.009258669600366476e-01,5.460561283121994659e-04,9.334012567514016505e-04,-3.338190306751728179e-03,2.377211600542068481e-01
-6.133351213825835591e-02,-6.379253347499336257e-02,-3.327025417640333549e-01,1.878631940222752483e-03,4.933092525234556575e-02,-4.620410078875179793e-02,2.944411039352416992e-01
-5.367986002345279117e-02,-5.291387626971945368e-02,-2.910129675044350051e-01,-7.215781747286709397e-04,1.756418208884979234e-03,4.002990391258830216e-02,2.476436495780944824e-01
-5.059407640662919037e-02,-4.691242437598031056e-02,-3.204987127578446948e-01,-6.153073623927382205e-03,2.710554529375855393e-02,-2.596022430942302936e-02,2.796341776847839355e-01
-5.294586878169124655e-02,-6.298870047387722382e-02,-3.013857474244046042e-01,-3.108524166375763956e-03,-1.085873249590814165e-03,-3.860267767810206599e-03,2.437322735786437988e-01
-6.529032531627428082e-02,-7.809434547870175436e-02,-2.752857373826269605e-01,-7.362039103908819826e-06,-6.262577498105451924e-03,-1.012884464297777454e-01,2.692005634307861328e-01
-4.929565156650350666e-02,-5.352561403165340126e-02,-2.586091383352503437e-01,-9.805453762472778056e-03,6.641992146392684641e-04,-5.921823892462566193e-03,2.081816643476486206e-01
-6.711519068941457222e-02,-7.396167302303824354e-02,-4.651433642685568470e-01,-1.663487500867373787e-03,1.219107976563533341e-02,-3.880117766858164063e-02,4.008977115154266357e-01
-6.068918610953233372e-02,-5.607105824682033501e-02,-2.937098275515999113e-01,-1.005199230822933327e-04,-5.434142349474916766e-04,3.734707325012508964e-03,2.354545146226882935e-01
-4.133060664989524069e-02,-5.771854150244719317e-02,-4.276122685192239592e-01,-1.704856041524778140e-02,-1.560807122711125455e-02,-2.542549417050476643e-02,3.830063939094543457e-01
-7.124555939802976190e-02,-7.407384368815989051e-02,-4.613976583531338438e-01,-3.832049587318759731e-03,5.145971945493076766e-02,-2.148680691479573635e-02,4.006202816963195801e-01
-5.287490689803418797e-02,-5.326892723515642969e-02,-2.712131040840075613e-01,-5.129423717777106123e-03,3.974300867815711014e-02,-3.033932647387857159e-02,2.348713874816894531e-01
-5.827190844459076424e-02,-6.315385192000265435e-02,-1.646314115882088758e-01,1.254465441046941770e-02,-4.479435782657895104e-02,6.057067221260790946e-02,1.682708114385604858e-01
-6.462046140951194229e-02,-7.345141464011023524e-02,-2.902261309727567351e-01,-2.326283027585395076e-03,-1.422441817811984782e-02,1.056626338236511531e-01,2.882717549800872803e-01
-3.655166041597504578e-02,-6.195481413709522100e-02,-2.858075238903889370e-01,-1.081214201349694343e-03,2.537959267983596907e-03,-3.832763326000737246e-04,2.376240491867065430e-01
-5.916116788932905546e-02,-5.651440616499771308e-02,-2.898457033500044799e-01,-1.146582868874493344e-03,-1.098000213257927611e-03,-4.674957635690087576e-04,2.320369482040405273e-01
-5.381245446633484142e-02,-4.433809244843414654e-02,-3.193374265959685321e-01,-1.264399500810082892e-03,-1.046921393495904833e-03,-1.736687035230869433e-03,2.704183459281921387e-01
-6.300678692529498859e-02,-6.094562773911332831e-02,-2.883779168060658371e-01,7.451837116998212660e-05,-9.249745424970187268e-04,1.510930748280430629e-03,2.264295816421508789e-01
-6.972749487696698611e-02,-6.113676694722386395e-02,-2.915590952500629052e-01,1.100118646140609956e-03,7.034715669665902137e-05,-6.450771156781716625e-04,2.262601405382156372e-01
-7.076219994068252972e-02,-8.359535816339655478e-02,-4.923416939418967520e-01,2.875283763489106317e-03,2.501643973066267415e-02,-3.932206996770224892e-04,4.175961017608642578e-01
-6.048847355324628305e-02,-5.968745249902876471e-02,-3.002116407612152038e-01,-1.236742138403431170e-03,-4.020696807843381765e-02,3.171028942330707256e-02,2.559899985790252686e-01
-7.574014996215625017e-02,-7.004654968143730898e-02,-4.744940088296846215e-01,-6.444593189328882629e-03,4.619474428103796659e-02,-2.475243420116585505e-02,4.119125008583068848e-01
-6.185337864247185402e-02,-5.962142167539788429e-02,-3.024161096406272620e-01,-1.274324876209947770e-03,8.100409002318204044e-03,-4.304266723263221184e-03,2.422181516885757446e-01
-6.213791095110138274e-02,-7.492464659256647952e-02,-3.231206600518886640e-01,-2.343453496139986198e-04,-1.842605407215426941e-03,-4.281717417186027899e-03,2.549583017826080322e-01
-3.386846248667729070e-02,-3.913127286037763886e-02,-7.626934641598193121e-02,1.357093715012270066e-03,-1.380519509987785699e-02,-4.061992539134803848e-02,8.443693071603775024e-02
-4.628603999256449691e-02,-5.118160786618835417e-02,-1.178436269662886671e-01,-4.326675487179696203e-03,-3.825465044777039830e-02,-3.819864264669982357e-02,1.166960299015045166e-01
-4.983364198091043418e-02,-4.622708535814636088e-02,-1.126995338982293704e-01,5.474713917258058546e-03,4.819970096080758437e-02,-3.480333151223270749e-02,1.220050156116485596e-01
-7.253712076371215955e-02,-4.797902218240214511e-02,-2.453451773453164120e-01,1.672410192467912527e-03,2.424341700005439460e-04,-2.781506059365090530e-03,1.863902807235717773e-01
-6.481097033031535393e-02,-4.900625551531718332e-02,-1.581440964497188295e-01,4.072892577229024827e-03,-1.817979522620222915e-02,2.411308366937464989e-02,1.149850785732269287e-01
-5.268306329339145222e-02,-7.589461376323042296e-02,-5.091962627418240572e-01,-1.589803283333348846e-02,-1.661470140526281891e-02,5.251328117940980318e-03,4.472312629222869873e-01
-5.811759237035423603e-02,-6.189319462897692470e-02,-3.347097447633227973e-02,1.714229429704988662e-03,-5.395659142513482484e-03,1.554457475118494608e-02,3.918958082795143127e-02
-6.485906557247184123e-02,-5.451180897477896081e-02,-1.891400289609024010e-01,2.262047930804276206e-03,-7.672878163400687068e-02,3.773231357170656487e-03,1.858998984098434448e-01
-4.550855262452781214e-02,-6.406874608671676852e-02,-2.802549597797611147e-01,-4.964742158236040009e-03,-7.917736824703366233e-03,4.996766177465454366e-03,2.267825752496719360e-01
-8.017215770936877983e-02,-7.191562945495091896e-02,-1.983234978772169810e-01,-5.661156125317996085e-03,-1.144103749333479775e-02,2.205147719349701690e-02,1.301962733268737793e-01
-6.275653747838276508e-02,-7.968618882288702743e-02,-2.019615357800881028e-01,-5.202045135447240856e-03,-3.207251642752000868e-03,1.023486207918302440e-04,1.319849491119384766e-01
-7.205070983225922432e-02,-5.723331695957994958e-02,-1.757638277682940786e-01,8.354947939831166605e-04,-1.202635903306286357e-02,3.119549848255239941e-02,1.259690225124359131e-01
-7.526194317248163790e-02,-7.843777058307185857e-02,-2.403428917901644923e-01,-9.894485223600785195e-03,-3.012674925960807937e-03,3.035417789488399284e-02,1.726921945810317993e-01
-7.019049010501821062e-02,-6.154448342998519034e-02,-2.364824185252600575e-01,-1.086158143704070607e-02,-7.673791550827480101e-02,-5.074522825997267172e-02,2.343305349349975586e-01
-7.271390542666784917e-02,-5.880122298452467033e-02,-1.792613954045734204e-01,-9.069777436801353121e-03,-8.476370681479139524e-02,-4.912465737534317534e-02,2.051083296537399292e-01
-6.543953567290033968e-02,-6.219406267606764072e-02,-2.872799100801076699e-01,-1.006456553205800370e-03,-1.827638354264454279e-05,-7.969117539614554166e-04,2.234918475151062012e-01
-7.687759236448026001e-02,-7.612506620300271698e-02,-1.635307128240329755e-01,-1.941347440738101999e-03,-9.625936953533838561e-03,1.516288533837333204e-02,9.248545765876770020e-02
-7.376283815710420189e-02,-6.466283584416052110e-02,-1.622965327485250964e-01,-4.936352858054347814e-03,-8.548577305887513147e-03,1.171688858656812389e-02,9.711269289255142212e-02
-6.588233251890737718e-02,-5.785957946110661942e-02,-3.047756140911201395e-01,1.266818572472678921e-03,5.367760833791310367e-03,4.162536603549072366e-03,2.432985454797744751e-01
-6.130214062637764916e-02,-6.227738441950149417e-02,-1.955822188185988852e-01,-4.053085727589935024e-03,-4.941629239002381241e-02,-5.679531440172776169e-02,1.869584172964096069e-01
-6.892550350477694154e-02,-7.442952858623230750e-02,-4.865133931396742328e-01,6.354728258499611933e-03,-3.191698456747496526e-02,-1.211240731982641747e-02,4.192003011703491211e-01
-6.474185338521168398e-02,-6.168060306035306334e-02,-2.308519326865638988e-01,-7.748444428188276667e-03,-2.195092423937222183e-03,1.647846861382571077e-03,1.682651191949844360e-01
-7.644862371176369686e-02,-7.274072878185966484e-02,-1.469597136695986461e-01,-1.508296531859108953e-03,-9.228163091069326723e-04,1.098336076466110891e-03,7.252591848373413086e-02
-3.662540720361538021e-02,-6.143007168861503581e-02,-7.343957399864346758e-02,-3.557836334915589170e-03,3.615327089686426465e-02,-1.935495176340532725e-02,7.836060971021652222e-02
-6.298956082950374347e-02,-6.139406270689588829e-02,-1.769838850570000788e-01,-8.618111970381255732e-03,-8.410328170419319183e-03,1.381481430245199565e-02,1.191079020500183105e-01
-6.102565681157218203e-02,-7.181512842152748544e-02,-1.689224395421853875e-01,2.611407137561293570e-03,-3.841967876083093869e-02,-7.497675903265664174e-04,1.226553693413734436e-01
-6.211023070433132481e-02,-7.563744777869355063e-02,-2.044064326908814899e-01,1.293459538282631417e-03,-1.260319196944781426e-03,7.833519052291549288e-04,1.360806673765182495e-01
-8.178485806136956415e-02,-8.248382048063168659e-02,-1.576815021247538751e-01,-3.074504101779279054e-03,1.026716426183264114e-02,-3.423170270445670751e-03,7.802240550518035889e-02
-4.721074763424347454e-02,-5.063047753333480006e-02,-3.416236346292989001e-01,-6.369160006138220587e-03,2.890136153078557823e-03,4.941343460972715245e-04,2.929698228836059570e-01
-6.482266433038709474e-02,-6.478922885686408395e-02,-2.283861967538345361e-01,6.703248192320129632e-03,1.761054341964792165e-03,1.520664231088691065e-03,1.640412807464599609e-01
-6.363165883533722367e-02,-7.218472919811963484e-02,-3.315953992464020228e-01,-2.880881571517441837e-04,-2.644954571522979692e-03,-1.347191373636590171e-03,2.638417780399322510e-01
-5.006544683666654116e-02,-3.920238795027881223e-02,-1.086588987313921728e-01,-1.674010472907825286e-05,-4.837792856405222219e-02,2.699729955224935713e-03,1.059756651520729065e-01
-6.031002601699458898e-02,-7.815672344007375261e-02,-2.981836323868398697e-01,-4.690432693946767692e-03,1.712747822729256608e-03,1.309135175855639412e-03,2.296454757452011108e-01
-5.695574649375378939e-02,-7.621216680674118560e-02,-3.070559578298844849e-01,9.475592797014099813e-04,-2.679209323792571852e-03,5.494732406608306488e-03,2.412875741720199585e-01
-5.493927570581859376e-02,-7.136676893273011246e-02,-2.946709912456876301e-01,3.317468247111882238e-03,3.081483859440302224e-03,3.657654527445389214e-03,2.321736514568328857e-01
-6.830014880244017483e-02,-7.205337282582389979e-02,-1.816323696870699445e-01,-5.672185336741151183e-03,-1.615885150485037863e-02,1.172235399710726440e-02,1.171537637710571289e-01
-7.277123570854684975e-02,-7.534764423430932723e-02,-1.294243665924757480e-01,2.949612050037696536e-04,-1.082786125136566378e-02,4.324087970965022581e-04,5.850472673773765564e-02
-8.205555523448228306e-02,-7.498528733916152988e-02,-1.847419680840119982e-01,-1.143206481267685336e-03,-7.452130298163371115e-03,1.147138112936952128e-02,1.090220585465431213e-01
-6.563971925889887371e-02,-8.031405232913196857e-02,-1.352447751918793573e-01,2.091141052802595983e-03,-2.542530209929353552e-02,-7.536081336291893668e-03,7.849602401256561279e-02
-6.217829712059760872e-02,-5.192878374999249091e-02,-3.064178196482757466e-01,9.650332475796959087e-04,3.132949906855560240e-02,-3.286994937658765242e-02,2.616295814514160156e-01
-7.159295281275523948e-02,-5.914106904058927250e-02,-2.950897066347489828e-01,-3.783454688106283655e-03,8.806097367187576928e-04,-5.540426470041993814e-04,2.300760596990585327e-01
-7.006316297697263995e-02,-8.099208301649962749e-02,-1.617409013895068082e-01,4.507410967347234322e-03,-3.514756766648624575e-02,-1.298036760279839934e-02,1.086037978529930115e-01
-7.090314258627819499e-02,-7.651138855354482071e-02,-1.992414429589396407e-01,-5.959617434404779895e-03,-2.488819311722340749e-02,7.729722673337144356e-03,1.338898092508316040e-01
-6.539696837088752879e-02,-6.462084739469779737e-02,-1.144923079012894335e-01,-1.401000978259934115e-03,-7.266770296504018907e-03,1.595718155720447784e-02,5.811419710516929626e-02
-6.857745452136650155e-02,-6.343806613813382511e-02,-1.196893766302485479e-01,-1.312733335263947202e-03,-1.311091437792940607e-02,1.108585760254328020e-02,6.157168745994567871e-02
-4.388866958333406676e-02,-5.243882542966613047e-02,-2.853168583134143566e-01,-2.586374405913848332e-03,-1.459312436899661350e-03,3.790763142628712605e-04,2.373253405094146729e-01
-7.374987898806552311e-02,-6.723398801824806426e-02,-1.697902559271281253e-01,2.206291427099841152e-03,8.663189498000734359e-03,2.289149232103597498e-02,1.081841811537742615e-01
-4.985335931236280216e-02,-4.149880349235432475e-02,-1.104418480115044593e-01,-5.903267434833148891e-03,-4.577902648551068765e-02,-3.443851264434401316e-02,1.191498637199401855e-01
-4.726285691164379410e-02,-5.852151380911466139e-02,-2.158671256356156642e-01,-9.931501637405356492e-03,1.517627219807065470e-02,-9.208362459050470697e-03,1.670243740081787109e-01
-7.752442909795723147e-02,-7.705183475949278771e-02,-1.492967454265022309e-01,-5.890371807462374673e-04,-6.751178927177326709e-04,-1.363890661617900638e-03,7.206522673368453979e-02
-6.240224342325245699e-02,-5.103180740168319907e-02,-2.907609445159264894e-01,-6.682631560706464189e-04,-1.639544765723844472e-02,3.974877039291331571e-02,2.458072155714035034e-01
-7.155985200086376063e-02,-7.408134669413088402e-02,-1.522031015060372749e-01,-1.558249476425609299e-03,1.763601928205493427e-02,-1.408096372236258657e-02,8.855248242616653442e-02
-7.893250891432314342e-02,-7.934642074550467272e-02,-1.851009151652966422e-01,-1.621541185391365452e-03,-8.793172158874842242e-03,1.003393494627130914e-02,1.084889173507690430e-01
-7.596734867687655879e-02,-7.611153845306729837e-02,-1.678499624662128098e-01,-1.875034280819043182e-03,-4.915570944219410741e-04,1.008021945848047718e-02,9.351626038551330566e-02
-6.923959935223168716e-02,-5.977177635490690810e-02,-2.515408809650043209e-01,-1.242115141612729762e-02,1.273833721867142534e-02,-1.236863592350814431e-02,1.909397691488265991e-01
-7.445253687103556284e-02,-7.398866626228395305e-02,-1.695421051749643193e-01,2.174163496769321649e-03,5.010592007364329109e-03,1.128066928876554631e-02,9.776303172111511230e-02
-6.448992892912205899e-02,-7.186325961345622904e-02,-1.419550094179057032e-01,4.643987201621801314e-03,1.488800386903282522e-02,1.210727625210019157e-03,7.885482907295227051e-02
-8.237969567250007230e-02,-7.734944452181480301e-02,-1.352417300518340693e-01,-1.558807897854442865e-03,6.004218637637901215e-03,-1.054343208005227529e-03,5.660727620124816895e-02
-4.797053328519984561e-02,-6.159912368146674977e-02,-2.855450316235790265e-01,1.720705041586202038e-04,2.051373894272160922e-02,9.491056514039471897e-03,2.343551665544509888e-01
-5.123913168489657721e-02,-5.113824671770814123e-02,-2.909598011190274169e-01,-7.269791330974544920e-04,8.151560702536916848e-04,-7.930978817976896489e-05,2.397786229848861694e-01
-4.229791634867333117e-02,-6.171939478546350361e-02,-2.589850752462528605e-01,-2.149852349326737948e-03,2.680598795310314142e-02,-6.899214025764772995e-03,2.131536453962326050e-01
-4.236267183838436645e-02,-7.449098626306152604e-02,-2.738333423210344564e-01,-1.595291654224926495e-04,9.079013929871801447e-03,7.180897856202724926e-04,2.177683264017105103e-01
-4.951805709888461998e-02,-7.020109137426806811e-02,-2.067679951105090841e-01,2.178103383560938029e-03,1.772596626439330511e-02,6.446061221408058879e-03,1.516062021255493164e-01
-3.956676044132637071e-02,-6.961553892016476841e-02,-2.399976697690103244e-01,-2.271206547194987678e-03,2.400448424715644069e-02,2.243562468125049301e-03,1.918645203113555908e-01
-5.740357538160179712e-02,-5.178540395678365993e-02,-2.473886700000569872e-01,3.655031664374844627e-03,-4.942196198022954373e-02,-4.808874564681119013e-02,2.269328534603118896e-01
-6.229599497575030731e-02,-5.198647972991068955e-02,-2.901803222156642548e-01,-1.059215953432865280e-03,1.466495620516451541e-03,4.429604691129244293e-03,2.333572655916213989e-01
-3.775760702697343596e-02,-6.601530103322553189e-02,-2.651754647690992006e-01,4.693085593024950378e-04,2.167593232549654830e-02,2.477534985997538811e-03,2.179901152849197388e-01
-4.470767694438416984e-02,-6.715601044251554019e-02,-2.161344798392185185e-01,-4.626239867516739740e-03,1.419857877161203284e-02,-2.179941198925033907e-03,1.634811609983444214e-01
-3.841255744141820749e-02,-7.053621365498710660e-02,-2.493785359778984412e-01,-3.432449882596313377e-04,8.470126112083423836e-03,5.225075121927803389e-04,1.974284052848815918e-01
-5.971835257542978254e-02,-6.993954050907594255e-02,-1.852245919774333227e-01,-1.145773520481082816e-02,5.014388084738478218e-02,6.858856572399460449e-02,1.913732141256332397e-01
-6.489681564392769941e-02,-5.070897994865906921e-02,-3.012336057858126526e-01,-6.841866184118619923e-03,-9.341285556935989901e-04,1.250175093477263501e-02,2.449926733970642090e-01
-6.088215086633608220e-02,-6.262957148469339153e-02,-3.093370053917592344e-01,1.757562752942531730e-03,7.268551653681786700e-04,5.552127178986444173e-02,2.656264305114746094e-01
-3.459110454597749684e-02,-6.282394395143206522e-02,-5.896837938454103922e-02,-9.245414344306483257e-04,-6.031408983612028020e-03,1.122242421414360036e-02,3.453449532389640808e-02
-5.562361945470543217e-02,-6.584514916356846992e-02,-2.078223171025067040e-01,8.527879375428485537e-03,3.375873566032912276e-02,9.762013306528007778e-03,1.601132154464721680e-01
-5.797683254838392752e-02,-6.172219069508314004e-02,-2.974883866775027141e-01,2.195963488212908518e-04,-3.898968832344608653e-04,4.632151432913978253e-03,2.377976626157760620e-01
-5.268714709746656621e-02,-3.222168386899650072e-02,-2.656892203962768831e-02,1.493457980908521627e-03,1.201525177845714706e-02,-1.459927888796866587e-02,4.056700691580772400e-02
-5.154788194435735993e-02,-4.487646882438871276e-02,-2.054035251623213265e-01,3.498746226355696400e-04,3.519783008941995694e-02,6.164368707160775007e-02,1.996480971574783325e-01
-3.385120526479509784e-02,-3.910116878158444165e-02,-7.730302979276224007e-02,2.491438589764834849e-04,-6.784100302659792567e-03,3.569363761348308406e-02,7.515230029821395874e-02
-5.077495976185268656e-02,-4.674711191064670479e-02,-2.057200261323049451e-01,3.839187604270137381e-03,4.413438360335147220e-02,5.520921416723257452e-02,1.991989314556121826e-01
-6.084128517579303480e-02,-6.803882461317822816e-02,-2.199058497484530639e-01,-7.908408362025325100e-03,5.415503573007435234e-02,7.088951601355243659e-02,2.197051942348480225e-01
-6.959657560222154427e-02,-7.743918098388902216e-02,-4.541323987193420786e-01,-5.736977950881545253e-03,1.543622797412102197e-02,5.161228920953351423e-02,3.920696377754211426e-01
-5.832145903294765066e-02,-4.400734595603057742e-02,-1.861481750382093237e-01,3.421529674190684159e-03,1.499398702414590084e-02,6.924776806355692482e-02,1.829470694065093994e-01
-6.444637032503153229e-02,-4.943646711766241930e-02,-2.567846067557335021e-01,7.866506980640054075e-03,-4.493654101958587436e-04,1.338242675731449432e-03,2.007433623075485229e-01
-5.755032904395324111e-02,-6.295714193977434980e-02,-3.002332755613686399e-01,-2.478032851651394176e-03,-3.338267461110675915e-03,4.833441443320888632e-03,2.402790933847427368e-01
-6.433806477726740358e-02,-4.292984522074796971e-02,-2.792184887839481711e-01,-1.123960675331102908e-03,8.599305074608885923e-04,1.311575002941592349e-02,2.274954766035079956e-01
-5.289379673375880359e-02,-4.569887802297058904e-02,-1.037832394791366186e-01,-5.584328308143425221e-03,5.340108955089360732e-02,2.047544322671501771e-02,1.136396154761314392e-01
-6.103982132682524153e-02,-5.156137163258291134e-02,-2.762950516928620592e-01,2.056330491023234969e-03,6.164450345957579562e-03,4.544248056837447980e-02,2.340655624866485596e-01
-5.899304325801751903e-02,-6.095539968783524054e-02,-2.892397100781614605e-01,6.153080979013872583e-04,5.746969546407769934e-04,-1.301685099661586183e-03,2.292875051498413086e-01
-7.706164320126873690e-02,-6.059546005155071191e-02,-2.987648597468781086e-01,-1.638379600880187541e-03,9.012910911671440095e-02,-1.004461672978032745e-02,2.788450419902801514e-01
-5.627166178109666017e-02,-6.405062418098508847e-02,-2.795606253969102895e-01,4.054421645105183575e-03,4.390550691718143883e-02,2.525250229578766738e-04,2.324093431234359741e-01
-6.186024445802924820e-02,-5.948838385247914168e-02,-2.079558096638124409e-01,4.668886400441956200e-03,7.623942368278530113e-02,5.249920102588566395e-02,2.178699225187301636e-01
-6.062452910913676551e-02,-5.225369091171611080e-02,-2.956067052819843499e-01,2.503778018147717610e-03,-3.720992900385945712e-03,4.374544066311936152e-03,2.395233660936355591e-01
-8.009263942203562192e-02,-6.672045138583351798e-02,-4.706580926780123963e-01,-4.965074012163370881e-03,-1.512230449008215502e-02,3.594948214811119480e-02,4.032121002674102783e-01
-7.134141838770235999e-02,-5.727539488971722381e-02,-1.990351699276966535e-01,5.882153587211362208e-03,-7.115542701838883932e-02,3.397923535960097052e-02,1.925007551908493042e-01
-5.799851344388666508e-02,-5.856740102207960708e-02,-2.886070558353822091e-01,-1.681727488839457704e-05,1.945904549213505223e-03,-4.904369895690077015e-04,2.303508520126342773e-01
-6.369310247897494448e-02,-6.661898422588399815e-02,-3.286020851639822049e-01,-1.366198336775867501e-03,-2.420265765070411107e-03,1.104347321316139375e-03,2.635091543197631836e-01
-6.999542274757425409e-02,-7.942101428228641458e-02,-3.448633465759564642e-01,5.682489315389227524e-03,-3.577130303724795901e-02,9.601147168340817828e-02,3.234820961952209473e-01
-4.617435762652222220e-02,-7.220382047083115373e-02,-2.740170030811198698e-01,7.112140695405599726e-03,8.485925394890764251e-03,4.416264194981582569e-03,2.169918715953826904e-01
-6.044612865029841409e-02,-5.922530399252726174e-02,-2.933224687847524326e-01,2.381088150493157387e-03,4.728294762855400559e-04,4.926684586582372920e-04,2.335285544395446777e-01
-6.335029986851897776e-02,-6.341076750114837957e-02,-2.865356210644796620e-01,-7.851694946489626357e-05,4.590470122874032975e-05,-4.456103217090967648e-05,2.231551557779312134e-01
-6.182159155505187464e-02,-6.402398547164564468e-02,-2.881191846436945148e-01,2.744725740774742271e-03,-6.396420404876522383e-04,4.253347403364750442e-04,2.252585738897323608e-01
-7.367383079193598472e-02,-7.184361448974597997e-02,-1.898757000788456328e-01,3.685484735870459341e-03,2.730275066823787387e-04,9.179386045588336374e-03,1.183750554919242859e-01
-6.760984100052835899e-02,-5.243251431835486975e-02,-1.722232544562434797e-01,3.711636446085187814e-03,1.307513151577610958e-02,4.305359589662843128e-02,1.373939961194992065e-01
-7.022500553466301532e-02,-6.822346422460451310e-02,-8.140097159097542390e-02,-1.543270489860824987e-04,2.447441500501653516e-02,-2.288099883920679742e-03,4.431756213307380676e-02
-6.316405104403235993e-02,-6.355451799560707382e-02,-2.865114249320468431e-01,-9.074965674045842412e-05,8.319030524957143663e-05,-7.280880573514556691e-05,2.231525331735610962e-01
-6.745492884238712961e-02,-3.886743678746495956e-02,-2.442892277656353583e-01,2.343113469782787291e-03,1.986062976027648270e-03,8.128649035799462297e-03,1.933116465806961060e-01
-6.530604039802315186e-02,-6.985754997358625817e-02,-3.061017899587943347e-01,-4.063331370415564428e-03,-1.333639890834896913e-03,1.726317279136773374e-03,2.386862635612487793e-01
-7.497707368999732835e-02,-7.644689086292648372e-02,-3.215147644675472871e-01,6.680161833464703068e-03,4.772898692265740289e-02,-1.015964480843066509e-01,3.136146962642669678e-01
-6.559647269941824843e-02,-9.182637322036324434e-02,-3.443971217382492678e-01,1.510629925594944752e-03,2.248792347949188017e-02,-1.192641631977910677e-01,3.395595550537109375e-01
-6.041951572939761872e-02,-4.492494513451397720e-02,-2.908576180886817131e-01,2.339078656102182210e-03,-7.224927333015291253e-04,-3.852498612852536287e-03,2.386940419673919678e-01
-5.441772586882605289e-02,-5.509139238237839575e-02,-2.876576691250634088e-01,-6.642964041782222330e-04,2.900344200317128565e-04,1.119864134491780461e-04,2.329073101282119751e-01
-3.944118458010653638e-02,-6.042727673231798602e-02,-2.769901706803524211e-01,-4.402871103028967344e-03,2.724035207923252268e-04,-4.547698823376463285e-05,2.279102802276611328e-01
-5.647041939790295451e-02,-5.467081675973907429e-02,-2.723672060023580865e-01,-1.295703256200467918e-02,1.168400132890322005e-02,-1.428345130881917245e-02,2.202917188405990601e-01
-5.951314925326640914e-02,-4.205372741049637209e-02,-2.793923870607081250e-01,-4.921044699438194281e-03,8.635858890611507015e-04,-3.642455688396969808e-03,2.293585985898971558e-01
-7.425048892469422734e-02,-6.696175841001694717e-02,-4.342625970338972463e-01,1.510362824120014321e-03,3.730201360131161353e-02,-4.648075045961289065e-02,3.780851960182189941e-01
-7.331530807556341234e-02,-6.700180939054471707e-02,-1.803227580439260569e-01,-2.877940175805259512e-03,8.603075980737759842e-04,-1.100979349077704089e-02,1.120569556951522827e-01
-6.591056946672022021e-02,-6.505926257188435202e-02,-3.035867707156587048e-01,5.662777784551843545e-03,-1.173422207032484175e-03,1.262004078421221937e-04,2.383136898279190063e-01
-5.392378640026443404e-02,-5.128984835028202460e-02,-1.380636242021753279e-01,-7.836218307035432498e-04,-4.521395069662537125e-02,4.667788299048499651e-02,1.413481086492538452e-01
-5.888693529409580463e-02,-5.673859888866190915e-02,-2.911787904147216111e-01,-2.395780196957153843e-04,1.850433461000474409e-03,-1.558257605861732269e-03,2.334114164113998413e-01
-6.056847005958293506e-02,-6.049312687153179935e-02,-2.885540623753467537e-01,-5.951850486457890312e-04,-9.933605801369350084e-04,6.713072643960756561e-06,2.280320972204208374e-01
-6.463017121409364574e-02,-6.395264979977793862e-02,-2.869466774698480327e-01,-1.250944749251200940e-03,4.796140619383216787e-05,-4.023369629446740906e-05,2.226666063070297241e-01
-5.474278420874669621e-02,-4.767245624857267133e-02,-1.912535070324078990e-01,7.654673636022704848e-03,3.125472448560348560e-02,6.023813423213313784e-02,1.834191828966140747e-01
-6.147795196829451692e-02,-6.332147064775356382e-02,-2.863562560862873418e-01,-2.586881129221140158e-04,-5.050418109571752374e-04,-9.926871474652272220e-05,2.239644527435302734e-01
-5.732940335680616895e-02,-4.765926477904633418e-02,-2.895366149549584156e-01,-2.209570699362456946e-03,-1.463410357544504695e-03,3.010039692422664288e-03,2.372918576002120972e-01
-6.399999312799396767e-02,-5.702444326630511096e-02,-1.713760428442456518e-01,3.718721749985670708e-03,-8.466416793949430031e-02,2.671489540368230178e-02,1.897732615470886230e-01
-6.873711779437990943e-02,-7.400831994313732121e-02,-3.838695351096235164e-01,-4.803282768589954566e-03,8.430654914792563848e-03,9.733306354909326830e-02,3.554978370666503906e-01
-6.299356471006695157e-02,-6.765260520581033166e-02,-2.882840565363251617e-01,-2.065265813187760341e-03,-7.637412374122239589e-04,5.813595898472633737e-05,2.230301052331924438e-01
-6.134677512852140802e-02,-6.211771523683853879e-02,-2.874278381597913379e-01,-1.664176834432731420e-04,-1.151561365836794183e-03,-7.776882479792594262e-04,2.257096022367477417e-01
-7.264105054630645708e-02,-5.705904521856708378e-02,-2.927016928316690247e-01,-8.355141839830283398e-04,1.409921934792001362e-03,-2.196623209836317625e-04,2.282688617706298828e-01
-5.351105612651768650e-02,-5.884077341881462087e-02,-8.421552267491107246e-02,-4.198489266082430088e-03,-3.164995970814266091e-02,-8.494724774804068498e-03,6.389089673757553101e-02
-6.029458127347619989e-02,-5.293447116698840604e-02,-2.897562683998227140e-01,-2.773289402216759861e-04,4.336721953033249085e-04,-2.881275807110597115e-05,2.332305610179901123e-01
-5.408057486542833248e-02,-4.717405225681245429e-02,-2.811927710334419794e-01,-7.035760891608251917e-03,-3.931078786094923598e-04,5.200894696168608614e-04,2.309675067663192749e-01
-6.463656658564079227e-02,-3.778949873557066463e-02,-2.726482748935912248e-01,-7.556831227403963463e-04,-4.362253981329457654e-04,1.391899638120473823e-03,2.226706892251968384e-01
-8.552126577269528185e-02,-5.855466094938516219e-02,-5.007262598323249936e-01,1.178157745074578586e-02,1.283004581479112519e-02,2.997104255808954315e-02,4.335021376609802246e-01
-6.669247176486090001e-02,-7.556312425741483485e-02,-2.143751415167672314e-01,-9.935123635089130722e-04,4.262293256986994516e-02,8.079818784187788039e-02,2.135812789201736450e-01
-8.109724580540299266e-02,-5.808700432717997519e-02,-3.054234441371372899e-01,-2.059442608035513302e-03,2.323973198947172983e-03,2.543632755291494810e-03,2.367738336324691772e-01
-6.455887901903960280e-02,-5.466837832220833304e-02,-3.147834052004901406e-01,-6.053840679044665551e-03,2.028038593917797124e-03,-1.871139231223167311e-03,2.555734217166900635e-01
-6.929097715537971269e-02,-5.853512142951278197e-02,-3.019847039077433459e-01,-3.551653424456691034e-04,2.658759772772380063e-03,3.376615702278020344e-06,2.382991015911102295e-01
-7.922403192742581701e-02,-5.654598096971696908e-02,-2.998206514373713549e-01,4.899579998415110830e-04,4.543247215554145971e-03,-1.484446370318221560e-03,2.329144030809402466e-01
-5.228760833980575229e-02,-7.227263966565997122e-02,-2.255981274657288260e-01,-3.142925179616495694e-03,-5.090043013378339060e-03,-2.123112977233753795e-04,1.645594537258148193e-01
-9.085758124112885969e-02,-7.328787263016683928e-02,-2.990908847889112154e-01,6.774283690906846359e-03,-8.932794915009173442e-02,6.364914945773539334e-02,2.890642881393432617e-01
-5.805753870091384661e-02,-5.814538896232053500e-02,-2.912923474870950935e-01,-2.453015338308983380e-04,-1.775694047319522186e-03,-2.697256971011093235e-04,2.332120388746261597e-01
-7.732194976724628133e-02,-6.017661411259961346e-02,-2.936634834869559230e-01,-3.941175756014748954e-03,-1.382354687221065128e-03,-4.014996085454816243e-04,2.255209237337112427e-01
-6.768652036654818072e-02,-5.578729954788907985e-02,-3.017706108220754024e-01,3.798433178885789359e-03,-9.152013216634856396e-03,-7.882960065026138607e-03,2.412537187337875366e-01
-7.730829857512225289e-02,-5.886685987056956837e-02,-2.999085329472117589e-01,1.409272001432853661e-03,-1.997292541614099394e-03,1.570298754239376170e-03,2.324249148368835449e-01
-4.928009110174347285e-02,-5.061141832082245717e-02,-2.894320110092438170e-01,1.651152612019122362e-03,-3.926536615031379885e-04,-3.546010843641162402e-04,2.395078539848327637e-01
-5.484184230989924691e-02,-5.013149614965059508e-02,-2.890238297361876763e-01,-1.468775820147022633e-03,-6.207746574350893765e-04,7.434391992996293528e-04,2.365919649600982666e-01
-6.420207179105129336e-02,-6.690806788558384399e-02,-3.145741664419279271e-01,-5.356433133266307565e-03,-4.293214690410447620e-03,9.187452948507552480e-03,2.498211413621902466e-01
-5.336029614740270266e-02,-5.594250315525778339e-02,-2.493183088031112049e-01,1.219896518873626531e-02,-1.715274314145309037e-02,-2.470070829550175331e-02,2.026318758726119995e-01
-7.278261326139053022e-02,-5.719270287274361153e-02,-2.319528275974145348e-01,3.386415081821226702e-03,-8.646234302135619165e-02,9.184511678604111509e-04,2.247749865055084229e-01
-7.016482215920655241e-02,-7.285794906928284853e-02,-3.183480106021203682e-01,-4.280279262361463832e-03,-8.052886095270259115e-02,-3.713107496442079325e-02,2.908256649971008301e-01
-7.607608209786662079e-02,-6.452515556831964205e-02,-3.083925680656440793e-01,-7.591053514191416392e-03,-4.718242458357296224e-04,5.427227293724470707e-03,2.388508915901184082e-01
-7.269452726102074158e-02,-5.615238472935099590e-02,-3.019126699401569192e-01,-3.839696722193526742e-04,-4.749862970734991183e-03,9.994976667094552375e-04,2.380703240633010864e-01
-3.714442597831449366e-02,-6.290629379380280328e-02,-2.831420059263132227e-01,-1.423899267124586945e-03,-7.291942659407654606e-04,3.095843596051800614e-04,2.341988235712051392e-01
-5.329989769349069428e-02,-5.448431963828911928e-02,-3.392039340070878151e-01,-3.816652126548531875e-03,-3.613397920433596491e-03,-4.619064698572749109e-03,2.855709493160247803e-01
-5.367828336372412745e-02,-4.255407306586894700e-02,-8.763223005994183468e-02,-3.034065220171131179e-03,-4.598064955006974514e-02,2.721943083230856340e-03,8.970414102077484131e-02
-4.605125107801977258e-02,-3.199810666313421259e-02,-4.943064010851115631e-02,1.443232182531614628e-03,-4.640186164176443584e-02,-6.473500704216093513e-03,8.275124430656433105e-02
-5.486513092655309620e-02,-5.153162042588743663e-02,-2.892435442120242506e-01,-6.300092478750410818e-04,-8.384558769411823171e-04,-1.991728931291016915e-04,2.360700666904449463e-01
-7.450184453427119435e-02,-6.535543222921924578e-02,-2.116821085895917443e-01,1.601720754625749529e-03,-8.276892254202246335e-02,-3.892073025750560772e-03,2.018960416316986084e-01
-6.474598042758764049e-02,-5.380671618768717579e-02,-2.678687106549907937e-01,-2.023961294453062096e-03,-3.236067834537577955e-03,4.225838556744038188e-02,2.213629186153411865e-01
-6.225663642365098643e-02,-6.654849620031133561e-02,-2.264217188761858401e-01,6.799981238570035336e-03,-4.520819862685140217e-02,7.204703192421807456e-02,2.193317264318466187e-01
-5.087124462838377159e-02,-6.362632729494020756e-02,-4.203744435598252283e-01,-1.288120774991426132e-02,-1.157566758254860786e-02,3.296142241461142569e-02,3.689734339714050293e-01
-7.490569718387264653e-02,-4.906212735606682585e-02,-2.426484694625097860e-01,-4.581326240245094800e-03,-4.651316683254013980e-04,1.314886854690326462e-03,1.822344660758972168e-01
-5.752954095005152757e-02,-6.041881586578667918e-02,-3.291196145086162650e-01,3.119382030620945854e-03,-1.980601808824489218e-02,4.912052796206961558e-02,2.853582501411437988e-01
-7.470440500259607763e-02,-7.148763961708498593e-02,-3.421214433278670364e-01,5.653915659217254377e-03,9.361724703136562950e-03,3.081836460031110985e-04,2.697063982486724854e-01
-6.410982263791983882e-02,-6.779497377517121337e-02,-3.028031184917053809e-01,7.816166890789073840e-03,-5.653310361235241305e-03,5.246874984475883089e-03,2.376345843076705933e-01
-5.932347002201382447e-02,-6.614396484106077612e-02,-1.442835713835074474e-01,-7.696862876528869947e-03,-4.499652205504899721e-02,1.120741158942657571e-02,1.153857558965682983e-01
-6.413884791694329790e-02,-6.378306522142532242e-02,-2.901698607559091148e-01,3.287849339712055601e-03,-7.775192398200642596e-04,-4.471135341147799920e-05,2.262848019599914551e-01
-5.166824057800009640e-02,-6.009805800215481386e-02,-2.967755815406866171e-01,1.722663674319676414e-03,3.962745166439073097e-02,8.306874140395888173e-03,2.510167062282562256e-01
-6.268588013002586445e-02,-6.342278411631555035e-02,-2.891103438046993546e-01,2.149389917928090556e-03,1.099975679119004086e-03,-9.918589147385821654e-04,2.261021137237548828e-01
-6.324211684258185251e-02,-6.339658162112236928e-02,-2.865774475685809453e-01,1.241903873673043726e-04,3.499791137141934887e-05,3.377704759355710509e-05,2.232582569122314453e-01
-6.346645788219860973e-02,-6.319320603806252712e-02,-2.864961324248206376e-01,1.050558066245669344e-04,-1.808874212573378416e-05,1.078419266686155055e-05,2.231665104627609253e-01
-6.325319051328914810e-02,-6.142855936717214749e-02,-2.865396416933518875e-01,2.843210784984295759e-04,2.860015751373925534e-05,-5.376628960685537247e-04,2.242068201303482056e-01
-4.037984735073408410e-02,-5.482114972620645565e-02,-1.328240315336361166e-01,4.380246943122596479e-03,-4.527982626851735290e-03,5.844419413738099339e-02,1.333630532026290894e-01
-6.625149334465085804e-02,-6.077164707053005210e-02,-2.937256229065589030e-01,-8.481951722937990665e-04,2.707676865976976766e-03,2.685115174174391994e-03,2.303623557090759277e-01
-5.727459881222035643e-02,-5.107429557733397796e-02,-2.902439556117206720e-01,1.190881501018137539e-03,-5.866767631924258743e-04,1.254484380283641537e-03,2.361517548561096191e-01
-6.859805529794239798e-02,-6.610048136980223310e-02,-3.453672576028402053e-01,-2.812444479459377030e-03,-1.641192490493184782e-03,1.619259739089502987e-03,2.780977487564086914e-01
-5.853899281273393373e-02,-4.322791355871993813e-02,-2.826186413205556414e-01,-4.425845782480043733e-03,6.673694345550561235e-04,-2.161480200549828392e-03,2.322738319635391235e-01
-5.941206350187655527e-02,-3.908265570150316892e-02,-2.820986547670751299e-01,-4.950570625763867430e-03,1.301148345000079738e-03,-2.612158912407224268e-03,2.337279617786407471e-01
-6.043744060185074485e-02,-3.938267568813624830e-02,-2.842329664630608432e-01,-8.971743698612013847e-04,5.274187784564363812e-05,-7.484570688412845406e-05,2.350364774465560913e-01
-6.297266144651286757e-02,-3.800618804136896012e-02,-2.774910134510950588e-01,-3.573383590429616945e-03,5.339891578648671335e-04,-3.173273869363545455e-03,2.281810343265533447e-01
-7.058082968347267894e-02,-3.819263414704256177e-02,-2.390092460469913083e-01,3.891491550451342887e-03,2.084051075429107797e-03,2.208529674527330566e-02,1.907720118761062622e-01
-3.681121230847973769e-02,-6.160370602112527627e-02,-2.791666213672118202e-01,-1.640261380212656994e-03,-1.679875308213029262e-03,1.207658825824207537e-03,2.310046106576919556e-01
-7.010289054883786508e-02,-7.020407952347809677e-02,-3.148329977500831656e-01,-1.183879636105124181e-03,6.776512078229759983e-02,5.873511195045325040e-02,2.898241877555847168e-01
-4.406653358093055861e-02,-6.944065020472073302e-02,-2.392179425777180846e-01,-1.243850331058713767e-03,6.663807416937303496e-02,4.544926073246878528e-03,2.171742022037506104e-01
-7.529629342094197597e-02,-5.989739084435621863e-02,-2.507366883746281472e-01,-4.798980695876274571e-03,9.583881129419306866e-02,1.679488998458118082e-02,2.493763715028762817e-01
-7.840656913160004571e-02,-8.388705395446241497e-02,-5.049157481556558746e-01,5.963631933772193736e-03,7.563052782837950683e-02,3.042387953014449864e-02,4.468177556991577148e-01
-6.709890733676926455e-02,-5.804716135487923701e-02,-3.135541455376784636e-01,2.694097434446984579e-04,-5.049990494434969390e-04,-1.193915281846183105e-02,2.519555091857910156e-01
-5.282097880764649589e-02,-5.201306398378061080e-02,-2.903403101276978426e-01,1.661587693999529679e-03,8.995663374319417356e-04,9.798573147075148159e-04,2.379528731107711792e-01
-4.478109147526107559e-02,-6.435270750945157325e-02,-2.711058773295276225e-01,7.341532246534073977e-03,8.362458798507658997e-03,2.351845954135107705e-03,2.180928587913513184e-01
-6.773482646944775643e-02,-6.232838745533497704e-02,-3.351108138387718371e-01,-9.400604906167428108e-04,4.621524302239752441e-03,-7.202621944479695171e-03,2.705310583114624023e-01
-7.072547242405435863e-02,-5.318862700252600939e-02,-1.815920034666038685e-01,7.618447363448197299e-03,2.960884900218441543e-02,2.464119645192695482e-02,1.384518593549728394e-01
-4.155623353395113129e-02,-5.354542837532423605e-02,-2.552759368802223205e-01,1.181582241881675745e-02,3.204248160787884214e-02,1.643097911525520649e-02,2.180973589420318604e-01
-7.587596957409736831e-02,-7.266077967887366040e-02,-4.906938516181511556e-01,-5.834870726277544429e-04,3.402090816276257673e-02,6.909005322012741306e-03,4.207545816898345947e-01
-6.115067024988818378e-02,-5.590138155905641226e-02,-3.239070598684143376e-01,-5.220506936698530998e-03,2.186727554767932402e-02,-1.974643440007720768e-02,2.704326510429382324e-01
-7.121444982071833962e-02,-5.160392033737321027e-02,-3.057428702247529939e-01,-5.535543312256136286e-03,4.004069220726377137e-03,-2.857204389245654279e-03,2.452588379383087158e-01
-6.139065835379634017e-02,-6.304578468666734159e-02,-3.017302224338835881e-01,-2.580231286709456194e-03,2.676071048319284343e-02,-3.821639854914243850e-02,2.528199255466461182e-01
-7.414127098057909926e-02,-5.852140393806809504e-02,-2.940433142623716245e-01,-2.279681227774952527e-03,-1.494675048642579544e-03,-3.935720182985384848e-04,2.281632870435714722e-01
-3.935194920835344279e-02,-6.387686738516329399e-02,-2.734707867526210423e-01,-4.661366805100711046e-03,5.252106250663569854e-04,-8.500411480601586449e-05,2.230188101530075073e-01
-6.328361401427393118e-02,-6.085129096748981281e-02,-2.984434128382326690e-01,9.514298787831667334e-04,3.168032418312648202e-02,-4.020652315875361538e-02,2.524705231189727783e-01
-4.438539049948370119e-02,-6.130836453020871435e-02,-2.711565934866017602e-01,8.430684043660315735e-03,8.989474130164668009e-03,2.582245379660001727e-03,2.198853939771652222e-01
-5.352335721160961235e-02,-5.995153416743392860e-02,-3.032279879335353368e-01,6.924550758411987961e-04,-2.652984969281605224e-03,-1.311723907262987709e-03,2.466095983982086182e-01
-7.141025887208204970e-02,-5.988185579075337717e-02,-2.949099361425633337e-01,4.774177448993329603e-03,-4.640242406414242689e-04,1.336914964739554547e-03,2.296431809663772583e-01
-5.385418299770762529e-02,-6.071411942769405767e-02,-2.987622206942922021e-01,-6.430966082433330977e-04,8.633933149983001815e-04,-1.828082006250543890e-03,2.415790855884552002e-01
-5.636120768024888150e-02,-4.345842751532616455e-02,-2.897241714919820410e-01,-1.459396520331387526e-03,-6.588432261119969583e-04,-1.086854577383155555e-03,2.400979399681091309e-01
-5.501529603369018084e-02,-5.577749397623421590e-02,-2.995434940550565361e-01,-5.259221667724477828e-03,8.339414211698913462e-03,-2.194868041995159946e-03,2.447739988565444946e-01
-6.156261887715676340e-02,-7.582304162814901272e-02,-3.062346117582451788e-01,-4.557731519947729598e-03,3.882762218069000463e-03,-1.434613098628382318e-03,2.381015270948410034e-01
-5.575216398112574356e-02,-5.349919668789705762e-02,-2.972135007887987124e-01,1.390517544180672064e-03,-3.868581431943371538e-03,-2.239633005674587091e-02,2.457806766033172607e-01
-5.050027832484185741e-02,-5.819724399780029644e-02,-2.905012755343889808e-01,3.256219258142724077e-03,-4.161537658863910354e-03,3.757758939072935230e-04,2.364246845245361328e-01
-4.810004937189309854e-02,-4.883743229000303554e-02,-2.002438181205885570e-01,2.468299373828466200e-03,6.619367430317990575e-02,3.651292752885600817e-02,2.004962563514709473e-01
-5.373685102844158457e-02,-8.096333310437583974e-02,-5.573166291039126641e-01,9.620052549874601178e-03,3.402685322253417438e-02,1.063924722937717015e-03,4.943456947803497314e-01
-5.835252339822816214e-02,-7.471191343785088534e-02,-3.014523005515244436e-01,-2.072334001210069266e-03,3.637628117666383970e-04,-1.707095905521316837e-03,2.353936880826950073e-01
-5.512058721804770356e-02,-5.220234531018627666e-02,-2.678252428566089138e-01,4.398556640382273765e-03,-8.841792911315381892e-03,-2.111439962589069241e-02,2.179507762193679810e-01
-5.359493109019872192e-02,-6.079346323802849172e-02,-2.919954375069387931e-01,4.909688678802139224e-04,3.059590952340633272e-04,1.254207734264728251e-04,2.348862290382385254e-01
-5.391352978772850912e-02,-5.970871783750938966e-02,-2.919492673657395065e-01,6.478851024662252373e-04,-1.258470233667683758e-03,1.078067413138843059e-03,2.352118939161300659e-01
-5.968556906868215106e-02,-6.994581798616819612e-02,-2.981899506716647053e-01,-2.173658883867858865e-03,1.297219657216859773e-03,1.317993805365414491e-04,2.335846126079559326e-01
-5.847400959344697946e-02,-6.432845256835467707e-02,-3.239460127797896827e-01,-7.946449389197111348e-04,4.339158666742178733e-02,1.509654402968571389e-02,2.743894457817077637e-01
-5.814495429870487897e-02,-6.947485967517551264e-02,-2.996217540321269857e-01,-8.232144095748242067e-04,2.068499348690371075e-04,4.825754768743311003e-04,2.360219508409500122e-01
-6.003926435384701610e-02,-5.824285795273362321e-02,-2.877967477028749999e-01,-7.682645492186651777e-04,7.097605679051930132e-05,-2.373751751160622318e-04,2.286652475595474243e-01
-5.107217698458173250e-02,-5.248633185139231494e-02,-2.908399997166912776e-01,1.713481980198346090e-03,-3.508025945800108164e-04,-9.775967772328462079e-05,2.390831410884857178e-01
-6.142992433304023114e-02,-6.337996191469014162e-02,-2.888278894094561955e-01,3.865277490118290758e-04,1.385458256994527657e-03,-1.286694501747944960e-03,2.264539152383804321e-01
-6.855981680280151536e-02,-7.013990654604407293e-02,-3.253779462333216133e-01,-3.182597756266431974e-03,-8.997421305017616611e-02,-2.765713123686324576e-02,3.035843670368194580e-01
-3.979112158985653735e-02,-6.444458643306749668e-02,-2.812634844141388979e-01,9.956640354057031631e-04,2.094080324649446982e-03,-2.787100285860486077e-05,2.301731854677200317e-01
-8.570540657284575481e-02,-6.016845480118641898e-02,-3.530598601168018491e-01,-1.911729318035500745e-03,1.324963977873129181e-02,6.990362009715295373e-03,2.822094559669494629e-01
-4.411532270354734386e-02,-5.816039117085239352e-02,-2.881838992330133520e-01,3.531692890075607306e-03,-9.960345429597260332e-04,2.433547078627499845e-04,2.374433577060699463e-01
-7.360159889461098670e-02,-6.092146777899588861e-02,-1.866438219423331435e-01,6.073259645416200642e-03,-8.981487828634567017e-02,2.816937418221470910e-02,2.026426643133163452e-01
-6.575524886675347680e-02,-6.197753651932579044e-02,-1.270119029773068009e-01,-3.157563517144820406e-03,-8.699596436672170363e-02,-2.813652823971976233e-02,1.706102490425109863e-01
-4.453911470942387152e-02,-5.966246872360073117e-02,-2.886447286602391027e-01,-3.878544186040234262e-03,-5.889446811924270442e-03,2.127207733158124642e-04,2.372211962938308716e-01
-5.134185662158127772e-02,-5.040256242523391550e-02,-2.834350229033457680e-01,5.453758643543949423e-03,-7.319138657872291517e-05,2.269472486250380047e-04,2.327563613653182983e-01
-4.605255694112822540e-02,-5.520588937301156018e-02,-2.885896574950401194e-01,8.399439507740762492e-03,-1.294513655643131367e-02,-9.543504129919659629e-03,2.401574999094009399e-01
-6.335668562148887017e-02,-7.107610602349706541e-02,-1.794675849818619939e-01,7.278325250603031801e-03,2.555410894339184280e-02,2.907160995341350265e-02,1.315235942602157593e-01
-7.912159109965724579e-02,-7.254732765106045034e-02,-2.877264932098239636e-01,-1.163184312176361243e-02,-9.121789253881812387e-02,-6.554370715572038764e-02,2.884208559989929199e-01
-7.157067569686047237e-02,-7.217264979582600770e-02,-9.035021486239781796e-02,-2.377635008694700246e-04,1.518963345074731200e-02,-1.622860412474887853e-02,4.271037131547927856e-02
-4.886639197216527397e-02,-5.465248198088437648e-02,-2.911295600383703719e-01,-1.465569005081200117e-03,-2.558816426181228503e-05,-6.055323061460938703e-05,2.394360452890396118e-01
-6.611926349591745744e-02,-6.200374571336855767e-02,-2.776464121045971178e-01,1.904229011370670369e-03,3.305921858822112591e-02,-5.609256284242917362e-02,2.415780574083328247e-01
-4.718290682631941235e-02,-6.156440387812195381e-02,-2.289051623641294442e-01,3.677579598943480580e-03,-6.449995344014705645e-02,-1.501480990676012060e-02,2.093179523944854736e-01
-4.832151462637893080e-02,-6.550040422756644998e-02,-9.230539446644815682e-02,8.253784852435108732e-03,3.639470904955122155e-02,3.135007990318269822e-02,9.273987263441085815e-02
-5.369684755006218224e-02,-5.397582941463144324e-02,-2.912037465985646278e-01,-1.101990940902654656e-04,-6.018300014434204998e-04,5.910319963053286023e-04,2.373721003532409668e-01
-7.018414859151603236e-02,-7.744493383490010097e-02,-3.201257234799751439e-01,-2.850829281099864776e-03,-9.252291762374283135e-02,2.752058122637627072e-02,2.978031933307647705e-01
-5.413016048438556993e-02,-5.373174250007721475e-02,-3.395774376551814466e-01,-3.452338724258728619e-03,4.536926306800156614e-03,-3.370491085002136171e-03,2.858769297599792480e-01
-6.990598957602675578e-02,-6.327642969952790297e-02,-1.861552150951965023e-01,8.573529562514094204e-03,3.617804788104381220e-02,2.144011550998129248e-02,1.409064233303070068e-01
-5.867590753918824897e-02,-6.388626483471114559e-02,-1.354117477165100725e-01,1.825662659212226504e-03,2.531594236602404541e-02,5.151128213359211852e-03,8.676409721374511719e-02
-5.945307500263745382e-02,-6.117972183276562670e-02,-1.168567302115435247e-01,-4.908142763698694882e-04,5.553289647493347275e-02,1.836320098601948447e-02,1.160305887460708618e-01
-5.882549846047865905e-02,-5.289471584614147126e-02,-2.907483704683152537e-01,-4.121192318423779616e-03,6.920197823984940719e-04,3.756885078549145225e-03,2.351459264755249023e-01
-4.895962677059675916e-02,-7.920507122858103100e-02,-5.379489886598111115e-01,1.637799359293014637e-02,3.923359637762516977e-02,1.677587286893043178e-02,4.811470806598663330e-01
-6.265336709571123208e-02,-3.626330300284877350e-02,-2.482532557307647325e-01,-3.128823563718473137e-03,-3.112920510753649367e-03,2.574505112882697830e-02,2.051550894975662231e-01
-4.959267467635354587e-02,-6.221049272450002166e-02,-1.272904025517905546e-01,-4.790357992210847633e-04,-2.251777974006603181e-03,7.389040150598674694e-02,1.470069587230682373e-01
-3.403434545045229409e-02,-6.012767783758657392e-02,-2.357517611299023153e-01,5.837619862521113614e-04,2.283921611860768863e-02,-1.526398828823085242e-03,1.941138803958892822e-01
-5.954664351579586068e-02,-6.680059807133895133e-02,-2.923061958012029837e-01,-3.301510548307678462e-04,-2.273187328493164391e-03,-2.489748608629486180e-03,2.292937636375427246e-01
-5.823311618477539087e-02,-4.524526321142645358e-02,-2.793324925242838264e-01,-5.218135590791613161e-03,-2.266205038661825780e-03,6.356406439801797620e-04,2.280866801738739014e-01
-5.784472869471611600e-02,-5.604552346801314200e-02,-2.910877453630348333e-01,-1.138314289006326545e-03,1.854424955296261283e-03,-1.459790829761003703e-03,2.341917753219604492e-01
-4.445538138695304120e-02,-6.205504869125379186e-02,-2.917998072110344898e-01,-3.383344422547646980e-03,1.091170854458293690e-02,-1.040592083431694835e-03,2.398554086685180664e-01
-6.035205783804170609e-02,-5.813347469471996654e-02,-2.891172358343954696e-01,8.015451692736158193e-04,8.019701552858930250e-04,-6.225643510972172015e-04,2.298934161663055420e-01
-5.978363705490188917e-02,-5.959272862120147674e-02,-2.882070334593950234e-01,-5.028942478667900676e-04,-3.316609554420457988e-04,-6.026016643455355329e-04,2.285236716270446777e-01
-5.906366856267145082e-02,-7.553292862837401866e-02,-2.977879841758607204e-01,5.998243976144897009e-03,2.230922986400345719e-03,6.002104613790815071e-05,2.311964631080627441e-01
-6.373510243142813114e-02,-7.685057943103998368e-02,-4.743697756795908216e-01,-1.424505365680585594e-03,-1.827327112457890687e-02,3.693229784860455750e-02,4.104960262775421143e-01
-5.139383269605786453e-02,-6.068523705228292403e-02,-2.361011604783482820e-01,-9.294076633693621955e-03,-1.118980543149670007e-02,1.171985075771755794e-03,1.820050328969955444e-01
-5.337746319359951142e-02,-6.822537065714107118e-02,-2.296723469615118696e-01,-7.059427596684514361e-03,-1.579002683515194627e-02,1.212458616580801112e-02,1.732663661241531372e-01
-6.114493910736970572e-02,-5.773342525002607417e-02,-2.468839274638076620e-01,8.728297267237956902e-03,-7.234599985638866249e-02,5.986752544801934861e-02,2.486503571271896362e-01
-5.282363989369665003e-02,-4.711630213618345220e-02,-2.873416202009305698e-01,-3.412027540118186923e-03,-6.340312604954181658e-04,1.039662693109929051e-03,2.375060021877288818e-01
-5.330959007458792309e-02,-5.292608536627414761e-02,-1.395854449000789588e-01,8.535697139119179794e-03,-4.487308054645611222e-02,3.769094083816341978e-02,1.341563761234283447e-01
-7.399469109106177056e-02,-3.788453486484270882e-02,-2.785192796557648953e-01,1.252169128261722232e-04,1.344846043740183152e-03,2.123217579210125508e-02,2.277664542198181152e-01
-5.735834367456890681e-02,-5.210432388498266454e-02,-2.899804849971495124e-01,-2.558410931144755596e-03,-6.004165906802738911e-04,4.391986542279451662e-04,2.353384047746658325e-01
-6.035196398678274732e-02,-5.586510478377976208e-02,-3.114543449334776781e-01,-4.005087050499470114e-03,2.060526902786523513e-03,-3.907776217815493031e-03,2.535860240459442139e-01
-7.433523162351789171e-02,-4.801020068443621891e-02,-2.360738890610354357e-01,1.453194043460158749e-03,-2.122117062970781337e-04,-2.388300233742587670e-03,1.764476001262664795e-01
-8.301788440619634057e-02,-4.029493328550587394e-02,-5.233950470387376264e-01,2.335452548928545861e-03,8.191184726908114222e-03,2.987689012276513109e-02,4.663336277008056641e-01
-5.723380535795602464e-02,-5.016800387536198003e-02,-2.869798038209195878e-01,-3.835183059517424230e-03,2.057350549541816077e-04,-7.658981607109607848e-03,2.338305413722991943e-01
-6.429453347139482688e-02,-3.598969761588782790e-02,-2.821692054553762707e-01,1.030100024864367476e-04,-1.330172196708432329e-04,-7.538959567696396210e-04,2.333221733570098877e-01
-2.998272387200532144e-02,-3.401567611197749835e-02,-5.765364109246346597e-02,7.075221492026419201e-04,6.792929958135432607e-03,-1.171629404253655971e-02,3.495850414037704468e-02
-5.794516905038194637e-02,-5.997566340385019484e-02,-1.790180615840612499e-01,9.212189268452984636e-03,-1.410033628953766098e-02,-1.404024996993261803e-02,1.259339898824691772e-01
-6.264254195521734569e-02,-5.664305999075212178e-02,-2.370529786547086459e-01,-1.009193923611794753e-02,5.207818026478072682e-04,-1.100640963581216332e-02,1.793631613254547119e-01
-4.087027985034041855e-02,-5.979560431567003398e-02,-8.176276210748781303e-02,7.195300055440639019e-03,-1.554606037619831946e-02,-3.612871292664822376e-02,7.779889553785324097e-02
-7.796748965140873344e-02,-6.978466051522365377e-02,-1.982425576083464147e-01,4.658235525218939674e-03,-8.608808339530558962e-03,-1.767560898058165991e-02,1.293907016515731812e-01
-7.574135165204301523e-02,-5.642319338650618465e-02,-1.898512994147614208e-01,-2.707236480449711716e-03,3.154037990929287245e-04,-5.101583072036536270e-02,1.530646830797195435e-01
-5.811999272674547856e-02,-4.206717990142161412e-02,-1.113902542428572423e-01,2.373391302548835246e-04,4.487637944435278470e-02,2.014470228458269466e-02,1.058764159679412842e-01
-4.587704507358584399e-02,-5.672041265929538001e-02,-9.641935242418921137e-02,2.917807387101075713e-03,-7.170910260913389376e-04,-5.888797538582530439e-02,1.120469495654106140e-01
-6.397179861439783455e-02,-4.787654542006480884e-02,-2.472635578040712767e-01,-7.660511626575038438e-03,1.163854841473522996e-03,-1.896351678783088444e-03,1.923433244228363037e-01
-7.501210040543904167e-02,-5.441247797002113362e-02,-2.138565919656138514e-01,4.247669938290761851e-03,-2.911005813091312091e-03,-1.195806883865978450e-02,1.518908143043518066e-01
-6.312025102603506521e-02,-4.899510291057730671e-02,-1.600710622206319433e-01,2.174070017438202961e-03,8.104816379800172665e-02,1.920203492944836960e-03,1.752143800258636475e-01
-6.399639710137841608e-02,-6.328614349397207461e-02,-1.337988775243725559e-01,3.898273035290265994e-04,7.112496422275585428e-02,-2.504360545510858974e-02,1.482590734958648682e-01
-4.609253691987981461e-02,-5.970426211460638788e-02,-2.870813836088889071e-01,-2.067515120459025805e-03,5.316721511769439707e-04,-8.563874093144320781e-04,2.345133274793624878e-01
-5.557969888965404170e-02,-5.447410838019159374e-02,-9.430911101586939016e-02,-3.971490992377472995e-03,2.588613611919615698e-03,-6.238223985811447436e-02,1.152651757001876831e-01
-6.848514493331839259e-02,-6.119799630166631449e-02,-1.953513216204909586e-01,-1.175267830509761245e-03,7.543013258843833668e-02,2.448851703299262730e-02,1.895915120840072632e-01
-6.159085388136584238e-02,-6.238495998300321727e-02,-2.271923904753078982e-01,8.661089812903394192e-03,2.277899147720664156e-03,1.856968200174096990e-03,1.659636944532394409e-01
-5.593631776245852616e-02,-5.229312089564149002e-02,-2.900144176800310003e-01,1.380784061193415704e-03,-1.066416751076365750e-03,9.796959279261446048e-04,2.359462529420852661e-01
-5.570262791377258993e-02,-5.391309070456959396e-02,-2.887458334761759948e-01,2.143100302733497338e-03,1.588059388703458915e-03,3.070453942818821610e-03,2.340491563081741333e-01
-5.714655759699994314e-02,-6.672520937819627351e-02,-2.289454296221151985e-01,-1.143050510586391018e-02,3.520899014091902202e-02,-1.133813525560123901e-02,1.801600605249404907e-01
-5.738305267029628065e-02,-5.358409191928228954e-02,-2.906321524202803985e-01,2.614365777471769261e-03,3.001971360810149316e-04,-1.353260136330074952e-04,2.352158725261688232e-01
-7.088643841585418048e-02,-7.617000848744930053e-02,-1.782492081936197792e-01,-1.816769735785276653e-03,1.318665668339787794e-02,2.005798283028313448e-04,1.073271110653877258e-01
-5.390180304872566053e-02,-5.552470259169631217e-02,-2.897789168963746387e-01,6.985507998056634691e-04,4.498013657863221830e-04,4.427033563602171800e-04,2.350755184888839722e-01
-4.953408126432676251e-02,-5.342591578080344017e-02,-2.887163725864556607e-01,7.247981466430714927e-03,1.303957030249611963e-03,9.615580759147502330e-04,2.376087754964828491e-01
-5.601372895371817956e-02,-7.296385302970054276e-02,-2.187798025392501122e-01,-2.309982000995579408e-03,1.084278904346648933e-02,-8.320255348376916216e-04,1.561793237924575806e-01
-6.607710289518844982e-02,-4.259084163719425997e-02,-2.851736993763654970e-01,-6.690841652782662449e-03,-6.496815629279275792e-03,1.807075751799813029e-02,2.343955338001251221e-01
-7.206653882032515446e-02,-7.241144733712510939e-02,-3.275376367052533766e-01,-6.003015678913474484e-03,5.355999827933553836e-02,8.700603370973947204e-02,3.108082413673400879e-01
-4.317790133772951566e-02,-7.545327265764294189e-02,-2.320998824881413403e-01,3.295361819922496341e-03,5.565319834281150929e-02,1.066710727259813189e-02,2.007522433996200562e-01
-6.596645744633231057e-02,-3.469319884330976378e-02,-2.745128447809416228e-01,-2.125308168655444876e-03,3.161515390023879454e-04,2.219621067553210168e-03,2.258764505386352539e-01
-6.154435674447247817e-02,-6.421405004449558251e-02,-3.294536706942514659e-01,-1.835085684785034638e-03,1.034471007558985037e-02,-1.984304400487136612e-03,2.672269642353057861e-01
-4.900856095599855078e-02,-6.287510292227310726e-02,-2.186178635214049149e-01,-6.437743494042425137e-03,1.579095635163566685e-02,-5.060030564540435316e-03,1.660027354955673218e-01
-7.290895987281137414e-02,-7.791939124027896790e-02,-1.917970240828025530e-01,-3.453350553549367798e-04,1.531965576105667227e-02,-4.111179685111493107e-03,1.196617484092712402e-01
-6.186479059191596352e-02,-7.639396420582891811e-02,-2.047772452814116406e-01,-2.317595380724670091e-03,4.075839384458578192e-03,3.833341354677099848e-03,1.366334557533264160e-01
-5.986282476956761300e-02,-6.052394124845114631e-02,-2.938624901653870136e-01,1.598976690174566152e-03,-2.368433579550645839e-03,2.628545814514591551e-03,2.337665557861328125e-01
-6.045716718789267974e-02,-4.339561239229117184e-02,-2.961547377496323574e-01,3.033964881092040579e-03,3.470427270312589473e-03,4.640616387169940391e-03,2.449370622634887695e-01
-5.671093610800609364e-02,-6.201472448500372492e-02,-3.290695817509272092e-01,-9.390616172354795651e-04,1.193732969169827678e-02,-1.519202101475987865e-03,2.705548107624053955e-01
-7.904673929616889971e-02,-7.299211025335385072e-02,-1.477389072724983321e-01,-4.972894007919449223e-03,1.492170828166545365e-02,-1.199223844873250136e-02,7.965412735939025879e-02
-8.479954443551743215e-02,-7.826210091712226813e-02,-3.550759831437139691e-01,1.094067176980865076e-03,9.915054079040039325e-02,4.590594910840264942e-02,3.326817750930786133e-01
-4.699745809618231102e-02,-4.279369176026999455e-02,-1.142391653181955014e-01,-1.059613125659514786e-02,4.137388654211698880e-02,3.567378397054407624e-02,1.187934055924415588e-01
-6.080496410048527589e-02,-5.852561337588407797e-02,-3.222371903749537969e-01,1.604969082517050194e-03,3.959563522246208056e-02,1.856572824023055429e-02,2.733004391193389893e-01
-6.036178400561360152e-02,-6.690869945015739950e-02,-1.362988711363616046e-01,-8.635478767421404670e-04,2.474227933241700955e-02,-9.418733875936034089e-03,8.612238615751266479e-02
-4.372313403133995524e-02,-6.409742315714896110e-02,-2.888948265154652750e-01,2.335164135287802478e-03,1.676691614316629803e-02,-3.581955888468595734e-04,2.374641150236129761e-01
-4.756849729842210772e-02,-5.770751104996434122e-02,-2.894105294762433500e-01,8.180157374998196090e-03,2.257536387026026770e-03,3.071703607806712793e-03,2.374503463506698608e-01
-6.194554393461043640e-02,-6.869645879911651098e-02,-1.881802256911444537e-01,-7.416409886891663951e-03,1.751799585013744109e-02,-6.687134799532754199e-03,1.278607547283172607e-01
-6.893079704069884905e-02,-7.824954542229634047e-02,-4.532427620247143629e-01,5.716907218565690091e-03,3.101398701969304908e-02,1.637000620005241158e-02,3.846931159496307373e-01
-4.893174879603495731e-02,-7.066327398328181575e-02,-1.836837614485173353e-01,2.699982340276296799e-03,4.185957450774098476e-02,3.926221448881151571e-03,1.450061500072479248e-01
-5.977648588709197353e-02,-7.767038569126216707e-02,-3.179534059667858958e-01,6.721192776148802311e-03,6.408455751370495737e-03,3.416264251930392799e-03,2.502987384796142578e-01
-6.327430930342209381e-02,-5.473136687103904996e-02,-3.025255141323757724e-01,1.973435322654446510e-03,-1.894733878949092162e-02,4.456232463874851280e-02,2.576899826526641846e-01
-5.535378324092880831e-02,-6.739603935094676257e-02,-2.999939858716629271e-01,6.407783865023838378e-03,-5.673280739767811408e-03,1.859182610534950960e-03,2.393280863761901855e-01
-5.137020105434911971e-02,-4.071735483096329544e-02,-1.096932259125782960e-01,2.619688368964513681e-03,4.988129512992667269e-02,6.695500371193135319e-03,1.084244996309280396e-01
-5.923399855863464847e-02,-6.480567315286539509e-02,-3.492715100004587514e-01,5.817124522114304822e-04,-9.705481750602179547e-03,1.709413097573610207e-02,2.893044054508209229e-01
-6.526536953827025145e-02,-5.371280150447978879e-02,-1.353124545195643069e-01,2.484913405145588571e-03,-6.490544371074290220e-02,3.961337095969887784e-02,1.523601412773132324e-01
-5.188933547939596214e-02,-5.571621292539476189e-02,-2.977534931111374683e-01,-7.952837418193678398e-03,-3.350142135221887037e-03,1.835394213818341679e-03,2.444513440132141113e-01
-5.840838734762167361e-02,-4.948932152527754647e-02,-2.992244656597204955e-01,-6.997636408044984740e-03,-7.984512132293931919e-03,1.322417769532497483e-02,2.471489012241363525e-01
-6.136054585238236159e-02,-7.452187871653520590e-02,-2.006787401778662994e-01,-1.714299195868604830e-03,-3.514638271935656335e-03,-2.225042023337139884e-04,1.333986073732376099e-01
-7.023985727766347831e-02,-7.652501596683426721e-02,-1.721196627827390191e-01,4.913726289281670871e-03,1.372237546876271114e-02,3.701810522464311654e-03,1.022600755095481873e-01
-7.390894771175587907e-02,-7.468790244373951781e-02,-4.798286115329357671e-01,-6.791047667616908513e-03,3.522238505556299359e-02,3.349489773556617311e-02,4.143441915512084961e-01
-6.715226108275128281e-02,-5.065262184093533016e-02,-3.896532679066043725e-01,-3.880146294241521021e-03,-2.953043201227053410e-02,-1.638977216071802606e-02,3.362550735473632812e-01
-4.513576766912286153e-02,-3.352316633625719577e-02,-8.713290244439024501e-02,1.597919705902664609e-03,-3.893259588786893155e-02,9.532284546057527563e-03,8.493410795927047729e-02
-7.445772414747643675e-02,-8.066836109206582117e-02,-3.557162852508340967e-01,-8.266516704976568236e-03,8.014329134822153599e-04,1.039131548597771806e-02,2.791576981544494629e-01
-5.667495147689596835e-02,-5.629578340438129436e-02,-3.147586816421043543e-01,4.945224159710876052e-04,-2.277029297114740308e-02,4.223172870390632522e-02,2.713152468204498291e-01
-7.649350152585703000e-02,-5.840950080357315555e-02,-2.977766649434647750e-01,-4.121835036217089132e-03,1.338374932996059564e-03,1.885719227135249453e-05,2.309789955615997314e-01
-7.100141363143483431e-02,-6.007300219972636079e-02,-3.535578718812869559e-01,-9.602715861290455138e-03,-5.091736502644543527e-03,4.600694079404650180e-03,2.889003157615661621e-01
-6.457213884020188144e-02,-3.553958941090194779e-02,-2.837134523714015533e-01,-1.340875070216757483e-05,-6.307913963530051163e-04,1.011832080561220941e-03,2.350155264139175415e-01
-6.170054242051783988e-02,-6.555690919423494412e-02,-2.883368922740409124e-01,-1.059710787161559191e-03,4.050440800806842374e-04,-3.776879425083103613e-04,2.247425317764282227e-01
-6.022523313837058190e-02,-7.013799701124731611e-02,-5.122884544458331524e-01,1.051857891226884445e-02,4.528638594904155212e-03,-3.922788683347303018e-02,4.527561664581298828e-01
-5.212248766316483761e-02,-4.808938241432803018e-02,-2.786557224247470099e-01,6.973400159862851513e-03,2.698448223891546788e-03,3.555552936976750979e-03,2.290259003639221191e-01
-4.660107423903261936e-02,-5.876733968472165615e-02,-2.889102009654545000e-01,3.582146218038402465e-03,-4.814273965625963728e-03,-5.706153910386547285e-05,2.366891801357269287e-01
-4.397972660742566209e-02,-5.571159552298719786e-02,-2.849570567026173951e-01,3.927913297913273802e-03,-2.363521134571587915e-04,-2.910371951627477370e-04,2.354300320148468018e-01
-5.647085128949984323e-02,-6.276771403151334972e-02,-3.347006135377705305e-01,2.798684485112756890e-03,-2.007488963374717134e-02,-1.103146829273497082e-02,2.780234813690185547e-01
-7.912806451705937938e-02,-8.019072294143117507e-02,-4.457245341077533118e-01,-2.582682377184886829e-03,3.742676147448090185e-02,6.958577696000087243e-02,3.908367455005645752e-01
-5.623099061744904481e-02,-4.390376206916496438e-02,-2.864439393087687691e-01,8.164098294722837556e-04,3.676609973942686419e-06,-8.743852731720305532e-04,2.366265952587127686e-01
-7.344798010293410173e-02,-7.710023456485687321e-02,-5.845007882539589028e-01,1.144590442465664819e-02,2.653014544092420837e-02,-2.778869875626296081e-03,5.117123723030090332e-01
-5.856742346282664546e-02,-5.289465806630209987e-02,-2.916851357631285446e-01,1.300368379907017725e-04,3.275875630144845299e-03,-1.005813355899444180e-03,2.360799610614776611e-01
-5.066638839231879521e-02,-4.911578461508837867e-02,-2.909347336338403700e-01,1.068607735268723141e-03,3.466409508513259002e-04,5.199570209036637545e-06,2.410552352666854858e-01
-5.360364364610818722e-02,-4.143353384181999721e-02,-2.630427966473830592e-01,6.652346802663851137e-03,-1.308869146426888891e-03,-5.942234201487130163e-03,2.163460105657577515e-01
-6.353164022977667025e-02,-3.978945693931064398e-02,-2.537554897115905095e-01,3.315951848311792047e-03,5.799867191757987310e-03,1.001766202858389229e-02,2.042060196399688721e-01
-5.956669670029191010e-02,-7.164794566633841955e-02,-2.905716109818331505e-01,-1.359680163864860312e-03,3.133791018228056354e-04,-8.439004558225593521e-04,2.252251654863357544e-01
-5.244403982984069401e-02,-5.019459318069555143e-02,-2.903912380393151027e-01,1.104042967914059623e-03,4.909594701642998674e-04,4.366018710041811635e-04,2.390902191400527954e-01
-6.431408136128774489e-02,-7.594930202475541625e-02,-3.246554189705040949e-01,2.174851311578737852e-03,5.383278294188845181e-03,-4.642016001177841356e-03,2.550483047962188721e-01
-6.678718259403164381e-02,-5.695190185025872376e-02,-2.250411581537380967e-01,3.098100822344990180e-03,8.124308575826219569e-02,-2.370547007199502731e-02,2.195756882429122925e-01
-5.400224135932715774e-02,-6.636719017611325544e-02,-3.052793764104569929e-01,1.655636011332149021e-03,1.116398687375719581e-02,8.438520989376198725e-03,2.465396821498870850e-01
-5.643072855431353896e-02,-4.328874028898355153e-02,-2.799657561368681380e-01,6.283625560685197203e-03,-9.164407687595393448e-04,1.032685302547193932e-04,2.306497693061828613e-01
-6.209578809718409309e-02,-6.513852231706505902e-02,-3.034976319912296994e-01,9.305345915536576262e-04,-8.113277249211707596e-04,4.263823108245247753e-03,2.400181293487548828e-01
-3.842197218753212740e-02,-6.354534393685132287e-02,-2.702279465043561091e-01,6.245417905496190684e-03,2.416222874212953535e-04,-2.702581650887390659e-04,2.205875217914581299e-01
-6.043664693916393771e-02,-7.080999518415892480e-02,-2.910795492862266465e-01,-2.220246164135362358e-03,-3.718317827537247775e-04,8.479573049824992020e-04,2.256736010313034058e-01
-6.744238960686872730e-02,-4.721622661021430967e-02,-1.867732995351518710e-01,-4.193877201518053481e-03,-1.127497693702175785e-02,6.071474178996549842e-02,1.689838767051696777e-01
-7.110358784421766387e-02,-5.038377053601493516e-02,-2.003021430901742173e-01,-2.974187204329249799e-03,-8.276563338895922411e-03,5.598624686656669680e-02,1.715633124113082886e-01
-6.202739293645041785e-02,-4.449338616198945939e-02,-2.632466201937746497e-01,1.104827355655198066e-02,1.198884806672841259e-02,1.638894443262409531e-02,2.143081426620483398e-01
-6.792751955679726672e-02,-6.821567138457064472e-02,-1.699774110428875495e-01,6.310845609344393342e-03,2.230484058726958305e-02,3.162915245493258531e-02,1.224665865302085876e-01
-3.705771225847209749e-02,-6.412439908792774701e-02,-2.864270417456592499e-01,3.830450979375136112e-04,2.847928470375204503e-03,8.519397772003868552e-04,2.370548844337463379e-01
-5.656131785176028715e-02,-5.321285430346828216e-02,-2.904505029460284771e-01,-5.662414939721525584e-03,-1.760666423175923263e-03,4.954153716650287059e-03,2.359611243009567261e-01
-5.108194375065244763e-02,-6.579959812951310938e-02,-2.482059626916225392e-01,7.541407570580530711e-03,2.037370979656949466e-02,5.537835961001556610e-03,1.941163837909698486e-01
-7.433127548182343058e-02,-6.516333514745593913e-02,-2.219666096493457252e-01,-8.256442586717170629e-03,8.087303413900656657e-02,4.398305440816027007e-02,2.210500687360763550e-01
-4.527240714144739608e-02,-5.637056133938951608e-02,-2.867494803654471180e-01,1.127767144350617402e-03,-3.256152817655963341e-04,-2.897538248399424577e-04,2.361329793930053711e-01
-7.117953132156994156e-02,-5.626173761299095577e-02,-2.067137519611200180e-01,1.115330136020794942e-02,-2.276424711268357215e-02,-4.444192490983741445e-02,1.687217056751251221e-01
-5.875297074955314336e-02,-6.100933275917565929e-02,-1.314335993039171813e-01,1.037545114012874102e-02,-4.379818741797615600e-02,5.690755127226985316e-02,1.446263194084167480e-01
-2.816806287494104041e-02,-4.078577329822311026e-02,-6.669612263460633628e-02,4.591636329016778734e-03,-1.423646799518839615e-02,5.246703519768115831e-02,1.004347130656242371e-01
-5.535188649655080340e-02,-6.601906991597221441e-02,-1.321876412239030574e-01,-5.276380125499623500e-03,2.388270144268448379e-03,6.731593103836555625e-02,1.374512165784835815e-01
-6.545387542983167883e-02,-4.851179578301506590e-02,-2.550561362819762645e-01,-1.335033573761264594e-02,-1.013724338052572789e-02,4.426001975449039838e-02,2.148677259683609009e-01
-4.729839681560681075e-02,-7.659872262111433461e-02,-3.004970835154028297e-01,-5.679886015460830842e-03,-4.121848719764549529e-02,-2.984390971599421537e-03,2.505387663841247559e-01
-7.298392084165086779e-02,-5.893576788377243025e-02,-2.019645987535493292e-01,-5.036575218699270232e-03,-8.487768381660838052e-03,5.346144043586101291e-02,1.658671498298645020e-01
-5.650503997696958158e-02,-5.986793159761799599e-02,-2.923007756271451818e-01,1.378644375337122760e-03,9.637900762432005143e-04,3.570299549590179224e-04,2.341513484716415405e-01
-7.522280461128699747e-02,-6.578311041782820834e-02,-2.120617513251022157e-01,8.256052639182139344e-03,-9.138123588629386285e-02,3.439240039159618262e-02,2.211567610502243042e-01
-5.251812591897483951e-02,-6.981972847004988547e-02,-3.527411210375034356e-01,-2.584131042381908674e-03,4.493516702408684171e-02,2.097527739052082452e-02,3.043620884418487549e-01
-6.092693673761123696e-02,-5.906511981128488575e-02,-2.924774080028332834e-01,-1.031923208723383324e-03,-8.674214182106892252e-04,1.058606152884412031e-02,2.332205772399902344e-01
-6.502798650180104112e-02,-6.790043547771705545e-02,-3.651013070724252740e-01,-1.985431522811189481e-03,-7.725395829525452673e-02,-3.941210911332931888e-02,3.343151211738586426e-01
-7.875535943426625884e-02,-8.020863745483178264e-02,-4.856731272510522168e-01,3.070507976175034567e-03,-4.516682105254864188e-02,-5.103365727904719817e-02,4.230301678180694580e-01
-5.997029752083971044e-02,-5.361873001653422177e-02,-2.909416556445549862e-01,-3.385361262580808802e-04,-4.742138527963779158e-04,-1.028241887563927570e-03,2.342206835746765137e-01
-5.441567893455262483e-02,-7.549333626787285700e-02,-4.541011303717565895e-01,-1.430952957882892455e-03,-5.446446303096839914e-02,-5.569812644928217107e-03,4.009571671485900879e-01
-4.914707258776096488e-02,-5.892058077209524902e-02,-2.285664562965799285e-01,-6.733483842408578834e-03,-4.972381388518808121e-02,3.542982060871047861e-03,1.952545344829559326e-01
-6.025434231490288395e-02,-5.419946233519376544e-02,-2.918788528110010105e-01,-4.258177424740785220e-04,2.225610829715365252e-03,-9.033056112322235525e-04,2.347485572099685669e-01
-5.530154469231686465e-02,-5.764141027448498045e-02,-2.907935981436202133e-01,1.419368573590272129e-03,2.713203244205618370e-04,1.718517571527527262e-03,2.343631535768508911e-01
-7.466212103575886605e-02,-7.123562606894437432e-02,-4.921948926443258654e-01,2.649089201765935861e-03,-1.745475136744668865e-02,-1.528753093608581880e-02,4.212032854557037354e-01
-6.221285151330664676e-02,-7.113523759976971006e-02,-2.910500221472726579e-01,-1.933623972320343363e-03,-1.711912113755315610e-04,-6.527657575918777155e-04,2.245370149612426758e-01
-6.264836714984928223e-02,-4.530593899524172630e-02,-2.902218524665794996e-01,-1.818340183958260187e-03,3.822067271130226299e-04,3.513670232710908690e-03,2.368217110633850098e-01
-6.155849322251630285e-02,-6.503684758349365103e-02,-2.895567546237014511e-01,-2.643537536573024784e-03,1.006320439434031048e-03,1.696923040027235570e-03,2.263512462377548218e-01
-5.622267006855313776e-02,-5.820818786598974670e-02,-2.907533161582614434e-01,-2.491398632107076671e-04,7.401627933651793714e-05,1.332962109278188964e-03,2.335560619831085205e-01
-7.820097784226309745e-02,-7.729815092490538442e-02,-5.812796145231955425e-01,1.722172365523199494e-02,2.445348723022847115e-02,5.124577042734902374e-03,5.062662959098815918e-01
-4.865971679778299808e-02,-5.140887207520618285e-02,-2.894463558964160965e-01,2.604703297380600059e-03,2.131934136938848433e-04,-8.986432906130998504e-05,2.394667416810989380e-01
-3.625463389244987233e-02,-7.666786421493076986e-02,-5.570451981246735684e-01,-6.078454345782660813e-03,3.793439337883963008e-02,5.266971045219277607e-03,5.062808990478515625e-01
-6.168365754102372867e-02,-4.288283245026822121e-02,-2.880190432482222507e-01,-5.428107605609974219e-03,2.850504460714064353e-03,-5.697869619055942296e-03,2.367417067289352417e-01
-5.553635842604973116e-02,-5.427528781317976503e-02,-2.893797554203623168e-01,-7.012919102450778167e-04,1.094941508918046043e-04,-3.653987461876582804e-04,2.344805598258972168e-01
-7.158169907133030141e-02,-6.872167464988712671e-02,-3.375008249765549806e-01,4.395281933984772349e-03,3.191915025780672766e-02,-2.196036260874765708e-02,2.757588028907775879e-01
-5.099214723608458399e-02,-5.170930649640254062e-02,-2.913926206523016482e-01,3.453491015904854846e-04,3.593341629043014839e-04,3.743446098422982212e-04,2.400451302528381348e-01
-6.413415110896161786e-02,-6.020043077120006136e-02,-2.907016643917149645e-01,1.989822464665787216e-03,-1.751005362116734090e-03,-1.298327303028528647e-03,2.286169230937957764e-01
-5.767351196289303983e-02,-5.951029088434003911e-02,-3.463951886674190295e-01,1.581211887276867765e-03,2.678114517230546776e-02,-1.806490153327108827e-02,2.932089269161224365e-01
-5.233257568216119482e-02,-5.431124892391421544e-02,-3.250623011966032871e-01,-4.136709527303124474e-03,5.723909067748353049e-03,-2.367650305718904246e-04,2.720212638378143311e-01
-7.817604833849264856e-02,-5.766630636429115331e-02,-2.995832844603095180e-01,4.582617038959598335e-03,3.085752905795515616e-03,6.893318114081399550e-04,2.325420677661895752e-01
-7.640896375906054694e-02,-8.601692396883157954e-02,-4.345770146050771943e-01,-1.191618638495909981e-03,3.466733915790151666e-02,-5.605794726092943464e-02,3.714466392993927002e-01
-4.033372185440686764e-02,-6.620268479516906723e-02,-2.382048620767891756e-01,5.869325053273747282e-03,-7.911714268134507899e-03,-5.623500046356528018e-03,1.873218417167663574e-01
-6.240850210048048963e-02,-9.717656002275976146e-02,-5.219456166875002801e-01,4.068250713822050765e-03,3.580480410286759896e-02,-1.437929246019769257e-02,4.482430815696716309e-01
-6.745830534862337635e-02,-9.832670837036092126e-02,-5.694919991084517186e-01,-6.463500440413751102e-04,3.953853368756154313e-02,2.501885082893913655e-03,4.921418726444244385e-01
-5.993212233401089273e-02,-5.427662707961831978e-02,-2.918482403674881320e-01,-1.983597552278291163e-04,4.905634296744839935e-04,-2.190263583423683515e-03,2.348273843526840210e-01
-5.289841915800989891e-02,-5.305122820881398582e-02,-2.909915592746888935e-01,1.566447868388018286e-03,8.701616605324472530e-04,2.601254947322248533e-04,2.380374372005462646e-01
-6.384302826933993535e-02,-8.133236770882021349e-02,-5.152861219016521277e-01,-2.590350970852843375e-03,-4.576582491217766335e-02,6.055524001916213345e-03,4.501388370990753174e-01
-7.033687241126729273e-02,-5.887773987515274032e-02,-2.979331866633631032e-01,5.553639393064451401e-04,2.853830436862292777e-03,-1.228072457617137951e-03,2.336007952690124512e-01
-5.258145732766336677e-02,-4.991087498939236755e-02,-2.904774269379435947e-01,1.772549517681095473e-03,6.103995090913530257e-04,-2.685850120396698296e-04,2.392649203538894653e-01
-5.312654745322373251e-02,-5.340493654097624998e-02,-2.909970926877021302e-01,7.131395724498076124e-04,7.440019966939422167e-04,6.646089715680971507e-04,2.377409636974334717e-01
-6.509125458536385578e-02,-6.939955146233400818e-02,-5.203135483828258412e-01,-2.030510256184846207e-02,-3.265030630649617960e-02,2.965567517095460751e-02,4.608232378959655762e-01
-5.240854400942776548e-02,-5.185584552768428279e-02,-2.912098807844213377e-01,-3.344295575689687169e-04,-3.002892545717705624e-05,-2.810382725902391739e-04,2.390793710947036743e-01
-6.127540623362806582e-02,-5.993153610173972135e-02,-3.056823161875196759e-01,-1.064017705298135608e-02,3.492270070911607932e-02,-1.194932376268583590e-02,2.539523243904113770e-01
-7.624048907241276485e-02,-6.618901064791116173e-02,-4.806893184705294253e-01,-1.094017288270280816e-02,1.935865682846395902e-02,-2.751392550410665730e-02,4.141250848770141602e-01
-7.465688166042645790e-02,-6.882757093227009904e-02,-4.012689325473550728e-01,2.110600924643572015e-03,8.630105858695719112e-02,-6.000182210439265057e-02,3.765248656272888184e-01
-3.961828816846733881e-02,-6.563178853927589818e-02,-2.697990764633881877e-01,2.555530149823444317e-03,1.100058861141853077e-02,1.952269327757470870e-03,2.192399501800537109e-01
-6.019152439613775774e-02,-5.489334462293227190e-02,-3.280354805011834740e-01,-3.978121355134466366e-03,-3.580728848334948766e-03,1.104965439425422379e-02,2.713664770126342773e-01
-5.190453955679635856e-02,-6.298149032859329255e-02,-2.769611971358222346e-01,-1.963434200800062788e-03,2.820875205366323718e-02,-1.017199410123528075e-02,2.258083969354629517e-01
-5.870645061922102892e-02,-5.614557963242161609e-02,-2.932534299677267420e-01,2.250400955828050446e-03,1.012861035241425199e-02,2.053076031646233843e-03,2.365482896566390991e-01
-6.563459645540058174e-02,-5.472339843346418764e-02,-1.472887080980052332e-01,-4.584805834534888200e-03,5.868799985113467427e-03,-2.565836261037984442e-02,9.909004718065261841e-02
-5.881847838086447233e-02,-5.947690919748407912e-02,-2.892566245849473860e-01,1.629524792222911708e-04,-9.194867926885506079e-04,-6.166964609939529912e-04,2.301177978515625000e-01
-6.028783891178265963e-02,-5.982896552033635518e-02,-2.897470084525087808e-01,3.832579012154788915e-04,-9.436550851708776786e-04,-2.145061827261136519e-03,2.297257781028747559e-01
-7.959952276217502343e-02,-6.344009574903153315e-02,-2.629066105499154316e-01,-5.274026855592629098e-03,1.474194048455020230e-02,-6.279726368127565295e-02,2.222401052713394165e-01
-7.037920623806508125e-02,-6.137791570720885215e-02,-2.911119824706103199e-01,1.350556265207279033e-03,3.410812501511912881e-04,-9.912871361032128854e-04,2.253877371549606323e-01
-4.255231391072480940e-02,-6.024681735216794870e-02,-2.621374494011449729e-01,-7.240916277605123803e-03,6.075457516048046562e-03,-3.564011581449549274e-04,2.119284868240356445e-01
-8.207223855497705611e-02,-8.165529291845644022e-02,-4.564198331400953768e-01,-4.861421614982500573e-04,-6.512469245490652876e-03,6.037594753019580318e-02,3.890450894832611084e-01
-5.808173249432267704e-02,-6.670363599892148443e-02,-3.375529915980138851e-01,2.513428035288423881e-05,1.086570221036049083e-02,4.229226105208226671e-03,2.760014533996582031e-01
-5.914444133887408750e-02,-6.918419365499842155e-02,-2.973608673912709888e-01,3.431554372876273766e-04,1.367132461743976023e-03,3.345076734988330393e-03,2.334432601928710938e-01
-9.033803691676042802e-02,-7.984520471550274334e-02,-5.338321113509386651e-01,-7.707123990094997060e-03,5.563801601202577468e-03,2.280306344049345957e-02,4.508676230907440186e-01
-5.723424793324724535e-02,-7.773199629880882255e-02,-2.937857208768608896e-01,-2.213976409142221283e-03,-5.929639666699465170e-04,-1.278217702677737939e-03,2.270432710647583008e-01
-5.788551718338431906e-02,-7.892827013145636839e-02,-3.008173971834037230e-01,2.604814836862334422e-04,1.345172900367760222e-04,-2.908325626000558915e-03,2.331788390874862671e-01
-7.274907465712471266e-02,-7.482316287611728844e-02,-3.774425801779468514e-01,3.356446342074214349e-03,-5.358150379220550513e-02,8.816351505078437456e-02,3.523856103420257568e-01
-6.100833930530954324e-02,-4.642533071956181367e-02,-2.173948208333192356e-01,6.604594000262971158e-03,-1.129656051844414588e-02,-1.739450900239659231e-02,1.684380769729614258e-01
-5.476735401313279072e-02,-6.012698228574209214e-02,-2.955321497176990886e-01,1.093283771225060392e-03,1.285695599807622300e-03,-2.198332616904038160e-03,2.381785959005355835e-01
-6.073935328982633941e-02,-7.186295361495471934e-02,-2.939961972918023747e-01,2.016611674018323978e-03,1.274208327090705847e-04,-6.740819601974737093e-04,2.279285937547683716e-01
-7.158804728756393287e-02,-7.330444175764522230e-02,-1.554193392440097188e-01,1.591451901067497980e-03,1.447008189447167217e-04,-1.697134798179622886e-02,8.808226138353347778e-02
-6.146877271404399545e-02,-6.243069893772781875e-02,-2.954368959944165263e-01,6.300552530981151905e-04,-9.620724657344496096e-04,3.973444538541044679e-03,2.335985451936721802e-01
-7.499830562476494933e-02,-6.693641628158003565e-02,-1.669574413305889848e-01,2.722404888168348646e-03,-2.449055827132992982e-02,-3.916166741280611291e-02,1.252411603927612305e-01
-6.371512507735754838e-02,-5.849469806230689350e-02,-2.749055933786233030e-01,1.187543877627679620e-04,2.749542482100930316e-02,3.154706087941334253e-02,2.257982790470123291e-01
-8.925677224166769785e-02,-6.454676838041106812e-02,-5.237553823502113515e-01,2.974676375857934502e-03,-4.208657109461562407e-03,4.841192058370091811e-02,4.552437961101531982e-01
-4.531061954550674731e-02,-5.824187468051356120e-02,-2.600835624397652701e-01,9.708103066238369869e-03,1.728495208766958613e-02,9.457953247554658910e-03,2.120489627122879028e-01
-5.812573557252699585e-02,-6.707723148158600823e-02,-2.995757507427187494e-01,-2.320933472276319844e-04,3.215331829230356456e-04,-1.095847449230538239e-03,2.371096312999725342e-01
-7.034303183797020742e-02,-5.694808444816282234e-02,-3.007526374758050514e-01,-6.353094286065220442e-04,-2.972278597768470212e-03,-1.226027349291692985e-03,2.374585419893264771e-01
-6.846355398295844719e-02,-5.902801895670992116e-02,-3.420536776857644456e-01,-6.262539635261400034e-03,8.435030754157610278e-02,9.050994880058695763e-03,3.150085806846618652e-01
-7.109620595634014162e-02,-6.045253034698200301e-02,-2.916582709830713438e-01,5.079121896321456102e-03,-1.693162687160958461e-04,-2.825363492932781188e-04,2.262437194585800171e-01
-8.376483960791999972e-02,-5.586253715248194751e-02,-3.200183203457828141e-01,8.189168529668215679e-04,6.677755182100083339e-04,-9.825133330383269137e-03,2.519508004188537598e-01
-6.745281745943983165e-02,-9.031043970739890958e-02,-3.885885992437762004e-01,-2.081264841277945081e-03,-2.396257870960346974e-03,9.708604397500728012e-02,3.530121445655822754e-01
-6.260703313779734935e-02,-5.293854040291373630e-02,-2.904723358761623353e-01,4.386030268754536818e-03,1.243601868177835390e-03,4.459758654104931108e-03,2.331120073795318604e-01
-5.929281501680269684e-02,-4.596600365051180248e-02,-2.988966380200741013e-01,-1.714718533316552437e-03,-2.129381122975842686e-03,9.676715933790684329e-03,2.471519559621810913e-01
-6.949413893018491217e-02,-6.889388173210281296e-02,-4.922741936178815503e-01,-1.491887410164759523e-02,-3.282851839905313873e-02,3.518443676947061172e-02,4.319858849048614502e-01
-6.382611437442520241e-02,-6.313811634510477222e-02,-2.869729348445063111e-01,1.462362386641029126e-03,3.727230604727128178e-04,-3.133617827563794456e-05,2.235068976879119873e-01
-7.984146202594868957e-02,-5.699594999973806031e-02,-2.984098015327408815e-01,2.366898529360572830e-04,-7.673468663207708932e-04,-2.162947687342944847e-03,2.308751046657562256e-01
-5.988510552156764422e-02,-5.910813730599161209e-02,-2.913507781946276798e-01,-5.422608629843325700e-04,1.115481863501565073e-04,1.299432191073365351e-04,2.318572252988815308e-01
-6.116358304310096083e-02,-6.843248763117223965e-02,-2.912227532373584671e-01,1.480630537742592132e-03,-1.384497375560942312e-03,2.561106099062408401e-04,2.265398502349853516e-01
-5.797840553676564257e-02,-5.856317843917840937e-02,-2.909573437515428074e-01,-1.163528829159438101e-05,-1.171672958173337019e-03,1.550121551309104713e-03,2.327114492654800415e-01
-8.387014657618535596e-02,-6.888153488806811331e-02,-5.008495259564911262e-01,-6.090459742583529713e-03,-2.780636010576181469e-02,2.740933834632141783e-02,4.301523864269256592e-01
-5.970015642950472767e-02,-5.503457668801725600e-02,-2.910321786354034268e-01,-3.136923917772301961e-04,-3.328726465675520881e-03,-5.837215703536586744e-05,2.337715029716491699e-01
-7.405529937798187301e-02,-7.251544874299251098e-02,-3.769087712136234281e-01,4.512943739063949092e-03,-5.485926531856485933e-02,8.709677824640443822e-02,3.521877527236938477e-01
-5.904531799112143486e-02,-4.148970510403766909e-02,-2.718998863697871804e-01,-4.975745494599979196e-03,-5.661457219338301809e-03,5.428731336369283129e-03,2.227350473403930664e-01
-6.306304335920240312e-02,-6.080879507190525834e-02,-2.890126392360857777e-01,4.225439257723894631e-04,-1.739965114257083613e-03,1.693744257106718359e-03,2.271252423524856567e-01
-7.140499128106661542e-02,-7.524615281457619487e-02,-5.229818231776756088e-01,-8.056962054406527764e-05,-7.419380988959407147e-03,1.908019126043299790e-02,4.510644376277923584e-01
-7.304774184398379888e-02,-5.743274990999829022e-02,-3.301131027162850784e-01,-3.443152710768909545e-03,-6.009217557114776911e-03,1.652412820431300609e-03,2.655044198036193848e-01
-6.995516746465485491e-02,-6.132451267379329662e-02,-3.836775679567956399e-01,-8.648811327804598742e-04,7.736495709392021691e-02,-5.147301731248608847e-02,3.565256297588348389e-01
-5.347713636569555173e-02,-5.870248282412421359e-02,-3.078236707390130666e-01,3.641615700121418261e-03,-6.232007286677072877e-02,2.060728002613772269e-04,2.740103900432586670e-01
-6.098906884589017086e-02,-5.475693284964605612e-02,-3.183021560512230286e-01,-2.408370893076586163e-03,-3.534653523742700004e-02,3.233352108956878690e-02,2.734124660491943359e-01
-7.870885649939260431e-02,-6.194014711777558191e-02,-3.070096309510635946e-01,4.283845420832396375e-03,4.228812129522854443e-03,3.439434553085826164e-03,2.374340593814849854e-01
-6.882022785655264596e-02,-6.636531059625117024e-02,-4.031039113595111800e-01,-2.827295096016511650e-03,6.096009882357453918e-02,-1.937388015621553661e-02,3.533704280853271484e-01
-5.093290583520293513e-02,-6.552720878412041094e-02,-3.148644918171797924e-01,1.971437322234995181e-04,-1.818479059835031997e-02,2.000089882479873064e-03,2.588921785354614258e-01
-5.286857727185147182e-02,-5.840585479541465785e-02,-3.479434828769826238e-01,-8.991389277604141302e-04,2.476490063441960481e-03,-6.024947164233472423e-03,2.925673723220825195e-01
-6.282894591920951122e-02,-7.232173722182068387e-02,-3.244118943432496849e-01,3.333277096377703502e-03,7.141030017442541455e-02,-6.526878513890854716e-02,3.068293929100036621e-01
-4.569108502580965236e-02,-7.155179986073025022e-02,-2.598537199057622815e-01,-3.155158744501881073e-03,6.443607293523551105e-02,2.945883272718468737e-03,2.313178181648254395e-01
-6.262570714589399401e-02,-5.763170362575724404e-02,-2.948395696758462359e-01,-2.914567651695547205e-04,-8.396233922955298468e-03,-1.492653506095560027e-03,2.352154850959777832e-01
-4.927334948506745249e-02,-4.820354958264101708e-02,-2.900568975553078355e-01,2.797490188184115992e-03,6.376247991461084924e-04,9.042257131013975218e-04,2.413764744997024536e-01
-5.073616507480693816e-02,-5.460873186438992832e-02,-2.620064119859873975e-01,1.010731374617916331e-02,8.880203509689283976e-04,4.800107594270108455e-03,2.102615535259246826e-01
-5.201825601761328466e-02,-6.106489846277327049e-02,-3.093509489045510596e-01,4.149282776836413352e-04,-5.978849063704704675e-02,-1.090013715771895320e-02,2.739615142345428467e-01
-5.857807180532664804e-02,-5.997310783020202984e-02,-2.939374966158260216e-01,-4.981581882142060037e-04,-2.732067200859711591e-03,-4.621916731619583657e-05,2.347143292427062988e-01
-7.209055491333740684e-02,-6.123186824986537324e-02,-2.913890843541819264e-01,-5.290691417264115765e-03,1.485809459814731691e-03,-1.192678146290006335e-03,2.251353263854980469e-01
-6.237522181581289099e-02,-6.262171380394844500e-02,-2.125355298454901787e-01,-5.588626022357823242e-03,4.574728161625760126e-02,6.813675584587776390e-02,2.069085687398910522e-01
-5.997852709484137457e-02,-5.892567812885748935e-02,-3.140417905128930487e-01,1.745707966073089840e-05,-1.587086919242535615e-02,4.320803863607553322e-03,2.561804056167602539e-01
-6.361417689905503325e-02,-3.714571111658637736e-02,-2.850651841626863359e-01,-5.169632739716981422e-05,5.300003834677209907e-04,2.895706063207516973e-03,2.358571588993072510e-01
-6.204884542372232636e-02,-6.332005212008789963e-02,-3.068960152385694085e-01,3.740580594949793284e-03,-2.808081558499237775e-03,2.943153424783040775e-03,2.444015592336654663e-01
-6.577377204538339961e-02,-5.145794931831439156e-02,-2.659035808425453395e-01,7.298572582536628876e-03,-2.154219238175878132e-04,2.136955958077460960e-03,2.080758363008499146e-01
-5.610128617737517032e-02,-5.983068845189615237e-02,-2.768382481922270766e-01,-1.396428581292800432e-02,-1.513696719551737083e-02,1.627672639384590905e-02,2.235680669546127319e-01
-5.085121353514131248e-02,-4.491941584735036075e-02,-2.886081324672384318e-01,2.794731342154700791e-03,1.836069602631349622e-04,1.736299481852938043e-05,2.408264875411987305e-01
-4.825579280907667939e-02,-4.903107472662206201e-02,-1.239001078067671902e-01,-5.875546708346699593e-03,3.409929169107869806e-02,4.822243814520900396e-02,1.274051815271377563e-01
-6.213115998708161614e-02,-4.555480937179524903e-02,-1.079061081154865376e-01,-4.149704838730476283e-03,6.068769266483238500e-02,-1.013778297715415069e-02,1.205731108784675598e-01
-6.389018342026916986e-02,-5.827500689081147045e-02,-2.924838498267985365e-01,-5.518874879375330802e-04,1.552604230457783029e-03,-1.116788165217946381e-03,2.314780205488204956e-01
-4.261969539255983097e-02,-6.213011479334962228e-02,-2.868453840902429608e-01,-1.112538042629156870e-03,2.653096612647508866e-04,-9.486423240193877929e-04,2.350925803184509277e-01
-3.568736028908724156e-02,-6.563386687251321350e-02,-2.739675975178848533e-01,2.162540085171062165e-03,-5.558220008982820565e-03,-5.199606519144498069e-04,2.250469475984573364e-01
-7.737230636191007316e-02,-7.484435206634884596e-02,-3.326295247244209774e-01,5.875312096442324335e-03,9.070121596780267303e-02,-6.429122421189101266e-02,3.209231793880462646e-01
-7.499954429425374769e-02,-6.275496261158521050e-02,-1.696919533991299578e-01,1.119207808735123502e-02,1.102936893037956417e-01,-3.948958324668461195e-02,2.276493161916732788e-01
-3.696982847230434466e-02,-6.502420565392696972e-02,-2.813443504039833121e-01,-1.872806739230041409e-03,-6.266912119382463521e-05,-1.306062235006754486e-04,2.316479384899139404e-01
-6.514325826296191169e-02,-6.271456876279871140e-02,-2.878559689872286498e-01,4.016874344716006828e-05,1.602599807755030197e-04,-2.258512476037833185e-04,2.239374518394470215e-01
-8.086645254632909841e-02,-7.426181297569893480e-02,-2.093522798457772560e-01,2.088981075422428196e-02,1.099354426416595532e-01,-8.392679168990822836e-02,2.758595943450927734e-01
-5.375081060705060032e-02,-5.796543692825957550e-02,-2.904270649957831907e-01,-7.916996768459689041e-04,3.489514211024314760e-04,7.907516674737135806e-04,2.346061170101165771e-01
-4.684634370222864885e-02,-5.386691492795206426e-02,-2.634679106527889614e-01,-9.509000938358398020e-03,4.885141223704618160e-03,-5.702893302647428497e-03,2.142284065485000610e-01
-5.970631294122846072e-02,-4.037755136514681320e-02,-1.258721697001399520e-01,2.852422737865937044e-03,5.921111819851325453e-02,-3.438619060705313570e-03,1.288727074861526489e-01
-3.995957272463464272e-02,-7.004530190071663054e-02,-2.912268721543334049e-01,-7.005218673114463595e-04,-9.575118562472176992e-03,4.293296768228187926e-03,2.383540719747543335e-01
-3.499693158274147509e-02,-6.433917345424594592e-02,-2.841866737400782772e-01,-6.159593749882851226e-04,-1.480012015426340278e-03,-4.220753750974512550e-04,2.359087765216827393e-01
-7.256852135043548313e-02,-5.388008477005925417e-02,-1.941536009647988337e-01,2.998231865798673713e-03,9.026948892266278834e-02,-5.859980328689334307e-03,2.048905938863754272e-01
-5.167237434056853179e-02,-6.140108180603594257e-02,-2.136680834751154279e-01,-1.495239744484148144e-03,6.350117473210442620e-02,-2.509230066057363193e-02,1.968604177236557007e-01
-3.511432078309394134e-02,-6.511427559975337120e-02,-2.825706037519997160e-01,-2.785105470620168771e-04,-3.125582966451007343e-03,-7.792830563494529351e-05,2.339668571949005127e-01
-4.383409460046341910e-02,-4.359189677867379709e-02,-1.123689883783086652e-01,4.147570553259172579e-03,4.796461723725885251e-02,-2.537136850160239682e-02,1.166114434599876404e-01
-4.388052085071289521e-02,-6.285107297435252316e-02,-2.598445296616403999e-01,-8.301002859796100669e-03,1.486710654303679408e-02,-8.864406159075320646e-03,2.097830474376678467e-01
-7.358745079465764394e-02,-6.372259512167761930e-02,-2.462103525192083642e-01,5.874271257018798958e-03,9.982374442679475823e-02,-3.034261214650745692e-02,2.536903023719787598e-01
-5.167749276432270777e-02,-6.436138828659307420e-02,-2.635170745087180855e-01,1.003708046923768721e-02,5.474888054800893661e-04,8.033757375624731717e-03,2.069944143295288086e-01
-5.350073896258970840e-02,-4.706914685288017541e-02,-1.208003992521148318e-01,-3.973660711714671959e-03,5.225250220347968377e-02,2.211236118716451704e-02,1.212792843580245972e-01
-3.689715488077156824e-02,-6.322423108769179012e-02,-2.509643084892035358e-01,3.572886981260948742e-03,1.185473108896140278e-02,1.690111046434764454e-03,2.033483982086181641e-01
-5.437628879531027082e-02,-5.559569721604201709e-02,-2.900250291747651921e-01,-1.015781459493538593e-03,1.687752833489953317e-04,4.558924071706841100e-04,2.350495010614395142e-01
-5.123965983689479642e-02,-4.988794555153021337e-02,-2.693931953316874295e-01,-8.599313200116790248e-03,9.622262165965463077e-03,-9.004601439797909126e-03,2.205233126878738403e-01
-6.196408632448276166e-02,-5.482664402850039032e-02,-3.198783989618417811e-01,3.008949150021051049e-03,4.475950613956920093e-02,-5.637927289857316143e-03,2.730281054973602295e-01
-5.820666782161065811e-02,-5.624814873939233684e-02,-2.910963122529599545e-01,3.104226128215754714e-04,-1.349070383338550529e-03,4.293357577902798890e-04,2.338885217905044556e-01
-5.379409653882848835e-02,-5.187981495767921003e-02,-2.254564611347186776e-01,1.221224922391407099e-02,3.665826414834691405e-02,1.912366565333852020e-02,1.880858540534973145e-01
-4.518351258089051137e-02,-5.687721612788551595e-02,-2.887669811024640709e-01,-7.515268876911200199e-03,1.291510353923891116e-02,-8.609574005591614024e-03,2.398196607828140259e-01
-6.997347781364759989e-02,-6.063374550652579631e-02,-2.921874421440626146e-01,2.835543431080267233e-03,9.409553066063773780e-04,-1.887541107629682035e-04,2.270871698856353760e-01
-6.721813554685616976e-02,-6.704053370401412415e-02,-3.934516913699873664e-01,-1.627293648862768562e-03,7.584089196197596472e-02,-1.060742902699373866e-02,3.522603213787078857e-01
-6.595883562351771701e-02,-7.111777484239087399e-02,-3.413457529350272246e-01,-5.186648119282530334e-03,8.869903915789140170e-02,-2.993805239387822142e-02,3.175153434276580811e-01
-5.064502808599628814e-02,-6.495346489358681807e-02,-2.974300237190858343e-01,-3.204314226007054425e-04,1.886525337119548257e-02,1.252533369819810657e-02,2.431359887123107910e-01
-5.038778949215737268e-02,-5.994393938908631342e-02,-2.299748485058401015e-01,1.178964406567780017e-02,1.286079554268993938e-02,8.782191946708700972e-03,1.782448887825012207e-01
-4.225306758014549247e-02,-6.039276214108447310e-02,-2.510549924815791423e-01,-2.848845231067937377e-03,2.413733497458954783e-02,-5.138129131532402118e-03,2.049172222614288330e-01
-4.423328337231997864e-02,-6.307228632532439760e-02,-2.685822089836134019e-01,7.179833334654554117e-03,8.049785429602950709e-03,3.515715729353149042e-03,2.164416015148162842e-01
-5.541145594220199533e-02,-7.405448014133400592e-02,-1.981776481483911168e-01,3.906480773974023261e-03,5.363481176271750472e-02,2.270393457688344580e-03,1.635832488536834717e-01
-5.774489423954660972e-02,-7.906914045826213266e-02,-2.981790862593360902e-01,3.147049078311975464e-04,-3.514942478260924853e-04,2.955711827678610300e-03,2.305712997913360596e-01
-8.038359364016336994e-02,-5.256410204250835938e-02,-5.156231949897917000e-01,-6.193105481352567145e-03,-6.967643541252126378e-03,3.582492858394746571e-02,4.543418884277343750e-01
-5.637831057211220576e-02,-7.511575737107968609e-02,-2.955421128903131245e-01,-6.569264988159153901e-04,2.812582635977677959e-04,1.213346121960744151e-03,2.303802222013473511e-01
-6.089600233763355075e-02,-4.771088361306100034e-02,-2.905589085740214461e-01,-5.889876845401187258e-04,-7.371027954877580265e-04,3.166852985690527412e-03,2.366004884243011475e-01
-5.677266254148816138e-02,-5.979780421520411449e-02,-1.392345582614071819e-01,-5.565797166738237732e-03,-2.375569471456244128e-02,3.776968345039929953e-02,1.123620793223381042e-01
-5.467807061380337841e-02,-4.634089250020623219e-02,-2.879686236566342261e-01,1.167324381051804659e-03,8.015775708624371229e-07,3.950443782599987841e-04,2.375784814357757568e-01
-5.122837102893273986e-02,-5.518923651544788145e-02,-2.912380440306784335e-01,7.043297486023629992e-04,-1.764689503447174632e-04,-1.747305361494041727e-04,2.380574643611907959e-01
-5.255111033960199740e-02,-4.896384047924874638e-02,-2.899398392240298827e-01,7.283526349079538298e-04,-4.365977253509508197e-05,-8.097526735521299321e-04,2.392099946737289429e-01
-5.580752356121362889e-02,-4.390208010617147050e-02,-2.874698337802769621e-01,1.593196968451300122e-03,-9.991566175814203972e-05,-1.812418273381253067e-03,2.378754019737243652e-01
-6.974192041267376907e-02,-6.233979664431694989e-02,-3.143238405094906929e-01,-1.899352643124674811e-03,1.336748686358548138e-03,-5.001006591853510326e-03,2.485492825508117676e-01
-5.147923838024401344e-02,-6.147102278886849847e-02,-2.457062865719270295e-01,1.317974643834739050e-02,-2.229588323349835158e-02,-1.074083858611113440e-02,1.955552101135253906e-01
-5.357861412783533617e-02,-4.573115604920592603e-02,-2.644505678875259114e-01,-8.113762551094468728e-03,5.468373752872989976e-03,-4.263559138509767123e-03,2.156968116760253906e-01
-5.030576141798726031e-02,-4.890674089367172406e-02,-2.900756713028015410e-01,-1.945165139421281379e-03,-4.018455681819534304e-04,7.526458629128059087e-04,2.405006140470504761e-01
-6.738216355894378895e-02,-5.787964020659985831e-02,-2.931214778345661576e-01,-4.998171873243268531e-03,-3.544020714598758795e-03,6.869537841395100724e-04,2.308845371007919312e-01
-6.302608462145850576e-02,-3.752856058342207701e-02,-2.818620377967138158e-01,8.522526690269980384e-04,4.882674905159850543e-04,5.823467671705788787e-04,2.326434701681137085e-01
-5.437363308673746898e-02,-4.715627180856632461e-02,-2.907630037205717333e-01,-1.636044024079337392e-03,-2.280616097278662568e-04,2.209333446996190886e-04,2.400967776775360107e-01
-7.275710039704152976e-02,-5.873322273840259067e-02,-2.922264559117918603e-01,-1.165800305703652753e-03,8.839805098753250427e-04,1.583764469834942311e-03,2.268374413251876831e-01
-7.205248064258981677e-02,-6.129613559561647440e-02,-2.918666582299941359e-01,-2.793003980085348881e-03,1.108123183794211541e-03,9.511039288778636415e-04,2.254510372877120972e-01
-5.575671810501259262e-02,-5.678771467432341957e-02,-2.890543554657696301e-01,3.751843650582853580e-03,-1.433265843442072668e-03,-2.098132284443145906e-04,2.328880578279495239e-01
-4.593081556723878356e-02,-6.033475417642653049e-02,-2.716992686495635079e-01,2.576309753493475230e-03,-3.842864030638572237e-02,-3.757484838988530296e-03,2.289529740810394287e-01
-5.831712449652294572e-02,-5.570212617317016335e-02,-3.031918512520508924e-01,4.582449045064384240e-03,-3.595156785307550285e-02,-3.116068634637371437e-02,2.597389519214630127e-01
-4.726381976265009444e-02,-5.927206560360634424e-02,-2.944104675705734309e-01,-6.613505043526585539e-03,1.781238709359249384e-03,-2.865404242852510885e-03,2.417089790105819702e-01
-6.505634109016905642e-02,-6.577605243968077942e-02,-8.163321846017868033e-02,-1.844815108939348944e-03,-3.603360122001289523e-02,-4.684756458580419808e-02,1.036963537335395813e-01
-6.406155755052461709e-02,-6.884230012458897319e-02,-1.802700843757639171e-01,-2.792896026730102080e-03,-4.934685909268309023e-02,2.136298921941212625e-02,1.472059190273284912e-01
-6.616033069729754246e-02,-6.502230302662438677e-02,-1.102107390654509800e-01,-1.931641847055043078e-03,-9.979281132066530891e-03,1.869514606080929439e-02,5.788213387131690979e-02
-5.719293837727214280e-02,-5.766459694580187978e-02,-1.486817895792290622e-01,1.012907154561797259e-02,-4.356897055490922821e-02,-2.225655609965283832e-02,1.257613003253936768e-01
-5.431874794913329335e-02,-6.201212993546375424e-02,-2.123728267823892790e-01,5.362226465906036292e-03,-1.304000760802918012e-02,-1.553665892160675799e-02,1.585713028907775879e-01
-4.635372747582425235e-02,-7.034083717228861721e-02,-2.027812971695291955e-01,-1.117728938664467892e-04,-1.599947875243788731e-02,-1.052514350543046467e-03,1.485396623611450195e-01
-7.583443664818403929e-02,-6.607212468332732125e-02,-1.856660704551467700e-01,4.800224626255572211e-03,-8.986598950439086964e-03,-1.385156212514692883e-02,1.188170909881591797e-01
-5.970168794046269711e-02,-6.467849965960120739e-02,-2.906893737989015847e-01,-4.137939531370105886e-04,-1.655001529380111707e-03,-1.687292166915284721e-03,2.285777032375335693e-01
-4.733672320456419613e-02,-5.375118309322779453e-02,-2.830735935424478766e-01,-6.736905325086230134e-03,-4.654616115490436317e-04,1.146167584694744029e-03,2.328983545303344727e-01
-8.261725061012413496e-02,-6.102146324334757621e-02,-3.485893986732598315e-01,2.652821670518147167e-03,2.688585099730030938e-03,7.277170597286920783e-03,2.777644991874694824e-01
-7.483856188377949192e-02,-6.117987744129738115e-02,-3.119173534895309796e-01,3.131992823382730596e-03,-8.122710542253414642e-05,-1.975532935098385338e-03,2.442790418863296509e-01
-5.768767861637841277e-02,-7.125651044989386729e-02,-4.920628159342654295e-01,-6.420238233902822444e-03,-5.236339815865449082e-02,1.764430630664519731e-02,4.384692907333374023e-01
-5.128267085573627593e-02,-4.980460918550239091e-02,-2.923480356323615026e-01,-6.184328634069327863e-04,-2.448999390741146676e-04,-8.860292763798906365e-05,2.418105751276016235e-01
-4.515643744213435062e-02,-5.543863282837302453e-02,-2.876873502090630530e-01,3.019414097641434647e-03,-8.725375987993645287e-04,3.326806241527291950e-04,2.376198321580886841e-01
-5.694675495447040769e-02,-4.562159982813089598e-02,-2.899332555053492078e-01,-1.080353990647066158e-03,-2.440630494552735734e-04,-6.365181097787472701e-04,2.388607859611511230e-01
-4.471274653921021580e-02,-5.849677329280836280e-02,-3.688243302881200059e-01,-4.818890503536295278e-03,-2.165969503424973810e-02,2.741694797247721214e-03,3.197974264621734619e-01
-7.922309802877128271e-02,-7.527755992962720244e-02,-3.566097484638247606e-01,-3.331159397111307582e-03,8.464179019602312282e-02,4.949172349055052517e-02,3.269979357719421387e-01
-5.261086516093306520e-02,-7.450893934275668040e-02,-2.430967509127280324e-01,2.191078363333562838e-03,2.554886060570482620e-02,2.273665770269994724e-03,1.859603971242904663e-01
-3.699904611931989495e-02,-6.527775496712795444e-02,-2.494914567772085201e-01,-9.987627372544281238e-04,-9.809294487499696513e-03,-1.631422835703423340e-03,2.006074339151382446e-01
-4.079222468545529168e-02,-6.107329337381911527e-02,-2.883906498693549203e-01,-3.314619848191397312e-03,7.568280497447974452e-03,-1.215782135174292653e-03,2.385455369949340820e-01
-3.893260629242223381e-02,-6.540765167193855756e-02,-2.751415897981992487e-01,-4.452026755494061828e-03,1.018701866593045569e-02,-2.128754843937217319e-04,2.249730974435806274e-01
-6.226868109863090139e-02,-5.986551721960721439e-02,-1.110170346769475958e-01,4.758047674164020240e-03,-5.066750607962228897e-02,-3.072576038629217660e-02,1.144598200917243958e-01
-6.197051931653146939e-02,-5.611884878597520054e-02,-2.965770038969163802e-01,1.795240921233025658e-03,6.979590847008340128e-03,5.242048743725415474e-03,2.380872368812561035e-01
-3.805858880969634206e-02,-6.241827216035369941e-02,-2.865719150863190734e-01,-1.238497658970295076e-03,1.644180324901413142e-03,-8.765856400736254331e-04,2.373048216104507446e-01
-5.028214542951367494e-02,-5.132620216806380031e-02,-2.919837129686148058e-01,4.650106647120119088e-04,2.336908917961630227e-06,1.665983375552732362e-04,2.411827445030212402e-01
-3.811836799967076306e-02,-6.927979503695923247e-02,-2.389549453865708328e-01,-3.405770105771593979e-03,2.539890909107951622e-02,2.020502809098292246e-03,1.924327611923217773e-01
-6.692489553090075205e-02,-6.390476562849078945e-02,-2.901038528856885179e-01,2.303471621557267972e-03,2.506405238973833196e-04,-7.437096177406197833e-04,2.247437685728073120e-01
-6.616113878611261379e-02,-6.244083040303066712e-02,-2.888520294184537818e-01,1.506014934444613882e-03,-3.855471241554591071e-04,-6.028558798433173577e-04,2.245927304029464722e-01
-5.135962041887244534e-02,-5.053606599992689630e-02,-2.925404976457284256e-01,4.551038344364566140e-04,1.335727372990621231e-04,-9.820758361973658040e-05,2.415951639413833618e-01
-7.026424551243068417e-02,-6.549486911172379411e-02,-2.997831414898275426e-01,8.265576721714493896e-03,-5.975777595049818272e-03,4.730872751714405682e-03,2.327564507722854614e-01
-7.393937034141982723e-02,-6.063400858941489502e-02,-3.262026390344985316e-01,1.633698426878653787e-03,-4.507203514734193193e-03,5.767246252919275978e-03,2.594975531101226807e-01
-5.508294658482439099e-02,-5.466066699028965248e-02,-2.999645755239093159e-01,6.413996839145031173e-03,-1.052784525741836882e-02,-7.628223090688199086e-03,2.463759183883666992e-01
-5.362483559495742624e-02,-5.386030569253719147e-02,-2.901996976794611882e-01,-5.383830968561467857e-05,8.205778911372368792e-04,6.589999970989122904e-04,2.364642620086669922e-01
-5.975447991828553018e-02,-5.627853220067960405e-02,-2.935517732193061446e-01,3.073784504233199497e-05,2.700404118204841747e-03,-1.338560504727510361e-03,2.356123477220535278e-01
-6.676574268502492859e-02,-6.096154146932691864e-02,-2.884116996234848962e-01,2.681612984568206362e-03,2.211299101134646839e-04,6.994239826036310718e-04,2.246559262275695801e-01
-5.496411833043540751e-02,-4.326264546577414383e-02,-2.806831330095735932e-01,-5.288873061814240717e-03,-4.346997904761182844e-05,7.557637277729493616e-05,2.319723814725875854e-01
-5.025148272709784036e-02,-5.142590771183866427e-02,-2.921403286728232462e-01,-6.033252089471506392e-04,-4.926894316362992248e-05,9.424955447394833472e-05,2.413061112165451050e-01
-5.627704103304567718e-02,-5.215445000594087777e-02,-2.901756749257533019e-01,-1.571103528621489807e-03,2.608282281924874588e-05,1.196942521230025171e-03,2.360117435455322266e-01
-5.244518105805165420e-02,-4.373497295931469409e-02,-2.851274469035526282e-01,-3.422504221964977472e-03,4.475077551304090318e-04,-2.026426381756586854e-03,2.372586727142333984e-01
-5.586311878096075767e-02,-5.487933238284135873e-02,-2.896869928070643363e-01,2.476558135188501684e-03,2.969377985042483386e-04,-7.206454443181198495e-04,2.343604713678359985e-01
-7.121735447372098959e-02,-6.054106407232340281e-02,-2.931521597032299420e-01,3.355025289997730017e-03,3.560555441893609781e-04,-2.996919161858420779e-04,2.275365889072418213e-01
-7.313661427032783213e-02,-5.933956432004330872e-02,-3.169234115883363678e-01,6.770940255503463470e-03,-2.171787087926561974e-03,-2.388362411912718988e-04,2.512722909450531006e-01
-4.359364145616878572e-02,-6.297880675585201815e-02,-2.913076858049248319e-01,1.469094954318622605e-03,7.013883093989381652e-03,4.805996391790587699e-03,2.390803396701812744e-01
-4.603085697482599270e-02,-4.635232202961654668e-02,-2.590140895512463848e-01,6.011421940969664465e-03,-3.316607357059117578e-02,-4.976065655360721596e-02,2.369182109832763672e-01
-5.766946429402464158e-02,-5.374399694049834808e-02,-3.210418959531287086e-01,-2.345591569548369140e-03,-4.241433043025967520e-02,8.771958491015377501e-03,2.757872045040130615e-01
-5.541612384050852158e-02,-6.621329857989875778e-02,-3.017166932340908936e-01,-4.976202203071387713e-03,-9.855420339555786419e-03,1.329061571805294217e-02,2.429337352514266968e-01
-4.259405705746212301e-02,-6.127181016849608808e-02,-2.874492063267621855e-01,7.560176800008831799e-04,2.035812596912845232e-03,-2.400029356184373095e-04,2.361014187335968018e-01
-6.476430639490793340e-02,-6.383889941424639169e-02,-2.870386838026626197e-01,-1.137374049114896202e-03,-1.817638546559727708e-04,1.793307357890300247e-04,2.227476686239242554e-01
-4.658824838712716243e-02,-6.528498813638383691e-02,-2.811584630688608311e-01,-7.964929794757734383e-03,-2.071071513840780018e-02,4.764114220595394231e-03,2.291991859674453735e-01
-4.868756755397036368e-02,-6.002879766930187266e-02,-1.867142984629957536e-01,-5.397873968330754203e-04,-6.591446868517572555e-02,1.293992220525809651e-02,1.764991730451583862e-01
-4.747396467743207615e-02,-6.322081025336592774e-02,-2.382185132231330882e-01,-3.083909343261568604e-03,-6.625104403274512110e-02,1.311161483547673527e-02,2.175768762826919556e-01
-8.544928763880782485e-02,-5.559731990082342201e-02,-3.128606410476236221e-01,1.915297204468924264e-03,-1.509041901270242276e-03,-5.106739716083091157e-03,2.439094334840774536e-01
-5.249582918925893571e-02,-5.642843636897212911e-02,-2.118148752883954322e-01,1.504374227631311966e-03,7.491002292023275777e-02,4.520156633645036615e-03,2.041423618793487549e-01
-4.408896088421795922e-02,-6.277877128622609548e-02,-3.043323642372002258e-01,6.487267130793921387e-03,4.762708945869119359e-02,8.953154799430901312e-03,2.652994394302368164e-01
-5.306688814741893079e-02,-4.924385074995646372e-02,-2.918909409439001124e-01,-1.045432609414831968e-03,4.219470183253683942e-04,2.680933062857760482e-04,2.407667040824890137e-01
-5.029925155645711965e-02,-5.145318353801089928e-02,-2.913626566176920618e-01,-4.046709242295417350e-04,1.132582376482277217e-04,-1.713146814698319196e-04,2.404897958040237427e-01
-7.053886881630301586e-02,-6.096438157595786278e-02,-2.980996200483940761e-01,-1.211955234629018274e-03,-3.296960482622357698e-03,-2.966900319867614780e-03,2.326322644948959351e-01
-5.094857226091942248e-02,-6.359965829556538108e-02,-2.928975326983066507e-01,1.437826408724402101e-03,7.189386635805172700e-04,8.769602900819816350e-04,2.358993291854858398e-01
-5.469560069625836740e-02,-4.979269487311208109e-02,-2.589816660157264749e-01,-9.081772561260279680e-03,-4.148439549813179653e-03,-7.878645587612581732e-05,2.075030505657196045e-01
-6.302514158576529024e-02,-4.798048555726165676e-02,-2.398234880930805168e-01,-8.776226774171967671e-03,-1.349250445640728284e-03,1.260693352460280159e-03,1.854323744773864746e-01
-5.166577539715141998e-02,-6.146883997456184523e-02,-2.887472116456994420e-01,1.283122641800134561e-03,1.044477644657195933e-03,7.566930765456721586e-04,2.323564291000366211e-01
-4.962882426397226265e-02,-5.814957983285902465e-02,-2.978477708756498976e-01,1.354044099256123280e-03,1.316319642435861970e-02,1.198882608465206244e-03,2.451527267694473267e-01
-5.057210763252245611e-02,-5.384616349398511914e-02,-2.917420065840196086e-01,3.328904154258690174e-03,1.141700184589836305e-03,2.373683943887149993e-04,2.396275401115417480e-01
-5.651659204394121616e-02,-4.259333715901715556e-02,-2.863799177412670316e-01,1.182121730902587105e-03,-5.623909292806451247e-04,3.766543662208985527e-05,2.371425628662109375e-01
-7.681921536714088339e-02,-5.487057534237027578e-02,-4.693740977104449708e-01,1.277705516023530728e-04,8.804425360234572479e-03,3.794917827737576133e-02,4.095731377601623535e-01
-5.122413561845996777e-02,-5.135426353712585490e-02,-2.722936090446457236e-01,-8.690837687199646014e-03,-3.228652063896889014e-04,-4.681079410377763446e-04,2.215186804533004761e-01
-6.238395921189932025e-02,-6.146311367550691407e-02,-3.088674386251200610e-01,-2.007873394096005258e-03,-4.077168000701125727e-03,-2.254704328892587380e-03,2.471014857292175293e-01
-5.825664935223388852e-02,-6.495062623066015506e-02,-2.911762445536402177e-01,-2.872344756846389145e-03,-1.501539376334920127e-03,1.746330444998625987e-03,2.297343015670776367e-01
-5.792748475830745980e-02,-5.761157760119589577e-02,-2.819888130149418304e-01,-1.920441684136050273e-03,1.825664036253678985e-02,4.833411221253262197e-02,2.414412945508956909e-01
-5.887457756105529683e-02,-7.647715235245688969e-02,-3.036719682649710594e-01,-2.450910860039989900e-03,-5.068589831767195131e-04,-3.796151632729724730e-03,2.366190403699874878e-01
-5.872385896004603256e-02,-6.991529046443886730e-02,-3.016364128340117690e-01,4.834085413109546282e-05,1.263847883077704511e-03,-3.253026409229686170e-03,2.375915944576263428e-01
-5.988387589915737663e-02,-4.359335212504561463e-02,-3.328459449445321239e-01,3.765165097205793766e-03,1.983435749475317283e-03,2.350009121012884561e-02,2.844845652580261230e-01
-6.942924931650268361e-02,-6.062714224961845977e-02,-2.947795191496833667e-01,2.145388136954958468e-03,2.677170233021741643e-03,-2.288915724192823638e-03,2.299887090921401978e-01
-6.276963267490039133e-02,-3.544145741564744267e-02,-2.810224312260757307e-01,1.935648414079824782e-04,2.203991116285038869e-04,1.227917508825846068e-03,2.331316024065017700e-01
-6.699537289684732999e-02,-6.143953296902945893e-02,-2.989737593738487353e-01,-1.992620878086662044e-03,3.376712360926378657e-03,1.842786194985418556e-03,2.349254786968231201e-01
-5.558555405869367028e-02,-7.782401715173127565e-02,-2.999782635812295872e-01,1.333727504767284657e-03,5.180548392267559027e-04,-2.700903950005382678e-03,2.341269999742507935e-01
-6.067838181592502544e-02,-7.735319158845611887e-02,-3.383681936429125958e-01,-7.450727968735282834e-03,-2.676126654999337953e-02,-8.086544113097731898e-03,2.743546366691589355e-01
-6.068590204355617246e-02,-7.806048354014452628e-02,-3.621523434053065538e-01,-9.111266256538463892e-04,8.379231643986899403e-03,1.362074450723071636e-02,2.944753468036651611e-01
-8.182849336229092163e-02,-5.331367513824908366e-02,-5.319828039863703228e-01,1.731063330773190134e-02,-1.169251932832164609e-02,-3.616572317323514529e-02,4.706602394580841064e-01
-4.997315381590691774e-02,-5.335467634445600904e-02,-2.906405138762442331e-01,-1.193698112456352371e-03,-1.227576477094775549e-03,-9.248750176382060243e-04,2.390183061361312866e-01
-5.944583059009417303e-02,-5.936404870549538693e-02,-2.884195739331847919e-01,-5.425180505154396761e-04,7.379311706919898864e-04,1.806426285937032218e-04,2.290203571319580078e-01
-4.424586100431421309e-02,-6.399439636663036002e-02,-2.974125407561534207e-01,2.503185250838313447e-03,1.894834833591824488e-02,-2.032040371434592867e-03,2.461544424295425415e-01
-5.629773868275700366e-02,-5.536252883215989073e-02,-3.281534387864906144e-01,8.934791365617588375e-04,-1.478480100799711358e-03,-3.193870657855011480e-02,2.779025733470916748e-01
-5.734008362378428814e-02,-8.242742855806015068e-02,-3.033419766401562745e-01,-6.168453105149297212e-04,5.194237793671298373e-04,-1.307341263140392781e-03,2.344820946455001831e-01
-5.832539883413320747e-02,-6.100174019179367690e-02,-3.350374645840215604e-01,3.787512543593481249e-03,2.135350778092773294e-02,1.676320754859586190e-02,2.794460952281951904e-01
-6.351215771525497988e-02,-6.840453973080329320e-02,-3.254365832433108174e-01,2.083603579265910690e-03,-6.585873292494036704e-03,-3.582558431338582483e-03,2.598625719547271729e-01
-6.324105627129059104e-02,-6.105142779058106428e-02,-3.406780642823514227e-01,-7.448306466353029568e-04,3.001855214734924608e-03,-1.237629517648008819e-02,2.794132828712463379e-01
-5.993575727230177064e-02,-5.902457735768489033e-02,-2.937612908971533043e-01,7.282828397760094915e-04,-1.332699026903348162e-03,1.593086860799641053e-03,2.343134731054306030e-01
-6.250580440040723329e-02,-7.070168640711080310e-02,-3.038041930394309587e-01,-1.847506692193304689e-03,1.869486284103296942e-03,3.607543083179265506e-03,2.374325096607208252e-01
-6.069693765198657526e-02,-6.414880184444035627e-02,-1.897557289925653201e-01,-1.758431201212208106e-03,1.405929696618803473e-02,7.588423619719432411e-02,1.846621632575988770e-01
-6.470021468641856677e-02,-6.585988088723065959e-02,-2.398468144167158755e-01,-7.517660647598806839e-03,7.027305257521604398e-02,5.680337762047951711e-02,2.348167151212692261e-01
-6.034223248108181586e-02,-5.795158329090435018e-02,-1.180716423913755891e-01,4.005082214784865327e-03,6.270765842123957046e-02,-6.964967809613422170e-03,1.243656575679779053e-01
-6.140675397428585480e-02,-6.091464129298168606e-02,-2.888406193054999793e-01,-1.847905687412872177e-04,-1.183913854172928982e-03,1.018028135502423224e-04,2.276898473501205444e-01
-6.439473789909758161e-02,-6.323042097361301905e-02,-2.087437710705890015e-01,-3.004129815701220459e-03,7.430234431307435050e-02,3.726765532616720111e-02,2.043582350015640259e-01
-5.247428728854695856e-02,-5.254698522396340776e-02,-2.902356881779303288e-01,8.869858687227803089e-04,-7.135083713104368921e-04,-5.529214555362073347e-04,2.377351671457290649e-01
-3.749358810956023025e-02,-6.443991134882566529e-02,-2.842603785399356320e-01,1.122853513150164333e-03,4.288869864263813460e-04,-6.622762367607693012e-05,2.344671487808227539e-01
-4.022546073589067239e-02,-6.077446242099431017e-02,-2.832275321381804156e-01,1.265613092618176434e-03,1.025629626179536949e-03,-3.502747740799157000e-04,2.334248274564743042e-01
-6.041477984636947629e-02,-6.778759841034018296e-02,-2.904809944078953210e-01,1.192467919174756063e-03,5.561350840669550310e-04,7.819389698755336519e-04,2.264853417873382568e-01
-6.150616109011988741e-02,-7.159637127553961089e-02,-2.909077057035893143e-01,1.067799347893051091e-03,9.097728586679877227e-04,-1.498278680752148252e-03,2.245546877384185791e-01
-5.954005230921552427e-02,-6.587973486683111612e-02,-2.953341666424756928e-01,2.832128705578626938e-03,-1.072360078135247471e-03,-3.040277316683217494e-03,2.328077256679534912e-01
-6.176723101471331967e-02,-6.173186360271498696e-02,-2.874289752298833100e-01,1.497803968594284773e-04,6.823596165432831194e-04,-6.043427250457896914e-04,2.256851047277450562e-01
-6.160742071227855166e-02,-7.000604656625794564e-02,-2.997380412319533560e-01,-1.656300561753801281e-04,5.066603403017384664e-05,-3.366767833723717778e-03,2.341171801090240479e-01
-6.556872470511920792e-02,-5.852218659515795451e-02,-2.930971891631381498e-01,3.417234451491184613e-04,-1.759413693248386684e-03,-7.460899670650123980e-04,2.311567664146423340e-01
-6.538550062345291347e-02,-6.113973938157113430e-02,-2.904351029360958125e-01,1.377316965207042070e-03,-2.886337555754193420e-04,9.622233949665229540e-05,2.272153794765472412e-01
-4.906257267280585144e-02,-5.741951092039182525e-02,-2.676776525663752127e-01,-1.520311516471772179e-02,2.243083628656147507e-02,-1.029091453121928901e-02,2.203542143106460571e-01
-6.013590866178475380e-02,-6.554325523312065638e-02,-2.908448998233958971e-01,6.823540583347999147e-04,1.892441865096334544e-03,-2.248781894961107437e-03,2.281132787466049194e-01
-6.102896471746968587e-02,-6.603914286678344570e-02,-3.268827827145748266e-01,4.964959938911176797e-03,4.101673300647709630e-02,-2.144949911692209388e-02,2.754499912261962891e-01
-6.682942048575790661e-02,-6.015729800545097095e-02,-2.903973300713230676e-01,6.163454356703916039e-04,6.344423072315686718e-04,1.827997393289365309e-03,2.270047813653945923e-01
-6.229010570591810014e-02,-6.076451913751504397e-02,-2.895043540561051953e-01,3.224641173353243531e-03,4.366276597211229786e-04,1.536289037392116457e-03,2.280660569667816162e-01
-7.867757346569308197e-02,-5.910725929253912714e-02,-3.000130625492503644e-01,1.478111556378242574e-03,2.767888722000831549e-03,6.553860348658427327e-04,2.318077385425567627e-01
-6.074401786839041251e-02,-6.321210508413638296e-02,-2.885314339000683015e-01,5.512109503938515112e-04,1.114025050227276372e-03,-1.394349828611991977e-03,2.265865504741668701e-01
-6.006839668427346735e-02,-5.876553719038093981e-02,-2.891540117788263808e-01,1.811238911741330174e-04,-1.001903001515027855e-03,-1.611274148466236697e-03,2.297635376453399658e-01
-5.995453716311746617e-02,-5.923319566220699994e-02,-2.892337214226693987e-01,3.026903829624234821e-04,-9.101036667322922030e-04,-1.381621415282025325e-03,2.296591848134994507e-01
-6.375378855333790895e-02,-7.999352895402045416e-02,-5.154813239120390467e-01,2.433960500472760226e-03,3.351040578411992876e-02,-8.623734618209812422e-03,4.478786289691925049e-01
-7.097988000628524530e-02,-8.211201283379218618e-02,-5.335285701106220468e-01,-2.007724943477506418e-03,2.492836068882780393e-02,-2.269276303557497820e-02,4.608115851879119873e-01
-5.932521537589996452e-02,-5.875429795521525111e-02,-2.892081376658132696e-01,7.744689905037434232e-04,-1.076443007117350173e-03,-6.890223160001293472e-04,2.301834672689437866e-01
-7.059293895388085716e-02,-5.859146841581482079e-02,-3.001850558893969789e-01,7.171246060501291087e-04,-4.175330812388475601e-03,2.892251657687136936e-04,2.359366714954376221e-01
-7.241574969069741741e-02,-6.046736892255240303e-02,-2.913674489610564855e-01,2.870906470855691135e-03,6.750141853218636885e-05,-4.642022069385698347e-04,2.252201437950134277e-01
-6.350987294602972177e-02,-8.496120227200432140e-02,-5.665731920847976166e-01,4.829312613574181581e-03,4.055159045261688688e-02,4.848735752886086658e-03,4.978104829788208008e-01
-7.652661854313272394e-02,-7.176727763157039752e-02,-3.461727544082439656e-01,2.981841026359086187e-04,3.798655866587903607e-02,8.154265329695567499e-02,3.135153055191040039e-01
-5.785170759699770349e-02,-5.810360004246500898e-02,-2.891753418262213993e-01,2.115953006694293998e-04,-7.402420549578542447e-04,-1.008428082338384607e-03,2.312082350254058838e-01
-5.888540090371169322e-02,-6.021005506508367300e-02,-2.935422861461814414e-01,-8.689950902660489320e-05,-9.640569434212710367e-04,1.349403900461741083e-03,2.340150475502014160e-01
-6.751200989163384791e-02,-7.132462078237074288e-02,-3.675330991535470382e-01,-2.863548919415899799e-03,4.758151333975366160e-02,7.774941801822587983e-02,3.373942077159881592e-01
-5.055469131013790030e-02,-4.846303007998256640e-02,-2.908122704036573136e-01,3.502381515303254651e-03,9.158900643968536683e-05,7.506695136923714415e-04,2.413900047540664673e-01
-4.917907257770495755e-02,-5.085854827447891524e-02,-2.891050019096167434e-01,3.108159055373264663e-03,8.712577449257290219e-05,1.454324255655494065e-04,2.391514033079147339e-01
-5.506480019084053490e-02,-5.119778973524549692e-02,-2.917638986676656665e-01,7.877726473025901694e-04,2.153070885603333327e-04,-2.854081343217720369e-04,2.386608123779296875e-01
-7.076066886264478772e-02,-5.953869883534179674e-02,-2.935061868283732611e-01,-1.153679827511165830e-03,-1.146393016749257688e-03,3.212785176015243187e-06,2.285805642604827881e-01
-4.219599629795121876e-02,-5.800312493992881846e-02,-2.884160937637627597e-01,1.976128886045929074e-03,8.698764776500478822e-04,-2.055175015722396923e-04,2.387389391660690308e-01
-4.809157086099134781e-02,-6.313181136632974033e-02,-3.968676785983589195e-01,5.774827997659779831e-04,-1.656566445639194585e-02,-6.623489471513655143e-03,3.429011106491088867e-01
-7.357018240172080725e-02,-7.072460421347544213e-02,-3.405735133619120503e-01,7.480684539529680512e-05,8.422202031565317881e-02,1.217017657334770221e-02,3.062402009963989258e-01
-7.317421452188958841e-02,-5.821951499977343070e-02,-3.204578045156537547e-01,-1.714517263113204222e-03,-1.514588678655253394e-03,-6.782063035175521200e-04,2.551234066486358643e-01
-6.653744245736294138e-02,-5.950395962574817066e-02,-2.947256995068055496e-01,-4.005487065702906398e-04,-1.738527525906074025e-03,-2.283926484514833127e-03,2.318394035100936890e-01
-5.365464280739415392e-02,-4.635540716619747370e-02,-2.889176908831467827e-01,-2.700872527304307852e-03,-1.924254363885665061e-04,-2.736422313954681011e-04,2.390427589416503906e-01
-4.873548436992641841e-02,-5.094419475441816503e-02,-2.902605989540428255e-01,-4.603050694902133255e-03,-1.211244319100592080e-03,7.670802336618104487e-04,2.405733317136764526e-01
-5.804656628395044038e-02,-5.604201589675650297e-02,-2.931707609050422381e-01,1.537374016568517814e-03,-2.554257798856770546e-03,-1.998649350879249179e-03,2.362146675586700439e-01
-5.938007745042274410e-02,-6.161287609024723722e-02,-3.552353669076392939e-01,4.597620813900640639e-03,6.517579189080524582e-02,3.312178769251668958e-02,3.208940327167510986e-01
-5.892413179057842676e-02,-5.876275551881546266e-02,-2.995612570562113941e-01,2.006383548870943091e-03,1.157571141908508416e-03,-5.444424462080326701e-04,2.407531291246414185e-01
-7.588693563353204885e-02,-6.457162158965529253e-02,-3.067332901836226089e-01,-1.169053368406613481e-02,1.585730562705151177e-03,2.636544915063328276e-03,2.376311868429183960e-01
-4.854101832378787673e-02,-5.607972319507788239e-02,-2.847571221552838705e-01,7.458449181608865775e-03,9.671227888275429896e-03,1.595822529101157197e-03,2.335149645805358887e-01
-5.936047171810965306e-02,-5.801391290699917103e-02,-2.891322397010328560e-01,-6.564860123248799023e-04,-7.958702978434031069e-04,-5.356924909950639899e-04,2.304567992687225342e-01
-5.823379820610266600e-02,-4.659319255002777882e-02,-2.863575361238153705e-01,-3.943694392212949811e-03,-9.337525600309334525e-04,2.908668739270472633e-03,2.343205064535140991e-01
-4.460819194748472105e-02,-5.664725638961949639e-02,-2.744287961562760225e-01,-8.575504320134947484e-03,-6.200895964985476613e-03,6.427818877303995149e-03,2.250678688287734985e-01
-7.100118356282192345e-02,-4.856275998718136144e-02,-2.343646563007778516e-01,-1.772588602974180206e-03,-4.487333565093963410e-03,2.118326914960389634e-02,1.796461939811706543e-01
-4.744297821498541512e-02,-6.661565619419829165e-02,-1.419947726661462406e-01,9.020563899901450772e-03,-1.846559722337363235e-02,8.512739600670324314e-02,1.746478974819183350e-01
-6.404568456632052376e-02,-3.705009391045502309e-02,-3.083552271690762625e-01,2.039568679966794092e-03,4.611854882966530053e-03,3.204379635086453126e-02,2.648922502994537354e-01
-5.721778347306169521e-02,-5.557946075085036519e-02,-2.928060295508707611e-01,-7.576141724294015818e-04,7.058142559577472138e-04,3.114294596709399864e-03,2.364799976348876953e-01
-6.220469505413933620e-02,-6.885923049644183946e-02,-2.950965930672996285e-01,-6.128401559737188357e-03,-1.891147281650629392e-03,2.276125098265096517e-03,2.299392819404602051e-01
-5.813486265964676325e-02,-5.877833541547580753e-02,-2.912948140047238454e-01,-8.031984409678034811e-04,6.287226699500408260e-04,-1.691015860859411239e-03,2.328640073537826538e-01
-6.164777565806540960e-02,-4.234858535875982155e-02,-2.882804986616998022e-01,-1.645994302610545145e-03,1.120803786021811735e-03,2.610367226316315237e-03,2.369409501552581787e-01
-5.440057479111835848e-02,-4.993808222406445618e-02,-2.575494061470410267e-01,1.370142403778920256e-02,-2.181954276594127995e-02,-3.233911206357229645e-02,2.175427079200744629e-01
-4.788782951491779571e-02,-4.766672646593904383e-02,-2.876485022790655766e-01,6.080215560766740260e-03,-4.882629606097376373e-04,-5.268287064069408819e-04,2.401055991649627686e-01
-5.812112623209025886e-02,-5.661093258887743562e-02,-2.888364920946706049e-01,-3.478748719716814614e-04,-4.788243135291337619e-05,1.110413708982360866e-03,2.314829528331756592e-01
-5.575427566977067539e-02,-5.166522024408001790e-02,-2.902948875254800498e-01,5.621120046354022466e-03,4.188862411348434167e-04,-9.964897314282915568e-04,2.368192672729492188e-01
-5.463483293946316821e-02,-4.370312259133193877e-02,-2.842996935219196941e-01,7.318171577315228660e-03,-8.972155705177961267e-05,-8.886731317296292466e-04,2.356674373149871826e-01
-5.217664792009765740e-02,-5.530332816396568707e-02,-2.951786805454273410e-01,1.097666433894837340e-02,-2.692912138916795164e-02,-1.489195083507158061e-02,2.479965239763259888e-01
-5.243849059346533670e-02,-8.457409438011857794e-02,-1.887323594763245793e-01,-2.962288927033406623e-04,4.267102221050968203e-02,4.026278591487991720e-03,1.440144926309585571e-01
-3.590653075376881720e-02,-6.499335171768094721e-02,-2.821486693918868194e-01,-7.498930635604670139e-05,-7.372255015601612317e-04,-1.115873828816293904e-05,2.330675423145294189e-01
-6.239275280070409602e-02,-7.548763984232662039e-02,-3.241886365557373750e-01,-6.332656280049637001e-03,4.865835947425084344e-03,-2.162440818386963514e-03,2.559018135070800781e-01
-6.337325567002279059e-02,-6.246083608246041918e-02,-2.880438619125137434e-01,-9.972197339918453113e-04,9.888804151234025907e-04,6.349061408479378821e-04,2.251440286636352539e-01
-5.505188859709901628e-02,-5.657030211223407212e-02,-2.917111919773367479e-01,2.564779109953286163e-03,3.014841938588799439e-03,6.526708165156042043e-04,2.360060662031173706e-01
-5.897152822808870987e-02,-5.736744078475880526e-02,-3.429893490880564499e-01,3.599927186367868782e-03,3.125052508990258660e-02,3.255751936238440031e-02,2.954199016094207764e-01
-6.520510585781477686e-02,-3.817639178287224322e-02,-2.296834216379167182e-01,4.813573056244521003e-03,-5.904523215982946001e-03,-3.548606658694684196e-02,1.902135312557220459e-01
-6.544080263018020593e-02,-6.154550556205140577e-02,-2.878329866834131723e-01,-8.466517897518701513e-04,1.230612965016442475e-04,-8.232629937588655140e-04,2.243746221065521240e-01
-6.201781848686269139e-02,-6.348879823959625857e-02,-2.922660937090831856e-01,-1.172547608414739942e-03,1.167307996396803197e-03,2.717462171503313637e-04,2.295347005128860474e-01
-6.365781834359132696e-02,-4.678836582085031670e-02,-2.508930093548331075e-01,-8.302930127793674980e-03,-9.531515675019242712e-03,2.519714879622774947e-02,2.021984308958053589e-01
-6.437681532176314780e-02,-3.968212719594838012e-02,-2.771266107636880527e-01,6.027069608168992079e-03,9.693792166492243073e-04,4.106186376346861178e-03,2.264695763587951660e-01
-5.955850842514340271e-02,-7.190662420365573348e-02,-2.943998227752856467e-01,-5.944351161887538593e-04,-2.711094230135266143e-04,-2.099511116396601387e-05,2.289199680089950562e-01
-5.312120563468862577e-02,-4.691879276602735349e-02,-2.734552862667427031e-01,7.281880433296825626e-03,2.011192394427835091e-04,2.008518754136775965e-03,2.238827347755432129e-01
-4.751477289380814928e-02,-5.311915335790839965e-02,-2.747146245447065760e-01,7.983795540514728589e-03,1.656836410018979562e-03,1.980257839036915545e-04,2.248943001031875610e-01
-7.095415408011124248e-02,-5.789386475402741317e-02,-2.949381196295987051e-01,-4.211561859303566621e-03,-3.941361591497048711e-04,-1.317129476909215027e-03,2.309189587831497192e-01
-4.238021740914352242e-02,-6.173839815317098967e-02,-2.616370502237503892e-01,7.358153135231157958e-03,5.629315662577645714e-03,9.709924325331885766e-04,2.108653783798217773e-01
-6.023463275203302936e-02,-6.141631245970310266e-02,-1.821279957144436579e-01,8.405344680808243471e-03,8.859371727529914350e-03,1.443272829335851687e-02,1.256490200757980347e-01
-6.108560088351856765e-02,-7.645950659554204276e-02,-2.335286703591822888e-01,-4.101600518876114335e-03,4.090756522843576326e-02,8.282394536754422720e-02,2.301565110683441162e-01
-5.043753559889496696e-02,-5.554295289537350411e-02,-2.900949072450436650e-01,1.837262756678128888e-03,-7.244937188270184070e-04,7.033898255335705504e-04,2.371736764907836914e-01
-7.336406271948708868e-02,-6.140773076638267325e-02,-2.958132975605162196e-01,-5.000811747657566038e-03,9.838288190192586227e-04,-1.404132652153159484e-04,2.288324236869812012e-01
-6.020314651192980315e-02,-6.302859578812411434e-02,-2.881487091917543930e-01,-1.510043818510289036e-03,-3.056798797450396843e-03,-6.921154176142991360e-03,2.269398421049118042e-01
-6.490298838553038019e-02,-6.873215400167596856e-02,-3.470136055859062152e-01,-5.627987355836469325e-04,-7.191010280699891566e-03,-3.579422945094193342e-02,2.872639596462249756e-01
-6.155774198164734590e-02,-4.376579791526478969e-02,-2.789356637622341095e-01,5.233797836597530069e-03,-1.326932275373557629e-04,-4.069798048009996816e-04,2.269802093505859375e-01
-6.371425787812168284e-02,-4.022139179219108573e-02,-2.786266733188488276e-01,5.726519178845913133e-03,4.363575353091395277e-04,-1.215880799516676951e-03,2.277971804141998291e-01
-6.644035436533761441e-02,-6.208185984047835670e-02,-2.878857337048991716e-01,-3.367219750410463657e-03,2.125672571721037212e-04,4.586124003023140348e-04,2.237342149019241333e-01
-4.645922761173873483e-02,-6.120352446083355408e-02,-2.453422491734882915e-01,9.031997442515378449e-03,-1.702372409240964423e-03,-9.766775475462063059e-04,1.926025599241256714e-01
-5.789910873895681709e-02,-5.616440729867536175e-02,-2.896229754218389574e-01,2.833762504924239550e-04,9.545198171175911734e-04,1.043977751215084248e-03,2.326094955205917358e-01
-5.810787680269285937e-02,-5.996889589216457261e-02,-2.887407096080939484e-01,4.614203904091697655e-04,9.965485605175194300e-04,-5.087012328473425430e-05,2.297158688306808472e-01
-5.704754897152392035e-02,-4.466725073270515212e-02,-2.828686441193522527e-01,6.762033367873994047e-03,-5.806097792314874381e-04,-5.734978991923458252e-03,2.327681779861450195e-01
-6.398983576152676711e-02,-3.415439870585887383e-02,-2.737244502189936646e-01,-2.223646359293742782e-04,-1.853736841289322854e-04,-4.858998614942001623e-03,2.262904495000839233e-01
-5.476775295201735672e-02,-6.910769808565588035e-02,-3.228768041759479401e-01,-7.294296818465996826e-03,-4.707444708455060800e-02,-7.626182957428614961e-02,3.041359186172485352e-01
-6.274762483787740819e-02,-3.933226421393766492e-02,-2.722224178808741457e-01,4.692218574258669866e-03,-1.399479562682806729e-03,-6.711468001478361652e-03,2.225757241249084473e-01
-6.754890094661668287e-02,-4.972860816723254085e-02,-2.584092069682896176e-01,6.928070521855685983e-03,7.112948772500965770e-04,-1.540425779606181041e-03,2.007461935281753540e-01
-3.846326152369443363e-02,-6.250623973766787633e-02,-2.859447762908288171e-01,3.552469343046356018e-03,-9.682734876128328005e-03,-8.244842769422167745e-04,2.370572388172149658e-01
-4.103450740858888279e-02,-4.684032920612979378e-02,-3.196888779795992175e-01,-5.597350233050892021e-03,-3.340687319058591349e-03,-1.945374730991389963e-03,2.760488688945770264e-01
-9.157519453072437976e-02,-7.112303100007705270e-02,-3.081780286972932714e-01,3.514656020480234379e-03,-1.092415867080304553e-01,1.326674879269332274e-04,2.959786355495452881e-01
-4.439110485785878468e-02,-5.847613014978972346e-02,-2.897189819454401571e-01,1.568951634205292085e-03,-3.564740091400362375e-03,-4.478931644404991297e-04,2.386939823627471924e-01
-4.633332910886819866e-02,-5.610489297600562697e-02,-2.631802761751152464e-01,1.806851962343578250e-03,-1.074631871189080101e-02,2.083810864084499875e-03,2.129986435174942017e-01
-6.007151162317092563e-02,-8.168059634034052774e-02,-4.880853636132296280e-01,9.779184926450997743e-04,-1.997640846386090907e-02,1.027469665096329698e-02,4.194407761096954346e-01
-7.083015744546308778e-02,-8.091649186725394238e-02,-5.002470865406476452e-01,-9.331216259424589699e-04,-3.922795956732741396e-02,-1.586083545891604427e-02,4.307472705841064453e-01
-7.762924150810945889e-02,-5.750322394596027453e-02,-2.975454199311200476e-01,-3.607948168354800623e-04,-8.408797734428528382e-04,1.123220708551438615e-05,2.306441664695739746e-01
-5.642937429862571186e-02,-5.894195031014422270e-02,-2.321522032642894251e-01,1.119980446094648828e-02,-4.151276705234917958e-02,-4.933783830449713775e-02,2.080678045749664307e-01
-4.936745762479964605e-02,-6.773657191454374171e-02,-2.482044011479049850e-01,-6.294078140703746223e-03,2.131419517324780084e-03,-2.774103974617911535e-03,1.907266527414321899e-01
-5.770489130683040258e-02,-5.031593600386978504e-02,-2.891163511386036222e-01,-9.776065787914295022e-04,1.565226399260825430e-03,2.122459412029268494e-03,2.352434545755386353e-01
-7.258629436822408576e-02,-4.365354893835793337e-02,-2.592474762297614088e-01,-2.119913104623469789e-03,-3.427710074627404561e-03,9.327762948908949539e-03,2.034450173377990723e-01
-5.576018439998950416e-02,-4.581354944172942589e-02,-2.877185811783158353e-01,-3.052244528756481706e-03,3.685165014702928015e-04,-1.065304633117162406e-05,2.371480464935302734e-01
-5.940577823657718776e-02,-5.250093409485481061e-02,-7.186026268396261685e-02,3.491697039895234021e-03,-4.184196572265125313e-02,2.411500387186750818e-02,8.556993305683135986e-02
-5.270341066459260926e-02,-4.941005183985500149e-02,-2.905610745312061094e-01,-1.898260636030552366e-03,5.449232620771010151e-04,-1.887210536717527903e-04,2.395459711551666260e-01
-5.270705246266023380e-02,-4.672561993375898282e-02,-2.892092940324835770e-01,-1.137728903923269311e-03,8.013212824507224457e-04,5.742228017073231329e-04,2.395631670951843262e-01
-5.224940065066836781e-02,-4.435744061216088940e-02,-2.874546862106923117e-01,-4.451769505281862743e-03,-7.034556001032664157e-04,1.358626471687419089e-03,2.393877953290939331e-01
-5.623214902583478780e-02,-4.338786677173656070e-02,-2.866720854083901204e-01,-1.364371929503826629e-03,5.449134922413018155e-04,-2.452843733406871599e-04,2.371371537446975708e-01
-4.931535330663344707e-02,-5.372601894244091736e-02,-2.910788142490614017e-01,-1.135617748236734731e-03,-2.195225215803021316e-04,-1.891775890518308941e-04,2.395971715450286865e-01
-7.460994030254697318e-02,-6.562322025769351530e-02,-1.682038239240909172e-01,-4.390396706771800342e-03,-1.006981521863738530e-02,1.810128255043133572e-02,1.050079911947250366e-01
-6.602342272329517203e-02,-5.938183624867524046e-02,-2.052127590214068709e-01,-8.611147212449644234e-03,-1.217836156623338176e-02,2.679908107810678296e-03,1.450212299823760986e-01
-5.938045308463826832e-02,-7.824493004475632785e-02,-2.700187747846547470e-01,4.049771686345600766e-03,-1.049269744681167234e-03,-1.013183660612345660e-01,2.675808668136596680e-01
-6.500905806357534789e-02,-4.742163144616949599e-02,-2.403272282148628813e-01,-1.813175233542961865e-03,5.708408812816065858e-04,-2.095607728448046873e-03,1.848058104515075684e-01
-7.141317182881479209e-02,-5.655424138382428301e-02,-2.053888177452340702e-01,-7.719476631450358436e-03,-5.539773086882448724e-03,1.643665856751378579e-02,1.457474678754806519e-01
-6.086122399868033883e-02,-5.528366253838171152e-02,-2.997378314765185570e-01,-1.496373862242798706e-04,-1.748756336316756310e-03,-8.642863468295948818e-05,2.417328208684921265e-01
-5.889882506938504125e-02,-4.781095375438559891e-02,-2.908120144589382283e-01,-1.102181483389035434e-03,-1.493503612621752564e-03,-2.252586441901819822e-03,2.377049624919891357e-01
-6.103025833620037699e-02,-4.108043601525754318e-02,-2.868558727099416172e-01,-1.119626989864712634e-03,2.219193782479657730e-04,-2.062964679233141550e-03,2.364678829908370972e-01
-5.827224740628772492e-02,-4.120336432482182842e-02,-2.829874335641051619e-01,-1.305263146867809880e-03,4.375137266672153298e-04,-1.039329420974053437e-03,2.337366640567779541e-01
-6.507021689658662456e-02,-4.379694547340441668e-02,-2.544992496953399908e-01,-8.623211024187530868e-03,4.070717488583065237e-03,-7.851322530684656797e-03,2.020480334758758545e-01
-5.561012344006766028e-02,-5.084919001260733429e-02,-2.904117806235526622e-01,8.644156304854736135e-04,-4.845848290090862937e-04,-5.818043205815536824e-05,2.372241914272308350e-01
-5.605972225597050107e-02,-5.555548998250978143e-02,-2.886842404429967868e-01,1.705063630969018288e-03,-5.096503965778594741e-04,2.968865471180229072e-05,2.328974455595016479e-01
-5.919431715862225052e-02,-5.750120514080271639e-02,-2.922084471020587326e-01,3.322067753262517519e-04,-1.887341153210195894e-03,-1.207205475023241702e-03,2.338981777429580688e-01
-5.436557991636420395e-02,-5.923583433483761707e-02,-2.942684806164667100e-01,6.449435305587247237e-03,1.569247104031422368e-02,2.617208010204953583e-02,2.435717880725860596e-01
-8.163944480134877058e-02,-7.209443200994530843e-02,-4.933107882624917506e-01,4.892685275910454989e-03,-1.958645201430513939e-03,-2.752740603397593744e-02,4.193452000617980957e-01
-7.354815403969064413e-02,-6.916658616212070787e-02,-4.713855246504993213e-01,-7.256656657171117221e-03,-1.604368055180429090e-02,3.853507443362536034e-02,4.067209661006927490e-01
-5.824410967759317825e-02,-7.594452641707841178e-02,-2.950652515306106949e-01,-4.949892388762439782e-03,-1.181281918906833392e-03,-8.983064986755386625e-04,2.286609709262847900e-01
-6.191891963226255069e-02,-6.800943283318758303e-02,-2.918291387227103240e-01,-2.520485826162603867e-03,-2.112606020406079116e-03,-1.291177354965493320e-03,2.270087748765945435e-01
-5.805601252234618426e-02,-7.486810902326476724e-02,-2.921955166381403624e-01,-2.212516654416221175e-03,4.236077460787469038e-04,-7.757753480836545971e-04,2.262401580810546875e-01
-5.963404090776378008e-02,-6.252300642883934501e-02,-2.912969537649027219e-01,9.054433672353301692e-04,-1.745972012302786976e-03,1.649649653315034444e-03,2.302749454975128174e-01
-5.778360788947478621e-02,-7.659731539639150211e-02,-2.978478220327891446e-01,2.778808530031233546e-03,-1.223802971987165630e-03,2.851559335694934562e-03,2.313446253538131714e-01
-6.154586422175956084e-02,-4.511683900728440111e-02,-2.924491974960210516e-01,-2.186805647887170995e-03,1.912667072792094457e-03,-4.200369332034113549e-03,2.397040426731109619e-01
-6.319709191644651280e-02,-4.316300778036177843e-02,-2.921438258624682316e-01,-6.424139736687140044e-04,1.117151473948184773e-03,-5.535816880467789650e-03,2.397949695587158203e-01
-5.696501701087861025e-02,-4.802947369365002939e-02,-2.854648583685743812e-01,-3.896042653513500428e-03,6.868078086827201795e-04,-5.697171221651097656e-03,2.334054857492446899e-01
-6.059739598259049342e-02,-4.119188631925513322e-02,-2.725821029436490406e-01,-3.353662730483411916e-03,2.202806907914344262e-03,-6.097305307582527069e-03,2.226827144622802734e-01
-5.605472247631934635e-02,-5.617275174598118648e-02,-2.897846654376494135e-01,-1.116894097179263121e-03,4.220831441309597348e-04,1.655110605511317845e-04,2.336802780628204346e-01
-6.579700938315835579e-02,-3.719081551442326994e-02,-2.815018124473249728e-01,-1.829730069305198848e-03,6.093170841745700316e-05,5.789573533012245594e-06,2.313599437475204468e-01
-6.476765772869061411e-02,-3.568893461588670823e-02,-2.804555791031090317e-01,-4.143356742428719796e-05,-1.837556879659156452e-04,-1.190961526128523924e-03,2.316098958253860474e-01
-6.427770683256459061e-02,-3.590587988847218637e-02,-2.826976530066356852e-01,-4.931683707509086981e-04,9.038718103344958407e-05,-7.219590299275162933e-04,2.339049428701400757e-01
-7.123447386502451684e-02,-6.514575879763051525e-02,-3.029867653027897290e-01,-4.473071450818065509e-03,2.604561545932663688e-03,2.248427048164756796e-03,2.350591719150543213e-01
-5.968190297805825439e-02,-5.853379779596656896e-02,-2.911096844784701876e-01,2.588488809858657466e-04,-1.432784909472392459e-03,1.133823862842643204e-03,2.320259809494018555e-01
-6.908342204601655712e-02,-6.080357127161192810e-02,-4.818801748537044904e-01,9.008962299603955060e-03,-4.702909222991950855e-02,-1.818430909128232464e-02,4.263312220573425293e-01
-5.962294246897674455e-02,-7.449581868787980010e-02,-2.969998217215730207e-01,-1.529370215733436055e-03,1.257726384288577332e-03,5.486963557231306320e-04,2.303284108638763428e-01
-6.001443042364051905e-02,-6.087485358080388376e-02,-2.924995889361688972e-01,1.812124066055078100e-03,2.660086997256005080e-03,-4.648043545335442742e-03,2.322626709938049316e-01
-5.444626370741809107e-02,-4.066703838584513619e-02,-3.427586068580802392e-01,2.321813727199330095e-03,-7.534233328175120314e-03,-9.773380535842791927e-03,2.962425053119659424e-01
-5.875734369717594552e-02,-5.704777883414273443e-02,-2.895062521657017496e-01,1.516904178579550307e-04,4.436835181863126531e-04,2.591711068652035243e-04,2.316102832555770874e-01
-5.572672173321113753e-02,-5.548137940193707818e-02,-2.898473283699283254e-01,1.779169390742369383e-03,2.145133668434140418e-04,2.045179795785609673e-05,2.342639416456222534e-01
-5.817793978376217812e-02,-5.965204324081613274e-02,-2.921964320894029354e-01,2.551688148458557386e-03,2.081579272403935848e-03,-3.335397002351030756e-04,2.333553582429885864e-01
-5.509697120926697333e-02,-5.918519670585839498e-02,-2.926841959488031275e-01,-4.175725000069479935e-03,-4.127784476342623993e-03,2.269151511040101363e-03,2.358218878507614136e-01
-5.509149365291550471e-02,-5.111212126809859535e-02,-2.897661336100341156e-01,3.340921671919999626e-04,-8.679394579739756091e-05,-1.199955565448508274e-03,2.366992980241775513e-01
-5.546021547552945630e-02,-4.804193637696453634e-02,-2.898828308151697453e-01,2.113667967615964413e-03,-4.638304988925867839e-05,-5.414821660781192784e-04,2.382483929395675659e-01
-5.776746173676836071e-02,-6.072725611935675394e-02,-2.930794213723542097e-01,1.269124120685010326e-04,2.622492698862195250e-03,-3.973648056193848817e-04,2.338913381099700928e-01
-5.655687237047955784e-02,-6.839621111774286943e-02,-3.561845316017078211e-01,-2.586068455577835833e-03,-3.659151298277513176e-02,-3.269058891104191511e-02,3.059614598751068115e-01
-5.274253264375776407e-02,-6.195901748897003625e-02,-2.915906793385550921e-01,1.351303659476103813e-03,-1.060322844255418874e-03,-1.196344178607668812e-03,2.344038933515548706e-01
-5.817033734190270311e-02,-6.047888949777316392e-02,-3.011403005418263890e-01,2.747823782920580295e-03,3.160833426955063363e-02,2.016182838393083127e-02,2.504360973834991455e-01
-4.391672794125264789e-02,-5.813347117594142022e-02,-2.839306332737895899e-01,3.990753139893431570e-03,8.870110821899014186e-04,-1.306292900483836065e-03,2.333491593599319458e-01
-5.052247020798465715e-02,-7.205133304197214317e-02,-1.632100139132912631e-01,-4.869529613779024178e-03,1.695255341240999719e-02,7.929517047743925295e-02,1.747352778911590576e-01
-5.837214521733577466e-02,-4.714503945173215138e-02,-2.899671910910175399e-01,3.578157376830224789e-03,5.745645961250615960e-04,2.581302333654058104e-03,2.375328242778778076e-01
-6.558476797804288494e-02,-3.998121364649748211e-02,-2.733517433005073771e-01,3.856197459736647633e-03,1.434117236719707148e-03,1.312910986817506648e-02,2.229576855897903442e-01
-6.162157804849663356e-02,-4.097115187204460052e-02,-2.515918483366229030e-01,7.653439966542160272e-03,5.124678997558845123e-03,7.710925572927455028e-03,2.021657675504684448e-01
-6.044902624632433885e-02,-5.912417331019359512e-02,-3.019372306617837953e-01,5.179602605044732362e-03,3.261158361012261864e-02,1.881150186355684886e-02,2.509400248527526855e-01
-6.576717963756248397e-02,-3.747703707291785702e-02,-2.769040912767621876e-01,-2.946835489325431382e-03,-3.736556642908516824e-04,2.312113523290594552e-02,2.301791757345199585e-01
-5.682853902773024601e-02,-4.753540423258115211e-02,-2.894479164793573034e-01,1.731045672269137994e-03,1.229740115587940694e-03,1.064382754834965368e-03,2.374380379915237427e-01
-7.304030326220299629e-02,-5.962196163093225199e-02,-2.024476378291548417e-01,2.544781344666333534e-03,1.545051802773264290e-03,3.094799982556468553e-03,1.368139833211898804e-01
-4.355486527648630424e-02,-5.675932450069554047e-02,-2.743944254612767919e-01,6.146409458693769846e-03,-3.096697330126758321e-04,1.850211429694317280e-03,2.248044461011886597e-01
-4.407436368159260709e-02,-5.973678054902627210e-02,-2.691760475328677793e-01,8.373857650615393333e-03,8.970865798063181254e-03,3.741949149148894680e-03,2.188246846199035645e-01
-5.207646666059459473e-02,-5.253911200835735540e-02,-2.507967155301380480e-01,1.054600252396674029e-02,5.619179924863932155e-03,3.922808795994238255e-03,1.996811479330062866e-01
-4.956805215851867175e-02,-5.107175569725017072e-02,-2.861169421778420596e-01,-1.987678322738496185e-03,-1.332871510876926929e-03,1.435959739683262339e-04,2.358371913433074951e-01
-3.335235192791501102e-02,-3.886016896397393589e-02,-6.198869499793998455e-02,-1.839646868985097541e-03,6.183985877497317346e-03,5.784045575213242474e-02,1.041829437017440796e-01
-5.248546251328056744e-02,-4.777343688846275027e-02,-2.859254079874264942e-01,-5.841556501552877707e-03,-6.183479218601069618e-05,7.156821807166932744e-04,2.360514849424362183e-01
-5.330562709323052872e-02,-4.574787929990584145e-02,-2.889188229646801886e-01,-2.201532699967862286e-03,1.156292604558561152e-04,-1.131351097378087179e-04,2.395120561122894287e-01
-6.222275614063595139e-02,-3.857452017324153326e-02,-2.857894832323340517e-01,-3.281885029619310921e-03,-4.223567437102844165e-04,3.758587989773962308e-03,2.364392280578613281e-01
-4.580194572253815100e-02,-5.363103602960420102e-02,-2.894749915573956445e-01,9.556887629935781510e-04,4.517059675155666047e-05,1.837237950895418965e-04,2.398602813482284546e-01
-4.551629361448517042e-02,-5.638108517733092517e-02,-2.888180991779318307e-01,1.231277029789800857e-03,4.271456465218395680e-04,-4.107035187638840646e-04,2.380671948194503784e-01
-3.872210421160654503e-02,-5.834974975041545830e-02,-2.834561962846624539e-01,4.759807587854370664e-03,4.658357922222976927e-03,2.036515744077996293e-03,2.358431220054626465e-01
-4.377221367857044021e-02,-5.879684284126893146e-02,-2.778613369245553910e-01,6.710640689228024834e-03,4.400789570690580624e-04,2.182724356064940155e-03,2.272802889347076416e-01
-4.103744284216531701e-02,-5.779133392495899857e-02,-2.858676343756638150e-01,1.196439251583874055e-03,2.447065614365449577e-04,4.785239599294212830e-04,2.369088828563690186e-01
-5.258265578235961357e-02,-5.473906576803294621e-02,-2.909247873310203403e-01,4.879902537907380403e-04,-7.698217326490373186e-04,-5.930629354527432564e-04,2.372787445783615112e-01
-4.907417219549300991e-02,-5.709889540433224497e-02,-2.891798766603512760e-01,8.646963900529440212e-04,-3.865469708938275013e-04,-5.859084347760020947e-04,2.362034767866134644e-01
-7.300550632844039767e-02,-6.580435914719667823e-02,-1.937428693801444002e-01,7.617932210176841211e-03,8.910437851780007856e-03,1.613205425783297703e-02,1.291968673467636108e-01
-6.159167698808182961e-02,-4.622489650195646393e-02,-2.641619220073314622e-01,9.793194401268235511e-03,5.384346283875946979e-03,1.315052289309093757e-02,2.127843946218490601e-01
-4.596339871028756741e-02,-4.166528990744040178e-02,-8.563646006052065551e-02,2.653421777387195840e-04,2.571624251560422625e-02,-1.485806754040166523e-02,6.640344858169555664e-02
-3.482258215405925617e-02,-5.047726617067933852e-02,-1.044027427589603457e-01,-9.168979500315134869e-04,1.179633574259439030e-02,4.934720850541928633e-02,1.082711219787597656e-01
-6.497846099921163188e-02,-4.431685906059065067e-02,-1.397798969611672437e-01,1.967296554684319198e-03,-1.018307850097680163e-03,4.538092008544751532e-02,1.173059195280075073e-01
-6.402425109619314103e-02,-4.303519928691798557e-02,-2.066222829262564509e-01,-2.533921313791767053e-03,-1.082764388221011710e-03,1.816596878234359724e-02,1.574183106422424316e-01
-5.682576953113971374e-02,-6.703934207027066605e-02,-1.676562115003289999e-01,-1.487789535905691130e-03,-4.424318026269810980e-03,7.367761745881615254e-02,1.661513447761535645e-01
-6.058856319065786256e-02,-6.618140226953378447e-02,-2.127986106284445178e-01,6.468719058976202772e-03,-7.841635335074489867e-04,-1.071695425056710602e-02,1.510623395442962646e-01
-7.264225322721656886e-02,-6.827110806664900278e-02,-1.496435308786967511e-01,1.504574625767288523e-03,-8.790562270160170088e-05,-1.219669445106453913e-03,7.934837788343429565e-02
-6.871264005143200293e-02,-5.388887811627417201e-02,-2.148591843762224229e-01,-3.004421964962727953e-03,-2.862325122124269663e-03,5.109476588676708370e-02,1.778445392847061157e-01
-4.880768464858978306e-02,-5.087145609496721010e-02,-2.790474088921434115e-01,7.404145426948824382e-03,3.445498603249523648e-03,2.372347378750807537e-03,2.296875864267349243e-01
-5.753098089567432183e-02,-5.672734315491823054e-02,-2.924242794535408807e-01,1.963980230768280939e-03,2.132529991868496982e-04,2.276828510732359888e-03,2.353540658950805664e-01
-5.320878978315296548e-02,-5.272293607835416840e-02,-2.897116677748286517e-01,2.471041975169274967e-03,9.853693733665593133e-05,1.090735162063780593e-03,2.367924600839614868e-01
-6.066682375883278300e-02,-5.444228908930236199e-02,-2.896175657844898832e-01,-1.824719506538196624e-03,2.167794178467131007e-04,2.243996108609616798e-03,2.321799695491790771e-01
-5.269320098480542724e-02,-6.878902631785073496e-02,-2.989438527332323181e-01,-1.114529902472178539e-03,8.842930559651813321e-03,5.246649862747945064e-03,2.392817437648773193e-01
-5.673718376478453784e-02,-5.850372951070956229e-02,-2.904243262380101775e-01,-1.251765726557430708e-03,2.645801787720827945e-04,-8.167384563661449735e-04,2.328237444162368774e-01
-5.144740234182151872e-02,-5.144963566014737477e-02,-2.908007784730888279e-01,2.266780129193949299e-03,6.188365590260237639e-05,-1.705867907965469618e-05,2.393844872713088989e-01
-4.805784719071168332e-02,-5.730542149521539175e-02,-2.899194661891677516e-01,2.507083553175960995e-03,1.843118800878671250e-03,-1.508169456799142742e-04,2.374342978000640869e-01
-5.387921847604849879e-02,-5.804233856556748061e-02,-2.899572663764220515e-01,2.014521428479560446e-03,-6.348076202394522822e-04,-6.952248563478351283e-04,2.340559512376785278e-01
-4.319796771024361770e-02,-5.554360275475274389e-02,-2.836898464602285452e-01,4.685612637736319072e-03,8.959968464897810798e-04,4.486478464286681924e-04,2.347096353769302368e-01
-4.619011614534013210e-02,-5.692562190437178149e-02,-2.780977428503983995e-01,7.745319534379953991e-03,6.281467949298261307e-03,3.351836023774478878e-03,2.274616360664367676e-01
-4.113312052108678007e-02,-6.470533716073827157e-02,-2.916298205184094661e-01,5.136796156382554372e-03,3.796778500077910290e-02,1.113106770146789909e-02,2.493491619825363159e-01
-5.785777809128078708e-02,-6.149911770549665313e-02,-3.038634444581296279e-01,5.225057197498366585e-03,7.510885043731852688e-04,-3.659209771086346756e-03,2.444586306810379028e-01
-5.720134420698894107e-02,-5.765563332769046978e-02,-2.947621693816637745e-01,-1.545887995724722856e-03,-1.639457923938600738e-03,1.682066001831888230e-03,2.373839765787124634e-01
-5.338368958375025453e-02,-6.295606577312806706e-02,-2.506060525083800283e-01,-1.033831700107191130e-02,1.031522650133346979e-02,-4.297674183580895736e-03,1.944110840559005737e-01
-5.624998311837457743e-02,-6.699262426068572363e-02,-1.950093680587152156e-01,9.617984887087621670e-03,3.925215761662605163e-02,-7.655166005712021882e-02,2.008957713842391968e-01
-6.347009289914792851e-02,-6.113158080200419009e-02,-2.333332627519939806e-01,-7.346350182002025185e-03,1.733115786050751532e-03,-1.787558342301219993e-03,1.715712547302246094e-01
-5.654976413931334100e-02,-4.864860152349628764e-02,-2.815860924930845277e-01,-8.159786758393374612e-03,4.082140071080036549e-03,-4.231858804741534495e-03,2.297504991292953491e-01
-6.255364121400916466e-02,-4.046302109975069561e-02,-2.871364389042238563e-01,-2.302196135177112836e-03,4.448256523627243169e-04,-7.340726328271747134e-03,2.367799729108810425e-01
-4.919669875219842559e-02,-5.369809617027146431e-02,-2.758375365888555697e-01,-8.042936878856902713e-03,2.762941690343046278e-03,-2.588215240672136781e-04,2.249073088169097900e-01
-7.931290678014299433e-02,-8.044686506566883777e-02,-3.397264706552169944e-01,5.366158002938195906e-03,7.885294436162731957e-02,-9.891101878738518816e-02,3.400163650512695312e-01
-3.806820793725206042e-02,-6.134998236093680557e-02,-2.775620018935124333e-01,4.228009240731672898e-03,4.123395333835215733e-03,8.059358530296029284e-04,2.289761155843734741e-01
-4.347372319918135775e-02,-5.816893034969125575e-02,-2.889662332332532113e-01,3.546716988591666099e-03,1.162359310213761324e-03,2.167168693405909050e-04,2.385726124048233032e-01
-4.127040857220196091e-02,-5.791058303052268319e-02,-2.877560391060898226e-01,1.379897447699604757e-03,1.107969772583415391e-04,9.296332956759362307e-04,2.386186122894287109e-01
-3.743243238426245678e-02,-6.146646575229081089e-02,-2.753864984883176992e-01,2.697965495911093959e-03,3.256003337879311271e-03,2.538550939324613412e-03,2.270545065402984619e-01
-4.509616771385657752e-02,-5.808312839567204844e-02,-2.880037377264683673e-01,4.727942558643488842e-03,3.767416915034004724e-03,-5.624486489780462220e-04,2.369149774312973022e-01
-3.860620313470011777e-02,-5.831198988817609674e-02,-2.834410303659650743e-01,4.822094401098261235e-03,3.408983935314226655e-03,1.838731267775593932e-03,2.358442544937133789e-01
-3.692273663562484209e-02,-6.229796976993809410e-02,-2.842529829528441798e-01,1.589094633183953933e-03,1.265072444642531026e-03,1.250221677338047774e-03,2.357056587934494019e-01
-5.204435564550710658e-02,-4.464826646915993902e-02,-1.143812369981670324e-01,3.175519558743064748e-05,4.152650486485594955e-02,-4.435593561959658149e-02,1.244079545140266418e-01
-6.045609854394384808e-02,-5.840063299803237296e-02,-3.218710184270272001e-01,4.971740649495182129e-03,3.579294887054125518e-02,-4.974708077129232076e-02,2.832334637641906738e-01
-6.224606146522945055e-02,-6.285011119149382097e-02,-7.957897834964453021e-02,-2.921632067059370171e-03,3.157169683130571503e-02,-2.023612050529335904e-02,6.734056025743484497e-02
-6.394499068079427528e-02,-3.841024058906467031e-02,-2.730236314002972842e-01,-3.305604846795361009e-03,6.313586179968772461e-04,-4.842009585995052379e-03,2.231792658567428589e-01
-6.048133876130609710e-02,-4.779693883030318446e-02,-2.682497160792604030e-01,-4.134196770756221571e-03,1.456938374184868490e-02,-6.726846423601512415e-02,2.454123497009277344e-01
-6.243880875049365176e-02,-3.580697739301387517e-02,-2.703645436233177990e-01,4.641012302820724845e-05,1.110561308370372512e-04,-7.473264286491797595e-03,2.228169739246368408e-01
-7.493594739227579793e-02,-7.833158095567152590e-02,-4.088247981222721261e-01,3.491497230187089532e-03,-1.040139781452074572e-02,-8.484739607937719086e-02,3.637552857398986816e-01
-3.626728082484886873e-02,-6.448606069595867740e-02,-2.855063211262441891e-01,-1.712564585921421811e-04,4.202090628623164278e-03,-4.019729825207132867e-04,2.365094572305679321e-01
-5.990517317815357429e-02,-7.738636923217730168e-02,-1.959014510805862919e-01,-3.959691560355633848e-03,2.786150578261905198e-03,-1.017037664482760414e-03,1.284392029047012329e-01
-3.841139412137496711e-02,-6.490066862572155260e-02,-2.689239686487850944e-01,-1.432302675618771963e-03,1.431366316594145536e-03,-3.434302473201947432e-04,2.185046225786209106e-01
-4.317481370466440260e-02,-6.398598324752124977e-02,-2.767511015446464939e-01,-1.521089782384683724e-03,1.612703287618816317e-02,-6.028310969290582959e-03,2.258897870779037476e-01
-5.045878197466295567e-02,-5.353806383568868177e-02,-2.586302020300777493e-01,-1.007408661041859187e-02,1.196314457569189974e-03,-5.211101901509000364e-03,2.075910121202468872e-01
-5.587103267266393947e-02,-5.193583352716224510e-02,-2.894962789591387642e-01,-2.916317284936214681e-03,-7.193982654562165778e-04,-5.556347285558030889e-04,2.356768846511840820e-01
-4.961069351167511632e-02,-5.962132373107054129e-02,-2.949992782991612827e-01,-6.571941404774336859e-03,1.070325919809537139e-02,-1.755110782545084552e-03,2.415404021739959717e-01
-4.517223087275185067e-02,-5.756135063831085974e-02,-2.787276354242264054e-01,-5.734960281163264430e-03,3.625846154210699175e-03,-2.251958220711565428e-03,2.279504239559173584e-01
-5.878924810598493145e-02,-6.939884474006047244e-02,-2.958225607858244732e-01,-3.207464735503057478e-03,-6.536864426435898615e-04,1.192144471811793210e-03,2.319890856742858887e-01
-5.410579848995296370e-02,-5.998888779843078445e-02,-2.911930733417462669e-01,7.425444169994706908e-04,-9.561558731230870509e-04,-1.818927293624026048e-03,2.342317253351211548e-01
-6.043653554119210458e-02,-6.029974165798632213e-02,-2.959614394182016328e-01,4.901015107875554295e-04,9.037416919818854269e-03,1.883798367583852033e-04,2.361145317554473877e-01
-7.750924009773649259e-02,-5.880641002571804221e-02,-3.008931665487662999e-01,4.162728298580836467e-04,-2.204456805157037000e-03,-1.436292009109205615e-03,2.333438992500305176e-01
-7.264427348566894482e-02,-4.819144924388552020e-02,-2.218312091223954008e-01,-4.730398018085528976e-03,-1.460568264834809444e-03,2.852370753217269364e-02,1.703439503908157349e-01
-8.106136699091824604e-02,-6.066526422339241220e-02,-3.320182262432838649e-01,1.822808779691085764e-03,5.320069029241532126e-04,-2.398657760320671226e-03,2.618052065372467041e-01
-7.326321420409484531e-02,-7.751763561212766940e-02,-4.468275477176070765e-01,-6.017166499161486458e-03,8.288765411262746796e-02,-5.496907336339663247e-03,3.984839618206024170e-01
-6.623686912289790396e-02,-5.687302527413325148e-02,-2.904172285383889163e-01,-1.790123474757905519e-05,6.176813583099466029e-03,-4.082858749235688004e-04,2.292567640542984009e-01
-5.897906145798860467e-02,-6.136548109510008009e-02,-2.935785281266957147e-01,-2.189968653666623090e-04,2.751878916763241846e-03,5.630451836404323698e-04,2.334664165973663330e-01
-6.870689234998336725e-02,-5.946511466350704045e-02,-3.512613581512900596e-01,-8.959850199269682458e-03,8.225766099784168062e-02,1.227702675600446033e-02,3.217541277408599854e-01
-5.963219303944694571e-02,-5.191532906225543309e-02,-2.704897393749180479e-01,1.049652935851427132e-02,1.473068805943874605e-02,2.436740770989668028e-02,2.211570441722869873e-01
-7.750554942482204557e-02,-6.732084296250771815e-02,-2.121632421130596469e-01,-3.690008902675426857e-03,7.706086735163163171e-02,5.398254075051620027e-02,2.149562686681747437e-01
-5.967061360530354075e-02,-6.056452126137693015e-02,-2.924864153388148091e-01,-2.992462106061075599e-04,-2.304116974584277146e-03,-1.914471054678994460e-03,2.324286401271820068e-01
-5.910919226306651786e-02,-6.128021471644816420e-02,-2.852641982547061694e-01,-1.034750956461239499e-03,2.154247672749409065e-02,3.805361770794339626e-02,2.374857813119888306e-01
-4.163133575078940829e-02,-5.756451016008393151e-02,-2.815876886233821264e-01,4.491712598166384615e-03,4.682170741567653893e-03,2.631743077170204444e-03,2.327159792184829712e-01
-6.474673711382489261e-02,-4.043865842454938409e-02,-2.798167006424737702e-01,-2.906700128641622870e-03,-2.479573828093387805e-03,1.096591063448540057e-02,2.290817648172378540e-01
-6.251060368486527352e-02,-6.734954920012531376e-02,-2.113129038612326371e-01,7.934975779169886959e-03,2.908853702240035959e-03,7.091479696022004280e-03,1.476842463016510010e-01
-5.778779604320266605e-02,-6.060560382194822571e-02,-2.745877596420288058e-01,1.479343075679752980e-03,2.843760269228327864e-02,3.041963047330894371e-02,2.271739095449447632e-01
-6.032901223365638721e-02,-6.403488898841198929e-02,-2.909797873965920267e-01,-9.196385530119175562e-05,-1.866325486001931466e-03,-1.020923962760640277e-03,2.288500666618347168e-01
-6.482264350315977697e-02,-5.440420364921166874e-02,-2.929794883895797675e-01,2.264168871788667565e-04,1.563084446886225031e-03,-1.041797980588421565e-03,2.335634082555770874e-01
-5.721309011981338954e-02,-5.185195422812136079e-02,-2.908612612747939474e-01,-2.297311170996563061e-04,1.477468977108197315e-03,-5.255740673229048528e-05,2.363885492086410522e-01
-5.642937354519661497e-02,-4.416064204441798313e-02,-2.874816298566156281e-01,-3.350428476891676669e-03,-1.162782984038763026e-03,1.647487742445347819e-03,2.375210672616958618e-01
-6.242103102932894387e-02,-6.587552344786679059e-02,-3.019422587097093658e-01,3.333552904544454139e-03,3.778363333127039703e-03,-3.732870207528605957e-03,2.380606979131698608e-01
-5.925288196912573135e-02,-4.386784693494753806e-02,-2.838958636553224890e-01,-5.151780563803335516e-03,-9.256948687007689972e-04,1.276359935484146441e-03,2.329042553901672363e-01
-7.012187924857568588e-02,-7.815396873502888919e-02,-2.794743153629452026e-01,7.184596868588300801e-03,-5.682173166913205564e-02,8.615163831501777836e-02,2.726145982742309570e-01
-6.068477908273288424e-02,-4.664725012249390512e-02,-2.864692676467119337e-01,1.327644460881946542e-02,-1.507539154300898201e-02,-3.463552091055126236e-02,2.432171851396560669e-01
-5.839827111496775913e-02,-4.202921972799428252e-02,-2.856176939882627552e-01,3.443306720488079932e-03,-9.678543284504497878e-05,7.004551873475494761e-04,2.359089851379394531e-01
-6.867240180562650398e-02,-5.200651326278225156e-02,-1.785941542170140228e-01,-1.174925542266722469e-03,5.184053106223419699e-04,-3.797702023243164360e-02,1.361036300659179688e-01
-5.965531378223956627e-02,-5.646975455911379393e-02,-3.059502716862891880e-01,1.100645782557605010e-03,-3.179436664478401883e-03,2.337220044069094390e-03,2.480046153068542480e-01
-5.618211295038613717e-02,-4.392472806189230694e-02,-2.902465131640417639e-01,2.385246964817280477e-03,-1.891372558574941831e-03,-1.115201644766065057e-02,2.412598282098770142e-01
-5.878830952009389543e-02,-4.855544017800422774e-02,-2.793849233152204126e-01,7.958834781726150526e-03,-6.535082504802111353e-04,-4.090034544734307345e-03,2.264208644628524780e-01
-5.199531225370077059e-02,-5.880417209944285850e-02,-2.905656338918655157e-01,4.151036830696116370e-03,-4.820829931960080722e-03,4.908651138453206189e-05,2.354977428913116455e-01
-6.147225782956317053e-02,-6.014348299205282689e-02,-2.938175704641339259e-01,-9.928426798168563105e-04,-1.479039604555987437e-03,-1.871530183948016046e-03,2.330555170774459839e-01
-7.565700877213653308e-02,-5.733721337852980271e-02,-3.040436125801508904e-01,6.344722193280969910e-03,-8.893694911618427179e-02,-1.421625175616838752e-02,2.848446369171142578e-01
-6.604704632160254829e-02,-6.066575001678653489e-02,-3.204319842269959251e-01,-1.051082354573817934e-02,-7.871019479918738015e-02,-3.572584565280444158e-02,2.980870604515075684e-01
-4.578818628442406224e-02,-6.845840206880626777e-02,-2.382722958344039854e-01,4.420453801467393723e-03,-4.556215071947093860e-03,-2.274430048081810263e-03,1.825837641954421997e-01
-6.167646277904774432e-02,-5.996895260508833259e-02,-2.882894649603345294e-01,-6.371968762283610572e-04,-1.852191370589036990e-04,-1.452165362093051884e-04,2.274746000766754150e-01
-5.770448379211418066e-02,-5.343917879715412433e-02,-3.028861434166036926e-01,1.029769683081957357e-04,-4.936038275409424664e-02,1.996497317755686896e-02,2.639757394790649414e-01
-4.825907308034307897e-02,-5.336033128456105223e-02,-2.858454673419403846e-01,-5.663603933948983815e-03,-8.198226310685499001e-05,-1.201075365992514631e-04,2.352820038795471191e-01
-4.676445448830263141e-02,-5.847447207666189861e-02,-2.895297209402927230e-01,-9.480406192238486664e-04,-4.250332285232441727e-03,4.074516476330526812e-04,2.372481971979141235e-01
-5.109780239022895798e-02,-5.535252918882821449e-02,-2.862271996433890520e-01,3.207137848318301118e-03,3.696225392449297483e-03,1.523825129025413536e-03,2.332002073526382446e-01
-5.208740482054645404e-02,-5.258511665079278197e-02,-2.903987689466111521e-01,1.695444487450060512e-03,-6.473809577359579490e-04,-4.921751848222223830e-04,2.380851805210113525e-01
-6.129876403033251986e-02,-6.463528489222311602e-02,-2.908604376494516863e-01,-2.255866132679783861e-03,-6.320705514130611378e-04,-1.197613771139841368e-03,2.279572933912277222e-01
-6.209173317998471775e-02,-6.047219758974992088e-02,-3.041342976885854088e-01,3.709967790243693178e-03,-1.803728675491438928e-04,7.641050728149590028e-03,2.433018088340759277e-01
-5.207638083114399241e-02,-5.520974594463834428e-02,-2.895709472378567018e-01,3.392084825883284142e-03,-6.322195704302686122e-04,-1.000145365191156856e-03,2.360255271196365356e-01
-6.514939924944164462e-02,-6.220888563350232547e-02,-2.876216490286709337e-01,-4.139692622917653269e-04,2.271706200914576281e-04,4.543140197765414487e-04,2.239598631858825684e-01
-5.845693927309345006e-02,-6.971914839076193138e-02,-2.980678112174238725e-01,-7.586723226132608159e-04,4.003135923637874847e-04,3.313613664306015337e-04,2.341883778572082520e-01
-5.802163082843289632e-02,-5.989090326337198622e-02,-2.880973660026923122e-01,-3.012583319766402911e-04,-6.373593851804644494e-04,6.833953476309534138e-06,2.291500717401504517e-01
-5.569169583514546606e-02,-4.985235643779650783e-02,-2.902187284777086318e-01,2.810636155824418076e-03,-5.373153670426703606e-04,3.999114351985813011e-04,2.375532686710357666e-01
-6.025021296315125063e-02,-6.118335047507922342e-02,-2.883251283197046932e-01,6.683194684343895945e-04,-3.046975979025547099e-04,-2.027338160421818518e-04,2.276136130094528198e-01
-6.266575072296021176e-02,-6.202270835987767905e-02,-2.884478757831673290e-01,-5.575924817318434184e-04,-1.141926138780095844e-03,-7.379220885285456191e-04,2.261186540126800537e-01
-5.667725411763824273e-02,-5.703426290592766845e-02,-2.891545991595588228e-01,-6.407556226127342778e-04,-5.343932561753775463e-04,5.849948111136757129e-04,2.323057502508163452e-01
-4.985920977181007574e-02,-4.797049881118550796e-02,-2.777203504894493191e-01,-6.822820189055772179e-03,1.815593073726751595e-03,-3.440179653809096079e-03,2.292153537273406982e-01
-5.386098984040209314e-02,-5.136664033813299890e-02,-2.873930930304873232e-01,-2.889222063964510655e-03,8.175183815098901281e-04,-5.164376599796603479e-04,2.348485141992568970e-01
-6.156820387080677581e-02,-4.370561772654593669e-02,-2.912390710634071844e-01,-4.007541818160765580e-03,1.425059205904847647e-03,-6.103251443662641856e-03,2.394500374794006348e-01
-5.094878375726324266e-02,-5.907654617603529112e-02,-1.048082716341036252e-01,7.336724490511186553e-03,5.045910408827663368e-02,-4.229221264401894498e-02,1.252792328596115112e-01
-6.481481052142792909e-02,-6.382996217748033996e-02,-1.446025642901529462e-01,-7.521925822141140375e-03,2.741892203982652584e-02,-2.183809997367506389e-02,1.014961674809455872e-01
-5.728234938657539299e-02,-5.832940146023796180e-02,-3.320932302927495083e-01,3.167330034630359229e-03,-3.295448454993842383e-03,-2.508000068486594680e-02,2.778201997280120850e-01
-6.813657484850296764e-02,-5.211017588818245283e-02,-2.046239014563814296e-01,-5.098566213093775820e-03,8.376469830208644121e-03,-4.371659433102942360e-02,1.646054089069366455e-01
-5.135395330227383870e-02,-5.892314506770080645e-02,-1.926297041621086170e-01,-2.738060687415164130e-04,6.960709272892511013e-02,2.767611965830551329e-02,1.891569644212722778e-01
-5.572461360990471624e-02,-5.948462820523005290e-02,-2.142916418924594169e-01,3.639047187526581791e-03,7.726368148717809026e-02,-6.837805826541641305e-03,2.065198570489883423e-01
-4.585307436748459198e-02,-6.036670820476069954e-02,-2.738522447120512737e-01,-7.728603983376301084e-03,7.041245289284837200e-03,-4.657262362769288254e-03,2.219868749380111694e-01
-5.885820992855744782e-02,-5.536401622021122626e-02,-2.977553051018438923e-01,-9.787806359124403416e-03,7.531236597475659406e-03,-1.784231933933331030e-02,2.435803562402725220e-01
-4.464881675374973713e-02,-6.361804693637188035e-02,-2.899994420011650642e-01,-4.850772407991919377e-04,4.168057915447670111e-03,1.478096695044314995e-03,2.365629374980926514e-01
-4.712113498417176694e-02,-6.161674067791908516e-02,-2.906316668555250504e-01,9.938957327250185284e-04,2.590609116582911521e-03,-2.590769471660070954e-04,2.366452366113662720e-01
-4.335080444360625562e-02,-6.086538057301231486e-02,-2.883930398265414086e-01,1.777113829110399347e-03,-1.060661472918189026e-04,-3.466095018967744134e-04,2.367921322584152222e-01
-4.590153667617925815e-02,-5.837092711411742685e-02,-2.789485118968722532e-01,4.295668546966727869e-03,5.582287157637515901e-03,-2.353848333182609505e-03,2.274332642555236816e-01
-5.294640462718902540e-02,-5.672605693474536137e-02,-2.916280893963644760e-01,4.981774289705388596e-03,2.769583319947962162e-03,1.393828668355794054e-03,2.370324730873107910e-01
-6.485338134487125816e-02,-5.574970096191969593e-02,-2.639201101613006806e-01,1.102772487794541692e-02,4.402207427173350507e-03,9.360627636567239729e-03,2.054471075534820557e-01
-5.313353865615433325e-02,-5.975966106217776852e-02,-2.928106330754538522e-01,-9.486789987547693443e-05,-2.532399415375836439e-03,-1.016901242627319887e-03,2.364809811115264893e-01
-5.928850713439791364e-02,-5.592916527998157555e-02,-2.172767876885313143e-01,4.562518451427478514e-04,7.997063008579492760e-02,4.283804259346794818e-02,2.240404933691024780e-01
-7.854712563459337327e-02,-7.584412678400126451e-02,-3.439652366406859563e-01,-3.248644523445723582e-03,7.649470500550266394e-02,8.683220587639547960e-02,3.337318897247314453e-01
-5.177761035064076811e-02,-6.116667357020144635e-02,-2.880096426202506388e-01,2.773100291812501811e-03,1.025735383201751422e-02,-5.152912386322219167e-04,2.324117869138717651e-01
-3.937761389443143051e-02,-5.425604534346917251e-02,-9.385486000680998142e-02,-5.922085754991867311e-03,5.036341012753067087e-02,7.794474960246351204e-03,1.013681218028068542e-01
-5.314802789405707883e-02,-4.537511521630765987e-02,-2.875277648457551516e-01,1.183630997211043093e-03,-6.288419753609701505e-04,3.186405203954299531e-04,2.383732050657272339e-01
-5.201508241991492643e-02,-4.711470523981994840e-02,-2.891532654340444042e-01,1.362046934937094110e-03,-9.220315391787486546e-04,-6.555417482800509222e-04,2.396455854177474976e-01
-5.594510340767533396e-02,-4.535167578174792435e-02,-2.896565573165431617e-01,1.981403015257545731e-03,1.877197113152415543e-04,9.322638689691065549e-07,2.392090111970901489e-01
-5.395403720579952656e-02,-4.863419010882114035e-02,-2.862378080575453954e-01,5.924366080873206056e-03,9.356468325772208635e-04,-3.553231687841033653e-05,2.352183908224105835e-01
-4.909606572260338808e-02,-5.172814994697853830e-02,-2.805117355801278745e-01,7.566882704942927418e-03,3.411490828326227149e-03,1.054480850026772278e-03,2.305668145418167114e-01
-5.392317746747574136e-02,-5.643282193123227986e-02,-2.907307256074668222e-01,3.032716400757025192e-03,1.050937498527697257e-03,-8.085909620846298265e-04,2.356325089931488037e-01
-7.022996897082121881e-02,-5.815787874758961140e-02,-1.599014652185418717e-01,-1.903444164954024194e-03,-4.874635739109504928e-03,1.846758856321720904e-02,1.018555164337158203e-01
-5.337887098205734704e-02,-4.770179124125525916e-02,-2.920251335558378125e-01,1.205446619379252956e-03,4.396154058723843378e-04,-2.466909525231147839e-04,2.415454536676406860e-01
-5.966089207004707240e-02,-6.032982391121936849e-02,-2.882681713541647706e-01,5.985626701964114184e-06,9.129418981283747439e-04,-7.884365021461049684e-05,2.282790690660476685e-01
-5.839141191765394312e-02,-5.703479517812583277e-02,-2.886908939037166055e-01,4.584818933303331319e-05,-1.360355479203574549e-03,-1.100430529479143804e-03,2.310006767511367798e-01
-5.892563787983209900e-02,-7.101445777798373604e-02,-2.907861672169979039e-01,-1.379053382755987588e-03,-1.403405328241224062e-03,1.053911402921712745e-03,2.260917276144027710e-01
-5.586453927550789900e-02,-4.496772475599535024e-02,-3.501677525301949423e-01,6.750216259687952421e-03,1.401185474316335965e-02,-1.844117028546244513e-03,3.011245429515838623e-01
-5.953704765190509507e-02,-7.062486557679029109e-02,-2.901883003478470391e-01,-2.930636233251655322e-03,-1.243613120353783980e-03,-5.748422875961527265e-04,2.253817170858383179e-01
-6.143344935720621014e-02,-5.399623197731819035e-02,-2.943880385250857157e-01,2.876828579035648533e-04,-2.762057090961086807e-03,2.217934290626972973e-03,2.368408292531967163e-01
-6.088032038200250073e-02,-6.421705608522623732e-02,-2.866039353945197821e-01,-7.302563780146610053e-04,7.175109260008420112e-05,9.621833721417077760e-05,2.240775525569915771e-01
-6.340910358421585069e-02,-7.521471901487164491e-02,-3.305404680757291214e-01,-1.272916835806333887e-03,9.244477258158004815e-04,-7.456314275910675728e-03,2.617615461349487305e-01
-4.708997809884831603e-02,-4.756296927683844461e-02,-2.160638458149275465e-01,3.570606614193179863e-03,-2.916417741730389576e-02,-4.300271090562475529e-02,1.913375705480575562e-01
-7.760793625000331208e-02,-6.743917486034109454e-02,-1.784965230601355257e-01,-2.565539271321860305e-03,-1.412319918685689575e-03,1.012953531025278728e-02,1.078952029347419739e-01
-4.204768353060012176e-02,-6.660158866371741759e-02,-2.588465386381836320e-01,4.699528197348583347e-03,-3.967423903116103906e-03,-1.581631779626549959e-03,2.059183418750762939e-01
-6.621058051036826653e-02,-4.947201075954726912e-02,-2.026444325825660919e-01,1.043270098850920292e-02,-1.840311294211862542e-02,-2.194541504567363785e-02,1.548077315092086792e-01
-4.971060430473614455e-02,-6.926196076357092613e-02,-2.359657229307001169e-01,2.916406413019421908e-03,-2.249066377926827592e-02,-6.454735140312705538e-03,1.819331794977188110e-01
-5.101872138107657606e-02,-5.504380729586441645e-02,-3.153947163836927081e-01,5.742710206054576876e-03,5.599113645620874824e-02,2.196220370259614058e-02,2.824848890304565430e-01
-4.598655834350381250e-02,-5.930373923118559265e-02,-2.126970068507302025e-01,7.654558019699421456e-03,1.708217350626904663e-02,3.710168575635751104e-03,1.638355404138565063e-01
-4.732278978995442531e-02,-6.916402316395307837e-02,-2.124728925943413504e-01,4.851356690017179923e-03,1.787405768898002803e-02,7.849632966398192207e-04,1.586676239967346191e-01
-4.087161309387717101e-02,-6.129039259016405561e-02,-2.730489109147146154e-01,1.654243881234005809e-03,1.771242833663549260e-02,-1.465642537996634945e-03,2.248072326183319092e-01
-7.281946030907945899e-02,-5.845641467311224471e-02,-2.968987217398835199e-01,-3.961940650357913957e-03,2.751381406716003550e-03,-3.269384024975280703e-04,2.317464053630828857e-01
-3.796205957997078606e-02,-6.665103524976051519e-02,-2.691035636161754896e-01,2.626170314581103508e-03,4.030456491217884805e-04,-1.006409436786247572e-03,2.182715237140655518e-01
-5.927794305323555446e-02,-4.668048473468966453e-02,-2.911128752684781773e-01,4.725756586998315634e-03,-9.340364674541401882e-05,2.915022258626254279e-03,2.385774105787277222e-01
-5.181534575468678405e-02,-6.527229161178385586e-02,-3.032400381896928621e-01,3.031248886083368413e-03,1.616489378538572136e-02,-6.663745092629617950e-03,2.468942105770111084e-01
-6.681788234735422383e-02,-5.067334692842172250e-02,-1.738822094224448667e-01,6.137738457168077054e-03,1.220012546547722884e-02,4.440904533151512901e-02,1.411664038896560669e-01
-5.692574243555792446e-02,-5.990861899418815917e-02,-2.917390518332790839e-01,-7.189810337541926305e-05,-3.026514820461953699e-03,6.737701390119113249e-04,2.333980053663253784e-01
-5.060460471820424355e-02,-6.891435422897618235e-02,-2.870555052231568149e-01,1.080827375057468506e-03,-4.662567410871000517e-02,-6.675213570306318123e-02,2.679698169231414795e-01
-6.013762214596776734e-02,-5.176071735307449795e-02,-3.417869668263117111e-01,3.001803412885629269e-03,-6.235035034128862813e-03,-5.585814164724223554e-03,2.863444387912750244e-01
-5.338757383090042552e-02,-6.274512683675315117e-02,-2.876639169671636465e-01,2.133490439155355783e-03,-1.377049782599290041e-03,-1.078538575591800764e-03,2.297902256250381470e-01
-6.654557915895507880e-02,-6.072075255604272859e-02,-2.940445259438577152e-01,-6.582351392817399659e-04,2.366040400100406609e-03,3.269693880592259867e-03,2.305753827095031738e-01
-6.383784811040355001e-02,-8.801450812306310656e-02,-5.167745018421076031e-01,-3.433502356487794747e-03,-4.906179549660410338e-02,1.963142306850024221e-02,4.507752656936645508e-01
-5.619712533220622142e-02,-5.694132479554622761e-02,-2.984804843494262006e-01,-6.140327528567925651e-04,6.410683551755550456e-03,-3.379066612788349266e-04,2.421698570251464844e-01
-6.834286417405766034e-02,-6.659939187438168595e-02,-3.046832003880051154e-01,-5.672585644913472405e-03,-4.586450321280715302e-03,-4.963757027693914935e-03,2.377086579799652100e-01
-6.001391182388440826e-02,-5.533221392454103216e-02,-2.929225125307840516e-01,-3.008667340710508009e-04,-1.238541372705151368e-03,1.238834062129869681e-03,2.353045195341110229e-01
-5.583160868284343936e-02,-5.650963224383087624e-02,-2.925150954944352177e-01,2.713951411019221299e-03,1.725396693352520498e-03,1.711012436610321609e-04,2.364110201597213745e-01
-5.899185067894954781e-02,-5.731401077064562921e-02,-2.910739985287290055e-01,2.887898278122013988e-04,-2.137762040768565255e-03,-1.143867960377927158e-03,2.329639941453933716e-01
-5.177082970077864776e-02,-6.123459299826813917e-02,-3.261410752352916775e-01,-5.113195813146024539e-03,1.063641367667098395e-02,-3.203571849923582578e-03,2.705931365489959717e-01
-6.632406174757603246e-02,-6.786588852313210629e-02,-3.440599475107299909e-01,-7.917407414430994300e-03,-1.862132290005613991e-03,5.165356101737280346e-03,2.774704992771148682e-01
-5.868646414893938235e-02,-5.730697794645209231e-02,-2.909834131577536676e-01,2.759139795392821781e-04,-1.677908570077976018e-03,-1.344905716736131789e-03,2.330200076103210449e-01
-6.271690816820379988e-02,-7.389195161120196143e-02,-3.585581141525626681e-01,3.645289931512308169e-03,-3.169780254295538613e-02,6.951160188015921559e-02,3.192030191421508789e-01
-6.831999731620228000e-02,-5.936390236415560462e-02,-3.029932155265577798e-01,1.444924159883128473e-02,2.823302339302658989e-02,3.444202756069489335e-02,2.526457905769348145e-01
-5.861340019935995516e-02,-5.512460087263570951e-02,-2.907506501565028101e-01,2.558898192774580142e-03,-1.070585336595134343e-03,5.595069560319505461e-03,2.341511249542236328e-01
-5.528239587698507984e-02,-6.564995965052514149e-02,-3.459410421180971751e-01,-5.297364586060653718e-03,2.950147140993743776e-03,5.474411701386976137e-02,3.011271655559539795e-01
-6.123977826336125807e-02,-5.951930355722373500e-02,-2.881225438342940870e-01,-7.311796560202322645e-04,-1.051174681843100416e-03,-9.844858676739825804e-04,2.277650535106658936e-01
-6.887649305956153323e-02,-6.067139596072367025e-02,-2.890905237248961868e-01,1.378650884166206106e-03,-8.889326476478606265e-04,-9.719277655903583958e-04,2.244533896446228027e-01
-6.246431261405335778e-02,-6.666682910623245029e-02,-2.877598757008451025e-01,3.288212165881718944e-03,7.472896804978875797e-04,2.716377058538768955e-04,2.233008742332458496e-01
-5.437261123569131493e-02,-7.279661945320281546e-02,-4.645016465151535212e-01,-1.169102607735207459e-02,-2.454092231475441671e-02,8.738473860193688922e-03,4.042708873748779297e-01
-6.247918534474437846e-02,-6.512758464061038644e-02,-2.885167889540198871e-01,1.516311063770054562e-03,-6.366314837418335067e-04,4.226705744798431351e-04,2.247443497180938721e-01
-3.941844527202990889e-02,-6.503806951424208338e-02,-2.742572208320007143e-01,3.960487547102375938e-03,4.021420681562607184e-05,3.675042867760156646e-05,2.232402265071868896e-01
-4.346894093032423190e-02,-5.978964395287568456e-02,-2.858335164338392520e-01,-9.405564433279937258e-04,-6.066038081316827129e-04,1.194710909523119205e-04,2.346384376287460327e-01
-4.438209874155907286e-02,-6.319529826937246575e-02,-2.672510479379746617e-01,-6.264741034174160783e-03,-6.080834124063944253e-03,6.052478726448226685e-04,2.146191895008087158e-01
-5.657255864966581616e-02,-7.604021251780666846e-02,-3.059987442591163287e-01,3.689527945398469750e-03,-1.316035400657914085e-03,-5.552054415485859103e-03,2.405726015567779541e-01
-4.897665447613597234e-02,-4.891001932902151739e-02,-1.711597886514141242e-01,-2.516440669539923500e-03,-7.820746608354484097e-02,1.958102383475243333e-02,1.856214851140975952e-01
-5.811728727607817779e-02,-4.372074637505851680e-02,-2.921165717126897876e-01,2.665305700691100819e-03,-2.049888108681325802e-03,-1.459955673750999369e-02,2.429095804691314697e-01
-5.440989066933572815e-02,-6.021060821114009032e-02,-2.589969868729483093e-01,-9.255286155160826617e-03,-3.690638587488787037e-02,3.749282842886526856e-02,2.219530045986175537e-01
-6.007965082171837223e-02,-6.643427066393076119e-02,-2.922031697421809127e-01,-4.522396231645200992e-03,8.913656008667664729e-04,-3.774215308004465284e-04,2.291523963212966919e-01
-6.234590738539155796e-02,-6.501291873610542948e-02,-2.876980988344426948e-01,-2.309128336565570362e-04,-7.316343706517932158e-04,3.081233575949558073e-05,2.240345329046249390e-01
-6.064810909183257492e-02,-6.473885666335266187e-02,-2.912619285670310920e-01,-5.316621837883802595e-04,-2.512452721328635365e-03,-1.504227267501537105e-03,2.286540120840072632e-01
-6.879480347905592152e-02,-6.231796054090582571e-02,-2.913635768683447980e-01,-1.572359239929758522e-03,1.504858076949779425e-03,6.833687717029975723e-04,2.259114086627960205e-01
-6.777952151142405124e-02,-6.096101557494142120e-02,-2.942291401902327741e-01,-3.077330707985522287e-03,-1.291775148748967135e-03,2.282008330289800151e-03,2.300413250923156738e-01
-6.566061448967670799e-02,-5.952850294663866726e-02,-2.936030349997578170e-01,1.715572255869597272e-04,-2.702876130898887105e-03,-7.025947517266786964e-04,2.311203181743621826e-01
-5.667200241606547284e-02,-5.568190392838057168e-02,-2.886084644520360287e-01,2.408902318218973833e-03,7.775641934208853308e-03,6.131273143002241577e-03,2.331023663282394409e-01
-5.980759033195542917e-02,-6.561096601883203983e-02,-2.956863177147921462e-01,-1.755485320226019517e-04,-1.398374384116568602e-03,-4.581973839104571886e-03,2.331791222095489502e-01
-6.602504622321819783e-02,-6.143967357873758584e-02,-2.904149835854203943e-01,-2.632522633650958514e-03,-4.643650326333165711e-04,-3.273050675923629247e-04,2.267653793096542358e-01
-5.976160628265116126e-02,-4.509131707481429940e-02,-2.869668379355501120e-01,5.160031949764415805e-04,8.866577880764395063e-05,1.326636925562785880e-04,2.348860949277877808e-01
-6.185049660994854093e-02,-7.250621148539526661e-02,-3.132094174889986649e-01,-4.161221135386628661e-03,6.487240990575206083e-03,2.059614284451824484e-03,2.465915083885192871e-01
-6.275443972948913096e-02,-4.787401876024012515e-02,-2.832285404295596942e-01,1.094053757511282386e-02,2.318639887545621836e-02,4.166633914734854671e-02,2.434977740049362183e-01
-5.948777957418145690e-02,-6.697206776926943605e-02,-2.948175947640087058e-01,-3.801178754694129131e-04,1.064477126279919552e-03,1.670581824049598933e-03,2.317046970129013062e-01
-5.819432773979853202e-02,-5.414336048648057953e-02,-2.875654927353028523e-01,3.535342596525553366e-04,1.765572011347895038e-03,7.967942381177120460e-04,2.314483672380447388e-01
-5.823198518372495192e-02,-4.920679755811510625e-02,-2.912373618607178583e-01,1.918975261874397232e-03,-1.193229018063775732e-04,-2.771681835411974638e-03,2.377183437347412109e-01
-5.604234739942423604e-02,-5.454689576155556663e-02,-2.693272936578882115e-01,1.101219772869660961e-02,5.189415427978219010e-03,1.091646573721629515e-02,2.159022092819213867e-01
-4.839200975253263315e-02,-6.198763510236572627e-02,-2.467052203643501362e-01,-7.738181955114758342e-03,2.147880418598607614e-03,-3.366940319797810319e-03,1.924688667058944702e-01
-3.892453462768177830e-02,-6.053299450302465634e-02,-2.847552799368697207e-01,-9.274207537482017467e-04,2.514957276113644492e-03,-2.745518855116137365e-03,2.358639985322952271e-01
-5.038449180699373919e-02,-6.214225620397581529e-02,-2.369603968150255369e-01,7.753103240181155251e-03,1.012667522873254670e-02,9.633895489371502264e-04,1.823344826698303223e-01
-4.557639171239785680e-02,-6.467114546608088155e-02,-2.081483372371021601e-01,3.724381272977719121e-03,1.681739684494140685e-02,3.598384480449925982e-03,1.569041311740875244e-01
-5.316341448866700181e-02,-4.746417861550128459e-02,-2.916434498324023128e-01,-1.323321513991189370e-03,-3.196922938748919790e-04,-3.400188694137670905e-04,2.413923591375350952e-01
-6.581257072259738550e-02,-5.471139674025972399e-02,-3.763580222091187366e-01,1.350720839735906724e-02,-7.545007059970336265e-03,4.297456088177147027e-02,3.259872496128082275e-01
-7.873538165358501262e-02,-5.644919364854117383e-02,-2.969098541962849613e-01,-7.948893918364891573e-04,-4.585123888183270600e-06,-6.013848559960133840e-04,2.301348149776458740e-01
-6.078147697180952269e-02,-6.165283819294173351e-02,-2.871937879564433471e-01,-3.276818697511156336e-05,-5.316476392761029747e-04,-5.451425939603125534e-04,2.259817421436309814e-01
-6.427991930526774644e-02,-6.200082652397126415e-02,-2.896790306780079316e-01,-1.226745495890589881e-03,-1.696108495484903965e-03,-2.093703124662245080e-03,2.266052812337875366e-01
-6.466802216777162160e-02,-7.170464083103225694e-02,-2.924724471126229353e-01,-8.474878255758076101e-03,-1.391651262563939302e-05,-1.460627123576193698e-04,2.248486876487731934e-01
-5.831838372534586812e-02,-6.004501959006681988e-02,-2.875487140445626699e-01,-7.541265448196486339e-04,-2.643307979775785040e-04,1.350728997136115255e-04,2.283762246370315552e-01
-5.478050046371141235e-02,-5.885732843989116558e-02,-2.912052936594033969e-01,6.885151864347573928e-04,-5.589701821208104861e-03,1.327838876749405954e-03,2.346271276473999023e-01
-8.022335200281152656e-02,-5.722931819494346539e-02,-3.179300393353595711e-01,-2.814257828142156977e-03,1.357673000532543190e-03,-3.561675709088465286e-03,2.501327097415924072e-01
-6.372874793739877197e-02,-6.238469371633334482e-02,-2.868974672715851604e-01,-3.026198763356932695e-03,8.980178862349817541e-04,-7.297352326683455466e-04,2.239141017198562622e-01
-5.138308528054064128e-02,-4.877469745980475557e-02,-2.889896630115323939e-01,3.056422717838251993e-03,6.607150244840118830e-05,2.265652609579199832e-04,2.389804422855377197e-01
-5.905948645150221887e-02,-6.493209240377410818e-02,-3.261696616039183594e-01,4.105005956530313402e-03,-2.281954002852398106e-02,-2.948224155030920984e-03,2.673060595989227295e-01
-6.267638242140648186e-02,-4.442409526471345627e-02,-2.899582994346218134e-01,4.412525200989779873e-04,-6.556356025521275577e-05,3.326067074834669970e-03,2.370072007179260254e-01
-3.765250836057296158e-02,-7.110725687161965902e-02,-2.490185505833610591e-01,5.201950315559796235e-06,9.849128456591488973e-03,3.567579722771621826e-04,1.975222080945968628e-01
-6.684595880899610321e-02,-4.229536803716425764e-02,-2.777431786030617467e-01,-8.195569163547708567e-04,2.058210386265522593e-03,1.959620518060286101e-02,2.267703264951705933e-01
-5.869452715491674244e-02,-6.856812995137276379e-02,-2.972161052861942432e-01,-5.796740967277019861e-04,-1.862825064512381359e-03,-2.292048176835110879e-03,2.337993681430816650e-01
-5.697424885530477656e-02,-5.873946112007213949e-02,-2.940814648574963108e-01,-1.380731273419148926e-03,-2.653991835354658352e-03,9.419019067448923879e-03,2.368489056825637817e-01
-6.474983878760304234e-02,-3.827710525177946410e-02,-2.748779806265941317e-01,2.989781245700508499e-03,4.013561599526090790e-03,1.305311581756149648e-02,2.258397638797760010e-01
-5.202451787886089307e-02,-5.500437528199556003e-02,-2.908974086056047015e-01,-4.022115142951498989e-04,-9.551248738341820005e-04,9.692345595188965168e-04,2.374097108840942383e-01
-5.278418449846181137e-02,-5.272573643759989603e-02,-2.906906733253579178e-01,-9.842516516317463982e-04,-3.481436797612797395e-04,6.638992027782502671e-04,2.379453629255294800e-01
-5.249693597987124816e-02,-4.733615572543395378e-02,-2.897231114532716756e-01,-9.347590662551890110e-04,2.947703251753761193e-05,-1.110822739715622385e-04,2.398537546396255493e-01
-5.414796515757663853e-02,-4.604695722841116445e-02,-2.898078581209885818e-01,-2.360189668665602872e-03,4.491935831111221796e-04,-2.748680418053848357e-04,2.398496121168136597e-01
-5.521135014466729829e-02,-4.363804556464018214e-02,-2.837017510503833662e-01,-4.736530603008801826e-03,2.721130779285876704e-04,-3.063719500855448166e-03,2.346952855587005615e-01
-5.283265373481110805e-02,-4.784223387175298714e-02,-2.867471368677398380e-01,-5.446894788909029117e-03,1.408215397526041369e-03,-8.550307616600360443e-04,2.366545349359512329e-01
-6.006301847501926972e-02,-6.720678695968967942e-02,-2.973027278745690172e-01,3.079010160683249772e-03,-2.141598845439874992e-03,3.941041793657607353e-04,2.338409572839736938e-01
-5.827586834958342621e-02,-5.441421639711407909e-02,-2.926679074746504350e-01,-8.329338007230606671e-04,3.228210256630707807e-05,1.928559538538324441e-03,2.363745421171188354e-01
-4.572603288886734063e-02,-5.826792719416049038e-02,-2.814752427884431585e-01,-5.525915706424018407e-03,3.284796396381341795e-03,-1.229707070018089222e-03,2.300146967172622681e-01
-5.866685017031042504e-02,-6.906009528891661475e-02,-2.900326406443247684e-01,-1.562893928168878005e-03,-1.847713097968113833e-04,-1.717228500177338463e-04,2.263648062944412231e-01
-4.810013066154916750e-02,-5.701620456558272043e-02,-2.688052431485851157e-01,7.882140744829124746e-03,-3.135600963443521683e-03,-1.956069838967766303e-03,2.169096171855926514e-01
-5.519902312779197129e-02,-4.624947562664137590e-02,-2.789644116764610215e-01,1.056536048059194058e-02,-9.806523120480886702e-03,-1.188758397451273284e-02,2.306533604860305786e-01
-4.783119222001591675e-02,-6.119705725703830645e-02,-2.927805943690309776e-01,2.984153509884794999e-04,-5.710011792262312258e-03,1.966575939905524425e-03,2.387772500514984131e-01
-5.868314331929923300e-02,-7.655383886470605581e-02,-2.992641907303965620e-01,-4.445960036141375152e-03,-5.387568333913490305e-04,3.119734825813658650e-03,2.323545068502426147e-01
-5.316079495793901710e-02,-7.492401353077178527e-02,-3.052995517612875354e-01,2.616577228137915816e-03,-3.832381988240680243e-02,-8.726704006187646634e-02,2.929736077785491943e-01
-5.749401462015570063e-02,-5.067847268772404656e-02,-2.878320914469404412e-01,2.787250884401489340e-04,1.991468674056152618e-03,-9.238001967570684189e-03,2.343930751085281372e-01
-4.776176297849643593e-02,-5.271593800158340393e-02,-2.893409767149830447e-01,-8.645955075657172240e-04,3.043393146016857274e-04,-2.597499093479622555e-04,2.391463071107864380e-01
-4.801122990413564384e-02,-5.249403139652904227e-02,-2.912207966639114298e-01,-8.650338056105619537e-04,3.048110048927138308e-04,2.778122761414660870e-04,2.410051524639129639e-01
-4.920509916416969387e-02,-5.189544770376053329e-02,-2.906154120098347615e-01,-2.006997180601148133e-03,-6.987912407389262285e-04,3.792600596359369468e-04,2.401055544614791870e-01
-5.000069354868350024e-02,-5.210014412967722830e-02,-2.908164714585796951e-01,-1.358444422603882762e-03,1.774049862149240544e-04,4.883014718904248605e-04,2.397861778736114502e-01
-5.813498012258146164e-02,-4.689729269282882917e-02,-2.909269098202301729e-01,-4.740044761897671370e-03,-2.770152557216561204e-04,-2.176780260283437719e-03,2.387807816267013550e-01
-5.212743828313017025e-02,-5.407706724861975622e-02,-2.917660622054132347e-01,1.203413466562239275e-04,-8.039387746246171355e-05,7.470015185278122260e-04,2.386734187602996826e-01
-5.751865740878817079e-02,-5.625225114049554886e-02,-2.922171546514094054e-01,-2.417948043192178625e-03,-1.820779981212137816e-03,1.245559885601156243e-03,2.354025244712829590e-01
-4.387380376017860351e-02,-5.456268054010279811e-02,-2.872292054815446805e-01,-4.632308712911072969e-03,1.495757580228185930e-03,-5.232509547360569835e-04,2.383418083190917969e-01
-6.043621587666127282e-02,-4.241741144152441634e-02,-2.914905609352653748e-01,-4.486357703217130205e-03,-2.351775734137741443e-03,7.540212152853197243e-03,2.410843223333358765e-01
-5.317392435643038956e-02,-4.129569262154329790e-02,-1.187397437617413315e-01,-6.404821178167430240e-03,-5.613980150025981580e-02,2.445367309256573501e-02,1.288053542375564575e-01
-6.006159357978259339e-02,-5.780861764940312120e-02,-2.748556053063362370e-01,1.055130828088218157e-04,-3.760510400106763240e-02,2.386874790714414024e-02,2.292969375848770142e-01
-5.873496621562186715e-02,-4.724745821627586440e-02,-1.199221219963598067e-01,-9.231187132866148712e-03,-7.116532834768958538e-02,-4.579264231174778876e-02,1.622306108474731445e-01
-5.725691528452475643e-02,-5.892702545615775833e-02,-2.709855364029917224e-01,-1.168131075106667097e-02,-6.706895461851805976e-03,1.037636439855199252e-02,2.149257510900497437e-01
-7.075485873025899597e-02,-8.081887318920347174e-02,-2.906741374727968008e-01,4.317964259959098175e-03,-2.390353812667060651e-02,9.487395703385854973e-02,2.739083468914031982e-01
-5.401844401473231139e-02,-5.455410614399926195e-02,-2.433474461392214905e-01,-1.223882261723323837e-02,-2.522139857229294992e-03,1.440515819091963551e-02,1.919252872467041016e-01
-6.171715996213361644e-02,-6.155035801207783819e-02,-2.874143594964863047e-01,7.907439815624825539e-05,-7.175179176653293401e-04,5.757865980681856934e-04,2.257863134145736694e-01
-5.778792265834750697e-02,-5.808745681040128339e-02,-2.906292784016417663e-01,-2.637374232761061131e-04,-1.034949137405284051e-03,1.287517342406123162e-03,2.327097654342651367e-01
-5.993164905981343549e-02,-5.795071735134119106e-02,-2.876884643544632691e-01,7.616657568433343349e-04,-2.447207833935288951e-04,-2.934833421216464242e-04,2.287584692239761353e-01
-5.803688646237833981e-02,-5.771714361753986500e-02,-2.896307796570346538e-01,3.663779487815324305e-05,-1.014141254753059013e-03,8.068063537638934775e-04,2.317648082971572876e-01
-5.119645775827133538e-02,-5.868635019351456372e-02,-2.888001756860853475e-01,-2.654361341789604478e-03,-8.049997287281749530e-04,-5.155772575161081828e-04,2.339997440576553345e-01
-5.976144976172756418e-02,-5.903053907810254519e-02,-2.882805874836096294e-01,-4.858303239910437125e-04,2.879446431286446860e-05,8.518343574432464321e-04,2.288917750120162964e-01
-5.898592445841580045e-02,-5.950408713071810018e-02,-2.895465878480105171e-01,-9.021208722045845601e-04,-9.098111624402109750e-04,-1.120250379756106054e-03,2.303208857774734497e-01
-7.332122628515701235e-02,-4.870413459090419672e-02,-2.358031161939815878e-01,1.269312186950961961e-03,2.101147448490453041e-04,1.796978197277089920e-03,1.761273741722106934e-01
-7.646909861268130770e-02,-7.409783714114390185e-02,-3.301365893409298202e-01,-3.235230434807708465e-03,4.726899278633839296e-02,9.708683141634973091e-02,3.161745667457580566e-01
-4.982351645893423608e-02,-4.131680485900482425e-02,-1.752590291166447045e-01,-1.138993754787859421e-03,4.840405806138798478e-02,5.890436593177866137e-02,1.852441579103469849e-01
-6.285187016829647810e-02,-5.980408758901429450e-02,-1.720134934880047650e-01,-1.130186290778444329e-03,3.034093304970246398e-03,-3.651315450054560922e-03,1.110391616821289062e-01
-6.799559644723848773e-02,-4.676039451237404276e-02,-2.150984838004015298e-01,-5.517467133307905371e-03,3.707809533524722401e-04,-1.653738849904878849e-02,1.616358458995819092e-01
-6.624860130614665388e-02,-6.357619746987827614e-02,-3.247171729710613963e-01,-5.487148832909416636e-03,-3.713591527614941781e-03,4.673375516267878720e-03,2.601943314075469971e-01
-6.269214039482608192e-02,-5.568712990571191013e-02,-1.193339483431175851e-01,2.663270245517701355e-04,-5.244451901875805955e-02,-4.569322414623366857e-02,1.347933560609817505e-01
-5.132885418209019723e-02,-4.548191252673972756e-02,-8.192344849407254270e-02,-5.435010920397977119e-03,-1.042133875267103882e-02,-3.935320926615561155e-02,7.880074530839920044e-02
-7.199145156522955558e-02,-6.521326585327974490e-02,-1.882132519255582115e-01,4.680187229191442450e-03,1.199929785729031938e-03,1.638984960347827230e-02,1.233577579259872437e-01
-5.565670358574903442e-02,-6.403862801746798561e-02,-5.143302297331127371e-02,-1.038011884233819987e-03,-1.652629961094054939e-02,7.061610618158333831e-03,3.310114517807960510e-02
-5.227917195279878360e-02,-5.203758955427911781e-02,-3.335148081730784364e-01,-6.052334714794267538e-03,-1.250783368424877341e-02,3.120011374762276385e-02,2.875083684921264648e-01
-3.881155793182908265e-02,-6.386135240180501604e-02,-2.878316876380132561e-01,2.555341922815718408e-03,8.932422335310923750e-03,2.603713215459373988e-03,2.380754202604293823e-01
-7.145699653080944680e-02,-6.606045478223226963e-02,-2.195032747993288513e-01,-2.991779452740835673e-03,6.746046412125187176e-04,-1.633013411393448300e-02,1.535382568836212158e-01
-6.703054223104470966e-02,-7.031929554702540108e-02,-2.126911632421623899e-01,-1.822427313296627735e-03,1.710307422185960123e-03,-2.952949135845392512e-03,1.442001760005950928e-01
-5.322558072385141087e-02,-5.015158580099720459e-02,-1.074179327513695159e-01,3.756072603098519966e-03,5.085199762646071958e-02,3.053304674979951533e-02,1.170886382460594177e-01
-7.327707401667554743e-02,-6.145728205835788993e-02,-1.922691490331422115e-01,-6.075194640392309400e-03,7.903181658407912313e-02,3.427410616574723401e-02,1.951364427804946899e-01
-5.317822358761070678e-02,-6.025810204084577903e-02,-1.935689226079804759e-01,1.754809814427734857e-03,7.045440663892701960e-02,2.580861917935927188e-02,1.888509690761566162e-01
-6.123965355754878992e-02,-5.472747067413118172e-02,-2.683558739210670230e-01,1.258096523171145856e-02,1.996535000655922515e-02,1.992970964135461903e-02,2.171418517827987671e-01
-4.568316650571248305e-02,-6.916639991938582088e-02,-2.368253840197565019e-01,-1.464425375682192488e-03,1.991650140156851594e-03,-3.101945259362754413e-03,1.806803047657012939e-01
-7.209134477777526251e-02,-6.346517236090168379e-02,-1.800917456079305645e-01,5.041467225449573070e-03,5.328525339193786528e-04,1.384178207030037355e-02,1.154210269451141357e-01
-6.533587393193390769e-02,-6.172450833784594304e-02,-7.546237827902839423e-02,-5.354915445542828348e-03,-6.515035779635841746e-03,-6.311990327321375695e-03,2.202372997999191284e-02
-4.706444198377313093e-02,-5.174295577187761064e-02,-1.217086076330369804e-01,-4.146713493408070265e-03,-4.359576492278945808e-02,-4.802772865207401848e-02,1.338572502136230469e-01
-5.547644715313301833e-02,-4.824979595481932587e-02,-1.257986848477450625e-01,-1.556635350161686762e-03,2.095778119674128817e-02,-5.276423749359255427e-02,1.232184469699859619e-01
-5.397565573804111866e-02,-5.102120299738235887e-02,-1.619189065833133712e-01,7.316085316766974579e-03,-2.678995692181748711e-02,-2.916967926346014303e-02,1.297909021377563477e-01
-5.561993198205275601e-02,-7.554433363508805677e-02,-3.246950745702433805e-01,-2.681345290882318575e-03,3.938540883187161348e-03,-7.093790661870664604e-04,2.598208487033843994e-01
-6.588288989363280668e-02,-6.174411830648409566e-02,-1.180097295839158955e-01,-9.328268528521833957e-04,-1.150846783573069090e-02,-1.952939154145309775e-02,6.703890115022659302e-02
-6.950940892274157235e-02,-7.365739166667055471e-02,-2.151762205126621641e-01,-1.476341575198784374e-05,-3.005269112569258078e-02,-8.689422283624460841e-02,2.144600450992584229e-01
-7.983849617113566999e-02,-7.187353102954871509e-02,-5.641784364284493369e-01,7.080854223777775097e-04,3.139841971246314090e-02,2.222135641876026024e-02,4.928963482379913330e-01
-7.491436017958925941e-02,-6.374294971467248105e-02,-1.096435558141024558e-01,3.925572469139455151e-03,4.518664385737027056e-02,-4.508289455131414547e-02,1.182709708809852600e-01
-5.723301561952368055e-02,-4.684021690707082519e-02,-2.826771843843614018e-01,-1.100783649451068241e-02,1.606776623611293198e-02,-1.714251593492231718e-02,2.351504117250442505e-01
-6.318623347744514729e-02,-4.918061957389163741e-02,-3.035201998979135674e-01,-3.812508361506303234e-03,4.732573194520714108e-03,-7.599302471439919708e-03,2.482068538665771484e-01
-5.210840750875664340e-02,-6.131163843288295334e-02,-2.916427588437457974e-01,-3.561830621721713813e-03,-3.873766403324603157e-03,-1.718766304654428519e-04,2.352447211742401123e-01
-4.422598302167671247e-02,-5.991920514059170810e-02,-2.861280859009325828e-01,-8.943853811938312030e-04,-1.527603883729868788e-03,1.202994485257921074e-05,2.344697862863540649e-01
-7.405751348083575158e-02,-5.770998692592885226e-02,-2.926555702024157268e-01,1.046500521331948218e-03,-1.113327449320985259e-03,9.296665089315681117e-04,2.272344231605529785e-01
-4.505973030977949989e-02,-5.434506866545626980e-02,-2.890061088090531971e-01,-2.312896231851001121e-03,1.950017496541753097e-04,-4.160776783384942021e-04,2.394736111164093018e-01
-4.601971957007487679e-02,-5.931257278069250460e-02,-2.873775904176676388e-01,-1.748087080381249565e-03,-4.293937843747080074e-04,8.317291105815921874e-04,2.350186854600906372e-01
-5.229233673638922913e-02,-6.730432807482611413e-02,-2.225089064859624988e-01,-6.740320121307420871e-03,-1.521764742122415186e-02,9.198780176201248188e-03,1.665191501379013062e-01
-6.323291529674851530e-02,-5.719774170206121111e-02,-3.576121451636530280e-01,-1.992477610685123440e-03,-4.278197755750702547e-02,-1.356588628782155921e-02,3.074525892734527588e-01
-3.649108148752233660e-02,-6.763095061457209678e-02,-2.778605383041404808e-01,2.280984764276816970e-03,-5.689649405906592808e-03,1.366764003264060376e-03,2.276642769575119019e-01
-5.108518101871884626e-02,-6.518966984779051010e-02,-2.211116804994698870e-01,-5.008956738159427852e-03,-1.596410012150877022e-02,5.864034270293825256e-03,1.662912964820861816e-01
-5.078133558011239945e-02,-5.720096760648754608e-02,-2.829779980760905311e-01,3.164093419069151543e-03,-1.887512364172199905e-02,-8.448318008204355398e-03,2.319026738405227661e-01
-5.599867386995896479e-02,-5.045858373393415086e-02,-2.895726249203336433e-01,-1.499398439919284254e-03,-2.723043498022062036e-04,-5.313539651149331005e-04,2.364092171192169189e-01
-6.470625663086625179e-02,-5.230703808549150291e-02,-2.751574981206743598e-01,-3.002611444661806156e-03,5.370758971714156838e-02,-2.579566944462541658e-02,2.402700781822204590e-01
-6.096007124213660699e-02,-6.822658205785565866e-02,-2.878861496445488388e-01,1.277398984532093339e-03,-1.372206580072312396e-03,-4.645149609148532398e-04,2.234065234661102295e-01
-6.165664943729286251e-02,-5.887570065416612708e-02,-1.629235965767504846e-01,-2.073815010778393489e-04,7.255629760674925377e-02,-3.305373988317943101e-02,1.720911711454391479e-01
-6.222126442312317374e-02,-6.266852560683228157e-02,-3.033005447300061164e-01,1.281320617580450176e-03,-2.153988617002150670e-03,-2.045968908770271009e-04,2.408953309059143066e-01
-5.691365634985355582e-02,-5.899036441881694987e-02,-2.434277522719235365e-01,-2.371926619551752245e-03,3.928715693601696202e-02,-4.678232331815648792e-02,2.135826796293258667e-01
-5.356006321524600655e-02,-5.105054562929081663e-02,-2.884655718795099411e-01,-5.399052741937021040e-03,1.255617360643193105e-02,-1.396765929453522292e-02,2.385835349559783936e-01
-5.908571908076616641e-02,-6.813334598230169625e-02,-2.986365896207050508e-01,2.787296101191723708e-03,2.052700907763734157e-03,-5.362808646176614111e-04,2.352358847856521606e-01
-6.371254968697953602e-02,-6.547002862840491100e-02,-3.297901699953465493e-01,4.316163215680367260e-03,2.661537465628385085e-03,3.383296284468984005e-03,2.654133439064025879e-01
-5.447822257691053993e-02,-5.313851439793140785e-02,-2.893000816797066110e-01,-2.238773029691097129e-03,1.399098907634387502e-04,7.090164496968006606e-04,2.355298250913619995e-01
-5.338907780696702798e-02,-5.067423194261862218e-02,-2.605066620453665438e-01,9.644980596533321918e-03,4.658577870961830986e-03,4.378634799363251436e-04,2.093134373426437378e-01
-5.334463052549326401e-02,-4.922874949140579326e-02,-2.716019831506933380e-01,9.523593284062863845e-03,1.009257211233792126e-02,6.066004023289107462e-03,2.218999713659286499e-01
-6.138720614067350034e-02,-5.533837614272760219e-02,-3.324361178672072814e-01,-4.312809821565838711e-03,-2.263196070585484377e-03,1.263291612762758483e-02,2.751246392726898193e-01
-5.448970989041088120e-02,-5.268353836744095464e-02,-2.092594000029747714e-01,-1.620570915130544257e-03,5.031609078474554714e-02,6.228033934056832754e-02,2.085089683532714844e-01
-6.940107959495186996e-02,-3.964335028829434060e-02,-2.881501190812398860e-01,-3.495189653366240993e-03,2.971421844127551844e-03,2.447955988335460270e-02,2.389707565307617188e-01
-6.971400978828870554e-02,-4.270432753245489987e-02,-2.586816889147950382e-01,3.121742548456677476e-03,2.658885444288042275e-03,1.150804030883881106e-02,2.049146443605422974e-01
-5.719546912881801060e-02,-5.634577122016429934e-02,-1.810782720418716574e-01,8.755406067910788404e-03,5.836706656644161800e-02,2.785549744415670784e-02,1.680203378200531006e-01
-4.846789185737487848e-02,-5.962494534342974856e-02,-2.543385773690911011e-01,1.234325770703485932e-02,3.152998330880614486e-02,3.703607130819200344e-02,2.185516208410263062e-01
-5.600971660610293279e-02,-5.979853021477496422e-02,-1.761751187015266895e-01,-2.777813989729388360e-03,4.405021444302821554e-02,6.209419372689562594e-02,1.772294342517852783e-01
-4.557846185126207539e-02,-6.265841854901019192e-02,-2.452016993050937232e-01,8.330634386985358644e-03,-3.449038398586645737e-02,-1.099055451416548757e-02,2.021656334400177002e-01
-6.997221017453854330e-02,-5.745287694472490936e-02,-1.766921487604065644e-01,-3.135917695462999907e-03,-7.388490720629056763e-02,3.852318256317446843e-02,1.836858391761779785e-01
-4.922726643365246679e-02,-6.859412059707896414e-02,-2.499443927636393614e-01,8.128938847583535091e-03,-2.284246650717039473e-03,-3.562257916546213588e-03,1.924243867397308350e-01
-3.704018529811294036e-02,-6.459404327869994189e-02,-2.857850674236396271e-01,-7.893210900260661921e-05,-2.319655819081181680e-03,-6.215815086870084879e-04,2.362131923437118530e-01
-5.428849515108118834e-02,-4.712497697203793523e-02,-9.002629891011880436e-02,-6.883736539288880588e-03,-4.878246085170249297e-02,2.739700504317780973e-03,9.427818655967712402e-02
-5.918034901552737120e-02,-5.732935262294591716e-02,-9.127154182485852640e-02,-9.944824561778102447e-04,-4.972239972243915063e-02,1.274538482164599886e-03,9.229010343551635742e-02
-5.605456938650496546e-02,-7.903671617119878423e-02,-2.982270161488888571e-01,2.460145217744802611e-03,-7.964982208891695616e-04,2.661846203572122965e-03,2.316275984048843384e-01
-4.366595600742517735e-02,-5.866185813410280253e-02,-1.864109783369437001e-01,4.116898163032192692e-03,-5.103471796549151340e-02,5.829978408156012704e-02,1.911059767007827759e-01
-5.177045082213977550e-02,-5.946702380123026349e-02,-1.799291124441833034e-01,-1.133228262209465612e-02,-8.222461118187734952e-02,-1.013707853265240905e-02,1.909808963537216187e-01
-5.830634407743412462e-02,-4.250965675407561428e-02,-2.892693492540858724e-01,1.453196584995548445e-03,4.653496433847119276e-04,1.814884099484509504e-03,2.392880320549011230e-01
-6.287346905641480466e-02,-3.526632851802660729e-02,-2.817091275217999402e-01,3.164191502272456491e-03,2.622926970134522879e-04,3.744918168444212863e-03,2.340191006660461426e-01
-6.529339137051455577e-02,-4.307440526967479949e-02,-2.032132129259225650e-01,-1.660614396258679008e-03,-3.308757439252515281e-03,2.102323201866921482e-02,1.547483205795288086e-01
-5.660909027735580579e-02,-5.171555080692175066e-02,-2.742448909542922753e-01,1.045946749557058117e-02,1.397994014556457054e-02,1.280644146017144783e-02,2.232953906059265137e-01
-6.345084546900990607e-02,-3.564144745732483743e-02,-2.813182888814109717e-01,-3.122714920417717262e-04,1.275177285003072851e-04,-1.111859208268515479e-03,2.330287545919418335e-01
-6.688735435188045142e-02,-3.615809194374003388e-02,-2.746047712547512454e-01,1.773506106496018815e-03,-5.805662554263086011e-04,-4.171111464215466330e-03,2.248031497001647949e-01
-6.574318653912390731e-02,-3.523282286986356704e-02,-2.804646107950732326e-01,8.505420974567837753e-04,9.802763968228262305e-05,-3.728633925283387964e-04,2.314951717853546143e-01
-6.545554418333329738e-02,-3.580592371560846476e-02,-2.817635713281692045e-01,2.197583842309729855e-04,-3.500352026152976328e-05,-1.087073115989695745e-03,2.325626909732818604e-01
-6.326181739836828077e-02,-3.765361305268029313e-02,-2.836474357642815303e-01,1.606683512570268590e-03,-4.121886640471772900e-04,-7.828901880180106189e-04,2.342634648084640503e-01
-6.737861115273481583e-02,-4.860504747013247306e-02,-2.102920075783800691e-01,-2.917675122591427677e-03,6.227766508456859980e-03,-1.552370711876898887e-02,1.559632271528244019e-01
-7.036047320003405159e-02,-4.028007220237403430e-02,-2.701816415073593491e-01,-4.041371620146641704e-03,1.076142562631183380e-03,-9.533384861336959872e-04,2.165623009204864502e-01
-6.414456808611274097e-02,-3.685317500899087939e-02,-2.804644768071605232e-01,8.441159602601286741e-04,2.768134842218873530e-04,-5.540443263497684540e-04,2.311840951442718506e-01
-5.952920754950469240e-02,-6.747157277522336516e-02,-2.946725942523952257e-01,1.585835571123215626e-04,-1.526459143442602390e-03,2.695675276287969740e-03,2.313369065523147583e-01
-6.234369457888777610e-02,-3.993014942106609677e-02,-2.821269089456064916e-01,4.852031895861879719e-04,-3.210247685332290215e-04,-2.859560020906727444e-03,2.318592220544815063e-01
-5.988717974952185996e-02,-6.037891150700613885e-02,-2.935912258789732943e-01,-1.495326312424296103e-02,2.866463440783675876e-02,-3.276782764428675526e-02,2.466979473829269409e-01
-6.358652851595131272e-02,-6.190242413782418018e-02,-3.197140009432196672e-01,-8.491172885981397578e-03,3.440582516210014159e-03,-1.129695727555596850e-02,2.582056224346160889e-01
-6.613358802073590614e-02,-4.600772603220040780e-02,-2.933752058418327979e-01,2.022041486173723867e-04,-1.975782779305510064e-06,-1.051939716579503720e-02,2.386405915021896362e-01
-5.843983256895241007e-02,-4.899310637381715239e-02,-2.909765282116310026e-01,-2.707468088602574263e-03,-1.011229516475609016e-03,-2.101490760736533792e-03,2.374817281961441040e-01
-6.246335003107000849e-02,-6.452450158925696067e-02,-2.882253522917641586e-01,-2.853045003385494376e-03,-1.274931790736398866e-03,-3.221502834875803584e-04,2.248043715953826904e-01
-6.989038843847414362e-02,-6.158250832674272424e-02,-2.907519278046885036e-01,-1.030555855458293885e-03,-1.029137543031685871e-03,-8.812248812429443988e-04,2.251497805118560791e-01
-4.961990258349172067e-02,-5.156965234647321872e-02,-2.982034041055570128e-01,2.855317691658425857e-03,-4.306140426629881390e-02,-2.356945463827713610e-02,2.618525326251983643e-01
-4.440203512668544628e-02,-5.703134402649838453e-02,-2.806915021673325183e-01,4.217835251785971920e-03,3.664482472640818566e-03,8.610278041774357917e-04,2.304428815841674805e-01
-4.912914824246276957e-02,-4.684441993782594016e-02,-2.098394023093887173e-01,1.461677281897567991e-03,5.088151011754966924e-02,3.845721018794992507e-02,1.959853321313858032e-01
-5.657378958407743852e-02,-5.007487896854385945e-02,-2.768803746564512114e-01,4.829675865194557778e-03,4.271297678302932339e-03,3.186877003006856768e-03,2.239735722541809082e-01
-4.963854909680578964e-02,-5.495299668312447761e-02,-2.887831190096194489e-01,1.423645347137421531e-03,-4.555777916485512702e-04,-2.694617906426751645e-04,2.365467548370361328e-01
-6.594122796913717832e-02,-5.095895584213341878e-02,-2.700047255488932096e-01,1.454915811172425959e-02,8.849152853888354875e-03,2.508346482165381766e-02,2.183602750301361084e-01
-5.749297015590439097e-02,-3.969951622912659683e-02,-2.810668602087219581e-01,5.969101172649021042e-03,2.320151249541645058e-03,4.613434518062634049e-03,2.333815246820449829e-01
-5.997965001092513126e-02,-4.981098994801218260e-02,-2.954880642985253103e-01,3.914606941103555490e-03,1.273869296588218784e-02,1.819820761667751557e-02,2.439031302928924561e-01
-8.147664012297742286e-02,-7.822956919843807033e-02,-3.901804501809540415e-01,1.073002025069240287e-03,-8.419375740570927968e-02,7.531663380881761793e-02,3.668759763240814209e-01
-4.582327935462942453e-02,-6.015586809448172922e-02,-2.110211710551628261e-01,-1.086889386003826036e-02,-2.936833105396299132e-02,3.616284662171761338e-02,1.788664311170578003e-01
-7.825675690404337859e-02,-7.547044782408549035e-02,-3.252269454414485894e-01,-1.572895950406426671e-03,-8.597386323751440851e-02,2.993965280700536941e-02,2.942129373550415039e-01
-7.062417445254896842e-02,-4.993758647560848918e-02,-2.059437979416410824e-01,-5.306104627352336602e-03,-4.926428558727588558e-03,3.215169773395169794e-02,1.574709713459014893e-01
-5.766406647591515444e-02,-7.071439566167250779e-02,-2.977256156244654228e-01,1.476899245235490819e-03,-5.908248728226016223e-04,2.500985238267591261e-03,2.338660508394241333e-01
-4.289433039702632289e-02,-6.751211472646148626e-02,-3.005656210118002325e-01,-1.179093187890043783e-03,-9.380343578915827790e-03,9.090426679672366595e-05,2.468307167291641235e-01
-5.718047345462370923e-02,-4.401194974487898648e-02,-2.880733970496411334e-01,-4.270203895108858755e-03,2.651801977181889947e-04,5.903657822256652395e-04,2.378685176372528076e-01
-5.230128564024762172e-02,-5.518089853673710521e-02,-2.911669683981057410e-01,-6.627256449451394277e-03,-3.820574930448103479e-02,1.952681614311419650e-02,2.490621507167816162e-01
-4.562017175696345128e-02,-5.806087060592228510e-02,-2.868758059800220472e-01,-1.239600265168689730e-03,-3.005690452041513911e-04,1.167045387187324972e-03,2.353011518716812134e-01
-6.909638843933188501e-02,-6.020423948359550359e-02,-2.996004428167206024e-01,7.828590102683899432e-03,-1.535276666243782931e-03,-5.581972952485897595e-04,2.354840338230133057e-01
-8.427559452038260734e-02,-5.774346028819644927e-02,-3.631332374509079752e-01,2.115045558873976470e-03,3.357384290550725122e-03,1.084885459654223163e-03,2.931126058101654053e-01
-5.244096961901900666e-02,-5.672994994900615318e-02,-2.898819563713500580e-01,-2.818679737892358910e-03,-9.571149624719514333e-04,-2.360975001962122217e-04,2.353826463222503662e-01
-5.468439210840975173e-02,-5.635866887347201759e-02,-2.962754164055624861e-01,-2.650645077964806137e-03,1.832806120751214341e-03,-1.643576742614923872e-03,2.408397644758224487e-01
-5.845265299957599914e-02,-7.240108964538541358e-02,-2.930815817715598515e-01,4.990456418679720119e-04,-1.231820242267699182e-03,-2.473626980434935098e-03,2.280268520116806030e-01
-4.013142861771666625e-02,-6.111107991379317872e-02,-2.836898842094253137e-01,1.256989824762033865e-03,-3.862824379863022818e-04,1.960191511490078011e-04,2.337870746850967407e-01
-3.705388405905200855e-02,-6.528623681054721017e-02,-2.844296792266138851e-01,1.236187249328278429e-03,-1.266876524391181806e-02,-1.209608796284294616e-03,2.355808019638061523e-01
-4.337794715668069623e-02,-5.633760006063523451e-02,-2.868987904748345752e-01,1.203311043423408843e-03,1.781313021542001445e-04,6.165872062268021661e-04,2.373183220624923706e-01
-3.487547251290545880e-02,-6.127644411385160805e-02,-2.825239639003641612e-01,3.079738233698816642e-03,-2.065918984657564661e-04,1.606424549803935412e-04,2.356210649013519287e-01
-5.806985642133355441e-02,-4.520571734099940175e-02,-2.846425863998026662e-01,1.029923781073003794e-02,-1.347915022910349710e-02,-3.550547127498475397e-02,2.430237680673599243e-01
-6.379883554168477855e-02,-4.098006610730815791e-02,-2.566590363518191920e-01,-6.051760646135835586e-03,-3.321176496726450456e-04,6.321646919573800996e-03,2.057830840349197388e-01
-5.277817441057107428e-02,-4.780399472884411249e-02,-2.748731112150679112e-01,-7.787638683448954054e-03,-7.522397126851425959e-05,2.767855473556153113e-03,2.250790596008300781e-01
-4.549642918965371430e-02,-6.165701020402869492e-02,-2.675465935760903413e-01,-8.864885718546456142e-03,-8.465374314428380370e-03,1.470223425001086672e-04,2.154757380485534668e-01
-6.131695516404016971e-02,-4.061483919495843808e-02,-2.555033304523342541e-01,-7.337094855026212760e-03,-1.238947430985056462e-03,6.891146746480644562e-03,2.060717344284057617e-01
-5.949094904249697946e-02,-4.902205865494893566e-02,-2.898848255596984114e-01,-3.315917321845146277e-03,-3.474194929431046451e-04,7.080463801843279656e-03,2.361919730901718140e-01
-5.720886306807926314e-02,-4.181791821393726627e-02,-2.887791703670794519e-01,-1.957302208351326383e-03,1.890270601906646588e-04,1.512819059542824546e-03,2.396752834320068359e-01
-7.689356655745097080e-02,-7.485987062138052539e-02,-3.153744808291379931e-01,3.661481388974282321e-03,9.693234318128543525e-02,-2.872887815576247866e-02,2.967594563961029053e-01
-5.783548065443777642e-02,-5.246963929797993087e-02,-2.919889728247638816e-01,-1.177455725269735583e-02,2.917242090077585767e-02,-3.269380586809970957e-02,2.495771348476409912e-01
-4.735295547715906439e-02,-5.945367942157139818e-02,-2.824785279302976515e-01,-7.247779777090688873e-03,5.566632423613738015e-03,-1.221365968951531721e-03,2.298701852560043335e-01
-3.980390232388109073e-02,-7.298491830507689015e-02,-2.410589573626554794e-01,-6.730027734646676363e-03,6.005921969344450023e-02,-5.569799720660250503e-03,2.144224941730499268e-01
-5.521686889361900052e-02,-6.126045699473502137e-02,-2.553488178284792909e-01,-1.022395199376063823e-02,1.349859948599892168e-02,-9.146619540324675557e-03,1.999775320291519165e-01
-5.507913627252951361e-02,-5.759511904753991662e-02,-2.497397963427566703e-01,-1.029660122972799255e-02,1.224418580813437483e-02,-1.140103915156996835e-02,1.963851153850555420e-01
-5.846192649100699634e-02,-4.917322631729657834e-02,-2.604348895624483684e-01,-1.036939905697823079e-02,9.204298734848940025e-03,-2.420443474692624442e-04,2.081641852855682373e-01
-3.685682139681212277e-02,-6.276810927790216210e-02,-2.540880291246341294e-01,2.583124178239339531e-03,9.415856011859392166e-03,1.002260039274176836e-03,2.062063515186309814e-01
-4.493388117249197400e-02,-6.103914686547444457e-02,-2.918092082487585559e-01,3.690204586144365997e-03,7.956840738779261471e-03,3.509780084091778133e-04,2.397122681140899658e-01
-4.873408337303303250e-02,-5.752130181311271295e-02,-2.861850179556894025e-01,6.174517137201571311e-03,1.314974767819315424e-02,4.023807127205555889e-03,2.346387058496475220e-01
-6.016628130082127268e-02,-5.911687907683345344e-02,-2.923005533697912162e-01,-1.629624497672690258e-03,-2.848727683038145692e-03,9.118597205871508196e-04,2.327355444431304932e-01
-4.119519410436721374e-02,-5.999739690904068445e-02,-2.792956068585260576e-01,4.644905132980876698e-03,3.439779145464844611e-03,-2.756923267412809660e-04,2.294972091913223267e-01
-4.972446528608180649e-02,-5.345885872792850713e-02,-2.598261922813978608e-01,9.869620010300440144e-03,5.634176002414291277e-04,5.379636399898211040e-03,2.091699838638305664e-01
-5.362345000526155814e-02,-6.243584311245684026e-02,-2.344828547400691909e-01,9.830696318392694033e-03,8.555126521642111154e-03,1.341615153384743487e-03,1.780698597431182861e-01
-6.203383081165556034e-02,-6.024740923547261540e-02,-2.944831100738174445e-01,1.899404767026995023e-03,-3.779888943655066759e-03,-7.822026160288354357e-04,2.334665507078170776e-01
-5.038564044012533438e-02,-6.392604514228050760e-02,-2.896350933736208111e-01,-5.886383680952778346e-04,-8.933640102257833782e-03,-9.402167063496712565e-04,2.332964390516281128e-01
-4.620447828012713698e-02,-6.287283544400210089e-02,-2.907569210854486497e-01,-1.680644287937390745e-03,-3.187419785385173492e-03,-3.210885980355646183e-04,2.367418557405471802e-01
-5.146712795178998157e-02,-6.032625005379665950e-02,-2.858178874124850943e-01,1.494571415487538782e-03,-1.625097170872445013e-02,5.510314520666117957e-04,2.317811846733093262e-01
-6.464918583580403499e-02,-6.687494867087490080e-02,-2.675015517337738791e-01,7.925245200820722064e-03,-7.895341393976282318e-02,1.782456425362904592e-02,2.460590004920959473e-01
-6.482645367891171073e-02,-6.031952221217376509e-02,-2.908856036747149987e-01,7.193482278924393739e-04,2.318051549409549765e-03,-2.828088583020192323e-03,2.284372001886367798e-01
-4.271611314642288770e-02,-6.312677015761739008e-02,-2.907392907599762877e-01,1.114798614739532771e-07,-9.937455983747026100e-03,-6.898345001811172911e-04,2.390971779823303223e-01
-5.945122223595131206e-02,-5.988553070106775178e-02,-3.381708907162646049e-01,4.917453602030916020e-03,1.342508369450188394e-03,1.195138620224923742e-04,2.786427438259124756e-01
-4.428318092805604012e-02,-5.674861096153348272e-02,-2.901085499899999087e-01,-1.414610107229682988e-03,-7.591813993150999147e-04,4.778536236679722807e-04,2.398532778024673462e-01
-5.216375506667213224e-02,-3.099311258644468769e-02,-4.956021542308748640e-02,3.977742830654129938e-03,-4.601246783864164358e-02,-5.207750113924861438e-03,8.294653147459030151e-02
-5.518556755416918758e-02,-6.111604616772894905e-02,-2.996491620321258265e-01,1.079597318967917763e-04,-1.987294774125632213e-03,1.320660252134543688e-03,2.415883839130401611e-01
-5.065304983253152149e-02,-4.066204313703282447e-02,-1.505096503895285431e-01,5.759734312408834774e-03,1.547289448202390436e-02,6.431488641325316946e-02,1.558710932731628418e-01
-6.207098385562631604e-02,-4.728264435456489001e-02,-2.983967823799766883e-01,8.467418327794951766e-03,2.504839927807404540e-02,3.916473329139784354e-02,2.574149072170257568e-01
-6.588829727608386255e-02,-3.714143686913300157e-02,-2.352206203917182603e-01,3.191623766289465678e-03,2.844757502237290660e-03,1.633600571837067611e-02,1.876779794692993164e-01
-4.509291275259028065e-02,-4.748694827247425254e-02,-1.116101289194999790e-01,-8.160357847288260413e-03,4.505640765311098167e-02,4.558424840334195094e-02,1.295948028564453125e-01
-7.524979398483569448e-02,-5.849764118782352362e-02,-3.080442643527007140e-01,-1.829285195296370811e-03,3.345432794202950547e-03,-1.894072732100772266e-03,2.417190223932266235e-01
-5.325939497818459045e-02,-5.662451278810612387e-02,-2.899114257272716877e-01,-6.200650582991068006e-04,1.051640593671959636e-03,7.504325491633349107e-04,2.350006550550460815e-01
-5.218464436414381458e-02,-5.309103859685901372e-02,-2.964779245727722778e-01,-7.512707315507534574e-03,1.614906598029852008e-02,-1.252174543175998446e-02,2.467401176691055298e-01
-4.026885667284740844e-02,-6.440947468626337380e-02,-2.800235075963424247e-01,-1.784956404975124268e-04,3.480399447276979249e-03,-5.795475125322951688e-04,2.287240177392959595e-01
-5.847217046751759795e-02,-5.779437136315210277e-02,-2.977435919165705158e-01,-3.100396544291822605e-03,2.225107015770500830e-03,1.210099258963681732e-03,2.397113591432571411e-01
-3.400408709350925818e-02,-6.204976261223947576e-02,-2.788797906190115250e-01,-9.556114649908182060e-03,-2.654937803939237673e-02,5.586777222696605316e-03,2.374134957790374756e-01
-7.141865131411613554e-02,-7.418540716837919435e-02,-1.685924311540704101e-01,-8.656184942058074705e-03,-3.262053673658994735e-02,2.333523596439001160e-02,1.192989051342010498e-01
-4.408647222540393318e-02,-5.321878405798366463e-02,-2.523399711020951619e-01,-6.479596662287549248e-03,-1.767009017156079970e-02,2.754833247502242594e-03,2.064860761165618896e-01
-4.962754532532753782e-02,-4.783790345894044227e-02,-2.901410158152205598e-01,2.872511868086723933e-03,1.103270880459395224e-03,3.338217489469790205e-04,2.414727807044982910e-01
-4.686445326281127310e-02,-6.049658700036866787e-02,-2.972162852216302387e-01,-4.715677582615889277e-03,2.777282524794228574e-02,-4.496668894075579737e-03,2.487778216600418091e-01
-6.749211711202833530e-02,-5.940738622960785309e-02,-2.956734181495143665e-01,4.626363637534235346e-04,-3.140740592683693294e-03,2.208283177541256123e-03,2.324257194995880127e-01
-6.248214598339167647e-02,-6.578093085104864957e-02,-2.904415883155723188e-01,2.433318550645002104e-03,-8.498237813502484842e-04,9.973522871055454618e-04,2.263786941766738892e-01
-5.856474176676332299e-02,-5.983060755613922588e-02,-3.032421303802995682e-01,1.412576814371078191e-03,-3.925085032270130003e-02,2.970715480609479806e-02,2.585233449935913086e-01
-6.625312715969419730e-02,-5.774859519499868366e-02,-2.983767797477510086e-01,-1.899510304848408973e-03,-7.626757968219052310e-03,2.360261345954584207e-03,2.369174063205718994e-01
-6.977094134758318744e-02,-5.659237754011461896e-02,-2.924458782201009299e-01,-2.658997496876298969e-04,2.992220422366617238e-03,-2.076698049776688065e-03,2.296352535486221313e-01
-6.113708430968373131e-02,-6.747959885320099771e-02,-4.441744048461045979e-01,-1.209833027320230715e-02,-4.188431976775732618e-02,2.950124042907030508e-02,3.906934261322021484e-01
-5.027945335268890759e-02,-5.736591069923335784e-02,-2.878897809981154632e-01,-3.780186179487330430e-03,-3.792607774880549926e-02,1.984847472742358454e-02,2.456928789615631104e-01
-4.685505054012681359e-02,-6.502938475633648907e-02,-3.076890845433828403e-01,-9.519905771997393910e-04,-4.532655303045191736e-02,-1.190933764346027365e-02,2.649828791618347168e-01
-5.811055760606480269e-02,-5.040711656111917377e-02,-2.241533430706801333e-01,6.460213802521296185e-03,-2.514421105896282038e-02,-6.038582311356397586e-02,2.046213299036026001e-01
-5.447996313858174955e-02,-5.119288719798498200e-02,-2.825410143911917249e-01,6.059143106669122661e-03,-2.448233819076663445e-03,-2.253423629100978834e-03,2.300340384244918823e-01
-6.158929843233637569e-02,-6.137579099508805314e-02,-2.609929912886083114e-01,-7.292067192169412494e-04,-5.209144510896736302e-02,-6.235019437721382729e-02,2.441500425338745117e-01
-6.246685214572749584e-02,-6.108168706968829242e-02,-2.137460768023455859e-01,-1.345914909715207816e-03,-4.497838435799998702e-02,-6.936681666945099245e-02,2.088222503662109375e-01
-6.145745206291694518e-02,-4.835403871066509818e-02,-2.931983564834830247e-01,3.145593062590304381e-03,8.192909524074735766e-05,-8.110889890531568225e-03,2.390380799770355225e-01
-5.929619849567482892e-02,-6.242764054154076314e-02,-2.920147827674099972e-01,6.271286650681609336e-04,-8.163924770778156065e-04,-2.187814745008689020e-03,2.312067002058029175e-01
-4.839382397432732963e-02,-7.240890970893951173e-02,-3.088027570720752735e-01,7.247098038041832266e-03,-2.951523480609603151e-02,-3.006237370390393415e-03,2.548213303089141846e-01
-5.955622071336533208e-02,-5.958426807640809786e-02,-2.934382464492631959e-01,-4.573189473947858463e-04,1.565448454627953439e-03,2.432538452299505723e-03,2.339230030775070190e-01
-5.022525546087147630e-02,-6.882239628496213124e-02,-3.206572401402062455e-01,4.468411228458533599e-03,-3.389668219406748173e-02,-6.884008088042881633e-03,2.685126960277557373e-01
-4.796579579560158318e-02,-5.344122873648921718e-02,-2.054483651951069800e-01,-1.721572412469400638e-03,-6.199330278625087010e-02,-2.791621996509297335e-02,1.945374011993408203e-01
-7.684410946860645297e-02,-7.376806818104389429e-02,-1.616966638262775369e-01,-1.875270722526462984e-03,-8.185349339762077814e-04,-8.103438148294096375e-05,8.650437742471694946e-02
-4.167440951504577940e-02,-5.741370667054479515e-02,-2.807276217928397211e-01,-6.230839842302431965e-03,-3.446150727207186217e-03,1.653599997500376957e-03,2.319308817386627197e-01
-5.425955265172491271e-02,-5.029730956149389143e-02,-2.589724412890932470e-01,-9.289861414029758346e-03,-7.038172673190016410e-03,8.355040451457287779e-04,2.077108472585678101e-01
-4.419814225361781701e-02,-6.409658363660625247e-02,-2.967775361340023732e-01,6.047912307777519522e-03,-6.644811935294892349e-03,-5.407142717892974432e-03,2.439185678958892822e-01
-6.495640401732355462e-02,-4.180332796005684082e-02,-2.718461477773270740e-01,-2.136449012803363901e-04,-5.246307707703095800e-05,1.163168273164259803e-02,2.203079611063003540e-01
-3.999871479974886901e-02,-5.825169389462708791e-02,-2.997103018121709539e-01,1.604713078426063186e-03,-1.023752856723341223e-02,1.041394017818522656e-03,2.517303526401519775e-01
-7.369393019119621635e-02,-6.484873422689318989e-02,-1.643635016439570495e-01,-5.408367888940477514e-03,-6.059110098979097418e-04,2.206174074386619763e-02,1.031998693943023682e-01
-5.936503433715467626e-02,-5.485842144904411188e-02,-2.565913495726235838e-01,4.336627231065107169e-03,-7.153788723548127129e-03,5.033914145870128920e-02,2.182186692953109741e-01
-6.403621028131672999e-02,-6.192526561761207970e-02,-1.794710734839600197e-01,-9.493411596117679735e-03,-1.580244703676995585e-02,1.419425425509315657e-02,1.232773214578628540e-01
-7.333203707233931778e-02,-5.663809334211425406e-02,-2.554885250313309597e-01,-9.491027798037447727e-03,-7.571855868334393704e-03,1.552859881640769081e-02,1.940779089927673340e-01
-6.440359958722820244e-02,-6.546227658337899769e-02,-2.968359847797110707e-01,-3.900964710614845867e-03,2.083244198052948328e-03,2.905805023712928776e-03,2.320858985185623169e-01
-6.708215760037183895e-02,-6.089340624163641635e-02,-3.053738304180606544e-01,-3.156266089606487614e-03,1.489190134635344151e-03,4.295644213172781015e-03,2.416357696056365967e-01
-6.089370699214566307e-02,-6.859410411731053925e-02,-2.907045739847823329e-01,-2.250590263226259595e-03,6.649025828584474718e-04,7.198636541541682818e-04,2.260990291833877563e-01
-6.696234609234923141e-02,-5.993466715569464864e-02,-2.898641773760698426e-01,-1.211816085258988346e-03,-1.092137918336427704e-03,-1.252509345975858814e-03,2.265254706144332886e-01
-6.247874150817347982e-02,-6.944540289134096267e-02,-2.904882400534398723e-01,-1.739873727796372935e-03,1.079944870627061763e-03,1.577225152461711683e-03,2.246518284082412720e-01
-6.240392569151562152e-02,-6.401331712348296010e-02,-2.897805075703450139e-01,-2.690111190287565023e-03,1.920018893947593311e-04,-3.254929834903889886e-04,2.266250252723693848e-01
-7.184667500006815255e-02,-6.166721978512673674e-02,-3.248883343755872843e-01,2.246381664282719529e-03,5.523051212660504833e-04,1.689151469639021529e-03,2.583295106887817383e-01
-4.233783224141356161e-02,-5.624327232138154331e-02,-2.898797273798544571e-01,2.318843112638561792e-03,1.864458498066867004e-02,2.846373092012721793e-03,2.431285083293914795e-01
-4.040987582382955801e-02,-6.053373111717010036e-02,-2.707615467997952496e-01,5.638075762905993792e-03,5.321734600305032953e-03,4.856095789151490191e-03,2.215454131364822388e-01
-4.419854487829973089e-02,-6.866685041183860638e-02,-3.000085061523878327e-01,2.735518199876424590e-03,1.407815122785544860e-02,7.343210046921283020e-03,2.460833191871643066e-01
-4.060856879105799455e-02,-7.022934309782263851e-02,-2.455927353848247341e-01,6.587304930761309595e-03,2.014770208164754980e-02,9.939512940052309606e-03,1.961337774991989136e-01
-4.030282282704264474e-02,-6.397056825365290966e-02,-2.781630763067605150e-01,-4.333584109034444368e-03,3.350186381200165407e-03,-4.067544834885951366e-04,2.271531522274017334e-01
-3.766513342147750909e-02,-6.270519690236570076e-02,-2.864105739894198255e-01,1.478596206027492149e-03,1.989104423341205193e-03,1.453418417764586971e-03,2.372708618640899658e-01
-5.745539607528295234e-02,-5.212554151977025207e-02,-2.880615724454702042e-01,2.164969165168930711e-03,-2.999934286254804690e-03,6.411474058316375506e-03,2.336687743663787842e-01
-3.400422545475179081e-02,-6.498083862685827272e-02,-2.831861144873376590e-01,-6.037785215065212541e-04,1.966202750836574566e-03,-1.005832277602365020e-04,2.352553457021713257e-01
-4.442055866074234860e-02,-6.036504322385494170e-02,-2.878804397169149043e-01,-6.782458579768627961e-04,2.967114897858559282e-04,1.919827203656038575e-04,2.358958572149276733e-01
-3.909101545905332986e-02,-6.082534454800937740e-02,-2.798573836243970492e-01,-3.803172284057177149e-03,2.447297718044729765e-03,-3.382490605136981581e-04,2.308021485805511475e-01
-7.149596298321450605e-02,-6.155764945148400891e-02,-3.269312195831652890e-01,1.268326063770675114e-03,8.735823687493348040e-04,-4.668538559340020986e-04,2.605615258216857910e-01
-6.666256122963173936e-02,-3.726628446314740606e-02,-2.513375796898050241e-01,3.315933522640519479e-03,-8.892123352832802079e-04,-8.764157367551015515e-03,2.016520500183105469e-01
-6.439139344495259376e-02,-6.349633068115557999e-02,-2.444462711765435503e-01,9.166818778159165765e-03,-1.259246424372373850e-02,-8.129596420177535561e-04,1.825143992900848389e-01
-4.574088547593378740e-02,-6.523951506978109549e-02,-2.162708593246840394e-01,3.362939448893321071e-03,-1.933947791338935102e-02,-4.430719217989745676e-03,1.653796732425689697e-01
-5.965208617690684334e-02,-5.890977695928602265e-02,-2.931907115910146189e-01,-5.088725838491921401e-04,1.402117427725729434e-03,-4.675973062025431601e-03,2.340650856494903564e-01
-6.018757515533955382e-02,-5.481511623632785712e-02,-2.937353407617950829e-01,3.903496083325674383e-04,1.338598305982083726e-03,7.798459520173379404e-04,2.362960129976272583e-01
-6.272154735047233420e-02,-5.094087735240332426e-02,-2.859924831313397364e-01,-1.864845627158479973e-05,-4.908714176680630849e-03,1.431332975890970555e-02,2.308806627988815308e-01
-7.538046046076540829e-02,-4.225674784101285386e-02,-2.749227979169726055e-01,1.886304049861470527e-03,-4.318832002759495636e-04,-1.019945795612829664e-02,2.187400907278060913e-01
-5.664955408306555917e-02,-5.520088803581230108e-02,-1.149638979719974224e-01,1.829256721101783995e-03,2.548685706475586205e-02,-6.806815389619089163e-02,1.390889585018157959e-01
-5.672899663694529887e-02,-5.736936723965647272e-02,-6.676989956203864540e-02,2.050296905868624099e-03,-1.405521426276325724e-02,-4.319632637304727379e-02,7.935884594917297363e-02
-6.065887622485286595e-02,-7.286472140313501877e-02,-1.979537401779794537e-01,1.070043176898419907e-02,-4.048128699119337565e-02,-3.079766722555430866e-02,1.594623923301696777e-01
-6.004244046692405051e-02,-5.869031875080142624e-02,-1.853449127996894819e-01,8.839153995303959677e-03,-2.463014573108496252e-02,-2.469164760843270152e-03,1.339573711156845093e-01
-5.030710657421092608e-02,-5.672985866454818144e-02,-3.518319385238667663e-02,3.300369743874853254e-03,1.707159768571129069e-02,-1.316666903568587503e-02,4.235800728201866150e-02
-4.619293554405641544e-02,-4.951640834873590608e-02,-1.341646615198623382e-01,-1.218123880325113579e-03,5.879366938943527549e-02,2.983800934597839391e-02,1.431892365217208862e-01
-7.143566026104652966e-02,-7.358896507402616638e-02,-1.801234039598531012e-01,-1.882163064367195666e-03,1.422915594702239654e-02,8.512666736147508299e-04,1.104709580540657043e-01
-3.678977551369326526e-02,-6.588873748997911561e-02,-2.648690429678680069e-01,2.470836466572746276e-03,8.643804458283766562e-03,1.016347567692050830e-03,2.155819833278656006e-01
-3.558134617153158041e-02,-6.488294812633416120e-02,-2.577707554696077041e-01,2.308897046698908488e-03,8.138917728632726056e-03,2.914671565762731557e-03,2.096578627824783325e-01
-6.080952517095300491e-02,-6.317871193301513588e-02,-2.128354838299240104e-01,6.553223568478284793e-03,2.895673217632871443e-03,8.448175018816454079e-03,1.520704776048660278e-01
-6.994076533640961046e-02,-7.003706924792557631e-02,-1.353760447332011396e-01,2.803193542128616894e-04,8.946738981029832977e-03,1.813072680360712507e-02,7.417561113834381104e-02
-6.503794136315624308e-02,-5.827701112770859726e-02,-1.498933883517977184e-01,5.832425131841041145e-03,-1.424458584365955252e-02,-2.741807249516503911e-02,1.038551256060600281e-01
-5.490909569315165911e-02,-4.584276854751537233e-02,-1.287520956074922895e-01,-3.199095420631323499e-03,-3.580453807326032523e-02,-5.920633044527958549e-02,1.435173749923706055e-01
-4.943155119047855373e-02,-5.033659802826494223e-02,-1.898945712288673815e-01,1.527042117113085011e-03,5.085487782346308910e-02,-7.665367536297448825e-02,2.121239304542541504e-01
-5.128758941425849011e-02,-5.975190002181972326e-02,-1.527531990946179863e-01,1.367176195998209484e-02,4.556254736951668993e-02,-8.017166361544843245e-02,1.886243671178817749e-01
-5.468291904060461339e-02,-4.706063492736858866e-02,-2.643461087705871182e-01,9.145216165810264239e-03,-4.789499288052051842e-03,-2.625332076445798662e-03,2.143717855215072632e-01
-6.299450384234209221e-02,-3.943108759080249381e-02,-2.737617700076832583e-01,4.601777149177959519e-03,-1.354822602459275493e-03,-1.365569303576005008e-04,2.236371189355850220e-01
-5.907298091622353864e-02,-3.620388377172556460e-02,-2.514052324661079085e-01,4.477451347007259212e-03,-1.258678129553906285e-03,-8.376019035601953849e-03,2.053984552621841431e-01
-5.470576936201847901e-02,-5.607258117622825055e-02,-1.950616583411424187e-01,8.388577124363610915e-03,-6.080801098631866825e-02,-1.965160767509666756e-02,1.788080185651779175e-01
-5.261268238605594505e-02,-5.274810313871233780e-02,-2.897372924755908241e-01,9.634093418369970001e-04,4.267283362308328058e-04,4.854215217696460842e-04,2.370654493570327759e-01
-6.299255226651120920e-02,-3.663721925656704403e-02,-2.825418122294287571e-01,2.663962559649801515e-03,2.393317210843274646e-05,-3.980956312337620082e-03,2.339906245470046997e-01
-5.561935487494057417e-02,-5.852710380529409229e-02,-2.838759949023966223e-01,3.062095929212332868e-03,-1.392507391069051394e-02,5.441930075855407750e-02,2.468604296445846558e-01
-5.408881061519449363e-02,-4.606269498707857291e-02,-2.863724221450827390e-01,1.145131356936266755e-03,3.915904385325341078e-04,-6.458749914927539503e-04,2.364108115434646606e-01
-5.802352127651470848e-02,-4.193055774600590313e-02,-2.862576959601370596e-01,1.572459530218557437e-03,-1.781892778125416458e-04,-2.494997692279808232e-04,2.367075979709625244e-01
-6.486197019393771801e-02,-4.083749535402872444e-02,-2.846804088669272481e-01,4.527293870297443429e-03,-1.225856015811192194e-03,-2.211990769314514053e-03,2.329356521368026733e-01
-3.843799849434584304e-02,-6.735579194777832623e-02,-2.688044144153479698e-01,4.365549836148051332e-04,-4.740362905782696161e-04,2.144572014213807186e-03,2.173896878957748413e-01
-4.037931069923035576e-02,-5.985377423778071027e-02,-2.748420987617581357e-01,3.792782838350998616e-03,-6.360255771477334695e-03,-1.733027335339433136e-03,2.257422059774398804e-01
-4.319136932659843608e-02,-6.973581195463382509e-02,-2.595159078235435568e-01,6.364380790825295217e-03,-9.386001510239150997e-03,-5.398457472860426765e-03,2.055041044950485229e-01
-6.495967507766908788e-02,-6.177255093114707163e-02,-2.890094389595303515e-01,1.110521787145409348e-03,-8.690314890753399408e-04,1.487626406253674503e-03,2.256881296634674072e-01
-4.076241660906798625e-02,-5.665715166068796549e-02,-2.836665093358662348e-01,3.953154116597480325e-03,-3.318634723930168843e-03,-1.635933308430977161e-03,2.355463802814483643e-01
-3.927947393518124719e-02,-6.179069896914558130e-02,-2.715251578348345518e-01,5.828634897035426046e-03,-4.666211757056950085e-03,-2.903398757246613247e-03,2.222818136215209961e-01
-3.688585230422114503e-02,-6.342056077957278215e-02,-2.822281335671072977e-01,1.297666710882825316e-03,1.394099162332764841e-04,1.549374697471539463e-04,2.332209795713424683e-01
-3.830753832238718848e-02,-6.261690994642249430e-02,-2.868581781372298023e-01,1.157947850805566290e-03,-1.503797697285156340e-03,-6.990094871493588314e-04,2.373573929071426392e-01
-4.280654700150476888e-02,-5.707003702032657777e-02,-2.690968521630566213e-01,8.318692027768557345e-03,-5.201657683870446539e-03,-3.728393730841365709e-03,2.202578932046890259e-01
-3.870641190824350431e-02,-6.322532343080591866e-02,-2.780955129612485144e-01,2.944968659692203273e-03,-2.858158376953507003e-03,-4.368672338051510923e-04,2.282320261001586914e-01
-3.871557571394626529e-02,-6.084667362792250955e-02,-2.865224326513093889e-01,1.275035038275994454e-03,-1.341654203948297987e-03,5.979026393560842251e-04,2.375397533178329468e-01
-4.100175042474998865e-02,-5.834411787446165676e-02,-2.851651156295750278e-01,2.559942189106517718e-03,7.505033208894642453e-05,5.008304120125510982e-04,2.360139042139053345e-01
-6.070777111818019545e-02,-6.399824344270071963e-02,-1.844112213255360566e-01,5.548153436101259384e-03,-1.924135475515791668e-03,-1.479741922215416228e-02,1.251665800809860229e-01
-3.777482957316058432e-02,-6.023121610457538716e-02,-2.519603969226667517e-01,1.052391347487583373e-03,-3.655920510165568127e-02,2.890857140540204189e-03,2.135603725910186768e-01
-4.909059962624810064e-02,-6.105209642583682428e-02,-1.870372622897270021e-01,7.694359900499887772e-03,-4.496646075391216857e-02,-2.026888029006561689e-02,1.581086665391921997e-01
-5.130371291365448672e-02,-5.998705153328081491e-02,-2.365566134758471384e-01,-1.003427949064020566e-02,1.218411262357605232e-02,-1.225260390180734228e-03,1.831320375204086304e-01
-7.549404423651126517e-02,-6.028217385132889766e-02,-1.999189422373127689e-01,-4.087314695413956332e-03,1.765871293260231224e-03,-3.627814661096170901e-03,1.330588161945343018e-01
-4.960730968643956712e-02,-5.861472836048577106e-02,-2.265261030346659710e-01,-1.009914267909065369e-02,1.118507088289483024e-02,-5.940290868379316351e-03,1.748569905757904053e-01
-5.380403322566815194e-02,-5.051040029070424930e-02,-2.570459474319319315e-01,-9.963723102888601135e-03,6.238100967492407264e-03,-1.151623626177912963e-03,2.059273570775985718e-01
-6.709813815158087447e-02,-7.336876621151650069e-02,-1.838341757093749640e-01,3.356318394783840229e-03,1.567131246569682113e-02,1.177280005129697615e-03,1.170868799090385437e-01
-7.084731895003787416e-02,-4.762371985132425600e-02,-2.444070746427941532e-01,6.195075835805360443e-04,-5.427745401145044361e-04,-1.892263812418981629e-03,1.862948834896087646e-01
-5.394625054516731522e-02,-6.926471474388497251e-02,-2.501688325083360476e-01,-8.247408518205684436e-03,1.609573930501147915e-02,-1.112327844882571824e-02,1.925735920667648315e-01
-6.135459680868392274e-02,-4.372176953114212394e-02,-2.614672491058558923e-01,-6.906420221114453056e-03,9.974424595349511841e-04,-4.761575496966765145e-03,2.099967598915100098e-01
-6.062314101542320283e-02,-3.975602329241531563e-02,-2.522038920268249163e-01,-6.616070445968860736e-03,5.071031348728794255e-03,-1.759690556952654000e-02,2.056058794260025024e-01
-5.338790447044243492e-02,-5.483769196487343900e-02,-2.932629185609518796e-01,-2.433101760808911544e-03,1.009199587028291115e-02,4.341552621696023045e-02,2.513411641120910645e-01
-6.102023262327768705e-02,-6.290049018184140639e-02,-2.875311694298886556e-01,-7.945659251927594336e-04,-5.389357466008442340e-04,-8.732734254828239265e-04,2.255878895521163940e-01
-5.493976334099112679e-02,-5.230565867810217651e-02,-2.900236266821235587e-01,2.498779658291498586e-04,-8.271167736420167961e-04,-1.069800800740602822e-03,2.364239245653152466e-01
-6.444781109146309472e-02,-5.768421380244558028e-02,-1.785979613502247654e-01,4.510290366433269277e-03,-8.603036662924316846e-02,2.405559130994777001e-02,1.945476382970809937e-01
-3.994160308625099853e-02,-6.901575741903659411e-02,-2.877466992122313938e-01,2.092742066977135509e-03,-9.076454824849679304e-03,1.296826616045728374e-03,2.351877540349960327e-01
-5.647957136301334780e-02,-5.797249507988411210e-02,-2.898414045602768496e-01,-1.602548470064464863e-03,-9.572660134229188725e-03,1.112551302354795012e-02,2.340203523635864258e-01
-6.458665246377422176e-02,-6.448224097863501647e-02,-1.641746868388426761e-01,9.531112055688571597e-04,-8.673465355183640479e-02,8.001071614632386877e-03,1.808083653450012207e-01
-3.722619878313959685e-02,-6.344023107314250565e-02,-2.820467612532761570e-01,9.115011005401078142e-04,-1.043081953320523173e-03,-1.744422463143709259e-05,2.328353673219680786e-01
-7.921140825764699800e-02,-6.322642888825055763e-02,-2.027173065863711876e-01,-1.412181677913663556e-03,4.126380483045527861e-03,2.415302943059231648e-03,1.325067132711410522e-01
-4.213337996305960287e-02,-5.805298100086281332e-02,-2.883977346542295761e-01,-1.888286155308119101e-03,1.040334258691271493e-03,-4.474829013352789921e-05,2.387322485446929932e-01
-5.960872744888010000e-02,-5.903490119293811067e-02,-2.894071564980201239e-01,1.628313248849304953e-05,6.273804333699668388e-04,1.109189469040031215e-03,2.300964742898941040e-01
-4.690674679330014696e-02,-5.850481598210952039e-02,-2.892321854044447305e-01,1.650089835203392540e-03,-3.822311041541223589e-04,-2.082360836360693462e-05,2.367577552795410156e-01
-4.562867580755311514e-02,-6.094231723806900480e-02,-2.837835192113954408e-01,8.476499546112646610e-03,5.526447790166231361e-03,7.834668760374068107e-04,2.315474897623062134e-01
-4.903811724688922347e-02,-5.879200781947892251e-02,-2.900751051628374100e-01,1.842116725669777069e-03,1.646152961077608891e-03,-7.301317432334378677e-04,2.363531887531280518e-01
-3.897178863049727271e-02,-6.513984958211394005e-02,-2.865187795606861654e-01,-4.354999920987060943e-03,4.092905946140782888e-03,1.432561648838210321e-04,2.357831001281738281e-01
-5.338105329597986337e-02,-6.082900757739519160e-02,-2.914470720950143035e-01,9.622148503941776836e-05,-1.905226202037507591e-04,-1.700182041242978169e-03,2.344495803117752075e-01
-4.427480715103954134e-02,-6.366913599223633646e-02,-2.910081918715363702e-01,-2.371958422996773614e-05,6.673256113148705489e-03,2.251547329133607098e-03,2.379434406757354736e-01
-3.623925407357783679e-02,-6.453562575265256451e-02,-2.855132340548943715e-01,-1.887384930642828785e-04,3.675372459524332315e-03,6.073911184816390904e-04,2.364876121282577515e-01
-3.874357225488639367e-02,-6.316789570887630656e-02,-2.816836738996325584e-01,3.037222162899076618e-03,5.002616761316882460e-03,5.714610509352242417e-04,2.319192141294479370e-01
-6.785950345884148027e-02,-7.112259568408726973e-02,-2.210211840877751022e-01,-1.809371183480067233e-03,7.229472205798644080e-02,5.335121325456364250e-02,2.172506004571914673e-01
-5.658086582167270312e-02,-7.070047553471839330e-02,-2.199518368292432136e-01,-7.628188547956960995e-04,1.231452007801586007e-02,-7.973992434333883154e-04,1.582444310188293457e-01
-4.690825072084438274e-02,-6.357827971621288210e-02,-2.710200959247680563e-01,2.716242320060608447e-03,1.825023810125401408e-02,2.517631084969047632e-03,2.186513692140579224e-01
-5.560719398827976279e-02,-6.647015896012933855e-02,-2.501735773748287039e-01,-1.385205673256055710e-02,4.283606217304314345e-02,-5.536631556575025842e-02,2.261354029178619385e-01
-4.665345779554158634e-02,-5.292463866282012819e-02,-2.849284368497992936e-01,-4.237048939043478487e-04,4.501527807415799803e-02,-3.415651828842553635e-03,2.478602230548858643e-01
-4.990045920101499055e-02,-5.782115553070474312e-02,-2.898987534882976336e-01,-2.407468530577767767e-03,1.769793394127350955e-03,1.596548240171049974e-04,2.361944615840911865e-01
-5.727235790107640390e-02,-4.902976803548739215e-02,-2.872767793437399630e-01,-6.489965923143297365e-04,8.016070430447539297e-04,8.796144391372178253e-04,2.342462837696075439e-01
-6.459523289214291752e-02,-5.590600440990134423e-02,-3.142044690706033983e-01,-4.665774766525026748e-03,-1.707559852132069234e-02,2.745601209064052819e-02,2.602896690368652344e-01
-6.652007971157197774e-02,-6.449085408384389040e-02,-2.910102780196338057e-01,7.543745578274856090e-03,-2.580698379028119319e-05,-2.333093384827875354e-03,2.259260118007659912e-01
-5.972494153661135619e-02,-4.744149379205378492e-02,-2.841629404819114857e-01,-3.500606051762130896e-03,-2.346827835624595675e-03,4.368066372307714482e-03,2.310642749071121216e-01
-6.125369717417389337e-02,-5.623678966878278840e-02,-3.074198768398590520e-01,-1.260631060044762643e-02,-1.280061896080516085e-02,2.224372552637005063e-02,2.535953819751739502e-01
-6.457392310058530926e-02,-6.211211347076324440e-02,-3.758849066138657546e-01,1.320011518071298592e-03,-6.189936342436146849e-02,-3.116602406553904258e-03,3.304783403873443604e-01
-5.904531596263562498e-02,-5.873664848265125471e-02,-2.892427158883363880e-01,2.527803588784538393e-04,-1.026626174283664424e-03,9.296687267465782037e-04,2.303647994995117188e-01
-6.533439299772604569e-02,-6.082229232143954167e-02,-2.917530131248019520e-01,-3.889739105918904420e-04,1.691083667378443216e-03,2.102587470178102127e-03,2.287567853927612305e-01
-6.253601359585500563e-02,-6.283716108957869417e-02,-2.999448354569149711e-01,-2.884546630299498343e-03,7.011058881456151692e-03,3.909916538047272794e-03,2.377179712057113647e-01
-7.741787499777724735e-02,-5.953585386225962450e-02,-2.991600989290142953e-01,-2.552801113018188066e-03,-1.900709813002397384e-03,-1.581234515795709901e-03,2.312843948602676392e-01
-5.489703661823597258e-02,-6.402792912381267965e-02,-2.897853546523477264e-01,6.486060534874043149e-04,-1.148996881359967519e-02,4.710751378150277585e-03,2.314628511667251587e-01
-5.990228962437187110e-02,-4.847391826204813792e-02,-2.888471616322261237e-01,4.871587519638858124e-03,6.544272926025424160e-04,9.972259223602567696e-03,2.356557846069335938e-01
-6.061782241432399354e-02,-6.683392646012709104e-02,-2.940215424631079655e-01,-1.271115635505476547e-03,1.450234519633478072e-03,2.221240334757111114e-03,2.304149121046066284e-01
-5.366750744355849867e-02,-5.581874610717807439e-02,-2.908844588696625211e-01,-1.910296044804345693e-03,-9.579107142789235196e-04,1.085974120252774719e-03,2.361851781606674194e-01
-6.175344505414948060e-02,-6.959528542168891274e-02,-2.925603912526882899e-01,-4.442637165512887398e-03,-1.681579697256540477e-04,-1.253436278350301492e-03,2.271285951137542725e-01
-7.776128502653431585e-02,-6.611571858385016653e-02,-1.656011186478810460e-01,4.393786626068143727e-03,3.961129194207050480e-03,-3.334821463294057597e-02,1.109761148691177368e-01
-5.076112412155300152e-02,-5.501660350347183093e-02,-1.895697599574659442e-01,-1.357947413992901566e-03,-2.751152475542046824e-02,-6.482284845574240451e-02,1.832414716482162476e-01
-6.060868765752808196e-02,-4.192568479616215482e-02,-2.685866154574137465e-01,7.775829833906007342e-03,-5.298464900437534555e-03,-7.218597624495320247e-03,2.188868671655654907e-01
-7.810260771418497949e-02,-5.561166437522430117e-02,-2.864277818625884375e-01,-5.773824743264244740e-03,-9.240513108897140115e-02,-5.511893814266599634e-02,2.888270616531372070e-01
-4.447786762346114808e-02,-5.697479191067233995e-02,-2.793295968949209840e-01,-4.321533206238227683e-03,3.513301231762564359e-03,-1.186147558247226683e-03,2.290717363357543945e-01
-5.808942567013247738e-02,-4.316977598890234247e-02,-2.793019633317794792e-01,6.677331266774913683e-03,2.758578550470562824e-04,-7.241838698179992723e-05,2.293294519186019897e-01
-4.267584698089717243e-02,-6.157726653165793845e-02,-2.041150972558045673e-01,1.117475025012574195e-03,-1.749796963135764188e-02,-1.483115252672735293e-03,1.558760553598403931e-01
-6.845072036032440188e-02,-4.353820616529884002e-02,-8.584582995034681363e-02,-6.973463664402963259e-03,2.134827482322464165e-02,-2.173733381810929316e-02,6.547708064317703247e-02
-6.069159976021380742e-02,-4.054312038714980027e-02,-2.776445666963944237e-01,-5.175704825753362978e-03,3.078004420327252674e-03,-9.261202069747759280e-03,2.284992784261703491e-01
-4.635769789885145487e-02,-5.192531135228592443e-02,-2.830104012284894166e-01,-7.592198291386732974e-03,9.344296744177466377e-03,-1.644615968849572497e-03,2.348635643720626831e-01
-5.778918464828855517e-02,-5.901906515429242162e-02,-2.889925293945344587e-01,3.918282252078100319e-05,-3.294937888263484095e-04,6.771525966489794473e-04,2.305945605039596558e-01
-5.745640494619672078e-02,-4.207607701649918042e-02,-2.880531207385783610e-01,-1.879489161113785970e-03,7.155531632880571865e-04,-1.187265023297888857e-03,2.386931329965591431e-01
-5.526434693830437062e-02,-5.890351141337857310e-02,-2.903302567512799914e-01,-1.118630732803894403e-03,-1.178036285957240453e-03,2.107016364431027640e-03,2.333131283521652222e-01
-5.698571848183081601e-02,-5.857556688867171513e-02,-2.906954808377021915e-01,-3.404025046437420075e-04,-9.359707212936249241e-04,1.945264410851315143e-03,2.329496592283248901e-01
-5.752625028457267198e-02,-4.986682610751189126e-02,-3.135758188825188419e-01,-2.934456270554512605e-03,1.398262406141213658e-02,-3.284805843976128237e-02,2.672650516033172607e-01
-5.767775509547259927e-02,-5.775294781148826440e-02,-2.887039486521111864e-01,-3.508336864211964064e-04,-3.698270373733295101e-04,5.105549582186772340e-04,2.309919893741607666e-01
-5.930052862748169673e-02,-6.089956014346212254e-02,-2.896963123464536549e-01,8.185692868365899641e-05,1.307560448001461595e-03,6.609388087355512042e-04,2.296145111322402954e-01
-5.916544189454284175e-02,-5.701196894736451637e-02,-2.934400299215050301e-01,-3.454885194059458486e-04,1.975483950407142843e-03,-1.745310125185059935e-03,2.354037612676620483e-01
-6.988234614352074880e-02,-6.147515593224518737e-02,-2.900164854621390953e-01,-1.087386423014194935e-03,7.218647196369754569e-04,1.067025313366145841e-03,2.244748473167419434e-01
-6.731141108077766388e-02,-6.237256216699141320e-02,-3.007922711922319525e-01,-2.042281803307236659e-03,3.868845915990532219e-03,-3.236191400488470644e-04,2.361113280057907104e-01
-6.265350479977593867e-02,-6.155430824602581286e-02,-2.880181278708174863e-01,-2.386241923687035379e-04,7.317564504907455832e-04,1.247552643132201870e-03,2.259304970502853394e-01
-8.323774300422007166e-02,-5.804306691812523289e-02,-3.465652046646218176e-01,-3.989974199969825719e-03,5.687412059963938742e-04,1.459763165524139306e-03,2.768857181072235107e-01
-6.690663272998451094e-02,-6.289556131502718750e-02,-2.904388005868083211e-01,-3.941444859320379288e-03,-4.162863447549507482e-04,-1.480103704992703838e-04,2.256690263748168945e-01
-4.560563111871859809e-02,-4.844660538261438831e-02,-2.854803770118341522e-01,9.596719533797874041e-03,-4.523389716176619280e-02,-5.209451273235936319e-02,2.672500908374786377e-01
-4.689039860320795561e-02,-5.433222007643001561e-02,-2.892594171489114574e-01,1.293317178164602420e-03,-2.332792469367103177e-05,-3.202903194568646730e-05,2.387456297874450684e-01
-4.896637651642368749e-02,-5.052881475320813998e-02,-2.877858476875341243e-01,3.675101316152226856e-03,-1.224859709336849258e-03,-1.523257877027466576e-03,2.381512522697448730e-01
-4.140613052175878828e-02,-5.852461101005190791e-02,-2.866020108241321696e-01,1.704793524460595632e-03,-5.285377001215127782e-04,-3.153054340054590576e-04,2.371213585138320923e-01
-4.622829371989498060e-02,-5.427567830996789244e-02,-2.894513228092592816e-01,1.250204065452209827e-03,-2.238518778295848827e-04,-2.134847299913840500e-05,2.393109500408172607e-01
-4.799986573530540257e-02,-6.192354814732409229e-02,-2.895616331254048936e-01,5.191630527297356849e-03,-4.380950692443066202e-03,-2.792458000554481207e-03,2.352538108825683594e-01
-5.827552594172784317e-02,-4.428345963844645961e-02,-2.804730647952480282e-01,4.242820701646013437e-03,-5.796804187220597985e-04,-2.020616503165265782e-03,2.296601533889770508e-01
-5.743957259547607941e-02,-5.105088536391030885e-02,-2.863750696341396118e-01,4.004557864005739085e-03,1.364912118695089807e-03,-1.287316071556032088e-03,2.323220670223236084e-01
-6.286901191684125811e-02,-4.861799027112287397e-02,-2.968934585308953267e-01,9.096903411947635659e-03,-3.778532636931484362e-03,-2.424807121842887520e-02,2.456839829683303833e-01
-6.322428992181161611e-02,-4.001760862422740206e-02,-2.746968497036808565e-01,4.499845685164193324e-03,-1.486208992205881188e-03,-8.846275300456476337e-03,2.246528714895248413e-01
-4.398128482784084692e-02,-5.464258242442590618e-02,-2.877533933966460733e-01,-4.639920767888990744e-03,1.004133102001502232e-03,-1.101754393393115754e-03,2.387694120407104492e-01
-6.355229899333961208e-02,-3.957584445204606616e-02,-2.772345703781691206e-01,4.517627998159349199e-03,-1.402512120667062136e-03,-2.774400869911265201e-03,2.268227189779281616e-01
-5.527880758649458826e-02,-5.899018755806673120e-02,-2.914848229225990850e-01,-1.139821650190060709e-03,-1.162111761754609221e-03,5.161671433517311947e-04,2.343910336494445801e-01
-6.215627244069039936e-02,-6.323956468285460431e-02,-2.890864036538157711e-01,2.380470925440655080e-03,1.731528122491228505e-03,-7.993027038906922593e-04,2.264520674943923950e-01
-6.096668516459941012e-02,-6.074809143595899519e-02,-2.889056419061333258e-01,1.204672840487855476e-03,-1.211651121854164350e-03,1.153672738062844980e-04,2.280676215887069702e-01
-5.819688275752826767e-02,-5.896861348212072140e-02,-2.899467416252865526e-01,-6.726312133146016101e-05,-7.687868504470978708e-04,7.574473116202927892e-04,2.313725352287292480e-01
-5.171559590355573333e-02,-5.137819969125745345e-02,-2.912093853695374435e-01,1.200947993823667844e-04,-8.026541046390845910e-05,-2.905315689226056547e-04,2.396633177995681763e-01
-6.045064150351747712e-02,-5.961623813072716715e-02,-2.908564180711318281e-01,3.319238545630738145e-04,-1.788256159377710468e-03,1.255735671034631084e-03,2.308558523654937744e-01
-5.567709712288812507e-02,-5.421252503246862253e-02,-2.897333073529535508e-01,5.387436048624082629e-04,-3.036382332639451221e-05,-3.575526428810138534e-04,2.347946017980575562e-01
-5.401168356167729279e-02,-5.384553734650188161e-02,-2.908204892528520880e-01,4.817641981376573541e-05,-5.384250678473452914e-04,4.211167127277077693e-04,2.368948906660079956e-01
-6.006445341452128217e-02,-5.749603303587572101e-02,-2.902841091684648100e-01,-1.717418740363120706e-04,-1.778444020488916888e-03,1.049670134236539362e-03,2.315423786640167236e-01
-5.605595305247706994e-02,-5.302491801849333608e-02,-2.910045396899799131e-01,-9.265743815292351755e-04,-1.090484325935235253e-03,5.198414419235227856e-04,2.364933788776397705e-01
-4.875693933569716365e-02,-5.298625849317695202e-02,-2.903331968969004029e-01,-6.353433348877378936e-04,-3.333293597965243812e-04,-3.812786913968935313e-05,2.394928485155105591e-01
-5.695753490824412291e-02,-5.874063517649738553e-02,-2.896045954322375993e-01,-5.506561532249878814e-04,-5.378547989421226822e-04,7.460845804718788370e-04,2.317680865526199341e-01
-5.678145849957264013e-02,-5.906722549403756184e-02,-2.915757835558188127e-01,-1.359712010946215080e-04,-1.816489672811955362e-03,1.756806168782455106e-03,2.337009310722351074e-01
-7.218618391706110859e-02,-6.093698036991165856e-02,-2.919996771226032184e-01,2.510610235790750999e-03,3.371883813752701072e-04,-2.798289070906050807e-04,2.256916612386703491e-01
-5.433648523932445296e-02,-5.905174741909928471e-02,-3.764179194650331683e-01,7.626120913244321432e-03,2.956616570143076259e-02,-4.700917834199949338e-03,3.241962790489196777e-01
-5.562247554362290125e-02,-5.694298896001204202e-02,-2.816854679079612289e-01,-2.701886800946350174e-03,-3.578307449717043481e-02,2.465923084336356721e-02,2.376870214939117432e-01
-4.980460101771774784e-02,-6.052044351045499093e-02,-3.858762682221541507e-01,-3.416487585337578056e-03,-5.249428722444276704e-03,-1.666611267144847350e-02,3.322780132293701172e-01
-5.642429733258130797e-02,-6.090058601919157155e-02,-2.948441627578817226e-01,1.427390839170097946e-03,3.868139383304843200e-03,2.649748023099945515e-03,2.363660186529159546e-01
-6.415979922743642039e-02,-6.584443396369180079e-02,-3.398628502952451003e-01,3.190956572731621678e-03,1.637793259790949751e-02,-4.783330159882125121e-02,2.885305583477020264e-01
-7.794123553947937544e-02,-6.237586921987769983e-02,-3.121729742855204881e-01,6.464863741119796989e-03,-3.843752202776776466e-03,8.168565652330082123e-04,2.427434772253036499e-01
-5.935878448761996995e-02,-5.932575740397771913e-02,-2.897096445444211632e-01,3.434498612395326094e-04,2.121611614858387104e-03,-1.208768135261129809e-03,2.304069697856903076e-01
-6.663877687285293949e-02,-6.583846560830043659e-02,-3.006554101699393522e-01,4.299899422849067648e-03,-6.811619317157840666e-04,2.005327106028335742e-03,2.345647811889648438e-01
-5.939181500783476120e-02,-5.942431006245990632e-02,-2.909086658994973762e-01,-9.503512437952526171e-05,1.340781555920795599e-03,-2.364630116267505550e-03,2.315485328435897827e-01
-6.723680123111969165e-02,-6.745351808920643788e-02,-3.454021939942264474e-01,6.516506205092927051e-03,5.564891277630399117e-04,-8.647604910737425503e-04,2.782917916774749756e-01
-5.353777668303585924e-02,-4.923495087520099456e-02,-2.904752642400283413e-01,-4.147038306828245563e-03,-1.687202831909785297e-06,1.105076956741453831e-03,2.392334491014480591e-01
-5.415061065132968643e-02,-6.245832910029647245e-02,-3.359439041189937192e-01,4.771369394206425446e-03,7.733423855125632317e-03,-1.728253048796515564e-03,2.781943380832672119e-01
-3.888804595966005584e-02,-4.468239728081735418e-02,-1.797401358015431605e-01,-2.853629872123263685e-04,-4.610444893485993179e-02,5.111946287590562327e-02,1.824100911617279053e-01
-6.575849637201217068e-02,-4.870509447454499791e-02,-2.129953659969592850e-01,-8.511611038200972423e-03,-1.238158445444143864e-02,1.144242754788016118e-02,1.598450690507888794e-01
-6.567297941201484524e-02,-4.821499759347238484e-02,-1.845553438913693223e-01,3.667257313741870313e-03,-7.167787048625426372e-02,4.840752005609663677e-02,1.974755823612213135e-01
-7.729012287137029813e-02,-7.301471760251906917e-02,-1.878570757582691542e-01,-8.524514262803060960e-03,-1.034123690468698870e-01,-3.596925760576491493e-02,2.211283892393112183e-01
-5.089897520116243301e-02,-5.107587470142954666e-02,-2.909101990456128828e-01,1.307135923858409546e-03,2.917100065216624797e-04,-4.646872234932513898e-04,2.399353832006454468e-01
-5.091222441162801537e-02,-6.519188544319920453e-02,-2.798823263086042124e-01,-5.365927836091304200e-03,-6.241138567775420670e-02,2.495223340951619254e-02,2.510007321834564209e-01
-4.724880205969275715e-02,-5.622914558573491317e-02,-2.664812207926877674e-01,-9.239206021459483303e-03,-8.520800174054918297e-03,4.074653460376797577e-03,2.160981893539428711e-01
-5.866261603421323023e-02,-5.065634760148256255e-02,-2.576165965370633137e-01,-9.403243391708870566e-03,-2.865016873628108834e-03,8.077012380893446508e-04,2.037928104400634766e-01
-4.912814037851340188e-02,-5.102808219462097450e-02,-1.783380290522145195e-01,4.849096341948428562e-03,-2.367966920422907851e-02,6.399554406343052615e-02,1.746205091476440430e-01
-7.092197235410746536e-02,-4.881001846581783932e-02,-2.431521713283158470e-01,-3.271074259362514221e-03,-4.412896223746468755e-03,-2.541433879312907269e-03,1.845817565917968750e-01
-5.947611235967523169e-02,-5.712110285548285815e-02,-2.910816884283487505e-01,-2.521094707564066565e-04,9.439492166976511675e-04,5.972523860381596028e-04,2.328004688024520874e-01
-6.653781872041976408e-02,-4.963950610172603028e-02,-2.215713149159185547e-01,8.437056704767083304e-03,9.528725667765712559e-03,1.636213205272431942e-02,1.680173873901367188e-01
-7.020417298898953828e-02,-4.594955846547045530e-02,-2.150844982009632034e-01,-5.571928494682992783e-03,4.765121450048657612e-04,1.671058110125364649e-02,1.613200604915618896e-01
-6.071258782420507760e-02,-4.966416235037202087e-02,-2.990540675542142091e-01,-3.824919738399624406e-03,-4.896519647111924594e-04,5.630380019370473041e-03,2.443393915891647339e-01
-5.137777793252301661e-02,-5.821503464119506810e-02,-2.898347963797197058e-01,-2.853652467549156000e-03,1.365960478873291979e-03,8.861654848299169466e-04,2.351818233728408813e-01
-6.348261934219452673e-02,-5.952415291128713981e-02,-2.245750887322397471e-01,6.833264522331932399e-03,5.119577278984274726e-02,4.473351943207362624e-02,2.015204578638076782e-01
-5.175317060434632410e-02,-4.979856736978717502e-02,-2.433646227579017163e-01,1.124163714793020505e-02,-1.739281829662423645e-02,-1.467959570702036644e-03,1.959245055913925171e-01
-6.186563120339093336e-02,-6.055538503158608421e-02,-2.905917620468770890e-01,-1.175920997005552556e-03,5.417838114099848834e-04,9.674778283576064737e-04,2.294011414051055908e-01
-6.368935557002469716e-02,-4.710735155661684159e-02,-2.423983571870650111e-01,-7.830446521642383390e-03,1.984727337307862563e-03,-1.137943129169505588e-03,1.880820989608764648e-01
-6.315852501905178107e-02,-3.932321698043519942e-02,-2.874985805778565995e-01,2.240069586492452608e-03,5.131267353779328435e-04,-2.588887214127583505e-03,2.372335344552993774e-01
-5.195471492228007082e-02,-5.032595038555373601e-02,-2.870431453421256052e-01,5.731969581644951774e-03,-3.990793392683246454e-03,-4.479209014130001477e-03,2.363443672657012939e-01
-4.939266477506244063e-02,-4.772655050179722136e-02,-1.043945330050397302e-01,-9.046279733694614997e-04,-2.660715531541641560e-02,-6.415684152945894114e-02,1.326431334018707275e-01
-6.991279140865390429e-02,-4.966845606009853697e-02,-2.070608867354003513e-01,2.364557162158367233e-03,-8.024531279350159436e-04,-1.830372900762752136e-02,1.517224162817001343e-01
-5.516291713524584805e-02,-6.143302402409502733e-02,-2.540024647089567100e-01,-1.071629029139381517e-02,-3.646790035109463701e-02,3.717517892482440078e-02,2.163560837507247925e-01
-5.862982927106318715e-02,-5.374963979856272472e-02,-1.230512049362365579e-01,-5.478242212170626041e-03,-4.630903463440821238e-02,4.674183885359629170e-02,1.325380355119705200e-01
-5.297641038375779099e-02,-6.141580988821113141e-02,-2.389845622712535866e-01,-9.213818415749207985e-03,-1.106890611070559215e-02,9.630452656405900837e-04,1.836449950933456421e-01
-3.712888579203008077e-02,-6.421869054009121669e-02,-2.869614102826911761e-01,3.068985626747331428e-04,-2.131857160513400771e-03,5.547636960154830963e-04,2.374806851148605347e-01
-4.064021446904131363e-02,-5.778462731975873845e-02,-2.872663487445805686e-01,-4.422392386811970291e-03,-7.018971262468368805e-03,2.271487248070800866e-03,2.389813214540481567e-01
-3.655634073101615700e-02,-6.252862575788814548e-02,-2.811892132053698257e-01,-2.193451513232043577e-03,-5.784143357254834805e-06,-1.639992709501928510e-04,2.327673584222793579e-01
-3.492257389431507875e-02,-6.461604988264020577e-02,-2.805371187842063407e-01,-2.395996874546765527e-04,1.801958155251996089e-04,1.352094756222345487e-05,2.321967482566833496e-01
-3.571719082098177844e-02,-6.446961457337102575e-02,-2.827768953640516503e-01,-3.544600400807632165e-04,-9.116372075123665292e-04,1.724216200463842940e-04,2.340183556079864502e-01
-3.653116351305266130e-02,-6.731851817798242821e-02,-2.425397613310326106e-01,-3.299515980068153630e-03,-1.137537316474756741e-02,-1.905437490069339715e-04,1.935611218214035034e-01
-3.576267583951392437e-02,-6.530778198468181750e-02,-2.758318647990524175e-01,-2.065845477981819237e-03,-4.592519992624344467e-03,8.338571454151204787e-06,2.269126176834106445e-01
-4.643475179406593434e-02,-5.697855913394830885e-02,-2.704824748667083445e-01,7.280003012870811356e-03,-2.012388914944304719e-03,-9.099943382066887987e-04,2.193624079227447510e-01
-5.066117040110186542e-02,-6.438705607932683483e-02,-2.267588178084914419e-01,-1.052236911694085474e-02,-1.377316274005608958e-02,5.427279327078569221e-03,1.725436598062515259e-01
-5.285538729052662033e-02,-5.280983900741129111e-02,-2.914462295635582012e-01,-2.596677041514531756e-03,3.357500704449277798e-04,2.270218823435805647e-05,2.386567145586013794e-01
-5.440922644778645179e-02,-5.239060449234990424e-02,-2.918995903992927521e-01,-6.525781945291221631e-03,-1.602777548388200951e-04,-3.286278590224810114e-03,2.388417571783065796e-01
-4.581274981972058291e-02,-5.451724205954973368e-02,-2.813526700998747465e-01,-4.243173394561666582e-03,2.741182754345765100e-03,3.043079351668421563e-04,2.314765602350234985e-01
-5.840660356172404366e-02,-5.946993397308625307e-02,-2.892507763602761850e-01,-4.160356002842565846e-04,2.465591749319220315e-05,-3.771686224735126998e-03,2.304081171751022339e-01
-4.980731657221358633e-02,-5.183760291902622663e-02,-2.913290075939598545e-01,-7.931141829178964698e-04,-2.366672117836486177e-04,-2.340241822959327107e-04,2.405175864696502686e-01
-5.893905566794802042e-02,-4.354417139349753274e-02,-2.849226013192068252e-01,-4.470349505096431891e-03,2.964283071562026552e-04,-2.012635922768216470e-03,2.342155426740646362e-01
-5.967313534419776966e-02,-6.685154320232858383e-02,-2.907504929123669868e-01,1.386442395394805321e-03,1.740572588639851290e-04,-7.458519615042786058e-04,2.275896221399307251e-01
-5.264532051822697067e-02,-4.810933275918512220e-02,-2.900836463530716003e-01,-8.063039563272054360e-04,-4.458095258052594944e-04,1.053269039527569275e-03,2.397507578134536743e-01
-6.340455592267744966e-02,-3.499541195475844302e-02,-2.804083909053914359e-01,-5.535182196838697504e-04,-5.840829428858729851e-04,2.093732279304331458e-03,2.325461953878402710e-01
-6.204084209299645658e-02,-4.679428151272693737e-02,-2.889934397495117491e-01,-6.622877566611627513e-03,6.059348635053906154e-03,-1.232795902857251880e-02,2.364272773265838623e-01
-6.513714631569653135e-02,-6.288823611126884150e-02,-2.016092734288945920e-01,-7.125899037298986591e-03,-6.612684987777006640e-02,-5.493461110510802076e-02,2.031272053718566895e-01
-6.826402766620692786e-02,-4.766016618086689471e-02,-2.197809864547174419e-01,2.060581788809420691e-03,-2.584457498368958328e-02,-6.387146055396392130e-02,2.018885761499404907e-01
-6.974572560390848719e-02,-6.665293416901853230e-02,-2.271914475832003677e-01,-6.302027627557586602e-03,-7.281900568374195803e-02,-8.001921025619489203e-02,2.460119128227233887e-01
-5.456335025347085199e-02,-4.875711874610660912e-02,-2.842734694346471525e-01,7.998152827358237169e-03,-2.880155205589995677e-03,-4.027576088638316031e-03,2.332373559474945068e-01
-6.769588033693035856e-02,-6.519540008387739172e-02,-1.667806017069894398e-01,-2.997794085361749593e-04,-7.084829938625028523e-02,-5.166677552248762767e-02,1.820408552885055542e-01
-7.001434796732072807e-02,-5.900767998657033275e-02,-1.861736402035007176e-01,-4.968596914102894543e-03,-8.558769397802712398e-02,-4.125172880447806889e-02,2.050550878047943115e-01
-5.973058917816215230e-02,-7.173958448219917849e-02,-3.021672161821676861e-01,-3.179945352907213862e-03,2.100501468117042369e-03,1.742657188787008699e-03,2.367720305919647217e-01
-5.505587869245082144e-02,-5.245560729093159957e-02,-2.870311939824762293e-01,3.539006597844629193e-03,-2.683238744224389696e-03,-3.618255747977185306e-03,2.334972321987152100e-01
-5.695927743517875674e-02,-5.870518875983327112e-02,-2.931184362042118519e-01,1.506162891261970819e-03,1.014196486710262999e-03,2.171084150730462174e-03,2.353421300649642944e-01
-6.105362137453138049e-02,-6.321425158641205688e-02,-2.886319155119563828e-01,-9.510692450426953338e-05,1.297768184241318741e-03,7.800414840264527968e-04,2.265209555625915527e-01
-5.627228536991844832e-02,-5.530870573776947019e-02,-2.890431974550396466e-01,2.628194187356532562e-03,-5.641438170583264015e-04,-5.633674013742894383e-04,2.333026975393295288e-01
-4.911557562415301559e-02,-6.219565542796887114e-02,-3.049067139752218991e-01,4.035176867859991030e-03,-7.941247115311109855e-03,-6.011241907011786491e-03,2.502016723155975342e-01
-5.988229545330814307e-02,-6.145031454239389956e-02,-2.885862318312561459e-01,-1.781464220527593329e-03,-3.358177935407988539e-04,7.782324411400570047e-04,2.279495894908905029e-01
-7.242290792519406883e-02,-6.525489426632830048e-02,-2.933228126749911624e-01,-6.143955061955876616e-03,1.336402313968179136e-03,1.148343839618269245e-03,2.248424291610717773e-01
-6.664173870860998217e-02,-7.111740004344725696e-02,-2.927773108817013359e-01,-7.030344192810993736e-03,1.226808783652580566e-03,1.135457089872914105e-03,2.242808043956756592e-01
-4.612494985009929493e-02,-6.134234951732417396e-02,-2.900494596298150984e-01,1.589958917524511703e-03,-2.800938195243695555e-03,-8.262240386886372237e-04,2.367530465126037598e-01
-6.572267797509143139e-02,-6.140142273523485628e-02,-2.877566469892351986e-01,-1.295371864986081265e-03,-6.491053971266813388e-04,4.005850780069454271e-04,2.242409437894821167e-01
-6.906478429526244356e-02,-6.072473037837913812e-02,-2.896520885960893743e-01,-2.371736368555265456e-03,-4.518914954906281286e-04,7.337775756648911001e-04,2.249158322811126709e-01
-6.543566534596928497e-02,-6.138141710771369275e-02,-3.283833859112715858e-01,3.671870202515834436e-04,-3.239239474601349634e-03,-1.476181881623904978e-02,2.662885785102844238e-01
-6.163478838586709807e-02,-7.320270012902101164e-02,-3.057050004768895879e-01,-5.954733886755913738e-03,6.807019460676242252e-04,2.182398486438464757e-04,2.387228757143020630e-01
-5.746295325657069242e-02,-6.815693804759057062e-02,-2.964269842411708655e-01,-8.944400744691444281e-04,2.000214524136451413e-03,2.922014495919410260e-03,2.338861078023910522e-01
-6.114104007329664026e-02,-6.876667514911852241e-02,-3.815223078943847379e-01,6.143916097590252853e-03,2.414534861949706873e-02,-5.321960741218469126e-02,3.325934708118438721e-01
-7.354904903898831781e-02,-6.463780959045972718e-02,-4.766979667572834867e-01,5.261681623840419250e-03,2.461382524914300374e-02,3.287655213992570630e-02,4.139374196529388428e-01
-5.849150510123968250e-02,-5.861132742298036380e-02,-2.911861920678828208e-01,-1.570841528846929477e-03,1.388663498750321475e-03,8.163161296245379731e-04,2.326674312353134155e-01
-6.072655808254642795e-02,-6.396320275271544231e-02,-2.914143719471919969e-01,-1.760348756157043351e-03,-3.679845961031240342e-02,4.572301739902896733e-02,2.506474554538726807e-01
-5.794403556745308936e-02,-6.908463306885788413e-02,-2.966575989392101209e-01,3.488860554652731282e-04,-1.893310574487677310e-03,1.398534818844747538e-03,2.333792001008987427e-01
-6.027115622101819614e-02,-6.573759833810877140e-02,-2.912545054423544277e-01,5.545326763602470479e-04,2.486018996987545901e-03,-1.964499903959229712e-03,2.283671945333480835e-01
-6.039410896296046327e-02,-5.973555074637423856e-02,-2.879926006660044058e-01,2.739964660567794155e-04,1.308039364624407914e-03,-8.585040766874289277e-04,2.279450893402099609e-01
-6.062639167107110316e-02,-5.296140418997066779e-02,-2.934575183366114892e-01,6.398181276399306401e-04,5.249839728504260023e-04,1.111358026853966410e-02,2.375422567129135132e-01
-6.075747672028466995e-02,-6.342509031594942281e-02,-2.968571938240806007e-01,-1.113518854094831359e-05,-2.800828675202416112e-03,9.315741003453333752e-03,2.353810817003250122e-01
-5.441223969832797991e-02,-8.356344635439114099e-02,-3.381438410204505862e-01,4.489302057592885675e-04,-6.487145762397403606e-03,8.268052941618128648e-03,2.709506154060363770e-01
-5.949624043273896157e-02,-7.432291933495871472e-02,-3.198757390068127648e-01,3.579958018540698762e-03,-1.032476539391174140e-03,-9.718916619278433842e-04,2.533796131610870361e-01
-5.754390216558497029e-02,-5.912000356249877409e-02,-2.915532121830786139e-01,2.338387862047045765e-04,1.963846948155007627e-03,-1.034559245033275354e-03,2.332572937011718750e-01
-5.944286639520578175e-02,-6.571512818812107193e-02,-2.938751182104002435e-01,-6.037592428413952579e-04,4.370607103837046803e-04,-3.430841728465669309e-03,2.314397990703582764e-01
-7.266649040073150378e-02,-7.849716607498002929e-02,-4.500299951821211675e-01,5.610675554027891136e-03,-5.069392433431446588e-04,-9.132067995151177398e-02,4.066331684589385986e-01
-6.274611260008207403e-02,-5.383780921728628654e-02,-2.909987694868812480e-01,-3.905757132875481603e-04,-2.990255523595354570e-02,-8.329648611010675996e-02,2.787648439407348633e-01
-5.916228067963251458e-02,-6.323961951726410347e-02,-2.991499844497227389e-01,-2.136059432999397670e-03,2.383202465363025956e-03,-6.834328583680074516e-03,2.383339256048202515e-01
-6.462723039927648072e-02,-5.844870795631657012e-02,-3.067612881239798472e-01,1.342905609493631486e-04,5.857717849485340411e-05,-2.014040201825083591e-04,2.452820688486099243e-01
-5.431160856716490959e-02,-7.338946516972155720e-02,-2.948971283051630143e-01,-2.981345463822069556e-03,4.697119125759755508e-03,-1.095191321196211168e-02,2.326116710901260376e-01
-5.774913844785453665e-02,-6.406883058640500117e-02,-2.928563904531519269e-01,-3.449118858633603169e-03,2.747750118347647846e-03,-2.405329106208097326e-03,2.321750372648239136e-01
-6.517467382705474654e-02,-9.247811404436775962e-02,-4.988350633398601630e-01,3.768371919091094424e-03,-4.104985006490061150e-02,-5.062103633034223393e-02,4.356050193309783936e-01
-5.661462113575280175e-02,-4.679894785622722153e-02,-2.882275911984227279e-01,5.036853980534467846e-04,4.177544099944202269e-03,-3.439712503097296092e-02,2.441658377647399902e-01
-5.711635486290850272e-02,-6.837281092695801643e-02,-2.941735128195881455e-01,-3.858087531895154718e-03,-1.133970269510781084e-03,2.304336847052952664e-03,2.317732125520706177e-01
-7.375581918692268590e-02,-7.567888284165712187e-02,-4.255600825239454488e-01,-1.297558448436065062e-03,-6.174171671117975602e-02,-3.272741449198490749e-02,3.711439371109008789e-01
-4.070522513312199719e-02,-5.617445022975411928e-02,-2.857126940298703177e-01,-1.187122563344363653e-03,-7.009132292549516679e-04,3.263029625433098080e-04,2.376634180545806885e-01
-4.543137299234757676e-02,-5.650535905169212780e-02,-2.868794301455602769e-01,-3.008536552737554968e-03,-7.029900407411845313e-04,3.264868237659727165e-04,2.361672371625900269e-01
-4.904527192949167946e-02,-5.714098016059293572e-02,-2.887188117746927740e-01,-8.078975002298839029e-04,-8.188055082521029796e-04,7.315555099533920663e-04,2.357417941093444824e-01
-4.967965485992699437e-02,-5.113997423316285484e-02,-2.907999972205663752e-01,-2.290903822557594470e-03,-6.196574207617305992e-04,4.255508526276111634e-04,2.404297739267349243e-01
-4.532356169227083620e-02,-5.189368258728828398e-02,-2.899648781512298434e-01,-9.907620712394874657e-04,-1.183722277282237435e-03,6.102494026944180585e-04,2.414404302835464478e-01
-4.713191953205225770e-02,-5.769980876944004466e-02,-2.888575417635921294e-01,-4.601594066458572670e-03,3.065577117958164823e-03,-1.822565453987528238e-04,2.368126809597015381e-01
-6.006798495512899461e-02,-5.741262600552550499e-02,-2.851340341209518403e-01,-7.253866837587959584e-04,1.409578679461010765e-03,-1.101233976068861442e-03,2.264300882816314697e-01
-3.735321338162572724e-02,-6.555566833561574103e-02,-2.362296960247342037e-01,2.090421061591993084e-03,4.189434013515848376e-02,-5.429427752591781120e-03,2.002632766962051392e-01
-4.186091858815743638e-02,-6.655130939576991977e-02,-2.929610511889308988e-01,-5.280897507835944520e-05,-3.652459774292068223e-02,1.939355510224506770e-03,2.479406446218490601e-01
-7.344181934646962229e-02,-7.578038862549693611e-02,-4.944749363990592617e-01,1.343361940656980424e-03,-2.584944757414257832e-02,5.183307036350844055e-03,4.223509728908538818e-01
-4.922646851429499093e-02,-5.047534936762539115e-02,-2.911854265511197859e-01,1.930388666336467236e-03,4.693678691789964570e-04,7.941122781944996928e-04,2.413653880357742310e-01
-5.481702200831110872e-02,-5.996508733279791448e-02,-2.938909670214646663e-01,8.028250656820982544e-05,1.040580772350159673e-03,1.246078679360755224e-03,2.365586906671524048e-01
-4.546659883692173720e-02,-5.775921677214725103e-02,-2.900492334268111039e-01,3.966730709479464670e-03,-1.995451805870436003e-03,2.791350687577804105e-04,2.387982308864593506e-01
-4.035702559922882404e-02,-6.030262162885227650e-02,-2.839671139883019335e-01,1.171516117753385218e-03,-4.062188499193069365e-04,1.837620662879471027e-04,2.342850118875503540e-01
-4.087460512540197488e-02,-5.719092658602999146e-02,-2.848007325442910576e-01,4.735449207794574164e-03,-4.074433270665976312e-03,-1.091248077594524296e-03,2.364462912082672119e-01
-5.726163808535053579e-02,-7.386356984968137085e-02,-2.908112170584039591e-01,2.509871834443064016e-03,-6.186723200165697434e-02,-1.832656308492880415e-02,2.518984079360961914e-01
-5.781005080704892940e-02,-6.283611439507075236e-02,-3.286213122888226867e-01,1.780302298708681587e-03,-1.237704199039220583e-02,4.416338334213972157e-03,2.693148255348205566e-01
-3.964221534301051730e-02,-6.032474488351267233e-02,-2.619655342343039650e-01,5.922722936859715730e-03,-1.263860658880470262e-03,-2.495220950505601561e-03,2.130397260189056396e-01
-5.053816893697661572e-02,-5.499799378679913475e-02,-2.604640434378799885e-01,9.514879514656161830e-03,-1.021679429944060118e-03,-4.068353324933565544e-03,2.085111886262893677e-01
-4.826086276219451743e-02,-5.377882018827688515e-02,-2.729739023615196380e-01,7.395839638018464855e-03,-3.631132031501934764e-03,-6.852558180399715478e-04,2.224668562412261963e-01
-4.850495221637256271e-02,-5.630549965835121573e-02,-2.731460677732476250e-01,8.187772246990170782e-03,-1.263248073490346769e-02,-5.569856260286335653e-03,2.225872427225112915e-01
-3.481572622204065492e-02,-3.829857001429928104e-02,-7.467968349835973907e-02,6.973673441456956171e-04,7.480411757119893000e-03,3.755045240097299071e-03,4.091521725058555603e-02
-7.220889467841012932e-02,-7.391187325709502876e-02,-1.633702330909456435e-01,-1.909794210517937315e-03,1.123470880656513834e-04,2.510071271907100355e-04,9.038370102643966675e-02
-6.568268053625195280e-02,-6.172601758661837301e-02,-2.179537614960660452e-01,-7.714605511099177117e-03,6.930808939297957230e-03,-2.087905477156140697e-03,1.553716659545898438e-01
-7.548103311319456776e-02,-7.841933313736901279e-02,-1.831391206390413084e-01,-7.538247287010264386e-04,8.195471123367594748e-04,-8.528509264356453484e-03,1.072589904069900513e-01
-5.826427004397698173e-02,-6.415015734828401206e-02,-3.344283937837086995e-01,8.354297758909549898e-03,-1.845780989391077737e-02,-1.000434589745887240e-02,2.760570943355560303e-01
-6.874226669397826006e-02,-6.139775457754934052e-02,-2.907092676133647413e-01,-7.802192957960232735e-04,-6.654640710500684406e-04,-1.025371928931911609e-03,2.257428616285324097e-01
-4.143948187976872338e-02,-3.927502879769632915e-02,-8.407503526806808791e-02,4.813883010402035707e-03,-5.065380128375838314e-02,2.129211626306250563e-03,9.846471995115280151e-02
-4.679003854974606025e-02,-6.057648188788702925e-02,-2.275005765277901548e-01,-7.480148248040987755e-03,-4.960085618950860545e-04,1.876013036857723110e-02,1.777060329914093018e-01
-5.219473683611737524e-02,-5.158458491789230660e-02,-2.881743300178655764e-01,4.942346488454854060e-03,-5.969183269622973988e-04,-1.637167670876049077e-03,2.364595383405685425e-01
-6.510205762211128400e-02,-6.295738711717588365e-02,-2.383494767387003277e-01,4.212341081211064438e-03,-5.528928462626150897e-02,-5.826248873164435738e-02,2.231553792953491211e-01
-5.113165592894827749e-02,-5.276854291862342894e-02,-2.887316681244687655e-01,5.798545166298742573e-03,-2.822211788932592683e-02,-3.005179131985590349e-02,2.475220859050750732e-01
-5.990848770950701896e-02,-6.075045573678969357e-02,-3.077184562197615714e-01,1.278991614393319362e-03,-5.204044415067315271e-03,-1.057606229873951989e-02,2.482409179210662842e-01
-5.825946128799469603e-02,-5.246401568900986578e-02,-2.900149398604761619e-01,4.011241417345927374e-03,-1.052928571465897430e-04,-3.739594090714053621e-03,2.348990738391876221e-01
-6.709555434311473276e-02,-4.077476257250217673e-02,-2.732133505743115087e-01,6.957747175342275875e-04,-1.861960891485470962e-04,-1.023907830908780611e-02,2.211754620075225830e-01
-5.959410642754259246e-02,-6.775980160662320451e-02,-2.940527593997944167e-01,-3.354587879069681976e-04,2.208317460556496158e-03,1.875544058710253278e-03,2.305396795272827148e-01
-6.339479711979789656e-02,-4.685447102945559938e-02,-2.819714804003007891e-01,5.828498926276915945e-03,-1.538560378950911897e-03,-1.003019911804659339e-02,2.282005846500396729e-01
-6.259322586692614432e-02,-3.889589064026496845e-02,-2.896381052452194349e-01,2.694299866413459466e-03,-3.536635912183691208e-03,-8.931979463309768635e-03,2.403953820466995239e-01
-5.902195627946482670e-02,-5.364585476056898949e-02,-2.969255594331149939e-01,-6.067793703699754645e-04,-2.175525504575847940e-04,1.184686803418828326e-03,2.406480312347412109e-01
-5.762502230004507009e-02,-5.759409562158324114e-02,-2.914694003703641734e-01,4.173549808518704166e-04,1.687202198367936719e-03,1.545468546835802263e-03,2.338945418596267700e-01
-5.150690649950627475e-02,-5.125579909535557532e-02,-2.821205296148606712e-01,5.490370732509465904e-03,-5.993783180688368596e-05,8.849302842924961735e-06,2.309351861476898193e-01
-7.270823333301085212e-02,-6.538786159814395649e-02,-2.577384179631914130e-01,-1.527345729745200817e-02,-3.284665681698818035e-02,3.781866944305132400e-02,2.094553560018539429e-01
-6.149883085915114345e-02,-4.209487437978315372e-02,-2.852561869194624178e-01,-2.079831269354265322e-03,5.186076293804879698e-04,3.752433821630375287e-04,2.340936809778213501e-01
-5.502090774083213953e-02,-4.430688849784737704e-02,-2.664147434780603785e-01,1.013472493432685667e-02,1.374716039982637299e-02,1.772461404260972789e-02,2.210986167192459106e-01
-5.330333737486903090e-02,-6.096192309994580283e-02,-2.753525390280118224e-01,-5.025541636867770015e-03,-1.327238569388800027e-02,4.912576381518049887e-03,2.198648601770401001e-01
-6.029335423542771244e-02,-3.834409476098631087e-02,-2.746499048846657298e-01,-3.887086557657064290e-03,5.831561819252892575e-06,5.947868112010454983e-04,2.262340784072875977e-01
-4.968248074043551954e-02,-4.877373965387871158e-02,-2.897109314676031833e-01,-2.963051016877353214e-03,-6.194521422423931480e-04,5.521152614908261119e-04,2.405431568622589111e-01
-7.139299543807980930e-02,-6.111954312405323830e-02,-2.911922895335108397e-01,-2.442985770517718588e-03,-3.875848493527659158e-04,-1.197981795086589321e-03,2.251622378826141357e-01
-5.712905901903991834e-02,-4.926957077084290204e-02,-2.897870671510257568e-01,1.962296959977636972e-03,8.609262383446633724e-04,2.740334229947926671e-03,2.367623150348663330e-01
-6.017471876471469638e-02,-5.515376855001759282e-02,-2.962825325147508959e-01,3.690461975266577264e-04,-1.800119455058120507e-03,-1.805061575007435495e-03,2.386996001005172729e-01
-6.192879454517369320e-02,-3.732061449640500239e-02,-2.829755684378300051e-01,1.365221429693846489e-03,1.010251779203173326e-03,1.531447147644116567e-03,2.343554645776748657e-01
-5.813827137472551976e-02,-7.381815475741911048e-02,-2.993956180609947948e-01,1.694334675706839037e-03,-3.621214181052883718e-04,7.335518633236577180e-04,2.338347733020782471e-01
-6.214976228885782383e-02,-6.744185551377651633e-02,-2.886677797988645988e-01,-1.839754019214952198e-03,-1.210532993021126540e-03,1.473257345930916676e-04,2.239515185356140137e-01
-6.278088548607207997e-02,-5.423565168902824696e-02,-3.052414146001570794e-01,1.781572752028767097e-03,8.003073219365053337e-03,1.502134665088842268e-02,2.486173808574676514e-01
-5.693798374156835984e-02,-5.449663290675132998e-02,-2.919980259429466041e-01,2.411410687706895019e-03,3.291980663579612823e-04,3.382604464740043317e-03,2.364003807306289673e-01
-5.973924397754061533e-02,-5.574305127645323710e-02,-2.961821945524278354e-01,1.284308870481649500e-03,-2.063413080192253932e-03,-1.999831247935471290e-03,2.385284602642059326e-01
-5.174082156345929939e-02,-5.824860468643237865e-02,-2.909197228856451600e-01,3.503190345461071418e-03,3.882458548673099665e-03,-1.307912952741842718e-03,2.361769378185272217e-01
-6.278357611048224207e-02,-4.789287372005296417e-02,-2.107408550644803702e-01,8.759149575428008122e-03,2.744981147589109147e-02,4.695905577312774887e-02,1.828178912401199341e-01
-4.938155078659647174e-02,-7.170259544506149552e-02,-2.017824742657501891e-01,-8.378830913797732233e-03,1.744894298341019556e-02,-9.779689746938175637e-03,1.474227309226989746e-01
-7.531161881289498428e-02,-6.289350789531919506e-02,-2.052722492909144492e-01,2.283111414644229103e-03,-1.961018205299534019e-03,-4.523229565908100033e-03,1.369174718856811523e-01
-6.076447738094644530e-02,-6.436219855261879341e-02,-2.130916972373598783e-01,-7.418724258248670517e-03,1.839006957320058313e-03,-1.079683482518386042e-02,1.522940248250961304e-01
-5.772532200304594102e-02,-7.447860400896504085e-02,-2.047798520109801457e-01,5.872903117909596647e-03,3.815045868069030788e-02,2.397041770690534410e-02,1.601113677024841309e-01
-5.716212441796976462e-02,-7.797018522510645866e-02,-3.114712052949868970e-01,-2.974732541686739198e-03,3.953619785885065588e-03,-4.591981525802741812e-03,2.448491454124450684e-01
-5.756548067162081672e-02,-7.691891188870528251e-02,-3.023522537742495686e-01,-4.700427552874015744e-04,5.886382968995564242e-04,-7.464309129666568850e-04,2.357138693332672119e-01
-6.758634419296569162e-02,-5.988035811720618384e-02,-2.954924867435561597e-01,1.104884204995556542e-03,-1.939504080586045313e-03,2.731509482282090586e-04,2.318879067897796631e-01
-4.326242229780989657e-02,-5.438113281215285755e-02,-2.724647462339822024e-01,9.886814471151174344e-03,9.175785941529072259e-03,5.491662131747448473e-03,2.252669632434844971e-01
-5.257392797902843418e-02,-5.954322485171642532e-02,-2.912187373799309253e-01,1.321676889236787431e-03,8.654502184435468315e-03,-1.233374651441427900e-03,2.357355207204818726e-01
-6.814680470907856502e-02,-5.700235479295309715e-02,-2.952880478004918374e-01,-4.843997578205566819e-04,-2.300994974961696228e-03,3.619758411373853865e-04,2.329499721527099609e-01
-5.813245654192074341e-02,-6.041223487876534737e-02,-2.930924244335620377e-01,-1.480888874686686445e-04,2.428621852495376106e-03,-7.814959518146313410e-04,2.338703125715255737e-01
-6.372659571394750921e-02,-6.587840856384892529e-02,-1.913199183333623710e-01,-8.711161537624075718e-03,7.603799815650905125e-02,3.756021986057402062e-02,1.944618821144104004e-01
-5.558723180503262473e-02,-5.595263213614309894e-02,-2.907471173610929327e-01,1.587614474432126610e-03,-6.333640202869089556e-04,-5.910815555585932982e-04,2.349982857704162598e-01
-5.459498534336336417e-02,-5.846600226948969747e-02,-2.952923075843803535e-01,6.492582239354669979e-03,-1.495406987488695147e-02,-2.458636833940541083e-02,2.441910058259963989e-01
-5.944239779210057362e-02,-6.465473563055004758e-02,-3.015966587163058099e-01,-2.432090593118193048e-03,2.088451217073054693e-03,1.372386578821850655e-03,2.396667450666427612e-01
-5.476368626265853967e-02,-5.465299946810220355e-02,-2.894388602004964728e-01,1.798892325937044784e-03,1.919754881635632199e-04,-8.030636930693705764e-04,2.347555756568908691e-01
-4.944472912214995658e-02,-3.988899637685864447e-02,-6.166903570770095738e-02,1.006078708948697498e-02,-3.516161209179193003e-02,3.416302473847326882e-02,8.872187137603759766e-02
-4.616717507453496627e-02,-5.176594081744200632e-02,-6.812791285681522868e-02,6.618225598282694369e-03,-4.098867344401470325e-02,3.547256868832911192e-02,9.662915021181106567e-02
-5.772499954204632355e-02,-7.329146145866052842e-02,-3.133235190950268145e-01,-7.024540098609249363e-03,-7.193273094014712710e-02,2.323292304318486882e-03,2.779951989650726318e-01
-7.809001032503171125e-02,-8.061348265424289616e-02,-1.662440473822834608e-01,1.168486724396234234e-03,-9.618712071361295093e-03,-7.189385024053526925e-03,8.939667046070098877e-02
-3.787029671616237714e-02,-6.943473934555877136e-02,-2.533430714557660668e-01,-4.723783885073820285e-03,-8.273781263785764950e-03,2.245262784077688666e-03,2.022646367549896240e-01
-4.027300853244432377e-02,-5.519879769267802688e-02,-1.616130978094521553e-01,1.742000489584774690e-04,-3.230340235003949928e-02,5.865540260757759472e-02,1.630554795265197754e-01
-6.910980552171863689e-02,-6.248053802861229522e-02,-2.975571404631677241e-01,3.054747224536758995e-03,-1.935992108322112442e-03,2.112572079635216017e-03,2.319465428590774536e-01
-4.617243349354368392e-02,-6.177390322799128364e-02,-2.052306390285202897e-01,-8.068703390895257122e-03,-4.359003638781397405e-02,1.962810297240017571e-02,1.735302507877349854e-01
-5.706503987892506957e-02,-5.875953595460756129e-02,-2.916505538359370764e-01,-3.674328939652977315e-04,1.408976873887454739e-03,-2.702168359498130501e-03,2.338033318519592285e-01
-6.028467142008159252e-02,-6.268831304435609764e-02,-3.364233349076269919e-01,-2.595578244794036898e-03,-1.084902260999464491e-02,2.911518181106122378e-03,2.756689190864562988e-01
-6.510552422301585374e-02,-6.144458618581183362e-02,-2.884117037109857895e-01,6.265897746126734705e-04,-2.803651064660872246e-04,-7.828622627203550739e-04,2.251661866903305054e-01
-6.161563174812639820e-02,-5.928754345209943932e-02,-3.127277235369266828e-01,-1.361729481762737450e-03,3.146577121078654449e-02,-2.735513263297320932e-02,2.624272704124450684e-01
-7.333100709856993360e-02,-5.932953163897655702e-02,-2.939560078037580793e-01,9.234109186828820971e-04,-9.632582279861978854e-04,1.025192520230567682e-03,2.279671132564544678e-01
-6.950305561941649835e-02,-6.070037080726706225e-02,-2.908551556980127351e-01,2.573999565955366765e-03,6.034747885600784574e-04,5.564820808306215633e-04,2.259305864572525024e-01
-6.160770259400391580e-02,-6.073710829641201792e-02,-2.927020770482434697e-01,1.470453060736630823e-03,1.152420243718415730e-04,3.623955253258459228e-04,2.315458506345748901e-01
-6.156409061648811243e-02,-4.236908383814529111e-02,-2.629377435960518761e-01,7.157182507622881010e-03,-9.855782194701208712e-04,-5.608283409155702740e-03,2.122171372175216675e-01
-5.293440575315677687e-02,-5.571643993211636975e-02,-2.436498913226562701e-01,1.279082137364273911e-02,-1.124434062116373007e-02,-5.198963373099102850e-03,1.918352693319320679e-01
-6.355398376365276047e-02,-5.352888795647145481e-02,-2.295619697560202233e-01,9.330424066280448500e-03,-1.424613275710154498e-03,-1.170950064606423105e-02,1.732108443975448608e-01
-5.673855764450366768e-02,-4.524326457187435868e-02,-2.803522967135100297e-01,5.449724362794962883e-03,-1.029192123979639009e-03,-2.942513811713369596e-03,2.298347353935241699e-01
-5.496855376570820850e-02,-4.491456546934921579e-02,-2.887736038714472375e-01,3.976426600691725446e-03,1.986368954518676034e-04,-3.048865629384318095e-03,2.391484826803207397e-01
-6.388372079614168531e-02,-4.767281817927308818e-02,-2.477769818433261939e-01,6.796478595092169880e-03,-4.169084147242206259e-03,-1.455609419379869009e-03,1.930224746465682983e-01
-6.254968280084166610e-02,-5.499950367118329464e-02,-2.962790010136548968e-01,1.596409014817803257e-03,-3.059718767140270478e-04,1.944585412888746173e-03,2.376349419355392456e-01
-6.433076162764181372e-02,-6.734512444186313562e-02,-1.362195653974239973e-01,-1.157797504210603470e-02,-9.202536120396936914e-02,-7.141678409303396646e-02,2.146383225917816162e-01
-5.640940814111255336e-02,-5.447719185747644521e-02,-2.309142515677172214e-01,9.574086009320935398e-03,-4.092221580727656294e-02,-4.611199889255189477e-02,2.060841470956802368e-01
-6.042800310059288915e-02,-5.319812706276243197e-02,-1.111418056588027170e-01,-5.169025050363357417e-03,3.292700276206924053e-03,-4.659502448762929683e-02,9.806521236896514893e-02
-6.316354314228309064e-02,-3.934469854813282819e-02,-2.495957350768368554e-01,8.797957926528368264e-03,-4.390063391323403841e-03,-1.903402671904900686e-02,2.028344422578811646e-01
-6.556325259382442261e-02,-5.680568757515265521e-02,-2.500240875592834033e-01,8.997547659690100993e-03,-4.404724870291681221e-03,-1.305394252045061730e-02,1.911287754774093628e-01
-4.951787108486432887e-02,-4.010605458646610000e-02,-3.344509417745771263e-01,-1.474003813957003458e-04,-3.276174006013292048e-03,-1.318548019698272469e-02,2.907077670097351074e-01
-6.132982859692588662e-02,-6.584039230597099612e-02,-1.979436976611517740e-01,-9.175438988677644264e-03,-3.384032328433195930e-02,1.885692932413273251e-02,1.510705351829528809e-01
-4.994179390824429743e-02,-5.401691418053855553e-02,-2.598230666309401804e-01,-1.029453159428440033e-02,-1.164614494025395042e-03,6.291707527211070489e-03,2.089311480522155762e-01
-4.984894821757765437e-02,-6.060217417017881025e-02,-2.958172195300661778e-01,-6.672512443982546275e-03,-2.476460183374067786e-02,3.462099931777207640e-03,2.449090629816055298e-01
-6.410685174558312938e-02,-6.261123851655964190e-02,-1.789258814345220938e-01,-9.992940004136368834e-03,-1.594058128408811989e-02,1.109910302275760735e-02,1.216093078255653381e-01
-6.456537054806218978e-02,-4.127773991175204271e-02,-2.868172776903039622e-01,-1.602536086966704996e-03,-2.306868659833822730e-04,1.016512155018039348e-02,2.354395836591720581e-01
-5.865830252101991715e-02,-5.861535115914627558e-02,-2.905861420670770023e-01,-1.261627396837620247e-03,-5.826100474013010122e-03,-7.082624331229647047e-03,2.325028628110885620e-01
-6.689600347559170046e-02,-6.003529428559778447e-02,-2.948956128574001800e-01,-1.263116202035794019e-04,2.921690795484678353e-03,2.890593346587331212e-03,2.316157519817352295e-01
-7.327205530056243865e-02,-5.800463218172824398e-02,-3.270660524637280520e-01,-7.877212889348467889e-03,-8.865288915731191211e-03,-5.647954734130967991e-03,2.627487480640411377e-01
-6.755447875498245269e-02,-6.137623975113631891e-02,-2.934896416164611832e-01,-3.293453637491903455e-03,-3.966646251527700465e-03,-5.946635302807597107e-06,2.292607575654983521e-01
-5.937601474830384030e-02,-5.883283813339452994e-02,-2.906904722957467380e-01,1.353977127200453536e-04,-1.717733732882857417e-03,6.808392807027687866e-04,2.316087484359741211e-01
-5.559504404652521048e-02,-5.973341824783351406e-02,-2.911537384889086866e-01,5.159340906147571364e-04,1.223457655561750561e-03,1.254015060807628281e-03,2.335384339094161987e-01
-5.257988068318331099e-02,-6.169687426472639236e-02,-2.968657177766330646e-01,2.961043702449759826e-03,-4.855105146736125171e-03,-5.675268381730000714e-03,2.402606606483459473e-01
-5.801302680461223327e-02,-5.936256954360234761e-02,-3.318536932427480490e-01,6.017576010247110627e-03,-1.736005428677140847e-02,-1.204970826438323504e-02,2.758066356182098389e-01
-5.394427558283249047e-02,-5.856298174291997560e-02,-2.917452141990558023e-01,1.561786945403864906e-03,-4.242389005432901580e-03,1.401337858313761973e-03,2.356681674718856812e-01
-5.964265564494243554e-02,-6.105061791767241175e-02,-2.913231321796900808e-01,1.191218862522967076e-03,-1.677836952411252986e-03,-1.340386972234945380e-03,2.310188710689544678e-01
-5.922464411179964583e-02,-6.837604655021964351e-02,-2.936468771466296812e-01,2.389037269408120483e-03,-1.607972850201513405e-03,-5.502098111396818607e-04,2.300391793251037598e-01
-5.965444079297058111e-02,-6.685388801344231691e-02,-3.268287827449100069e-01,4.862855569056140879e-03,-3.064928725933948554e-03,-2.418748269266918736e-03,2.638695240020751953e-01
-5.667809302129994675e-02,-5.721421511629100343e-02,-2.925514024845065619e-01,-1.232439767499610844e-03,-1.715702893421816068e-03,2.179060093832202449e-03,2.356643378734588623e-01
-4.550613736256953201e-02,-6.911271272463934134e-02,-2.761159936964579509e-01,-9.565724460340825630e-03,6.908728101218565044e-03,-6.164363672574138704e-03,2.209659814834594727e-01
-5.563724276819087544e-02,-5.716157113043417171e-02,-2.899200258720001644e-01,-1.370603855668948642e-03,-2.906686573514575579e-04,5.445496062462427348e-04,2.335388660430908203e-01
-5.903569202750984235e-02,-6.936624897097046216e-02,-2.896502361343653575e-01,4.032383820508673652e-03,-1.478355195133900131e-03,8.258456198802911861e-05,2.257493436336517334e-01
-5.902620855991491666e-02,-5.659704851391975100e-02,-2.929516057554338304e-01,-4.785668230221781175e-04,-2.654434931277924355e-03,1.831622003575436369e-03,2.352171838283538818e-01
-5.839865249128026181e-02,-6.776017944317752617e-02,-3.235941783730471588e-01,-8.844977046126155373e-03,1.089057359018800845e-02,-1.525163925331464963e-02,2.631007730960845947e-01
-6.870234155583947178e-02,-6.117408575868255038e-02,-2.958532705503609250e-01,-5.716849890940037867e-04,-3.436798004908601326e-03,-1.719234059047824396e-03,2.311050742864608765e-01
-6.202091829750000507e-02,-4.572903281637752393e-02,-2.360955528849580098e-01,9.013878442576953726e-03,-1.013898233013050100e-03,-6.719974295917655049e-03,1.838089078664779663e-01
-5.590459465132065903e-02,-6.359827464714595813e-02,-9.772961071642083386e-02,6.865135675055444343e-03,-2.672582049095331355e-02,-6.260317944392948530e-02,1.246130391955375671e-01
-6.107753069418263292e-02,-5.366676959213093068e-02,-2.974625401567403959e-01,1.798408939970086234e-04,-5.525081086201041793e-04,1.443293260920147690e-03,2.401912659406661987e-01
-6.120444948935128970e-02,-3.945520594345122700e-02,-2.832446691980031739e-01,-1.169091555129753938e-03,1.424700478131154288e-04,-1.965140473008435140e-03,2.337088882923126221e-01
-5.796491285429333784e-02,-7.119167821209534952e-02,-2.941082120964667035e-01,6.745500420763231092e-04,-3.306679078137972632e-04,-4.502129286922800519e-04,2.298205643892288208e-01
-6.058537792333545946e-02,-6.482340591850073441e-02,-2.921151017099997693e-01,3.542653561313024915e-04,-2.411294520795637109e-03,1.909443383382672431e-03,2.295027226209640503e-01
-6.300853123534715106e-02,-6.810110225959395414e-02,-3.033125723328052858e-01,2.737061544696353828e-03,-2.214069220488626422e-03,4.451685967322401363e-03,2.380017489194869995e-01
-5.560393371939044427e-02,-7.141257932329742042e-02,-2.975874734334994498e-01,7.891242490614529606e-03,7.755305525812541609e-04,2.196516965404295921e-03,2.349119186401367188e-01
-5.731795409568571364e-02,-6.476078835690440849e-02,-3.071088111716261948e-01,-1.540589138489295963e-03,1.414303708191022232e-02,-8.015817735005870137e-03,2.477734237909317017e-01
-6.010436818415205995e-02,-7.942291834107709225e-02,-3.316219704217293063e-01,1.690921700234264630e-03,9.331622154346297382e-03,2.316584885647264460e-04,2.629061937332153320e-01
-6.027124422674770554e-02,-6.564463264755962535e-02,-3.290505204324593036e-01,6.100355512221464910e-03,-4.021930072498131579e-03,-9.900551488112999728e-04,2.664395272731781006e-01
-5.222336643389877131e-02,-5.355944633551008166e-02,-1.288602414906842020e-01,1.262618456631995744e-03,3.499783125271727080e-02,6.068994347352346663e-02,1.431842744350433350e-01
-6.085738690985145055e-02,-5.049413081788869939e-02,-2.351245035088175839e-01,9.127406251415328894e-03,2.013954996602711038e-03,1.015178727566417097e-02,1.812558174133300781e-01
-6.659864833197516598e-02,-4.178405365230900004e-02,-2.799641431040356121e-01,4.859559420017468129e-03,-5.793948855891928014e-04,3.704246243304762636e-03,2.270422726869583130e-01
-4.577669677346962729e-02,-5.460455499420423242e-02,-2.652897881164893445e-01,9.588179399087331384e-03,3.541842414556773365e-03,5.445925830644184409e-03,2.161677777767181396e-01
-6.741031450862028374e-02,-5.661377865109142038e-02,-2.235134341964430393e-01,-3.867100548542058182e-03,-7.704833473733180629e-03,1.261003444999150326e-02,1.639210730791091919e-01
-4.819931144763897612e-02,-4.644950110871122473e-02,-6.010042893444009909e-02,1.148572551029856600e-02,-2.275943216901445826e-02,5.725533512142318843e-02,1.093150675296783447e-01
-4.156443638957149633e-02,-5.674141368827784193e-02,-9.658336617497161047e-02,-2.159848676074110560e-03,-2.473225349183950927e-02,3.657356515587145696e-02,9.101828187704086304e-02
-6.087968464333094742e-02,-6.265150876290014048e-02,-2.881747801693916866e-01,-7.033414429957564654e-05,-1.287058446194372461e-03,-8.452544146974942619e-04,2.264301180839538574e-01
-6.121145850035095148e-02,-4.219946408873595511e-02,-2.021007020189088399e-01,5.947652531623057095e-04,8.546011022726737001e-04,2.110261937091895135e-02,1.556567847728729248e-01
-6.377514793294729312e-02,-4.770505403258049754e-02,-2.148016211877992465e-01,9.244303963611099489e-03,9.940730764067049266e-03,1.610240554890792625e-02,1.637832075357437134e-01
-5.096667767823782891e-02,-6.056875918279444604e-02,-1.645277108389728848e-01,4.543068438401010739e-03,-2.590417184786758184e-02,8.517426867020555514e-02,1.890419274568557739e-01
-5.502707130752665377e-02,-5.175908580328701658e-02,-1.722788852774084223e-01,-1.345217032820953534e-03,-3.188666166994837126e-02,6.992367997375660560e-02,1.785091459751129150e-01
-6.015376445511039227e-02,-6.086153808952127209e-02,-3.118624563082126877e-01,9.535574482079654845e-04,-1.950870895266368019e-02,4.760709619010710519e-02,2.666897475719451904e-01
-6.519086150044685335e-02,-5.237931875590635944e-02,-2.902239566807169324e-01,-4.503031827695415899e-03,1.758753813729147658e-02,-4.260853053208617236e-02,2.451985031366348267e-01
-5.691883098728273832e-02,-5.324764268836948422e-02,-2.468532558811039612e-01,-6.382869391753109335e-04,3.086809019539729897e-03,-5.189163233018108390e-02,2.118817567825317383e-01
-5.042257399906925619e-02,-5.286557672280994824e-02,-2.708176022889368095e-01,4.193300008700700382e-03,1.626124966124222262e-02,-5.217040517323590088e-02,2.388572841882705688e-01
-5.556874105400907982e-02,-7.486090738572975800e-02,-3.320854008184807582e-01,-9.546669786020953868e-03,4.668909050271112526e-03,-4.735217870393099160e-02,2.802936732769012451e-01
-6.003653075551562690e-02,-6.745078416841557289e-02,-2.914538552273108207e-01,1.473898011695181677e-03,1.909122213515712999e-03,-1.672296759290057460e-03,2.278574258089065552e-01
-5.960518577096209081e-02,-5.920671950845707299e-02,-2.881102174536323002e-01,-9.859821553632184318e-04,-3.570226561494069142e-05,-3.081819933099320106e-05,2.287109196186065674e-01
-5.875831560342092974e-02,-6.366105202898544868e-02,-3.318374983673058054e-01,-1.643622357167249517e-03,-1.043463094448273537e-02,1.721824341895164794e-03,2.712951898574829102e-01
-5.931050583459465675e-02,-6.722082759240229077e-02,-2.929169983918784581e-01,-8.843512262597040237e-05,-8.215145062849737653e-04,-1.447226430970709448e-03,2.297716140747070312e-01
-6.171962515242554459e-02,-4.140199594544445583e-02,-2.726040741262123479e-01,3.912603696852258906e-04,2.239923768823767671e-03,1.182559078808127079e-02,2.227212935686111450e-01
-6.673922803102205759e-02,-6.842669191680131324e-02,-1.557101544492035805e-01,4.413187376854943791e-03,-3.836819039363837530e-02,7.517827527981335578e-02,1.708761006593704224e-01
-6.207482392066700216e-02,-5.239328228380620012e-02,-2.351493230717974225e-01,-8.349329180779317683e-03,-1.930749558989599667e-03,6.885619946533280515e-03,1.791275888681411743e-01
-6.772307329185811575e-02,-4.207795055986095212e-02,-2.496928419817568967e-01,-2.366882897323838338e-03,9.040719267635139106e-04,9.219060653491571028e-03,1.967524737119674683e-01
-7.496313020497519242e-02,-6.055504728929139713e-02,-1.197277248537792216e-01,5.952597465382397993e-03,8.528080182316329083e-03,2.746512800162056317e-02,7.378291338682174683e-02
-3.528269351178978108e-02,-6.367649109421558151e-02,-2.822911723294914133e-01,-5.468924670004187989e-04,1.457273003348857465e-03,-3.761528189079596041e-04,2.341230064630508423e-01
-3.950767466107420189e-02,-5.860686151639736552e-02,-2.834226197670161040e-01,-4.528471917344629137e-03,2.938461282993075872e-03,-1.533641013140003709e-03,2.351492792367935181e-01
-5.456606198555036258e-02,-5.919169338291145610e-02,-2.931542130046356220e-01,-1.732792465865281824e-03,4.561583173241092609e-03,-2.900048243587876988e-03,2.365137338638305664e-01
-3.576234109576562070e-02,-6.490434275860668123e-02,-2.800851124903452893e-01,2.867270591351397859e-04,1.238683236544534582e-03,3.889414983988294383e-04,2.311452329158782959e-01
-3.604185709958956929e-02,-6.535801608845646926e-02,-2.828552104164169800e-01,2.454421287961881370e-04,7.778289501018761281e-04,4.878128315307047637e-04,2.335451990365982056e-01
-3.644602565467186528e-02,-6.411321219393123494e-02,-2.826596660050610943e-01,5.098394672756128383e-04,2.737700655683134227e-04,-3.809508317333762265e-05,2.336142063140869141e-01
-4.254021784006592477e-02,-5.967718803235627645e-02,-2.777850730606821195e-01,-3.276756062947459771e-03,9.328303766022016247e-03,-1.225092568598554199e-03,2.278161495923995972e-01
-3.559592400873837215e-02,-6.488640434765766130e-02,-2.834687131562925178e-01,-6.492534016773209883e-04,1.537405083548385593e-03,3.837970001986434681e-04,2.346216887235641479e-01
-3.758626982032078900e-02,-6.626275869275072283e-02,-2.819756886092861237e-01,-2.485872221293271549e-03,4.446684216534249091e-03,-1.060401256842613462e-03,2.315632253885269165e-01
-6.921925429631230198e-02,-5.632221319735371268e-02,-3.253485184536616392e-01,3.785028070973318979e-03,-6.978216303043247373e-04,-1.356090702241754230e-03,2.629102468490600586e-01
-4.309690273611366251e-02,-5.844149452785767085e-02,-2.836901981663927930e-01,-3.744887357253223227e-03,1.458119221724745894e-03,-2.436726466057715648e-04,2.334039658308029175e-01
-4.863799702670550118e-02,-7.183884988934617633e-02,-2.745939978791588909e-01,6.387368761812495938e-03,4.150801805311235548e-02,2.917826895930565254e-02,2.328030914068222046e-01
-7.049619766961173761e-02,-6.295837252136488038e-02,-3.297673932381821604e-01,3.402411497443191390e-03,-1.114812530692504662e-03,4.575224995367966133e-03,2.633134424686431885e-01
-6.143518275914561233e-02,-5.959941114729239153e-02,-3.225241805247890392e-01,-6.327853354736035288e-03,7.443205038320168700e-03,-8.029932813667296776e-03,2.629256546497344971e-01
-5.691656795293342785e-02,-5.862743014889461313e-02,-2.915229761381178397e-01,-2.292342961926515765e-04,-1.878104468729576001e-03,1.662744512307647981e-03,2.337963879108428955e-01
-5.446630198205554274e-02,-6.018618771667039180e-02,-2.915786195969138905e-01,-3.807764360029092200e-04,-9.687288757006098710e-04,9.787577544723116869e-04,2.343178093433380127e-01
-4.733690871108094111e-02,-6.327020996603446856e-02,-2.907762144740673182e-01,-9.917443930004461207e-04,-3.952123728172118183e-03,-1.187125798001399798e-03,2.359911203384399414e-01
-5.328097352474946147e-02,-6.238924810951639033e-02,-2.907016175098164901e-01,-2.851798289274253863e-04,-3.912844682981924879e-03,4.759235426376335070e-04,2.331005930900573730e-01
-5.676409840590573852e-02,-6.113004497757348887e-02,-2.925857740247564953e-01,1.695465544773673387e-03,8.502538222028712496e-04,5.483251367527389132e-04,2.336943149566650391e-01
-4.770179086703286997e-02,-6.295852685930578008e-02,-2.918765534480121104e-01,1.224821483343434356e-03,-3.592184146087640684e-03,7.246741975266122755e-04,2.370096147060394287e-01
-3.862726663700635776e-02,-6.191912285741141275e-02,-2.867164866557948555e-01,2.777114781648494860e-03,-2.500299548025330075e-03,3.130256360758061034e-06,2.373903989791870117e-01
-3.721605261628442574e-02,-6.188559863090030422e-02,-2.840356912601695871e-01,-2.706992503759352887e-03,-9.909718590007252775e-03,1.491864640717921507e-03,2.361416071653366089e-01
-3.859881785082436290e-02,-6.289553789493987357e-02,-2.869214551914637257e-01,-1.745533857881632119e-03,-3.313689652821389265e-03,-7.640932359174997055e-04,2.372021675109863281e-01
-5.981453403755815357e-02,-5.710409438436983565e-02,-2.891491080174632411e-01,6.424713686418957997e-04,2.716126325310205120e-03,3.080971608392843973e-03,2.308140844106674194e-01
-6.958177497233444808e-02,-6.159190335858627519e-02,-2.913502027541177153e-01,-1.115720160432860739e-03,1.325192336832579617e-03,1.039683817154929239e-03,2.258964776992797852e-01
-5.910182551411757856e-02,-5.953222555862154597e-02,-2.903464214523317488e-01,-1.057557531747242855e-05,-1.938005436182935496e-03,-4.597653557967377211e-04,2.310554534196853638e-01
-4.970147615635740757e-02,-5.930089559277018640e-02,-2.674583924799349699e-01,-8.030053866448302533e-03,-7.233720407004985177e-03,4.370995740070424129e-03,2.140738815069198608e-01
-5.727438831056871904e-02,-4.337355474883020090e-02,-2.793183992821756112e-01,-7.333068774583848329e-03,1.034644433548602763e-03,6.581041741398813475e-05,2.296691536903381348e-01
-5.645590045972280480e-02,-4.560141294612282681e-02,-2.783841831195643657e-01,-9.449557005649374120e-03,-9.099627161779641005e-04,-1.670779041668534349e-04,2.281432747840881348e-01
-5.754537786015825884e-02,-5.135970335566880651e-02,-2.833974322293758563e-01,-4.143067662714121704e-03,5.999472127827546125e-04,1.922162921996280801e-03,2.291464954614639282e-01
-5.187802523837141411e-02,-5.292087979676822485e-02,-2.403055981301439603e-01,-1.058644135625251212e-02,-1.087007856164505862e-02,3.416008948013297530e-03,1.898294985294342041e-01
-4.984629675239569957e-02,-5.625585738603766650e-02,-2.657045270989999430e-01,-9.477654220675145111e-03,-7.153073458254705693e-04,5.579456885843520932e-03,2.135806828737258911e-01
-5.421254837921775371e-02,-5.723878713234228921e-02,-2.888453580207163696e-01,-3.140801694643224808e-03,-1.065301629990403690e-02,8.446580926071894924e-03,2.343837618827819824e-01
-5.798346727547748491e-02,-5.761538041569744251e-02,-2.912712102336767472e-01,-9.429628491424784070e-05,1.575930317881702424e-03,-1.118428519893654473e-03,2.334960550069808960e-01
-5.059580826830739619e-02,-5.038242192078595805e-02,-2.919899580054740040e-01,8.321180328691403192e-09,-1.873502958750837652e-04,-6.801557328952689916e-05,2.415011674165725708e-01
-4.862704819515886734e-02,-4.866207301939806662e-02,-2.911326732468888512e-01,1.329736559622565284e-03,-1.901713265404271231e-04,-7.046938211021783530e-05,2.424993067979812622e-01
-5.056804285189706039e-02,-5.018897818690762347e-02,-2.919618365175459807e-01,2.282487124511959535e-04,-1.440314734420099306e-09,-1.118796976825329323e-05,2.415838688611984253e-01
-5.086731174272519918e-02,-5.146509915865087048e-02,-2.913241673020279254e-01,1.995155212426480461e-04,6.760625120636604146e-05,2.743827523603525561e-04,2.401592731475830078e-01
-5.140061877574179927e-02,-4.982913374363664993e-02,-2.897736449625203381e-01,2.298999176002690208e-03,-1.501487325444349826e-04,-5.151066676593795898e-04,2.391975969076156616e-01
-4.896787097821987678e-02,-5.041529279098565242e-02,-2.894135803840457433e-01,1.748443441536973999e-03,-8.011379014330567228e-04,1.402568279758763714e-04,2.397485375404357910e-01
-5.580658468434715469e-02,-7.386046974552644417e-02,-2.437671972712460167e-01,1.198738510631755863e-02,4.154841907819853408e-02,3.142632668841548182e-02,2.020753920078277588e-01
-5.650005416422305277e-02,-6.035262360173644647e-02,-1.362962684192374763e-01,5.356494457669956459e-03,7.634077388224000393e-02,-3.411672060358689543e-03,1.538817584514617920e-01
-7.401571757008151842e-02,-6.891589772519726709e-02,-2.143155026179779377e-01,1.399500752568162872e-03,8.827772731992937494e-02,2.856037031774847842e-02,2.150752693414688110e-01
-5.671548599591412498e-02,-5.625255241547340301e-02,-1.467985269211083132e-01,2.652329766137095750e-03,7.243271347356181056e-02,2.272242153253097724e-02,1.595819443464279175e-01
-4.886871410677920413e-02,-7.112073480428381111e-02,-2.401635479329437550e-01,1.306170414515975091e-03,2.801600622889882913e-03,-6.479495927554255671e-04,1.812790483236312866e-01
-4.559482479178827291e-02,-4.164067407113574565e-02,-9.077212828896943919e-02,-1.058174992851310765e-03,3.094111489225054301e-02,3.290793846309545551e-02,9.143017232418060303e-02
-7.110179997379485750e-02,-4.686642490035383690e-02,-2.031706694166393878e-01,6.776150433775606462e-03,4.116320426136825181e-03,1.617015709079759264e-02,1.490076482295989990e-01
-4.654473187991812339e-02,-6.106426673926926979e-02,-1.084713142648921907e-01,-4.498980912118557413e-03,3.780671156895989982e-02,5.139175221638350721e-02,1.241719573736190796e-01
-6.839068876979817468e-02,-4.660776038067422633e-02,-1.950209479139167201e-01,1.243238610083014081e-03,-1.924159600046175533e-02,7.542857358019428027e-02,1.935248225927352905e-01
-7.641442631093288418e-02,-5.174773116071386403e-02,-2.441090019308836956e-01,-4.382626349878272765e-03,-1.945274832690285088e-02,5.201616331863459508e-02,2.053686529397964478e-01
-7.062947678540237861e-02,-5.510679619935031359e-02,-1.987401642819001391e-01,-7.446011553517752242e-03,-6.202060599052526893e-03,1.836967043572991162e-02,1.411948353052139282e-01
-6.013640239573539437e-02,-5.405464573255779059e-02,-2.971778192521526973e-01,4.927335781917518281e-04,-1.902559174065833643e-03,1.711070671128150748e-03,2.401824742555618286e-01
-5.181010368338404004e-02,-4.866746371316460484e-02,-1.368500961871016997e-01,-1.664579406423736261e-03,1.907023970353302622e-02,5.875376037652540323e-02,1.377108395099639893e-01
-6.213860420187489186e-02,-6.215460270134597065e-02,-1.624367095929202254e-01,3.013536571788682627e-03,-4.652575596668502740e-03,8.761928688631220874e-02,1.821584701538085938e-01
-4.485794770564820177e-02,-4.403712511276869357e-02,-1.420162827505973557e-01,5.471448340529752900e-04,-2.528930625958762321e-02,6.918502415890845358e-02,1.606219559907913208e-01
-4.781958913220513835e-02,-4.179733566518412796e-02,-1.243560198740567835e-01,-2.623802087335392122e-03,3.732839349336634915e-02,5.017364420114734519e-02,1.345662623643875122e-01
-6.724651152363993190e-02,-4.167977082282316170e-02,-1.795190139844792254e-01,-2.434483825752299744e-03,-1.703181133803147174e-02,5.401627008642681527e-02,1.605319827795028687e-01
-5.585659507286717951e-02,-5.078727260825921519e-02,-2.802382274384881411e-01,2.964323554233736207e-03,1.464489982462008257e-03,-1.372766800589644148e-02,2.282726913690567017e-01
-3.670253825310845763e-02,-6.015967609103813063e-02,-2.821803493736813051e-01,-8.086199386929584371e-04,-6.542501817519450836e-04,9.760621242260629287e-05,2.346372902393341064e-01
-3.830338791570803147e-02,-6.008612204487651098e-02,-2.829749126942922022e-01,-1.219684253335837510e-03,1.036320375219124297e-03,-8.835461596876642695e-04,2.345614135265350342e-01
-4.177811135379633223e-02,-6.181722961104896275e-02,-2.837275072449049196e-01,-3.229879532625171568e-03,-1.918059021354536853e-04,1.742647865268812601e-04,2.326459139585494995e-01
-3.949255283065281064e-02,-6.234650469531655137e-02,-2.849211040833874442e-01,-3.367199048126868349e-03,2.927037785703593721e-03,-6.639881663791811703e-04,2.349670231342315674e-01
-3.935902713187552915e-02,-6.516912742723350582e-02,-2.731085132621451361e-01,-4.022618096811800270e-03,2.783306591799637872e-04,-8.052367230092232105e-04,2.220869362354278564e-01
-4.391522059663238720e-02,-6.194222918158887731e-02,-2.622754486795161322e-01,-7.522203958179377731e-03,3.874132490930564613e-03,-9.663234917045006268e-04,2.104456275701522827e-01
-5.044201270642548196e-02,-5.621295806640139170e-02,-2.894654615730326563e-01,-8.067887029641341830e-04,-8.262208905188042195e-04,7.248445912922377079e-04,2.362026572227478027e-01
-6.065144945681111288e-02,-6.124388410661077420e-02,-2.927035791449877911e-01,-2.030197008418414481e-03,-1.676209281869051873e-03,-4.772351140970527983e-03,2.319486737251281738e-01
-6.506312563398414239e-02,-6.461262854604099548e-02,-3.486960180317860702e-01,4.659194382566221940e-03,3.323828365765071902e-02,-4.798220396266870275e-02,3.014331459999084473e-01
-5.880125682091985606e-02,-6.172795569348563105e-02,-3.074593061751218492e-01,-5.445799431911810436e-03,-3.864344449375515991e-03,-3.628046128187509267e-02,2.553316056728363037e-01
-6.438215686025577922e-02,-6.988049966058756945e-02,-3.257322039881299647e-01,-3.634231827482847354e-03,-4.878509365610672111e-04,2.072890126833972987e-03,2.587475776672363281e-01
-6.413239466609740869e-02,-6.357105185588227125e-02,-3.359104178734266810e-01,2.880931354449805973e-04,-1.028256560107778869e-02,-9.026773294149323043e-03,2.730898261070251465e-01
-5.983554662929263523e-02,-6.092427006598030714e-02,-3.034304761472346734e-01,2.645085136065413530e-04,-1.093006226466926257e-03,-3.011361243420803899e-02,2.485935389995574951e-01
-5.913516669434296102e-02,-5.228696198780338755e-02,-2.986591579896737958e-01,9.549167105549510870e-03,-1.703186005357349223e-02,-2.213990946348132899e-02,2.483410686254501343e-01
-6.012915069317800731e-02,-5.808331541207792381e-02,-2.880836211324601659e-01,-5.435049027034668731e-04,-4.565285304049336484e-06,1.326273287725090273e-03,2.289977073669433594e-01
-5.989567164790424170e-02,-7.950062192660482807e-02,-2.984298927328828954e-01,2.290041070548676748e-03,-9.523260105642694867e-04,2.477463885037534206e-03,2.294413745403289795e-01
-5.818044658540251490e-02,-6.031428207287686805e-02,-2.875171562274779768e-01,9.343633925673121114e-04,3.835342627120618937e-04,3.026212730224876355e-04,2.282845824956893921e-01
-6.348564524936871345e-02,-6.270984056381753713e-02,-2.874249083907184366e-01,9.102524243340319541e-04,-5.605446299485293809e-04,4.142037652357962569e-04,2.243369668722152710e-01
-5.152817496032846556e-02,-5.047913805174905622e-02,-2.911680449598281761e-01,-4.346794971582426778e-04,-4.876555418968511551e-04,5.654838992560774595e-04,2.401707619428634644e-01
-6.164593673973689514e-02,-6.169484802651406530e-02,-2.867742964793732474e-01,-7.093463628237377640e-05,-8.444669398247897033e-04,5.541886657483279400e-04,2.251107394695281982e-01
-6.327218430957570749e-02,-6.170485003066079888e-02,-2.892087089915472697e-01,8.081150254200842340e-05,-1.641412473324690069e-03,1.762090764961834121e-03,2.267626672983169556e-01
-5.908039294865441438e-02,-6.312969050724333286e-02,-1.423833961399637027e-01,4.934187641522628023e-03,3.105251824794792379e-02,6.472955602756966242e-02,1.488423049449920654e-01
-6.091488460974553432e-02,-6.047104788282106624e-02,-1.238823529502247195e-01,2.782572922759147388e-03,1.454375424575661199e-02,6.427391074425972683e-02,1.305536031723022461e-01
-5.720414979413562806e-02,-4.477299670537274179e-02,-1.087473087102966279e-01,-2.134829049796911800e-03,5.455747441024592914e-02,2.517169026681123981e-02,1.195660531520843506e-01
-6.053930149528380378e-02,-6.580936094804321068e-02,-1.130332819111442011e-01,7.028863733069719288e-04,1.471261888386658084e-02,7.159972098695041587e-02,1.361512839794158936e-01
-6.864164956927107375e-02,-4.894891043782058360e-02,-2.399723366355342447e-01,5.729378180288405547e-04,3.975282458824072607e-03,2.141542009202840324e-02,1.858500242233276367e-01
-6.244625083391888709e-02,-4.393704497815320575e-02,-2.836033781611855820e-01,6.354334393873457831e-03,6.748137201144966540e-03,8.551505860294208311e-03,2.319992184638977051e-01
-6.607424704166969809e-02,-4.125031638306536630e-02,-2.703820138691216401e-01,2.357937817037897895e-03,-3.441012046574290668e-03,-2.306516375462441815e-02,2.215351462364196777e-01
-4.805622374512616424e-02,-6.833895461079225742e-02,-2.416888689066415963e-01,6.377488616745023058e-04,-2.083315128228106598e-03,-1.400536494608384166e-03,1.843847036361694336e-01
-5.152249833131435086e-02,-8.090813623643343389e-02,-2.721668252721131664e-01,3.399600758268200851e-03,-5.099488120595125490e-02,-2.023291450216403199e-03,2.256369739770889282e-01
-4.619169994812031416e-02,-6.677196231332097054e-02,-1.689295240221911909e-01,1.999394794100454488e-03,-5.697393099675713418e-02,-9.001154265114184871e-03,1.515100151300430298e-01
-6.085455492682377565e-02,-7.209909161351475693e-02,-1.997185384279988041e-01,4.284940734653462299e-03,-4.070489412320471220e-03,-1.891944819486656272e-03,1.340287774801254272e-01
-4.919900400596504547e-02,-6.223452338674526768e-02,-2.222344414448373384e-01,1.270012374329453596e-02,-2.779740748430707675e-02,-3.606054668192880397e-02,1.858995407819747925e-01
-4.747611677623311821e-02,-6.144033551294927897e-02,-2.230991145274145437e-01,1.497524867182360719e-02,-2.708255108959386342e-02,-3.294033809163350590e-02,1.863179057836532593e-01
-3.865992006288665461e-02,-6.055539984934679709e-02,-2.843163696245102345e-01,1.739184121183141819e-03,-1.043452329847183169e-02,-8.570646972519561967e-04,2.361898720264434814e-01
-5.713831429208313800e-02,-6.391213761069128307e-02,-2.130063344134767445e-01,-1.377869760097159141e-02,3.242698659855017262e-02,-2.003185166391792393e-02,1.679667085409164429e-01
-5.817085420381404304e-02,-6.148442231806390545e-02,-1.911499114824077583e-01,2.706906850121070136e-03,-5.344705350775171221e-04,-8.611499948069162302e-02,1.988064199686050415e-01
-6.308562158459157798e-02,-6.874441258793734244e-02,-1.705115972626729259e-01,2.724190670213141093e-03,3.355730996900334329e-02,-7.549579530586764120e-02,1.773805171251296997e-01
-5.897395857958115384e-02,-5.879190078742548009e-02,-1.795445152203370975e-01,-7.834035535710295178e-03,1.624873274575104609e-02,-9.996782195798355891e-03,1.258381158113479614e-01
-6.799619811497789601e-02,-3.959641215686199311e-02,-2.856581025657497497e-01,2.455297018182238215e-03,-1.786292524944509607e-03,-8.883605586478431071e-03,2.337289452552795410e-01
-3.394975543737174806e-02,-5.515958469564587879e-02,-4.537390709944859324e-02,5.539152032167482531e-03,1.372390965423133692e-02,-1.342788125327563399e-02,3.919274732470512390e-02
-7.453224192686982996e-02,-7.008919868086417593e-02,-1.445725323907955939e-01,6.130132195714857457e-03,-7.775932527911114285e-03,-3.644496280109683212e-02,9.754697233438491821e-02
-6.511807512460209002e-02,-6.106679257700217689e-02,-1.808632689394468751e-01,3.158832022109116927e-03,3.951896998573004027e-02,-9.378569569835341901e-02,2.120960354804992676e-01
-6.224504030312354164e-02,-3.757907081386580028e-02,-2.516308428780448248e-01,-4.733469474700447918e-03,1.387296303635192612e-03,-8.774079873912540156e-03,2.035945057868957520e-01
-5.610689768522122978e-02,-7.713336581609156473e-02,-4.314534676553680725e-01,4.677705234536317334e-03,2.650225958623831160e-02,6.382783210934779572e-02,3.844862580299377441e-01
-5.644957398446617813e-02,-5.834227803464132889e-02,-3.071901854724197189e-01,2.232445829671697666e-03,2.582496107857089329e-02,3.324907941091116009e-02,2.602539062500000000e-01
-7.154472640629030988e-02,-6.539372186398970110e-02,-3.158014139817583721e-01,1.422131993289052661e-03,6.619954774434000377e-02,6.085964230896043908e-02,2.923465073108673096e-01
-5.110397993240474446e-02,-5.621764931560810363e-02,-3.097117678874894975e-01,4.070986335495935249e-03,5.740040372319313300e-02,3.056360935211922467e-02,2.798539698123931885e-01
-5.658312396280774925e-02,-5.877489858356879648e-02,-2.934144650540869703e-01,2.120482282672094692e-04,-2.303121058728141261e-03,-2.272777829025606107e-03,2.358099967241287231e-01
-7.372259833768558812e-02,-6.332304046362517702e-02,-3.468152341622224855e-01,-3.421507806974227739e-03,1.201209549763193260e-03,3.822216248919083504e-03,2.785876095294952393e-01
-4.588298741306001682e-02,-5.733766242909188460e-02,-2.874170096394875196e-01,2.334309615909959876e-03,3.944661018459504564e-04,-4.421247522784555774e-04,2.360521107912063599e-01
-5.127179966043840520e-02,-5.540562887750653809e-02,-2.919959010780051045e-01,4.217622062245167218e-03,-2.906042959869893812e-03,-2.440117858404651507e-03,2.388862371444702148e-01
-4.176323625670932960e-02,-5.927242905696716857e-02,-2.895437206144790276e-01,-9.962892777033048250e-04,-1.898845384027075464e-03,2.036256801851798977e-05,2.395351678133010864e-01
-5.714076923769206839e-02,-5.869267604824257578e-02,-2.911695128283190992e-01,3.065386642280825552e-04,1.160862669772490426e-03,2.117910382809688220e-03,2.332947701215744019e-01
-5.692814173528806809e-02,-5.818734879703327256e-02,-2.889305582255704552e-01,-3.001039894117376556e-05,1.055010829918551522e-03,1.726919624153414436e-03,2.314019352197647095e-01
-4.369874423885661274e-02,-5.733500151363511710e-02,-2.876447165179355503e-01,2.486539470445297585e-03,-2.030296983573270583e-03,-1.514754785316513525e-03,2.375013083219528198e-01
-4.203941002267727600e-02,-5.755148310910236653e-02,-2.881056848761186506e-01,1.922790441427405005e-03,3.765658594085907166e-04,4.143042265265022505e-05,2.387127131223678589e-01
-5.965857474189822929e-02,-5.860718273770604281e-02,-2.900529738242103583e-01,-3.542756826300025243e-04,9.665850267623842494e-04,8.154386656508499052e-04,2.309330999851226807e-01
-4.438757294722286972e-02,-6.334465395159961931e-02,-2.908468765906536690e-01,1.550155357529959957e-05,-3.472515744651745017e-03,-3.362424664933092019e-04,2.376255989074707031e-01
-4.270598452287846514e-02,-6.948115464525288221e-02,-2.683786181310204855e-01,-4.769310426383915717e-03,-1.059205970902246316e-02,5.258849800770168392e-03,2.146867662668228149e-01
-5.475249032993068088e-02,-6.240712182743254899e-02,-3.207738825983186270e-01,-4.273265749005650954e-03,-3.219313021106309791e-02,1.621084529706847549e-02,2.697072923183441162e-01
-4.964535431086249118e-02,-4.857731921597739644e-02,-2.693995845707590209e-01,-8.142712287319449349e-03,-6.828347083504320014e-03,1.232766304683787992e-02,2.220866382122039795e-01
-6.070351642797824909e-02,-6.212227624563254613e-02,-2.908136581110940533e-01,-1.232583041303223197e-03,-4.558250710187109660e-04,-1.030593517768280945e-03,2.294222861528396606e-01
-5.973134173029533145e-02,-6.502266852153035237e-02,-2.911802612462341955e-01,-3.495614452707483015e-04,1.398302501358954057e-03,1.498760151366873268e-03,2.288774847984313965e-01
-6.051296169830437666e-02,-6.507683656142920769e-02,-2.915278606636184655e-01,-3.616619843937368185e-04,1.980492072187737922e-03,1.326630568707540129e-03,2.288052141666412354e-01
-5.896790677768962152e-02,-5.999260070637546516e-02,-2.904028635227963173e-01,3.218869551057081330e-04,4.998755269855391847e-04,-1.744402636797490322e-03,2.309463769197463989e-01
-7.006206242241511117e-02,-4.925149691631674348e-02,-2.149811942820128996e-01,2.384882474915424322e-03,9.169079289355236721e-04,1.365507907907684802e-02,1.582069844007492065e-01
-6.923797978463089309e-02,-4.577494807749519362e-02,-2.072970872903466544e-01,-6.457652653489093925e-03,-1.831168667282326822e-03,1.610577144283618922e-02,1.541540324687957764e-01
-7.217381976596727589e-02,-4.576044904680473535e-02,-2.078762919506129681e-01,2.371327319531462384e-03,3.611951684798998287e-03,1.792719228075980581e-02,1.540043801069259644e-01
-6.127633605988398041e-02,-5.089140185752788481e-02,-2.352265197359738602e-01,1.023748127682054185e-02,1.614493468892681458e-03,9.519999233725744830e-03,1.810168623924255371e-01
-6.871086325654912619e-02,-4.849487608026736146e-02,-2.125130614519120109e-01,7.017432935444064754e-03,1.805865387566572833e-02,3.319539000221123637e-02,1.686023175716400146e-01
-3.780572219670200185e-02,-5.184303565049138557e-02,-1.016640487105849727e-01,-4.666542708913775858e-03,1.543570291871005154e-02,6.045261208846719470e-02,1.229723542928695679e-01
-7.760302403456537101e-02,-6.432118254815992475e-02,-1.356525235966141718e-01,5.405644894391424884e-03,8.849203678200977946e-03,3.112614661704278182e-02,8.686918765306472778e-02
-6.015304055804074346e-02,-5.440579036337375718e-02,-2.919379196028613066e-01,1.736160449012443837e-05,-3.941256533414868126e-04,9.865838414514862577e-04,2.347185015678405762e-01
-5.943955127387080817e-02,-7.202514793747635813e-02,-2.952567390033341010e-01,1.139766542583992882e-03,8.406311048005711030e-04,-9.121998836715200574e-05,2.297961860895156860e-01
-6.087887959343504796e-02,-7.473471651841112617e-02,-2.944367832047718458e-01,4.496326423674432485e-03,3.460757094341947626e-04,1.349058652800420258e-03,2.270938307046890259e-01
-5.592793872822197920e-02,-7.419284529535891126e-02,-3.068932011934782378e-01,1.486104409931300521e-03,-2.249530835926470858e-04,9.724169756841319389e-04,2.423693984746932983e-01
-7.019349677882139038e-02,-9.402443633775367515e-02,-3.747230704443452742e-01,2.001961602213652661e-03,1.419084509078329635e-02,-9.537358693055791869e-02,3.375699520111083984e-01
-6.805632465060029723e-02,-6.031367010168425802e-02,-2.967984929387627036e-01,9.908693078752228364e-04,-3.234791385529268981e-03,1.130475968710015992e-03,2.327921241521835327e-01
-7.947495368487567102e-02,-7.768968508793483441e-02,-5.271400618056952814e-01,-1.175426501556653012e-04,2.193286633643191236e-02,2.383077579464809581e-02,4.520545899868011475e-01
-7.527945807193806016e-02,-7.395159744944268532e-02,-5.142296545406317421e-01,7.186568110532779059e-03,-3.709188514393950420e-02,2.333150002260442335e-02,4.462928771972656250e-01
-7.232293558040106540e-02,-7.844023199998423346e-02,-4.889407302431680868e-01,6.735729709717690195e-03,-3.628750611561182282e-02,-2.297825707898351784e-03,4.185230433940887451e-01
-6.950937438520962686e-02,-7.108431587114327765e-02,-3.152046540496464822e-01,1.842450115075999761e-04,7.797605668803145318e-02,5.633907657916339268e-02,2.962175905704498291e-01
-6.689662657990164130e-02,-7.885036529969623176e-02,-1.529527359759705052e-01,6.291171598042749570e-04,-3.394801897292161474e-02,-3.588579501521308151e-03,1.000853553414344788e-01
-4.458007502870360572e-02,-5.324120466579893018e-02,-2.854637338708994054e-01,3.317985825175586139e-03,-1.113149230105291067e-03,-9.582253836447058963e-05,2.367496490478515625e-01
-4.950941389017733674e-02,-5.145634051591085889e-02,-2.833482590248849187e-01,5.506510231153505242e-03,-7.956395181332395500e-05,-6.363234531035622649e-05,2.330667823553085327e-01
-3.728901803036395457e-02,-6.399594253596402327e-02,-2.693099991786225278e-01,3.211358339629554609e-03,-8.091962380434945118e-03,-3.860720651155433820e-04,2.204047441482543945e-01
-3.821848548425015035e-02,-6.646237567639083632e-02,-2.330407889657175047e-01,5.489798560746873141e-03,-2.306826462378070569e-02,-6.498189546959824356e-03,1.872549951076507568e-01
-7.976105923898305083e-02,-5.801639082190221397e-02,-3.002946696151314598e-01,-2.590284214287069415e-03,-4.078669284530798272e-03,-2.184283815244758391e-03,2.323524951934814453e-01
-5.591984370281448402e-02,-6.171953183143691346e-02,-2.404233123586487497e-01,8.746098192727494447e-03,-5.696166798946300514e-03,-8.468231077163414005e-04,1.825762242078781128e-01
-7.432960431710006199e-02,-5.629607286682131173e-02,-3.495436707435691237e-01,-8.326243855296865332e-04,1.605711902040179865e-04,2.412269692748647380e-03,2.846940159797668457e-01
-5.322560142841373243e-02,-4.945642273586797061e-02,-2.068985450905151402e-01,-4.230381649655098018e-03,-6.544384968495281507e-02,-2.681273143703836320e-02,1.981614232063293457e-01
-5.379496367169755988e-02,-5.913174865104914302e-02,-2.904570468774752001e-01,1.409092792648016044e-03,-7.345241536854477940e-04,-8.363924951908104869e-04,2.340599894523620605e-01
-5.360478621904177232e-02,-5.979477112340528255e-02,-2.908889802798702018e-01,3.874646339944528184e-04,2.260815958339830293e-04,8.250999983716282441e-04,2.342561930418014526e-01
-7.794028669384371610e-02,-5.893685080831659318e-02,-2.955225597747883626e-01,-2.720525635921480952e-03,-4.510370380781517411e-04,-5.602477892249107302e-04,2.277317345142364502e-01
-4.276071270545719893e-02,-7.285787328846299316e-02,-2.664457220210094124e-01,4.163767937430434135e-03,-1.091576293206227184e-02,-3.232286631780964797e-03,2.113039344549179077e-01
-6.872216956064607085e-02,-3.804740626710031992e-02,-2.306032562367214822e-01,-2.849214162687131648e-03,-2.664321188070102771e-03,9.091489767208388306e-03,1.800158470869064331e-01
-6.853717211277088328e-02,-3.568628114997676737e-02,-2.767545329843970059e-01,1.347443129939579747e-03,-7.268871970096318696e-04,3.786108033655136238e-03,2.265475988388061523e-01
-6.111154429574487679e-02,-5.256271739330106718e-02,-2.993047445391415762e-01,-1.447530702057548638e-03,-8.383755210817077667e-04,6.375357185064313599e-03,2.428490966558456421e-01
-6.080430434015403340e-02,-4.000477339234483065e-02,-2.544032047028998988e-01,-6.609502337645577034e-03,-1.959778216746715755e-03,2.958055091568858458e-02,2.114415466785430908e-01
-6.716566355675339384e-02,-4.671840463045613678e-02,-2.350528482404604103e-01,1.399505526642470408e-03,1.650055925417712177e-03,1.473967017670334452e-03,1.790463328361511230e-01
-5.325250159719875642e-02,-5.274108587850516450e-02,-2.877779452211199906e-01,-2.351720695251187203e-03,7.385357556268513078e-05,1.847494140299376698e-04,2.348171472549438477e-01
-6.735157350321450964e-02,-4.231907899911500903e-02,-2.549499348121761488e-01,-3.341944053525447867e-03,-1.571661923233062287e-03,6.563305000027891932e-03,2.017076462507247925e-01
-6.641477955954121215e-02,-4.016042420683194059e-02,-2.765325332868461827e-01,-1.733088277397072576e-03,1.952711299556039249e-03,2.157443402547402911e-02,2.275348007678985596e-01
-5.218288257294850796e-02,-5.370703262569542780e-02,-2.918979513217938027e-01,8.481128350749216884e-04,-5.644203713351466663e-05,3.721472040617335750e-04,2.389620393514633179e-01
-5.250329268565778751e-02,-4.911998952630444726e-02,-2.904138761950368908e-01,6.500261567361260854e-04,-7.320033271367272444e-05,6.932671898471751051e-04,2.396258413791656494e-01
-5.103948818440057211e-02,-4.332322852517175860e-02,-2.870420803196256365e-01,3.463330012728596096e-03,8.763772204905242915e-04,1.011772421282292880e-03,2.400399595499038696e-01
-5.031095058304298206e-02,-4.449900278976368084e-02,-2.888333549367513298e-01,3.101061759774647719e-03,-3.352673293968320089e-04,-8.798964469333827925e-05,2.415413111448287964e-01
-5.509604905458166668e-02,-5.296589642455001856e-02,-2.910704534154078260e-01,6.276696393100175469e-04,-8.187244828365001148e-04,-8.042098772384649857e-04,2.370574921369552612e-01
-5.411541290253957248e-02,-4.685199874316009483e-02,-2.897123107833567968e-01,1.767438702410446512e-03,-6.888228720271019623e-04,6.117000859458326598e-04,2.393361926078796387e-01
-4.931631303183242609e-02,-5.075924664103220740e-02,-2.905797799815890148e-01,1.413902493515994648e-03,-4.261112634715603377e-05,1.325927514166482034e-04,2.405578345060348511e-01
-5.424082680645463117e-02,-5.200876817191255053e-02,-2.917229988057286061e-01,-2.409965687625330574e-05,-8.313203179791122006e-04,2.006309649916553176e-05,2.386103868484497070e-01
-4.674368554340754822e-02,-5.339370775372048739e-02,-2.886751232884910978e-01,1.861676113574663605e-03,3.531133171370914956e-04,6.933257323365306715e-04,2.387015074491500854e-01
-5.995494521962309309e-02,-6.931128889667931281e-02,-2.907208217280398688e-01,1.890540068362790488e-03,-2.454350600158747473e-05,1.212449612171607885e-03,2.262663096189498901e-01
-5.803170886754491220e-02,-5.892177406096070491e-02,-2.944855285525445066e-01,-1.203856493829803549e-03,3.520903963755503061e-03,-2.815474767391501140e-03,2.361483871936798096e-01
-6.010489376688399332e-02,-7.828685243647248715e-02,-2.987849683235052622e-01,3.279224634028384336e-03,1.899245475442207448e-03,-2.898017754470096768e-03,2.302767187356948853e-01
-5.991673648906600813e-02,-7.254081146593359397e-02,-2.981344646797644549e-01,1.169536274620041217e-03,-1.827841624765136732e-03,9.860229880759201551e-04,2.321999520063400269e-01
-6.068787194514624339e-02,-7.231113170008825197e-02,-2.965631332825760524e-01,1.871298858671450972e-03,-2.277625652866400671e-04,1.359904869840297334e-03,2.303189337253570557e-01
-6.364733818702031365e-02,-7.503835245322001968e-02,-3.069600791899045888e-01,8.070234260543672489e-03,-2.789583828380238096e-03,-6.578005896538136749e-04,2.382840663194656372e-01
-5.970846287349965142e-02,-6.989569849375967814e-02,-2.912225343656290044e-01,1.623109544231119772e-03,-3.522868348778073172e-05,-9.682961465733615214e-04,2.266159206628799438e-01
-6.336709151799520268e-02,-6.661489094108791198e-02,-2.911363266093707214e-01,1.825011288241977243e-03,-5.262677571170862236e-04,5.962324332948691546e-06,2.261867523193359375e-01
-6.470242949706833668e-02,-7.465657923240831551e-02,-3.138514963501378707e-01,3.486474694893159764e-03,4.896207419575036857e-02,-7.240408876284504247e-02,2.874885201454162598e-01
-5.274075638571546626e-02,-6.561057875979783849e-02,-1.825902931548345209e-01,-2.432024352689064230e-03,6.482414542394952794e-02,-1.257796324473250439e-02,1.686839163303375244e-01
-5.424256194249388319e-02,-5.707772653930118234e-02,-2.855574570180290928e-01,-3.674222039372614969e-03,2.325285713082586234e-02,-2.402602358662168577e-02,2.371774464845657349e-01
-6.092371281708723607e-02,-5.768809534226621016e-02,-2.942732401802999886e-01,1.148201697914895316e-03,8.148691870634636875e-03,2.225411777939756940e-03,2.354474812746047974e-01
-5.072706477129429459e-02,-5.658026925057960121e-02,-2.928861030012250843e-01,-8.364366852024381635e-04,1.240717568089848115e-02,-7.061103762291053194e-03,2.405646294355392456e-01
-3.984629261916967924e-02,-6.024397814299931042e-02,-2.642546243109328286e-01,2.616737284646890749e-03,1.722724571619378003e-02,4.492071423527984101e-04,2.170466184616088867e-01
-5.447702774600210462e-02,-6.022049247226596291e-02,-2.964024532927012623e-01,-1.044334698811228156e-04,-2.172977887254993849e-03,1.187793599024273465e-03,2.391439676284790039e-01
-5.638988920716445086e-02,-6.915173632198957920e-02,-1.788474007903518570e-01,-7.501382467903099961e-03,3.618488538904286733e-02,-2.903576334491529687e-02,1.422040760517120361e-01
-7.502027210174211369e-02,-5.639084697132404345e-02,-2.940390498939380315e-01,-7.825009442143340994e-04,2.763042953049568359e-03,2.705527260740220536e-04,2.289572805166244507e-01
-6.665254386089061733e-02,-5.625856672428976302e-02,-2.947889008504367969e-01,-2.677778636492076075e-03,4.939732278466250556e-03,-2.826465522330887103e-03,2.337608933448791504e-01
-6.441914078121203924e-02,-5.313833771739590039e-02,-2.949699931922749041e-01,2.229986014139039106e-03,9.595530087942307634e-03,5.370169734267335460e-03,2.371906638145446777e-01
-6.420034084762046844e-02,-6.112872406275735027e-02,-2.931048096686662552e-01,4.979265223398852015e-04,7.100907433375922874e-03,8.451794401347911823e-04,2.307898402214050293e-01
-6.613151659233504343e-02,-5.862929048424923850e-02,-3.451391443452817009e-01,-5.943664944107928316e-04,-2.536580777858650840e-02,4.512187424879569864e-03,2.863339483737945557e-01
-7.014881702604378044e-02,-6.136660586372660875e-02,-3.006037088892499209e-01,5.469411836905279864e-03,4.982587540923059726e-04,-2.323974034214792376e-04,2.351619452238082886e-01
-7.731939320862327159e-02,-5.599373420801267986e-02,-3.020224773563553455e-01,-1.766417726408139963e-03,6.957467541637108810e-05,-1.504652621417853792e-03,2.361236363649368286e-01
-5.265684260935217520e-02,-5.753369806185761742e-02,-2.362821305389128934e-01,-1.064309896798037655e-02,-2.241430065330601504e-02,2.494846440202262011e-02,1.912088394165039062e-01
-5.865911440894398809e-02,-6.147054771345299151e-02,-2.058623298323850603e-01,2.387710044353392406e-03,-6.989127671742301207e-02,-2.410915035210945204e-02,1.941083967685699463e-01
-8.208348965850728596e-02,-6.944907212203715874e-02,-1.807394355262180174e-01,-7.686936919684061661e-03,-4.154251005938639635e-03,4.773954599083525541e-02,1.349270790815353394e-01
-6.441435291747744929e-02,-4.841681990665512580e-02,-2.187428518428367052e-01,9.397573532061276325e-03,8.654789859324586720e-03,1.635654114663683684e-02,1.668362915515899658e-01
-6.607053517142955079e-02,-5.560383433258685865e-02,-2.179817871520328132e-01,-3.865844408056495502e-03,-9.723121151559306272e-03,1.312447466174996441e-02,1.600680947303771973e-01
-4.565606650114724385e-02,-5.552946713142500879e-02,-2.704952984252468329e-01,4.185031077772708927e-03,2.193806349012265150e-02,1.296937143454393593e-02,2.245689928531646729e-01
-6.187954072589072624e-02,-5.141183781237664008e-02,-2.295336194132999164e-01,-8.886742986880830086e-03,-1.430496947469081124e-03,8.399010140655763235e-03,1.744336783885955811e-01
-6.552084647047037858e-02,-5.914702384818817243e-02,-2.019315322579686711e-01,-6.219561981360904185e-03,-1.295404070302890245e-02,4.534827200672873781e-04,1.419085860252380371e-01
-6.170002272082372730e-02,-7.652177179252075967e-02,-2.960730441586137962e-01,-4.965402290346032643e-03,-6.410339187207593535e-04,-8.860234915357137128e-04,2.274953424930572510e-01
-6.203750375175905163e-02,-7.770065331325558267e-02,-3.209258365885099273e-01,-3.585248552820275748e-03,1.457412335244444128e-03,2.552487863252248966e-04,2.515126764774322510e-01
-5.986430519786611892e-02,-7.299271905799270543e-02,-2.981229746517817802e-01,-5.962555428856164581e-03,5.103752303947976191e-04,1.804060818986241797e-03,2.322257310152053833e-01
-6.607737154709059091e-02,-5.187468109232139246e-02,-3.393187457001396456e-01,-2.129420336190928752e-03,-6.559351370567739412e-03,-1.163334134430911437e-02,2.815883755683898926e-01
-5.965392636905290924e-02,-5.923206603548712701e-02,-3.048183324067828548e-01,1.070778752291406347e-03,-5.641680809446394940e-03,-5.734428005418290564e-03,2.457778751850128174e-01
-5.803438018488944750e-02,-6.341199630214135186e-02,-3.583719734779323707e-01,-1.202990342295621150e-02,7.337015481621019658e-03,-1.937329673025500049e-02,3.005630075931549072e-01
-6.091285926798470363e-02,-6.616723174125041518e-02,-2.899478630209808006e-01,-4.264070313517885277e-03,-2.812677187335941003e-03,2.223477451575345005e-03,2.266590297222137451e-01
-6.870910561802404115e-02,-5.003792675210695651e-02,-3.884219695138967920e-01,4.903809350527319269e-03,3.750118711342073641e-02,-5.700650183833672058e-03,3.360401690006256104e-01
-5.416089835531726071e-02,-6.056613191801099583e-02,-3.224879335599392105e-01,-6.478887134729092263e-04,2.854806902350352782e-02,3.716297691326593544e-02,2.773287296295166016e-01
-5.934959854385005174e-02,-6.816578833470691989e-02,-3.621505262985336149e-01,-9.989962410718825070e-03,8.139647385600393484e-03,-3.315444267660917071e-02,3.047825396060943604e-01
-6.692823675447404086e-02,-4.051634816241056480e-02,-2.881621585115652362e-01,-4.611573795364304037e-04,8.205119599293598555e-04,1.005218105541272680e-02,2.362012714147567749e-01
-6.203625263138584645e-02,-4.030819504834473599e-02,-2.854964539059912654e-01,2.438815428501312117e-04,-3.963531507244159716e-04,6.474364924891817460e-04,2.350826114416122437e-01
-5.949995546803193980e-02,-4.298081034629008812e-02,-2.864281803175486862e-01,-6.000110200115737688e-03,-5.079626956615995031e-03,5.467205562000358732e-03,2.362055182456970215e-01
-6.454378123901427511e-02,-6.979452048113740648e-02,-3.398911117990588426e-01,6.912718787958426793e-03,2.592739754435964376e-03,-9.476913978274017353e-03,2.735523879528045654e-01
-7.584375915692964654e-02,-6.601114382272046943e-02,-3.591719740309967657e-01,-8.950717138503577058e-03,-3.348427067738025432e-03,-1.776259384063978838e-03,2.888613343238830566e-01
-6.731511565270276165e-02,-3.683984890575865701e-02,-2.679449144784214476e-01,-8.000987764664437224e-04,-1.121327885931625891e-03,1.053670258891799272e-02,2.182522863149642944e-01
-6.335963967190713642e-02,-4.001406796427563195e-02,-2.856723650594812369e-01,-1.272969473222316898e-03,-4.321790312669915833e-04,2.652755361727806259e-03,2.349138408899307251e-01
-6.289834110258281374e-02,-3.547766099891695724e-02,-2.819344593184769376e-01,3.027261884637864973e-03,2.483758531352803635e-04,3.481100860859952760e-03,2.340915799140930176e-01
-6.271142370923554754e-02,-4.205416591905958290e-02,-2.867458839294977357e-01,6.159188258146625506e-04,3.719165391925004574e-04,1.314672900281673232e-03,2.350592166185379028e-01
-6.374369049681383181e-02,-3.933949751178986154e-02,-2.863530408745071920e-01,1.020678168229245111e-03,1.804176464920255669e-04,2.314765153876053271e-03,2.358015775680541992e-01
-6.146248953375217650e-02,-4.060554126698501243e-02,-2.540341664866624383e-01,-5.380972839982534409e-03,-1.364311115700630930e-03,6.744660585731276393e-03,2.043630182743072510e-01
-5.532485767011523226e-02,-5.397710387456608472e-02,-2.898729614834394397e-01,-7.095590184810221740e-04,-3.438742016103395150e-04,1.242778154144721231e-03,2.352386862039566040e-01
-5.458055084301283166e-02,-5.668061251852883620e-02,-2.907241583189056344e-01,-1.206973163781497986e-03,3.874507470065858866e-04,1.878405627984769746e-03,2.351333796977996826e-01
-5.595462640284075417e-02,-5.797448010645550598e-02,-2.908127872580029694e-01,-9.282141645647998436e-04,-3.384073339837265128e-04,-3.303509824729915050e-04,2.338617444038391113e-01
-5.079967106865250492e-02,-5.081100673611679830e-02,-2.911540309179329600e-01,-1.487641181860701570e-04,-4.527041519447278580e-04,4.025610614477367205e-04,2.403511255979537964e-01
-5.806293509821247589e-02,-5.790121124336554403e-02,-2.887410981090869910e-01,-1.844520874632444804e-04,-7.253729512939066648e-04,7.199805197406485783e-04,2.307660728693008423e-01
-5.434693158579044503e-02,-5.582821282109917682e-02,-2.902205278840956360e-01,-2.166435169470759450e-03,-1.133224458478124773e-03,9.327541986536969478e-04,2.351801395416259766e-01
-5.707195049909011275e-02,-5.868446570255572703e-02,-2.911970638152592272e-01,-3.993073313395200069e-04,-1.551989023608138377e-03,8.421467857873763535e-04,2.333441078662872314e-01
-5.614361633806766450e-02,-5.344468149099629306e-02,-2.896017993739017360e-01,-3.676601136941087204e-03,-7.463890853772164446e-04,-9.200148984983343593e-04,2.349145710468292236e-01
-7.033859906850541133e-02,-5.618221092740062483e-02,-2.968291556231649753e-01,3.595596893414578486e-04,-2.765572419676565197e-03,-2.170802143325160222e-03,2.339703738689422607e-01
-7.513383584338209631e-02,-5.640768279973354393e-02,-2.940640195026390513e-01,9.199388540579324760e-04,2.834629366775353113e-03,-2.343022676827398107e-03,2.289627194404602051e-01
-6.464900367112896840e-02,-5.995417952642725923e-02,-2.912960668120688768e-01,-1.064014961674952190e-03,1.052363474715814788e-03,1.479649878301898206e-03,2.290595769882202148e-01
-7.293026333054822286e-02,-5.854488380073691323e-02,-2.923933537703573005e-01,1.544097418171848195e-03,1.290131951516427415e-03,1.535197284945741345e-03,2.270402312278747559e-01
-7.752087648450289858e-02,-5.980235277158189866e-02,-3.031090916066371266e-01,4.415923032852687134e-03,6.307921432235431662e-03,-1.275265140958197407e-03,2.353376895189285278e-01
-5.379342197171571582e-02,-6.314606094957309068e-02,-2.923001444708786534e-01,-1.034616339010313016e-03,-8.653683866436114817e-04,-2.021713512567802941e-04,2.339825630187988281e-01
-8.013509672557973806e-02,-5.795837369723352839e-02,-2.962765390099305063e-01,9.318198462576000917e-04,-2.610249020964126084e-03,7.337348827062146464e-04,2.280940562486648560e-01
-7.350762062712037914e-02,-5.903189615106455013e-02,-2.951818054298928629e-01,6.526617313314682757e-04,-3.168176777532638296e-04,1.237775157401118384e-03,2.292685359716415405e-01
-7.241268848490300947e-02,-6.021595185548847540e-02,-2.951972763469099537e-01,2.117747777004548929e-03,-2.564614376697603882e-04,1.277291115233020018e-03,2.291670292615890503e-01
-5.115429262299933666e-02,-6.221249928931177342e-02,-3.527226418362492399e-01,-9.437478883368626090e-04,3.676040869294779079e-02,-1.295496085892578093e-02,3.037945032119750977e-01
-6.517950880727520213e-02,-3.611463614732482452e-02,-2.761039974581047662e-01,2.068629422876870887e-03,-4.385760567245501162e-04,-4.062358699955701327e-03,2.269963026046752930e-01
-6.332493788062909523e-02,-4.378096059442973531e-02,-2.912369183406777196e-01,6.010232283559124216e-04,-1.548526279004184495e-03,-5.479157467941767924e-03,2.384921014308929443e-01
-6.130915195225797309e-02,-5.486702677358340496e-02,-2.972154372618056595e-01,2.323517763687778855e-04,1.758025770594759309e-03,2.158617340855193724e-03,2.392413616180419922e-01
-6.153417986213577384e-02,-3.857011842632597498e-02,-2.733415016673918507e-01,3.028281044485341047e-03,-9.987047268545244834e-04,-5.738267376560530174e-03,2.244614213705062866e-01
-6.013300957881115294e-02,-6.174643496839435364e-02,-2.943606121279769283e-01,-1.385572288526995110e-03,-5.956096351984309454e-04,-3.184977964890839831e-03,2.335048615932464600e-01
-6.385359858609898631e-02,-4.439734231238229301e-02,-2.794597526508978413e-01,-1.191096694915336207e-03,1.744007788959594379e-03,-1.001421223189722862e-02,2.266576290130615234e-01
-4.091031132483424759e-02,-6.223780899737138550e-02,-2.865586021768969371e-01,7.573111034476238262e-04,6.221302963999096429e-04,-2.129394854869181522e-04,2.357157170772552490e-01
-4.068033145170597831e-02,-6.161452119489377321e-02,-2.798897054317422972e-01,4.512506730275251191e-03,-3.082121164760743409e-03,-4.154301654526661061e-04,2.296558618545532227e-01
-4.342512812863963401e-02,-5.559818498004956422e-02,-2.851990999106687186e-01,4.823851687287945833e-03,-1.293106279500389443e-03,-1.377522725250952015e-04,2.360817492008209229e-01
-4.881787927079153655e-02,-4.817350142638132660e-02,-2.830126497819711595e-01,7.853114145061661916e-03,-3.749864007034326135e-03,-4.291868729969113699e-03,2.351190596818923950e-01
-6.430838297917765289e-02,-3.725940250811149435e-02,-2.843830072958545285e-01,1.365982897609556955e-03,-9.732487009984305164e-05,8.042867819601707451e-04,2.347868084907531738e-01
-5.982063409756051275e-02,-4.652932717475019575e-02,-2.873012553493780041e-01,8.493982705994133344e-04,-7.524376817227724232e-04,1.821565032806882244e-04,2.344175130128860474e-01
-6.282072445298697572e-02,-3.868704791606170090e-02,-2.878572153836227998e-01,1.294868627065107105e-03,1.140838347027852123e-03,2.870591691580321250e-03,2.380934059619903564e-01
-6.732066881357032240e-02,-3.548005614474075697e-02,-2.347273068753149838e-01,1.336267793649931939e-03,-2.397154975938437134e-03,4.419325308101983152e-02,2.006261795759201050e-01
-5.890797008678125279e-02,-4.365769835614999317e-02,-2.833305080136664378e-01,4.199835250775958879e-03,1.722280699552419217e-04,7.428028758933027465e-04,2.325407713651657104e-01
-6.063744040319313244e-02,-4.073134953459361940e-02,-2.826242682245435622e-01,1.305702043157252893e-03,-4.574526332708542232e-04,1.258605383744504152e-03,2.326022088527679443e-01
-5.718293923837197701e-02,-4.974578551736651144e-02,-2.897379000227101598e-01,7.018406496440073332e-04,-7.338022504662145874e-04,-7.098791493050310777e-04,2.363710552453994751e-01
-5.625130844722112111e-02,-4.516214050290477677e-02,-2.877243982879357231e-01,8.190825167084932147e-04,1.216997413533089435e-04,-1.693599727732376155e-04,2.372166663408279419e-01
-5.648407053478994577e-02,-4.876806935265852461e-02,-2.819269631626692973e-01,7.985428451082710391e-03,3.979035728131220806e-03,4.394907143441034204e-03,2.300441265106201172e-01
-5.340865461868310460e-02,-5.036945074668086608e-02,-2.216014365333965619e-01,2.770531300924649904e-04,7.129084112319707123e-02,1.083424685312316116e-02,2.107338309288024902e-01
-6.331751960886390640e-02,-4.347353340252857468e-02,-2.866659070335442205e-01,-3.325366650509916505e-03,5.907557564559073448e-04,-6.088584915351209076e-03,2.342132478952407837e-01
-7.182016416850967033e-02,-5.251850387833455203e-02,-2.972812278552325882e-01,-7.476480306266013176e-03,7.801060061172358263e-03,-3.841984931361937250e-02,2.456329315900802612e-01
-6.169238214041569690e-02,-4.136268409361659737e-02,-2.837190763534981897e-01,-2.133139889964729558e-04,-1.467755193145481275e-04,-1.789350953983840807e-03,2.328791320323944092e-01
-6.288086289174812937e-02,-4.214096602252426216e-02,-2.836198818190653892e-01,-1.327728475855191864e-03,8.782734486005109578e-04,-1.643392193285556427e-03,2.318397462368011475e-01
-6.592697885665023405e-02,-4.983655637558340179e-02,-3.065464092204925883e-01,1.996440232838197874e-03,-1.145566839582383423e-02,-3.412823401285637603e-02,2.567647695541381836e-01
-5.618427593580527235e-02,-6.184922648897023256e-02,-3.084169460732427703e-01,1.728173568471316627e-03,-1.742767903172554641e-03,-1.256325709131143192e-02,2.504318356513977051e-01
-5.134586193196859216e-02,-5.190081636844053048e-02,-2.911522388729768096e-01,-1.591991383356873926e-04,-3.063510546166311587e-04,9.291636600442768242e-05,2.395301759243011475e-01
-5.392190619272661800e-02,-5.392772359925238068e-02,-2.907798277472930515e-01,-1.905695601315659715e-05,4.260031931237029498e-04,4.234988362901396402e-04,2.368572950363159180e-01
-5.126302245084569942e-02,-5.103228141937414530e-02,-2.913109352675877783e-01,2.151652202446957085e-04,5.471819846063620367e-05,3.166103271137571894e-04,2.401642948389053345e-01
-4.877703744419457921e-02,-5.025064598798900661e-02,-2.908365779822015273e-01,1.042110183720980224e-03,8.057576829358017046e-05,3.117808393956014203e-04,2.413334995508193970e-01
-5.888343319561814559e-02,-5.728479859552121356e-02,-2.933923828467225325e-01,3.881508819705271852e-04,1.900740583804250540e-03,1.897144058968167936e-03,2.353592664003372192e-01
-5.229826532311199205e-02,-5.515192024838272422e-02,-2.901153456511871842e-01,2.462852678772270779e-04,6.125100553218810031e-04,7.130633472553539205e-04,2.364091575145721436e-01
-4.941573388159600788e-02,-5.297227327211728731e-02,-2.902898193145663219e-01,6.852769109237401551e-04,2.906888830049495333e-04,4.898488034071212969e-04,2.391206324100494385e-01
-5.810380039344595349e-02,-3.816387314351160631e-02,-2.824082758135464388e-01,3.829371343775862194e-03,-1.278492945259968386e-03,-2.182772029771421797e-03,2.350444644689559937e-01
-7.461251085825629237e-02,-6.439473289038130654e-02,-3.572958498439698927e-01,-4.571408334783600910e-03,2.860299941704959846e-03,-5.191237263203607802e-03,2.882199585437774658e-01
-5.348674622352708741e-02,-6.389293316829455782e-02,-2.891729185684028813e-01,-1.162210353940581787e-04,-2.535018576052638743e-04,-1.267342362898091646e-03,2.306701540946960449e-01
-4.278212919334335729e-02,-6.246703894337138352e-02,-2.992764931247864357e-01,-1.633554423489168381e-03,-9.399913958453791352e-03,-5.040686954228216360e-04,2.477935254573822021e-01
-5.456248014231210308e-02,-5.953887141400673877e-02,-3.010319574073501148e-01,-1.463520031197350097e-03,-4.137904165445884072e-04,-1.917903544618310401e-03,2.440561652183532715e-01
-7.771566444978954269e-02,-5.120313602587006629e-02,-2.983737705465289158e-01,-5.135061589378202285e-03,-2.886524987921969612e-03,-3.807231277009239228e-03,2.353523075580596924e-01
-5.664773979906156942e-02,-4.852948289110990687e-02,-2.809493376225035699e-01,-9.546328726357166880e-03,-9.586784426331367015e-03,4.565523408898491606e-03,2.298036068677902222e-01
-6.001598452349136970e-02,-4.370194249479045223e-02,-2.821596700502660982e-01,-4.625771562798143902e-03,-2.084110313302088395e-03,3.015065562519767678e-03,2.309599965810775757e-01
-6.019585153592457716e-02,-6.198461886153276701e-02,-2.888711221814482255e-01,-1.308738162345937954e-04,8.004238352141232081e-04,8.992301141955557839e-04,2.277958095073699951e-01
-6.112888436491724364e-02,-6.221812347335968496e-02,-2.893346661506108752e-01,1.544296066991989987e-04,1.317262161980825488e-03,5.868625633388348424e-04,2.276769727468490601e-01
-6.055113285001324785e-02,-6.177379050745096523e-02,-2.899145590349689883e-01,-2.858091667889725834e-03,8.357569146755419037e-04,-1.045000283092629555e-03,2.288198471069335938e-01
-5.965656342750394470e-02,-6.982632488041438934e-02,-2.899850051483149893e-01,-1.298345326401731392e-03,-7.983452709846536625e-04,-1.845292224348337980e-03,2.254537940025329590e-01
-6.008082704628814330e-02,-5.961791706264690793e-02,-2.924881174003655104e-01,-1.337576722028124289e-04,2.563374224482226418e-03,2.337068672252106283e-03,2.327167838811874390e-01
-5.943495984999233595e-02,-7.083469677536002873e-02,-2.956717367476395797e-01,-7.880112172211333615e-04,-8.156497266691851078e-04,-5.048857341494999290e-04,2.307582199573516846e-01
-6.078694172866988543e-02,-5.964619247163520377e-02,-3.006823528836106152e-01,-2.764330821350612262e-03,2.717002543545247485e-03,2.766598713885925521e-03,2.406092286109924316e-01
-6.098573181603617055e-02,-6.649151830418059683e-02,-3.032405972133244143e-01,-7.795780316547128771e-04,5.094105844943869893e-04,2.351022343379240327e-03,2.395894676446914673e-01
-5.865365648504164420e-02,-5.712083380174842739e-02,-2.890833012027325122e-01,2.342041556371425061e-04,2.120818186433393038e-03,3.448533538480207626e-04,2.312301695346832275e-01
-5.630300359477347083e-02,-4.598514167642810124e-02,-2.872715951065081819e-01,-2.928993688636947774e-03,-4.297988412941064896e-04,3.407212898695299559e-04,2.363528907299041748e-01
-5.613767137360831105e-02,-4.140381267079670802e-02,-2.861769226482600015e-01,-1.219437148929621104e-03,-4.964418885271774246e-04,8.558176645194094786e-04,2.377643883228302002e-01
-5.871852988333237100e-02,-4.132867351054818339e-02,-2.859835812352378159e-01,-1.202750826021856644e-03,4.029857415575193477e-04,-6.245031485972568890e-04,2.364527732133865356e-01
-7.661620811185101965e-02,-5.930288636862829366e-02,-2.946691965097967825e-01,2.196900852197189447e-03,-4.877234429133086961e-04,4.867338696718006555e-04,2.272399216890335083e-01
-5.843369773628115382e-02,-4.695544246883448514e-02,-2.905266150171654238e-01,-2.707286992778980272e-03,-2.041214087062039506e-04,-7.997840384496339645e-05,2.380861788988113403e-01
-5.333227632708974209e-02,-4.669901197675467575e-02,-2.745221958424062247e-01,-7.743025393755830627e-03,6.247673376088432561e-04,-1.640354758998643350e-03,2.250006645917892456e-01
-6.637349152349597547e-02,-3.704877132770303949e-02,-2.710375482943686021e-01,-1.010825536746274948e-03,-1.710544500850885220e-04,3.943027462122244379e-05,2.207989841699600220e-01
-4.701005593857246478e-02,-5.730019370101496756e-02,-2.892720254358034371e-01,-1.934014621907530207e-03,-4.484428244115996019e-04,-1.206131424800536601e-05,2.373092174530029297e-01
-3.860107220217420809e-02,-6.308744947688568749e-02,-2.876908620151862328e-01,3.151012970326619745e-03,8.668484833526965069e-03,1.169044672542889161e-03,2.383386492729187012e-01
-4.096655788030043044e-02,-6.460432024190207456e-02,-2.516287061227670541e-01,6.484447647613779397e-03,9.264442246637208389e-03,6.083533911221099787e-03,2.011277377605438232e-01
-4.827748860834199518e-02,-5.412541577722219943e-02,-2.905938495477531358e-01,6.300487936584137950e-03,2.784244521660129111e-03,1.669232356069403006e-03,2.397604435682296753e-01
-5.198893352281716562e-02,-4.585006295043397850e-02,-2.522043988002301562e-01,1.089723398834869204e-02,4.149458500577696274e-02,4.192258455140700224e-02,2.283575534820556641e-01
-5.619324873006892318e-02,-5.057424836198033680e-02,-2.676034762088170815e-01,1.018872888756283158e-02,2.194500650563454072e-03,1.234775546390450267e-03,2.150447070598602295e-01
-4.663390519178441107e-02,-6.111446003912341524e-02,-2.141834506371277369e-01,8.438631747733208940e-03,1.141800975947787622e-02,9.013464767405728051e-03,1.634160280227661133e-01
-5.084131820133834523e-02,-6.016481072795483442e-02,-1.951816670864079395e-01,6.734673732540127564e-03,7.084170178283150099e-02,2.285268866118703862e-02,1.906141489744186401e-01
-4.034694133953659057e-02,-6.409904861641881058e-02,-2.712804362212979936e-01,2.080739617956686542e-03,1.366721452281218982e-02,4.839790093661314012e-03,2.214789390563964844e-01
-3.918525590229074429e-02,-6.633751112662880645e-02,-2.639408376700083103e-01,3.352421974043970007e-03,1.396321521705490287e-02,2.570843614593006435e-03,2.139816731214523315e-01
-3.969165148408307364e-02,-6.397369702970517880e-02,-2.458534962265813972e-01,7.625375321669419608e-03,1.985802597141511638e-02,5.309218647178657116e-03,1.988172978162765503e-01
-3.916547590813865276e-02,-5.844029594113260562e-02,-2.708781023716799186e-01,3.468460359502293418e-03,1.283093811520042392e-02,8.246057852653159445e-04,2.238929867744445801e-01
-5.204633782659673358e-02,-6.027062741650784927e-02,-2.598243479705757419e-01,1.124528423043084403e-02,1.194207409748891148e-02,1.277799433849848183e-02,2.069481909275054932e-01
-5.439180045503862887e-02,-5.447156017103416126e-02,-1.443391923531378573e-01,-1.576388227193147506e-03,6.619623597703828966e-02,4.133364739574105218e-02,1.623639613389968872e-01
-5.333898706440236281e-02,-4.909390852519841808e-02,-2.898929977784400203e-01,2.631183711113520545e-03,-4.654946589389491940e-04,-8.577280833521596856e-04,2.387543469667434692e-01
-4.030572020128082855e-02,-5.663378822133911805e-02,-2.815073481818373136e-01,4.725511455974488149e-03,-3.279866367099842049e-03,-1.920747307214545679e-03,2.337023913860321045e-01
-5.228824053762765045e-02,-5.203810215437107423e-02,-2.867246813507648984e-01,5.500774319068708028e-03,1.754780365538727380e-04,-3.261229511864231160e-04,2.347559034824371338e-01
-4.477275394542246101e-02,-5.662198071490424922e-02,-2.885313700233966272e-01,9.475105826372862226e-04,5.416355699070499923e-04,1.613747834952285382e-04,2.380629479885101318e-01
-4.109145525686039302e-02,-5.626446336842183538e-02,-2.826670578792258581e-01,1.978192289756548327e-03,2.980252306962730049e-04,-2.074776502295233582e-03,2.344109266996383667e-01
-4.350582658457251284e-02,-5.637221126842935359e-02,-2.735235620687268554e-01,6.099915254852592179e-03,-7.122746276041639962e-04,-2.800438651684785275e-03,2.241670787334442139e-01
-4.496657496184554292e-02,-5.530591571984425081e-02,-2.671747636359046441e-01,9.532436571332052883e-03,-5.254081237811035476e-03,-4.015695341017505582e-03,2.181506156921386719e-01
-5.313113843570073380e-02,-4.707627903509983835e-02,-2.716291150267978738e-01,8.543131853691779409e-03,-4.923251101560431955e-04,-3.579537821984606506e-03,2.221691310405731201e-01
-5.385841485251341432e-02,-5.511345202504777663e-02,-2.895076303557259645e-01,4.832462967672480924e-04,-1.283612533440376020e-03,-6.176845310167227983e-05,2.350362390279769897e-01
-5.666699755217158296e-02,-6.508212195753707019e-02,-3.337806500729579851e-01,-5.535604838323038984e-03,1.522557595037614050e-02,-1.317837815434963998e-02,2.753892540931701660e-01
-5.770526047307431017e-02,-4.033134131424717661e-02,-2.783973934881935342e-01,5.901796967543974579e-03,1.492809300881151047e-03,3.820790581506087330e-03,2.302088886499404907e-01
-5.620293514063724738e-02,-5.657797699206359998e-02,-2.922841406887995985e-01,2.843307197343892742e-03,-1.226838988684884240e-03,-2.003029158337048254e-03,2.359803766012191772e-01
-5.339812148320258189e-02,-4.882087486109890073e-02,-2.912373640032285271e-01,7.619385953833795154e-04,-2.879430270008540580e-04,-8.934799631359037963e-04,2.401697188615798950e-01
-5.343010908152520666e-02,-5.450231937942212612e-02,-2.910331394604495636e-01,5.785855569755099341e-04,-3.877637644913733712e-04,-2.215503724241809768e-04,2.370721250772476196e-01
-5.772197295549336138e-02,-5.575185642312241452e-02,-2.906153152676715923e-01,8.580149798553427399e-04,3.016624862681851820e-04,-6.925572711989933872e-05,2.338899523019790649e-01
-3.595284792507549843e-02,-5.927839475916064221e-02,-2.650162064071455159e-01,3.327559321099372251e-03,8.971490698807609368e-03,8.472852363884291523e-04,2.189701050519943237e-01
-5.872366534678999384e-02,-5.329733537438409441e-02,-3.040476392133345529e-01,1.423779267152934340e-02,2.548183293236343586e-02,4.345319834175766227e-02,2.641309499740600586e-01
-3.913098799847072873e-02,-6.038687893840849474e-02,-2.858580208196077610e-01,9.496263445446826790e-04,-3.539319612185600795e-04,2.205946680331276311e-04,2.368224412202835083e-01
-4.091056936067627436e-02,-6.416018977945778246e-02,-2.878194797051646381e-01,-3.355647161881348400e-03,-7.774016938312814512e-03,-7.523834183647825106e-04,2.366026192903518677e-01
-5.090261244515531525e-02,-6.243239066184927410e-02,-2.775609734780619120e-01,-3.418605306340197800e-04,-1.477602051415013995e-02,-3.458758887466986762e-03,2.226765751838684082e-01
-3.969465171182895435e-02,-6.244806181733312395e-02,-2.527479025050972661e-01,1.211253892910795806e-02,-5.052573978948601829e-02,-2.331099391254272402e-02,2.253677397966384888e-01
-7.184773447821891923e-02,-6.369305543896583433e-02,-2.105202167047970363e-01,-9.670946046485474792e-05,-8.593686456605181823e-02,3.964930721503629818e-04,2.063572555780410767e-01
-4.959118543452545325e-02,-5.375585629355555950e-02,-2.886894375507597088e-01,3.644758115683543586e-03,1.172121028941188728e-04,-3.091478422151976613e-04,2.371280938386917114e-01
-4.554252057382157659e-02,-5.334371432090638521e-02,-2.878431531086947937e-01,1.041568738765728808e-03,5.677404298691563931e-04,3.099081903806957610e-04,2.385051995515823364e-01
-4.020022162745104377e-02,-5.805873897353153179e-02,-2.853084350439439865e-01,2.414905018284309139e-03,-3.981219965356760872e-05,-4.330871748848693042e-04,2.367229461669921875e-01
-4.464281799048705479e-02,-5.621102532171853849e-02,-2.878781758073568064e-01,1.022519118349187166e-03,-4.410837376136628353e-05,2.685980150085678941e-04,2.376695722341537476e-01
-4.286028832042756975e-02,-5.520888546404303932e-02,-2.837285323875326504e-01,4.038896657856322521e-03,1.480112865934459562e-03,9.208027462542903207e-05,2.350556254386901855e-01
-5.249806286073299688e-02,-4.532565337333351041e-02,-2.814296426104715421e-01,4.948890869630163947e-03,1.840710209155851885e-03,2.586903372474934782e-03,2.328235805034637451e-01
-4.943101284372196369e-02,-6.675002895567144767e-02,-1.942282158506408174e-01,-3.908324522911987495e-03,2.013164000150182570e-02,-4.896233129108596913e-03,1.417463421821594238e-01
-6.263180443636354178e-02,-6.252813013329408531e-02,-1.971225486720948883e-01,-7.640399450908817204e-03,1.902112150678829383e-02,-1.322737325434119975e-02,1.410217732191085815e-01
-7.252392070566168747e-02,-6.743682677666938685e-02,-1.371338746349127224e-01,-1.817117329084023307e-03,7.117742842859718470e-03,-1.664223399537315129e-02,7.430872321128845215e-02
-6.485989556670056222e-02,-7.175929621623536314e-02,-2.030514844746855174e-01,-7.266041176481679957e-03,1.886456669574169964e-02,-8.279140501665348956e-03,1.400810927152633667e-01
-6.076260251038266558e-02,-6.117468699097949880e-02,-2.970530523322334471e-01,9.965832504215893853e-04,8.783949948724426374e-03,4.501614983689954282e-03,2.367091476917266846e-01
-6.093654058871592061e-02,-5.426611752663429433e-02,-3.010861555716261018e-01,1.438387366057395289e-03,-1.413960695945739969e-03,8.680966145230570655e-03,2.440420389175415039e-01
-6.050381168412488631e-02,-6.716759079005460431e-02,-2.923990037581838397e-01,-2.421085812661161359e-03,5.076352750669618167e-04,-4.602626600939894162e-04,2.286776751279830933e-01
-5.979234277750897220e-02,-7.143633116658044957e-02,-2.958397738020299705e-01,-1.599560370780012575e-04,-8.339376139006958303e-05,-7.889271141710391903e-04,2.304504364728927612e-01
-6.120525166244353277e-02,-6.938564367104443908e-02,-2.984490620066702071e-01,1.564717153577382990e-03,2.581919445242985070e-03,-2.830247206678368141e-03,2.333713173866271973e-01
-6.005940030565817822e-02,-5.968316462203165917e-02,-2.940635058748422015e-01,-1.969369913242106397e-03,1.913459777848236509e-02,4.902607003505290301e-02,2.513300776481628418e-01
-5.818539523856257334e-02,-5.253302009511973125e-02,-2.927581139525595733e-01,2.974580419176601088e-03,3.012814582769600749e-03,4.410306620888898577e-03,2.376853674650192261e-01
-6.122223275492363892e-02,-6.796475812962654572e-02,-2.909105005524598164e-01,-2.553059299574700000e-03,-5.979509638318540425e-04,-1.300406473779897249e-04,2.264379858970642090e-01
-6.168352855854382366e-02,-6.035845008928883426e-02,-2.882967314584268248e-01,9.514791567759385603e-04,-8.405495205820778847e-04,1.902253022501618207e-03,2.273131608963012695e-01
-6.063847032838931561e-02,-6.743267286192355936e-02,-2.964157762071122360e-01,1.542486385891611881e-03,-2.020430328450066766e-03,2.487464218589663725e-03,2.325362861156463623e-01
-6.124101983093541146e-02,-6.297704033945836222e-02,-2.891152973740238608e-01,8.757879637964995816e-04,-1.552248674811983198e-03,1.101039550563931522e-03,2.270402461290359497e-01
-7.598086901086933964e-02,-8.969100202811075562e-02,-4.790813481958905440e-01,1.542655012914162342e-03,3.376358931519759382e-02,-3.313148038933950990e-02,4.048105180263519287e-01
-6.282111009919996714e-02,-7.017007209993342265e-02,-2.915921357501057853e-01,5.475747549851083494e-03,1.979208383108826687e-05,5.897602017020319668e-04,2.253884524106979370e-01
-6.808369633544891775e-02,-6.505595281683204667e-02,-2.917381435945630153e-01,5.418466198899959257e-03,1.546674504107336872e-03,-2.111797872492213353e-03,2.254246771335601807e-01
-5.926183491433612005e-02,-5.862841384042784265e-02,-2.876208101476204204e-01,-5.592764755170712924e-04,3.247754450552779162e-04,2.764152177808430169e-04,2.286795824766159058e-01
-6.277659690402921655e-02,-6.672187315732083790e-02,-2.889980472642393328e-01,2.218284055284363079e-03,3.304516656852141978e-04,5.557089099459910876e-04,2.243105471134185791e-01
-6.280476835872701724e-02,-5.573988200774612073e-02,-2.321120359343340489e-01,-8.662038326262928509e-03,5.291810323713572531e-03,-3.177964251712502020e-02,1.823456585407257080e-01
-7.513279196060310139e-02,-5.273676865947293790e-02,-2.299628589905096387e-01,4.500487168410900740e-03,-4.839119594833303506e-03,-2.168620770236368012e-02,1.717073023319244385e-01
-6.817826230605253390e-02,-5.783905300430144947e-02,-2.954383428367316489e-01,3.950925119100861702e-05,-2.221970408807862757e-03,1.219772325516529709e-04,2.326340377330780029e-01
-5.574989060078680558e-02,-4.875321245702899514e-02,-1.824040430840284666e-01,-1.311735652868760860e-03,7.132205939028482544e-02,-3.300656046984963565e-02,1.884419173002243042e-01
-5.138994558252620026e-02,-7.335581745309739665e-02,-2.850970724330720296e-01,-8.805563509539052203e-03,4.032489369734843648e-02,-2.457186181689282115e-02,2.385166138410568237e-01
-5.382683606221892736e-02,-6.065688838122409998e-02,-2.808188279035645496e-01,-1.301153843715611123e-02,1.258568272716932383e-02,-7.673432374662699298e-03,2.262330502271652222e-01
-7.076547348110874547e-02,-7.372769038534821018e-02,-2.420902838965099391e-01,1.140396785697079998e-03,2.878856379200627966e-02,-8.668237452161088596e-02,2.321318835020065308e-01
-6.362330088815050522e-02,-7.814849813079187413e-02,-1.344557102918955416e-01,1.506434973705308511e-03,2.403670992421673425e-02,-8.608057101006069689e-02,1.678363829851150513e-01
-5.045034387019966399e-02,-4.280840466036886505e-02,-1.126074785678206902e-01,1.301891530927817885e-03,4.521156572150027142e-02,-3.409034586372501618e-02,1.184090673923492432e-01
-4.269077564238538125e-02,-6.243464418852168185e-02,-2.754363201561566554e-01,-6.149984995248078228e-03,-2.409963608001759044e-02,2.206122122527738420e-03,2.276740074157714844e-01
-5.468084247986147728e-02,-5.328841499729358722e-02,-2.181041292324073233e-01,-2.845973772569930678e-03,3.624515790091389911e-02,-4.149703721372467735e-02,1.899160593748092651e-01
-5.872200802868486613e-02,-4.212065389305326424e-02,-2.732023983246037457e-01,-3.137148245088849149e-03,9.221885383148817122e-04,-1.191153002941114890e-02,2.242673337459564209e-01
-4.551304774673098352e-02,-4.300078604303209096e-02,-1.172526035283138340e-01,2.278759388520878223e-03,1.465204100867953559e-02,-5.529529214332258580e-02,1.231480315327644348e-01
-5.877267788619602862e-02,-4.591605317236266415e-02,-2.721791085925923670e-01,-8.407862065257586115e-03,4.999799973200640818e-03,-7.632380528794496279e-03,2.211630940437316895e-01
-6.466766772634528759e-02,-4.730145032041371822e-02,-2.978469723379466583e-01,-2.304891401710021034e-03,1.501110795246028869e-02,-3.449777266966087830e-02,2.509697973728179932e-01
-6.643790594854173670e-02,-5.577383544343944566e-02,-1.526648175425678600e-01,6.746429862165911548e-03,-8.396988564053525783e-02,3.690569738414722217e-02,1.839668303728103638e-01
-5.327207740216630127e-02,-5.838239583681203992e-02,-2.915533598495915202e-01,4.564276872499994919e-03,-3.993447771595257101e-02,-1.925687800411091805e-02,2.480839788913726807e-01
-5.051023679720872961e-02,-5.871889120250628480e-02,-2.903694702789035853e-01,3.539528502575006903e-03,-3.812649147829864655e-03,1.812932261979093213e-04,2.360343337059020996e-01
-4.401125912796499673e-02,-5.747135624961451084e-02,-2.836654377825561513e-01,7.948221357429377867e-03,-6.316833713538149569e-03,-4.326371396373786954e-03,2.339976727962493896e-01
-4.870859477976237362e-02,-5.331142356048143571e-02,-2.554398939587581019e-01,8.838012591748801994e-03,-4.312421549080421718e-02,-1.654512736450739624e-02,2.200956940650939941e-01
-3.474016999177478859e-02,-6.446438178506706806e-02,-2.774746798378144308e-01,-2.844203635968597238e-04,3.185765003502004367e-03,5.242040180147692664e-04,2.293904870748519897e-01
-5.106890136674344105e-02,-5.322284468298903171e-02,-2.975948412498097828e-01,9.291049889308378683e-04,-4.155575901697838859e-02,-1.900173298340007699e-02,2.579052150249481201e-01
-4.234052671325073264e-02,-5.644928271392100211e-02,-1.944864035135644431e-01,1.949067720909398007e-03,-5.115664399389109607e-02,-1.101572650167872286e-02,1.715438067913055420e-01
-4.683491831500935509e-02,-4.455387598979382302e-02,-1.866548295545250036e-01,-1.127487336304886217e-03,-5.474916991152066481e-02,-2.197710376954601502e-02,1.741233915090560913e-01
-4.077618144255697186e-02,-6.353784868868392333e-02,-3.025197595410414886e-01,1.310487668902549389e-03,-1.108246424707200715e-02,-2.230980781590962119e-03,2.519099414348602295e-01
-6.475686033869668123e-02,-3.502531625417625027e-02,-2.804284039725463140e-01,-4.249551183537281576e-04,1.488361820637399583e-05,1.607353721023373173e-04,2.319720834493637085e-01
-6.678020997160821759e-02,-3.655806201016943702e-02,-2.754201297120637548e-01,-1.873875126877238857e-03,-2.150492822549727383e-04,-2.921956532629004129e-03,2.253571152687072754e-01
-6.688357024636060189e-02,-3.736705506015471079e-02,-2.469435397197857207e-01,2.073092232680069126e-03,-3.023264526458913147e-04,-9.247708349129019414e-03,1.971732378005981445e-01
-5.211662552822823868e-02,-5.061710091632486141e-02,-2.867425442551905235e-01,3.371275861823663615e-03,-1.875327191517699198e-04,-1.118074420648173129e-03,2.354598641395568848e-01
-6.574719464211162268e-02,-3.939733813416532171e-02,-2.745861588372694451e-01,3.489431095612609713e-03,-6.814875771861377950e-04,-3.110446008106359009e-04,2.232691645622253418e-01
-6.499351048608117964e-02,-3.722022152661488836e-02,-2.856655172010537647e-01,1.485540557498211424e-04,-4.596387743694559070e-05,-1.941180271273478539e-03,2.358127534389495850e-01
-6.335003865273716728e-02,-3.696769062601866496e-02,-2.806142050919911979e-01,-2.493613080889250586e-03,5.044350208472669645e-04,-3.537573104566866036e-03,2.317081093788146973e-01
-7.186918572743901390e-02,-4.195107507829033688e-02,-2.342588315241285746e-01,-4.137008755931034960e-03,8.540727639265083271e-03,-3.082537215245049339e-02,1.877356320619583130e-01
-6.326541578392722021e-02,-3.686388518020655702e-02,-2.841738150552816644e-01,6.021026892601409088e-04,-1.489193654277643712e-04,-1.022439480536853351e-03,2.352321594953536987e-01
-6.433463412160692063e-02,-3.574383649634217675e-02,-2.841651104569316022e-01,5.497455100644217186e-04,4.447322605307227382e-04,-1.599809773325855172e-03,2.354510128498077393e-01
-5.430105355783663990e-02,-6.226168601391655899e-02,-2.398011849447231891e-01,-2.702884773593196462e-03,-4.288084835531146000e-02,1.225255165024289813e-02,1.974476277828216553e-01
-5.288645060757760086e-02,-5.915724987506354449e-02,-2.890463164678919727e-01,-4.088834126197712720e-04,-1.745433996502942077e-04,-5.126448155571991733e-04,2.330906987190246582e-01
-5.377763642876789985e-02,-5.532183039382840284e-02,-2.899872387089983405e-01,-2.619030657590668606e-03,-9.668447965725001964e-05,-1.420123100620352026e-03,2.354979068040847778e-01
-6.992759866371991984e-02,-5.990388212982102056e-02,-2.970339045474850170e-01,9.281927555640900190e-04,3.470440544132005929e-03,5.526549826935393363e-06,2.323637604713439941e-01
-5.998645008222172614e-02,-6.232908835213248067e-02,-2.857231200245168301e-01,-8.327637489182601258e-04,8.163798717663013974e-04,2.103627812784843176e-03,2.246131598949432373e-01
-5.433504085431323238e-02,-6.148494768081722017e-02,-2.994446886156063581e-01,9.269763309285861119e-04,-1.538479343587696854e-03,1.106861478004064932e-03,2.416416853666305542e-01
-7.690294345499854023e-02,-5.871277301481567235e-02,-2.947849442936768538e-01,-2.306344933445281242e-03,3.009843698681540251e-04,1.672356296164119113e-04,2.275589406490325928e-01
-6.967604712825360702e-02,-5.943700948596589151e-02,-2.904323505629844981e-01,-2.363203389160377019e-03,-8.048670600106855658e-04,2.530534250140324768e-04,2.260915786027908325e-01
-6.956168344018542893e-02,-6.016104158085279485e-02,-2.891557386558335496e-01,-1.777124746424008040e-03,1.230269856074458915e-03,-5.816986090658721452e-05,2.244733273983001709e-01
-7.844043491614258179e-02,-5.820870398621488806e-02,-2.950090076399281003e-01,-5.145237767504456244e-03,5.974085222711863780e-04,8.150797488897307394e-05,2.275375574827194214e-01
-4.609656831810220179e-02,-5.049810183503349037e-02,-3.378806305304856705e-01,8.925381545277537992e-03,-1.669259944939930490e-02,-3.417078624659368111e-03,2.915183603763580322e-01
-6.317955721278606385e-02,-3.732649783502761665e-02,-2.777725749577226733e-01,2.802534084020746712e-03,-6.777608906486927258e-05,-1.776762141478928055e-03,2.286907881498336792e-01
-6.496009833433789848e-02,-3.527831587707772054e-02,-2.753568292358351544e-01,9.083328041100882785e-04,-1.717961563064151782e-04,-4.174804059403488914e-03,2.268206179141998291e-01
-6.468969839585896053e-02,-4.003032513271527482e-02,-2.813659463600419741e-01,1.181860134841855798e-04,-1.539593471855397924e-05,-2.435600729515758137e-03,2.300383001565933228e-01
-6.323844406823472819e-02,-3.708325503177173355e-02,-2.822126981681084001e-01,9.937745450213494522e-04,-3.440105114604829692e-04,-1.336965292399897986e-03,2.331733554601669312e-01
-6.489641128252286728e-02,-3.604058427202122550e-02,-2.810816839240052323e-01,8.494316255850885256e-05,-3.135545474759059321e-04,-3.912217777739118718e-03,2.320628613233566284e-01
-6.432214055573637346e-02,-3.615512642547663580e-02,-2.822018298648256707e-01,2.970089246875198320e-04,-1.335097758774255925e-04,-3.557537184872112783e-03,2.333243340253829956e-01
-6.370283621110631178e-02,-3.496573474751216160e-02,-2.745874491790771810e-01,6.954732560546827741e-05,-7.380561087174958984e-04,-3.753131165326008354e-03,2.267206609249114990e-01
-6.621794836339307821e-02,-3.724922937575367299e-02,-2.375092096523721552e-01,4.707860941075817443e-03,3.530303748701811746e-03,2.251601710787368149e-02,1.917466223239898682e-01
-6.567356033787008496e-02,-4.079550773821884191e-02,-2.837137730299517102e-01,6.109648784013686079e-03,-1.344158653410683661e-04,4.323883240531287316e-03,2.318469136953353882e-01
-6.396585239260244027e-02,-4.488955976763554789e-02,-2.924198493948757527e-01,7.465008704443787564e-03,6.288392660623265580e-03,1.819432996000334979e-02,2.412303835153579712e-01
-6.315876650301455175e-02,-3.524893084175295677e-02,-2.836923203639067914e-01,2.991812464305538405e-04,4.394285329032574460e-04,1.301781509660001387e-03,2.357434928417205811e-01
-6.446340288394597495e-02,-3.519904484346245144e-02,-2.822536385394958103e-01,2.687554169368376730e-04,3.872734943936009182e-04,1.269272015226025844e-03,2.338118553161621094e-01
-6.824505486415066713e-02,-3.824764695719376495e-02,-2.727580322739272534e-01,5.703459900852606186e-04,-3.526634686859330759e-04,7.510458824195313148e-04,2.210504561662673950e-01
-6.747322983551551356e-02,-3.967541076888246587e-02,-2.499964228855284243e-01,3.058481786116503537e-03,2.154356680596983134e-04,8.791514596062598857e-03,1.985478699207305908e-01
-6.172965628364562862e-02,-6.176442090965672538e-02,-3.341098111443258634e-01,-5.245187542464943738e-03,-1.581587839036556475e-02,1.223270435088024549e-02,2.747059464454650879e-01
-7.277948325500520343e-02,-7.539032305223017372e-02,-2.958859334413272979e-01,1.064524302382945792e-04,-6.788780627988214716e-03,1.012427756257312378e-01,2.830007076263427734e-01
-4.578804247611445444e-02,-5.233054766540584657e-02,-2.799365762444243622e-01,4.733104026450529397e-03,2.955103263650118821e-03,2.126418218506876366e-03,2.311782687902450562e-01
-5.194582310403135506e-02,-5.209727577845942037e-02,-2.844459429557687491e-01,7.793407952128783393e-03,1.109314356090566889e-03,1.007801840058664133e-03,2.328305542469024658e-01
-5.900440787710486967e-02,-4.800292074624470939e-02,-2.831312474195727957e-01,9.980043304980670132e-03,1.945390452476189079e-03,3.892651667690337925e-03,2.305975258350372314e-01
-5.565364640724293488e-02,-5.236286282479699072e-02,-2.901666033238307074e-01,2.024672697144743773e-03,-5.173137339791909414e-04,1.220515736408263503e-03,2.362127304077148438e-01
-5.318042853425787586e-02,-5.234521548568327187e-02,-2.921227671129821291e-01,1.421942240646452459e-03,-3.492309381076144328e-05,1.101004197430936282e-04,2.393737882375717163e-01
-5.097748684269268193e-02,-5.104520820307109630e-02,-2.913017084704210280e-01,1.245277882449233407e-03,-2.545566917602266497e-04,-1.391633854815571927e-04,2.403005808591842651e-01
-5.651941517577968588e-02,-5.542148368616151011e-02,-2.901889919882040259e-01,9.073868043961629763e-05,-9.808764820822093219e-04,7.680893795614435388e-05,2.342267185449600220e-01
-4.809212344052324339e-02,-5.329268572144073290e-02,-2.855239608134435558e-01,6.058975343297164431e-03,-1.861714107036601036e-04,-2.812116484123626092e-04,2.351098060607910156e-01
-6.038947076551930138e-02,-4.256265960509501844e-02,-2.715188011650307986e-01,-2.553707316899465982e-03,-3.548531609093170383e-04,-7.809880395579722571e-03,2.210431545972824097e-01
-6.128140808364899994e-02,-5.574840703361594318e-02,-2.908582887721288812e-01,-2.424569755123819059e-03,-1.751928780266931126e-04,-1.557685824338680709e-03,2.324465811252593994e-01
-5.839108398803252720e-02,-4.622976499820032059e-02,-3.028573633994540160e-01,-9.834653461439468725e-03,3.142226329972724885e-02,-4.070225271220283270e-02,2.666588723659515381e-01
-5.789242939816677258e-02,-7.654349005747207446e-02,-3.005488717337299609e-01,-3.138121551608588351e-04,2.822598531859729708e-04,1.900614937947593197e-03,2.339136153459548950e-01
-5.747530737150560731e-02,-4.939798067711750895e-02,-2.886537038192921178e-01,-7.954180797653785401e-04,-1.008828095411294044e-04,8.280277088323904130e-04,2.353295236825942993e-01
-6.592373095977348274e-02,-6.112182436721930179e-02,-2.905561807165152333e-01,2.478301928290518701e-03,-4.114033361027801742e-04,1.006846145862815115e-04,2.271132469177246094e-01
-5.928865950914213867e-02,-5.877683013987322624e-02,-2.930571239398606642e-01,-3.323195289906698724e-04,2.743413554546366828e-03,5.522388985749937442e-04,2.340756952762603760e-01
-5.752978345737877475e-02,-7.231488239835121012e-02,-2.930220416810032646e-01,-1.413700933949781167e-03,1.118319757091540065e-03,-1.482256638374424874e-03,2.284945696592330933e-01
-5.862347172502041515e-02,-6.904572125858715603e-02,-2.970647589169610470e-01,7.175276673857508601e-04,-6.376920676877096371e-04,1.574782979509671554e-03,2.334266006946563721e-01
-5.711309571666448037e-02,-7.277099133796804953e-02,-2.928884284876577260e-01,2.455083760965220789e-03,1.270191794514098334e-03,7.371552889685805895e-04,2.284031212329864502e-01
-5.847183415715237476e-02,-6.649397125579928347e-02,-3.008733225801513700e-01,7.526207454265866278e-04,2.503671397217480435e-04,-5.279203215441245246e-03,2.386708110570907593e-01
-6.074517485821194496e-02,-7.929641218058447460e-02,-2.985706846652690372e-01,3.934950048799344333e-03,-5.771756654475326646e-04,8.210269637985844349e-04,2.292218059301376343e-01
-6.031346129604203687e-02,-7.688305273611578672e-02,-3.260098292224802297e-01,-8.754308607205607551e-03,-1.517731391104761018e-02,-7.670657357632768014e-02,2.916149795055389404e-01
-5.500770683247402371e-02,-5.440615397937836883e-02,-3.328573298440692940e-01,-5.499989091311268709e-03,-4.367861052433490501e-03,2.158226888155450468e-02,2.809150815010070801e-01
-6.117947217188302034e-02,-7.764311764959733186e-02,-2.965555338544013098e-01,-3.388398503316659115e-03,-3.251979302595289084e-02,9.426518644970330318e-02,2.857667207717895508e-01
-5.989263708475128789e-02,-4.434045887295545718e-02,-2.752383120074674006e-01,-8.612264620443297117e-03,-4.554645003191614035e-03,8.918258653583241435e-03,2.246955186128616333e-01
-4.922440154677801272e-02,-5.037211459053769769e-02,-3.192654816642876980e-01,-5.577106665749837280e-03,2.032109198329818886e-02,-2.031482423061876930e-02,2.741966545581817627e-01
-5.783912021118452207e-02,-4.687406869708189705e-02,-2.902345016576905468e-01,-2.279188101598957246e-03,3.155247921284866017e-03,8.090156430836435361e-03,2.385746687650680542e-01
-5.022199329928112715e-02,-5.783889549248863449e-02,-1.810397916147918895e-01,-1.587368769585657379e-03,-4.513238827850764301e-02,7.153907411707775832e-02,1.940277367830276489e-01
-6.691247510824305245e-02,-4.667214278745444173e-02,-2.042037318188295036e-01,7.518918049158858710e-03,1.905616461296365249e-02,3.654142162044549114e-02,1.652338355779647827e-01
-5.823913583487781015e-02,-5.173130285834682401e-02,-1.979144640619898143e-01,-8.331848486645350091e-03,-4.303556093948328332e-02,6.585970717028091781e-02,1.980845183134078979e-01
-5.963967580482826270e-02,-6.777128686377871525e-02,-2.921189630114536806e-01,5.021034712982214241e-04,2.209879787336365906e-03,-3.098881352713632551e-03,2.286187410354614258e-01
-6.598080285109964027e-02,-4.841752810379966465e-02,-2.120439700953267725e-01,-1.244619811905630594e-03,-7.453731539489606966e-04,-1.582845052269243186e-02,1.580069512128829956e-01
-6.294679700005709200e-02,-5.410611411036088392e-02,-2.471964635049084813e-01,6.735586942163486121e-03,-8.714450630956511318e-03,-9.438398593363556827e-03,1.904892921447753906e-01
-6.895213702756786134e-02,-6.906977480646209200e-02,-1.400882880281538734e-01,6.153344378437344657e-03,-1.159656290858357940e-02,-3.707884039206987836e-02,9.845583140850067139e-02
-6.872698504345528536e-02,-5.806915513513261073e-02,-2.956165951238305944e-01,5.281903119793655149e-04,-1.363300714951068849e-03,2.804640756115282319e-04,2.324161827564239502e-01
-6.593910890813106662e-02,-5.766134306155697165e-02,-1.942302117382236071e-01,-8.368456801486913975e-04,9.349583277709055951e-02,-1.160545472921769780e-02,2.102847248315811157e-01
-7.089010017168750899e-02,-6.195250245208353684e-02,-1.358620610201876910e-01,-2.792125523217494081e-04,7.054419217290279660e-03,-1.648229315287515900e-02,7.646211981773376465e-02
-6.752087749775273484e-02,-5.769952634310410167e-02,-2.863978896887288683e-01,8.913074776335638133e-03,-2.919619446455138864e-02,-6.285217364834125298e-02,2.545585334300994873e-01
-6.242866976462359274e-02,-6.354894987531339856e-02,-1.052667638508791026e-01,-2.126255990428934685e-03,6.436287411578174057e-03,-5.657395464286076731e-02,1.073687300086021423e-01
-6.471142357745583717e-02,-4.962956559564629666e-02,-9.483370397747380165e-02,7.653915242558722524e-04,-3.104458373458650680e-02,-3.800653011962406430e-02,9.389173984527587891e-02
-4.609291226702543626e-02,-5.963538630191414502e-02,-1.200034474175075139e-01,-1.204019400553717895e-02,-2.744887497179511124e-02,-6.976732715126116036e-02,1.481313407421112061e-01
-6.427543314232764260e-02,-3.991052175214999942e-02,-2.526605764365870144e-01,-9.198236948974015947e-03,2.452874384998844984e-02,-4.395645711037363124e-02,2.202905118465423584e-01
-5.310827687023329802e-02,-4.127089983618338620e-02,-2.342814482485819083e-01,-1.107300137826646401e-02,2.134271557503100367e-02,-4.964568487466793079e-02,2.103257179260253906e-01
-7.348861437692350007e-02,-7.485094433016442617e-02,-4.623328106380155123e-01,-1.011733903851945015e-03,2.292860177994798798e-02,-2.851967670954821260e-02,3.933093845844268799e-01
-5.365489550540496200e-02,-5.034690570397534759e-02,-2.874976292137957357e-01,-6.823040123598825453e-03,-6.099991604088412242e-04,-1.420511893178434161e-03,2.358256727457046509e-01
-5.772834835146310739e-02,-6.099276367003282628e-02,-2.968354744012372537e-01,-1.176456556042969684e-03,7.699481351416278228e-03,-3.856926116522272838e-03,2.379683852195739746e-01
-6.004774072357102477e-02,-6.004654545113868869e-02,-2.897409601681397717e-01,2.417142861074712346e-04,-1.114426838414181789e-03,9.613643198851767576e-04,2.297083437442779541e-01
-8.149337903937617367e-02,-6.547132116916501432e-02,-4.844563288471996909e-01,-2.704204273469245062e-03,9.056054565272584830e-03,-2.765015959603334128e-02,4.143111407756805420e-01
-5.755213229568928446e-02,-5.639136086330492903e-02,-2.926185242257173247e-01,-2.186248589715709869e-03,-2.232537726994567127e-03,-5.481618833095710207e-04,2.357129752635955811e-01
-5.662977608837395371e-02,-5.700712880494231138e-02,-2.886449833562615419e-01,5.486051966340073317e-04,-8.202541173986418847e-04,-7.475039314118920057e-04,2.318366765975952148e-01
-7.367777916134640726e-02,-6.138745988160707046e-02,-2.940365088123125803e-01,-2.100512932476861910e-03,-1.670075510485392488e-03,-3.918974330125788016e-04,2.268024832010269165e-01
-5.798070824429794878e-02,-6.239612560402357788e-02,-3.183468651151051265e-01,7.903786962982873449e-03,4.344877797296527872e-02,-1.539372783855849289e-02,2.705958485603332520e-01
-5.718585464769480875e-02,-6.731389444156281321e-02,-1.992960307761755256e-01,-5.923456980788999182e-03,4.223662340799606840e-02,-2.411953019084626601e-02,1.614338755607604980e-01
-6.886205475588101643e-02,-5.578290186723706967e-02,-2.497649933339062267e-01,-1.113991726372203644e-02,1.113652852800954898e-02,-1.253027529188121929e-02,1.909931302070617676e-01
-6.748739856979890650e-02,-7.217452539227950381e-02,-1.803004626132038157e-01,2.006969240040911134e-03,5.914863432252297909e-02,-6.228612699595874325e-02,1.853818744421005249e-01
-5.165683709275098456e-02,-6.082918359572700440e-02,-2.735933698834807082e-01,5.712189605613825043e-03,2.909221366977517501e-02,-5.559783111062929079e-02,2.433404922485351562e-01
-5.476328284672510316e-02,-5.555421732083518083e-02,-2.757615154642605315e-01,1.114174704200739932e-03,3.742477443506143919e-02,-2.874648115276269220e-02,2.352672815322875977e-01
-3.480868302736928044e-02,-6.540195912952694035e-02,-2.834688193658987387e-01,-1.636878282140308380e-04,1.256324627825105341e-03,6.077900449659794872e-04,2.348753064870834351e-01
-3.916638273217379340e-02,-6.269325010638560070e-02,-2.846094286335537626e-01,3.764926611703668657e-03,4.220540671862418186e-03,1.292325824339407483e-03,2.347813248634338379e-01
-4.225961841289785359e-02,-6.287256769385896060e-02,-2.837541602452720024e-01,1.649232468587548796e-03,1.341029390416144818e-03,1.688750305078743231e-03,2.319239228963851929e-01
-4.122089346307281077e-02,-6.231776686613320348e-02,-2.842309347424690769e-01,2.040249712215322310e-04,1.847580621750082334e-03,-4.059311778298082250e-04,2.332017719745635986e-01
-3.645263807257914657e-02,-6.374277236024201987e-02,-2.795949005702232926e-01,1.055840030885643816e-03,1.732927352826953192e-03,3.169516329194246016e-04,2.307383418083190918e-01
-4.038471938274670880e-02,-6.189501061339000576e-02,-2.844793668498040162e-01,7.657638116401237422e-04,3.181267232648585068e-03,1.186373967053365886e-03,2.341595292091369629e-01
-6.270522638379483205e-02,-6.488716308815010991e-02,-2.883624048838471232e-01,-1.652953516969005556e-03,-1.238480349423066356e-03,-8.648514821229918428e-04,2.246076464653015137e-01
-7.541227835335041763e-02,-5.931883533798405772e-02,-2.956831069441099302e-01,1.509691289012300925e-03,-5.628120721135234771e-04,1.499818953184978198e-03,2.287743240594863892e-01
-7.225704602641613850e-02,-6.242398918517169659e-02,-3.023211086937219183e-01,7.924915914885664880e-03,-8.694492825716357981e-03,1.444727845372111540e-03,2.360293418169021606e-01
-6.426257872115895275e-02,-5.733010868130337945e-02,-2.946181035460758157e-01,2.050490184367552773e-03,8.662753790928909639e-03,-1.006709165755987007e-03,2.344129830598831177e-01
-4.668093047710596133e-02,-6.467587058041052162e-02,-2.973517030908988668e-01,-3.519114729120588828e-03,9.102627185318672154e-03,4.360568059756748049e-04,2.427656203508377075e-01
-7.815978135464909937e-02,-5.967552869812198235e-02,-2.961532265122164276e-01,3.467960588355921674e-03,-2.275940102572263785e-03,1.380650837199604757e-03,2.279245406389236450e-01
-7.101888660197007430e-02,-5.859163056784436052e-02,-2.951617963963767410e-01,9.058850181344101429e-04,-1.874032904336044502e-03,3.311426569776371610e-03,2.307073026895523071e-01
-5.461026380585631834e-02,-5.252886353100259809e-02,-2.536676655079456721e-01,-1.176812414714412114e-02,2.751623949658595775e-02,-2.259749267529700609e-02,2.103837877511978149e-01
-5.210919933854588071e-02,-5.827291364073636237e-02,-2.899201811598266509e-01,-4.768458994795884281e-03,4.147136610236124704e-03,7.349909701674623526e-04,2.350482642650604248e-01
-5.771121492580363888e-02,-5.758358389364534591e-02,-2.890243917080226876e-01,-2.318771829181372031e-05,-9.417551139791393439e-04,-8.031244850218902760e-04,2.313869595527648926e-01
-7.136511462165834319e-02,-6.126850933509975228e-02,-2.971216743702542740e-01,-6.704578080136475897e-04,3.664118065426905709e-03,7.706802421585076158e-05,2.310605645179748535e-01
-7.907553133375305743e-02,-5.827627175542257620e-02,-2.993974187583540170e-01,7.454422622371963906e-04,2.499266816789772090e-03,-6.876592728909912411e-04,2.314707338809967041e-01
-8.104715648110694115e-02,-5.813687547513990417e-02,-2.996868932954779297e-01,1.846454989243662657e-03,2.468914556361239201e-03,-9.993896033434746234e-04,2.310169339179992676e-01
-8.250393679730633201e-02,-5.784886848617797062e-02,-3.006137814745063475e-01,6.361934193004453427e-04,-2.353876216360995498e-03,-1.193073572337804002e-04,2.314631044864654541e-01
-7.806590964196533089e-02,-5.820425115968921870e-02,-3.030016031469919269e-01,-2.181071994693527770e-03,2.285883652688551048e-03,7.050729322290299203e-04,2.355622798204421997e-01
-6.139402818187313093e-02,-6.094536235401773472e-02,-3.790925792395781757e-01,2.262416108857670007e-03,-5.624602840865711856e-02,1.469716061862662120e-02,3.335106074810028076e-01
-7.084287089150842487e-02,-5.619663097841287591e-02,-2.974344453192768745e-01,4.137687441804229187e-05,2.904142169344531635e-03,-1.337952116143782417e-03,2.343237996101379395e-01
-8.066426280584164388e-02,-5.632171751730372100e-02,-3.065637513800720249e-01,-2.363794433758322020e-03,-4.968850514947599668e-03,-3.645328837974210292e-04,2.391930967569351196e-01
-5.366463923955251680e-02,-4.663345329398241312e-02,-2.898829229833531085e-01,-6.101070558081068441e-03,1.068095634281944267e-03,-1.984640156851235314e-03,2.400756478309631348e-01
-5.075160444129162007e-02,-5.112846793757620800e-02,-2.909422643005439291e-01,-1.376596479024732970e-03,-2.299927105400985362e-04,2.589287605432053028e-04,2.400150448083877563e-01
-5.087249709066528347e-02,-5.131770946275515666e-02,-2.895460896931912886e-01,-2.807557720934740746e-03,1.034317769557764393e-03,-4.396661424632568099e-04,2.385088205337524414e-01
-5.131930619924732206e-02,-5.151713076716923911e-02,-2.906509772488770071e-01,-9.131092678748602620e-04,-8.357087787174000268e-04,1.812034436997191165e-04,2.392426282167434692e-01
-4.788451014380551429e-02,-5.144111895894490361e-02,-2.886543482571746755e-01,-2.951082442667249481e-03,3.561627294926617894e-04,-5.348820453051057831e-04,2.390686273574829102e-01
-4.310651503890272629e-02,-5.506419870905676639e-02,-2.846018170397248137e-01,-3.948445695209622588e-03,2.047136758662341464e-03,-4.269407949260044450e-05,2.358698546886444092e-01
-5.870147102698672348e-02,-5.408113136005972266e-02,-2.916658180559680291e-01,3.603017059761851743e-03,7.730333248945966962e-04,-3.866940833341917742e-03,2.354903519153594971e-01
-6.517845681140246872e-02,-5.333608455360823453e-02,-2.979623486583033998e-01,2.861405221971007138e-03,-4.994536184418345987e-03,-7.037974978427631242e-03,2.394437193870544434e-01
-4.770980842787569953e-02,-5.481682208626795227e-02,-2.840760466702809683e-01,5.160947401319895649e-03,-3.425203738301903049e-03,-3.522589837250589620e-03,2.332208752632141113e-01
-6.870478818823524958e-02,-4.870858579042020020e-02,-2.223371740158061050e-01,4.850238328310263296e-03,-1.082414830380121207e-02,-4.866918596538861302e-02,1.860186904668807983e-01
-5.864782386197525677e-02,-6.077609158173180592e-02,-2.745096779609720317e-01,-3.141535581386167928e-03,2.160515040668453332e-02,-4.223777146583283792e-02,2.300510853528976440e-01
-6.018708566076970412e-02,-4.008028070484416505e-02,-2.714236582136007603e-01,1.117015629730432578e-03,-2.425819127654263961e-03,-1.365571282631521804e-02,2.232785224914550781e-01
-7.431910859633464317e-02,-4.470601781793961949e-02,-2.797641780279725987e-01,6.263976628085807415e-03,-9.752774211190431974e-03,-1.719554424948974841e-02,2.246299088001251221e-01
-7.178726299186793947e-02,-4.524124497119688670e-02,-2.086841418182476537e-01,-1.181409940521179538e-04,2.106003376379606256e-03,-2.023922000646354025e-02,1.559542864561080933e-01
-6.474183029405887468e-02,-5.318319034207527607e-02,-2.965981481513540463e-01,-8.264985871438994183e-04,8.847507416479397958e-04,3.934123267563578588e-04,2.378565967082977295e-01
-6.158065022672004618e-02,-4.041428120054774142e-02,-2.831138683592540062e-01,9.706463557064415456e-04,-9.335152902472043050e-04,-2.159940740560928503e-03,2.328808158636093140e-01
-5.567036838107533581e-02,-5.305636251465513376e-02,-2.582125723679086216e-01,-8.078363012134037562e-04,5.443074502629903630e-04,-5.223266211130240394e-02,2.230408489704132080e-01
-6.263567238859275854e-02,-4.327865200321262540e-02,-2.910936155900774036e-01,2.195984894050140128e-03,5.049638257440494009e-04,-1.590885522664576765e-02,2.403424531221389771e-01
-4.521654462677271447e-02,-6.028613522122245466e-02,-1.996312022771732642e-01,5.502331159398513548e-03,1.522362478943161887e-02,1.143408766212447060e-03,1.501134186983108521e-01
-6.467189045066966402e-02,-6.432721475359665098e-02,-1.921114588711419768e-01,7.039321239498626953e-03,1.053547709790085204e-02,1.576555777543682535e-02,1.323336362838745117e-01
-7.241756317976391633e-02,-6.948084204885082715e-02,-1.758682993043561293e-01,5.856887919264481992e-05,7.645999024900488683e-04,-4.851976960524677189e-03,1.052942276000976562e-01
-5.771271893015695459e-02,-5.164856533133280192e-02,-8.329494620356066303e-02,-9.835203087978517528e-03,-7.494814262252028937e-03,5.190996677041057744e-02,9.689687192440032959e-02
-7.574199637650938510e-02,-5.076567719880438478e-02,-2.354021830955916883e-01,3.121850746952694808e-03,5.038416276466308602e-03,2.266628403186440183e-02,1.781841516494750977e-01
-5.158110119574718655e-02,-5.117534017962760418e-02,-2.451813788936280381e-01,1.050953918215837349e-02,1.069340298893609736e-02,8.906528375568045774e-03,1.961432248353958130e-01
-6.578230393100782669e-02,-6.104690782553669204e-02,-1.150661849025922945e-01,-8.128614222957079166e-03,1.900785786186031312e-03,2.494636434148147716e-02,6.899803876876831055e-02
-5.860740216709700579e-02,-5.900954164829883691e-02,-2.409672623592717666e-01,1.036106281497435264e-02,2.285496749013999837e-02,3.349366218994023758e-02,1.960523575544357300e-01
-6.894780625372556870e-02,-6.619237114758245999e-02,-7.349576179532545106e-02,3.156514426610228935e-03,3.715278358778602297e-02,-1.588261914158940052e-02,7.048729807138442993e-02
-7.098109535550792271e-02,-6.747948541856110816e-02,-3.060318195346316550e-01,-7.115270792925750161e-03,7.128710854397442677e-04,8.439111645322160354e-05,2.371446490287780762e-01
-4.941904182523559896e-02,-6.006296329082601304e-02,-3.040377812920390665e-01,1.013597859734451795e-03,-6.115644993444395265e-03,1.214074467380996851e-03,2.497069537639617920e-01
-4.995395857856199662e-02,-6.100474508840558058e-02,-2.331227775627829346e-01,4.766984799198917266e-03,-5.446975445686993988e-02,-5.287601674973400195e-02,2.213717103004455566e-01
-3.652994831350292460e-02,-6.152204865013699564e-02,-2.662255733434082394e-01,6.292067767541202616e-03,-1.076303807807066359e-02,-8.905474684030335875e-03,2.198825329542160034e-01
-6.756854298183190277e-02,-5.992795667330956533e-02,-2.968776942749179470e-01,-1.595978817849096022e-03,3.195922442526941652e-03,2.048290180537440386e-03,2.333323657512664795e-01
-5.237802385694730056e-02,-5.936493802051835689e-02,-2.868003927378912632e-01,5.576966132535484148e-04,-1.393475198379330246e-03,-1.600643490846585066e-03,2.310394346714019775e-01
-6.142430440403758019e-02,-6.170341852414196193e-02,-2.873512364809290842e-01,-1.052056725245096398e-04,-6.929808260439228752e-04,-6.183978299660378673e-04,2.257933020591735840e-01
-6.253289400549136290e-02,-4.498209751044443538e-02,-2.730089798293050540e-01,9.714347355621270191e-03,-1.830134117489637564e-03,-1.672318485037881802e-02,2.223384529352188110e-01
-5.946368969543028293e-02,-5.781887391006250432e-02,-3.372310133046267921e-01,1.633205316730376288e-03,-2.376588370473045261e-02,-7.657181956917013393e-03,2.819443643093109131e-01
-4.429725730668990225e-02,-6.009410613819077263e-02,-2.870020360796987080e-01,1.113791235056994094e-03,-9.763402836535891357e-04,9.537455801218778194e-04,2.352243363857269287e-01
-4.177571223121251398e-02,-6.139980819442236726e-02,-2.864988237813639871e-01,9.196801149579105720e-04,1.067028900061294840e-03,1.937177577405395465e-04,2.355379015207290649e-01
-5.622622602424776073e-02,-5.938362231273092151e-02,-2.919956940301446924e-01,9.795510949794968697e-04,5.285315207534908378e-04,6.134780297185620131e-04,2.342170774936676025e-01
-4.885198520960021273e-02,-7.658877212491922715e-02,-2.430564151213008839e-01,3.384288934442646144e-03,-2.947670990811069799e-02,1.327647185238888840e-02,1.904412358999252319e-01
-5.466214246753403616e-02,-4.682605244840076786e-02,-2.899161245155933431e-01,4.321104996164663870e-03,-3.686243125168469411e-04,5.861384742306305047e-04,2.393883168697357178e-01
-5.078518590675504263e-02,-5.008043039088461157e-02,-2.909649238873321941e-01,8.550708781847470193e-04,3.600284650954299181e-04,2.725011871852856893e-04,2.405387163162231445e-01
-5.265877357140966164e-02,-4.936454380339955206e-02,-2.909770835864258220e-01,5.263602352906999234e-04,1.463082250802657786e-05,-3.715450385885525272e-04,2.399849742650985718e-01
-5.137890918218143699e-02,-4.782522423518147103e-02,-2.858244609749560627e-01,5.348033338618228376e-03,2.889856279334274489e-05,1.812742567318942474e-04,2.364241927862167358e-01
-5.214108073497486506e-02,-4.886955906546761041e-02,-2.900733517138354145e-01,3.505724996129067680e-03,1.703642639873856595e-04,-4.700183061557346598e-04,2.396632879972457886e-01
-4.977673881809654977e-02,-5.397712157950365630e-02,-2.898406191217799410e-01,1.909857011240110019e-03,-4.305651071449848283e-04,1.756544021059119041e-04,2.380158454179763794e-01
-4.833900317515352207e-02,-5.265778384148694924e-02,-2.915221534713381413e-01,1.097508443348717191e-03,-1.260727304636551885e-04,4.444191775957237055e-04,2.410615980625152588e-01
-5.011388210075934380e-02,-5.268207274209091295e-02,-2.907728629705802481e-01,1.901413103003948054e-03,1.136731248450241916e-04,3.351106163234205846e-04,2.394086569547653198e-01
-6.055146538840264214e-02,-6.527659473536839840e-02,-2.921800081217747480e-01,5.132373639522263675e-04,2.437557292383594684e-03,-1.881242071609399817e-03,2.293662279844284058e-01
-6.311700666281833128e-02,-4.323500582091084621e-02,-2.448470061755265714e-01,-5.611847472926798953e-03,-6.692269896096413907e-03,1.548103849369452875e-02,1.948898881673812866e-01
-6.434236115534651412e-02,-6.809980926676853508e-02,-3.011734389901136733e-01,7.391057579687131986e-03,-6.372701013617349149e-03,4.403328675303420578e-03,2.357054948806762695e-01
-5.928008384896993332e-02,-5.640605262122273811e-02,-2.895205655774515385e-01,-1.392983819429645647e-03,1.336447146480988085e-03,5.428147482943459015e-03,2.319056540727615356e-01
-5.550991063331583986e-02,-3.736916196581153982e-02,-3.461023296988046116e-01,-1.640547730755445230e-02,1.733139164157596014e-03,7.215716696800970713e-03,3.016906380653381348e-01
-6.676582045007688204e-02,-6.191520144596820985e-02,-2.919261748865084605e-01,1.488077487037713087e-03,-4.287007199254577045e-02,2.638218703218272315e-02,2.437644600868225098e-01
-6.180256042134468775e-02,-4.139582626377374952e-02,-2.831584305054529738e-01,-3.039026714447541286e-03,-2.521985881504876497e-04,8.943727772501494633e-05,2.322927713394165039e-01
-6.024420058947120571e-02,-3.684268615442815031e-02,-2.817545501905854843e-01,-8.421436386901068284e-04,-1.763756310088937279e-04,5.036427419570980828e-04,2.340964078903198242e-01
-6.378703540529706562e-02,-3.711448529948310759e-02,-2.834927742751457980e-01,-1.173514421727697103e-03,4.686079453786891856e-04,-9.645169554735350415e-04,2.342001944780349731e-01
-5.813511515707320276e-02,-4.683589399355092553e-02,-2.886106848741186170e-01,-1.982286187131770787e-03,7.049437925652490833e-04,6.141130447538372533e-04,2.363583445549011230e-01
-6.029338405295162073e-02,-4.508938013462558680e-02,-2.857776080410415198e-01,-7.702019131925094382e-04,-3.231806205610291641e-04,-8.769956393899243493e-04,2.334672510623931885e-01
-6.141878838761317960e-02,-6.033357269000162726e-02,-2.884570510971120605e-01,5.255151120382817002e-04,1.975886007771451337e-04,-5.545177878703020703e-05,2.275849133729934692e-01
-6.127852829645782928e-02,-3.703608694379946498e-02,-2.834012159458730862e-01,-1.703350613698917599e-03,5.208564242290519408e-04,-9.828475898093541521e-04,2.352092564105987549e-01
-6.524573129293825824e-02,-3.713395728467813739e-02,-2.869374699466185064e-01,-2.206660664714437916e-05,-2.654809045659226670e-04,-2.259125471070431209e-03,2.370341122150421143e-01
-5.547102752980997975e-02,-5.188092808372649078e-02,-2.903252902564557592e-01,-2.257546610665607523e-03,-4.536884453438263208e-04,-1.606471032478599612e-03,2.367196977138519287e-01
-6.060245000531003234e-02,-5.885667850019560277e-02,-2.998291831093733428e-01,2.649891248305346743e-06,-1.120261603584458022e-03,-2.523088844921355690e-03,2.401519864797592163e-01
-5.654142530888935092e-02,-5.547922656671337716e-02,-2.904942794559743358e-01,-1.934055080061942219e-04,-7.091510498932883811e-04,-2.436294785417180873e-04,2.344895899295806885e-01
-5.289619246347403159e-02,-5.237200594470622916e-02,-2.902666466534911116e-01,-7.713152175288756195e-04,-5.646549682591709123e-04,1.058885691353917552e-03,2.376458197832107544e-01
-5.320365369226784380e-02,-5.463357367583418500e-02,-2.911083416649049571e-01,-1.423568161978246626e-03,-3.293729925089841550e-04,2.302541634987192239e-04,2.372068017721176147e-01
-3.886048714422081496e-02,-6.124180362433222224e-02,-2.337073820748770681e-01,-5.115155108624483242e-03,5.995199212507481418e-02,-1.698208517484529716e-03,2.120735198259353638e-01
-5.040051302591883053e-02,-4.877728484826993061e-02,-2.889780101972337922e-01,-3.303058414772605360e-03,-1.832494646862329267e-04,-3.640204861156470860e-04,2.394626289606094360e-01
-6.116657938929109806e-02,-3.941446798729725254e-02,-2.786007927339259060e-01,-4.103341471034527288e-03,4.013899752559738944e-04,-2.505955736511348252e-03,2.292384803295135498e-01
-4.925258253487543869e-02,-5.108458330645002099e-02,-2.904099633753964849e-01,-5.273179375435328459e-04,1.507442893356463896e-04,1.732901718668289717e-04,2.402486801147460938e-01
-5.285954580181821683e-02,-5.274626496448996116e-02,-2.903446477720885155e-01,-1.580419749624652941e-03,-4.807400417314719107e-04,1.075288191550791486e-03,2.375662922859191895e-01
-6.662860116333131633e-02,-3.769383602775029651e-02,-3.021541885002849148e-01,1.171335986888279558e-04,3.678509794747454424e-03,3.223089021086138206e-02,2.574519813060760498e-01
-5.943768093275839104e-02,-5.332694846865779215e-02,-2.909128291452564019e-01,7.160038856622105577e-04,1.275547349408603318e-03,-2.023418887542259006e-04,2.346041500568389893e-01
-6.203529877748643895e-02,-4.300041314084289412e-02,-2.769839503150739457e-01,-2.146067146813477374e-03,-1.584316686099603239e-03,7.123425241378593398e-03,2.254558652639389038e-01
-6.170302755172606124e-02,-4.089327184977345486e-02,-2.864908616322658363e-01,4.656333036480391320e-04,-5.003337079224926757e-05,8.024767801452988860e-05,2.358836084604263306e-01
-6.322048155712703399e-02,-4.478180766409702029e-02,-2.917654289122880717e-01,8.002107313559287099e-04,-1.236343335221850486e-03,4.619997899893635990e-03,2.384478598833084106e-01
-5.965171270121807923e-02,-6.855306823392237625e-02,-2.989068691640156539e-01,5.546847042994107338e-04,-2.533117341188736429e-04,-1.737478714875825185e-03,2.349526286125183105e-01
-6.422317385605462448e-02,-6.905716921992732793e-02,-2.194396810987224722e-01,-5.020115725628293904e-03,-2.431999522797717236e-02,1.190488599244195894e-02,1.601261496543884277e-01
-4.437274340346722412e-02,-5.934469191934509114e-02,-2.888586314921008369e-01,-3.329291227006768265e-03,-5.871265327791109871e-03,-4.094840448118977887e-04,2.376431077718734741e-01
-3.836294781313476232e-02,-6.180064934187300130e-02,-2.855744136928110577e-01,-9.015154651936095219e-04,-8.261957822475563679e-03,2.824642107772647940e-04,2.368041872978210449e-01
-4.656548372448143791e-02,-6.629496019731952183e-02,-2.212056554125302332e-01,-6.945005994874799485e-03,-5.380911266537303454e-04,-4.636850366404825403e-03,1.662917733192443848e-01
-5.311791463977774685e-02,-7.113992668905508299e-02,-2.647257182207052861e-01,-9.069068736381524776e-03,-1.436339814866522367e-02,3.475800759137256338e-03,2.054044008255004883e-01
-5.439765647470229393e-02,-6.288558524221279922e-02,-2.947995761872836407e-01,-2.256626510063293922e-04,-1.178032274946692881e-03,-1.815944096473314038e-03,2.363023906946182251e-01
-5.057093819791581152e-02,-7.212907764536158339e-02,-1.857217181009008233e-01,6.038993371182805291e-03,-6.130649221007779953e-02,-7.869844721881897112e-03,1.654918640851974487e-01
-4.824107338087195440e-02,-5.789930401970445895e-02,-2.905678059803924462e-01,-2.507169142688184683e-03,2.598045418116448364e-03,-1.903763886536269628e-04,2.377273589372634888e-01
-5.235501465394946929e-02,-6.353576335433774869e-02,-3.014720119671216447e-01,-1.785968177516592328e-03,-1.097424573765618623e-03,-3.256471851272422710e-03,2.438113391399383545e-01
-4.390083089443067021e-02,-6.172496555061772472e-02,-2.904688716245803493e-01,-7.167067674271626219e-04,6.934288497879288402e-03,-3.784679238765465727e-03,2.385527193546295166e-01
-4.333120758115613369e-02,-5.964861602048135425e-02,-2.884444718154592913e-01,-2.280424558519778683e-03,1.503698187249492965e-03,-5.119666438430318239e-04,2.374243587255477905e-01
-6.759486563193096986e-02,-5.992938693936261663e-02,-3.065639613251116558e-01,9.490672851611434493e-03,-5.581222292478553795e-03,-4.605113666027262943e-03,2.437705695629119873e-01
-5.401418716424018218e-02,-5.443134426159063066e-02,-2.563835932580050825e-01,-1.226584731570023144e-02,1.030831599568007156e-02,-1.265149476321132324e-02,2.052302360534667969e-01
-5.927557269337416224e-02,-6.197293006764251211e-02,-4.438413510544344520e-01,6.957399702144093263e-03,9.687514960361701122e-03,-2.964944329450545923e-02,3.872012794017791748e-01
-5.034219596304691235e-02,-7.314733280731461340e-02,-3.401481385201747809e-01,-5.125922563026897444e-03,-1.422255385944371474e-02,-2.079023846714294754e-03,2.803517878055572510e-01
-6.537766599217201269e-02,-6.955394616068875935e-02,-3.792378202778610152e-01,4.538965494163528513e-03,-5.181349305205999040e-02,-7.080113773819562972e-02,3.469423353672027588e-01
-7.322872808415259449e-02,-6.466924949516139609e-02,-4.820750242920527895e-01,6.303090351413047007e-03,-2.358823915472603103e-02,3.496529378754513473e-02,4.197430014610290527e-01
-5.054788765881124135e-02,-7.180488083929487120e-02,-3.581668244504003784e-01,-2.086118904055549693e-03,9.398312690571463540e-03,1.570083777103940120e-02,2.992654442787170410e-01
-5.225609150885178467e-02,-5.574586174307763486e-02,-3.600674723658821019e-01,5.617435141917858157e-03,-2.283535391213718443e-02,-1.070964840381329747e-02,3.093363046646118164e-01
-6.526410480213154508e-02,-6.719902816134780410e-02,-3.463953334333862988e-01,-3.354566826082963551e-03,3.823760937942410638e-04,-9.649364578024993006e-03,2.807277441024780273e-01
-4.164797830994809713e-02,-6.270762727026882311e-02,-2.939584777337104216e-01,-2.202303721088597760e-03,-1.061722271385229927e-02,8.553604210149411136e-04,2.431983649730682373e-01
-5.846583553340913009e-02,-6.195729894336692023e-02,-2.943256434098337482e-01,9.224550437397994107e-04,-5.645221757367008264e-03,-3.261508951317145921e-03,2.344112098217010498e-01
-4.283488852602601593e-02,-6.249349392478203286e-02,-2.597196675463978588e-01,7.700363598143657000e-03,7.432546897536075788e-03,5.001280921101551894e-04,2.085813581943511963e-01
-3.698804394132816642e-02,-6.510364065040863402e-02,-2.693302700855829679e-01,2.970054725243483941e-03,2.666338638813125339e-05,-5.172469334658391996e-04,2.197003066539764404e-01
-4.422204210755419085e-02,-6.148451601393489785e-02,-2.749621561493600375e-01,7.281598647979435970e-03,-4.945965330613345812e-04,5.575940528328477037e-04,2.229721546173095703e-01
-5.991555457407153618e-02,-7.776295631494850591e-02,-3.276791876241746948e-01,-8.125819580554648897e-03,-2.584653746492763561e-03,-5.196627468798533734e-04,2.597228288650512695e-01
-5.602027541652260245e-02,-7.914877783675211553e-02,-3.000236517285442273e-01,-4.191044718923257403e-03,-1.954845482800406456e-04,-2.031351992836317316e-03,2.334402054548263550e-01
-5.804558944234580742e-02,-8.225152694083484595e-02,-3.483269013007664894e-01,-4.701947737292138958e-05,8.022243943860109944e-03,4.854863991009383990e-03,2.794394791126251221e-01
-5.082690538908486710e-02,-7.062381056631995835e-02,-3.213779396865954485e-01,-2.395347935941251512e-03,-2.461270688731607981e-02,-2.209982328634821705e-02,2.674574255943298340e-01
-5.666140154961689379e-02,-6.216043743930452226e-02,-2.955042260920289765e-01,-1.272489947469608107e-03,1.510793619724750758e-03,-6.989110924235329529e-03,2.364761680364608765e-01
-6.257710669910893087e-02,-5.901949591333796596e-02,-3.395262023471596891e-01,1.797797121306247449e-03,-2.224951025788540759e-03,-1.677473479661988759e-02,2.802988588809967041e-01
-3.766050423869385377e-02,-6.451158586160628261e-02,-2.326406787099549456e-01,-6.808917012944152095e-03,-2.608152662189960197e-02,9.192607897752207852e-03,1.895683407783508301e-01
-6.096853854199432710e-02,-3.757428658780444242e-02,-3.358249467491145612e-01,2.156613252365957925e-03,-1.283324969980938028e-02,-4.800464911757876610e-03,2.882716655731201172e-01
-5.889604517882791879e-02,-5.904524380817099960e-02,-3.073521592356037169e-01,-2.493047816322990296e-04,-7.919221471960041087e-03,-2.436315584248197746e-02,2.523141205310821533e-01
-5.933270839595364277e-02,-4.686658217966228890e-02,-1.549106640152829728e-01,1.291648844587654863e-03,-6.310059809016829724e-02,4.319859118210427062e-02,1.674229800701141357e-01
-7.932777553562678219e-02,-6.402981543846815449e-02,-3.038433631990260508e-01,-6.811426201877141505e-03,-1.082590171853310274e-01,-5.039144425277135297e-04,2.989580333232879639e-01
-5.635111520724747636e-02,-5.432580421927055148e-02,-2.863493007432535431e-01,-3.524658614473838089e-03,-1.289085448325820622e-03,5.709704980039169951e-03,2.313204258680343628e-01
-6.251692881108886213e-02,-6.102542163981188039e-02,-2.920347736789092319e-01,1.089818089784728473e-03,-1.828927449496109978e-03,1.115444286061625066e-03,2.303048521280288696e-01
-6.142301875214489781e-02,-6.426453136774513963e-02,-3.241535920300673834e-01,-2.072904378835250042e-03,-9.661501970571643311e-03,9.100745923021295175e-03,2.623552381992340088e-01
-5.150468689835790981e-02,-5.844532712303987521e-02,-2.938362524693968747e-01,-3.235946667156457211e-03,-4.502878178990027099e-04,-1.353832048273256178e-03,2.390153706073760986e-01
-6.826353816851839229e-02,-6.633737848941813342e-02,-3.421858316876368322e-01,-2.538542059971048170e-04,-6.805836678724265162e-03,-6.826672632087952934e-03,2.753973603248596191e-01
-5.137415543024230480e-02,-4.981516075274781963e-02,-2.901721558479298801e-01,2.367376947359957004e-03,3.232348541537213198e-04,-9.421655083434369411e-05,2.396170943975448608e-01
-5.535855652388287085e-02,-4.024843049584400645e-02,-2.865181880002801718e-01,3.486491476479665601e-03,4.962216493965299633e-04,-9.764581523181038031e-04,2.391568720340728760e-01
-5.650891828712317766e-02,-4.384674917326264465e-02,-2.893180380272590835e-01,1.196338845842647141e-03,5.282701189744300890e-04,-8.474219062311092550e-04,2.394067049026489258e-01
-5.539606747570285927e-02,-4.624228064097568591e-02,-2.896128429497786816e-01,1.658027926727591653e-03,-1.217314129632686605e-04,-1.966288413209724313e-04,2.389428168535232544e-01
-5.554084431254703580e-02,-4.413966817268852316e-02,-2.845019683825256163e-01,4.271146313905102403e-03,-2.401463206338944902e-04,-4.719002163411502673e-04,2.349876165390014648e-01
-5.153199335609709442e-02,-4.828760635955189895e-02,-2.847563120127686309e-01,5.611366334222207645e-03,-1.780304479247286952e-04,-8.142927780665025191e-05,2.350645810365676880e-01
-6.278652067715750906e-02,-3.642466669543312219e-02,-2.814892050612028407e-01,1.179485725703417580e-03,4.114536829635592882e-04,-1.970306094145021237e-06,2.330148071050643921e-01
-5.817399503273507078e-02,-4.037081957007443433e-02,-2.830565078168261195e-01,4.301781047289678431e-03,-6.390235778635312879e-04,-2.437186641137667302e-03,2.344510257244110107e-01
-5.750473699720641541e-02,-4.670711613715911037e-02,-2.879025556649289497e-01,1.929996723271937579e-03,-3.986221702851266090e-04,-4.078830236617397745e-04,2.360077202320098877e-01
-5.716131772838795033e-02,-4.940417018191547993e-02,-2.891122475061984609e-01,6.488049430204927527e-04,6.865031779866497073e-04,8.025682663407780228e-04,2.359349429607391357e-01
-5.425355871138567987e-02,-4.630902251227314581e-02,-2.892692905625509070e-01,1.687620927317151805e-03,-3.006328612567781933e-04,-1.293964778191850355e-04,2.391055524349212646e-01
-5.744264003919649642e-02,-4.004005453573553086e-02,-2.809362050164309066e-01,4.238900917005564671e-03,-2.576015280130271702e-04,-2.282257547515725675e-03,2.328332364559173584e-01
-4.823166564665537503e-02,-4.810107803129631820e-02,-2.805527960024792877e-01,7.171259647271286189e-03,-5.690517151154159473e-03,-3.298925180489593184e-03,2.329968661069869995e-01
-4.567967148506173192e-02,-5.604813214286280543e-02,-2.563500958716300460e-01,7.648232656780381417e-03,-2.439753669859397178e-02,-5.816998492735057057e-03,2.106369435787200928e-01
-5.560319564490379118e-02,-5.041101954239092520e-02,-2.882626255681337568e-01,1.406871559135565398e-03,-2.520114964736874211e-04,6.096306215578866511e-04,2.353138774633407593e-01
-5.674883288604096188e-02,-4.580996777461920910e-02,-2.878012221068805276e-01,9.605496464497261010e-04,3.230377557045200970e-04,-6.158209977808839532e-04,2.367203682661056519e-01
-7.979387122216330397e-02,-7.948552239461703639e-02,-1.649559067334065987e-01,1.560763990223463344e-04,-7.093386729970612738e-03,-3.072879690941684658e-03,8.636131137609481812e-02
-6.360318904791469052e-02,-6.725305568607167772e-02,-2.098183986013138214e-01,-9.582551824525302117e-03,-3.641575138239860898e-02,8.225935818364797994e-03,1.591079384088516235e-01
-6.272355262547639476e-02,-6.434365407416928195e-02,-1.799359457914408433e-01,-9.554281542479212130e-03,-1.261261360259443610e-02,1.798569998307591664e-02,1.235840469598770142e-01
-7.844018263865086549e-02,-7.557621795902767781e-02,-1.622520833909129323e-01,-1.047505260579392923e-03,-7.797446560373308931e-03,1.484048242111205397e-03,8.640006184577941895e-02
-6.351757509158517667e-02,-6.769292488984236800e-02,-1.566774462853085526e-01,-4.801051188784098353e-03,-2.703609959680990105e-02,1.861593022074492553e-03,1.028572767972946167e-01
-6.607090301710036306e-02,-6.263184533971689893e-02,-1.607025585857531635e-01,-9.865842070379755076e-04,-1.120508194900222791e-03,2.674110299230123347e-02,1.069783493876457214e-01
-6.474694064090263934e-02,-5.915214131383213225e-02,-3.124962935504128625e-01,5.329820622964175775e-04,-5.892281838838699104e-03,2.280696881698714498e-03,2.508341372013092041e-01
-3.499130117451308697e-02,-6.480439350789339581e-02,-2.803686065957207152e-01,-4.806139483959419268e-04,3.110566308530391712e-03,1.037725900610624030e-03,2.319834828376770020e-01
-5.128404968036928691e-02,-4.911833837330158159e-02,-2.909379411356829426e-01,-1.888798740146344947e-03,-2.601888942451632261e-04,6.488337149652160726e-04,2.407693266868591309e-01
-5.213281614842679712e-02,-4.875603687220428362e-02,-2.893483022304164098e-01,-1.136466377197811652e-03,-6.980746975166582814e-04,6.476942420478417131e-04,2.389355748891830444e-01
-5.366950227590747136e-02,-4.590336822979129705e-02,-2.890438172914984172e-01,-1.770930532785788564e-03,3.234752589427322082e-04,-3.035809733224470713e-04,2.393727749586105347e-01
-4.941216232117168206e-02,-5.148258148876425078e-02,-2.911639503971560905e-01,-6.998919469594591007e-04,-1.529256803520460262e-05,-1.971172221987195104e-04,2.407265454530715942e-01
-3.599883156090863401e-02,-6.236420260207886646e-02,-2.797487154962793321e-01,-1.745944794207009111e-03,2.798093301250115759e-03,-1.887447991117447224e-03,2.317884862422943115e-01
-5.062398749234978124e-02,-5.053211423212095044e-02,-2.906612695555431669e-01,-1.262467664830387113e-03,-1.323228000268442898e-04,5.345361922002983806e-04,2.400950789451599121e-01
-6.123334051442458348e-02,-4.541929705348531077e-02,-1.677780811516050574e-01,-6.582952700314084055e-03,9.707821971465005820e-03,-4.435651732648272783e-02,1.400071531534194946e-01
-6.991715238735063398e-02,-5.270698406504119304e-02,-1.629226046143423257e-01,7.237450732988399450e-03,-1.866135495349846574e-02,-2.744624604580019750e-02,1.183579862117767334e-01
-7.323079693955061864e-02,-5.083554392622390006e-02,-2.104051211693336032e-01,9.857070719842494534e-04,4.014436613635522302e-03,-1.777408406505922439e-02,1.529359817504882812e-01
-7.090764482383579703e-02,-5.156537134478469953e-02,-2.567566180970041745e-01,1.006026767751446067e-02,-1.227458163057064747e-02,-2.697128632623644467e-02,2.035845816135406494e-01
-6.730499548012652822e-02,-6.854993261887809552e-02,-2.221322162737964234e-01,9.956990765334454430e-03,-2.081473503318981289e-02,-1.057472229994865787e-02,1.603525131940841675e-01
-5.686793167740406690e-02,-6.230743089015230995e-02,-1.982259798526997963e-01,3.315855973413311692e-03,-4.552312613187510515e-03,-8.487033343934899388e-02,2.023532688617706299e-01
-5.846156720694668796e-02,-6.580035785405206894e-02,-8.758740237310902454e-02,2.629810782348074565e-03,-1.160536581074856494e-02,-3.505640609874534352e-02,6.928260624408721924e-02
-4.398774443444375404e-02,-6.194732549762846374e-02,-2.868075050193926168e-01,-4.385656593524315562e-03,-4.946041118592581914e-03,-8.638233407934716758e-04,2.346409410238265991e-01
-3.839443064149064555e-02,-6.369718712844814335e-02,-2.716233592520091999e-01,-1.023653632900941961e-03,-1.180938459195997933e-03,2.185006154788177038e-05,2.216798514127731323e-01
-3.746598299377834618e-02,-5.989037127714126607e-02,-2.698642203462566780e-01,3.589750656355672996e-03,-8.932765890341066994e-03,-6.597182056762610717e-04,2.226651161909103394e-01
-5.423379420630798642e-02,-5.937421454591525205e-02,-2.935740198286038716e-01,-1.031689309079711608e-03,1.262628232022348614e-03,-4.734358600541644388e-05,2.368287146091461182e-01
-6.614019878670596153e-02,-6.290461514346021299e-02,-2.886379061697161852e-01,5.589207948450463032e-04,-5.150842311440093860e-04,5.077811104166783055e-04,2.241386026144027710e-01
-6.857975150230011252e-02,-6.154807122295422039e-02,-2.913641672295043117e-01,2.711361689001160185e-03,1.600107601405393503e-03,-1.397854672293359028e-03,2.264607846736907959e-01
-6.121388675076094854e-02,-6.005559154818804202e-02,-2.886757275757222407e-01,-3.628780614029865611e-06,8.361660896761760478e-04,-1.103579340794918259e-03,2.280558049678802490e-01
-6.320200135812276132e-02,-6.335242951893085839e-02,-2.868862607720078506e-01,4.665267849115747401e-04,-3.149457636396468655e-05,-5.661562277446687778e-04,2.236126959323883057e-01
-6.115858811211714874e-02,-6.532278563715526731e-02,-2.903677604814344781e-01,3.017299645753007686e-03,4.655896908107682664e-04,-4.294724727176776620e-05,2.272172570228576660e-01
-6.228942260945649623e-02,-6.732842133165295451e-02,-2.883483183114093351e-01,1.701448385452622230e-03,-4.535842107430060940e-04,-5.166012649646837618e-04,2.236045747995376587e-01
-6.201488513047989648e-02,-4.077078030095032668e-02,-2.852615748192361966e-01,9.341990048119814660e-05,1.367229192399058244e-03,-1.259378566721746323e-05,2.346033006906509399e-01
-6.284998722194796994e-02,-4.074279931738744587e-02,-2.957268106267502139e-01,2.812395671384713101e-03,1.017523714932988240e-03,1.225950216155801895e-02,2.456548660993576050e-01
-6.364012001629210102e-02,-5.308031932490085703e-02,-2.894460112387488016e-01,-6.176703352887139074e-05,2.161487592362006202e-04,-4.457329174506529453e-04,2.312682867050170898e-01
-6.393044922867210933e-02,-5.324847467726825934e-02,-2.894215101935732060e-01,5.423661901156938761e-04,-1.252917709421260978e-03,8.335940956358907014e-04,2.310339510440826416e-01
-7.839374344392152638e-02,-5.499732107816487914e-02,-2.998009831738809861e-01,-3.745919529069023299e-03,-3.005355868453202066e-03,-1.765472611166627858e-03,2.341521680355072021e-01
-7.375956857894028218e-02,-6.049827215976162631e-02,-2.945364109358650229e-01,-2.628687345917330147e-03,1.946618366701885223e-03,5.979423198585250444e-04,2.277701348066329956e-01
-6.584385388033625608e-02,-6.284025521362540667e-02,-3.286966110813185349e-01,3.626306128723149474e-03,1.836481925636443413e-03,-2.159056326336254716e-02,2.670919895172119141e-01
-5.849229157878901852e-02,-4.098042477123677030e-02,-3.511039286353751510e-01,6.016220164680920884e-03,-5.844859949951441286e-03,-4.229745127254684253e-03,3.021872937679290771e-01
-7.148665167605706972e-02,-6.782691061043046032e-02,-3.919597038570857839e-01,2.505317524810079469e-03,-1.367765712605802271e-02,-6.257915257981309931e-02,3.409072160720825195e-01
-5.008780142065390184e-02,-7.161796643623968839e-02,-3.614008736016908752e-01,3.170385371879274727e-03,4.845466758448177189e-03,-3.153041836764835376e-02,3.062022924423217773e-01
-6.108231514562309505e-02,-5.930794242128066551e-02,-2.929724382988265208e-01,-1.026514114384361430e-03,8.713248769700595404e-04,-1.029186310552228974e-03,2.328008860349655151e-01
-6.373529528685585588e-02,-6.400595354114586855e-02,-3.670662532756798768e-01,5.859482151828902807e-03,-3.371587250304636241e-02,-6.263743364589523244e-02,3.274313211441040039e-01
-6.397374500720756640e-02,-6.204702077049539799e-02,-2.975395635405721495e-01,4.160605653191922805e-03,1.881475533845272533e-03,-2.803558061697723584e-03,2.347186654806137085e-01
-6.032937661221066117e-02,-6.233164893362183601e-02,-3.137119362562889036e-01,-1.112025541257311533e-03,-4.846009628503879924e-02,2.645626685232807529e-02,2.699037790298461914e-01
-7.646168740001643704e-02,-5.737511645325102383e-02,-3.122353106322474647e-01,3.054325666523245546e-03,2.314088808956989726e-04,-3.026583278834366845e-03,2.459862530231475830e-01
-7.545667034948660978e-02,-5.631615148521548764e-02,-2.933583418880161275e-01,9.057221788973952425e-04,-1.412638739337355141e-03,-7.479956892415430135e-05,2.280936539173126221e-01
-6.211176356252579023e-02,-5.949772104196067446e-02,-2.894845043774553206e-01,-4.360072345173249676e-04,-1.892098895341122466e-03,7.520895790742763249e-04,2.287193983793258667e-01
-6.109877007434869056e-02,-6.120667536873927728e-02,-3.022000084864429059e-01,2.691448747074757456e-04,9.156959283721462228e-03,-3.635640553976562852e-03,2.416510432958602905e-01
-7.080296727518509137e-02,-5.903268456003976650e-02,-2.954965211909055256e-01,2.078968280063871448e-03,1.639928244459080281e-03,-9.096697996194897566e-04,2.308548390865325928e-01
-6.742852173493768531e-02,-5.899000835164608381e-02,-2.947654124746943438e-01,4.081547719179911518e-04,1.472924184669351880e-03,-1.069932143387346268e-03,2.316939830780029297e-01
-5.792439353037218130e-02,-6.047112437813034758e-02,-2.960502731307124713e-01,1.717055670752204314e-03,-4.903233853715886076e-03,7.363148829535842276e-04,2.370370775461196899e-01
-5.677814774637127138e-02,-6.413236008990733095e-02,-3.249874465871077645e-01,3.256674957325721067e-03,-1.612876114502086178e-02,-7.576239473709733135e-03,2.664625048637390137e-01
-5.792007125444426086e-02,-5.942467609434987086e-02,-2.910217272589462612e-01,1.065046929390225851e-03,-2.275414199167629346e-03,3.712305723546946261e-04,2.323946356773376465e-01
-6.944193411677203331e-02,-5.626407403205713198e-02,-2.966098296454918182e-01,-9.083063510803872018e-04,3.799493290456138882e-03,1.289602905199353235e-04,2.341331392526626587e-01
-6.926441727127208292e-02,-5.816871288039883459e-02,-2.967949574205995811e-01,-1.435998358069309191e-03,4.214986648827599713e-03,3.796990722411901871e-04,2.334047704935073853e-01
-5.359567236874882012e-02,-5.865122501207298278e-02,-3.030167408393555917e-01,5.705976012416484264e-04,-9.776824792874044129e-03,-1.943274451590018678e-03,2.475369274616241455e-01
-6.544426278071910352e-02,-5.645485597056457139e-02,-2.952882754511865770e-01,-2.966651969637831669e-03,-2.621288044742870697e-03,-5.533687033954332209e-03,2.347639650106430054e-01
-6.566207552073188847e-02,-5.458658402309550517e-02,-3.194493361412367172e-01,6.104854837595452034e-03,1.556727666238739115e-02,1.737910594710466439e-02,2.628428936004638672e-01
-7.040815389385651768e-02,-7.266236676551007800e-02,-2.906715393452857787e-01,6.109459104239523507e-03,-2.815607213744890716e-02,8.853600912588718841e-02,2.720857560634613037e-01
-5.951778042920591316e-02,-5.056219256130406459e-02,-3.177779797652263705e-01,8.537600215857499633e-04,1.065550196725119012e-03,2.433110717024321648e-02,2.662198543548583984e-01
-6.038769766088941671e-02,-5.358218103176581870e-02,-2.927806199454346392e-01,-3.395506491493609875e-04,1.554773910254910905e-03,-1.820868200886256749e-04,2.358856499195098877e-01
-5.580059486878710673e-02,-4.846844999450354574e-02,-2.726636874226968654e-01,9.821735889616362188e-04,-3.892987991811171916e-03,1.478086898365314934e-02,2.222098410129547119e-01
-6.195848821277258334e-02,-6.001713947512687941e-02,-3.363407838250911386e-01,-4.876079968175028173e-03,3.134061048746823730e-02,4.009230019841933390e-02,2.892443537712097168e-01
-6.355294508041413326e-02,-4.358507649218379409e-02,-2.919851191968109161e-01,2.382690443416457873e-03,3.648452146489471973e-03,1.454319147090975609e-02,2.404844164848327637e-01
-4.951590330115367145e-02,-4.378248164233194267e-02,-1.121090439331065142e-01,6.572160245947008053e-03,-5.948684960915209818e-02,6.094038697663938312e-03,1.231531351804733276e-01
-3.678464433298327119e-02,-6.630029697310130254e-02,-2.698766772646600254e-01,-3.190859997814091760e-04,-1.134346133039994264e-02,2.944939125574799407e-03,2.207612991333007812e-01
-4.299181519029545567e-02,-6.576304188553135088e-02,-2.075774785745584383e-01,4.179137167488414933e-03,-3.935953667203872380e-02,-4.198626172251739702e-02,1.839771866798400879e-01
-6.623210798170990621e-02,-6.537468471273216730e-02,-1.533056094782299650e-01,-2.967949193885615136e-03,-7.566362730068983133e-02,-2.492930705511341508e-02,1.634716540575027466e-01
-7.280866842734923239e-02,-7.196717793370646654e-02,-1.881268892322081332e-01,-2.632484669316771751e-03,-8.624243518638950723e-02,-3.973282308889321268e-02,2.011621147394180298e-01
-6.325117867543081362e-02,-6.365932832803476715e-02,-2.870135879021172842e-01,-5.218062122722068492e-04,6.144748141030158478e-04,6.661067962186506585e-05,2.235630005598068237e-01
-6.249276072533568871e-02,-6.145039016461045778e-02,-2.876372136980260286e-01,-7.371616692882107481e-04,8.531548433663856904e-04,4.414448158365029385e-04,2.256771922111511230e-01
-5.916439102662390814e-02,-6.114558830870103767e-02,-2.904086404981917058e-01,-3.463217556724078609e-04,1.496822880872375342e-03,4.615145743007042687e-04,2.302768081426620483e-01
-6.151782051468565604e-02,-6.011184262966923209e-02,-2.927044884421458604e-01,-1.036216022252780308e-03,2.077571563850535118e-03,2.845404603026310472e-03,2.319800704717636108e-01
-6.725673607469279114e-02,-6.260621657402759555e-02,-2.882488596571736172e-01,-1.505971759053872320e-03,-4.082737893785697925e-04,5.544338945115512111e-04,2.233721166849136353e-01
-6.678086132357996529e-02,-6.190080980566081692e-02,-2.877964423278094874e-01,-1.860897187537918600e-03,4.380990191142511512e-04,-5.253341163748564968e-04,2.235219478607177734e-01
-6.184866719196110973e-02,-6.335375305698071058e-02,-2.861314615385387450e-01,-6.481035962276689329e-04,-1.209704335492793516e-04,1.136331031359461143e-04,2.235370576381683350e-01
-5.515482955318923297e-02,-5.441319138226896612e-02,-2.900366290890095122e-01,1.467379670647473745e-03,6.872430427223468526e-04,-2.952281534887000753e-04,2.352707982063293457e-01
-6.460131423965853603e-02,-6.353752657005887206e-02,-2.870978761463720552e-01,-1.688489927593847702e-03,1.144198169309926510e-04,5.906871442309523813e-04,2.230519652366638184e-01
-5.943536223852000089e-02,-6.844811007925097335e-02,-2.964844271370726259e-01,4.382439278355545879e-04,-2.641245546417454650e-03,2.144667583087103181e-03,2.327494919300079346e-01
-5.513106137646889282e-02,-5.009598212943788820e-02,-2.883073228931430920e-01,-1.362941489557851615e-03,-2.842979085691349993e-04,6.626431020574320360e-04,2.357492595911026001e-01
-6.120042184581328537e-02,-6.237865185066363005e-02,-3.070715495228550362e-01,-5.037716721541097946e-04,-1.121089995770309985e-03,-3.263460497803968765e-03,2.453584969043731689e-01
-6.015310729270717527e-02,-6.548593259567828118e-02,-2.908047608572099096e-01,4.705670198977314890e-04,-1.850850690950425585e-03,1.726410360717016207e-03,2.280756086111068726e-01
-6.690647122458134866e-02,-5.981604575762837495e-02,-3.026413901290621045e-01,-1.825329404384106596e-03,6.686982055297586991e-03,-8.260630259856828472e-03,2.400865405797958374e-01
-6.383769932703652061e-02,-6.881742421572209500e-02,-3.459740160400127662e-01,5.354814886963620013e-03,1.492025407039609172e-03,2.492836119059494045e-04,2.798457145690917969e-01
-5.876888304567284838e-02,-5.692673742640519396e-02,-2.910785560179344200e-01,-2.616667014181898857e-04,-1.909390476495826262e-03,1.962133121539765684e-03,2.332848459482192993e-01
-6.900927118823566020e-02,-6.286423428232218447e-02,-4.599737883548166151e-01,-2.932409766533414404e-03,-2.767817287858930289e-02,-1.584898793479355694e-02,3.979586958885192871e-01
-6.377910161109937026e-02,-5.218470029162469714e-02,-3.149598254992993507e-01,-2.177067934612148502e-03,1.903931942000080396e-02,-3.531502463486374532e-02,2.664237916469573975e-01
-5.062252669853341269e-02,-5.034130050751023377e-02,-2.918340904751899334e-01,2.071236267626737999e-04,1.972637912652412950e-08,1.688479892215844391e-04,2.413527369499206543e-01
-5.054923536881689161e-02,-5.028238222819159109e-02,-2.913872834150443847e-01,9.194581164091123334e-10,2.016468989102327759e-04,6.982666804234643734e-06,2.409718334674835205e-01
-5.115625446683855215e-02,-5.032534634019436570e-02,-2.912853487479903913e-01,3.439667358377488803e-04,8.617876068452244559e-06,3.253990200093070159e-05,2.405463755130767822e-01
-4.901864830570829001e-02,-5.087267691418460858e-02,-2.904016692241884745e-01,1.630701854241033187e-03,6.900794723543337249e-05,-1.843910920178670981e-05,2.404779791831970215e-01
-4.897782481516001207e-02,-5.080379922607851373e-02,-2.911528307747653921e-01,1.354043321531011972e-03,2.866469640906548497e-04,1.711675335333979185e-04,2.412792891263961792e-01
-5.167450872494032399e-02,-5.155095841986329086e-02,-2.912937040640235509e-01,2.285632361455617288e-03,2.924597408578946309e-04,3.430678062879841871e-05,2.397142350673675537e-01
-4.475255053624416224e-02,-5.587618695555304771e-02,-2.845679093452638808e-01,-2.750276197170101709e-03,7.809313651383848138e-04,-6.157260948735804882e-04,2.345062494277954102e-01
-4.353436027290225052e-02,-5.740088699514409032e-02,-2.645372990231872334e-01,-3.749515129483065468e-04,-1.961963478144726145e-02,-1.061311417569613114e-03,2.170912921428680420e-01
-4.095652342354184905e-02,-5.734777524449763408e-02,-2.809318078339448355e-01,-4.609283459246960382e-03,-3.164165374741422822e-03,3.494239683965045303e-03,2.324945479631423950e-01
-4.533371891777086826e-02,-5.400588045521949321e-02,-2.641567228795180244e-01,-9.569320005281954644e-03,-3.610631375225440125e-03,6.413417550670225814e-03,2.156345695257186890e-01
-4.729976939657486168e-02,-5.353665746687086280e-02,-2.745740154407370071e-01,-7.893709699890762155e-03,-1.747362754735521826e-03,3.357943258856408916e-04,2.246584743261337280e-01
-5.133293954483408861e-02,-4.850351672326408403e-02,-2.767373413302006702e-01,-6.933855093804414810e-03,-8.005654324455824256e-04,3.770902803590720897e-03,2.272481769323348999e-01
-5.626591071361383700e-02,-4.231294632408290346e-02,-2.534351073880226068e-01,-8.414553729506134283e-03,-4.327808801145468370e-03,1.172328810678296279e-02,2.061610668897628784e-01
-4.319481236343786223e-02,-5.730062841568961396e-02,-2.845843379167789511e-01,-3.651282305595033705e-03,-2.439968483507872887e-03,5.848413258101891644e-04,2.347802370786666870e-01
-7.029121991347356269e-02,-6.116123522402039381e-02,-2.912643561177706286e-01,1.557112373671145278e-03,-1.532456648153942159e-03,2.136316654849746560e-03,2.257387340068817139e-01
-7.126740767984485192e-02,-6.103562821812721917e-02,-3.285580322328365277e-01,5.534089915181330741e-03,-1.081475797018561971e-03,2.416620444176513678e-03,2.627710103988647461e-01
-7.248846292049840323e-02,-6.149105414777880640e-02,-3.056504076056657526e-01,4.511602440613615879e-03,1.177784831209382436e-03,2.146793634022381068e-04,2.389874011278152466e-01
-6.028278061445338509e-02,-6.750043381801269782e-02,-2.894434421645159516e-01,4.821976223954176771e-03,1.167969939567413873e-04,1.666235145016450522e-03,2.258114814758300781e-01
-5.646092852754749924e-02,-5.895909196307644318e-02,-2.760715500460955152e-01,-3.337187486896754066e-04,3.487774106552246102e-03,-2.162685006676619455e-03,2.184886783361434937e-01
-5.540078496095565685e-02,-5.859016175473735766e-02,-2.912790895544384862e-01,-2.341474088605787277e-03,3.747430017896256904e-03,-1.929180572072834374e-04,2.344251126050949097e-01
-4.146531096765375402e-02,-6.010861267666167684e-02,-2.719511018245869272e-01,-5.639203762746649445e-03,5.315963939848612069e-03,-5.140385726751543413e-03,2.223369181156158447e-01
-5.217562706589818494e-02,-4.964474232131711740e-02,-1.942072233543478965e-01,5.146919482934038045e-03,4.011416608742369994e-02,-7.832816401348258184e-02,2.094078809022903442e-01
-6.208845092040696234e-02,-5.373225656025105990e-02,-2.526530015472410184e-01,1.167399169147334548e-03,6.786535539455573751e-03,-5.361391806191515008e-02,2.162005603313446045e-01
-4.256392493906949182e-02,-6.985003874799783352e-02,-2.716151820255197635e-01,3.106311670483836583e-04,3.949768635755322721e-02,-9.441375810429423338e-03,2.278310805559158325e-01
-4.905717469783625606e-02,-6.277001447436474091e-02,-1.985349040672193532e-01,-7.978573101772334138e-04,6.859475839445164369e-02,2.420448656416216912e-03,1.860566586256027222e-01
-7.837823139411422002e-02,-7.066167598817799100e-02,-1.682070057613646585e-01,-9.181359342889269110e-03,3.248884772870206522e-02,-3.641262649428915477e-02,1.273539513349533081e-01
-4.968587583350626835e-02,-5.211559026321652133e-02,-2.078153937245167393e-01,-9.567744730233224137e-04,6.307023140743064915e-02,-1.801373525891109689e-02,1.937432140111923218e-01
-4.992170779592322583e-02,-5.887904745991476285e-02,-3.219294949277088369e-01,-4.905738233110102831e-06,1.278155880664456033e-02,3.405585250878709336e-03,2.686203718185424805e-01
-7.285409055615132967e-02,-5.895027876034195091e-02,-3.227643464504329485e-01,8.402652027166376825e-03,-9.752844184205900629e-03,2.295274277836724473e-03,2.581397593021392822e-01
-6.821465631231224402e-02,-5.987168757121874574e-02,-2.994636680437686160e-01,-3.556638029643784051e-04,1.162063486968933565e-03,-8.817428734341950080e-04,2.355456948280334473e-01
-5.625882447257704588e-02,-6.028475664570936976e-02,-2.905761675686739931e-01,-8.129287105308979867e-04,-1.275988276887498815e-02,3.755565077909159364e-03,2.334742397069931030e-01
-5.963073400599762375e-02,-5.918959906879511790e-02,-3.030419224092143482e-01,-1.544561434653965015e-03,-1.268483678563577660e-02,1.190539494367505273e-02,2.455028891563415527e-01
-6.445001298850870641e-02,-5.303980768629892872e-02,-3.002864015831301359e-01,5.875250919827042055e-03,-4.364714014687968296e-02,2.425655116936305949e-02,2.569510638713836670e-01
-6.287335463676520242e-02,-6.969397311973944686e-02,-4.268813014912410386e-01,-9.849773043344343341e-04,-5.964460284599672896e-02,-2.779787251124071767e-02,3.782314956188201904e-01
-6.139169547199922750e-02,-5.753651342207499741e-02,-3.001975135628617841e-01,-2.689601311566885804e-03,-4.262617717017638114e-02,2.037865093990227916e-02,2.543270885944366455e-01
-7.005547088344571405e-02,-5.488697608551838802e-02,-1.546919560746512212e-01,6.193255698053634802e-04,-4.895683793855468841e-03,3.565326715711882033e-02,1.120881214737892151e-01
-7.052264295644197767e-02,-6.820303968322297128e-02,-1.869889934690609490e-01,-5.094414597710178461e-03,-3.714573583969153076e-02,4.243922419921791755e-02,1.531681716442108154e-01
-7.416504568673677744e-02,-6.232580828979920884e-02,-2.015297512351718612e-01,1.922331933250417263e-03,3.035539804420773341e-03,2.451988448195001509e-03,1.338902711868286133e-01
-7.285950666426205258e-02,-5.729520335167366529e-02,-2.224573623867349137e-01,-4.834824215688059146e-03,-6.388322909779663161e-04,1.518802658092829362e-02,1.603543907403945923e-01
-6.988145516409302593e-02,-4.863615965461272339e-02,-2.156633463426031461e-01,6.667585686824685845e-03,2.555759276544444358e-04,1.697420127243318491e-02,1.606201678514480591e-01
-4.025970829535502338e-02,-5.778755932107373927e-02,-2.852210648512121804e-01,2.910958346825082924e-03,-2.207380113175842393e-04,-3.073154582787243302e-04,2.367392927408218384e-01
-4.589046592753912024e-02,-5.661536798076102772e-02,-2.872380435076862248e-01,1.165436623572412619e-03,9.390648811149270936e-04,-1.826455057825796609e-04,2.361822724342346191e-01
-4.389976407812967718e-02,-5.658059252019734253e-02,-2.892720320450352656e-01,1.602092557267399166e-03,5.488042389767895825e-05,3.976696118489460915e-04,2.393011003732681274e-01
-4.389755968953151788e-02,-6.308177507954816632e-02,-2.886410379253953606e-01,1.136510552491906689e-03,1.182073219555746559e-04,3.902511161643847397e-04,2.357468307018280029e-01
-4.376338974423737982e-02,-5.190994682212689282e-02,-2.855390292716598055e-01,4.485793457465099728e-03,2.049432689494709494e-03,7.667451219833704449e-04,2.379641085863113403e-01
-4.160111246775802241e-02,-5.731099999571155623e-02,-2.830936568964190769e-01,2.172114920578449137e-03,2.992403607551673717e-04,-1.098561550777406391e-03,2.340719401836395264e-01
-4.913488789493028475e-02,-5.712471544209982155e-02,-2.898715269417680984e-01,9.250007808483266857e-04,-7.917995193576297507e-04,-1.060765091215705317e-03,2.368593364953994751e-01
-6.326150339515931864e-02,-6.322604353917918307e-02,-2.881089503540875674e-01,9.025328578303597497e-04,4.607045770194374249e-04,-7.224005766495820297e-04,2.248755097389221191e-01
-6.317572652870259708e-02,-6.117955489141635450e-02,-2.893779200206209046e-01,1.272028068799072693e-04,9.273384336973067906e-04,-1.549363447533862832e-03,2.272284924983978271e-01
-5.580869189507702000e-02,-5.350622180397579530e-02,-3.281287918903684764e-01,-3.014077465236417955e-04,2.395189972088900693e-02,-3.059552803542205449e-02,2.816383540630340576e-01
-5.764726326029970260e-02,-5.662157284089379405e-02,-2.892000335849871373e-01,-3.450300060484172687e-04,1.064983326436644675e-03,-1.123638773173794674e-03,2.320835739374160767e-01
-5.595335524270067529e-02,-4.620754481964559068e-02,-2.891552170396826105e-01,-4.276547220305012414e-03,2.032624327884771545e-04,2.820036588741039150e-03,2.383897602558135986e-01
-6.211610997314789828e-02,-6.191771996481942875e-02,-2.875496976175631048e-01,-5.111613060224373786e-05,5.233713821275992172e-04,-7.792957335395450224e-04,2.255387306213378906e-01
-6.165046565071145845e-02,-5.803620443630903847e-02,-2.883764776538296215e-01,6.752589295003654348e-04,1.349137155145908960e-03,2.773515762271751956e-04,2.285700142383575439e-01
-6.576756357277580012e-02,-6.057484797887410788e-02,-2.947359604941298672e-01,2.591134364256229058e-03,1.217310051579218854e-03,-1.776779463325762988e-03,2.316819280385971069e-01
-5.954497135136901931e-02,-5.935411232998837050e-02,-2.992804559943836873e-01,-8.991286000004020248e-04,9.618504319105983117e-04,-1.332894921994287607e-03,2.398529201745986938e-01
-6.215805443403404906e-02,-6.604850873619058649e-02,-2.884662086777677326e-01,1.557094327755962097e-03,4.486746893555973795e-04,4.719004273435204117e-04,2.244072705507278442e-01
-6.267262867184311692e-02,-6.491756265331970199e-02,-2.895983699650309107e-01,1.464859683307252140e-03,1.682281514972521971e-03,-1.018769978198312380e-03,2.258515954017639160e-01
-6.963926066345399457e-02,-6.246121893450495843e-02,-2.914724917746052135e-01,1.846170294512371581e-03,-1.988208105757503005e-03,1.307346545019823572e-03,2.255682796239852905e-01
-6.031589200540779516e-02,-6.499689734590125001e-02,-2.921034910888737901e-01,1.578335111467136782e-04,-1.601861999995394430e-03,2.217442935245393307e-03,2.295319736003875732e-01
-6.708244379410063796e-02,-6.099875055155370984e-02,-3.001501086364209980e-01,2.284762688444595246e-03,-3.025898540658719573e-03,3.347201940243964020e-03,2.363307029008865356e-01
-6.019743879245917362e-02,-6.575135537752067882e-02,-2.921580961182111413e-01,7.291250539508493857e-04,-2.013299730618389217e-03,1.659043161875600183e-03,2.292821705341339111e-01
-5.801893877531910659e-02,-8.132337846489404165e-02,-3.338377292327295298e-01,5.397578983019696991e-03,-3.786027038155696887e-03,7.045236477564063241e-04,2.651852071285247803e-01
-4.266610482407799665e-02,-5.862886976595010902e-02,-2.832526521399852393e-01,3.741913490799897175e-03,7.508441592740673198e-04,-1.292017940258177104e-04,2.331094592809677124e-01
-7.055452560615113611e-02,-6.528968943286833637e-02,-4.537019703924153879e-01,-6.481202227734586541e-03,-9.688371808554092912e-03,4.765968209223906543e-02,3.950555026531219482e-01
-4.835448453919113931e-02,-5.782426661519060596e-02,-2.833956195514618637e-01,9.569331871968390218e-03,3.390949243153894895e-03,4.136103034702456535e-03,2.312331199645996094e-01
-4.331857361149510366e-02,-5.928607598294408088e-02,-2.868422767787395244e-01,3.711784068521198354e-03,1.263054148540741122e-03,1.858584196251850584e-04,2.360434532165527344e-01
-3.554737162003511475e-02,-4.007149821160436998e-02,-3.420082156172594701e-01,-1.961834086450079881e-02,1.797551546594251728e-03,8.008876966885529816e-03,3.064457774162292480e-01
-5.885318229169073101e-02,-5.663178121203590876e-02,-2.911452386993486630e-01,-1.422993694835443198e-04,1.786622718154266170e-03,-1.588426771383665264e-03,2.334475368261337280e-01
-6.504677842300778112e-02,-3.492743969111175573e-02,-2.823268425512649449e-01,4.371718670104619928e-04,-9.197114792380508587e-05,1.023084818220754665e-03,2.338073402643203735e-01
-5.968299908097655926e-02,-7.383316666840689102e-02,-2.954115244281594888e-01,7.622347211253456154e-04,-1.137460658573836818e-03,1.926612040902501294e-03,2.290181815624237061e-01
-5.673927407860661354e-02,-7.332790373092309966e-02,-2.913552217427917146e-01,2.229727154473324735e-04,-1.262363166407936546e-03,1.782056344785298580e-03,2.268090099096298218e-01
-6.320450757456816393e-02,-5.308046934721626087e-02,-2.935056210130145837e-01,-9.172559880469662724e-03,-2.098907843167010720e-02,2.890500100818298168e-02,2.440352588891983032e-01
-5.980160612895024652e-02,-6.727430259617080133e-02,-2.897253636905662288e-01,1.577181089702909362e-03,4.877223970166763740e-04,-5.292977641659409992e-04,2.262998968362808228e-01
-7.098923125204420481e-02,-5.952551870917652255e-02,-2.932734731026949149e-01,4.770124238699751523e-03,-2.127189550502167972e-03,-1.458037292427550083e-04,2.284114807844161987e-01
-6.850037545548960660e-02,-6.382157532553348056e-02,-3.488510503082469238e-01,6.581156787413118547e-03,1.892056630175308453e-03,2.913131773785315889e-04,2.829682528972625732e-01
-6.822594146242380586e-02,-6.097814677088661539e-02,-3.506614756917645348e-01,5.333730499367877846e-03,-1.846870263032529807e-03,-1.581600866818724718e-03,2.863083779811859131e-01
-6.828234074837358225e-02,-6.157825775895953146e-02,-3.424790326337879831e-01,2.260580025448694248e-03,-7.542787022290026178e-03,-1.579619202919840208e-03,2.779577374458312988e-01
-7.241682581689820597e-02,-7.754359019278272980e-02,-4.722529439756432135e-01,-4.432914371899032875e-03,5.330381611300361033e-02,-1.790583935754892081e-02,4.091332852840423584e-01
-6.343786905631718098e-02,-6.872470600001837071e-02,-4.633101326924964347e-01,-5.992751412909380453e-03,-2.482781488938020503e-02,5.018712518873426690e-03,3.998053073883056641e-01
-6.236194928191071685e-02,-7.387210195872515039e-02,-3.209262070444383053e-01,6.084231947088921018e-03,5.064899431413726234e-03,-4.074887301737387590e-04,2.533778846263885498e-01
-6.494089634120850385e-02,-6.030890447581986613e-02,-3.907347946231695679e-01,-8.728764426215559341e-03,5.892731365816622491e-02,1.629137272761482444e-02,3.451293706893920898e-01
-5.096714636920841868e-02,-4.888727957827622428e-02,-2.907260032600388344e-01,1.418493657770404388e-03,2.027934794940932425e-04,-1.433435062431895259e-04,2.408184409141540527e-01
-5.197966571998201279e-02,-5.031664264075000337e-02,-2.907114823269914550e-01,1.397697738333858507e-03,4.004403649975269482e-04,-3.111748651734080667e-04,2.395814955234527588e-01
-6.016314919409881945e-02,-3.861233557920730475e-02,-2.590018157467823823e-01,5.528799180633361607e-03,1.361537376040222085e-04,-1.391616445028617116e-02,2.120356708765029907e-01
-5.312521870125536116e-02,-5.584209078065149878e-02,-2.904651827158951649e-01,9.816570941902709631e-04,5.272153664478114801e-04,8.839018990881643582e-04,2.360061109066009521e-01
-5.881563160041920757e-02,-5.520927585952178918e-02,-2.920500760280100305e-01,9.339051227102784184e-04,-7.664633471455324502e-07,1.668896909637183781e-04,2.350641191005706787e-01
-5.065041987721873029e-02,-4.943514429122178311e-02,-2.898862478935996245e-01,9.348196249645240700e-04,2.066929867676555073e-04,1.531736532931310369e-04,2.398516535758972168e-01
-5.125983520491206313e-02,-5.048011378715897002e-02,-2.911888090288159980e-01,4.147721306071852155e-04,-3.617628480002157932e-04,-1.529324357882093030e-04,2.403218150138854980e-01
-6.263740973248162203e-02,-5.434513014022379629e-02,-2.927374080221923913e-01,-7.351212429588306098e-04,-1.508294796760493821e-03,1.115191720517127918e-03,2.343821674585342407e-01
-6.200986501956809449e-02,-4.230935626761159196e-02,-2.873502956937070696e-01,-4.232406460402933306e-04,-8.301982394988455423e-04,-5.266840448369839800e-04,2.358159869909286499e-01
-6.048060089064362377e-02,-6.393919970289883847e-02,-2.918852086002329260e-01,-5.876708642331719950e-04,1.685304656486482245e-03,2.135482492676502042e-04,2.297159433364868164e-01
-6.049475477120244693e-02,-4.267100058894041092e-02,-2.816001823337744292e-01,9.055639896034566733e-03,-2.242837744862668202e-03,-1.632440136289008484e-02,2.328235059976577759e-01
-6.064650676802449403e-02,-6.998633419381297682e-02,-2.984114729195298521e-01,-3.763397291599711206e-04,4.811394727651118917e-04,2.656312855616204706e-03,2.332831174135208130e-01
-6.204282392295570880e-02,-4.293152369000169388e-02,-2.907370784663697583e-01,-1.138385216594707885e-03,2.937623931430606138e-03,-6.233806889798668496e-03,2.391303181648254395e-01
-6.152532115113207301e-02,-4.759353728412238360e-02,-2.911861435856543112e-01,-1.708904044230214131e-03,-1.414127311775017094e-03,-4.059058076404440871e-03,2.370695322751998901e-01
-6.128983737930003561e-02,-4.791724835018676409e-02,-2.900326464143897498e-01,-1.026819018601073368e-03,-8.918584999124697489e-04,-3.541023522028812886e-03,2.358053177595138550e-01
-7.057169461307630232e-02,-4.228377832755335353e-02,-2.551462820571314127e-01,-2.094052729528648321e-03,6.794619042169200429e-03,-1.930444225247572240e-02,2.033687680959701538e-01
-6.392985098466796856e-02,-5.312237613388973156e-02,-2.965232264719268040e-01,-1.319116241168231821e-03,2.287058929926455951e-03,3.218415781667877313e-04,2.382256239652633667e-01
-6.157776512061058360e-02,-5.622049044194996070e-02,-3.255897233605322683e-01,-7.107203085348929618e-03,2.064227578485642450e-02,-2.909976130424257387e-02,2.740723192691802979e-01
-6.664727816109294878e-02,-5.785873904710611693e-02,-3.321022235070130169e-01,-6.222401752409375056e-03,3.586919913044010234e-03,-2.704300830415439991e-02,2.742722332477569580e-01
-5.891925032592996991e-02,-5.950866774538150772e-02,-2.889327242475678847e-01,-1.659201275167427540e-04,-2.184514780076929948e-03,-3.699748171623283392e-03,2.298400253057479858e-01
-5.486923523200645803e-02,-4.991326991324809836e-02,-2.914871074624809100e-01,-5.144963879821702266e-03,1.654538149937258892e-03,-1.190105772549890058e-03,2.393263876438140869e-01
-5.437442728388072744e-02,-6.006223676007896306e-02,-2.973776788439199681e-01,-2.270316734025924765e-03,4.603581720671710495e-03,-4.604471276711653328e-03,2.405065894126892090e-01
-4.951453451184233134e-02,-5.654060023155066395e-02,-2.800510551297846207e-01,-9.725772573589478581e-03,4.315421369722554495e-03,-5.571119182153531219e-03,2.280557900667190552e-01
-6.657028161326844495e-02,-6.136932140481160536e-02,-3.013861538702833354e-01,-1.857951228719045920e-03,-2.808208403081912004e-03,-3.433639037949562595e-04,2.375314235687255859e-01
-5.972479831938687367e-02,-6.100797422839021600e-02,-2.951396601082724169e-01,-1.201991391632950155e-03,2.805734219499305196e-02,-3.453005765054487086e-02,2.471086382865905762e-01
-5.016882979443100521e-02,-5.709253395799408076e-02,-1.680547266745816282e-01,1.411754638926558886e-03,3.025781432722695133e-02,-9.182098933043426892e-02,2.029154598712921143e-01
-6.796876598589557394e-02,-6.046209270613234210e-02,-2.995955595280021533e-01,-7.658335906082098512e-04,2.577709828652495223e-03,1.870985585425801508e-03,2.355382442474365234e-01
-7.239994168518230910e-02,-6.149070306751050485e-02,-2.921357307158107819e-01,-2.470248943142306849e-03,1.463874408387824417e-03,8.426590340037336908e-04,2.254481017589569092e-01
-6.795407446611376190e-02,-5.916921548748849125e-02,-2.912751808666936837e-01,-1.304245215937559384e-03,1.442581530918883364e-03,3.524724256396123104e-04,2.278663069009780884e-01
-7.126790638804288147e-02,-5.973385854253440708e-02,-2.963244986968522898e-01,-3.100876674598852280e-03,-1.418546664015661162e-03,-9.632530163137948938e-04,2.311211526393890381e-01
-7.382768358523200680e-02,-5.876513794382776101e-02,-2.996650910068723306e-01,-4.633016022116681100e-03,1.798407452705398472e-03,-1.666347856860527724e-03,2.339092344045639038e-01
-6.622109298090254892e-02,-6.051176311855144263e-02,-2.950445927627135534e-01,-9.956057445953533577e-04,2.914401206291975313e-03,2.401846083330722546e-03,2.318296432495117188e-01
-6.071044422090235426e-02,-5.813928893047606850e-02,-3.005134228473371194e-01,4.152865985323250558e-04,-1.525454840397640456e-03,-5.655550765429086940e-03,2.413132935762405396e-01
-6.266086026021058797e-02,-6.058145772471079660e-02,-2.913500025414508254e-01,1.043275478501378035e-03,-8.195992927553923460e-03,-6.271686960924359672e-05,2.301812022924423218e-01
-4.864917790417185028e-02,-5.032751763023056435e-02,-3.265678731170426063e-01,1.789247068800097233e-03,9.017629776352339283e-03,3.761315890797740577e-03,2.776169478893280029e-01
-5.696942895651689598e-02,-6.244007538693943649e-02,-3.339535554532062078e-01,6.176269470949818062e-03,8.382793078539332518e-04,-4.770763595335664187e-02,2.866695821285247803e-01
-6.607227497688483719e-02,-6.355392800883369331e-02,-3.269196092063643144e-01,7.777886066710973790e-05,-1.738610193931867985e-03,-3.732183679996337912e-03,2.622126042842864990e-01
-6.020170730667057102e-02,-6.135258811088689646e-02,-3.223192838427564322e-01,1.428882048558589683e-03,3.879681982408075824e-02,1.939896060292354424e-02,2.721322178840637207e-01
-6.170257366204068283e-02,-5.828253261838142740e-02,-2.938470823636535334e-01,-3.468153844340089243e-04,5.263704096831229792e-03,-7.112183301666965933e-03,2.343756407499313354e-01
-7.327664971992947640e-02,-5.862619680108382969e-02,-2.951250021512755728e-01,3.841257135420524885e-03,2.449575605581341426e-03,5.561008503831193009e-04,2.296621501445770264e-01
-7.261895260517424455e-02,-5.980300097472335263e-02,-2.938190680353203188e-01,2.485130153521105442e-03,-1.316098452282117495e-03,9.091048484205201336e-04,2.279360294342041016e-01
-6.664977210478027769e-02,-6.050429506467613905e-02,-2.957233415175888336e-01,1.319671279085534756e-03,-3.217138851565955367e-03,2.097651475521780662e-03,2.323138117790222168e-01
-5.518164954184162641e-02,-5.820586887237727547e-02,-2.902590251890795336e-01,-2.415438763126483666e-03,3.627594887851638607e-03,2.234544469470369356e-04,2.337022125720977783e-01
-6.541245811223098117e-02,-6.041482211034236716e-02,-2.918579458544088845e-01,4.093656943288847194e-04,-2.126654789003205610e-03,2.557355550119484559e-03,2.290587723255157471e-01
-6.488928944156160949e-02,-6.035477723456195154e-02,-2.953655121885320201e-01,1.971329990681443961e-03,-4.775029108703133488e-04,1.884518610695069341e-03,2.328259944915771484e-01
-4.041562483923322180e-02,-6.199913897555511810e-02,-2.849942207454287946e-01,9.940097490090192122e-04,3.894358032673521115e-03,4.955421762339790037e-03,2.347931116819381714e-01
-4.572243217746091437e-02,-6.194861244317015347e-02,-2.898532196031613495e-01,-1.468061950346147369e-03,2.989374555534356302e-03,-1.224987394546781828e-03,2.365155369043350220e-01
-3.894507633495912502e-02,-6.195546554687543506e-02,-2.774127072707908148e-01,2.686740311280006073e-03,2.869587349935128016e-03,1.389023539612563914e-03,2.279500067234039307e-01
-6.234156332809737133e-02,-6.336181540132222734e-02,-2.894848025054499452e-01,-7.724827583316582185e-04,8.067729212539651289e-04,2.595229003785118598e-04,2.266435325145721436e-01
-3.653732494782854778e-02,-6.563397410400381715e-02,-2.495356714053456049e-01,-2.573868142866919239e-03,9.142528112195982132e-03,-1.175077935502545314e-04,2.007188200950622559e-01
-4.376485620295494927e-02,-6.360513575256150631e-02,-2.994431995131282553e-01,-3.044060161135398335e-03,8.881926375915720484e-03,9.450659358696098140e-04,2.468997091054916382e-01
-3.567847492310131929e-02,-6.365936621428835984e-02,-2.818551299447355496e-01,-2.585952487637366336e-04,1.116619247457530714e-03,2.368959571600574453e-04,2.334560900926589966e-01
-3.731514438124719502e-02,-6.200924655114278816e-02,-2.845337828644939338e-01,-1.386325869284839307e-03,9.326594272257565784e-04,-5.887139299355272776e-04,2.358631491661071777e-01
-3.533457880765439318e-02,-6.093201281727714941e-02,-2.492892254274776676e-01,-4.198692173904070360e-03,9.591568575622277243e-03,-3.236007036688555568e-04,2.031854391098022461e-01
-5.959646093342144124e-02,-6.808448382416906752e-02,-2.899555339614193761e-01,1.891297673120468552e-03,-8.174248877152454681e-04,6.700047942774130239e-04,2.262656390666961670e-01
-6.034059782976987363e-02,-6.586179835845271113e-02,-2.895364322648000810e-01,9.854418907679807389e-04,-4.583835514221948305e-04,2.524480077376091165e-04,2.264939546585083008e-01
-6.638715768845934728e-02,-7.263253674684885808e-02,-3.460231877810526213e-01,5.447533227806597433e-03,8.956917315181891007e-03,-2.061576882379408983e-03,2.771846652030944824e-01
-5.506901710944418771e-02,-5.811733648540350072e-02,-3.035733320292052229e-01,3.787977370676456207e-03,-4.650980132266442245e-04,-1.004997326370059632e-02,2.476951032876968384e-01
-7.025333333313552031e-02,-6.613892394762521665e-02,-3.040114573249722563e-01,8.128379108231590169e-03,-6.529744884264933498e-03,4.738782320500721859e-03,2.366750091314315796e-01
-6.252105503168725598e-02,-6.744737628586500167e-02,-2.880610945072826778e-01,1.759895175736309655e-03,-5.142992556473871199e-04,-1.993708852025468666e-05,2.231402695178985596e-01
-6.262273395599424197e-02,-6.753869294311279359e-02,-2.904968124514508698e-01,1.188716426144690750e-03,6.708023506674787436e-05,-6.589420297290246153e-04,2.254686206579208374e-01
-6.867195992020613815e-02,-6.231275229742901101e-02,-2.914871125272949781e-01,1.211327262800148503e-03,1.596593444468310131e-03,-8.003894250384411668e-04,2.260927408933639526e-01
-5.697634209687722773e-02,-4.671890710078152598e-02,-2.935602844502986919e-01,-6.263911717861146873e-03,-7.861214180542544505e-03,5.110829261047093557e-03,2.426631152629852295e-01
-5.973376033382885031e-02,-6.732954337920432630e-02,-2.994765919274897104e-01,2.994351616520371344e-03,2.823882012331291260e-04,-4.956649007684999809e-04,2.360956668853759766e-01
-5.904240850958961118e-02,-5.883516168514629774e-02,-2.992733663797044752e-01,-2.601323856076218516e-05,3.884783220704076268e-03,7.380714722205334623e-03,2.407684475183486938e-01
-6.298205302734355415e-02,-7.102602219442874509e-02,-2.915721682722895447e-01,-5.764441285624324028e-03,-9.825772131834954824e-04,5.511236127883651238e-04,2.249063551425933838e-01
-5.539310847418309203e-02,-6.217158583838666708e-02,-3.152033069568402901e-01,4.339498534801443375e-03,2.054508108488968532e-02,2.869633315823834005e-02,2.637790739536285400e-01
-6.087299849538506391e-02,-6.451678241970572325e-02,-2.927282145250322265e-01,-8.909791058400422107e-04,-1.138489453056265588e-03,3.937067145488229794e-03,2.301696389913558960e-01
-6.100561979807152257e-02,-7.012918076041504967e-02,-3.056196886212476649e-01,-1.037059724008320208e-02,7.756176957849215785e-04,-8.653840399667104416e-03,2.413227111101150513e-01
-5.998824554899717665e-02,-6.605098992084731946e-02,-2.922490093463453453e-01,-1.052965008943051051e-03,-1.718218997041966655e-03,-2.718158715756524395e-03,2.293644100427627563e-01
-5.822751190571356927e-02,-6.680585073527040008e-02,-4.469521115431530633e-01,1.040936072468144624e-02,1.808902848699706772e-02,2.983816327786643213e-02,3.896452784538269043e-01
-5.987200101919748496e-02,-5.219976960602254468e-02,-2.950980689602465956e-01,1.695799213338210166e-03,1.134160266716094248e-03,8.168173553333710809e-04,2.391847819089889526e-01
-7.870457735072775018e-02,-5.371155057174040182e-02,-2.428606943040623745e-01,6.642918102266336285e-03,7.317343921446923562e-03,1.716441252446616189e-02,1.812498420476913452e-01
-3.996941905819027807e-02,-6.741228588253526943e-02,-2.298070158731702339e-01,7.463984363000073473e-03,5.622682704460657543e-02,1.119596837612761922e-02,2.039835453033447266e-01
-4.471515350762331198e-02,-7.213661180722961974e-02,-2.470034030232616806e-01,-9.427635754531298734e-03,3.524059950329891389e-02,-9.020056236495663585e-03,2.009026110172271729e-01
-5.702375665874995919e-02,-5.411163814700600122e-02,-8.943261987778552968e-02,1.696351250914882643e-03,6.492937014985064592e-02,-9.221546047792723508e-03,1.185934469103813171e-01
-7.005795498959492551e-02,-5.605827136338290689e-02,-2.148212103354870117e-01,1.153583167139882355e-02,3.815185628393772538e-02,3.440624904188022137e-02,1.774720251560211182e-01
-5.763266743087587518e-02,-6.691058840138981723e-02,-1.347074160947513422e-01,2.345169630502699776e-03,2.319794681658098046e-02,7.201978022095145530e-03,8.424988389015197754e-02
-6.088766228190133079e-02,-7.032719663886774497e-02,-2.897733449284429774e-01,-1.585649197012842411e-03,1.831856506144565854e-04,7.061814173363980315e-04,2.243352979421615601e-01
-6.777467913124612942e-02,-5.947109068937084242e-02,-1.632503148900974477e-01,3.234414488645025285e-04,3.102190238254647677e-03,1.638549321796672550e-02,1.039806455373764038e-01
-6.032050503441960254e-02,-6.146961645767201610e-02,-3.368548831622270034e-01,5.305664155271221528e-04,-7.159893311668704373e-03,-1.804191085362507468e-02,2.780035734176635742e-01
-5.923476276455076628e-02,-6.832024439310727115e-02,-2.963346722735024086e-01,-2.069951048644830781e-03,1.988129879556798860e-03,3.395331079127252624e-03,2.328176200389862061e-01
-6.632489419308558454e-02,-6.480832064066045783e-02,-3.314183457902000196e-01,-7.466409591561878716e-03,-1.686701026555546476e-02,-2.176863457306480593e-02,2.704093456268310547e-01
-5.682251914712356522e-02,-7.891779895356909602e-02,-3.025904326458594973e-01,-5.919755401563256024e-04,6.180756986824565563e-04,1.608805657723287120e-03,2.355201095342636108e-01
-5.751635121088530256e-02,-7.388199834688924383e-02,-3.030378116155340584e-01,1.210909838790513639e-03,2.722644430371850763e-03,5.200751591638724976e-03,2.379879951477050781e-01
-5.488353548498385581e-02,-7.601454233298862717e-02,-3.130403746925888298e-01,-6.531404155044696035e-03,1.508984372460317903e-03,3.518828563796915290e-03,2.486127763986587524e-01
-5.865595529669383190e-02,-7.403160190823930564e-02,-2.979199718284254450e-01,-9.892610760763307417e-04,2.599256698353331852e-04,-1.265486973576990422e-03,2.319758236408233643e-01
-5.714221987876269560e-02,-7.349093678429829968e-02,-2.955805170813640137e-01,4.986359423967798472e-04,-9.932418936355949524e-04,-2.690697701415709943e-03,2.307539135217666626e-01
-6.134510864644018846e-02,-6.924329195585768315e-02,-2.988885008345273375e-01,4.463336216388877342e-03,7.894670348817494753e-04,-8.369490914484952870e-04,2.338307499885559082e-01
-5.898799975566035303e-02,-7.410425261330834401e-02,-3.291550507736057396e-01,-1.957265443165095466e-03,6.484147024859468651e-03,2.391165054128704774e-03,2.632291913032531738e-01
-6.131982757800542860e-02,-6.875677259929313667e-02,-3.046032348075066731e-01,-4.349334639510508624e-03,2.430967328713634461e-03,2.087995235534390211e-03,2.398341000080108643e-01
-7.772846165476865465e-02,-6.812454759606913213e-02,-1.216472802395575648e-01,5.121635757247059145e-04,7.026186287540609615e-03,1.491600999391905213e-02,5.708976462483406067e-02
-6.179682936094681167e-02,-6.056236218009547478e-02,-2.887343521243882494e-01,-1.220458395141809250e-03,1.004028566776586076e-03,-5.201591086719786067e-04,2.275755107402801514e-01
-6.419158620416574867e-02,-7.424396055559479013e-02,-2.129143313028623030e-01,-2.198189221665324683e-03,6.106381487873133521e-04,-1.583172211134395435e-03,1.440403461456298828e-01
-7.448539975402987401e-02,-7.728738213083548303e-02,-1.510450010282016753e-01,6.996821691293653254e-04,5.201629325087235925e-03,5.456599557287421199e-04,7.575115561485290527e-02
-5.691252600992227628e-02,-7.461293379345146359e-02,-2.943520752658794204e-01,5.444641993048386207e-04,6.727358974416678978e-04,1.386395513642784457e-03,2.291202247142791748e-01
-5.744268009098098260e-02,-7.814477586125717634e-02,-2.991481671372094864e-01,1.251141936777189993e-03,-3.671562231222349278e-04,-2.327265434804816086e-03,2.320940643548965454e-01
-5.790015494438364996e-02,-6.603979776153086345e-02,-2.924185472095511829e-01,1.934634510332623345e-03,6.525556344797724074e-04,-4.703353854938490189e-03,2.307273447513580322e-01
-6.045422296527960815e-02,-6.463268991281896636e-02,-2.899872724048283001e-01,-5.962473757865399595e-04,-6.503054568918884741e-04,-8.439980117987720481e-05,2.274777740240097046e-01
-5.656749210652695092e-02,-7.809573297305474893e-02,-3.023079208179508814e-01,-1.079627321990750573e-03,9.611875658789965048e-04,-1.291151738707178908e-03,2.357386946678161621e-01
-5.685448903868212112e-02,-7.976672711302176810e-02,-3.028895203879345410e-01,-1.173330133138346691e-03,8.446116798819336240e-04,-4.213888987840612096e-03,2.355430573225021362e-01
-5.539023170475547431e-02,-6.633293418182922840e-02,-2.982221496892749624e-01,8.446771446369783420e-04,4.752436167623401778e-03,-4.330212956528451014e-03,2.378150373697280884e-01
-6.064169965850557675e-02,-7.266917770090949857e-02,-2.954093269052272541e-01,1.579770302981071744e-03,-9.436420986792743489e-04,1.707406834140039230e-03,2.290321886539459229e-01
-5.617537223616163311e-02,-8.069250126951621471e-02,-3.284525158551465651e-01,-3.652718885192620378e-04,-6.932915755586411795e-04,-3.149252791939516089e-03,2.609445750713348389e-01
-5.814258822863657694e-02,-5.577525850438808108e-02,-3.515595403369278227e-01,4.461904638357277672e-03,-9.619550524711820150e-03,2.552549189248551169e-03,2.952128052711486816e-01
-4.519261856754887285e-02,-5.327984324772315483e-02,-2.891695352658842921e-01,2.120781004528551547e-03,-1.712187592587111323e-04,-6.641175236699204537e-04,2.400665432214736938e-01
-4.308948659122599500e-02,-5.324113227355070643e-02,-2.875381804745208436e-01,3.612304103354800622e-03,1.235888625404885305e-03,1.038736811932240581e-03,2.396322786808013916e-01
-4.918833734848662709e-02,-5.085611554956820379e-02,-2.915744642293086608e-01,9.351475187818328099e-04,-7.080319450704315514e-05,5.010286057746842679e-05,2.415620386600494385e-01
-4.911534473696500813e-02,-5.239414824059782094e-02,-2.915771265435156412e-01,7.047283994942530596e-04,2.925196497549473109e-04,-1.380739325192366926e-04,2.408428639173507690e-01
-6.364175291669180168e-02,-4.675964317476630216e-02,-2.961093954045466159e-01,-3.978173673398132174e-03,-4.885683557151715428e-03,3.870760777004823849e-02,2.507283091545104980e-01
-6.328510681191906739e-02,-5.316752313951007142e-02,-1.696988753331577504e-01,8.481721837877537976e-04,-7.166430977315603121e-03,7.540072823734308982e-02,1.723802387714385986e-01
-8.293727342559478743e-02,-4.778774634911370223e-02,-3.004603950646893562e-01,-3.829083407749643998e-04,-2.591123926022008070e-03,3.877486939369859803e-02,2.464319020509719849e-01
-5.075090181415796431e-02,-4.910867752005385056e-02,-1.034044717812622194e-01,-8.600906963870475147e-04,1.968792336129564918e-02,6.248871873424210327e-02,1.254637241363525391e-01
-6.947581973109785702e-02,-5.016381087367876440e-02,-1.959155725577957918e-01,-4.717167891103117919e-03,-7.806277827110076097e-03,6.510974793118073922e-02,1.782391071319580078e-01
-4.300053418122588844e-02,-5.904526242261054492e-02,-3.358708635081697480e-01,1.491344582991613885e-03,-3.506409049732912061e-03,5.850117807634443862e-03,2.854429185390472412e-01
-4.689590074769318245e-02,-6.927976963522429477e-02,-2.033993703275535081e-01,6.611847240213887533e-03,-6.835946288438787821e-02,-1.017974879512475485e-02,1.896109133958816528e-01
-6.921856105924442670e-02,-5.763499215478778970e-02,-3.370163384620014080e-01,-4.012166337292845733e-03,-3.705045189165506302e-03,2.689091063738793981e-03,2.739763557910919189e-01
-5.059456556273524142e-02,-6.260969400725913125e-02,-2.841971894729100057e-01,1.342534354143466767e-03,1.161221412942112230e-02,5.549515705914057767e-03,2.289325445890426636e-01
-4.189972132518995918e-02,-6.907990032036072370e-02,-2.057768513036749847e-01,4.729176753586973939e-03,-4.919702570235171685e-02,-2.744170928343319868e-02,1.809075623750686646e-01
-5.826596207868044164e-02,-5.956784856921928939e-02,-3.134260349746690322e-01,2.827196389894464073e-03,-1.164449604368863328e-02,-4.720703947739199324e-03,2.554873526096343994e-01
-4.769423402091856057e-02,-4.240331915957762376e-02,-2.542271378941688975e-01,-7.503134653765810430e-03,2.770446839282366541e-02,-2.108136516991618997e-02,2.181315124034881592e-01
-7.730067940034307528e-02,-5.655128088676922293e-02,-3.012809643008200755e-01,-8.056367011797355669e-04,-2.429918571722856219e-03,1.230281109727320065e-03,2.350943684577941895e-01
-7.063964708349299015e-02,-5.548423609942726431e-02,-4.746676020791815720e-01,-3.584410009068686210e-05,5.951363914971374153e-03,3.630599820034059733e-02,4.167158901691436768e-01
-5.253686946664870572e-02,-3.880567509126245374e-02,-3.373248261179903618e-01,3.419302526488449557e-03,1.043465323395068554e-02,1.073109920342920666e-02,2.931047379970550537e-01
-6.007093882084696412e-02,-6.321997387675423741e-02,-2.911229132274442133e-01,-1.881763383498704202e-03,-5.680256497706879897e-04,2.341126039190470978e-03,2.295547276735305786e-01
-5.700321757337244166e-02,-6.366475495648205030e-02,-3.170696180842452194e-01,-4.482100923732626127e-03,2.583280268241750985e-02,4.112935806890409551e-02,2.703397870063781738e-01
-5.337774287202879525e-02,-6.496827750327083262e-02,-2.223362837803661840e-01,6.859166741291849827e-03,-1.327769101590466766e-02,-6.692170943241326081e-03,1.659138351678848267e-01
-5.970679164423098317e-02,-6.736862600284176938e-02,-2.970637681797091423e-01,3.835767523115726860e-04,-2.930685291294104870e-04,-2.905128660349597363e-03,2.336759865283966064e-01
-5.915492387682280695e-02,-5.702721911612140815e-02,-2.937923492218976751e-01,2.911843816577309139e-03,3.222634672988348905e-03,3.958210348581682816e-03,2.359281331300735474e-01
-5.926509849664324259e-02,-6.707572710068689104e-02,-2.970398066887479649e-01,-1.449947108358377163e-04,-2.167010560356744543e-03,-2.518148054160103053e-03,2.340380847454071045e-01
-5.594023821771799965e-02,-6.874428577718613709e-02,-2.939850260805187410e-01,1.048989084531861066e-03,1.091520888203233956e-03,2.198082112293785889e-03,2.319540828466415405e-01
-5.404772848207864411e-02,-5.569254411351311218e-02,-2.896964191634965324e-01,-3.940407289785058734e-03,-1.078564512313766148e-02,1.199594339217275110e-02,2.365854829549789429e-01
-5.064327234171682457e-02,-5.631156916478699537e-02,-2.931451622658148848e-01,-1.864467951813218597e-03,-4.721765736242089376e-04,-1.500435316540557271e-03,2.397552430629730225e-01
-5.092573767192754702e-02,-4.386226746016150257e-02,-2.377837621309670246e-01,-9.393213071900927136e-03,-2.214176635042822833e-02,2.789005785209068208e-02,2.008848339319229126e-01
-5.671855861751534666e-02,-7.540594864219514470e-02,-2.691021940622181363e-01,4.430210448381400982e-03,-3.077371539782618529e-02,8.775857763349920182e-02,2.597917914390563965e-01
-6.714076987787565010e-02,-5.919941382040205813e-02,-3.002438563699539875e-01,5.209480514583517997e-03,-2.987256050061282836e-02,3.178803817913943008e-02,2.490807771682739258e-01
-5.549377230195116917e-02,-6.986229902599574992e-02,-2.827759539909624475e-01,3.325987690200519434e-03,-4.084831500891665523e-02,7.361962596682658511e-02,2.643793225288391113e-01
-6.039216671518721213e-02,-6.476334349501602916e-02,-1.563246813522911338e-01,-1.374588178937566525e-03,-6.273297085214510349e-02,4.239350037320627207e-02,1.612649708986282349e-01
-5.806309402961393890e-02,-6.970740416747851775e-02,-2.163851340579988070e-01,8.837632262560736821e-03,-1.043034303644059697e-02,-2.222521388495350692e-02,1.593752652406692505e-01
-7.461890387963586446e-02,-5.731287828879171042e-02,-9.132543091915540368e-02,-6.972616842705467097e-03,-4.249293040514083575e-02,-5.734021734951201543e-02,1.276488602161407471e-01
-5.779034770613281080e-02,-6.246963919600492798e-02,-2.083382275883210177e-01,6.766307582628770800e-03,-1.731048745209970430e-02,-1.442970403217368365e-02,1.537629961967468262e-01
-5.017965376973898550e-02,-5.851580723719877059e-02,-2.152312583587464578e-01,1.164910951608363367e-02,-5.436823821257246586e-02,-4.035339862336288774e-02,2.002389580011367798e-01
-6.604325452531165097e-02,-5.879604996405107808e-02,-2.918014140007628709e-01,5.878714945722363647e-04,1.851618813219207006e-04,2.361511294711401445e-04,2.294704616069793701e-01
-7.228028936335592625e-02,-5.902456111479570389e-02,-2.962449940721902930e-01,5.083441365214155100e-03,2.352089174161833308e-03,-3.318143253002182099e-03,2.311533540487289429e-01
-7.909242293245985489e-02,-5.914414527727371307e-02,-2.989671440480117237e-01,5.039813589125669013e-03,2.187979971540460113e-03,2.234800901007703670e-03,2.307260185480117798e-01
-6.728199800730642888e-02,-6.644240582507845994e-02,-1.618842223661671187e-01,-6.656413946934644325e-03,2.846906508958153836e-02,-1.776969476956494903e-02,1.119883283972740173e-01
-6.179576880962706076e-02,-7.432489437792136333e-02,-1.490969402088235529e-01,-5.546481412622968586e-03,3.665020116456530613e-02,-2.298615062506266515e-02,1.113182753324508667e-01
-3.667622497672977377e-02,-6.591652569561701203e-02,-2.479939770682296762e-01,1.413861783832717246e-03,8.825848272735140748e-03,1.382087923561695596e-03,1.989386975765228271e-01
-4.672603333853514451e-02,-6.333844162499589758e-02,-2.758932392076322571e-01,-4.364782567559032100e-03,4.934087187944900810e-02,-1.397614712410262180e-02,2.386069595813751221e-01
-5.733640239049786480e-02,-5.335481580972308013e-02,-2.500315008296709607e-01,-1.097859304352185629e-02,6.965089380545843797e-03,-6.152785287837032012e-03,1.963037997484207153e-01
-5.874733311672442754e-02,-6.112335360340775264e-02,-1.833633501530645138e-01,-4.610277078639327553e-04,6.635544820364853991e-02,-1.350835554196097403e-02,1.702818423509597778e-01
-5.620673503344317951e-02,-4.488887173576275313e-02,-1.082709078594211033e-01,9.139676533069367517e-03,5.537436513118020737e-02,6.664547602685456061e-03,1.140650585293769836e-01
-5.208015933309922962e-02,-5.379185730913618735e-02,-1.982359700046534834e-01,2.394379918337712163e-03,6.286200784032627831e-02,-2.980423019686435568e-02,1.888153851032257080e-01
-5.717049306858301705e-02,-5.055473671609344438e-02,-1.015340223334076364e-01,-5.577698738883062231e-03,3.833563940168042278e-02,-3.992329438872992131e-02,1.076531186699867249e-01
-4.936046347200809259e-02,-5.220894966213579513e-02,-2.782940266784494909e-01,7.047743715408415210e-03,2.556433363234866980e-03,3.798515222634687733e-03,2.279879003763198853e-01
-5.196863145025010233e-02,-5.572449697896923737e-02,-2.896483595012906975e-01,1.292232510171794713e-03,-8.588765645852265056e-04,-9.676073898312862777e-04,2.358454912900924683e-01
-5.166626742207762468e-02,-5.028603117402521971e-02,-2.907281968587325238e-01,1.500565975553373255e-03,-4.240210347199544079e-04,2.665913875330653128e-04,2.397706806659698486e-01
-5.485836624592237143e-02,-5.604776677684082664e-02,-2.905888092555309887e-01,2.564119407484160250e-03,2.802841287508516161e-04,-6.689982593338595837e-04,2.351832985877990723e-01
-5.077656322173144943e-02,-5.126179869786262611e-02,-2.911409939986383533e-01,2.448734938529303364e-04,-3.691079270661456677e-04,-2.731245266783802932e-04,2.401238679885864258e-01
-5.123153568551323811e-02,-4.972361369201974690e-02,-2.907900106368851434e-01,9.879481075364261559e-04,1.959747808572523842e-04,-1.538985507793549137e-05,2.403223216533660889e-01
-5.309973151478901421e-02,-5.272439401441486595e-02,-2.904711364467018053e-01,1.171155376310258024e-03,-6.856700420157641179e-04,-2.962004168711717951e-04,2.375714778900146484e-01
-5.615529393104207179e-02,-5.867825653083533211e-02,-2.899999069349025183e-01,2.348287887741135115e-04,-8.499322686832674412e-04,-1.717003327755580637e-03,2.326174229383468628e-01
-6.843187310885648356e-02,-5.775064350513001155e-02,-2.957609406719790002e-01,-6.982903899752433523e-04,-3.133888853872367816e-03,-1.311607541909950731e-03,2.329309731721878052e-01
-5.923549634368581451e-02,-6.194512494631751465e-02,-2.898340332252452578e-01,-5.412126710854867767e-04,-1.618767933407804513e-03,-2.190373227723565498e-03,2.293061763048171997e-01
-4.424374271687613047e-02,-3.573054881774336000e-02,-3.342320773235577525e-01,1.272322318005069015e-02,-2.036040480412351639e-03,9.314023993841246329e-04,2.951865792274475098e-01
-4.403343126076679492e-02,-7.025653469576149945e-02,-3.766431037460244990e-01,1.150026774896595674e-02,5.047963810110791746e-03,-3.547973398151681168e-02,3.268706798553466797e-01
-5.821164533331402158e-02,-4.377934689870041640e-02,-2.871836436159271866e-01,-5.071573948453082792e-03,1.198469159554115329e-03,-4.916660637603875728e-03,2.368439435958862305e-01
-5.803838439221074841e-02,-4.402334108318949057e-02,-2.888833137465388612e-01,-4.420050340375366801e-03,7.774142128638481105e-04,-1.784533355665258569e-03,2.383088022470474243e-01
-5.740114868557910643e-02,-4.151141033394054047e-02,-2.881675711161864606e-01,-1.829799545821441872e-03,8.024633475403373335e-04,-7.336818959434235343e-04,2.391360104084014893e-01
-5.194178437456309361e-02,-4.364132627056582781e-02,-2.870080620915628211e-01,-4.224733019196387149e-03,1.041852129783083815e-03,-2.826176450516919465e-03,2.394931614398956299e-01
-5.306879424145735658e-02,-4.752380877957720906e-02,-2.741959875595386120e-01,-7.791041514753518742e-03,2.502146681363089879e-04,-2.195156683219816850e-03,2.243900001049041748e-01
-5.203898212861304828e-02,-4.855939858545871290e-02,-2.766481468891311968e-01,-6.685299477360184817e-03,1.355052362723948352e-03,-3.440479027509024332e-03,2.267554402351379395e-01
-5.987751153869962095e-02,-3.939202463738591953e-02,-2.838379673975593986e-01,-4.998215743953676737e-03,5.516986523663510323e-04,-3.032117507928086715e-03,2.350942790508270264e-01
-6.439175575065815560e-02,-4.151956969144748877e-02,-2.522067167637685459e-01,-8.892122951084182464e-03,4.905927832139589904e-03,-7.666243265773209532e-03,2.014424502849578857e-01
-5.533285744213109481e-02,-5.063547984849434136e-02,-2.901434300715621251e-01,-1.302364620752955197e-03,5.629355639133833047e-04,5.448716118056868901e-04,2.372087538242340088e-01
-4.302023924008480105e-02,-5.629668959739669853e-02,-2.861401012791348064e-01,-1.244343888288978800e-03,2.902039063099122636e-04,-5.252355281784300105e-04,2.367730736732482910e-01
-6.005238717716424035e-02,-6.532318332959130558e-02,-2.919412006978947538e-01,4.391661442780738119e-04,1.507986575677246329e-03,-2.242106130824407517e-03,2.293478697538375854e-01
-5.969729328033809845e-02,-4.647054805857737947e-02,-2.949899961412142946e-01,-1.023370003223753304e-03,-4.844483945053835549e-04,1.267512691623320746e-02,2.431780844926834106e-01
-6.611263104824893766e-02,-6.096827343382280051e-02,-3.050956697678822716e-01,7.399524766835722731e-04,1.161413911044885611e-03,-4.945838475609046214e-03,2.417598962783813477e-01
-5.694811904308834383e-02,-5.753447143214543424e-02,-2.909661791802226061e-01,1.193330833941719297e-04,1.175683074684457687e-03,-1.354356890072630753e-03,2.337461709976196289e-01
-5.874331910794913791e-02,-5.847522114335532151e-02,-2.894658625317593770e-01,-6.355645940380707159e-04,4.664509753023519901e-04,-9.075286935340382520e-04,2.308661043643951416e-01
-6.168561489158921884e-02,-6.067067919567592504e-02,-2.873170369175607197e-01,1.507867298844024046e-04,5.371099192814077477e-04,-6.645069283154653346e-04,2.261455953121185303e-01
-5.894336171327191343e-02,-5.886517351781506147e-02,-2.894654021345839379e-01,1.471556063879552530e-04,1.082062373625285829e-03,7.588694111292546788e-04,2.305726557970046997e-01
-7.538606578242468270e-02,-6.852147718231860196e-02,-1.804628387049733718e-01,1.002021536489935668e-03,5.372721194513905424e-03,2.244118329546729990e-02,1.158015131950378418e-01
-7.025176832941068539e-02,-6.820546930567167321e-02,-1.392854684858171876e-01,-3.001260856928229283e-03,-8.267762866927649140e-03,4.614999072037633682e-02,1.073902174830436707e-01
-6.620700404100698933e-02,-6.308540064673683057e-02,-1.626456804775284481e-01,-1.805251679880476691e-03,-7.264512293382662878e-04,2.233803586312450157e-02,1.054491773247718811e-01
-7.209146006186342714e-02,-5.950059158121313169e-02,-2.025361873713060201e-01,-7.838395341883256685e-04,-6.928867504249674797e-04,2.906684528265088448e-03,1.372785419225692749e-01
-7.663980140113663131e-02,-6.755526807346075302e-02,-1.820726864921650145e-01,-5.036325988377579783e-03,-8.852623002874171823e-03,1.436802134159409147e-02,1.143982112407684326e-01
-6.274039105334633382e-02,-7.231063320416000750e-02,-1.855102371463571154e-01,8.112189805911685161e-03,-1.245068431669361236e-02,-1.214446519366719655e-03,1.210619434714317322e-01
-4.658197819379074345e-02,-6.751034979741565856e-02,-2.480668810946059510e-01,9.755019899119192484e-03,-3.523026351633953834e-02,-8.792989039401614970e-03,2.026286125183105469e-01
-7.085250729252860757e-02,-7.359316791955923531e-02,-1.657493911851640744e-01,3.977651864912280268e-03,-3.666387570115160754e-02,-2.777032366840390468e-02,1.230715513229370117e-01
-5.333520586911628253e-02,-7.068924114864588715e-02,-2.158323628011581674e-01,4.913899279958566096e-03,-1.368087094328413085e-02,-2.276832753617288700e-04,1.565905511379241943e-01
