sxx,syy,szz,sxy,sxz,syz,smises
4.160242041429718096e-02,4.160242041429718096e-02,-3.832048408285922414e-01,-1.181397986844874290e-51,-5.611640437513404211e-52,-5.611640437513401986e-52,4.248072504997253418e-01
