sxx,syy,szz,sxy,sxz,syz,smises
2.290358803361823570e-02,2.290358803361823570e-02,-2.258071760672366313e-01,-5.077062782900016050e-52,-2.462375449706520307e-52,-2.462375449706520307e-52,2.487107664346694946e-01
