sxx,syy,szz,sxy,sxz,syz,smises
3.239997395904336002e-04,3.239997395904336002e-04,-6.479994791805974508e-04,9.719992187710032412e-04,2.429998046927507940e-02,2.429998046927507940e-02,5.955429002642631531e-02
