sxx,syy,szz,sxy,sxz,syz,smises
-4.589376691686045118e-02,-4.589376691686045118e-02,-4.482124661662791332e-01,-3.308207052988437025e-37,-1.505234209109859641e-37,-1.505234209109859641e-37,4.023186862468719482e-01
