sxx,syy,szz,sxy,sxz,syz,smises
3.594760056808350701e-02,3.594760056808350701e-02,1.293547988638334978e-01,4.476347156486893452e-68,-7.282750713862629825e-136,4.542937065009060657e-68,9.340719878673553467e-02
