sxx,syy,szz,sxy,sxz,syz,smises
3.680649495752748301e-02,3.680649495752748301e-02,-2.536129899150526557e-01,5.960076501834234704e-52,2.994945993832791210e-52,2.994945993832791210e-52,2.904194891452789307e-01
