sxx,syy,szz,sxy,sxz,syz,smises
4.533333333333507673e-04,4.533333333333507673e-04,-9.066666666667015347e-04,3.999999999999997481e-04,-4.399999999999997663e-02,-4.399999999999997663e-02,1.077883541584014893e-01
