sxx,syy,szz,sxy,sxz,syz,smises
-2.919878979285145393e-02,-2.919878979285145393e-02,-2.416024204142961651e-01,-1.065325051070956478e-85,0.000000000000000000e+00,0.000000000000000000e+00,2.124036252498626709e-01
