sxx,syy,szz,sxy,sxz,syz,smises
-1.311340541530625903e-01,-6.279714323969362022e-01,5.739877232969563536e-01,-9.353950421539991567e-02,-8.670662724093110285e-02,-2.514752915132153349e-02,1.070081830024719238e+00
-1.463516170234849811e-01,-5.947097946840338434e-01,6.876628648973436286e-01,-1.020813434150501936e-02,5.653003311552158572e-02,6.675513179316976305e-03,1.131625175476074219e+00
-1.974181362992161737e-01,-5.924121878485177906e-01,6.149093738479924909e-01,-4.238459448323163292e-03,-6.402847538462426435e-02,1.829481722068310168e-02,1.072435379028320312e+00
-1.345397426222269543e-01,-7.388836330892665227e-01,7.254658185284146299e-01,-6.028020244667187805e-02,-1.127361753673690979e-02,-1.040767887912205369e-01,1.291649580001831055e+00
-1.861121154349312523e-01,-5.688230025274509938e-01,5.248302112561080701e-01,-3.677316626094565694e-02,-1.407103536678631084e-01,4.085359298080374485e-02,9.962198734283447266e-01
-1.539952086249745666e-01,-7.329892433930662587e-01,5.904451668824342025e-01,-3.839648749320648952e-02,-1.164675914002005763e-01,9.804071393367409792e-02,1.180849313735961914e+00
-4.755594835880431748e-01,-4.151093352808706283e-01,5.580818810381942274e-01,3.370425593573872503e-02,-5.158249422489953780e-03,2.337245891725318533e-02,1.007328867912292480e+00
-4.514637281563517734e-01,-4.131600254809980610e-01,5.351070741871675196e-01,2.276254091265862353e-02,9.185240416567588481e-03,9.045678924315332312e-03,9.690473675727844238e-01
-4.688629133467561716e-01,-4.115850444184544488e-01,5.619172987356139126e-01,4.187631419934095128e-03,9.293001600541731314e-03,3.279048524785742325e-04,1.003523707389831543e+00
-4.589429529960497578e-01,-4.126033020135503326e-01,5.179656806908928823e-01,3.214132482123258604e-03,-1.851043340290733658e-03,-2.653942892129287218e-02,9.557104706764221191e-01
-4.433339169502122368e-01,-4.153952065082419098e-01,5.156505985684819438e-01,-3.050877497798038917e-03,6.287197835984319541e-03,-3.067158787109401652e-02,9.468937516212463379e-01
-4.377147866099143636e-01,-4.314568165486870055e-01,5.184715068225608237e-01,7.767298931924977029e-03,8.112496064108572907e-03,-4.217005403420502559e-05,9.532712101936340332e-01
-4.421554681795864528e-01,-4.070033306094438252e-01,5.160157916947943901e-01,2.341757270557595725e-03,1.026900076036195431e-03,-5.742830992283959844e-03,9.411506652832031250e-01
-4.278570292620814675e-01,-3.940705638930455113e-01,5.390027476616274793e-01,-2.803050933664798586e-02,2.945013755270990945e-03,-1.129929890598396248e-02,9.518711566925048828e-01
-4.462885787422950501e-01,-4.303031810737398266e-01,5.169961859247987901e-01,4.861663712983044575e-03,-1.689739057584266693e-02,1.161684200586532694e-03,9.558797478675842285e-01
-4.132681775184202100e-01,-4.106398187245123843e-01,5.101297232927088920e-01,-4.291250966134060180e-02,1.761823267909518737e-02,-8.736489598220001374e-03,9.257041811943054199e-01
-4.422524964084945664e-01,-3.847078085575618700e-01,5.329396442840764747e-01,-3.259201358437220641e-02,1.517956305254356333e-02,-3.092935450821689136e-02,9.512842893600463867e-01
-4.004773455770741508e-01,-4.367636672535303299e-01,5.272445078480274550e-01,-3.863060142349929865e-02,3.361366065960325750e-02,1.150634763448262713e-03,9.505360126495361328e-01
-4.234886214247965408e-01,-3.980884484999611117e-01,5.349766584675713643e-01,-2.980277274437799148e-02,2.622279814458145387e-03,-5.628282363875850534e-03,9.474892616271972656e-01
-4.665743099439052521e-01,-3.758424973654327927e-01,5.604163788575036165e-01,-8.016122765279708184e-02,-2.944207588878174076e-02,4.543712494182125007e-03,9.958420395851135254e-01
-4.254915152259191591e-01,-4.300566048386212925e-01,5.448131791902967036e-01,-3.234656560871929445e-03,-4.179894980900046922e-03,4.687979091055632756e-03,9.726722240447998047e-01
-4.165191870943401597e-01,-4.197644933225076480e-01,5.451937042064488592e-01,-4.396933957371015195e-02,1.270936777285902597e-02,-2.947343713947568437e-03,9.666094183921813965e-01
-3.586384852500434373e-01,-4.334686521523024028e-01,5.250273001925658267e-01,-6.403546834249194963e-02,-3.824110309576887745e-02,4.289533146475793535e-02,9.353066086769104004e-01
-4.344586381423282129e-01,-4.122997510699298873e-01,5.465701907519250335e-01,-1.609013837865036142e-02,4.422554028830403758e-03,-3.795810422133548759e-03,9.705919027328491211e-01
-4.450593936153035002e-01,-4.320910639952825760e-01,5.281574918637597094e-01,-1.345894183526374216e-02,8.794019615511988741e-03,-2.112310656563682124e-02,9.678906202316284180e-01
-4.227721958397567259e-01,-3.858246045861059570e-01,5.339437662017696429e-01,-4.765584465264054853e-02,-2.628361894860284376e-02,1.749509660126976132e-02,9.439948201179504395e-01
-4.314892343967822730e-01,-4.100723354066459492e-01,5.206755935106479605e-01,-1.527292182147992235e-02,4.739696526715889494e-04,8.715031059882451248e-03,9.421318769454956055e-01
-4.473699180385904972e-01,-3.983177004140955879e-01,5.114191100336521467e-01,-2.000242124617874345e-02,8.768363567426270405e-03,5.964405928497657113e-03,9.360499382019042969e-01
-4.597293443734841167e-01,-4.040005954815570899e-01,5.557980803464126485e-01,-1.578411624157138177e-02,-2.541276633019132637e-03,3.242955705927947664e-03,9.892451167106628418e-01
-4.288491345617430062e-01,-4.408961973585702743e-01,4.932291141818645475e-01,3.553086850888762232e-03,7.914712477656951281e-03,6.230608136319247883e-03,9.283447861671447754e-01
-3.673465404977516169e-01,-4.443562187220982396e-01,4.208680307580540125e-01,2.647350050385698095e-02,5.614668756823038009e-02,-1.131611054210117200e-02,8.365744948387145996e-01
-3.892390144251889339e-01,-4.810579179138760875e-01,5.421438631595274504e-01,-2.079500412934542214e-03,4.763589006932360259e-02,-6.571263835692784869e-03,9.840596318244934082e-01
-3.395715355358991383e-01,-4.465614705654737393e-01,5.362929445747163237e-01,-1.204172857284590940e-02,-3.887839167071921107e-03,-4.922037840108339866e-04,9.342243671417236328e-01
-3.542307906759071812e-01,-4.944957939760069587e-01,5.582698034499907758e-01,-3.761599780729282892e-03,-2.026238793590674422e-02,-5.401561206232252665e-03,9.908002614974975586e-01
-3.651666913028533412e-01,-4.854857664494752201e-01,5.371192546773141396e-01,7.288268375929172864e-03,-6.023592966450361935e-03,-1.437079833263267808e-03,9.682113528251647949e-01
-4.001755488680814876e-01,-4.620815057813100202e-01,4.265873017329508965e-01,-6.000865942577395667e-03,9.770622715442355000e-02,-1.873584380579846470e-02,8.765565156936645508e-01
-2.972937387168910206e-01,-5.398995355262429241e-01,5.385708450910066114e-01,4.048864784432818290e-03,-1.312746213307073098e-02,-9.534180438108551020e-05,9.802443385124206543e-01
-3.736674410011277536e-01,-4.752963514760215058e-01,4.790149038407305326e-01,-9.987968763945488312e-03,7.429924596500849659e-03,-2.848632030938859794e-03,9.080429673194885254e-01
-4.298698632966398425e-01,-4.318479891824891226e-01,5.008318254910685274e-01,-6.961974738594872009e-04,1.765272511033660723e-03,8.996344618712702468e-03,9.318284392356872559e-01
-4.297003818980942857e-01,-4.460307221886620210e-01,5.146379296000320736e-01,1.994196318410189871e-03,8.957873024551560748e-04,8.561548508453217451e-03,9.527314305305480957e-01
-4.283604616853592395e-01,-4.389682118259753962e-01,4.812973567140402809e-01,4.792062755152026558e-03,-5.473934505536898545e-03,2.285388198707344679e-02,9.159502983093261719e-01
-3.179510655204324521e-01,-4.770461203539173023e-01,5.888817388407402431e-01,1.120850536229485855e-01,1.001668343568464653e-02,3.411037190624213039e-03,1.014866828918457031e+00
-3.687834833904833909e-01,-3.729274843944624940e-01,2.131332969291250823e-01,2.940402260850708167e-03,5.505951633808389700e-02,1.804510017194743687e-02,5.925818681716918945e-01
-3.775787969494338037e-01,-4.549525257720183902e-01,6.595563147410817839e-01,1.651188985064160897e-01,-8.597404473714599996e-03,-8.778338747951157719e-03,1.115405082702636719e+00
-4.451203387773844389e-01,-4.378960499490873182e-01,5.391819082069264635e-01,1.613812392210799054e-03,2.323151260832136134e-03,-2.034291068583811510e-03,9.807286262512207031e-01
-2.452997935930519846e-01,-5.181654184024034882e-01,7.702532294099975196e-01,1.725908946788425324e-01,-8.746961030413235444e-03,-2.797249698894585523e-02,1.214435219764709473e+00
-2.970130608673373640e-01,-4.413541271239342367e-01,5.970013484008148685e-01,2.040902745880291691e-01,-6.685515937824702826e-02,-6.127969966146763758e-02,1.048223257064819336e+00
-5.294127429864224910e-01,-3.187435236625361101e-01,5.700439826920075115e-01,1.980513899339586548e-02,-1.204082741620620886e-02,8.357569963116494999e-03,1.011625528335571289e+00
-4.659077392721351907e-01,-3.835961192171625789e-01,5.177069876463579190e-01,-2.561126679852010566e-03,-9.969403851046932524e-03,1.671437212636914596e-02,9.457622170448303223e-01
-4.801525825409690973e-01,-4.092457548236497766e-01,5.426288563426279188e-01,-1.306402793259404775e-02,1.883903357989353752e-02,-2.136497374495971435e-02,9.907237887382507324e-01
-4.867178875954256689e-01,-3.208404074966625941e-01,5.371951829557745084e-01,-6.828253652025487175e-02,-1.827502520552726911e-02,1.154439749610577590e-02,9.599262475967407227e-01
-4.931672783671490756e-01,-3.605951845694923552e-01,5.644783880550255928e-01,-3.242897617914965863e-02,-5.218780027996514082e-03,1.979521773915310368e-02,1.000193834304809570e+00
-4.849564467668621148e-01,-3.753718075327874271e-01,5.443698147767620510e-01,-2.563007460717769623e-02,1.027267280750531614e-02,-7.198143877891560391e-03,9.803906083106994629e-01
-4.776270988134813655e-01,-3.890037995463009879e-01,5.240978150146786696e-01,7.550534086521031897e-03,-7.218959888720026877e-03,1.479649768105999880e-02,9.609968066215515137e-01
-4.253315137576104688e-01,-4.270929381790442569e-01,4.595449359472623119e-01,-3.679234551812690570e-03,1.463780352594181572e-02,8.982475248547144853e-03,8.862807154655456543e-01
-4.377401638462249944e-01,-4.211510267699870025e-01,4.705676051257300374e-01,-3.769393391336721714e-04,4.839543533849696190e-03,-1.179399990217085831e-02,9.003989100456237793e-01
-4.400038359080266637e-01,-4.398884454245678977e-01,4.999426358362090150e-01,5.021495264905345875e-03,5.603948070024769058e-03,-4.755877409960875685e-02,9.435816407203674316e-01
-4.324460138427304590e-01,-3.967897750166184956e-01,3.557288530739753929e-01,-1.957988057056331277e-02,1.996062083962574230e-02,-1.056913877263835622e-01,7.938797473907470703e-01
-4.981219658207163281e-01,-2.843149182343551185e-01,5.490242495127003464e-01,-4.453117765208065154e-02,2.552142287446297099e-03,1.961176772112547401e-02,9.620103240013122559e-01
-4.274308567276525195e-01,-4.404538862451001791e-01,4.827310216081563965e-01,5.370226233486289627e-04,1.547384744172464188e-02,-2.076047417507172199e-02,9.178395867347717285e-01
-4.055929544718833157e-01,-4.291091711200136216e-01,3.760825069021513922e-01,-1.946531574816794466e-02,4.855710061966460322e-02,-7.219936845589529362e-02,8.085789680480957031e-01
-4.253514081680737635e-01,-4.469494757296911258e-01,5.451324980216437632e-01,7.430594099709652428e-03,2.319632416532325936e-02,-4.524982933855100330e-03,9.823987483978271484e-01
-4.612189051001087114e-01,-3.779469613408139583e-01,5.543482564016529723e-01,-1.499800213675531006e-02,-5.155721146404512040e-03,1.839896591136234646e-02,9.775032997131347656e-01
-4.353413398470271090e-01,-4.430897528887461356e-01,5.251469569479714217e-01,-6.736059251509464918e-04,-3.711724711586950401e-03,-1.152424254286740259e-02,9.646145105361938477e-01
-3.852354392521873949e-01,-4.414806896684879134e-01,4.590933639853096437e-01,2.850754174449604203e-02,3.859174213706432349e-02,-2.035760639988435251e-03,8.777599930763244629e-01
-4.603940815683897902e-01,-4.022471544747786565e-01,5.349276460625278506e-01,-1.333994764485519832e-02,-2.918556795186309262e-03,-1.284854975897477963e-02,9.681044220924377441e-01
-4.223006023292351085e-01,-4.409567893874511424e-01,5.330590912963798500e-01,3.382004192179263735e-02,1.988524488218685465e-02,-5.335727042250115910e-03,9.672572612762451172e-01
-4.378269200032662845e-01,-4.342559152570542591e-01,5.293091328279589947e-01,7.298549706494020066e-03,-1.967784225638437821e-03,6.764079825791840389e-03,9.655153751373291016e-01
-4.030823499633786611e-01,-4.390955086146900443e-01,4.928985881993634965e-01,4.791050352008140167e-02,3.497504062204947334e-02,4.000045679217890254e-02,9.228770136833190918e-01
-3.245590265488775272e-01,-4.306056682320041351e-01,6.311057688125311094e-01,-1.245143678443506180e-01,-1.487603261528864726e-02,-4.076644870107734055e-03,1.035910844802856445e+00
-3.840480548169669661e-01,-4.163493045367833156e-01,5.732118411956936832e-01,-1.359221444089265818e-01,-2.971533350929458830e-03,-4.622868950664803418e-03,1.001911044120788574e+00
-4.375297779250708619e-01,-4.430892846022876919e-01,5.384927545757619560e-01,-1.483169327702162175e-03,-3.391732337554046947e-03,-1.476975827199367326e-03,9.788384437561035156e-01
-4.336095039391253403e-01,-3.791842621065577568e-01,5.663269567974021923e-01,-9.368353382611160907e-02,-5.204036490403894785e-04,-1.188086742557522288e-03,9.872933030128479004e-01
-4.106013568487247301e-01,-3.806420751546414905e-01,5.359278209273998783e-01,-9.836855050605097794e-02,1.295716611817009437e-02,8.314730259173138890e-03,9.477330446243286133e-01
-3.429304738244594586e-01,-3.934719578488057312e-01,5.150064720211062763e-01,-7.406869293266771237e-02,-1.726932861463807277e-04,-1.740212338742292558e-03,8.935543298721313477e-01
-3.429196760105491237e-01,-3.959027094410291769e-01,5.189510714174355721e-01,-7.367544005039035337e-02,9.395395249867024168e-04,-1.678457903080017403e-03,8.986591100692749023e-01
-3.319580845435599059e-01,-4.555028543729968682e-01,5.345903422935555094e-01,-9.314741576815326052e-02,-5.566095356696230349e-04,-4.049048159690785305e-03,9.483177065849304199e-01
-3.552508645709572810e-01,-4.144663066332816004e-01,5.541277486826460263e-01,-5.875708416457570138e-02,1.318371559527638584e-02,-2.237914861673462319e-02,9.469457864761352539e-01
-4.342302176271129466e-01,-4.363234490745434568e-01,4.618838317612019573e-01,-6.330230621118514318e-03,2.250611646150159004e-02,5.181215858544553632e-02,9.025485515594482422e-01
-4.309307250105101628e-01,-4.262242621011739230e-01,4.767648523310658026e-01,6.861795011793739123e-04,1.716953852992343654e-02,1.449916630880872595e-02,9.061886072158813477e-01
-4.307986979269852190e-01,-4.209943897247742650e-01,4.794433332001464265e-01,-3.067060328795600047e-03,6.165778507924889879e-03,2.929559796455877274e-02,9.068788886070251465e-01
-4.698223957772015846e-01,-3.841490728025713786e-01,4.886111462013846829e-01,2.585169930624011889e-02,3.312487479753901953e-02,7.230121131603094164e-02,9.299471378326416016e-01
-4.400434216362212880e-01,-4.244422013270356397e-01,4.993591723452166509e-01,2.238795154273883186e-03,6.383858104736538086e-03,2.324657258902626533e-02,9.326431751251220703e-01
-4.495287779127806194e-01,-4.375874587429942619e-01,5.420294202533374461e-01,2.557351014581916646e-03,-1.087779367277954753e-02,1.123770767417482316e-02,9.860239624977111816e-01
-4.442876720905568066e-01,-4.368939601663840988e-01,5.325910022945269384e-01,1.985982904796224774e-03,4.690755340677202172e-03,-2.075557345054145422e-03,9.732494950294494629e-01
-4.584544038831320778e-01,-4.221108229217995222e-01,5.265502886481201461e-01,8.231102130867012229e-03,3.516219479142727346e-03,5.604826722532311144e-03,9.675180315971374512e-01
-4.286445301145034859e-01,-4.088871882773191802e-01,3.675385335940005715e-01,-3.561051661992600034e-03,-8.515462530843900812e-02,-2.265341686185091963e-03,8.002341985702514648e-01
-3.946453099293572020e-01,-4.303356886876911758e-01,3.223339099210557057e-01,3.792326702898932578e-03,-8.553439951247335249e-02,8.448244156517505099e-02,7.644119858741760254e-01
-4.430607314815574460e-01,-4.199248079237125619e-01,4.166314392885912543e-01,3.664697908297911456e-03,-2.189297642869287089e-02,9.290635268706069760e-03,8.493840694427490234e-01
-4.387722036661174663e-01,-4.421649985955012907e-01,5.521881872176260808e-01,-1.198408342245257290e-03,2.671128739726818472e-03,-3.118448958135885420e-04,9.926742315292358398e-01
-4.307550710525969162e-01,-4.208563450245542681e-01,4.104001956889357094e-01,5.883757518646747821e-03,-1.390737160556569652e-02,1.090578217320874524e-02,8.368719816207885742e-01
-4.302285376394915928e-01,-4.153748465671917578e-01,4.114533653677314717e-01,1.109956520285858457e-02,-4.941012552681276621e-02,4.461336468048496262e-02,8.425032496452331543e-01
-3.945943773409913979e-01,-3.986791111184940783e-01,2.913004904106111237e-01,8.997557129371282561e-03,-8.394881037358883913e-02,6.819373801214614894e-02,7.131664752960205078e-01
-3.914611012485777475e-01,-4.146139233556189740e-01,3.605814344099849134e-01,-1.570438968763678000e-02,7.803824328007055722e-02,-2.933864686301333041e-02,7.778868675231933594e-01
-3.784660196387035769e-01,-4.505486630462938735e-01,4.321553566497319254e-01,-6.358646675398825325e-03,6.102302095530538761e-02,-2.246291113804743320e-02,8.564701676368713379e-01
-4.296777074849623124e-01,-4.734964418491892091e-01,5.550228594764829992e-01,-1.203426496339717565e-02,1.880309949517710785e-02,-1.071716500844899569e-02,1.008237719535827637e+00
-4.520762221985225593e-01,-4.307835740431170124e-01,4.755587821625109068e-01,4.526624828899694468e-03,4.441940083538628570e-02,-2.026016929288095361e-02,9.210973978042602539e-01
-4.462035287702420527e-01,-4.497080544287585524e-01,5.338085837445448734e-01,2.753747286661948159e-05,2.705439767279745750e-02,1.398469225002399799e-02,9.831851720809936523e-01
-4.264014171217616056e-01,-4.390815970267089030e-01,5.230341393182798004e-01,6.791408794230982711e-03,-8.532025281429857222e-03,9.775526862168904072e-04,9.560268521308898926e-01
-4.312648934129388323e-01,-4.388414787223235414e-01,5.327839267915712718e-01,1.916720195134006405e-03,-7.342591955887490997e-04,-3.385384001733260199e-03,9.678836464881896973e-01
-4.326482240826629022e-01,-4.374158080487383082e-01,5.295237162970889422e-01,9.013891771450165905e-04,1.050050505580732603e-02,1.156487558417719497e-02,9.649451971054077148e-01
-4.269935975477871515e-01,-4.387684320997600751e-01,5.203425471285662018e-01,-2.902405146394289315e-03,1.933909265212293768e-02,-7.436895914588912207e-03,9.539666175842285156e-01
-4.754238798136228850e-01,-3.407941488307422162e-01,5.304602696279659968e-01,-5.329068055024505784e-02,4.933482025233854387e-03,-4.432897054568915238e-03,9.503461718559265137e-01
-4.313336041851525415e-01,-4.317246411955259489e-01,4.996302944317346784e-01,5.016026980671250621e-03,4.707862155850053160e-02,2.119294145419171188e-02,9.354838728904724121e-01
-4.290429613302174650e-01,-4.211332922261166734e-01,4.342510368714230795e-01,-1.269514677249492657e-02,4.682923813605770202e-02,-2.469816706974355472e-02,8.645248413085937500e-01
-4.278067775792875338e-01,-4.271838110488838658e-01,4.831180508053187772e-01,-1.105556239901456066e-02,3.837862073754041113e-03,2.555726503566722093e-03,9.108498096466064453e-01
-4.465437648148444238e-01,-4.312970389898143075e-01,4.929621761712332795e-01,8.192494211690321340e-03,9.796141353728825274e-03,-1.146517144336526260e-02,9.324500560760498047e-01
-4.271350064208127573e-01,-4.390473726476078475e-01,4.743726902732633421e-01,4.671233792183488408e-04,2.624187654338266951e-02,-1.357921043215409504e-02,9.089647531509399414e-01
-4.394716967629287430e-01,-4.315633321922883736e-01,4.678039536992302239e-01,1.396283634426638207e-02,-2.257879129329939949e-02,-8.442278429194538525e-03,9.046351313591003418e-01
-4.360746633132347450e-01,-4.318179800359417397e-01,4.951629914625345075e-01,9.639515884854633551e-03,1.228242384738094557e-02,-4.872902656227319582e-04,9.295104742050170898e-01
-4.355552886696937298e-01,-4.364603633643877600e-01,4.770332090344063802e-01,1.677683683778846691e-02,2.903440945117633648e-02,-2.661961007161283560e-02,9.160478711128234863e-01
-4.280912494544391600e-01,-4.469998057672809888e-01,4.914986938209240375e-01,-3.300978622184474499e-03,1.019326001333419919e-02,-1.771148100077260187e-02,9.298800230026245117e-01
-4.045697686313476371e-01,-4.181055372975063800e-01,5.353813262027656839e-01,1.432335034402279494e-03,7.711128189942400603e-04,-6.934128743196292174e-03,9.468719363212585449e-01
-3.525171705324518512e-01,-3.612163218136177911e-01,5.380288516250467667e-01,-1.391241902176585110e-01,9.927628266007125155e-03,-1.181717970788045274e-02,9.271872043609619141e-01
-3.868560905511908565e-01,-3.478841318818211570e-01,5.188906823846372030e-01,-7.586315018984501890e-02,-5.393966518784661102e-03,-8.325412177642004538e-04,8.966338634490966797e-01
-3.969722829553958832e-01,-3.796732263437936350e-01,5.306915212286311689e-01,-3.700967066163431129e-02,-4.285218363108204455e-03,6.319285893454006098e-03,9.214639067649841309e-01
-4.112881761221446886e-01,-3.571779729129769265e-01,5.305086147861206580e-01,-5.870953670118957135e-02,-3.953096559185021765e-03,6.752872940956907918e-03,9.216682910919189453e-01
-3.949108842321951141e-01,-3.452417546266935422e-01,5.200813115372930895e-01,-7.845413371111252532e-02,1.101734408193173753e-03,-2.349235731652069958e-03,9.015077352523803711e-01
-3.831324298103964132e-01,-3.850777038670044061e-01,5.248751551135044657e-01,-3.628244107075469238e-02,1.318200598697326018e-02,-9.677458445208779458e-03,9.115916490554809570e-01
-4.116761456497499694e-01,-4.173502866628387431e-01,4.057998096129128429e-01,-8.903409020629826989e-03,-5.511999880039183085e-03,-1.839084091038155691e-02,8.211463093757629395e-01
-4.773735290265493370e-01,-3.447237555640754181e-01,5.451501726469797360e-01,4.446481149385978805e-03,-5.328183354366653433e-03,9.350563977367035498e-03,9.632859826087951660e-01
-4.303676065705889231e-01,-4.233042416298620214e-01,4.021044589647523315e-01,-8.732215317122569292e-03,-3.092223621037042819e-02,-5.910498610155689135e-03,8.308920860290527344e-01
-4.316611497063395642e-01,-4.182816870956126976e-01,4.756598173558770348e-01,1.070822555847369788e-03,-9.871734081365144016e-05,3.069991095247898150e-02,9.022759199142456055e-01
-4.445261260295697570e-01,-4.398104084851637285e-01,5.402777489566087388e-01,-7.632204106001266863e-03,6.008526991625527496e-03,2.671342951156335799e-02,9.836873412132263184e-01
-4.262944565458588464e-01,-4.136137340838685339e-01,4.526883002730377470e-01,-1.942278870135152706e-03,-7.888574571701280694e-03,3.482189084859614592e-02,8.749063014984130859e-01
-4.365596374587029649e-01,-4.316383162116700922e-01,4.821641323305589921e-01,-9.951787996160308888e-03,-5.727866762278040029e-03,2.047791627920568513e-02,9.171749353408813477e-01
-4.418602404673925288e-01,-4.160688403581876971e-01,4.758857682680531775e-01,-3.212119605085709401e-02,-4.252640791518876723e-02,-1.993806076213743006e-02,9.104759097099304199e-01
-3.384166737334013408e-01,-4.347595515600400917e-01,2.442096501783946882e-01,7.146177905955533594e-02,-1.403535542879152387e-01,-1.061780341898593480e-02,6.925483345985412598e-01
-4.377739670769010827e-01,-4.048474261419044429e-01,4.654489400852194203e-01,-1.289004554187473534e-02,1.399758266628368117e-03,-6.656389933717067608e-03,8.875770568847656250e-01
-4.268946674765454197e-01,-4.535516779822234557e-01,5.440686759933484051e-01,5.430346301631083051e-05,-5.800803280743256976e-03,4.980736892040931937e-03,9.846516251564025879e-01
-4.149938320043355944e-01,-4.589151835657481748e-01,5.525904523125487744e-01,7.660928075032786633e-04,-6.977371630993083745e-03,3.488353667526373179e-03,9.903687834739685059e-01
-5.645696023263975238e-01,-2.452489345473609639e-01,7.833443956103465222e-01,2.181434552085918521e-01,5.359094125909499851e-02,2.084419883153242059e-02,1.281054258346557617e+00
-4.361021853511591329e-01,-4.354261026499243736e-01,5.495915103771484844e-01,-5.659408000832980273e-04,-6.622297212877345171e-03,1.909505839461288169e-04,9.854231476783752441e-01
-4.369914241975367819e-01,-4.346333736854254282e-01,5.505406323182125972e-01,-5.012402389592744787e-04,2.286878119048317212e-03,5.830849688498681606e-03,9.864152073860168457e-01
-4.346368384878379620e-01,-4.380776151741497260e-01,5.407121502509898425e-01,-1.067633900587291063e-03,-3.162571085323051230e-04,-8.424080330545879319e-03,9.771847724914550781e-01
-5.569507077948070428e-01,-1.542757230445096217e-01,2.906426935606107875e-01,-4.015563134808404488e-02,-3.303279779123204085e-02,-9.526625369406063748e-02,7.580204010009765625e-01
-4.395217329413499963e-01,-4.406796032072115010e-01,5.318345532039480128e-01,5.396765840401345285e-03,9.661813418413243287e-04,-2.540171844759101134e-03,9.719920754432678223e-01
-4.350717972164052094e-01,-4.329799893514262865e-01,5.259392695081188673e-01,3.975124827613201622e-04,1.844979296173250051e-03,3.119272497209098411e-04,9.599725604057312012e-01
-4.521603144416763143e-01,-4.351135879254177663e-01,5.368184642086588632e-01,4.712464649730829119e-04,-4.310744927167251862e-03,1.878561571753242787e-03,9.806007146835327148e-01
-4.401316880175724644e-01,-4.391753248082871930e-01,5.517298755559089107e-01,1.169409197988313187e-03,-4.078093405594002477e-03,4.587973672880697740e-03,9.914427995681762695e-01
-4.457597794809929903e-01,-4.238873713708554147e-01,5.439950411116116769e-01,2.813016701075015964e-03,-1.475783844856689208e-03,-7.398556709411793341e-04,9.790182113647460938e-01
-4.380017134571213555e-01,-4.411196886301528286e-01,5.479643816383016341e-01,4.115652299951737952e-03,-4.344919863545299542e-03,7.907709656139244245e-04,9.875841140747070312e-01
-4.372769953201699478e-01,-4.356832604117076846e-01,5.312501937871837443e-01,6.396288930545617748e-04,1.733976860030673767e-03,-4.166369938573513676e-03,9.677634835243225098e-01
-4.403914290657667263e-01,-4.401407986960096941e-01,5.443114025960188451e-01,3.457018181156245023e-03,-4.084925839543168159e-03,1.329069333400568001e-03,9.846238493919372559e-01
-4.387911721804498844e-01,-4.367398415770651354e-01,5.439887603448483322e-01,-7.644876136924483138e-04,-1.836829515970846236e-03,6.611722459286281748e-04,9.817625880241394043e-01
-4.409175618232572536e-01,-4.415617095156691430e-01,5.467444159983733121e-01,2.165241316267991004e-03,-4.178872297581288746e-03,3.545105693934985647e-03,9.880369305610656738e-01
-4.365568852837364289e-01,-4.353878552389671697e-01,5.486227495267246290e-01,6.412832593574914085e-04,-4.753515311000790916e-03,1.029125805576183543e-03,9.846323132514953613e-01
-4.495338567514094441e-01,-4.401881621058168492e-01,5.281045266123808313e-01,2.429818906862166346e-03,1.068708849269041881e-02,-2.374473310669703019e-02,9.740529656410217285e-01
-4.508691388747809170e-01,-3.595938049204566722e-01,5.629317765471161250e-01,-9.133083295073934904e-02,3.106690980629450705e-02,-1.467020857349812975e-03,9.856542944908142090e-01
-4.271164512824834336e-01,-3.859456858181603556e-01,5.334807881988877787e-01,-4.127463062398425281e-02,2.486527066300889960e-02,-7.102667948012801949e-03,9.444630742073059082e-01
-4.065710862236749934e-01,-4.345720064201259447e-01,5.359716957247686597e-01,-4.596038178483387998e-02,1.625189450651720949e-02,-2.330749712411046490e-02,9.614167809486389160e-01
-3.982536723030767334e-01,-4.169667877829039138e-01,5.690980523146480508e-01,-7.847726022190799899e-02,2.356725638053809579e-02,-2.014046114270076279e-02,9.877150058746337891e-01
-3.940398987157745503e-01,-3.642806162713186358e-01,5.354785549462423022e-01,-1.013463933604268757e-01,-1.428054266403086178e-02,1.848901947021473757e-02,9.325658082962036133e-01
-4.285234313161129238e-01,-4.399517014868877252e-01,5.599182276153866766e-01,2.969854998718692365e-02,-2.263015448168770316e-02,-2.484006310855699229e-02,9.972347617149353027e-01
-4.349456896496891600e-01,-3.852506987455301957e-01,5.429427228448017173e-01,4.967835128742530831e-02,-9.663532720891640504e-03,-7.548157357261834483e-03,9.581200480461120605e-01
-4.371124875123955089e-01,-4.022799049537949534e-01,5.569064655674238473e-01,6.367098405262125449e-02,-1.409761007522588455e-02,-1.547923232418696449e-02,9.839409589767456055e-01
-3.036038231099779661e-01,-4.349212889591596021e-01,5.405677411932857668e-01,1.223646632447469434e-01,-2.655169008645496403e-02,-1.778432932095479202e-02,9.427128434181213379e-01
-4.385038022853718354e-01,-3.926060342555970362e-01,5.605364633879753589e-01,6.539739402688220238e-02,-1.123443857422482331e-02,7.930420385394238098e-04,9.836388230323791504e-01
-3.439989001262133139e-01,-4.502041308960312294e-01,5.614313275480109500e-01,1.555585032460581052e-01,-5.848310967297480623e-03,-2.679122953925403006e-02,1.001047492027282715e+00
-3.768772721497588574e-01,-4.496595006547642326e-01,5.536978626476566356e-01,7.920707327551956833e-02,-1.747093169710488975e-02,-1.793545921358761716e-02,9.796421527862548828e-01
-4.754595267506335765e-01,-2.808913690661706264e-01,4.881482668627713517e-01,-1.630800376533834140e-01,-5.785025772899975854e-03,1.526455777131079453e-02,9.270890355110168457e-01
-3.455034553997006763e-01,-3.711232685806166165e-01,5.368867991037256093e-01,1.294502192474480395e-01,-1.067520735759920104e-02,-4.513667323317332829e-03,9.233366847038269043e-01
-4.562261340414925925e-01,-4.169327399908286380e-01,4.369084173624796508e-01,-9.146275950762196988e-03,1.664631453643744888e-02,-1.901858028691735120e-02,8.753892779350280762e-01
-4.812228257860299840e-01,-4.394697936027090468e-01,4.553210296077674357e-01,2.283839134976992091e-02,-7.825667392646524362e-03,-1.249725442410616963e-03,9.173371195793151855e-01
-4.366488495120121049e-01,-4.385251391123098919e-01,4.611545162080109561e-01,3.261889743529557389e-03,-9.362637085308404480e-04,-3.825567742271753641e-02,9.012014269828796387e-01
-4.287853549932659214e-01,-4.010489666472718540e-01,3.825158214156271219e-01,-1.228167461556927504e-03,7.756796716036266567e-03,-6.118989543804961850e-02,8.049186468124389648e-01
-4.247796008516593891e-01,-4.133901966427405150e-01,3.878212194318050310e-01,7.181735453136572390e-03,-2.981420531619521658e-03,-5.566436400511957927e-02,8.128171563148498535e-01
-4.338914353123732304e-01,-4.357665039339038704e-01,4.399600598119755013e-01,-7.104986679924651070e-03,1.614640250907609098e-02,-1.829928584335624789e-02,8.758976459503173828e-01
-4.456552038804278970e-01,-3.952872550923217654e-01,3.894482892319807155e-01,-1.140065869526227932e-02,1.436024119435450053e-02,-4.903973030947621214e-02,8.161467909812927246e-01
-4.385876426548884766e-01,-4.531632588204061451e-01,4.368745144216966692e-01,-1.329255896594034279e-02,-9.503205243121782067e-03,1.244893260055027900e-02,8.835569024085998535e-01
-4.548053734476038001e-01,-4.326941800286055462e-01,5.388693280203715741e-01,2.029485440487781376e-04,7.497574096531138890e-03,4.917106303455941012e-03,9.829283952713012695e-01
-4.392635626318636688e-01,-4.111908002310730170e-01,5.379607830242867372e-01,2.567879240630000989e-02,2.868918917566578436e-02,3.278944628306239978e-02,9.674683213233947754e-01
-4.431746289613893719e-01,-4.274306001609661232e-01,5.250933788806003699e-01,2.376671186140585923e-03,-3.704667207200508516e-03,-2.403968019995072689e-03,9.605320692062377930e-01
-4.309399728042875855e-01,-4.339716278341663180e-01,5.492853185240178515e-01,-8.363700516634171162e-03,1.729621954789133803e-03,1.842697821371054850e-03,9.818612337112426758e-01
-4.453515425548466022e-01,-4.244693030681059853e-01,5.368976444335424869e-01,2.130250529909550467e-03,-4.129605750840067806e-03,7.889736922431158858e-03,9.721056818962097168e-01
-4.183089797957381673e-01,-4.410594674123368142e-01,5.262362453539279894e-01,3.803013205477965425e-02,1.448186415781047703e-02,-5.073114380306485184e-03,9.587582349777221680e-01
-4.391641996533576786e-01,-4.375199717074410022e-01,5.315601914745168299e-01,-6.342438830963763991e-05,-1.017553741296048885e-03,1.813429216591232445e-03,9.699100255966186523e-01
-4.446489624665763141e-01,-4.374901568574288691e-01,5.383522042666039065e-01,2.312810540423158694e-03,-1.807396509097746774e-03,1.196882250448429380e-03,9.794567823410034180e-01
-4.565508583525535458e-01,-4.188246576347458561e-01,5.296262379689180566e-01,2.714904921793940759e-02,2.172456096276687704e-03,-1.470687157879824528e-02,9.693493247032165527e-01
-4.378887985046728271e-01,-4.575391038151407908e-01,5.593283001492116435e-01,-2.370233533078276375e-02,1.913931596405031490e-03,9.950495430349167933e-03,1.008175134658813477e+00
-4.046290735068516220e-01,-4.345726873954541269e-01,4.771858653669625028e-01,-1.369978656992964366e-02,-8.566197909046363579e-03,4.130559882697764501e-03,8.976264595985412598e-01
-4.354561783626378912e-01,-4.352618068152003805e-01,4.912457789319517598e-01,1.541434266100579886e-03,-1.431336602867232591e-02,2.922095055619008952e-03,9.269540309906005859e-01
-4.435357829918209482e-01,-4.369784027980296304e-01,5.012847850544709383e-01,4.969506480515865215e-03,-2.734499534443241009e-02,1.969084556856103702e-02,9.434054493904113770e-01
-4.421634794287495618e-01,-4.259469795962455008e-01,5.189797553064671165e-01,-6.435224159462714540e-03,-8.470644822627109924e-03,-1.575871293824200603e-02,9.537072181701660156e-01
-3.820782857280666245e-01,-4.886137291774546587e-01,5.592690066517528313e-01,1.654934133886909464e-02,2.061134636974972997e-02,6.334803361483939965e-03,9.999939203262329102e-01
-3.693380427535939425e-01,-4.988726520136209652e-01,5.633498198831214943e-01,2.552838478925305646e-03,-1.469699761448198944e-02,-2.062633036202016559e-03,1.004082441329956055e+00
-3.766891440333104968e-01,-5.002209138422113455e-01,4.376331830023819647e-01,2.843954008866960911e-02,-5.965695607146642709e-02,-6.674448998198065364e-02,8.974649906158447266e-01
-2.814698127952717788e-01,-5.434216894617991400e-01,4.979595674307703002e-01,6.969221174768147620e-02,-4.335711453726718428e-02,3.848979267511547925e-02,9.512922167778015137e-01
-3.268040315771715831e-01,-4.940572896467849695e-01,5.203349752034501785e-01,1.130490723923284827e-02,7.529551373457730665e-03,-4.753177617222835265e-03,9.422983527183532715e-01
-4.353798098451333032e-01,-4.435137476588621452e-01,5.155858251963840733e-01,-6.999699972486869964e-04,-1.597304848437413466e-02,5.375416587205065003e-03,9.555053710937500000e-01
-3.913890227860127302e-01,-4.806515862082724189e-01,4.725380592078893827e-01,3.435943072986941127e-02,-8.468705308460507120e-02,-1.660958838543968343e-03,9.254835844039916992e-01
-4.437691255902784238e-01,-4.641941221418083852e-01,5.259804293978554979e-01,1.906613180343922492e-02,-1.189915263372842008e-02,-4.720487637472561490e-03,9.809284806251525879e-01
-3.781378941870401356e-01,-3.929536944981052438e-01,2.398833455294476225e-01,5.526083261605145742e-03,3.321197380938702842e-02,-9.528312566599783651e-02,6.495872139930725098e-01
-4.521974103086298102e-01,-4.134105952400318196e-01,5.493948145644688141e-01,1.233454144501742837e-02,-7.723816189168959678e-04,-3.521602037092142617e-02,9.848967194557189941e-01
-4.490722357249166130e-01,-4.284670968844695449e-01,5.223262273691865465e-01,1.620430722898798291e-03,1.423177825683643455e-02,-3.446030222376513137e-03,9.616001844406127930e-01
-4.288976135418555713e-01,-4.276587146653514360e-01,4.850817287896476149e-01,-1.999879473453022860e-03,-1.604247856567990807e-02,-1.310792310991448772e-02,9.140716195106506348e-01
-4.350467953214295358e-01,-4.438238221286021634e-01,5.192468130391421077e-01,3.397903658587980453e-03,2.251893796346577260e-03,-1.182865008040053650e-02,9.589571356773376465e-01
-4.289851519652647105e-01,-4.291463671712267280e-01,4.838382530910171342e-01,3.750524770029216044e-03,-1.797273751386937318e-02,-8.216590528908614133e-03,9.135685563087463379e-01
-5.483420617534425778e-01,-3.079147440388388945e-01,5.893127224317017410e-01,-6.830319693476000209e-02,4.327008348016760098e-02,-5.962744198039159060e-02,1.053004980087280273e+00
-4.816609716112548734e-01,-4.143890276835771047e-01,5.230167155085720943e-01,1.017783670943412516e-02,7.713534743703884256e-03,-7.794650870085004235e-03,9.731329083442687988e-01
-4.602661705703249839e-01,-3.143893062777468606e-01,5.526734420184288288e-01,6.658413488441847217e-02,2.390498037589863962e-03,1.102064879748293350e-03,9.554493427276611328e-01
-4.529239509132337860e-01,-4.283296721971734389e-01,5.422582448925988841e-01,-3.257842484472716661e-03,-2.260270875167137749e-04,-1.445490258071227899e-02,9.834508299827575684e-01
-4.657751949804054825e-01,-3.391662838125268919e-01,5.179676129505371707e-01,2.883714196489080284e-02,3.739639491862271729e-03,-1.685434998418084210e-02,9.287723302841186523e-01
-4.684398901929915926e-01,-3.404273428476989327e-01,5.185165199971634165e-01,8.305842925576047142e-03,6.999021349787915014e-03,-1.303887326111839023e-02,9.300491213798522949e-01
-4.475782132677286196e-01,-4.124110666134367942e-01,5.088052581523168083e-01,1.255123741848499126e-02,3.975114499624091309e-03,-2.604677192434174532e-02,9.406530261039733887e-01
-4.604312514019850422e-01,-3.720451938194259678e-01,4.509587416677297567e-01,1.678519200878129947e-02,-7.082640295620990650e-03,-7.506483803934986543e-02,8.807891607284545898e-01
-4.647592294499772736e-01,-4.164391067735916940e-01,5.209618720251891766e-01,7.826585431786419605e-03,-8.459097547273565498e-03,-3.401596807890125244e-03,9.626961946487426758e-01
-4.363820866804879461e-01,-4.156065416637903520e-01,5.169091009285039506e-01,1.690798454926567204e-02,-1.304990269272839412e-02,-3.398327193925130413e-02,9.456340074539184570e-01
-4.678780758029844611e-01,-3.431377929256987369e-01,5.578807251177784199e-01,4.802103817109816541e-02,-5.745117690683163546e-03,-5.330172125133952887e-03,9.730827808380126953e-01
-4.826586409748757078e-01,-3.716385310852557966e-01,5.388335331081804958e-01,-2.634415301765714607e-03,1.580757029045523621e-02,-1.009998341570115393e-02,9.713094234466552734e-01
-4.475534315487944004e-01,-4.224394449699523935e-01,5.141338275092163235e-01,-6.493761254382343986e-03,-2.584145321279125197e-03,2.018649067718843518e-03,9.494630098342895508e-01
-4.607529697992827078e-01,-4.504705285245917401e-01,5.356329739413059343e-01,-1.308744986997735678e-02,-5.698457710880336889e-03,-3.304834990088485053e-02,9.932438135147094727e-01
-4.854522600357041862e-01,-3.841657200390297122e-01,5.558934212716454271e-01,-4.061800015494948166e-03,2.455126544395403246e-02,-1.994093862560349442e-02,9.961105585098266602e-01
-4.859219405566279071e-01,-3.626555215827117484e-01,4.427926499934355942e-01,-1.473430360591319183e-02,-2.600081120763662879e-02,-4.980959833897408151e-02,8.794023394584655762e-01
-5.491968661695073584e-01,-3.756233816276648985e-01,5.902690735140443401e-01,2.295956042095348079e-03,-3.157605834975338310e-02,-2.936493387672448052e-02,1.065984606742858887e+00
-5.113656119713361203e-01,-3.812653583921162825e-01,5.466076443534125806e-01,2.709792038257496059e-03,4.953898583211770526e-03,-5.466605452682718469e-02,1.003818511962890625e+00
-4.404774431121959433e-01,-4.244746928623538973e-01,5.145107346840320783e-01,1.268637361072362177e-02,8.841151429032453879e-03,2.790319931130430444e-03,9.474791884422302246e-01
-4.199734105616558244e-01,-4.661024887599936606e-01,5.265642678734206994e-01,2.942558264810551157e-03,2.758871248350171917e-02,1.360787102500848542e-02,9.718998074531555176e-01
-3.844681954051046846e-01,-3.818039048267225510e-01,5.176725678532621000e-01,3.298370066536140260e-02,2.665407738000619663e-03,2.591140046631441787e-03,9.026442766189575195e-01
-4.335211801269576726e-01,-4.144423106187102857e-01,5.291346922553152865e-01,2.517301237027362582e-02,-1.045619526189703156e-02,-1.125098697769212792e-02,9.546270370483398438e-01
-4.326707942713514665e-01,-4.376148942529279884e-01,5.443486405779907056e-01,3.153509330639432152e-03,-6.168442025036094400e-03,-7.441204395415542197e-03,9.796591401100158691e-01
-4.372354585513377190e-01,-4.404371743328385769e-01,5.412140881274587478e-01,-2.598650190275719751e-03,-5.302894680952957920e-04,-4.391024963628589566e-03,9.800946116447448730e-01
-5.008848854219167812e-01,-2.652328614575678034e-01,5.558911426908337283e-01,1.527145032910672273e-01,1.514131625014960431e-02,2.531778994110250869e-05,9.969598650932312012e-01
-4.413561425112566550e-01,-4.342976658091763920e-01,5.241053385260425745e-01,-3.763943832714138158e-03,-4.266370917079743324e-04,7.760238445835235949e-03,9.620679616928100586e-01
-4.514763865421660416e-01,-4.335609152901331309e-01,5.306931654123888675e-01,1.851414383554745051e-03,-2.347785129106185181e-03,-2.997944737399291584e-04,9.733493924140930176e-01
-4.337238200602545057e-01,-4.161369993631687247e-01,4.708446608464708083e-01,3.309066072284558291e-02,1.165164235271858306e-01,3.254481017634182349e-02,9.218652844429016113e-01
-4.342108099300366342e-01,-4.281614768292825723e-01,4.815843300508135805e-01,8.941697490967179208e-04,1.018278459910495169e-02,3.588889309950046153e-02,9.150709509849548340e-01
-4.322774477123553782e-01,-4.244178646489582540e-01,4.473768404437837853e-01,5.238341919371835263e-04,4.236685708091372793e-02,5.604624022185505927e-02,8.841657042503356934e-01
-4.373256303390428146e-01,-4.252921695384675460e-01,4.657717965800165505e-01,6.885301519471366885e-03,1.456541846478531452e-02,2.466542892686213184e-02,8.985912203788757324e-01
-4.159401004565753124e-01,-4.200480109442644161e-01,4.061447609423385341e-01,1.378452330454927374e-03,8.184972656474227403e-04,4.678661094812421040e-02,8.281256556510925293e-01
-4.219466990242710658e-01,-4.211409948305374629e-01,4.145016276839362801e-01,-1.179529005583706061e-02,5.268154152428862480e-02,3.439883698430678399e-02,8.433657288551330566e-01
-3.180465259730950733e-01,-5.115205703312132313e-01,6.116171195347953615e-01,3.083915229370184311e-03,-9.615557502194315917e-03,-3.067161184598877956e-03,1.040147423744201660e+00
-2.645090706313420470e-01,-5.222467332178480914e-01,5.430787700184034339e-01,7.079117044490456680e-03,-1.472615600481920126e-02,-1.081652057445201161e-03,9.631080031394958496e-01
-2.244422712901046890e-01,-5.269324935027661638e-01,5.573476880656406118e-01,-1.077547761805641019e-02,3.138845706214261899e-02,-4.078425126110253422e-03,9.708417057991027832e-01
-1.984177723602767729e-01,-5.545275216697470588e-01,5.191150836142053304e-01,-1.870578854943338518e-02,1.844164452926899678e-02,-9.785484254037307358e-03,9.484435915946960449e-01
-1.566308267257970621e-01,-5.488367054852383298e-01,4.864348003861042047e-01,6.689940165749760914e-02,1.408566378173495975e-02,1.894000359212877176e-03,9.130200147628784180e-01
-2.216697100642091578e-01,-5.281397986745476336e-01,5.620033779330898538e-01,1.427444006377605844e-02,3.550912335173481843e-02,9.118826108391309831e-03,9.761573672294616699e-01
-4.309934268017666104e-01,-4.303628526004990018e-01,5.393688410658563637e-01,7.626830159825528054e-03,6.362547832390031549e-03,1.031000600953515568e-02,9.703639745712280273e-01
-4.280692523161641061e-01,-4.556480698942350083e-01,5.789205120248475112e-01,4.620404837694004618e-02,4.755051870974653233e-03,-7.835819256119886528e-03,1.024312973022460938e+00
-4.119104416082697284e-01,-4.480704705048265124e-01,5.459018328809028819e-01,3.196114797099009613e-02,3.585545440319493418e-03,-1.061721337631693282e-02,9.781552553176879883e-01
-5.003218489261405111e-01,-4.285180018268143209e-01,4.882471836604004300e-01,-1.464815725223708905e-02,4.993385905439101657e-02,-4.341356573502314076e-02,9.618833661079406738e-01
-4.764968420823921802e-01,-4.320716516996466749e-01,5.011120376871225357e-01,-4.934340063210080479e-02,-1.491136770660623362e-02,-2.201864127261626836e-02,9.610869288444519043e-01
-4.315455903542661509e-01,-4.405733926000016121e-01,4.025468378748631171e-01,1.256648104230649945e-02,5.117566624289933419e-02,-6.271845060676013717e-02,8.505604863166809082e-01
-4.491833417751113222e-01,-4.333413768075998207e-01,5.312130077470831324e-01,-2.033002649633060353e-03,-7.676721127939651994e-04,-2.311544355403306623e-03,9.725876450538635254e-01
-4.478463551462228964e-01,-2.965718572321910385e-01,1.958199343031286066e-01,-1.113335448147445422e-01,8.848934680132142239e-02,-1.233357678966715276e-01,6.679309010505676270e-01
-5.311632827668264500e-01,-2.270542637970388022e-01,5.537979848438727704e-01,5.749182828471707807e-02,-2.998715370175317370e-04,5.830200264436758741e-04,9.744710922241210938e-01
-4.097127052615480158e-01,-4.477566365239805113e-01,5.070931187368179494e-01,1.277190794116060766e-03,5.278496710721081175e-02,-9.608672320346758194e-03,9.410099983215332031e-01
-4.297259991172563409e-01,-4.413576547662671490e-01,5.177498869122527658e-01,-6.129359683759550521e-04,-7.664313731163177601e-03,8.705417981666170243e-03,9.535571932792663574e-01
-3.888214607617451746e-01,-4.626704662688010394e-01,5.259260896212110126e-01,-3.494877857484440797e-02,-1.934598210781196363e-03,-3.613878674610837734e-03,9.557638764381408691e-01
-4.014366662326718238e-01,-4.551662723540558231e-01,5.399383496505554270e-01,-1.200424763175429385e-02,5.480016803753721445e-03,1.695608947636356029e-02,9.700713753700256348e-01
-4.362292326086056327e-01,-4.397210869390917320e-01,5.071744860128705179e-01,2.390686712767188526e-03,3.401143768458961963e-02,-2.599134059581233169e-02,9.480670690536499023e-01
-4.377527185196648518e-01,-4.367879186579448070e-01,5.469766752497747797e-01,-1.720757086714216379e-03,7.823582976246442125e-03,3.381291155486508895e-03,9.843625426292419434e-01
-4.061651574861878666e-01,-4.472255614507217314e-01,5.303376739146383745e-01,-1.357505187426966999e-02,-5.200003197422114164e-03,6.948159327048860842e-03,9.580999612808227539e-01
-4.339846112966218028e-01,-4.330298147999664393e-01,5.141776630742102006e-01,-4.771359583797324909e-03,1.123947244080195085e-02,3.895080516658234841e-03,9.479451775550842285e-01
-4.374188081715950083e-01,-4.277914531492574279e-01,5.574646398144319503e-01,5.253448940382798513e-03,-1.647718498118189330e-03,4.077579017186530423e-03,9.901759624481201172e-01
-3.910723588831224173e-01,-4.001849175226292465e-01,5.218687583181665923e-01,-3.510283208970144467e-03,5.211661194786060356e-04,-1.153011924828095842e-03,9.175540804862976074e-01
-4.328829422718483144e-01,-4.310785720484959227e-01,5.009533507616514836e-01,2.755617221403869332e-03,1.163495303157258695e-03,1.964029901108968815e-02,9.335697889328002930e-01
-4.414984674817890586e-01,-4.378309504212735126e-01,5.423569286187397420e-01,-5.627196708709106265e-04,1.958675143107239166e-03,1.394672040793574000e-02,9.823302030563354492e-01
-4.181643821858300747e-01,-4.209983084198410941e-01,5.327581737450949317e-01,2.404833086425704758e-02,-4.761035466911316301e-03,-1.500193608397311709e-02,9.536428451538085938e-01
-4.006737442350984946e-01,-3.854300383562732080e-01,5.227406147402628989e-01,-1.128509920710543679e-02,-5.724409682617702562e-04,-1.615621357068070668e-03,9.161010384559631348e-01
-4.179395807273026398e-01,-3.874719299186079047e-01,5.394132603288204209e-01,-3.292881981084138515e-02,-1.157281965350594015e-02,1.560850910820957282e-02,9.448121786117553711e-01
-4.135348278843297143e-01,-3.490193657784752546e-01,5.179457624312348019e-01,-2.196724776740170693e-02,1.526556215356800195e-03,-1.242054994334007090e-03,9.017664790153503418e-01
-4.149311308284371891e-01,-3.577769148763638163e-01,5.203495406344709195e-01,-2.273099616835074638e-02,-4.731424444380310894e-03,6.187581546877849586e-03,9.090068340301513672e-01
-4.258441242010715388e-01,-4.074799387418471808e-01,5.329607417398701807e-01,-4.896081914475003405e-02,1.958408773415868179e-02,-2.428244761492692055e-02,9.550640583038330078e-01
-3.817772719504346490e-01,-4.422746449156182424e-01,5.600240117653418892e-01,-1.204514269611118432e-01,-2.043401409345336345e-02,-1.546068230826694659e-02,9.965547919273376465e-01
-4.060563613151453866e-01,-3.894379197077609822e-01,5.344864369352592126e-01,-4.587070869186257033e-02,-2.141740734452866196e-03,4.028084643453293603e-03,9.357571005821228027e-01
-4.332285474199255582e-01,-4.388498981151421896e-01,5.420376983543504501e-01,-4.937105674940429293e-04,-1.546004583057740064e-02,7.324097116084898537e-03,9.785380959510803223e-01
-4.322586452320718586e-01,-4.036680223973100334e-01,4.948673342731455538e-01,-3.609317219467775284e-02,1.864807777231730287e-02,2.965648447647178422e-03,9.158878922462463379e-01
-4.334626166489713994e-01,-4.225061291049964085e-01,5.361495945813651298e-01,-1.001238437484145045e-02,9.585095796674046251e-03,-2.884422331301502926e-03,9.644924402236938477e-01
-4.277827587905699280e-01,-4.172174327527448656e-01,5.293513222913014404e-01,-3.112635621252437049e-02,-3.859694197407235192e-04,-5.647582937707193960e-03,9.534713029861450195e-01
-4.356134992998559330e-01,-4.348443506784638868e-01,5.464233169969787696e-01,9.354826179692296746e-04,-2.767498566196828101e-04,-4.914280153492401118e-03,9.816908240318298340e-01
-4.333371108889753076e-01,-4.355870381075405695e-01,5.455826812770212531e-01,3.839250550618726610e-03,5.971383094916634694e-03,8.648424675056396241e-03,9.802382588386535645e-01
-4.332850511347820510e-01,-4.343237550975151406e-01,5.215366800093577115e-01,3.483337733473459898e-03,2.291136190184305844e-03,-4.964458503594171290e-03,9.554075002670288086e-01
-3.828416879138187290e-01,-3.867006762420456822e-01,5.184354446340588840e-01,3.159030128443533064e-02,-2.785088929734947684e-03,-4.123479122626943529e-03,9.049096703529357910e-01
-4.349878127744574718e-01,-4.359392374431900752e-01,5.494011749701853686e-01,-6.482983163947992006e-04,2.123669957753330541e-03,-7.454300063426810971e-04,9.848734140396118164e-01
-4.318807307641279736e-01,-4.180439909567897350e-01,5.409613072993607608e-01,9.775108376969102869e-03,7.728710791063301416e-03,8.596352945731149456e-03,9.663537740707397461e-01
-4.354392573104854391e-01,-4.373742594381992976e-01,5.437357529376175558e-01,8.358074098215655069e-04,-2.808980435376970137e-03,-1.677728788436529898e-03,9.801613688468933105e-01
-5.155281447454824750e-01,-3.021999807383782821e-01,5.763049130514553697e-01,8.515316764900116020e-02,-1.117169998168483086e-02,-1.790342221502513181e-02,1.013794302940368652e+00
-5.163389131356250772e-01,-2.901620051206949547e-01,6.025493283774626674e-01,9.486627966125213418e-02,-5.213009160141420743e-04,-2.462039184755008409e-02,1.038661837577819824e+00
-5.672267505780885788e-01,-2.019407773702099340e-01,5.684262536877789929e-01,7.369983473523608608e-02,-8.317824733853186256e-03,-2.349846270699023493e-02,1.013144850730895996e+00
-5.179830614036652348e-01,-2.754993747348090660e-01,5.725915674795950538e-01,5.919234899226592794e-02,-9.166984952152505695e-03,-2.079158910401389046e-02,9.978802204132080078e-01
-4.044920779448920034e-01,-4.002309320717231667e-01,2.862065372380432349e-01,8.650760791404598499e-03,2.145647107086291056e-02,-1.926773790197281594e-02,6.905497312545776367e-01
-4.098133532241823307e-01,-4.326203611225543644e-01,4.220433512865343628e-01,1.833813728648725841e-02,1.798638836815810715e-02,-7.549795017880705367e-03,8.447652459144592285e-01
-4.101823973755140407e-01,-4.610181327646006855e-01,3.934520808876805775e-01,4.853462978162729341e-02,5.503961682679553435e-02,-1.036901910642232805e-01,8.588805794715881348e-01
-4.280849532476697639e-01,-4.364928428991454168e-01,4.059433337511538786e-01,-2.940122227085298356e-03,5.908312543912777604e-02,-6.254735186715490274e-03,8.445721268653869629e-01
-4.278523988418564961e-01,-4.235885184498607292e-01,4.214553853572610143e-01,2.392149455783225062e-03,8.290929009184007381e-02,-2.738537576876499263e-02,8.605867028236389160e-01
-3.925083811415940871e-01,-3.989453804798341885e-01,2.791935554927910124e-01,1.315539080320607575e-02,5.227907405359821791e-02,2.294651900823162574e-02,6.825296878814697266e-01
-4.282350071476526132e-01,-4.358478500899723995e-01,5.412190326517801742e-01,-1.293804091395176978e-02,-6.705810405575875210e-02,5.617704294477152138e-03,9.804930686950683594e-01
-4.204887925855745334e-01,-4.437776254631461970e-01,4.905218723328431674e-01,-5.697202311912230588e-03,-1.775563597207983554e-02,-2.970932687961492374e-03,9.234548211097717285e-01
-4.203447191533923877e-01,-4.230390826608800836e-01,4.698163949397566874e-01,-1.661705383082623865e-03,-1.926883658660492882e-02,8.025353339849120027e-03,8.922487497329711914e-01
-4.151302816276808416e-01,-4.330140378246977728e-01,4.708279223018649873e-01,-8.373108468467203164e-03,-1.983969020274410980e-02,4.190545698112301855e-03,8.958403468132019043e-01
-4.098510345546866884e-01,-4.122431155090811594e-01,4.117435254579733250e-01,-2.547501729980334445e-02,-1.324433964507223602e-02,7.789192195706558935e-03,8.244051337242126465e-01
-4.477415766016367704e-01,-4.347657712255876272e-01,5.351334685858917251e-01,3.421980434048203876e-03,-1.907466656582454227e-03,2.323266463243364287e-03,9.764837026596069336e-01
-4.102360339588020932e-01,-4.188917730625086322e-01,3.700374032918696265e-01,-9.566111651713594954e-03,-3.582759148114238179e-02,5.988881882225381703e-02,7.940660119056701660e-01
-4.297762819437168647e-01,-4.397051870812901941e-01,5.056919363128127287e-01,3.373974820581872053e-03,-5.182504658933109569e-03,-6.208039337918858092e-03,9.405944347381591797e-01
-4.371014640651940120e-01,-4.441376308283810914e-01,5.403499341400486156e-01,2.305640355962486343e-03,-4.568722434925833083e-03,-7.138428048604797752e-03,9.811063408851623535e-01
-4.170842629557966474e-01,-4.234241766791487227e-01,4.483806438838969788e-01,-5.559370049815571049e-03,-2.599039627664857105e-02,-9.649012437162655248e-03,8.700317144393920898e-01
-7.965953592413597129e-01,-1.684936977888463749e-01,6.877735674282705602e-01,9.025661205626679673e-02,1.317155070391233876e-02,8.245806913020532758e-02,1.308008193969726562e+00
-4.201434311342155947e-01,-4.233042434157827105e-01,4.413380640886370720e-01,8.437895692206114637e-05,-3.417037054114022837e-02,-2.273942196118867391e-03,8.651021122932434082e-01
-4.241462636961027544e-01,-4.440551721450958778e-01,5.194392748592928655e-01,-2.512448644493220969e-03,-4.339252892990166444e-04,-5.978421057323890031e-04,9.537066221237182617e-01
-4.340490911273493513e-01,-4.427302967840199832e-01,5.364198438229220711e-01,-1.440713904883476892e-03,-2.246041049356545249e-02,4.236252384204417659e-04,9.756179451942443848e-01
-4.260243333131963905e-01,-4.252324809006107764e-01,4.270599262659453554e-01,1.656378118794358265e-03,4.296533573644072818e-02,-3.405502039179634372e-02,8.579646944999694824e-01
-4.190206728713856132e-01,-4.138889528584993038e-01,3.818594055068006421e-01,-3.622435639445742471e-04,3.133655243090140152e-02,-1.163986152495605740e-02,8.004237413406372070e-01
-4.548648513613994249e-01,-4.332342480621416136e-01,5.603120055477203154e-01,-2.121202071546227433e-02,4.537718275910413270e-04,-5.776292633332240530e-03,1.005257964134216309e+00
-4.313217074550880770e-01,-4.402724017557535507e-01,5.031189919502618846e-01,9.745645173418911872e-03,1.177913138506891597e-02,-2.136252756636565844e-03,9.393286705017089844e-01
-4.368641762531891293e-01,-4.344703605823194703e-01,5.030653228341809280e-01,6.308769724350625149e-03,9.249059976828823137e-03,-6.839451039058737011e-03,9.390099048614501953e-01
-4.603921292095133344e-01,-3.225740957110560525e-01,5.459398528264047812e-01,5.217288865644414270e-02,-2.060992388736061776e-02,-3.291194102866752680e-02,9.516811966896057129e-01
-4.377847027413130920e-01,-4.506677823978087472e-01,5.132376637411510956e-01,-9.078814806021830164e-03,1.286901996045903759e-02,-1.398652917789506775e-02,9.582236409187316895e-01
-4.886204952160168036e-01,-2.972807202054978393e-01,5.597373809419753377e-01,-7.595118087383584404e-02,-7.482917965834166288e-04,-2.035418719219939457e-02,9.765361547470092773e-01
-4.587862521249468917e-01,-3.069665301088126408e-01,5.585251526259152888e-01,-9.014135144792143062e-02,1.560090428577545069e-02,-1.218606139544248929e-02,9.638857841491699219e-01
-4.160252816463789749e-01,-3.895435371267116920e-01,5.510068659363008825e-01,-3.981372860391241969e-02,1.683500610377714618e-02,-1.663435282886915195e-02,9.574338197708129883e-01
-4.260675366440428991e-01,-3.510663636048741987e-01,5.567113076831962104e-01,-1.806459933460091982e-01,-3.418978393420544874e-03,-2.134871101413806163e-02,9.985345005989074707e-01
-4.598503521726489685e-01,-3.481569051640346912e-01,5.673894496019920020e-01,-5.283764752798803671e-02,-2.689742638861596612e-03,5.797042145394062755e-03,9.805401563644409180e-01
-4.095475419510331561e-01,-4.097498323735452863e-01,5.715316073334131275e-01,-7.883966171747204543e-02,7.110030332826023508e-03,-1.009102419430332916e-02,9.908677935600280762e-01
-4.108797230777892495e-01,-3.609317259086645135e-01,5.577738523267891102e-01,-6.064011025778191094e-02,9.834477744579036770e-03,3.208817451310612672e-03,9.506602883338928223e-01
-4.913764090876712731e-01,-4.128009447174870172e-01,5.446891484163433050e-01,6.830674240237087289e-03,2.293801761085685967e-02,1.487352727114397630e-02,1.000289320945739746e+00
-4.654736308121202870e-01,-4.012948601103321078e-01,4.788244090186835056e-01,-3.297339144516547860e-02,2.521361354090555229e-02,-5.546497308885181554e-02,9.217439293861389160e-01
-4.047935496177202941e-01,-3.821145884832320982e-01,5.227776741679305283e-01,-1.089004547860870364e-01,-6.928731931254991649e-02,2.144891247340352178e-02,9.440479874610900879e-01
-4.682517422932016560e-01,-3.968496093503712241e-01,5.025602724428802626e-01,-3.728438372648563981e-02,-7.826379101660502560e-03,-2.035887306813834001e-03,9.394800662994384766e-01
-4.513742620965383034e-01,-3.843691705239311029e-01,5.370229086020834597e-01,-1.630266369579357055e-02,6.008327461441159527e-03,9.432248834792565650e-03,9.572687745094299316e-01
-4.527266764349241468e-01,-4.053704232867011426e-01,5.543022699651982688e-01,-5.699306648609032272e-03,1.629706977313376617e-02,2.572531408781510241e-03,9.846699237823486328e-01
-4.749186046462645083e-01,-3.816076413534155720e-01,5.456549281439071475e-01,-2.799665249191516173e-02,3.473386472932786864e-03,2.999534337560724739e-02,9.798639416694641113e-01
-4.545307087258865231e-01,-4.008787817514901097e-01,5.176420753916105566e-01,-2.484087071147014769e-02,-8.835409563629836177e-03,-8.672840585190398979e-03,9.477080702781677246e-01
-4.738514069258138450e-01,-3.991858498263331501e-01,5.470156701683149825e-01,-1.971022385321905684e-02,9.011689102510175506e-03,-3.037648962800121311e-02,9.877743721008300781e-01
-4.062230894965436212e-01,-3.817440718498081309e-01,5.352855684236162981e-01,-4.428333869483981611e-02,-1.082517776496753903e-02,4.995201874889635026e-03,9.328987002372741699e-01
-4.491471324502396278e-01,-3.170613615436536636e-01,5.396076504951138331e-01,-9.223909221730995645e-02,6.080574725535891831e-03,-3.324334282215550551e-02,9.452156424522399902e-01
-3.921408460113884886e-01,-4.158746295205873467e-01,5.421953076698000640e-01,-3.874188207934880362e-02,-6.335222187684320938e-03,3.668130827114786732e-03,9.488868713378906250e-01
-4.097134675159916362e-01,-4.109810413506270188e-01,5.733775507399800908e-01,-8.635833226946232344e-02,-7.963859412277417282e-03,5.060334271951434128e-03,9.951663613319396973e-01
-3.793585832809328595e-01,-4.778706866572345335e-01,6.214448487558942302e-01,-1.033060468436703822e-01,-2.553297374733488889e-02,8.620637091756316525e-03,1.069625377655029297e+00
-3.134950722954677471e-01,-5.008049509887274597e-01,5.882914454363933343e-01,-6.214738368825757642e-02,1.597848320409858691e-02,-6.286734313657239490e-03,1.014735817909240723e+00
-3.384591960403419142e-01,-4.534480700022704425e-01,5.567636347669810970e-01,-1.641944771004881787e-01,1.178988208486451972e-02,-1.999886519667825810e-02,1.000041723251342773e+00
-4.399239485763455915e-01,-4.249214503778847019e-01,4.883540403932478124e-01,-2.703747491626964884e-04,2.988382163818749729e-03,-3.182269976023839055e-04,9.208832383155822754e-01
-3.936974078469953620e-01,-4.630053366324377029e-01,6.292950054809245408e-01,-1.466116076321361539e-01,1.273130213355830667e-02,-4.773920076805908061e-03,1.089613676071166992e+00
-3.479120485296445242e-01,-4.131988874480335139e-01,5.492111978142723006e-01,-7.133664973847385349e-02,1.196054871787962694e-02,-2.711165235005040357e-03,9.398834109306335449e-01
-4.395713962642911476e-01,-4.394743762340271309e-01,5.205546056460690352e-01,1.542872722815872731e-03,4.762433801843194651e-04,1.159532267356971555e-02,9.602916240692138672e-01
-4.345339208495946348e-01,-3.857856680800990645e-01,4.420799432465314371e-01,-3.185198485136458979e-02,1.207355882858676677e-02,3.512891104774534812e-02,8.574835062026977539e-01
-4.006754621792703031e-01,-4.211042367751327009e-01,3.838712036795949301e-01,-5.134512075135331914e-03,-8.343869002994251660e-02,8.440007647248727596e-02,8.211537003517150879e-01
-3.885504499567693504e-01,-5.030092576368849766e-01,4.040166022745226293e-01,-1.121607902533937329e-02,-5.807309721290559480e-03,-4.653189586740699712e-02,8.596242666244506836e-01
-4.299911091670911567e-01,-4.422988816863683836e-01,4.638988961387544574e-01,5.165543679727045354e-03,1.748340289218669463e-02,8.878757619837195081e-02,9.136954545974731445e-01
-4.478169015876145576e-01,-4.358409253429026964e-01,5.191648031459259460e-01,-2.781409161111939640e-03,-9.848290055089560513e-03,1.240096379019388004e-02,9.614530801773071289e-01
-3.891746474718445481e-01,-4.018316698630921002e-01,5.367384393723013680e-01,-4.574232859906764148e-02,-4.482790373523819899e-03,9.044701580505864341e-03,9.358297586441040039e-01
-3.991690003284749655e-01,-3.903099380712233835e-01,5.233768734207149276e-01,1.007749813731873521e-02,-3.473185303122843827e-03,-3.047210492253904154e-03,9.183491468429565430e-01
-3.933824557200669703e-01,-3.446852142396179541e-01,5.172006443708964118e-01,-7.487471010346789801e-02,-2.735253110606294079e-03,5.069883312865248971e-04,8.966783285140991211e-01
-4.180327863227665253e-01,-3.799636909648879679e-01,5.389505925071697012e-01,-4.087898999154451068e-02,6.424787861454219970e-03,-8.782654141764115185e-03,9.413837790489196777e-01
-4.457037546236898851e-01,-4.238669027267488731e-01,5.075136776691303586e-01,3.591853453732001943e-03,-2.115536125615139276e-03,7.473385224513981765e-04,9.425172805786132812e-01
-4.076106843154072013e-01,-3.411505681012647062e-01,5.231815884916781734e-01,-7.122730812865524230e-02,1.309413729005455768e-03,-4.090990203127115032e-03,9.078578948974609375e-01
-3.814675750821605593e-01,-3.782508060475732181e-01,5.468567281681295800e-01,-7.409144159847880218e-02,-1.003081226846378252e-02,-3.161664707723277346e-03,9.357407093048095703e-01
-4.338112568111214262e-01,-4.255664514416802602e-01,4.635944940902018141e-01,-8.633427897136478762e-03,-4.764023332140655820e-02,-1.247250922904395536e-02,8.974994421005249023e-01
-4.436424088556540912e-01,-4.218664836213331104e-01,4.749985727442284089e-01,-7.091873189549119730e-04,2.260351281517146080e-02,3.868378905331996444e-03,9.088181257247924805e-01
-4.185524147534346318e-01,-4.346689119177165050e-01,4.380899835471306902e-01,4.366285163210334268e-03,-7.328626137832308651e-02,-2.515430738497767549e-02,8.751971721649169922e-01
-4.222613451713804755e-01,-4.320873494037966722e-01,4.509129139228479355e-01,3.379048468552948992e-03,1.137497591790259492e-02,-3.096659749153803792e-02,8.800050616264343262e-01
-4.035942197635402073e-01,-4.193492393319551703e-01,3.758861705458602653e-01,-7.663742230558235995e-03,-1.567778082843461832e-02,4.280392701924796116e-03,7.880908250808715820e-01
-4.443104275577559048e-01,-4.203358391088420354e-01,4.796580524064212314e-01,-3.802465816321233365e-03,2.566787758266581704e-02,-1.341911802931031010e-03,9.133269190788269043e-01
-4.755914210623879423e-01,-3.958977632588754347e-01,5.527226473644674121e-01,2.399861454551812517e-03,-8.340654022463686590e-03,1.510300132697306799e-02,9.913329482078552246e-01
-4.438577583237886537e-01,-4.002333554650867598e-01,3.498936968811754422e-01,3.839996480404804513e-03,-6.771435412639240092e-02,-4.199687089732764139e-02,7.851169705390930176e-01
-4.350450375457724506e-01,-4.297777703377966829e-01,4.471188396544922838e-01,-3.144912952999275989e-03,3.674497615001279943e-02,-1.347629760805613142e-02,8.821673989295959473e-01
-4.324248179563333072e-01,-4.433066094253555467e-01,5.156541899162694342e-01,-2.979692275695001481e-03,-2.334921240529387945e-02,-4.340143420792186985e-03,9.544672369956970215e-01
-4.418979848155690227e-01,-4.406336784350766700e-01,5.492528329848263002e-01,1.945214785546608679e-03,2.142123665919456305e-04,3.575098977557075730e-03,9.905444383621215820e-01
-3.907915627507471679e-01,-4.566016220499501399e-01,5.431540392181746224e-01,-6.374471172712854912e-03,-1.642346740063534496e-02,3.383806373358936269e-03,9.690272212028503418e-01
-4.439297693824428293e-01,-4.737260197483827429e-01,5.380836525251254665e-01,2.002922064753665313e-02,-2.058579576393449254e-02,-8.807932838496334085e-03,9.986020326614379883e-01
-3.499967788158431237e-01,-4.741219940642274477e-01,4.380927857291571081e-01,1.337179169522940449e-02,-5.402248203199599974e-02,7.940312739411467535e-03,8.624354004859924316e-01
-3.756349822003816064e-01,-4.831716447056084163e-01,5.763222210980379900e-01,3.172775070315685120e-02,1.411322416988271614e-02,1.629460232115197138e-02,1.012210965156555176e+00
-4.066019356602305623e-01,-4.541918617300233496e-01,5.437386324951356542e-01,1.618887643294224243e-02,-5.783864571036141655e-03,-1.596445556301301361e-02,9.758533835411071777e-01
-6.436577846964643967e-01,-4.561646722230350282e-01,3.568311376607283814e-01,6.513215142169026528e-02,2.748768189153864144e-02,2.516404933725484294e-02,9.302902817726135254e-01
-4.402059982918807290e-01,-4.627995254672121472e-01,5.523013223699847485e-01,4.767555461685821228e-03,-3.641156979643352869e-04,2.306813843183019071e-03,1.004036903381347656e+00
-3.739060117313370291e-01,-4.725579666927623435e-01,5.317651537031279352e-01,2.040902992804551064e-02,-5.249972510406205467e-03,-2.047864249279145437e-03,9.595121145248413086e-01
-3.700945064957172903e-01,-5.033494880376268021e-01,5.659661713042800635e-01,4.606385529747017253e-03,-5.309859071329822711e-02,1.817532767226604645e-02,1.014008998870849609e+00
-3.899391893574085111e-01,-4.383570470172197253e-01,4.526259497704258061e-01,2.619578168190299719e-02,-3.047892234159869235e-02,-1.249076579728638017e-02,8.708438873291015625e-01
-3.820319495632568674e-01,-4.183948283179275696e-01,5.387418491592067538e-01,4.509944470766147351e-02,3.853045936304717173e-03,6.542468609088370954e-03,9.428167939186096191e-01
-3.824554166549024026e-01,-3.877553682461657991e-01,5.291891623484293872e-01,3.498647843257325640e-02,6.172344654633669936e-03,-4.698857577515906051e-04,9.163747429847717285e-01
-3.991560198981802254e-01,-4.087287816149240971e-01,5.353504813232302650e-01,8.039293809954882464e-02,5.754787343463476333e-03,6.443559726124307996e-03,9.497119784355163574e-01
-3.424953685083422239e-01,-4.660608717515086763e-01,4.540138980553187764e-01,-1.498720411506989161e-02,-2.212554306704806600e-02,6.801404774191173452e-04,8.661757111549377441e-01
-4.402302455651684321e-01,-4.344441194698251407e-01,4.865845965416237817e-01,-3.387456964309656926e-03,-3.268619913657284937e-02,3.449961537652484339e-02,9.276134967803955078e-01
-4.215877554585695242e-01,-4.338293840982976324e-01,4.807008426511863997e-01,-1.184499342768794393e-02,-4.355837886854867745e-03,2.253007341653788520e-02,9.095717072486877441e-01
-4.480128100656461387e-01,-4.302765322487692168e-01,4.813397930999643304e-01,2.007821012488842857e-02,-4.360533347565848095e-02,1.804977092702909902e-02,9.248884320259094238e-01
-3.946746939084446182e-01,-4.520103560738724102e-01,5.147445413785095569e-01,-3.606547189773054787e-03,9.173714419481596508e-04,-5.410020579157387606e-03,9.394690990447998047e-01
-4.438041785013653318e-01,-4.406988536603996809e-01,5.131342102599808497e-01,3.465034278315786299e-03,-1.126405104539191133e-02,7.748962500427834452e-03,9.557017683982849121e-01
-4.258716590446785522e-01,-4.428171349675613655e-01,5.034525910084032274e-01,-7.789008993927226373e-04,-6.560742243999969150e-03,1.033105570145586606e-02,9.381522536277770996e-01
-4.303284408950056039e-01,-4.478822654870946440e-01,5.399331109890458391e-01,6.879649843437001932e-04,-1.517145594780779441e-02,6.295119198153165813e-03,9.795704483985900879e-01
-4.439253217955552167e-01,-4.389769425422751503e-01,4.888926346983933913e-01,-2.737465096454794362e-03,-3.339498210061424624e-03,6.263163809170155250e-02,9.366866946220397949e-01
-4.233474074467178938e-01,-4.406959073344629552e-01,4.764364428652446692e-01,5.791805471903617442e-03,8.859061283998242997e-04,1.403873059559507600e-02,9.089642763137817383e-01
-4.135082476909318627e-01,-4.209293192887150759e-01,4.056195963571184171e-01,-7.974876036364637747e-04,-1.889483872850996130e-02,1.920725722180305697e-02,8.241868615150451660e-01
-4.118214061096507339e-01,-4.461880889032078246e-01,5.349037606210350626e-01,-4.536508676290988240e-04,-1.220453167665018837e-02,-6.198554659030646244e-03,9.646596312522888184e-01
-4.356154069738105705e-01,-4.469922764649305047e-01,5.389627802630380105e-01,1.494490483882104752e-03,-3.513676202771270560e-03,-5.144901883340111462e-03,9.803789258003234863e-01
-4.149897788104125462e-01,-4.281547683902890422e-01,4.232840712608292311e-01,8.175988439501109470e-03,-1.328134313676782377e-02,3.765965235375515197e-02,8.478777408599853516e-01
-4.155223334745893893e-01,-4.268136067719829341e-01,4.232123308256443561e-01,2.889410818541927623e-03,-8.461561911806598363e-03,3.678144815791638267e-02,8.469782471656799316e-01
-4.143268446655939408e-01,-4.247175375018371057e-01,4.254243370338479657e-01,-7.601315270374598559e-03,-9.149636997733790605e-03,-1.629942175771246712e-02,8.457168936729431152e-01
-4.148790665847680859e-01,-4.298700527545674110e-01,4.210788967328732424e-01,-8.220288225673905852e-03,-9.149323542528491754e-03,-3.912317554440429557e-02,8.465388417243957520e-01
-4.965638275940122970e-01,-2.247512749727269554e-01,5.931718788821929156e-01,1.804556434144493071e-01,-4.950340656911141057e-02,-5.615244948851368101e-02,1.039088964462280273e+00
-4.400986783979818351e-01,-4.464751412124203789e-01,4.983923622876392789e-01,-1.873210295290905422e-02,-2.185554492245021449e-02,-2.600388661282467678e-02,9.440892934799194336e-01
-4.276513485072498399e-01,-4.315279496957563077e-01,4.779466810802418530e-01,-6.958911748918913563e-04,3.743863228557432581e-03,-2.027045009056777439e-02,9.082453846931457520e-01
-4.375758050793682186e-01,-4.405523644228786506e-01,5.044643959221264407e-01,-1.111974644823902382e-02,1.074322083258516698e-02,1.945875985620385776e-03,9.439179897308349609e-01
-4.281760172854630619e-01,-4.471812178433173246e-01,5.139434397840818569e-01,-4.558356065036628380e-03,-2.925852219020936423e-03,-2.343078443861371443e-03,9.518193006515502930e-01
-4.636390862005271840e-01,-4.086383811740290639e-01,5.309826751224132613e-01,1.782055260949928603e-03,6.583052318726705446e-03,-4.525664908513624130e-02,9.715331196784973145e-01
-4.395292001284086814e-01,-4.416000786770404862e-01,5.199447733099189506e-01,-2.592712559429676683e-03,1.394743254985558040e-02,-4.042214854622631220e-02,9.633728265762329102e-01
-4.412211231874771933e-01,-4.135239780299297951e-01,5.050552962047700767e-01,-8.482162004999391214e-03,2.330681583181647750e-03,-7.866829275196895316e-03,9.329602718353271484e-01
-4.455349940051505642e-01,-4.124653853788829982e-01,5.291078321336107892e-01,-8.934905931861612111e-03,-1.906452542857131529e-03,-1.513882920262636092e-03,9.586701393127441406e-01
-4.351303974004965269e-01,-4.347621090472333361e-01,5.076323449746679151e-01,5.092705889052875912e-03,1.692070662373431136e-02,-2.111068296457886684e-02,9.437839984893798828e-01
-4.313455642832935144e-01,-4.375148668747379510e-01,4.716619802407353568e-01,1.630349870048875688e-02,1.627107278512259295e-02,-3.021753451215230396e-02,9.084946513175964355e-01
-4.176806740179870303e-01,-3.925374641662768282e-01,5.459096402736191012e-01,7.377196132485115687e-02,-4.080337685305318856e-04,-3.466003049651738936e-03,9.598302841186523438e-01
-2.796981962136467770e-01,-4.557813025720774958e-01,5.539033773023254170e-01,1.522535364309278438e-01,-7.654429107185568501e-03,2.060663600900416136e-03,9.707790017127990723e-01
-2.706750870264902908e-01,-5.112796511862721660e-01,6.537402078526848292e-01,1.886798219708999413e-01,-1.020702177056255142e-02,-5.977957381667255848e-03,1.114483118057250977e+00
-4.424932926937611422e-01,-4.429931802230031579e-01,5.370298402794883019e-01,-5.350408477108100497e-03,-3.554213354887535668e-03,-1.749207658342267439e-03,9.798409938812255859e-01
-3.379039849936336104e-01,-4.021116753563769852e-01,5.170214252835013680e-01,7.974044869848351258e-02,6.182530331466753667e-03,9.507059025145528017e-03,8.996523022651672363e-01
-2.857809899084196581e-01,-4.840142760268597577e-01,5.404557171660987480e-01,9.987953838523334904e-02,-2.359272385288735310e-03,-1.641339262375444280e-02,9.573420286178588867e-01
-3.103885821013178670e-01,-4.976758605491325982e-01,6.030146641348818060e-01,8.367583434739915560e-02,6.558416536709429576e-03,-4.772354435698701429e-03,1.030365586280822754e+00
-4.500335548408287978e-01,-4.277607955551747665e-01,5.443117415158780226e-01,6.014259921133922708e-03,-5.150039093418143366e-03,-1.221981664594808809e-02,9.837214350700378418e-01
-6.018670764159848030e-01,-3.672691465413104872e-01,8.790814538362610175e-01,3.025865480663367801e-01,4.518308822150192416e-02,9.115756316849840668e-02,1.485445022583007812e+00
-4.506061343529014218e-01,-4.123779480493502403e-01,5.320703290880768321e-01,6.491107811427863569e-03,-6.489362035161311618e-03,6.660813318514697060e-03,9.643310308456420898e-01
-4.626939503758797367e-01,-4.034300536077717325e-01,5.662958656579196726e-01,3.019216105092782307e-02,2.736938061551955331e-04,-2.171827963458729249e-02,1.002746343612670898e+00
-4.422825297610191719e-01,-4.469518098850949750e-01,5.367178077943027814e-01,-8.705095117251249875e-03,1.454289536523152397e-03,-6.871311624429158943e-04,9.814630746841430664e-01
-4.288396441355336042e-01,-4.440452394726173702e-01,5.354824297967155644e-01,1.561696134424912178e-03,8.922171703151656266e-03,2.280051481411666994e-03,9.721487164497375488e-01
-4.482599195616324139e-01,-3.871193168340059665e-01,5.054901686567401242e-01,-1.869135254173826585e-03,-6.877731394534448289e-03,-6.550432121397923961e-04,9.247800707817077637e-01
-4.518271413272372250e-01,-3.858016461583709811e-01,5.167977433620949412e-01,1.515088163165914659e-02,3.647283419223455725e-03,1.271786894989408983e-03,9.377489089965820312e-01
-4.709909220646941730e-01,-3.296992700382329611e-01,5.193270785534945810e-01,8.146831870142330623e-02,-6.000985546322596016e-03,2.520990765445496606e-02,9.395186901092529297e-01
-4.100746165407683219e-01,-4.375762189025533822e-01,5.054456012897592387e-01,2.227282246779549099e-02,3.287383297640843888e-03,-1.099074573197140331e-02,9.305884838104248047e-01
-4.736634175377233413e-01,-3.881540067723889265e-01,5.193036093314402635e-01,1.373585231623264576e-02,7.939069818149216765e-03,9.349811585727008101e-03,9.536271095275878906e-01
-4.414584512110849568e-01,-3.943591943256932741e-01,5.103036355298230520e-01,1.232159216444512345e-02,-5.302978036847619432e-03,-1.860063873485875117e-03,9.294043183326721191e-01
-4.141525215279001082e-01,-3.696600124615910810e-01,5.200277539103408397e-01,-8.441903098652461801e-03,3.031408106827703994e-03,-4.479882700914969863e-04,9.128802418708801270e-01
-4.993319244127699119e-01,-3.883756472559350414e-01,5.376708084378064578e-01,3.140492000949191009e-02,1.452604673487288556e-02,1.427889772564141374e-02,9.883458614349365234e-01
-4.947436732831507755e-01,-3.662846401071540581e-01,4.978324666837327106e-01,3.862883891268052705e-02,2.883809570544315637e-02,6.690028915862053505e-02,9.458341002464294434e-01
-4.267197712983359370e-01,-3.979186420876733021e-01,5.073553859583408432e-01,6.201556574563838603e-02,-1.038276805254494464e-02,-2.305864372235722284e-02,9.272970557212829590e-01
-4.082579232621323939e-01,-4.252262930492076154e-01,3.721077990547054792e-01,-9.108720648503090475e-03,2.833748802705525482e-02,-7.387766647402282949e-02,8.009567856788635254e-01
-4.338916435233046154e-01,-4.305395794422842148e-01,3.654849390451673230e-01,-3.944173523236055301e-02,6.115009736610986513e-02,-4.346686813176543762e-02,8.111027479171752930e-01
-4.050742346490244783e-01,-4.063696109448020621e-01,3.250819468393385536e-01,3.329602277265247302e-03,1.753314350300393815e-02,-2.836403319055356281e-02,7.331061363220214844e-01
-4.449670582463529644e-01,-4.350064043422813276e-01,5.130976735461787452e-01,-9.312431177592561671e-03,-7.411721754126597778e-04,-5.950386740017679296e-03,9.533165097236633301e-01
-4.170663835673682485e-01,-4.155410318829472205e-01,3.988067882046987256e-01,8.933415392268981292e-03,2.033810588014615603e-02,-3.302755979376177480e-03,8.160391449928283691e-01
-3.865370135245502214e-01,-4.164607410925792452e-01,3.368802162093069708e-01,-2.548195031994247590e-03,4.219110253605405647e-02,-3.876973238876271072e-02,7.454825639724731445e-01
-4.226938458237209928e-01,-4.307463123660862370e-01,4.449291555452700164e-01,8.711725202981752958e-03,2.181665574790842346e-02,-5.039371021848908228e-02,8.769807219505310059e-01
-4.125843051928949623e-01,-4.156476533159219056e-01,3.800051706806075735e-01,7.216213209364267210e-03,3.340465159682586005e-02,-3.601052182148312825e-02,7.987675070762634277e-01
-4.239099689863678466e-01,-4.088745166872230774e-01,3.682790198526521008e-01,8.795714763327716623e-03,4.767253876766516796e-02,-4.104761832305837965e-02,7.924540042877197266e-01
-4.165867953498744725e-01,-4.266130987903311023e-01,4.326550490683399586e-01,6.365262233334151483e-03,3.014039518627599501e-02,-3.860994777143218065e-02,8.585721254348754883e-01
-4.438688171705411634e-01,-4.453670283936975727e-01,4.878858820643631189e-01,-2.008514628146898864e-02,-5.903920759009381736e-02,4.324631713974842057e-02,9.417233467102050781e-01
-4.658575050544227492e-01,-3.453992712428430312e-01,5.378143453090384885e-01,7.122502730782780817e-03,-8.350384489867973201e-03,1.059360117497869583e-02,9.495603442192077637e-01
-4.683580434058047803e-01,-3.464660100447914948e-01,5.393147201928808476e-01,-6.712539969938586051e-03,6.233990586207030851e-03,1.274005504750151674e-02,9.529813528060913086e-01
-4.186111457348168918e-01,-4.513169597540818700e-01,5.088844741844295028e-01,-2.928557653343655254e-02,-4.377942381745172917e-03,1.380508762266783110e-02,9.459674954414367676e-01
-4.088584590235568861e-01,-4.731914545297518093e-01,5.579012738625289680e-01,-2.454105849313440932e-02,-1.033806590459571129e-02,1.001684526982078542e-02,1.001691579818725586e+00
-4.545923667560872738e-01,-4.239328533787181663e-01,5.113381382484766258e-01,-4.683121148066295841e-02,-1.743259495868819745e-02,4.649140899123274488e-03,9.549360275268554688e-01
-4.396369978709005477e-01,-4.356168864790375128e-01,5.575553608546300888e-01,-6.979850150325935844e-03,7.762115584155182546e-03,9.712135415531833113e-03,9.954947829246520996e-01
-4.175244533530262370e-01,-4.250504438487103798e-01,5.060594387745082079e-01,-2.489051980433124034e-02,-1.352030122568472284e-02,1.959843172655227530e-03,9.286728501319885254e-01
-4.671174479852204242e-01,-4.110678604355289534e-01,5.490076225929513276e-01,-4.716226895651345202e-02,-1.105737632730222769e-02,4.185548293078285992e-02,9.954866170883178711e-01
-4.414224321059028733e-01,-4.359429656932493624e-01,5.363340808929634163e-01,-1.368108269219063533e-01,-3.699932272967055430e-02,2.788032590887571521e-02,1.006613492965698242e+00
-3.838572590998574063e-01,-3.788002421231030925e-01,5.166316828662594896e-01,3.731937502758130715e-02,2.567146405891245061e-05,-6.766502069570038563e-05,9.002946019172668457e-01
-4.060702199547249203e-01,-3.470645835870865281e-01,5.242253781824417480e-01,7.068931376827986002e-02,1.184300901050533558e-03,-2.517008863972510987e-03,9.105234742164611816e-01
-4.177317937583907570e-01,-3.600050954713600038e-01,5.619663975875875961e-01,1.002239168359548016e-01,-3.325656429589282301e-03,9.218826432039988264e-03,9.679921865463256836e-01
-3.827565656173655961e-01,-4.126471330505114832e-01,5.393029205209070032e-01,4.672194200349309712e-02,-1.531949452283979177e-02,-1.599254538026731454e-02,9.416306018829345703e-01
-4.419589781837198195e-01,-4.298073911100736555e-01,5.292263987501777400e-01,1.819863283854533968e-03,1.163411405110165858e-02,-3.164406164382081547e-03,9.653980135917663574e-01
-4.358018119351245168e-01,-4.415565345707647693e-01,5.136353218563975975e-01,-9.600481997457709429e-03,-1.968050003606740955e-02,6.993186348996533472e-04,9.530832767486572266e-01
-4.180162325442624005e-01,-4.318910775982577332e-01,4.582655332809192350e-01,-2.270037971591566672e-03,-2.698324669427625000e-02,2.745035303185836082e-03,8.845580220222473145e-01
-4.330957079232116147e-01,-4.648024237214471444e-01,5.132407995707655157e-01,2.653005169293562188e-03,-2.491812054999741760e-02,-2.431990178744832670e-02,9.644799232482910156e-01
-4.146283166684244792e-01,-4.197879424438658580e-01,4.253280661953883213e-01,-4.317490767802373980e-03,-1.146772962055338241e-02,-2.223470568928353000e-02,8.436947464942932129e-01
-4.336500239718668603e-01,-4.237775952919786704e-01,4.601181197756011310e-01,-1.115042549823666226e-02,-1.882273566321508024e-02,-2.506551917018098874e-02,8.907390236854553223e-01
-4.474018351001020077e-01,-4.332086429762465607e-01,5.463939468062791738e-01,-3.077458844526089724e-04,6.851225370866873303e-04,7.857666094046518099e-03,9.868704676628112793e-01
-4.417430945330590442e-01,-4.389150095107906546e-01,5.116203051102347077e-01,-7.309720910953314537e-04,-6.887155069095408921e-03,-4.931689930849598308e-03,9.520664215087890625e-01
-4.336426850302936287e-01,-4.355611329751443717e-01,4.424539472109335625e-01,-2.185368246294052026e-03,-6.555812431514762562e-02,-3.635950518716649787e-02,8.866248726844787598e-01
-4.268692415369262361e-01,-4.306276080728413391e-01,4.661041091378046453e-01,3.935528537393658856e-03,-1.026322805961329661e-03,-2.212856167103726887e-02,8.957065939903259277e-01
-4.418845165630234106e-01,-4.259638012300453469e-01,4.895997711751690629e-01,1.668908469405683140e-03,3.909058650676723416e-03,-7.151428904585266757e-04,9.236570000648498535e-01
-4.258885272878695782e-01,-4.336225740816703755e-01,4.869863869585933092e-01,5.612137200668474574e-03,-3.121323445487005077e-02,-1.397847719939905023e-03,9.184137582778930664e-01
-4.342857140999415999e-01,-4.429188858578861354e-01,5.224317122020258886e-01,-4.081916238194751786e-03,1.694617671678728954e-03,-4.882823431759332391e-04,9.610939621925354004e-01
-4.286891967240683554e-01,-4.277047973457652197e-01,4.702927616123434573e-01,7.347057288417540438e-03,-6.430211075551710634e-03,-2.740080678922970914e-02,8.999016284942626953e-01
-4.300215048214300895e-01,-4.480701341113605962e-01,5.337415071778905951e-01,3.663822987642871305e-03,-2.185923912494479662e-02,-3.513472190089596096e-03,9.736890196800231934e-01
-3.802836075391021753e-01,-4.885049740163040499e-01,5.569413222014628628e-01,6.529458371173023010e-03,9.756082892645196597e-03,-5.567725624650450567e-02,1.000621557235717773e+00
-3.820478334624206052e-01,-4.506245729256018739e-01,5.141472398046588177e-01,-2.415971451799291472e-02,3.349867188675351680e-03,2.732388809502996627e-04,9.333335161209106445e-01
-3.831764969407402410e-01,-4.702931215682023547e-01,5.570298311026300464e-01,-2.981506389890016193e-02,1.283516937257894730e-02,1.499446164027072939e-02,9.885951876640319824e-01
-2.917314475780181104e-01,-4.749991246367495368e-01,5.268382684974917129e-01,-4.133163361030983696e-02,-3.348069019238689853e-02,4.200050513159791880e-03,9.285480380058288574e-01
-3.968545468358488648e-01,-4.673095080121393297e-01,5.684666217859696280e-01,-3.529375448426770590e-02,-7.999097825426950466e-04,-1.974657641898787917e-03,1.004276394844055176e+00
-3.543710719478083693e-01,-5.224014325581578522e-01,5.712499763217745441e-01,-5.681417211626652725e-02,2.915707535961403057e-02,9.475146425552921723e-04,1.026049494743347168e+00
-3.096629832866235610e-01,-4.794957317704416355e-01,4.832299137958186996e-01,-2.039423140906031218e-02,1.535213260120307354e-03,-5.139423641527801102e-03,8.907949328422546387e-01
-3.699370323129913540e-01,-4.834016895735558372e-01,5.740254130939937971e-01,6.590370982353258023e-02,1.316132209288344013e-02,4.457728751495609876e-03,1.012252330780029297e+00
-4.018372820785645061e-01,-4.109949434688855430e-01,5.803196360575557655e-01,8.340696985006956776e-02,1.951149744919201262e-02,2.634531896118669225e-02,9.989017844200134277e-01
-3.545704627087173932e-01,-3.994195767201503822e-01,6.005529201344604884e-01,1.675769918745556308e-01,6.344022716599681880e-03,2.056424126875232294e-02,1.021148443222045898e+00
-2.623500924471303675e-01,-4.925185199440052508e-01,5.358506321435574371e-01,1.143688342113593631e-01,9.355891427069655542e-03,1.728228221155481484e-02,9.561494588851928711e-01
-1.994441473152033240e-01,-4.810279250814783469e-01,1.597359554601702758e-01,-1.210832450391661902e-01,-1.070900069234711482e-01,6.366879180038742536e-02,6.324464082717895508e-01
-3.758373707083818571e-01,-3.275051689504446806e-01,3.558565686866355104e-03,-3.895240150468337343e-03,5.912514931289129805e-02,1.326004981062225974e-02,3.728278279304504395e-01
-3.790948949227610498e-01,-3.982353865503536761e-01,2.681830222813518239e-01,-4.922709775268631132e-04,-3.691072792868594493e-02,-1.494070357739097797e-03,6.601658463478088379e-01
-4.070394669907172469e-01,-4.350471360639338592e-01,3.862233123836600335e-01,8.823498063325133913e-04,-2.323087163475689651e-02,-3.138687781131809548e-04,8.086342811584472656e-01
-4.265438703423400368e-01,-4.305788850168235093e-01,3.610954607208881617e-01,7.660919728133584218e-03,-4.776007154755761153e-02,6.630619348417558789e-02,8.023582696914672852e-01
-4.123453826682644263e-01,-4.922282146705063699e-01,3.884422147458733710e-01,-5.917959311334513445e-02,-2.903657437384531137e-02,-3.454115823470736701e-03,8.512831926345825195e-01
-5.028397462067654144e-01,-3.632852298138598002e-01,5.716304830973066853e-01,-9.430454583462597254e-03,-2.307759281640960492e-03,-1.239974473301581892e-02,1.012303590774536133e+00
-4.649736808682623512e-01,-3.654162957934606881e-01,5.429377156406570704e-01,-6.324517124763524845e-02,2.240008455510730800e-02,-5.961965834360263838e-02,9.744848608970642090e-01
-4.772037973250712883e-01,-3.664824775465457263e-01,5.470965594678842692e-01,-3.424498976089189288e-03,-4.805038780564596657e-03,-2.397717437350790209e-02,9.746115803718566895e-01
-4.038616822717087107e-01,-4.024718526891615245e-01,5.312852885219891963e-01,1.410715852962626804e-02,9.686734825661447862e-04,5.432943396561497156e-03,9.348211288452148438e-01
-4.996936055088602724e-01,-3.191097223062635546e-01,5.310792038731330100e-01,-2.576749100506248863e-02,-2.312218966782714907e-02,4.649539273728082144e-03,9.553129673004150391e-01
-4.624455660770421805e-01,-4.145695100425622059e-01,5.335889957805014516e-01,-2.407183486866512623e-02,9.970722730151475310e-03,-2.308387921703050974e-02,9.748466610908508301e-01
-5.583815072132393142e-01,-3.522913727692067454e-01,4.691204484962155918e-01,-1.958155534572036602e-02,8.474971481828420805e-02,-2.985093323680746563e-02,9.549065232276916504e-01
-2.295297530613371606e-01,-6.059156060147015133e-01,6.437170790963691047e-01,1.958494748014754164e-02,-1.164315045233821485e-04,-3.608430746953907291e-04,1.110880374908447266e+00
-2.856835282584228586e-01,-5.276372768818763381e-01,5.648957477420466500e-01,-6.781135339839824451e-03,-1.543546962273133899e-02,-3.510316207328493220e-03,9.943426251411437988e-01
-1.950586267266097573e-01,-5.259650755914012654e-01,5.354408445169457353e-01,2.266862926671431300e-02,-1.431853380298358722e-02,-4.432641093357032143e-04,9.418135881423950195e-01
-2.402053327941620631e-01,-5.319246729956016440e-01,6.199656708299959851e-01,3.039221298930705126e-02,-4.251529878153591062e-03,1.157244912909740145e-02,1.038821339607238770e+00
-4.158152341996725898e-01,-4.059121744041893631e-01,4.144544223666787319e-01,-3.822018342802156743e-02,3.949514563309446114e-02,-4.125378150684830270e-02,8.339011669158935547e-01
-4.420322751749300449e-01,-4.421820141231392887e-01,5.116592230975592903e-01,-1.086198193360383979e-02,3.168942802884911619e-02,-2.216871456936490153e-02,9.563007950782775879e-01
-4.330165962012290648e-01,-4.301048834334576521e-01,4.659815086405297846e-01,4.965361550070744763e-03,7.450292796184268540e-04,-4.699150437324918494e-02,9.012705683708190918e-01
-3.958331649666881336e-01,-4.579910846210337727e-01,3.304358641236954108e-01,-2.833526242438727527e-02,3.421872756359711776e-02,1.705934616998369679e-02,7.637199759483337402e-01
-4.014216472806544367e-01,-4.774286431287813603e-01,4.180551649530844793e-01,-4.964681246924133873e-02,8.008932761557943647e-02,-7.414697263505242407e-04,8.753538131713867188e-01
-4.377179692255210308e-01,-4.721578964311438087e-01,5.473477567236887387e-01,-2.845458694651939631e-03,4.069214311321230071e-02,-5.628156904396333475e-03,1.005262732505798340e+00
-4.186077756890123069e-01,-4.350964692603615513e-01,4.648659899578295729e-01,5.382168116983040117e-03,1.446003188453750046e-02,1.369338523103618213e-02,8.925479054450988770e-01
-5.737423341034352253e-01,-1.926691536021890583e-01,5.738939269077122374e-01,1.086779453570480558e-01,-1.782873088761980545e-03,9.864003601428153467e-02,1.043831467628479004e+00
-5.233297749205675364e-01,-1.743210966602348755e-01,3.329960302516432602e-01,7.097914155127843516e-02,-2.417617353420817641e-02,5.893798905841718394e-02,7.638877034187316895e-01
-5.638299691180050921e-01,-2.146379505005850674e-01,5.197774640560274273e-01,-6.715559779878468860e-02,4.269682332260952423e-02,-1.890175637691325627e-02,9.684129357337951660e-01
-6.125878034160152641e-01,-1.415393270861821373e-01,4.282968447072469376e-01,-7.079915388780422258e-02,-4.842870779109024332e-02,-6.422971017447470787e-02,9.216671586036682129e-01
-5.108487458182215946e-01,-3.010419703793580370e-01,5.326914138999122583e-01,3.057786228476476811e-02,1.273140260926478723e-02,3.381266111003148472e-02,9.595698714256286621e-01
-5.515297493128491491e-01,-3.680187037683468332e-01,5.702926741228013796e-01,-3.836804402864182895e-02,1.844634111463638523e-02,4.591141343053613266e-02,1.047881603240966797e+00
-5.352266484387669943e-01,-3.692631856917319988e-01,5.641612659250796469e-01,1.490527187996846040e-02,1.188081663608899288e-03,-1.099895480601315902e-02,1.027021527290344238e+00
-4.251747006912857674e-01,-4.065881209147720332e-01,5.405167025733593755e-01,2.162011292768875256e-02,-7.879901867978007096e-03,-6.683061679141937689e-03,9.574335217475891113e-01
-4.154158438092542260e-01,-4.450306552315846376e-01,5.356321301857536188e-01,1.809080749626863771e-02,4.651265900814158423e-03,-8.457238371728112436e-03,9.668483138084411621e-01
-4.310710242940214432e-01,-4.181563750696873361e-01,5.508730385350031344e-01,1.175359784682464444e-02,1.104908879824711455e-02,1.179832061016230366e-02,9.761648178100585938e-01
-4.350562444779541571e-01,-4.237397073196973452e-01,5.500910189019871943e-01,4.313301722662465920e-02,-8.662818342831824642e-03,-8.349556444852801462e-03,9.826039075851440430e-01
-4.300398453152258216e-01,-4.154383194096914478e-01,5.497174412769150198e-01,7.030158056704009437e-03,1.164139649366828164e-02,1.074255783826191975e-02,9.730018973350524902e-01
-4.351472800450728595e-01,-4.393870640695131669e-01,5.322183176768362500e-01,-9.403275062129309511e-03,-1.924898038241497356e-02,7.907332491434071811e-03,9.702989459037780762e-01
-4.344697614182327916e-01,-4.517734069609709024e-01,5.532840158858485236e-01,-1.151085192861984845e-02,-9.151813241227909138e-03,4.822422102898207136e-03,9.968787431716918945e-01
-4.398678840779172150e-01,-4.631793135435207653e-01,5.585022249354145707e-01,-2.084608147710723808e-02,-1.861421750823281235e-02,5.192007172878784424e-03,1.011426568031311035e+00
-4.384683597425047541e-01,-4.466746704098781273e-01,5.436072638780721222e-01,-3.531763318230484762e-03,7.107565454585481821e-03,4.080073918794808498e-03,9.863255023956298828e-01
-4.375591293377755764e-01,-3.788286510816539776e-01,4.987697527914976003e-01,-3.891357734719755324e-02,-1.064006671876218443e-03,-1.647481796646006746e-02,9.113344550132751465e-01
-4.258989047484468826e-01,-4.583350354514413860e-01,4.692488344838633418e-01,-5.502810299660917254e-02,-2.494937156874373757e-02,6.388847607596494400e-04,9.177851676940917969e-01
-4.613290075580190330e-01,-4.019559136461369198e-01,5.051109486754908895e-01,-7.740589641031359047e-02,2.061319363183266792e-02,1.257555043389966404e-02,9.486173987388610840e-01
-3.205218534955491805e-01,-4.425413445833222825e-01,5.391224105724996551e-01,1.090873719957131255e-01,2.246917991944330506e-02,7.362821565955189260e-03,9.466508030891418457e-01
-3.043131066026897869e-01,-5.202664027288695925e-01,6.012436216364226427e-01,5.360544454222115202e-02,1.922809292087157562e-03,1.985851420416831839e-03,1.034828662872314453e+00
-2.804266519131999313e-01,-5.083048771648828179e-01,5.867416803515705936e-01,6.498061614038072586e-02,-2.623220357314614420e-02,-9.514376986322382879e-03,1.008226990699768066e+00
-3.119964795560820070e-01,-4.596541883733826217e-01,6.193825643137543802e-01,1.138439805342104788e-01,-2.316027599508415150e-02,-3.032477719629378225e-03,1.033108472824096680e+00
-2.763186106389962648e-01,-4.537475533969723140e-01,5.459558433838124225e-01,1.194163954971997343e-01,2.202990850494964542e-02,1.314091707214087162e-02,9.477691650390625000e-01
-4.184148872440477951e-01,-3.805479421502582782e-01,5.285233110016873681e-01,3.717748704668907139e-02,2.921904820477946342e-03,3.659600209410710826e-03,9.308493137359619141e-01
-3.117905911916021844e-01,-4.511156421597519173e-01,5.534620467314500525e-01,7.541946751374722924e-02,5.617382840560940054e-03,7.707604347459371882e-03,9.518204331398010254e-01
-3.299617259355157595e-01,-4.081288793785861069e-01,5.165022073292507843e-01,-7.069301009420521364e-02,-2.605847580013914179e-03,5.084607258825649817e-03,8.965865373611450195e-01
-2.051967475301576527e-01,-7.545522099397435900e-01,7.010868880777290091e-01,5.710320790926272372e-02,-5.354662048727946988e-02,-2.801582838783152687e-03,1.280398726463317871e+00
-4.024505149000880411e-01,-4.422980811850429905e-01,5.430984271455250312e-01,-4.636774910357346555e-03,-5.724045218629564627e-03,-6.925203665322929997e-03,9.662479758262634277e-01
-3.641019966197919788e-01,-4.155684710675204840e-01,5.299774148949071284e-01,-4.795567703840282470e-02,-5.710456886128287973e-03,5.600659452513426055e-03,9.247340559959411621e-01
-3.952874299677874292e-01,-4.220081551250918772e-01,5.456333824303517543e-01,-6.643105067874974234e-02,1.443349268901532355e-03,3.657648753015230354e-03,9.614955782890319824e-01
-4.019226243467798332e-01,-3.962933718019660545e-01,5.298465092084383432e-01,-1.663951011703806646e-02,-1.139481882625827591e-03,-1.221362300081819778e-03,9.294187426567077637e-01
-3.931264986970876008e-01,-3.839065484363759495e-01,5.225156254527448807e-01,-2.913845523723584963e-02,8.186536621637334823e-04,-3.565622524406661387e-03,9.124859571456909180e-01
-4.125700775742319748e-01,-3.759397187970107135e-01,5.269008957568215301e-01,-5.734816209556246706e-03,-2.765585356529187341e-03,1.413614742159270991e-03,9.217711091041564941e-01
-3.894328463389617467e-01,-3.928402086319333630e-01,5.318651991566945014e-01,-2.942935914566809780e-02,-1.333361373004959480e-02,1.486909704252339232e-02,9.250598549842834473e-01
-3.912479259244169838e-01,-4.127031232966671404e-01,5.385910133040406889e-01,-4.065928330759963072e-02,-1.189596255589749768e-02,1.903998332074218272e-02,9.441834092140197754e-01
-4.394382376960553338e-01,-4.391160616732231459e-01,5.344262140368283287e-01,-4.541254276593327988e-04,-2.284310263889529919e-03,-4.048373068238541629e-03,9.737370014190673828e-01
-4.050251869174199548e-01,-4.958460986864192677e-01,3.985145784718533424e-01,7.697946772051583036e-03,-3.032224118311088734e-02,-1.389175224078136733e-02,8.546448349952697754e-01
-4.200248983085665411e-01,-4.139934348889586224e-01,3.577674431512255504e-01,5.677220809445628763e-03,-2.967206422505729024e-02,6.460708012174824766e-02,7.845803499221801758e-01
-4.350813965414541129e-01,-4.296468240867466482e-01,4.305271309043257055e-01,-2.119470320086375408e-03,-2.178621631664053038e-02,7.908710406603541854e-02,8.745313882827758789e-01
-4.188227520042981933e-01,-4.430141846220429502e-01,4.595690460807221323e-01,-5.156797991897907850e-03,8.212106587206499187e-04,5.128201480968633263e-02,8.951973319053649902e-01
-4.022710299507115117e-01,-4.104111448643457671e-01,3.697470927464960866e-01,6.961207058996011707e-03,2.934671098500517012e-03,2.395628271464467912e-02,7.773387432098388672e-01
-4.036788673446828346e-01,-4.051828065935897394e-01,3.174235527955282521e-01,1.749914799658068565e-02,-7.324368993056408483e-02,8.797941929174096787e-02,7.492057085037231445e-01
-2.420427541946882921e-01,-6.242474988284615334e-01,6.202715492270104436e-01,-3.085952934867368727e-02,-9.746467778958458478e-03,-4.958006456895010239e-02,1.108947038650512695e+00
-3.002063447286826836e-01,-5.121872958199487069e-01,5.590867179532814646e-01,-3.053086313565817750e-02,-2.209452940937262772e-03,-1.089540664752300901e-02,9.841958284378051758e-01
-3.209492251092617154e-01,-5.204440181082927719e-01,5.860342349630069947e-01,4.676819677239007524e-03,1.024465101808529760e-02,3.636189094089282287e-02,1.023573517799377441e+00
-2.798135258916498724e-01,-5.415488004209361161e-01,5.304267097406775155e-01,2.540639030032380494e-02,-3.123684232300461688e-02,2.247269282127951212e-02,9.713093042373657227e-01
-2.674607718895217201e-01,-5.086384468935729597e-01,5.438938885962869563e-01,-3.380871389919118397e-03,1.141206734485976197e-02,-3.264110234054706794e-03,9.553013443946838379e-01
-4.475415732313053341e-01,-4.366659484045618544e-01,5.357338129750991440e-01,9.354687399950057649e-04,-1.700408077481911119e-03,2.411782400566116202e-03,9.778976440429687500e-01
-3.127141867754812954e-01,-5.512865292832546116e-01,6.095175980891410772e-01,-3.587167296163782521e-02,1.613730160796733246e-02,3.451704813073813022e-03,1.064013361930847168e+00
-4.389810195685713845e-01,-4.392066473845430141e-01,5.518615532773307741e-01,-2.679491804826267471e-04,3.380397650854320354e-03,1.130711383968779037e-03,9.909747242927551270e-01
-5.313785363776425408e-01,-2.861922328619856404e-01,6.365569191734962162e-01,-1.332123926617551635e-01,-1.837554059074628793e-02,2.831454561063441455e-02,1.092923879623413086e+00
-4.464269309472961300e-01,-3.635483530118361339e-01,5.710894623940112602e-01,-8.693479827732336629e-02,-8.789285790387516700e-03,5.662909799687486194e-03,9.903934001922607422e-01
-5.215843128598748324e-01,-2.473720491298902480e-01,5.589835859387536354e-01,-8.182417836518712795e-02,6.516838651372524119e-03,-2.323395145699414660e-02,9.840461611747741699e-01
-4.631500220570304860e-01,-3.276929692225326596e-01,5.585924748022907949e-01,-5.965664139261311893e-02,-2.127381912602985606e-02,3.555030149224450153e-02,9.693967700004577637e-01
-3.947572792524419172e-01,-4.260944404464340196e-01,5.393720434346954695e-01,2.213503538425519099e-02,-1.814625995235195216e-02,-1.646873462451061559e-02,9.519054293632507324e-01
-4.151479333138261563e-01,-4.299257507952602975e-01,5.333762952817736602e-01,2.555956570915396409e-02,-9.861839994469450213e-03,-3.209038508442495566e-03,9.571918845176696777e-01
-4.281795119895297486e-01,-4.358457807740038770e-01,5.433530862131693562e-01,7.725151769053463686e-03,1.014197142388627813e-02,-1.277561615768088923e-02,9.758891463279724121e-01
-4.230502085218341146e-01,-4.280325656133685541e-01,5.351425312117238375e-01,1.876272749572280990e-02,-1.488314121150558639e-02,-3.141931899148151484e-03,9.616041183471679688e-01
-3.864500004969194658e-01,-4.361173880389767610e-01,5.439039906980347450e-01,2.639678533601478097e-02,-7.723553658887234025e-03,-2.541668975819573982e-03,9.573517441749572754e-01
-3.944922023174980419e-01,-4.309243903380023943e-01,5.328158434820806644e-01,2.493759321015377034e-02,6.442583740146202997e-03,2.232686811716485913e-03,9.471095800399780273e-01
-4.418157910592082627e-01,-4.388914189866159332e-01,5.148853240315056645e-01,-3.189886484651843247e-03,3.059585291787148779e-03,1.011013687346760254e-02,9.554334282875061035e-01
-4.326122549386131610e-01,-4.368422024303881268e-01,5.359934064625807570e-01,2.250361043452042947e-03,1.278188673699577615e-02,1.186505175066947596e-02,9.712052345275878906e-01
-4.243136360298658816e-01,-4.395387237074469544e-01,5.134931987630985128e-01,3.008583694868625577e-02,5.672995747408184943e-03,-1.327166842651264500e-02,9.472761154174804688e-01
-3.711956605777096962e-01,-3.726983421465611679e-01,1.568941774022072910e-01,-1.812041160612502810e-03,-1.542528518968010187e-01,1.033978304299775289e-02,5.927791595458984375e-01
-4.272255407401660543e-01,-4.344403330343596381e-01,4.935432875120201457e-01,-2.902644870592279054e-03,1.570038734478102285e-02,-3.934543974357298385e-03,9.248360395431518555e-01
-4.277381624269120386e-01,-4.450875987628057917e-01,5.070849051685716313e-01,-8.043899445657359836e-05,2.035516616471202966e-02,1.528072969715500024e-02,9.446466565132141113e-01
-4.030711313546274654e-01,-4.621212961377844097e-01,5.310798660564816087e-01,2.309590518522349964e-02,1.183744797690895051e-02,1.248415298691013531e-02,9.663203358650207520e-01
-4.739366415261458410e-01,-3.220466166649514350e-01,5.483573690257292910e-01,-6.417581179672661451e-02,8.360841701944638632e-03,-1.064140398838402937e-03,9.620020985603332520e-01
-3.973725389304903488e-01,-3.901231639019283048e-01,3.137473211910627446e-01,-6.915027028064228481e-04,-3.050137602361840256e-02,-1.002575505527346670e-03,7.094957828521728516e-01
-3.924774008241642131e-01,-3.463638258921492574e-01,5.924219194766474628e-01,-1.424103419230295375e-01,2.201178770321733646e-02,-4.104425270089793326e-02,9.970383644104003906e-01
-4.234089436139252816e-01,-4.361723244903234487e-01,4.765110328566436459e-01,1.937970932236060279e-03,2.980479793293325935e-02,-1.347195946634238695e-02,9.081440567970275879e-01
-4.299782076090495342e-01,-4.050476985902992100e-01,3.849082011847516638e-01,3.598277437122564693e-03,6.341048087082078177e-02,-3.156221287793772173e-03,8.102328181266784668e-01
-4.293362434263335858e-01,-4.396930418703789423e-01,4.937583067205174592e-01,9.320091622479348414e-04,1.589664170634199833e-02,5.555886959973873294e-03,9.287757873535156250e-01
-4.245037971955259448e-01,-4.724216127364376239e-01,5.070832444117184812e-01,-2.029135378266289438e-03,1.138603418659172271e-02,-3.492330626009169069e-03,9.566755294799804688e-01
-4.223656132982900879e-01,-4.280713478492547686e-01,3.948984441705420956e-01,5.955791950343397069e-03,7.868919042356074811e-02,6.476598791178816983e-03,8.315193653106689453e-01
-4.087568325616476872e-01,-4.105470786157895402e-01,3.092603555518257386e-01,-4.870833829758931463e-03,6.452339112390628739e-02,-1.032010244630933091e-02,7.278171777725219727e-01
-3.839832916982944822e-01,-4.988164960830565597e-01,4.306446342946806949e-01,-1.996614887379928246e-02,8.543216479141733932e-02,2.888280000135386855e-02,8.921581506729125977e-01
-3.544238131175178608e-01,-4.603169312501158017e-01,5.665351714562135710e-01,6.114457300255223687e-02,1.221144628857845707e-02,1.648647551041197354e-02,9.845713376998901367e-01
-4.109077284072898961e-01,-4.049467524406316077e-01,5.658105104743342828e-01,6.817932758963052287e-02,1.239642628375255823e-02,1.426274640638022437e-02,9.814318418502807617e-01
-3.931394152941111164e-01,-3.841424732835367895e-01,5.469645581992670369e-01,1.647647111956730415e-01,4.695428971403572960e-02,1.181710533581099842e-02,9.817808270454406738e-01
-4.085743167484746086e-01,-4.256180333383442482e-01,5.711346602962822372e-01,7.809801153228652926e-02,1.120586626741829246e-02,8.299299715224802559e-03,9.978473186492919922e-01
-3.967784292485477260e-01,-4.099063294271117486e-01,5.314789930445196209e-01,5.575565306635157231e-02,-4.909489010329000412e-04,2.170598318454376296e-03,9.398729801177978516e-01
-3.997331005265988835e-01,-4.082801233256755369e-01,5.264605034597181765e-01,6.381035191501252535e-02,-1.164886311037655400e-02,4.786998859183098573e-03,9.372912645339965820e-01
-4.165340879547402286e-01,-3.383988114936434810e-01,5.478570304569790883e-01,-6.039550586085032369e-02,5.741811525921344112e-03,8.560586582989001062e-03,9.338436722755432129e-01
-3.754074221189901972e-01,-4.214208473572856328e-01,5.341923096915958125e-01,-3.861577602625557853e-02,4.094733088904844998e-03,-5.595696827237839691e-03,9.359276294708251953e-01
-3.838462393475204348e-01,-3.844651580677292957e-01,5.304278992645784507e-01,-3.158992287526141834e-02,-6.644749568777440218e-03,-8.659631647227441012e-03,9.164140224456787109e-01
-4.419216898279890726e-01,-4.395433595101776447e-01,5.528405817070750627e-01,-1.171084869483319515e-03,8.049896675251163594e-05,8.547824296787989457e-04,9.935784339904785156e-01
-3.815288004517917164e-01,-3.859901066870112252e-01,5.181440045054567234e-01,-3.666265947987513985e-02,3.519081864591738773e-03,-1.277452668660595094e-03,9.041677117347717285e-01
-4.266361945909453723e-01,-4.326563635421047938e-01,4.776575290851603484e-01,-9.049262104449357774e-03,3.700917575029024145e-03,4.994709939188775316e-03,9.075180292129516602e-01
-4.412007357322583201e-01,-3.935914046088000995e-01,5.933619514221506464e-01,8.084825656757395340e-02,-2.751506663681862336e-02,8.342057132458145091e-03,1.022458314895629883e+00
-3.434073480205857565e-01,-5.006496414227181724e-01,5.622179109097884542e-01,1.068240042176308580e-01,2.202416218792946009e-02,-2.623687613301775232e-03,1.011432051658630371e+00
-3.714293871643734035e-01,-3.994162167940235042e-01,5.376474525360349643e-01,1.097317338464848802e-01,1.207476259579636987e-02,-8.266192515751217456e-04,9.429786801338195801e-01
-4.521132561631738267e-01,-3.560520371724992250e-01,5.816746984461006464e-01,1.191814241762443882e-01,-2.029766148211865212e-03,2.739441791526101705e-02,1.011689066886901855e+00
-4.438248097333144515e-01,-4.221201178160068346e-01,4.909579792077197746e-01,2.053777868595263109e-03,-3.483338439309849668e-03,1.515449122836092627e-04,9.241482019424438477e-01
-3.906944267488745015e-01,-4.614485249846082549e-01,5.497843291911532759e-01,5.429678970384725634e-02,-5.730487596688553856e-03,-1.962530059870698854e-02,9.829280376434326172e-01
-3.857182896834958075e-01,-4.161829896234193749e-01,5.353419636886098676e-01,5.126427174136137521e-02,8.897543976962404150e-03,1.616282196581159038e-03,9.409937858581542969e-01
-4.259033123685226907e-01,-4.590246022309314444e-01,5.618117791887990986e-01,3.787802789454214336e-02,1.422753302273728135e-02,-2.660754330328795117e-03,1.007137179374694824e+00
-4.461289558192830795e-01,-4.385123469301355770e-01,5.465523763424992021e-01,1.802531013026364938e-03,7.522622068766068870e-03,3.320501756958397013e-03,9.890025258064270020e-01
-4.362792898013940213e-01,-4.387668049607518772e-01,5.436919922578996589e-01,2.353501518878689611e-03,1.543410823324755168e-02,8.171915267419636864e-03,9.816920161247253418e-01
-4.492455858609195052e-01,-4.209336727453332205e-01,5.427662025816497593e-01,6.021294861544330621e-03,-1.318449144078288979e-03,-8.612878375957205498e-03,9.783352017402648926e-01
-4.370497301171997195e-01,-4.366801228078810437e-01,5.424714391547121872e-01,2.479772899491514138e-04,7.376712738108677156e-03,8.947294004302460899e-03,9.795424342155456543e-01
-4.375794182761716389e-01,-4.273716800800723137e-01,5.271838198695134592e-01,4.688932074097415525e-03,-1.491879190131833316e-02,-1.668953664941592863e-02,9.605173468589782715e-01
-4.331677150285415667e-01,-4.496336947961732666e-01,5.247505425350519337e-01,-1.752108946657548625e-04,-1.437927045577265181e-02,7.394701021704128130e-03,9.666622877120971680e-01
-2.491840482026882464e-01,-6.836447280516259051e-01,7.050083124872646989e-01,-2.204057893601898133e-01,1.073598682587960373e-01,-6.202810135702653549e-02,1.306007385253906250e+00
-4.213979133729307547e-01,-4.301091587977888264e-01,5.274102319808835482e-01,3.007865815089555764e-02,9.883057367286542105e-03,1.227748444759469218e-02,9.550065398216247559e-01
-4.179004394562389479e-01,-4.335414233931277339e-01,4.425869298790361395e-01,2.432082192693329949e-03,-3.423333474183844205e-02,4.541923165947287823e-03,8.704811334609985352e-01
-4.263939537177685590e-01,-4.155643076643351641e-01,4.333294839143165822e-01,-9.069584973968078390e-03,-6.488059607626087480e-03,-7.271258354741018740e-03,8.546711802482604980e-01
-4.421127790237145971e-01,-4.324740764076621113e-01,4.513556915530821945e-01,2.028040808134097886e-04,-4.627506592638730432e-02,-5.866768227946429770e-02,8.980628848075866699e-01
-4.491065166722900681e-01,-4.327585381435816170e-01,5.294288320790975222e-01,6.127038971909671249e-03,2.560053069851783714e-02,2.337216405352662493e-02,9.723780751228332520e-01
-4.515224284602696869e-01,-3.784384799941809541e-01,5.074533018633515802e-01,5.251553148668693626e-03,-9.861257210834637951e-03,-4.646421608975445997e-03,9.248400926589965820e-01
-4.356149472690961089e-01,-4.168337357483355432e-01,4.411950095592415133e-01,4.619524422298150620e-04,1.575430674230478799e-03,4.894567085459592543e-02,8.717086911201477051e-01
-4.022910796395480770e-01,-4.007938570652107568e-01,3.449681359433652839e-01,3.222186125481440490e-03,-2.923984938498560421e-02,-5.316849026195784485e-03,7.483051419258117676e-01
-4.378520594364390672e-01,-4.321390312952066437e-01,5.426149185530519947e-01,7.271426072426817686e-04,-6.551963824953726482e-04,-4.067640678194268944e-03,9.776498675346374512e-01
-4.697519834531255212e-01,-3.956915707115370440e-01,5.413953886910096713e-01,7.512062793047589310e-03,-9.152364163918407999e-03,6.040672077874578716e-03,9.764978289604187012e-01
-4.723368985706405954e-01,-3.400227746272519447e-01,4.919938787928158641e-01,5.407218229685355204e-02,-1.769944611741986265e-02,-4.039909900140264271e-02,9.134843945503234863e-01
-4.127003004325699442e-01,-4.062752165963378626e-01,3.839041702719339089e-01,9.836323926362981664e-04,5.213184910371218561e-03,-8.148316882076246312e-03,7.935901284217834473e-01
-4.543120278305533555e-01,-4.322697965130984921e-01,5.162723932165542706e-01,7.140619795284077267e-03,-1.894677421797509587e-02,1.107268619416746161e-02,9.605851769447326660e-01
-5.504563834338070949e-01,-2.619978553646528097e-01,5.783152252193625165e-01,2.607926517220921295e-02,-3.200452056914088682e-04,-3.554468454002971366e-03,1.016763687133789062e+00
-5.179152426474769033e-01,-2.877379711936267626e-01,5.500368991871473767e-01,5.095147984046419221e-02,5.556532554286145939e-03,6.439885659632028914e-03,9.775941371917724609e-01
-5.021999858347740986e-01,-2.516414454668809420e-01,5.738706571071571227e-01,1.189899740049572552e-01,1.089601317018439215e-02,2.572255806708771686e-02,9.979508519172668457e-01
-5.058495826004120177e-01,-2.975182256358425703e-01,6.246175842571550785e-01,9.620784869803690464e-02,-2.694238571483739686e-02,-3.912707295303075906e-03,1.056332230567932129e+00
-4.707363953996177575e-01,-3.192639863297849212e-01,5.411060202045633316e-01,7.111118229743121355e-02,7.904381930921345473e-03,7.739122725523963145e-03,9.534360170364379883e-01
-4.274568429643798573e-01,-4.648360650626994217e-01,5.516016763756650398e-01,3.988960485501273460e-03,1.319956896721639211e-02,-1.896915478842531484e-03,9.985641837120056152e-01
-4.399009745845171571e-01,-4.277857952658499774e-01,4.997362200836400481e-01,-3.807726773976887022e-04,1.417678750739100740e-02,-1.077769894123850949e-02,9.341481924057006836e-01
-4.321577787055884134e-01,-4.490648706478643226e-01,5.162401467265318455e-01,1.775192164665751610e-03,2.948447297255480520e-02,1.542828950413341338e-02,9.587026238441467285e-01
-4.067066965158339653e-01,-3.993572107499606116e-01,3.518286579531464398e-01,6.101951901122153882e-03,-3.716330065182810172e-02,1.214793930730076986e-02,7.579926252365112305e-01
-4.278525699415689498e-01,-3.946490864048430303e-01,3.423667366983302873e-01,1.389544518793340688e-03,2.688580111219548291e-02,-2.004151788222878136e-02,7.564030885696411133e-01
-4.163364716107559316e-01,-4.005779786210555971e-01,2.601141335457410886e-01,-5.788197125820837390e-03,6.236174799083477049e-02,-6.577161279757440249e-02,6.869636774063110352e-01
-4.184465016705344320e-01,-4.193036213870607321e-01,3.291991699009912953e-01,2.786014452630576534e-03,5.166871198496587880e-02,-1.166402446992440833e-01,7.800402045249938965e-01
-4.521445017063198124e-01,-3.693307319538793876e-01,5.374360795241671651e-01,-1.958904493328358920e-02,-1.156147911121255083e-02,1.962291482264334058e-02,9.523047208786010742e-01
-4.406603499566690840e-01,-4.387622780340342810e-01,5.522850754436747778e-01,5.483330593642478075e-04,-8.484089927297376252e-03,4.692019770987217175e-03,9.921403527259826660e-01
-4.239556356931634684e-01,-4.129659954663167376e-01,5.423544985763616433e-01,-1.940269583976578921e-02,-1.119253234237371948e-02,4.784147303676592432e-03,9.616810679435729980e-01
-4.398321452039042345e-01,-4.366144475342502718e-01,5.434191365693166187e-01,5.313961470377241789e-04,-5.350962612121227743e-04,-9.509313404483852802e-03,9.817854166030883789e-01
-4.392859143365575592e-01,-4.371500486025976517e-01,5.479567128210670601e-01,-4.742051682823810084e-05,4.786337151337628076e-03,-1.148053331195163229e-02,9.864117503166198730e-01
-4.416156296945837889e-01,-4.106697932483550084e-01,5.319732588059108425e-01,3.579030574404445421e-03,5.986522955076220565e-03,5.406677100370264541e-03,9.586125612258911133e-01
-4.356306975354557465e-01,-4.373568478979550922e-01,5.505137777646420538e-01,1.228978060107263929e-03,-2.541738227943025116e-03,-1.132299601035660500e-03,9.870227575302124023e-01
-4.376121927878340867e-01,-4.353528387351294215e-01,5.366197606472438153e-01,-4.747437791581720495e-03,3.020242938868097915e-02,-9.119005944002039205e-03,9.746720194816589355e-01
-4.301768367137890903e-01,-4.313797855854163421e-01,5.501279052229276489e-01,-1.475446747857860758e-02,-1.967002350212361094e-03,1.287887647700134558e-02,9.814990162849426270e-01
-5.013077227716763451e-01,-3.115266017420171285e-01,5.728112170402263059e-01,-5.289951205747506213e-02,6.078398089657436471e-03,-7.951882672716786837e-02,1.006666064262390137e+00
-4.802743985411451755e-01,-3.702382106728103750e-01,5.551858994211479326e-01,7.246824944708528220e-03,5.754347341904733626e-03,4.181064417313299112e-04,9.851930141448974609e-01
-4.235869934963424899e-01,-4.297379223176839291e-01,4.944926245893730421e-01,4.224242918224605306e-03,-1.340708702195347532e-02,2.223637586666798245e-04,9.214922785758972168e-01
-4.301367119349304158e-01,-4.255819116393495527e-01,4.794372802756524665e-01,2.416675273767051116e-02,4.585849574268521800e-02,1.871556083821656127e-02,9.123127460479736328e-01
-4.324004091749434342e-01,-4.428673709900151079e-01,4.954408601856616912e-01,-3.436643842868798704e-03,1.678112834178506138e-02,-1.200094201773226933e-02,9.338216781616210938e-01
-4.153278056354238745e-01,-4.092998616799384259e-01,3.834349503063927411e-01,-4.544141164932171892e-03,1.379113066963220946e-02,1.215020491429589199e-02,7.964413166046142578e-01
-4.273952962347450923e-01,-4.322429878204516740e-01,5.109510102960397315e-01,8.881049553942556990e-03,-7.014485659269155968e-04,-4.743718753910948494e-03,9.409419298171997070e-01
-4.334210395873488997e-01,-4.452049623064138761e-01,4.886011127017554356e-01,-3.691596024341262192e-03,5.821887708094707417e-03,-1.833863823727083925e-02,9.285904765129089355e-01
-4.270462814386095651e-01,-4.420876007046963263e-01,4.638200026891904360e-01,-3.782368109202407895e-03,2.918412841860600765e-02,4.354998387408948873e-02,9.030817747116088867e-01
-4.412850808859988261e-01,-4.459439679807666868e-01,5.206839851624149862e-01,1.820961981110039412e-03,1.729904856088438150e-02,2.433012094472615169e-02,9.656974077224731445e-01
-4.231726172298629907e-01,-4.265177771121618777e-01,4.645368447314613958e-01,2.281363654338656836e-03,2.400865553654308107e-02,2.440315564055363026e-02,8.913698792457580566e-01
-4.219682757530001105e-01,-4.123338015485955577e-01,3.890306850426678009e-01,1.379580956529513625e-03,-5.672278887289205866e-03,3.245037247726214463e-02,8.082449436187744141e-01
-4.927220620586528210e-01,-3.734851790605887012e-01,5.174110620607546007e-01,7.531656101832614244e-04,8.987473591131472928e-03,-3.498303073680012094e-03,9.562541246414184570e-01
-4.182260457044017499e-01,-4.190642762848900138e-01,4.360942606640157981e-01,-1.241157955800211007e-03,-1.587261369607767536e-03,4.892180483291868470e-02,8.589366674423217773e-01
-4.351575047787579753e-01,-4.450604481270349355e-01,5.302968537196037779e-01,4.242131772666102654e-03,-9.855411836222781243e-04,2.345242130833156795e-03,9.704815149307250977e-01
-4.226949047489972355e-01,-4.370906929452381684e-01,4.677393325997426521e-01,2.121059681806179015e-03,-4.244244660322006590e-03,2.141911686113760066e-02,8.985225558280944824e-01
-4.432341605836166432e-01,-4.416125879934488241e-01,5.530850433015854772e-01,4.828260693098268140e-04,-5.389142716994632046e-04,4.889065375276440296e-04,9.955105781555175781e-01
-4.405470444469308244e-01,-4.234488524760637307e-01,4.748812107038402619e-01,-5.929521207348867340e-03,-6.831808288149505970e-03,2.561256197562195719e-02,9.082194566726684570e-01
-4.630126339425386095e-01,-3.869334970318251132e-01,5.101325556897967628e-01,-4.342491459110817478e-03,3.748041851224914907e-03,3.655270084279469214e-03,9.374979138374328613e-01
-4.426903560406338367e-01,-4.363429115560083504e-01,5.364015257494911815e-01,-3.455292350185928431e-03,-1.759188022614058267e-03,1.311676467598232171e-02,9.762211441993713379e-01
-4.276849339745603107e-01,-4.443471615890651205e-01,5.060900823218448252e-01,2.062097323166454249e-03,1.865689265571892838e-04,1.139354487932181699e-02,9.424300789833068848e-01
-4.328189631479738009e-01,-4.454061252557235395e-01,5.172791870100541534e-01,5.063279022335435975e-03,2.070001404210841580e-03,1.567646416253502123e-02,9.568861126899719238e-01
-3.860362660723801742e-01,-3.742259571842131982e-01,2.288913126698994271e-01,-5.990183405269885845e-03,-4.164941134470397099e-02,4.079230192103006775e-02,6.175084114074707031e-01
-3.731789461125845642e-01,-3.763141986639789716e-01,2.317468671559492210e-01,-2.260498715969531166e-03,-2.580985214820512991e-02,5.202553105306046387e-03,6.082241535186767578e-01
-3.838478122494386469e-01,-3.700603303311395531e-01,2.183027046844534524e-01,3.544031231391485404e-03,5.076386516219152933e-02,1.949388335420075904e-02,6.028115749359130859e-01
-3.877010802148869173e-01,-3.990472785730572736e-01,3.342078311406930791e-01,-2.785122042200795494e-03,-1.792827246091639997e-03,2.533146877478528389e-02,7.289925217628479004e-01
-4.298253776819860317e-01,-4.349483367807925327e-01,5.353318457072437919e-01,-4.651198701455645790e-03,1.298732867956548312e-02,-1.187156551159792607e-02,9.682421684265136719e-01
-4.003333544370539787e-01,-4.041155219961005129e-01,5.275785625696564063e-01,-8.822703338869071574e-04,1.229618548562731077e-03,1.537368958647587856e-03,9.298163056373596191e-01
-4.299241677584379473e-01,-4.225651962851016408e-01,5.454907955769052741e-01,-1.437134021866377093e-02,1.807769976961983674e-05,3.591146545001188198e-03,9.720950126647949219e-01
-4.416574097811130639e-01,-4.308101537245328516e-01,5.347581019565472715e-01,-5.575348238101358227e-04,-1.133764228576983855e-02,1.527286319536650880e-02,9.715965390205383301e-01
-4.411520623530171825e-01,-4.327357526255158904e-01,5.376988217044342822e-01,-5.840102843383806813e-04,-5.139661218951169057e-03,6.258756777226971019e-03,9.747714400291442871e-01
-4.452229146250680225e-01,-4.400802857798525869e-01,5.362970878907287187e-01,-9.009702743001318098e-03,-1.669110135431648920e-02,1.102826230321647324e-02,9.796961545944213867e-01
-4.366774532094841454e-01,-4.253098400798481782e-01,5.042476445918779859e-01,-5.951002862127544209e-03,-3.346981208836516397e-03,1.726228305234327187e-02,9.358456134796142578e-01
-4.395304177447864058e-01,-4.346783961169065624e-01,5.400453624507925987e-01,1.378125310048373053e-03,2.606224542392541772e-03,-3.427969985961383179e-03,9.771901965141296387e-01
-4.403248327612996893e-01,-4.434677570838119198e-01,5.440443384285296169e-01,6.187943917764520199e-03,7.531982754021079732e-04,4.476318542103350021e-03,9.860339760780334473e-01
-4.391528925366421365e-01,-4.279677347141020993e-01,4.864524415288502546e-01,3.156794904215502046e-03,2.819858749142972049e-02,1.828569410040818341e-02,9.219196438789367676e-01
-4.329574383789212000e-01,-4.335995221609557637e-01,5.188431445215159199e-01,6.202586896484068787e-03,-1.462536194152839163e-03,3.265904655557250874e-03,9.522025585174560547e-01
-4.941835341249290470e-01,-3.728227313029651158e-01,5.593412194937349424e-01,2.468266249781960516e-03,4.410228596554570911e-03,1.935255638444728990e-02,9.989926815032958984e-01
-4.390067774347586327e-01,-4.425493491983803485e-01,5.226846725168476926e-01,-3.614487666257705251e-03,1.037320452771973815e-02,4.215189529747295771e-03,9.636831283569335938e-01
-4.410215667218456703e-01,-4.315879307081771921e-01,5.216418378466831651e-01,-9.277132034871225915e-04,1.130502398282136507e-02,1.059764014864441814e-02,9.583586454391479492e-01
-4.420510238111995949e-01,-4.360180079032239253e-01,5.413551490883652395e-01,-1.214355503072697511e-03,4.322679473323775418e-03,8.405004606398043532e-03,9.805424809455871582e-01
-4.420664675409600175e-01,-4.375626522410802077e-01,5.407187212470537796e-01,1.539694708274035972e-04,-2.697396668991785922e-03,4.103009574384992170e-03,9.805779457092285156e-01
-4.216768814570603929e-01,-4.322986784103522995e-01,5.461294956253042177e-01,-1.739021726889781756e-03,1.491072092979079701e-03,-6.240516762338046627e-03,9.732288718223571777e-01
-4.413493591175446373e-01,-4.298923659293425459e-01,5.110186278633485069e-01,4.101829581386894389e-05,4.514978375118708885e-03,1.103534873215312496e-02,9.469166994094848633e-01
-4.632559199880007528e-01,-3.971689312301502350e-01,4.870531294432671743e-01,2.911555310045024422e-02,-7.332188855064074567e-04,3.632333732422030059e-02,9.225804209709167480e-01
-4.354667825692545291e-01,-4.114804913122575569e-01,4.553838041633228029e-01,-7.398262170072694276e-04,3.991783239299754975e-03,3.749559759572470424e-02,8.815265893936157227e-01
-3.994891620557612377e-01,-3.733412136506891743e-01,6.070006214537830846e-01,-1.145140657238072207e-01,-3.816186994202208464e-03,7.058403846009185870e-03,1.013371229171752930e+00
-3.305444320364737121e-01,-4.256526004355374870e-01,5.431347340014924807e-01,-7.060254419102721113e-02,2.989503229190273656e-03,-1.490650087406058741e-02,9.333286881446838379e-01
-2.943516996386466578e-01,-4.707576379137357048e-01,6.376655293310667938e-01,-1.187279530118939691e-01,-7.661669083622120804e-03,-1.528206785828062700e-02,1.052309036254882812e+00
-3.049608743770416130e-01,-4.623904734511178338e-01,5.382476025071931680e-01,-6.616761298548601289e-02,-8.253114109087368241e-03,1.171888590020913126e-02,9.392983317375183105e-01
-3.229155046192589973e-01,-4.674777771986525776e-01,5.620573902372089092e-01,-5.660907069458619850e-02,1.083697277273572984e-02,-3.665641747231636674e-04,9.705541729927062988e-01
-2.848916293387793175e-01,-4.485905468505080873e-01,5.387024437373666430e-01,-1.267191331585060254e-01,2.259751742599184349e-03,-5.795796259561276746e-03,9.424517750740051270e-01
-3.560048570622465491e-01,-4.620818031711935170e-01,5.666384961629735706e-01,-5.210848815695704600e-02,1.034902422510236911e-02,-9.061259387969039167e-03,9.844326972961425781e-01
-3.796270318988410053e-01,-4.213433747349180081e-01,5.381594872931526607e-01,-3.599832593374555079e-02,1.194488105750730889e-02,-1.245513581194543709e-02,9.418811798095703125e-01
-4.125600045803116678e-01,-4.023672377828800273e-01,5.483753577178372973e-01,-7.602654607099101902e-02,-6.614690022177504083e-03,1.468698224821324370e-03,9.649786949157714844e-01
-3.623050717167149992e-01,-4.024771654368768936e-01,5.317193903913853825e-01,-5.849627021138599503e-02,-4.365591695853947643e-03,2.463052246811940973e-03,9.204070568084716797e-01
-3.664287824732156973e-01,-4.881159984468706470e-01,5.050455368116714139e-01,7.971402393240324680e-02,-3.930154506314018537e-04,4.660559295480342333e-03,9.483940005302429199e-01
-4.815486324425953812e-01,-3.458228449970878193e-01,5.501226135708737752e-01,8.441965509825058098e-03,2.748218877963383606e-03,1.215380913381283734e-02,9.712992906570434570e-01
-3.636486566708639900e-01,-4.722802789525802902e-01,5.677678097560214798e-01,5.834469387183852107e-02,4.932408901639620535e-02,-1.196836753768199847e-02,9.992293715476989746e-01
-3.890823198400810146e-01,-4.019944198972079663e-01,4.826098365111014532e-01,9.279418531183643293e-02,-4.494138334040509615e-03,8.791529375081673370e-03,8.929692506790161133e-01
-3.096377956779664542e-01,-4.594690264778930611e-01,6.130794499911287332e-01,-2.017527278780194000e-01,-1.124723120336929283e-01,1.472605307929660823e-01,1.112307429313659668e+00
-4.389944582788916083e-01,-4.403315249412235177e-01,5.354368394853219471e-01,-3.658249567306458890e-03,3.973726033408060297e-05,3.465727767204272378e-03,9.751395583152770996e-01
-2.214221621828499631e-01,-5.275961275333166389e-01,5.302455551014139123e-01,-1.374284079727237651e-01,-1.374405855636761098e-01,7.370341404129010510e-03,1.001189470291137695e+00
-1.197494680355655761e-01,-5.873904049617519885e-01,5.490396898584464225e-01,-1.106138958406081285e-01,-4.798561506994675208e-02,-2.706433263369917991e-02,1.012191534042358398e+00
-4.389829396481523816e-01,-4.445712382460061396e-01,5.467126020111751084e-01,-1.696991254076733301e-03,3.443196178031750730e-03,-3.111033910023393474e-03,9.885385632514953613e-01
-1.829802447253436049e-01,-7.094036299382980859e-01,5.713984388096881029e-01,-1.508808674489022783e-01,-1.055301835102204489e-01,1.313479972714093058e-01,1.181860089302062988e+00
-2.125310658901143346e-01,-5.977638608494502126e-01,6.354379127140055150e-01,-8.240416866240478366e-02,-1.374346302850923685e-01,-2.023517011419038308e-02,1.128000736236572266e+00
-2.588215161694787936e-01,-5.432059668274379360e-01,6.148618238706861083e-01,-2.068037547518651043e-01,-1.733853665722411702e-02,6.136906834561395296e-02,1.110478639602661133e+00
-4.344994876915591053e-01,-4.374217005688960658e-01,5.129814110878565536e-01,5.903591698493899573e-03,-3.716287466480461439e-03,-1.361158335084394072e-02,9.493150711059570312e-01
-4.282771073936600947e-01,-4.251117670568632101e-01,4.704658528002275686e-01,1.110430323002613816e-02,1.575765861397951731e-02,1.057016962307285625e-02,8.979722261428833008e-01
-4.277425865085683343e-01,-4.394093246530972885e-01,4.681462234241452469e-01,-8.139755576533434095e-03,3.462458564198798300e-02,3.260734442256332799e-02,9.056434631347656250e-01
-4.452429886679188376e-01,-4.323813154743840204e-01,4.887346502234338752e-01,-8.435052632478540202e-03,2.339662393172490390e-02,1.422437586981614363e-02,9.289401173591613770e-01
-4.195136425826500037e-01,-4.394828826361332208e-01,4.653468256170163464e-01,1.279312874345646129e-03,3.693973040146134729e-02,3.296821703500620038e-02,8.991140127182006836e-01
-4.345604154982597445e-01,-4.622116045253119032e-01,5.426007607997214155e-01,1.045053202414960962e-02,1.139350315470231620e-02,1.318179092666003221e-02,9.919005036354064941e-01
-4.515803733509454743e-01,-4.359829364096328153e-01,5.081616696042026149e-01,6.166226438948912286e-02,2.608434792898256527e-02,4.222844717119465102e-02,9.618607759475708008e-01
-4.942012043020652112e-01,-3.059701516012657274e-01,5.432424473244723551e-01,-5.595420811602866418e-02,-3.946775126713870756e-03,2.914109345620120861e-02,9.635497331619262695e-01
-5.448917414318735775e-01,-3.030515928265397063e-01,5.692245395039990941e-01,-6.699287094088404726e-02,4.090746711009174419e-03,2.768034011404062189e-02,1.022798418998718262e+00
-4.557225905183750481e-01,-3.756962898014746255e-01,5.092074820305549920e-01,-1.447105375713467201e-02,-2.174482783451459674e-03,1.410080757662358387e-03,9.278593063354492188e-01
-5.464264895400817723e-01,-2.901526649802407265e-01,5.665870693482034648e-01,-1.711604001297642799e-02,2.628936410132823309e-02,6.001825456810393200e-02,1.016365170478820801e+00
-4.882978462263881658e-01,-3.634973660037444931e-01,4.623003924101158901e-01,1.195614430020485765e-02,-2.239295236623455726e-02,4.525870277668169600e-02,8.992526531219482422e-01
-4.541752588522318668e-01,-3.941014113687996701e-01,5.239643163345808485e-01,-1.034710079710005406e-02,1.518073692284130707e-02,3.763101497579086907e-02,9.522951841354370117e-01
-4.296183739483692143e-01,-4.395131915039944825e-01,4.653188136496956284e-01,-8.814273072075412552e-02,-1.097944443643746569e-02,-3.167058007007474141e-02,9.146277308464050293e-01
-4.401954668455205777e-01,-4.334586960517113896e-01,4.560677565718842530e-01,-1.324852102014628663e-02,2.344938360274434128e-02,1.720768832931924078e-02,8.946282863616943359e-01
-3.721434666304157535e-01,-4.943891456160697806e-01,4.778872782942373831e-01,-6.167452311916910186e-03,3.267961954258007812e-02,2.196431876432784411e-03,9.190980792045593262e-01
-4.073179248061557511e-01,-4.268803220403467047e-01,4.131143449741041529e-01,-4.243902899586021911e-03,9.286206093404897333e-02,-1.513577422910095463e-02,8.462581038475036621e-01
-4.417782108995544355e-01,-4.358518430673310462e-01,4.876712676433677673e-01,-3.122766169359214930e-03,2.800686677262677338e-02,-2.473571803098609245e-02,9.287739992141723633e-01
-4.279534843750274486e-01,-4.249163843627261072e-01,4.367835032273911233e-01,7.058608390599003732e-03,3.653226796053005848e-02,-3.762326470071501033e-02,8.680741786956787109e-01
-4.396597065459577625e-01,-4.426444121971060408e-01,5.462748627672424639e-01,-2.466672587267294305e-03,3.986497004176463516e-04,-6.688694644332165984e-05,9.874398112297058105e-01
-5.082036903096462943e-01,-2.764329593235773097e-01,5.443543709849881784e-01,-3.795562625824088453e-03,-2.433847426381876254e-03,1.993979759653150344e-02,9.585915803909301758e-01
-5.043836123816061168e-01,-3.324538341574185263e-01,5.422149827392932497e-01,8.014928165312929301e-03,-2.032801979055300252e-03,-7.720390612336839806e-03,9.723019003868103027e-01
-4.807756741402706702e-01,-3.489486144494206021e-01,5.430020788304925627e-01,3.396668835063577137e-03,-1.846012655182304851e-03,1.901069469496093067e-02,9.652288556098937988e-01
-4.373101658910303335e-01,-4.462604111658011741e-01,5.390380646226544670e-01,-2.405021274953625648e-03,-1.583915790028926369e-03,-1.324874425741537701e-03,9.808693528175354004e-01
-4.444035599428769467e-01,-4.225393133756953357e-01,5.411265900795101391e-01,7.083850615443691712e-04,-6.588632797654269541e-03,9.316995552406680953e-03,9.749830961227416992e-01
-4.362433782792964343e-01,-4.328203937363963583e-01,5.342697644473787255e-01,1.578528554264533408e-03,-8.041513429357142421e-04,-3.862156963483275203e-03,9.688341617584228516e-01
-4.398869345656034602e-01,-4.462508515452304203e-01,5.439738698724909671e-01,-8.074564677611077712e-03,-1.870584216673140589e-03,-3.965453393309748345e-03,9.871864318847656250e-01
-4.344939835954946261e-01,-4.421859352449171721e-01,5.321447752454073754e-01,-2.820429269523394220e-03,3.422590533881979952e-03,6.241436066574136124e-04,9.705386161804199219e-01
-4.591835416239432588e-01,-3.761662925146624925e-01,3.808177492459509095e-01,-6.076897631913272951e-03,-2.751947179189495607e-02,-1.354348396791105746e-01,8.367615938186645508e-01
-4.221975859754721339e-01,-4.313339419669581232e-01,4.580272637537787794e-01,-4.614639612867607599e-03,-1.120645239308366674e-02,7.670088120273350560e-03,8.851770758628845215e-01
-4.606507309915255366e-01,-3.960702482934587154e-01,5.160960742894989961e-01,-4.929828667429001637e-03,-9.147437772968426695e-03,3.040317473905017180e-04,9.462823867797851562e-01
-4.395607291908917857e-01,-4.183762202063186497e-01,5.409037893333663582e-01,1.723968646074716931e-03,7.548814715653226828e-03,5.843998319970189655e-03,9.701912999153137207e-01
-4.852897419537206547e-01,-3.329365528168489741e-01,4.676190179757779841e-01,-3.782987164021765075e-02,-2.170998073381529003e-02,9.289863708092128969e-04,8.898189663887023926e-01
-4.751195707686099445e-01,-4.484044018851951474e-01,4.983240272372738700e-01,-3.104850718563546136e-02,5.992364516781261904e-03,-4.568785626078519790e-02,9.651747345924377441e-01
-4.446081948128339789e-01,-4.295874075302837936e-01,4.716733723020299918e-01,7.933609298456177628e-03,-9.390160718215898039e-03,-4.290718675038359547e-02,9.121462106704711914e-01
-4.833824097956977983e-01,-3.926046968222529077e-01,4.789381654523431342e-01,-3.149612264611692525e-02,-1.189475729113056773e-03,-1.440641106889219147e-02,9.222511053085327148e-01
-4.309955752790350370e-01,-4.181752086110771538e-01,4.501596635093984000e-01,5.417003663878245008e-03,-5.262919549034748672e-03,-1.517839559629261675e-02,8.753082156181335449e-01
-4.466924030598504736e-01,-4.364385077492519138e-01,5.545370846632552420e-01,9.342127776050732340e-04,-4.506386291741566914e-03,7.314206739827511933e-03,9.962545633316040039e-01
-4.386279054769826602e-01,-4.490175156218156327e-01,5.270210134043932237e-01,8.940821668749893841e-03,3.320007127149543491e-02,-4.057228316170158160e-03,9.727355241775512695e-01
-4.219461131483343008e-01,-4.401882958460255346e-01,4.974014988108608204e-01,-6.420784072149637520e-03,1.042653289734345005e-02,-6.636454891490450869e-03,9.289163947105407715e-01
-3.742169157169266680e-01,-4.489029729024195947e-01,5.132218880831964647e-01,-9.994288812528015833e-03,-8.007596221878599332e-03,5.433896790688874309e-03,9.273540377616882324e-01
-4.372589544429443809e-01,-4.434582999867487940e-01,5.445922458675034328e-01,-1.598742999296601198e-03,6.603211297104996311e-03,-2.740382230293635698e-03,9.850472211837768555e-01
-4.312065758365977164e-01,-4.432268407850621927e-01,5.218631827426085668e-01,-1.029856656645077939e-03,1.338554970892099835e-02,-1.267234103118131464e-02,9.596692323684692383e-01
-3.997565631414249365e-01,-5.219250058747999521e-01,5.503260680247505920e-01,-3.037550058561445943e-02,4.726454703781834271e-02,-1.443113783734163019e-02,1.021639347076416016e+00
-3.116677293931857662e-01,-4.836842144209334560e-01,6.054561400867818355e-01,-8.399904745431201192e-02,2.615061875609629716e-02,-2.205370414690539446e-02,1.026228308677673340e+00
-3.013619496918739649e-01,-4.251211449037958223e-01,5.406388542699421818e-01,-1.302658849162988686e-01,-5.611050420231992672e-07,2.748721620595292146e-03,9.377725124359130859e-01
-2.967207628015139931e-01,-5.113809671933603473e-01,5.759470741398380333e-01,-1.441825228253919566e-01,1.302052393627828319e-02,1.185948218630940472e-02,1.028713583946228027e+00
-4.447895815920694940e-01,-4.381485328971166382e-01,5.330203700189576344e-01,7.418926145924755085e-03,-1.052390628433888531e-02,4.015217682384049727e-04,9.747617840766906738e-01
-4.404747954326163617e-01,-4.381795432413491120e-01,5.306943918614956957e-01,5.865171208331318095e-03,-1.130868640307379751e-03,-3.449160442767706773e-03,9.700971841812133789e-01
-4.171634068261179662e-01,-4.080730345094578104e-01,3.901651820004083948e-01,3.067653959918549209e-03,2.676855427976271989e-02,-2.134510499095516184e-02,8.050266504287719727e-01
-4.240406626693198899e-01,-4.070946945637524683e-01,4.190555482214644023e-01,4.734602484419855005e-03,3.196338549173019516e-02,3.479623448289508210e-03,8.366479873657226562e-01
-3.934799062971496286e-01,-3.869029566739033421e-01,3.090219049679322483e-01,-2.300546525643147166e-03,3.187124712956676542e-02,-1.058754300873579642e-02,7.016631960868835449e-01
-3.948325749186531453e-01,-3.974301316793311667e-01,3.247772722606380169e-01,-4.197674615376176428e-03,2.911680510086286922e-02,-2.309512308899715552e-02,7.238167524337768555e-01
-4.013744486156006763e-01,-4.024596124298539523e-01,3.445799937235474175e-01,8.003301208662135305e-03,4.078116728313090772e-02,-1.679851979608140353e-02,7.505242824554443359e-01
-4.098468275190236820e-01,-4.049494354195704582e-01,3.605715048892643715e-01,4.970278807063976262e-03,4.248920524213873479e-02,-1.619863678377494662e-02,7.720574140548706055e-01
-4.103398940734593880e-01,-4.084726193182632303e-01,3.843873308768774866e-01,8.060770035584478160e-03,-2.846867307674734535e-03,-2.193516538466409871e-02,7.948418259620666504e-01
-4.030336499778084391e-01,-3.989629147260444486e-01,3.267040221992424387e-01,3.093612667149547336e-03,5.507173239648396890e-02,-7.521048729865156823e-03,7.340709567070007324e-01
-4.669145885461065126e-01,-2.874033776196108225e-01,5.537548863522908649e-01,9.225010585169612920e-02,1.433594146021143975e-02,2.608872408200252346e-02,9.586226940155029297e-01
-3.571802767394203215e-01,-3.612146965283266065e-01,5.352848049594386426e-01,1.270901214195819806e-01,2.432777184880299121e-02,2.961032270372847969e-02,9.235649704933166504e-01
-3.786275633689856202e-01,-3.848481408701298068e-01,6.366708612995949368e-01,1.225378847842196472e-01,7.149559792445081552e-03,-2.268779835503339018e-02,1.041119337081909180e+00
-4.669253243077300386e-01,-3.436759826826961683e-01,5.793758832440715212e-01,1.561545094677607159e-01,-1.466455678488158207e-03,1.493242969882414492e-02,1.027038812637329102e+00
-4.477075263295721697e-01,-4.070702195909013388e-01,6.661923753385825542e-01,1.724213544773306184e-01,-9.660577452245447741e-03,-1.338754643027397981e-02,1.134532332420349121e+00
-4.094162905594691537e-01,-4.515094269648679548e-01,5.358396136481513583e-01,-3.537773989815942884e-03,-1.231294415033279063e-02,8.974958042687712634e-03,9.673693180084228516e-01
-3.445212451157561584e-01,-5.407432306382270459e-01,4.843079564576944218e-01,-7.129488073846065865e-02,8.803039904707590443e-03,7.362754223240067925e-03,9.506521224975585938e-01
-4.013211068479349830e-01,-4.817032784073812524e-01,5.298224073237182141e-01,-3.165382675195670971e-04,5.175689665824302621e-02,-7.068069284886804859e-03,9.780201315879821777e-01
-3.752737014745011201e-01,-4.568157489569961149e-01,5.501636589605045646e-01,-1.913832749003798253e-02,2.067956743294755220e-02,1.403793605785013483e-04,9.700140953063964844e-01
-3.177677592090653591e-01,-4.988912451754816124e-01,5.569083051861032363e-01,-2.659362415438851560e-02,6.534753108587870729e-02,-9.190210774839816313e-03,9.856339097023010254e-01
-2.684018225002357538e-01,-5.683695860003218359e-01,5.328415491696258943e-01,-8.416372156419922590e-02,2.450727538757242058e-02,3.113875262879249595e-02,9.991396665573120117e-01
-2.352787738324293998e-01,-5.628306914635013980e-01,6.171504486478309737e-01,-1.213141013239893012e-01,-2.160770455700916463e-03,2.150152493441601434e-02,1.076426029205322266e+00
-2.860800281339382911e-01,-4.336158485668279994e-01,5.259394180585040823e-01,-1.266845894087893498e-01,6.440697915588433631e-03,4.491205603060797330e-03,9.215618371963500977e-01
-4.356578090764585687e-01,-4.289700966273296556e-01,4.950904010182792803e-01,5.689795782277638596e-03,-3.833446165172058658e-04,-2.491270685907064769e-02,9.284782409667968750e-01
-4.312549555800455625e-01,-4.336915949895079336e-01,5.341375891802974119e-01,1.544213871796064688e-02,-1.661642320549973004e-02,-1.101126541600813170e-02,9.675993323326110840e-01
-4.288847578899069868e-01,-4.607319210206267113e-01,5.432596181944466807e-01,7.493439689455549252e-03,-1.535701496329388085e-02,-1.009849011133836898e-02,9.890505075454711914e-01
-4.089738811017428755e-01,-3.905161083848461834e-01,3.966357742162245348e-01,2.643587503196103555e-02,-2.670155732731537696e-02,-3.952406073392535774e-02,8.021220564842224121e-01
-4.300183509660446823e-01,-4.212937481684144725e-01,4.429345757686877771e-01,-7.997562009222487084e-03,-4.238613378593605180e-02,-3.798287757051405089e-02,8.743091821670532227e-01
-4.435177243592112184e-01,-4.242447907422562392e-01,4.519302822005407672e-01,1.800501374578797591e-03,-4.314521351820843620e-02,-3.486637792013451420e-02,8.911688327789306641e-01
-4.243951991838249560e-01,-4.152139442501326383e-01,4.295592134163742637e-01,7.171937231186667656e-03,2.008752471634580802e-02,-9.455934521556488143e-03,8.503617644309997559e-01
-4.292027430511083930e-01,-4.404370261641956663e-01,5.333286630913617321e-01,2.662178129336508587e-04,1.402252680141449076e-02,6.061478280149137747e-03,9.685590267181396484e-01
-4.306871502146112918e-01,-4.368838442145141499e-01,5.439983881897035856e-01,4.835900280858365825e-03,4.184996606991212356e-03,-1.454430004028191455e-03,9.778646230697631836e-01
-3.808929179361911221e-01,-4.495812002650961259e-01,5.367528407682855551e-01,7.392613157212922503e-03,-7.251640832003003120e-03,-6.276566336522872852e-03,9.540771842002868652e-01
-4.080806527751066337e-01,-4.517286703158353567e-01,5.377670035246501223e-01,2.333149553757539463e-03,-1.099896343525635228e-02,-1.641867390704496166e-02,9.690228700637817383e-01
-3.897132311076455524e-01,-4.378752923332019931e-01,5.364436441727925553e-01,5.623307160219729976e-03,-9.121317769830430619e-03,-1.021554071691981903e-02,9.514984488487243652e-01
-3.793477303988832539e-01,-4.494832878411243460e-01,4.416243629822584893e-01,-3.902779394699569526e-02,-3.549841558985059042e-02,1.651958941344994561e-02,8.635172843933105469e-01
-4.284148236477792748e-01,-4.187149204867556818e-01,4.331251169649018573e-01,1.235589114408790906e-02,1.646699576330117477e-03,1.430264297757142394e-03,8.570067286491394043e-01
-4.154707781640215591e-01,-4.485093259829649459e-01,5.396440295024986789e-01,-5.306613563468685728e-03,-5.564349717668395923e-02,-1.895603137475801100e-02,9.774162173271179199e-01
-4.199270040208869514e-01,-4.709833250743581945e-01,5.571945083338799565e-01,-1.952259214576697668e-02,-2.607833468820237866e-02,1.314074577551561929e-02,1.005466580390930176e+00
-3.232706109246825665e-01,-4.891927500728949219e-01,4.860180401311565701e-01,-1.656672891032968248e-02,6.239060588909802266e-03,5.177835079899432980e-03,9.043106436729431152e-01
-4.420187617559756532e-01,-4.420891256120754731e-01,5.524954271766943092e-01,2.230820647308607435e-03,2.005775141538392124e-03,2.359897562800726176e-04,9.945630431175231934e-01
-4.112139836109547919e-01,-4.833867536908055818e-01,5.356423673271406560e-01,-1.536015019866184689e-02,-4.863769336380921460e-02,1.120344873298836051e-02,9.890724420547485352e-01
-4.261018529212594053e-01,-4.308573457073305302e-01,4.610689768683853274e-01,9.698173942810616940e-03,2.307247355675345890e-02,-1.623181922629952575e-02,8.910573720932006836e-01
-4.348563493121773149e-01,-4.332819918746259047e-01,5.270371876438652015e-01,4.865052612693186035e-04,-5.690496198687617323e-03,-1.878049559650458587e-04,9.611582756042480469e-01
-4.319173978559719407e-01,-4.367636724952556615e-01,5.380237368029713307e-01,-1.534372961796806037e-03,2.339343074005221894e-03,-2.262742205526508451e-03,9.723932743072509766e-01
-4.424028725958967789e-01,-4.448157027242348738e-01,5.521695299066876617e-01,3.412932612086240231e-03,-6.771335997808924153e-05,-1.852900890352885918e-04,9.957985877990722656e-01
-4.342202651781724709e-01,-4.296862044395351465e-01,5.362476433889171723e-01,-1.899151965228257312e-03,3.058333187327271635e-03,-1.124283915572380291e-03,9.682309031486511230e-01
-4.333220856570361157e-01,-4.430737117200861941e-01,5.320417622769373356e-01,4.460174545672598162e-03,-3.542066678645312654e-03,1.835845183389069567e-03,9.703317880630493164e-01
-4.440788827543062922e-01,-4.413301653627957344e-01,5.512271540513464796e-01,4.438700562816550593e-03,-9.004532666863061287e-04,2.321845752133121742e-04,9.939655661582946777e-01
-4.443106945417186204e-01,-3.539679659462746097e-01,5.028328340652987727e-01,-9.470154776479922099e-02,-2.954377219269840177e-02,1.661545591414220063e-02,9.219691157341003418e-01
-4.452809462952785902e-01,-4.327385021740023929e-01,5.166486118692072971e-01,5.309568886585227729e-03,-5.208133878505562774e-03,-1.442690626822207278e-02,9.561334848403930664e-01
-3.855368346257631584e-01,-4.182699668150951511e-01,5.581994313187635948e-01,-9.238323997815041377e-02,1.103431248864851499e-02,-1.454561891094891327e-02,9.742715358734130859e-01
-4.225560449152255815e-01,-4.156656912421007322e-01,5.275286820561476686e-01,-2.153108329123115325e-02,5.075146726226113097e-03,-1.542564105077167194e-02,9.478100538253784180e-01
-4.235292491495761258e-01,-4.273187923277648181e-01,5.438884628041884550e-01,-2.420772957916672227e-02,9.232815107856125192e-03,3.288445334867817066e-02,9.720264673233032227e-01
-4.383051529307894212e-01,-3.929100005248170047e-01,5.418204507211440424e-01,-5.148181007590874048e-02,-1.166343921276872956e-03,-1.378857708536621388e-02,9.626731276512145996e-01
-3.514081101966840537e-01,-4.380262033438642733e-01,5.351326598934090795e-01,-3.049069515391637092e-02,-8.846510511516627803e-03,4.487593735597802946e-03,9.345223307609558105e-01
-4.405609551712744154e-01,-4.388022714926753109e-01,5.406781532500857246e-01,-4.401676799609230591e-04,-3.980597563477819741e-03,1.870244060401307293e-03,9.803908467292785645e-01
-4.156817176012148618e-01,-3.494668135393447228e-01,5.224643907075212645e-01,-5.372279327145227518e-02,3.115406921928110494e-03,-1.427810908169901537e-03,9.116342067718505859e-01
-4.409172616509622333e-01,-4.065444734719674824e-01,5.302431726617398144e-01,-1.260511411687639804e-01,4.417845355559657516e-02,-4.851630166158399371e-02,9.856652617454528809e-01
-4.747370182712133957e-01,-3.938807631678586940e-01,5.417324254833651986e-01,-4.134033221490992713e-03,-2.458502052893093114e-03,-1.610586757086330048e-02,9.789829254150390625e-01
-4.257620237449633582e-01,-3.996265224299994090e-01,3.860073242608504929e-01,-7.660113645920662087e-04,-1.022726145487876277e-02,-5.200502771928457169e-02,8.042795658111572266e-01
-4.451750383493592866e-01,-4.561312542128777570e-01,5.341118598589555955e-01,-8.747761577261427626e-03,8.111387177952485497e-03,-9.178887908209172955e-03,9.851557612419128418e-01
-4.530016541337825720e-01,-4.463146035699021574e-01,5.276463360471881359e-01,-6.119747704878674560e-03,-5.181806961958408068e-04,-6.728813940989437567e-03,9.774489998817443848e-01
-4.377806304381430258e-01,-4.434396414077224069e-01,5.395980179670913923e-01,5.717997021518201987e-03,-1.743101646588339666e-03,-1.986259729432448759e-02,9.808785915374755859e-01
-4.696816935479642408e-01,-3.910030563711909823e-01,4.966981516720117007e-01,-9.615098647837708179e-02,2.294141497497257515e-02,-1.356861757306159627e-02,9.454697966575622559e-01
-4.249942240108067204e-01,-4.439640398228186791e-01,4.842452325653253675e-01,-2.414971444407153917e-02,-9.884818460898035092e-03,-2.842484684133147338e-02,9.212985634803771973e-01
-4.433184263033640438e-01,-3.662167517531130789e-01,4.584534125888447553e-01,-5.072563670618197851e-02,-3.448399276623577881e-04,-9.673935736460928525e-03,8.704075813293457031e-01
-4.267274414673123406e-01,-4.256843401669587190e-01,4.396472340723527328e-01,6.811781838072263756e-03,3.235622458435385290e-02,-2.815340478628451659e-02,8.691146373748779297e-01
-3.393019160080998908e-01,-4.958618762410458847e-01,5.310200972099912153e-01,-6.093952571411292117e-03,-9.594892390033063836e-03,-1.580394654464908205e-02,9.588357210159301758e-01
-2.635169421814780866e-01,-5.486897261827468064e-01,5.531779378058775398e-01,-4.728334531318600931e-02,1.616196046843466905e-02,8.996266257661303042e-03,9.944580197334289551e-01
-3.303799195132095523e-01,-4.954439623207433363e-01,5.628227598459180081e-01,-1.652948759272218279e-02,-1.422154617000767618e-02,3.226457666970434027e-03,9.868893027305603027e-01
-2.678253455130465421e-01,-5.303637989015715926e-01,5.620976762252016812e-01,-1.145301777990342593e-02,1.735320875781593344e-02,-1.368211083777267061e-03,9.883763790130615234e-01
-2.538961914196064540e-01,-5.234830480479825132e-01,5.571519884616941143e-01,8.735938864055273895e-03,2.407572583320554370e-03,-7.059157891678985788e-03,9.744331836700439453e-01
-3.432183891405652387e-01,-5.043299632481025307e-01,5.740474164741976582e-01,-2.027922823237495245e-03,1.029715426699358847e-03,-3.561540933751263134e-03,1.007556080818176270e+00
-4.633198409249915106e-01,-4.171554775705066942e-01,4.097286203889289879e-01,1.866763412301537459e-02,1.137560118788055186e-01,3.164295177022082711e-02,8.757348656654357910e-01
-2.929325641885054399e-01,-4.592911008411032503e-01,1.800922742565175261e-01,-3.114360435801629898e-02,8.378223558826046469e-02,3.059706301281120422e-02,5.974078178405761719e-01
-3.679204563587467613e-01,-4.467776778331821186e-01,3.998292694426630600e-01,-5.715668793642552856e-03,5.290913189590593091e-02,-2.333686685367689431e-02,8.162907958030700684e-01
-1.468165568151282296e-01,-7.999651114700911947e-01,7.623608829346588678e-01,-4.383098478044813312e-02,-1.695626010513160212e-02,1.523069171515551053e-03,1.361494660377502441e+00
-4.547344955981612036e-01,-4.118511313547743025e-01,5.566600443256459751e-01,3.416478799984103143e-02,-1.262005665996815927e-03,1.478464239497199280e-03,9.924207329750061035e-01
-4.768180389893025284e-01,-4.125573739326993672e-01,5.677969977154282422e-01,2.319309063119562309e-02,1.700361315793195473e-03,6.315514910571366075e-03,1.014871597290039062e+00
-4.513556070318309188e-01,-4.058233708212077295e-01,4.953000030402150422e-01,3.243207709946735462e-02,2.949870501597098155e-02,6.537674521651509751e-02,9.347272515296936035e-01
-4.350247603222124337e-01,-3.885015952940347184e-01,4.477499587667521652e-01,7.227394607414212857e-02,-2.026472358433523135e-02,3.167771955144645796e-02,8.719513416290283203e-01
-4.154576302684908073e-01,-4.142037242092296845e-01,5.824887132726226380e-01,1.572473125977175146e-01,1.042321705244163808e-02,1.650419600355158486e-02,1.034393787384033203e+00
-4.450995992278211077e-01,-4.124960547123444621e-01,5.634100550155213272e-01,4.438707516285696902e-02,1.880021730428699939e-02,1.192867648059630151e-02,9.963290691375732422e-01
-4.484832742955296991e-01,-3.175175761933310969e-01,4.958225758479544165e-01,8.401771154900684879e-02,5.173790388754831221e-04,-4.060544738940190419e-03,8.980094790458679199e-01
-2.598366700973064325e-01,-5.052293225537980437e-01,5.570781150436794338e-01,2.970862521235650283e-02,-9.534825031250684577e-03,-8.690725511454902574e-03,9.649763703346252441e-01
-4.584345162190363032e-01,-4.091830171503311186e-01,5.377933047796134014e-01,1.691253924827800653e-02,-2.152475026308399951e-03,1.112635038103377237e-02,9.731768965721130371e-01
-4.351519185831931869e-01,-4.398641444612035878e-01,5.204909175058676229e-01,6.480225155587155620e-04,3.227550673453758595e-02,1.577948678921118827e-02,9.600270986557006836e-01
-3.233116097643343179e-01,-4.433733289342606798e-01,5.261146581259666943e-01,7.329077861774763170e-02,1.225263272218224744e-02,-4.343604613917447302e-03,9.244160056114196777e-01
-4.572830920886298833e-01,-3.971597920127623027e-01,5.273430239394432117e-01,1.117809733372233764e-02,7.658592633564775820e-03,6.581518863831169533e-03,9.563394784927368164e-01
-4.398890231961238850e-01,-4.313915430215274349e-01,5.320983231283699100e-01,-2.050078029593964803e-04,8.572778648041443073e-03,5.097348016407609456e-03,9.679208397865295410e-01
-2.341438342432002329e-01,-5.275988634851970227e-01,6.510281271745024245e-01,7.738709310035893352e-02,6.690967380126606329e-03,3.564860920464692218e-02,1.072994112968444824e+00
-4.385369536250855460e-01,-4.317661882327040734e-01,5.270739236663777305e-01,-2.242600857953762805e-04,-4.935022700232162031e-03,6.587619753635675854e-03,9.623490571975708008e-01
-3.500083496138600148e-01,-4.672810089048566873e-01,5.695570728542532768e-01,-7.846359193229064666e-02,1.968343214062564031e-02,-1.297526876426055228e-02,9.936449527740478516e-01
-3.641000257491663339e-01,-4.214854062093877363e-01,5.585942332146137668e-01,-1.006802974386757782e-01,-2.853734203921406282e-02,2.080802207714372784e-02,9.704424738883972168e-01
-4.418659952730643048e-01,-4.429147623997953254e-01,5.524836958061187797e-01,4.394149235173747201e-04,6.227224209482774614e-04,-3.665820204077606132e-04,9.948755502700805664e-01
-3.884972233056747659e-01,-3.876651338046323558e-01,5.292288945364572728e-01,-3.055630558285774012e-02,-6.349205033346334934e-04,4.713225109040925301e-03,9.188727736473083496e-01
-3.859736241620536079e-01,-3.822634125226311297e-01,5.188626991032692093e-01,-3.509747080573497047e-02,1.260832568536912352e-03,-2.506659087626116923e-03,9.050439596176147461e-01
-3.775062693738674424e-01,-4.158855159021828118e-01,5.389249309466960236e-01,-4.245667610845460516e-02,-1.228166423259391057e-02,1.380765770238184462e-02,9.396399259567260742e-01
-4.114798075479563222e-01,-3.336212293037017496e-01,5.189150772176545079e-01,-6.727892097838231167e-02,-2.842105164060995844e-03,-1.457516867760740606e-04,9.015880823135375977e-01
-3.834156166040206259e-01,-4.012239956888589143e-01,5.241773573693180310e-01,-4.884887328864822437e-02,1.532874925111570724e-03,-1.640702327529927184e-03,9.205317497253417969e-01
-3.860363122266062819e-01,-3.603046316564882945e-01,5.229372667338169078e-01,-7.511114143452632397e-02,2.877807439059184864e-03,1.620212516709059435e-03,9.057943820953369141e-01
-4.234893582723006644e-01,-4.265828697115387480e-01,4.615851823452388203e-01,4.407789645080934481e-03,-7.356696156045155338e-03,9.098156615558216417e-04,8.867511749267578125e-01
-4.360484966097638582e-01,-4.295460752487268996e-01,5.128095374667566153e-01,2.985621345244904214e-03,6.462259386771375055e-03,8.828581473568830260e-03,9.458276033401489258e-01
-2.821677672024743844e-01,-5.217233648622681130e-01,5.552764124877842544e-01,-8.178726827725222442e-03,-5.181155478783056392e-03,6.640340486762466923e-03,9.796568751335144043e-01
-3.741250195670119960e-01,-4.860733561782328294e-01,5.629750957044994397e-01,-2.635346352511409862e-02,2.010083057963051381e-02,-3.405248854522549551e-03,9.994630217552185059e-01
-3.410870763862667299e-01,-4.690512534629076580e-01,5.285469232372880244e-01,-4.109203179209778602e-03,9.523097614732620175e-03,-1.454408953213617113e-03,9.403452277183532715e-01
-2.864008723793947664e-01,-4.885910602380997836e-01,5.333452442450417053e-01,-2.781765446721841048e-02,-2.394958911043074817e-02,1.110465760025005494e-02,9.396921396255493164e-01
-4.449483285306310987e-01,-4.032296685815012216e-01,5.242516899213104375e-01,-1.096906872890428437e-02,3.820407214840247645e-03,6.502824475456556869e-03,9.493086934089660645e-01
-4.347882692886790856e-01,-4.318681438635464387e-01,5.202921339907100595e-01,-4.683819039751426633e-03,9.216158649536024261e-04,-8.343842290761713069e-04,9.536606073379516602e-01
-4.392276215597574751e-01,-4.370589444670290313e-01,5.501882809343224823e-01,2.945933962602863710e-03,-1.595138832387464796e-03,6.771946422380655667e-03,9.884199500083923340e-01
-4.201309428636482157e-01,-3.923950766970296100e-01,5.292271953694348552e-01,-3.508770925618992509e-02,-6.426506374863635157e-03,7.821249493471090983e-03,9.379337430000305176e-01
-4.408328636456504968e-01,-4.373989286297433887e-01,5.514854775822349842e-01,2.060133878419822574e-03,5.216760919329504857e-03,1.018978680578702146e-02,9.908106923103332520e-01
-3.852410217295469952e-01,-4.621820566355064330e-01,5.597829767130970691e-01,-7.740834826530623713e-02,4.749178397196279072e-02,-2.011707525848647343e-04,9.982204437255859375e-01
-3.905294252628614959e-01,-4.441477587358773071e-01,5.309654111481776351e-01,-7.218268066123195714e-02,5.837653977009910414e-03,-3.097147816254768732e-02,9.591911435127258301e-01
-3.280652842341539865e-01,-4.707471395135193748e-01,5.601685608804152228e-01,-6.464428900509688880e-02,-9.110181016311601557e-03,2.840686045257342397e-03,9.740955829620361328e-01
-2.938433286970445479e-01,-4.879845332997538310e-01,5.587802311406315781e-01,-7.632231649795247208e-02,5.598518569097655530e-03,-4.685748817984036405e-03,9.735616445541381836e-01
-2.606542862036237418e-01,-4.991401033378806140e-01,5.763559590237923302e-01,6.841832287548768599e-02,1.906306266723082482e-02,1.482199255458260118e-02,9.863412976264953613e-01
-4.292051707643948499e-01,-4.109532350674556245e-01,5.438793216638211359e-01,-4.074911624951122607e-02,7.179509780354399739e-03,4.380177274808025149e-03,9.667779207229614258e-01
-4.544159553453433475e-01,-3.520476582516071651e-01,5.341409019840029915e-01,-4.269178572226207252e-02,-2.127154826422650649e-02,1.572703484736997018e-02,9.455655813217163086e-01
-3.612746813275316549e-01,-4.171849846945623885e-01,5.473057636195353126e-01,-6.006356013131721600e-02,-3.221933396215918843e-02,1.425810822479533710e-02,9.455106854438781738e-01
-4.432565979323616068e-01,-4.384736601842567083e-01,5.518069738860147400e-01,-1.449687011375197726e-03,5.153136925555123864e-04,2.159242553560820031e-03,9.926913380622863770e-01
-3.892210971522201968e-01,-4.137654594435552502e-01,5.303333968863942482e-01,-3.370948535300195836e-02,-5.289126567152200968e-03,2.911433908354007626e-03,9.339545369148254395e-01
-4.418262952004405886e-01,-4.149709919758683974e-01,5.277688081823045385e-01,-1.060155398468229718e-02,-1.734067129588109501e-03,-3.441504525566305150e-02,9.584865570068359375e-01
-4.355729867405003231e-01,-4.383196907485292226e-01,4.983968704611715372e-01,1.015936490550554613e-02,3.139915968147293304e-03,-1.037238629872342874e-02,9.357000589370727539e-01
-1.664817150096821741e-01,-5.266912303138207019e-01,6.008295178782090407e-01,1.348147235988961523e-01,7.614234946042913732e-02,5.314018248199695038e-02,1.036966681480407715e+00
-4.362023135743156033e-01,-4.435951722134712782e-01,5.407259273583978620e-01,-5.035921467492399453e-03,8.525198923624698749e-03,8.216656427123403619e-03,9.808987975120544434e-01
-4.272699897767532340e-01,-4.505966281789888783e-01,5.174967398783414385e-01,2.552357559024967699e-04,8.689253704696069808e-03,2.932820364024884608e-04,9.567620158195495605e-01
-4.631771043760176676e-01,-4.336037572749739111e-01,4.731720135583317166e-01,-6.948583191190506325e-02,7.761973965177726420e-02,-8.958849684913552935e-02,9.521401524543762207e-01
-4.523256343132022739e-01,-4.093139988110059413e-01,5.365721440037786172e-01,-9.529270926480919168e-03,-5.170802197579343028e-03,1.026944719740816546e-02,9.684543013572692871e-01
-4.442370765789450671e-01,-4.270284486117312261e-01,5.391576940081422853e-01,-7.040419025942383675e-03,1.038675949225220836e-02,1.816162572133754507e-03,9.751516580581665039e-01
-3.993740302903466266e-01,-4.695140605618707275e-01,4.233661242456274731e-01,-7.793715018227131974e-02,-8.629564183407684164e-02,-2.383124716578396973e-02,8.841918110847473145e-01
-3.767975479110621806e-01,-4.762390115973262894e-01,5.292499887514863222e-01,-4.358049827305244400e-02,-8.511094785769782872e-03,3.607336402289638977e-02,9.647426605224609375e-01
-3.856865525949706996e-01,-4.470963962870030950e-01,5.267605519676784587e-01,-6.952241670555946162e-02,2.948907313005730280e-02,4.337770540212633648e-03,9.536925554275512695e-01
-1.711029684794454497e-01,-6.713153902450825772e-01,6.597219234922532261e-01,-1.937625339178477950e-03,1.275604801309756509e-01,3.812590090161841611e-02,1.187121868133544922e+00
-2.760174726688257030e-01,-5.121951491743285123e-01,6.114934004736140016e-01,-1.322113784727868002e-01,3.993555034813320997e-02,-3.744750424729895860e-02,1.055697321891784668e+00
-2.590132508614371165e-01,-6.434840902172214161e-01,8.460792826289298407e-01,-2.531549434682609512e-01,-1.416152187318156161e-02,-4.969311655245029803e-03,1.409560680389404297e+00
-2.106568373137952532e-01,-6.403328183280251329e-01,6.234411628103990743e-01,-2.695704322467066261e-01,4.713276749008067645e-02,-4.410077702618765000e-02,1.212120652198791504e+00
-1.697360380472101027e-01,-6.226981225353644955e-01,3.836540560920718157e-01,-8.198358233005804963e-02,2.921883249810615368e-02,-1.109123988069809774e-01,9.064821004867553711e-01
-2.441641082355381354e-01,-5.021759849553544264e-01,4.970127796224942385e-01,-1.440290419734951977e-01,4.644258256794887851e-02,-4.973801711949613069e-02,9.398250579833984375e-01
-1.977229281529575278e-01,-5.575767802272980633e-01,5.285592084092104459e-01,-1.097643258708288494e-01,5.069544633075249388e-04,1.282370192858032186e-02,9.772280454635620117e-01
-2.606511546143883695e-01,-5.058444038683599375e-01,5.838521727076989576e-01,-2.241759677138360218e-01,1.212421541966047789e-01,-5.405729597596957425e-02,1.088118672370910645e+00
-4.228220601902720199e-01,-4.065089883840392049e-01,5.201544751813130807e-01,4.119996613609779729e-02,1.533878685657696223e-02,1.081568659125966940e-02,9.382095336914062500e-01
-4.365092532374342249e-01,-4.299062608853846945e-01,5.211594469604272639e-01,-2.001299493888907856e-03,-1.874429979367581330e-03,5.490369766998954952e-03,9.544435143470764160e-01
-4.207675496637464652e-01,-4.074879902855587099e-01,4.747729322409579567e-01,2.967567528266288474e-02,3.311453698291273035e-02,6.621233724379918528e-02,8.996447324752807617e-01
-4.396729090780762683e-01,-4.330890393206306976e-01,4.898242940503859666e-01,-4.032319694513021233e-03,-1.948759383377936163e-03,5.177196866951829998e-03,9.262986779212951660e-01
-4.323206424050326513e-01,-4.284732986747665229e-01,5.039491881805989726e-01,-2.343704120640206431e-03,1.427202416158756355e-03,1.028126186595926597e-02,9.345338940620422363e-01
-4.306948851758712893e-01,-4.452209518456770598e-01,5.107785381915831424e-01,-2.809923493184337748e-03,1.303232405865233654e-03,1.187012984379930483e-02,9.490577578544616699e-01
-4.427882916242554812e-01,-4.399472359156491597e-01,5.529591377577570688e-01,1.978902151817505013e-03,7.242426495677973869e-05,1.419833016003258083e-03,9.943389296531677246e-01
-4.325206803807395972e-01,-3.999506211422086399e-01,5.152966137770166322e-01,2.492494279911068242e-02,1.048827068937520542e-02,1.553420554616307195e-02,9.335232377052307129e-01
-4.467890613721900439e-01,-4.080964478230588721e-01,5.372272501826532709e-01,-8.300515507105074575e-03,-3.208618747351639662e-03,-1.299090226061182934e-02,9.656370878219604492e-01
-4.565550877494523041e-01,-4.291897500703893975e-01,5.373136055468590300e-01,1.054326332818998971e-02,-4.114145418609710739e-03,2.048020521385070583e-02,9.813097715377807617e-01
-4.342655450752258006e-01,-4.508204804499700291e-01,5.348074869183481184e-01,2.570438829751810639e-03,1.215272808002545177e-03,-2.048347050491649331e-03,9.774745106697082520e-01
-3.610375655447952137e-01,-5.374941127729309098e-01,5.846475408798345041e-01,2.406043241279113773e-02,-3.842704499276634184e-02,-2.905659723699968548e-03,1.048103809356689453e+00
-3.667273572402137138e-01,-3.960069974810412896e-01,5.294729920744107865e-01,-6.034069042625203605e-02,-2.062692629568474781e-02,1.602932846466890993e-02,9.182826280593872070e-01
-3.551830144813602486e-01,-4.634304331653147924e-01,5.587913365570508217e-01,-5.382124297094493387e-02,7.756182729302283849e-03,-1.903625646153193907e-02,9.777319431304931641e-01
-3.507358702181220811e-01,-3.787795405918750746e-01,5.333624644166499174e-01,-1.332487910121318564e-01,-9.522101106814354066e-03,5.033968896923389502e-03,9.278057217597961426e-01
-4.427072421681402803e-01,-4.372640134626447628e-01,5.450548557406020844e-01,5.074651093447729491e-05,-6.110023637659352637e-04,6.447537470668583681e-03,9.851156473159790039e-01
-3.930149770385509833e-01,-4.569836552458373946e-01,5.656079862253815538e-01,-4.641640541449574414e-02,-9.874452142660954806e-03,4.877664889736669195e-03,9.955898523330688477e-01
-3.300350771299737085e-01,-4.093439990279842955e-01,5.206064156956646816e-01,-7.294077218561209608e-02,-1.156493810563373774e-03,-7.798031326669650071e-04,9.018377065658569336e-01
-4.331938973577534324e-01,-4.060844419953806850e-01,5.638907130489611008e-01,-6.366324272057731493e-02,1.705007030801512433e-02,-2.080311216183342027e-02,9.910659193992614746e-01
-4.333157276126957114e-01,-4.296411034018254860e-01,5.157530176801967681e-01,-5.842190439066504218e-03,3.922602813686237172e-03,2.047587821995975645e-03,9.473218321800231934e-01
-3.451601213127806211e-01,-4.377328014087648600e-01,5.966374295675289652e-01,-1.099798861796865562e-01,-4.237025108182774537e-03,-2.209337516085578806e-03,1.009500980377197266e+00
-4.423117442437937696e-01,-4.391397855821635443e-01,5.511987793564108173e-01,9.910404234488294929e-04,3.710009102446186848e-04,2.153463739321018894e-03,9.919370412826538086e-01
-4.363580727263480230e-01,-4.447306565121157407e-01,5.326666764631335926e-01,-2.337586888822982406e-02,3.795331161784924745e-03,7.518481069246525650e-03,9.741891026496887207e-01
-3.727024859869312867e-01,-4.605979658651591646e-01,5.946792368660037686e-01,-4.959587862359617766e-02,1.730086988249460861e-02,-5.196812695474059551e-02,1.022233247756958008e+00
-3.827980695784004017e-01,-4.821325197814523289e-01,5.277368084163129858e-01,-8.302673975549946378e-03,-9.506973153317891528e-03,4.648639538405162017e-03,9.643294811248779297e-01
-3.508823787390550897e-01,-4.438171694881032359e-01,4.496942997741174564e-01,-6.009791080395638502e-02,3.247833197996013305e-02,-1.713153605442558139e-02,8.595589399337768555e-01
-3.409490602938059500e-01,-4.836919531907220016e-01,4.524837211733536702e-01,-3.108573223469026509e-02,2.793403495158479355e-02,1.361057645436505870e-02,8.769057393074035645e-01
-4.250193456444265050e-01,-4.206072366599457046e-01,4.491240109246400491e-01,3.842935801022545617e-03,4.274213831106238315e-02,-1.162607448797387845e-02,8.753398060798645020e-01
-4.527509594818630023e-01,-4.698362189245620657e-01,4.985384703314788002e-01,-1.950725588872421687e-02,2.696521960211237939e-02,5.794817351427433011e-03,9.617277383804321289e-01
-3.508943840545264425e-01,-4.726830184987004801e-01,4.337720394027533288e-01,-1.034478262685428925e-02,-3.912190537209028762e-02,1.104462009310851721e-02,8.552051782608032227e-01
-5.028480821186613881e-01,-2.040069452897695923e-01,4.712262592089392355e-01,-1.217447309808647876e-01,1.465891122705638080e-02,-4.095768054209208975e-02,8.928471207618713379e-01
-5.478343930333768874e-01,-2.480545926531900758e-01,6.349733050273660417e-01,-1.586640037071498227e-02,4.589905937621485688e-03,-1.934186580514441617e-02,1.065955400466918945e+00
-5.514528416348866147e-01,-2.565729243571940876e-01,6.409983069534308520e-01,-3.699868598925567381e-02,-2.691332608516208702e-02,-2.573680396945623311e-02,1.079597592353820801e+00
-4.923437803901219434e-01,-3.270981100048144241e-01,5.591963618962522142e-01,-4.586690229833562116e-02,1.299755013098161799e-02,-3.229732637089840347e-02,9.844936728477478027e-01
-5.164031091558018982e-01,-2.713943519542014182e-01,6.077873443840217105e-01,-8.015165963065148946e-02,4.129415689836835740e-02,-1.268102252006093889e-02,1.035986423492431641e+00
-5.473126684192020086e-01,-2.160854527811271186e-01,5.501497730322654212e-01,-6.806423142514669844e-02,6.725005328304476532e-03,2.070672531297890195e-03,9.821774959564208984e-01
-5.587670041321499692e-01,-2.688320323363597719e-01,5.814977870633022405e-01,-5.906483270459682994e-02,-2.601038956050012035e-02,2.323430140010773748e-02,1.033333659172058105e+00
-5.080632071175519293e-01,-2.791380146052569455e-01,5.499344933488806708e-01,-2.571559132366514969e-02,1.233457796156120154e-02,-1.913943334265681001e-02,9.659724831581115723e-01
-5.022977524609776312e-01,-2.553232822844072047e-01,5.032490640923652503e-01,-8.767966190974080254e-02,3.932291710528523776e-02,-3.389563212050365933e-04,9.227560758590698242e-01
-4.439705100473229638e-01,-4.382224844766906546e-01,5.238327755031186861e-01,7.785304047430811718e-03,7.658998506169306317e-04,-2.618899682851941191e-02,9.661027193069458008e-01
-3.587365271232122454e-01,-4.299738604813264642e-01,5.319016619161538451e-01,-1.219745039029900176e-02,1.202606027883828220e-02,-7.852690926044644457e-03,9.288826584815979004e-01
-3.795990753915867710e-01,-4.324884440366606464e-01,5.394450291367639538e-01,-3.021067103379714361e-02,5.675478767706007566e-03,-9.099337222786085463e-03,9.482247233390808105e-01
-3.722290844712908831e-01,-4.500407659691172402e-01,5.535827891421069014e-01,-3.108305566193986930e-02,1.230207777357994817e-02,-2.218746017985531033e-02,9.695620536804199219e-01
-3.377087888506371538e-01,-4.554456662911965936e-01,5.335149158628670341e-01,-1.468986809375856691e-02,5.965386836811617868e-03,-5.809173429918836583e-03,9.361214041709899902e-01
-3.743420939764276478e-01,-4.521046080265819778e-01,5.400492020011712357e-01,-1.084667895864861210e-02,1.272745908525775571e-02,-6.556996729141843089e-03,9.561546444892883301e-01
-4.378786499801100573e-01,-3.993535653669046392e-01,5.544740369866557606e-01,-4.840584717264501124e-02,1.780697725491016143e-03,-9.307034756734383976e-03,9.774028658866882324e-01
-4.641333658163798725e-01,-4.090554779765715465e-01,5.714523222752618814e-01,4.344301803525738026e-02,-1.481985422508678117e-03,1.821288317058197825e-02,1.012470722198486328e+00
-4.153599499398594186e-01,-3.665327564833552043e-01,5.366132319050567201e-01,4.852042173361387212e-02,-9.382917707561099288e-04,-2.158752227911908857e-03,9.323272705078125000e-01
-4.214312108382555766e-01,-3.919884014163850239e-01,5.571616409783659574e-01,1.131315440190845539e-01,-6.332290493700151041e-03,-4.143325482316165959e-02,9.865926504135131836e-01
-4.386074382426229934e-01,-4.400945860857093384e-01,5.699598040268530896e-01,2.988049328023459350e-02,-9.463752057138381454e-03,-1.399296630188654952e-02,1.011061072349548340e+00
-4.445922901521199844e-01,-3.734907891317977291e-01,5.477906801362650846e-01,2.979806385390135898e-02,-8.797273776644297036e-03,-2.289547554182855271e-02,9.611389040946960449e-01
-4.248790033875614602e-01,-3.256812758325771662e-01,5.714227730330039279e-01,1.396797723861319396e-01,3.668340019981226885e-02,3.703706820350100015e-02,9.850432276725769043e-01
-4.016876592371718124e-01,-4.179519690745161498e-01,3.812741163966814062e-01,9.044435712056318397e-03,1.943898727339337870e-02,6.490779030442620987e-03,7.921700477600097656e-01
-4.091936701067380167e-01,-4.018246127924944844e-01,3.208547007475643920e-01,9.084480273998898903e-03,6.150290171790001592e-02,2.143276213077701872e-02,7.352677583694458008e-01
-4.616763695161118508e-01,-4.148608152693884499e-01,4.041682210753708704e-01,-1.121102295730509041e-02,1.973393946606011307e-02,5.414569940119504966e-03,8.443795442581176758e-01
-4.455905324635320852e-01,-4.265403772635381618e-01,4.804575098081763640e-01,-4.110933517610262586e-03,3.964964475772279201e-02,4.403647159102577757e-02,9.224267601966857910e-01
-4.280759936915509156e-01,-4.138113237064054983e-01,3.906406390351134794e-01,-1.736921799657321214e-02,1.519697342432978215e-02,-2.997833859208881221e-03,8.126786351203918457e-01
-4.235427346128387560e-01,-4.363830406074595825e-01,5.398516290335202417e-01,-1.438102373276606283e-02,-1.209806751742501657e-02,6.285155874573420580e-04,9.704249501228332520e-01
-3.348049150969732990e-01,-5.090256257456802214e-01,5.142880074007566416e-01,8.477549906333725627e-02,-1.865388710253005223e-03,-3.235753608491817590e-02,9.612249135971069336e-01
-4.140063199163663832e-01,-4.262278040342266094e-01,3.800328217133589481e-01,3.880878126531737710e-03,7.175585758261013303e-02,1.261750803806284621e-03,8.098447322845458984e-01
-3.994235004430794489e-01,-4.337498340339622227e-01,3.936605543814948316e-01,1.035413852026267033e-02,1.681966384315429497e-02,7.432090686407219829e-03,8.116158843040466309e-01
-3.872825801990187333e-01,-3.938080280739186811e-01,2.575439242705268583e-01,5.304248671476931472e-03,-1.921538535689241295e-02,-3.553851600407471195e-02,6.519452929496765137e-01
-4.205633485004001693e-01,-4.256871624642385998e-01,3.982607434491155507e-01,-7.068448475751514318e-03,-4.643291200791796469e-02,-6.213140326587235363e-02,8.324022293090820312e-01
-3.875612240275109199e-01,-4.290079699258427803e-01,4.156427392916172137e-01,3.057503911522501880e-02,-5.095887911537856640e-02,-1.924438149915062499e-02,8.317755460739135742e-01
-3.481731388132524585e-01,-4.567214690798576116e-01,4.543577641077459761e-01,-2.167446617050347926e-02,-2.250421538884182088e-02,6.902282442954916705e-03,8.637265563011169434e-01
-4.380623056001749505e-01,-4.393006674910923115e-01,5.527924032178023195e-01,2.022134688617741906e-03,-3.545708866002862149e-03,-5.066978086539717643e-04,9.915000796318054199e-01
-4.325449782956865552e-01,-4.411559475267695651e-01,5.419165412204639543e-01,8.963597528114722324e-04,-5.938827714139495624e-03,7.336426232002297640e-03,9.789331555366516113e-01
-4.122187428101457551e-01,-4.333867095285537374e-01,5.365423312939530121e-01,-3.050211183019248956e-02,1.405653413030917565e-02,-1.184922372236623354e-02,9.615009427070617676e-01
-3.386160843929145736e-01,-4.605436234058157829e-01,5.484698305343184144e-01,-4.040552213479453592e-02,1.382438193452061731e-02,-7.993260437581499109e-03,9.568755030632019043e-01
-3.405672828132727536e-01,-5.167688337938295406e-01,6.332423521630267116e-01,-1.021685488268645053e-01,-4.402610676935141132e-03,1.790282555463487951e-03,1.087346315383911133e+00
-3.138720801760853663e-01,-5.743400276242233149e-01,6.361051150091586726e-01,4.308132674593100758e-02,-1.812315506781733004e-02,5.834761374995290836e-03,1.106523513793945312e+00
-2.969614852015242668e-01,-5.677157188029499091e-01,6.253657360299909040e-01,-5.792988182189967757e-03,2.457545329848381810e-02,-2.752618231803563575e-02,1.085313320159912109e+00
-4.362332349891614447e-01,-4.540593232535046209e-01,5.240720056530641102e-01,4.185808925165726210e-03,-1.531717827224800266e-02,-1.267647750800485196e-02,9.699798226356506348e-01
-4.286550528252212611e-01,-4.794251223889995916e-01,5.285351179692929779e-01,-7.775824835394747926e-03,-2.263985379985922544e-02,-4.615537061518219623e-03,9.844644069671630859e-01
-3.707162254304593452e-01,-4.876317545611248416e-01,5.493274639270210313e-01,-1.464635684675355846e-03,-2.784917028523888755e-02,1.185625082828304505e-02,9.851253032684326172e-01
-3.689730746142205198e-01,-5.166029197865632527e-01,5.084591125455166782e-01,-6.410174641591021016e-02,-9.778334959692385961e-03,-8.084379904707403655e-03,9.664507508277893066e-01
-3.178004059602707043e-01,-4.744003554957666458e-01,5.898935018685713683e-01,6.603968050143532720e-02,-3.377782651962164817e-02,-3.743588873915484894e-02,1.005627870559692383e+00
-3.618305763507296824e-01,-4.555188383758133619e-01,4.775157364492268464e-01,4.625145794815707645e-02,1.030516114806545591e-02,-7.952839907460080779e-03,8.937799334526062012e-01
-3.451770595197789504e-01,-5.486717565937864194e-01,4.902548743279855348e-01,2.291656687670731718e-02,1.341638802895038854e-02,5.837953468050072203e-02,9.600534439086914062e-01
-4.382508499152900083e-01,-4.264527209256260276e-01,4.618314040515274499e-01,8.167817353682445269e-03,6.304441635508177544e-02,3.911936752958906915e-02,9.035390615463256836e-01
-4.545792021781157044e-01,-4.093600005422957100e-01,5.431288393164185324e-01,2.940419627473817021e-02,6.917013652610003865e-03,2.977172979093337113e-02,9.786455035209655762e-01
-3.651633965369375234e-01,-4.722198676282011731e-01,4.405996232512623401e-01,1.358858492578256943e-02,6.657535001372200112e-02,-1.107325028350393710e-02,8.724654316902160645e-01
-4.275892237126916462e-01,-4.613387432805997057e-01,4.216926056041979676e-01,-2.024653774861806532e-02,5.732506859722687198e-02,2.699017717133212618e-02,8.742740750312805176e-01
-4.209074539259723413e-01,-4.335747539884371449e-01,5.456061268325080871e-01,-1.050981010965700707e-02,9.925387344284920810e-03,-1.140808834661926133e-02,9.734317660331726074e-01
-4.078953182037821090e-01,-4.116938554752097579e-01,5.364028825105263687e-01,-1.095130686818366998e-02,3.421425856615999128e-03,4.848626580241007780e-04,9.464122056961059570e-01
-4.257856474342929798e-01,-4.203813860006654357e-01,5.328750907917103596e-01,-2.767711754492605675e-02,-3.930045792404466762e-03,-1.308448342470604903e-02,9.574637413024902344e-01
-4.328722922487760472e-01,-4.149109031787985846e-01,5.432892721539197556e-01,-1.550376769633636347e-02,1.030547924081620659e-02,-1.051520111855909489e-02,9.680145978927612305e-01
-3.921446029661914690e-01,-4.288574871716695491e-01,5.375093629896778857e-01,-3.151388116819787977e-02,-4.725684450204188126e-03,2.564320661488916301e-03,9.501582384109497070e-01
-4.413232874143060425e-01,-4.416156844066443932e-01,4.818949976044534234e-01,3.631449141624370786e-03,-6.583280788588294005e-03,2.658171454100102110e-02,9.246033430099487305e-01
-4.673046548131250533e-01,-4.320862763382967153e-01,4.723541703441892503e-01,-4.894443749496569379e-02,-5.821269783221501987e-03,8.667380560556200986e-03,9.266172051429748535e-01
-4.327065927702526960e-01,-4.273649020066332405e-01,4.222552437851249119e-01,-3.632414663820018527e-05,-6.417401653475043877e-02,6.229443789055742753e-02,8.662667274475097656e-01
-4.109135808474424501e-01,-4.209428379675555498e-01,3.867231358985001588e-01,1.049195885473884135e-02,-3.154056543299829651e-02,7.158566518528156064e-02,8.142560124397277832e-01
-4.411080215350879352e-01,-4.234449002123265027e-01,3.585952916108738897e-01,2.567923754677848072e-02,-2.333087134370442212e-02,-4.138916591770671824e-03,7.933314442634582520e-01
-4.502053285717939612e-01,-4.342617031677441508e-01,4.775141883379567798e-01,-4.121439214733194079e-03,-6.157791348581158342e-02,1.339343396458257326e-02,9.263320565223693848e-01
-4.171886747238079951e-01,-4.296964769174429488e-01,4.767218327542058764e-01,-1.481535155298144453e-02,-4.371694482249329199e-04,4.995395882122687960e-03,9.006370902061462402e-01
-4.351076900979330420e-01,-4.579881937397114466e-01,4.734628446739798102e-01,-4.118198521630107162e-03,-3.952965585368547335e-02,-1.444486794908762806e-02,9.231343865394592285e-01
-4.153678435238423727e-01,-4.258147898805346165e-01,4.411646811661392720e-01,-5.201394510697735646e-02,-6.469332518587390946e-02,1.748493867232646382e-02,8.742393851280212402e-01
-4.506011684412652429e-01,-4.299928605346903798e-01,4.661797824993684225e-01,1.295680501915822715e-03,-2.004179901865814351e-02,4.179901899147000360e-02,9.102033972740173340e-01
-4.359194287668798351e-01,-4.642563782802326955e-01,5.155380016823425393e-01,-1.012819490455444532e-02,-6.594295891659829323e-02,2.661030018184715878e-02,9.739163517951965332e-01
-4.337444407044757089e-01,-4.288352573150083780e-01,5.439829893471371802e-01,1.831462320160471332e-04,3.469375513330812122e-03,1.835511173627383478e-03,9.753058552742004395e-01
-4.003326029312864187e-01,-4.932686768040462910e-01,5.314807613876376680e-01,-7.822730818831974409e-02,-4.440386681955889314e-02,1.527453729252561607e-02,9.942262768745422363e-01
-4.277654575263253878e-01,-4.172347178713505800e-01,4.455336693815729054e-01,-4.972826075919740269e-02,-5.530408676825079861e-02,5.399013564975692347e-03,8.776375055313110352e-01
-4.267329115125527705e-01,-2.990630574958608179e-01,5.309922034376868272e-01,-1.061526341720119976e-01,-6.902779889594244352e-04,-3.408037469700340300e-03,9.192963242530822754e-01
-4.562295772612419698e-01,-3.298794971106362994e-01,5.519866229144163583e-01,-2.991851112968459819e-02,6.569440430275593976e-03,6.752351547900922735e-03,9.529048800468444824e-01
-5.356817878630429908e-01,-2.775788811713723048e-01,6.274092918305296251e-01,-1.162363526764290250e-01,-3.394302561404155885e-03,1.460769212794863284e-02,1.077222466468811035e+00
-4.837201325286272779e-01,-3.177749886402870261e-01,5.544803577319952215e-01,-1.497117418207632306e-02,-3.714499520704280487e-03,1.274650811355138372e-02,9.665997028350830078e-01
-5.111430658647373448e-01,-2.935592724674887521e-01,5.557668752652649147e-01,-2.560786782911600099e-02,-3.287141683130984440e-03,1.061664695151237972e-02,9.776681661605834961e-01
-4.979551740606615318e-01,-2.295491569506534768e-01,5.278080841436098014e-01,-6.721049474343020191e-02,-9.377055646594667157e-03,1.114849332580586903e-02,9.290314316749572754e-01
-5.377018750267867908e-01,-2.461348262953309551e-01,6.122904698725392114e-01,-6.778270474036997284e-02,2.256626973176313264e-03,-2.014900721042927126e-02,1.042693853378295898e+00
-4.290199174172142360e-01,-4.327113010350467359e-01,4.736638562142183595e-01,2.370551478710904506e-03,2.628648889561467639e-02,-2.037553505674797802e-02,9.063768982887268066e-01
-4.333695702642977876e-01,-4.357424515466319925e-01,4.688463236263424871e-01,-9.006722904098818372e-04,-3.114166515181358841e-02,-1.536110967629604820e-02,9.054058194160461426e-01
-4.303499099333465416e-01,-4.383013679533209195e-01,5.069687819261622375e-01,5.224488975346057613e-03,1.939894360766941314e-02,-1.869987718248366723e-02,9.425192475318908691e-01
-3.920490466987636147e-01,-4.161995465385385229e-01,5.425742283187886539e-01,-3.860115957362685729e-02,1.505504844555466534e-03,4.142279252126286442e-03,9.493176341056823730e-01
-4.289287831532684891e-01,-4.049129406687025923e-01,4.860094300815831492e-01,3.057003819978702450e-02,-2.683213479568107018e-02,-2.584324785080471809e-02,9.070186018943786621e-01
-4.457914577182579552e-01,-4.262273751742928773e-01,5.301381313997869382e-01,2.665955888468967035e-03,4.430661742963499551e-03,6.160223209475949868e-03,9.663965106010437012e-01
-4.327155764255362635e-01,-4.350684145522782931e-01,5.516269716264161627e-01,2.370981541254374523e-03,-1.988658614375104963e-03,3.247240250797104634e-03,9.855517148971557617e-01
-4.592632102776528225e-01,-3.883324445828622018e-01,5.114150886397907936e-01,3.770461603381109958e-03,1.850566228241199481e-03,-5.978976859447781601e-03,9.373135566711425781e-01
-4.606673761398267231e-01,-3.730685088533297611e-01,4.488861054137389672e-01,1.457487838496891383e-02,-3.353225836257744952e-02,-1.061396051589414552e-02,8.715696930885314941e-01
-4.413178595898760159e-01,-4.301348860788167250e-01,5.143120966200585009e-01,-1.728593674553988244e-04,-1.281395817858066053e-03,-1.564918526547596361e-02,9.504770636558532715e-01
-4.058314567556383090e-01,-4.108699447970482477e-01,5.336176667374182836e-01,2.020526585178773760e-02,3.121941600355874862e-03,6.214171302023282356e-03,9.427053332328796387e-01
-4.232596608269317273e-01,-4.426463358159813954e-01,5.448123952537836656e-01,5.321874395153131879e-04,-2.282211952418784166e-03,3.032243454306069765e-03,9.779320359230041504e-01
-4.015606706835793127e-01,-4.242797857012226004e-01,5.384882586069911214e-01,3.232960759628783487e-02,-6.427641897586891528e-03,-9.021930108499349316e-03,9.534510970115661621e-01
-4.066248778398126595e-01,-3.446392713659319762e-01,5.201258869838333299e-01,6.576440312477016548e-02,-1.308216363831325594e-03,-5.387604748201708753e-03,9.046165347099304199e-01
-4.211612502106126255e-01,-4.053913319341230226e-01,5.372909858511522030e-01,2.453615650762007785e-02,3.703004532582462698e-03,1.994840930833195140e-03,9.516426920890808105e-01
-4.391643477175190546e-01,-3.151044226800468473e-01,5.749197853080159071e-01,1.481005256591329255e-01,-2.446719303963192094e-02,-3.511160827446250382e-02,9.946084618568420410e-01
-4.349284995678475152e-01,-2.886072165897496378e-01,6.392253086053905076e-01,2.286473102246790179e-01,-2.692631169501570609e-02,-3.085389633888674377e-02,1.086238741874694824e+00
-3.374382334104420456e-01,-4.462609828115144395e-01,5.677521922362671614e-01,6.639198867581014296e-02,6.715665882189435221e-03,6.790670233908734782e-03,9.711924195289611816e-01
-3.768238247597140989e-01,-4.036059441260329006e-01,5.253855832356694178e-01,2.663534665492926085e-02,1.642982940390221025e-02,1.570413764352324507e-02,9.178998470306396484e-01
-4.273922195913071320e-01,-4.101200882833706540e-01,5.285064992448808008e-01,-1.884738377879034699e-02,-8.787085633955705674e-03,1.104308913110470421e-02,9.482581019401550293e-01
-3.455731630135172594e-01,-3.995286367285747486e-01,5.247081852018591341e-01,7.568632696604216115e-02,-6.440905020788850266e-04,-2.942854948445723824e-03,9.080031514167785645e-01
-3.474182388418278755e-01,-4.913197362199706042e-01,5.871921828928535758e-01,9.570921428390750940e-02,5.424001090826549749e-03,1.114341587550005466e-02,1.027928829193115234e+00
-4.452684817927365923e-01,-4.364741962255154761e-01,5.387254772392169322e-01,1.671875558132664835e-03,2.730940969637388888e-03,3.131785076253862377e-03,9.796571135520935059e-01
-4.294217512573139106e-01,-4.036650197193553669e-01,4.033652856591697367e-01,6.326947009729582891e-03,-4.149987532042595517e-02,7.114967796563714114e-03,8.235207796096801758e-01
-4.234461950840042732e-01,-4.359815691361577095e-01,5.289489786426222473e-01,-8.741039240478448713e-03,8.002692890087514596e-03,-3.417918477263115137e-03,9.589623212814331055e-01
-4.250421013174497942e-01,-4.385395343141268443e-01,4.865302060937068962e-01,1.543468301312615233e-02,7.475526821062079136e-03,2.927347315736544137e-02,9.202734827995300293e-01
-4.468451993356670204e-01,-4.418445301682275561e-01,4.681844858610634263e-01,7.208426738910474890e-03,-9.837723272370919869e-02,1.356119951722619885e-02,9.286928772926330566e-01
-3.917131649512520242e-01,-4.055842221845670226e-01,3.118174299813359918e-01,-1.924037339461479035e-02,-1.001259265879375811e-02,2.656958284985286300e-02,7.130466699600219727e-01
-3.325499988267967555e-01,-5.395517198811243809e-01,5.039416192993623200e-01,-2.904815147283546298e-02,-5.471884643393563029e-03,-2.110499287703701890e-02,9.589998126029968262e-01
-4.358962290284633112e-01,-4.476812533659321747e-01,5.303486771219529938e-01,-3.413815820524970183e-03,-1.373730055322990029e-02,-7.535553009624683385e-03,9.725876450538635254e-01
-4.432041248131318723e-01,-4.476149134781747807e-01,4.897747810087906828e-01,1.190589662711598329e-02,-4.916807432468382061e-02,2.163507062769054121e-02,9.400352239608764648e-01
-7.599124494150836240e-01,-2.973170127086751657e-01,5.302272513235467555e-01,5.939060033483835321e-02,2.048868579125921394e-02,-1.101341649601402829e-02,1.137474060058593750e+00
-4.414570390410013645e-01,-4.285757407850064871e-01,4.067781782930917078e-01,2.731993045053030325e-02,1.365905848525257246e-02,-9.522462007402064665e-02,8.595024943351745605e-01
-4.336336685778003908e-01,-4.303040141465283575e-01,4.560464312072439741e-01,3.955990408527351211e-03,3.165630492041197203e-02,-4.026050896442548432e-02,8.924659490585327148e-01
-4.553071166999360653e-01,-3.846469425091605387e-01,4.460940280754548404e-01,-3.843982932398343905e-02,-1.814975898557451978e-02,-3.217976073671105497e-02,8.731274008750915527e-01
-4.684799705009786708e-01,-4.180621972351253324e-01,5.040644053952817449e-01,-1.548914808456550857e-02,-9.276887416235089084e-03,-8.332371213338922444e-02,9.597694873809814453e-01
-4.158516938446741307e-01,-4.154612451946510521e-01,3.684959327143310093e-01,-1.840806589047841706e-03,3.635357854094947716e-02,-6.926840694330806125e-02,7.957791090011596680e-01
-3.743412222263782230e-01,-3.291610841887505079e-01,5.924324723553121563e-01,-2.736115353469276146e-01,-1.412306932515337496e-02,2.330427452866053184e-02,1.058220744132995605e+00
-3.277900176772367002e-01,-4.154533405061293649e-01,8.209521626941782557e-01,-2.219235152084314822e-01,3.096286502933581070e-02,-2.282707198018723432e-02,1.257054328918457031e+00
-5.302432446291955870e-01,-3.739292485730196791e-01,6.532888185559146965e-01,-1.219980626655292888e-01,-1.244273838311915278e-02,2.397009750818147183e-02,1.134468317031860352e+00
-4.302202664065671867e-01,-3.961605908331363723e-01,6.279231681153071287e-01,-1.700804429932969986e-01,-1.687980814219967873e-03,-9.249885534216458188e-04,1.082395792007446289e+00
-3.496068824526199492e-01,-4.412004153677669405e-01,5.494273867501110464e-01,-6.447048320888455752e-02,-3.265068137762213579e-02,2.304274450939491209e-02,9.572137594223022461e-01
-4.035323193189480073e-01,-4.618563125117349233e-01,5.663174537174686662e-01,-9.004197106384753679e-03,-4.287911554536461391e-04,5.833371084706079346e-03,1.000460743904113770e+00
-3.535785895602182594e-01,-3.899857245964746255e-01,6.015131898575852842e-01,-1.257868380419508436e-01,-1.042283257669390610e-02,-7.828576818703490703e-03,9.981356263160705566e-01
-4.233868519847853173e-01,-4.425221946302863585e-01,4.689956831802839510e-01,-2.783005532804873859e-03,-2.976282846117524910e-04,-2.790290431987914321e-02,9.034091234207153320e-01
-3.988151077783518295e-01,-4.099727208601360862e-01,3.277259124316463934e-01,-1.662271747522893472e-02,-4.243752215426156715e-02,-7.027609624413487521e-02,7.464186549186706543e-01
-3.819317163275914861e-01,-3.816841268248837293e-01,2.594018550255922095e-01,-1.218730478687773131e-03,-1.696497017082273726e-02,-2.454801752074646862e-02,6.432929039001464844e-01
-4.379242539208612617e-01,-4.277600802300065563e-01,4.953894023882995379e-01,-1.564863195014974109e-03,-9.747538844106216384e-04,-2.582121954567257599e-02,9.293555617332458496e-01
-4.250100119096201223e-01,-4.395582894649127104e-01,5.360532972617392256e-01,3.690020813407952210e-02,1.470846354747729068e-02,3.990095586645802175e-03,9.708850383758544922e-01
-4.245641547581209818e-01,-3.951659314451728133e-01,4.412009473703872864e-01,3.951495249735412219e-02,-6.773761800855669646e-03,-3.641582597405491201e-02,8.565989732742309570e-01
-4.567666940634926287e-01,-4.164663891925786121e-01,3.613167309728185783e-01,-1.544467704539429116e-02,-4.824522022737103011e-02,-3.745487073590950122e-02,8.061157464981079102e-01
-1.821626767362568566e-01,-6.646948325592186846e-01,6.668708410604458070e-01,2.196920945184419882e-01,1.861767534076411851e-02,1.129563293739381802e-01,1.243982434272766113e+00
-5.160166767064945370e-01,-3.082423904176642138e-01,6.151065779708102532e-01,-6.363671236102214079e-02,-1.473374246961015391e-02,-7.383890545758177090e-03,1.049073576927185059e+00
-2.754648913863334547e-01,-5.136794607872303686e-01,6.721162771161316440e-01,3.373691530307432185e-01,1.257973403004648480e-02,5.256093745462703248e-02,1.237174391746520996e+00
-2.292989364933351037e-01,-5.239213242810639715e-01,5.986515607140657780e-01,1.697530964647382401e-01,-3.773778733964010257e-02,-3.729268555814976849e-02,1.054101586341857910e+00
-1.649786024588896782e-01,-5.378499211833062121e-01,6.630906929998549026e-01,2.103632605327098448e-01,-5.050556833859043415e-02,-3.441454498329696993e-02,1.130247235298156738e+00
-2.635038353203099093e-01,-5.549486131002121514e-01,6.831451187770386513e-01,1.641819441035350935e-01,2.949412338540151335e-02,1.608028386809719906e-02,1.158115983009338379e+00
-2.523600367566078972e-01,-5.445571724922909640e-01,5.899331973025734310e-01,1.700754695971423702e-01,8.321793183277764131e-04,-2.432957814132221883e-02,1.062783002853393555e+00
-5.084551325944388633e-01,-2.317376414498731330e-01,5.480561872413309832e-01,-8.036473252894459074e-02,-3.880570843134732023e-03,-1.210219372991549764e-04,9.590903520584106445e-01
-4.824297201091370946e-01,-3.386769164400520449e-01,4.885651324911045590e-01,4.120334366198002279e-02,1.030683430416675858e-02,-3.713095556816376624e-02,9.129406213760375977e-01
-4.425832933565342353e-01,-4.010973721798570812e-01,3.711085731018252121e-01,-1.852573086651761224e-03,-3.456573741313424819e-02,-1.431932044936190251e-01,8.337663412094116211e-01
-4.406849431548669482e-01,-4.386860189204895843e-01,4.899412671955268861e-01,3.509668277323178386e-03,-2.054263840592361959e-02,-4.724725246415074909e-02,9.339211583137512207e-01
-2.302905623395680723e-01,-5.322917204067263430e-01,5.398676913486842865e-01,-8.894166738616531009e-03,-3.223107668153809635e-04,-8.196905626691293467e-03,9.577976465225219727e-01
-1.752540306593083075e-01,-5.440720499635758323e-01,5.494135259581965913e-01,7.867355997075321100e-03,2.855320688511293198e-02,-3.977471829237530856e-03,9.649451971054077148e-01
-1.681219246405715184e-01,-5.528504497059706368e-01,5.508987063281090002e-01,2.238629848618164248e-03,2.541217258099347925e-02,-2.507430059845419581e-04,9.713840484619140625e-01
-1.766165781470678819e-01,-6.634972989444750668e-01,6.933586181264039805e-01,-1.859478985025817118e-03,-1.691327596201428959e-02,-1.064421403307182906e-02,1.191088676452636719e+00
-1.638156463492304593e-01,-5.843622238034077432e-01,5.434638575598672583e-01,-3.713059347761678980e-02,3.701169341801649471e-02,2.480981991028678030e-02,9.922902584075927734e-01
-1.515150489721225069e-01,-5.773804645711060335e-01,5.590656740318004081e-01,-1.336691822288749122e-03,-6.626391616861872919e-03,6.543073764251214341e-03,9.945670366287231445e-01
-1.820266390325231964e-01,-6.339345701904747221e-01,6.865594860021463353e-01,-1.058154177233494326e-03,-2.145782110933036613e-02,8.778576858193928856e-03,1.163099050521850586e+00
-3.641604211144046643e-01,-5.625375943380077626e-01,6.250182946381673821e-01,-6.899635984651966703e-02,2.238851776030256410e-02,1.417090528560381851e-03,1.108985900878906250e+00
-1.763227478944771054e-01,-5.890227495871432906e-01,6.697492515720668838e-01,-2.557021694113024643e-02,-1.890931664526173187e-02,7.465276169622522481e-03,1.112894654273986816e+00
-6.339915716642895438e-01,-2.260851943018863386e-01,8.200775112294812486e-01,1.306663741363308928e-01,-1.407670286401102588e-02,-5.686078154354012870e-02,1.322533726692199707e+00
-5.714961187001578180e-01,-1.776028746422517735e-01,6.447474930009416960e-01,6.963919665435763795e-02,-2.763110841565673964e-02,-4.471876268096085238e-02,1.085434913635253906e+00
-5.726139581344179552e-01,-2.041336049886392501e-01,5.828493720186727067e-01,5.447191104210426932e-02,1.260546932354586480e-02,3.148628626851670415e-02,1.028328776359558105e+00
-5.691549652628086209e-01,-1.401533215197733606e-01,5.784378506155605226e-01,7.456499060146189184e-02,1.129652403103423774e-03,-1.817580870509739877e-02,1.013097882270812988e+00
-5.238082485824091528e-01,-1.710285810695996167e-01,6.485789095659512116e-01,1.284656039509209924e-01,-6.730218203306234659e-02,-9.111599825794367002e-02,1.083215594291687012e+00
-6.322155742269826018e-01,-1.992700922801793895e-01,5.874143777983824588e-01,2.364928949531369326e-02,2.994696303285944439e-02,4.015649111091609824e-02,1.075226306915283203e+00
-6.602331333017557036e-01,-9.544029607317988662e-02,8.503264770002674222e-01,4.139939266588979483e-02,-2.728594549276529280e-02,-6.898501310538425468e-02,1.330142855644226074e+00
-7.799356620354086500e-01,-8.774722604357440559e-02,7.383496320610488661e-01,9.393879972497627684e-02,1.238239852638479965e-02,5.152395764302566961e-02,1.329764366149902344e+00
-4.308601065970268928e-01,-4.148396206598682356e-01,3.788989720152579066e-01,-5.713846064475789147e-03,-2.810511478729155188e-02,-9.590988407490834422e-02,8.204007744789123535e-01
-4.276495184250909687e-01,-4.197377846599897322e-01,3.992483249121298039e-01,-7.306658349960745008e-03,-2.580405637589566065e-02,-1.102303601296713564e-01,8.461030125617980957e-01
-4.064655204420271617e-01,-4.238661653813229901e-01,3.738735549388545465e-01,-1.992168489361507977e-02,-2.259243898397539016e-02,-1.005496592762890606e-01,8.098536133766174316e-01
-4.038072378856331079e-01,-4.095838902785646773e-01,3.637686570301730260e-01,7.721175502619809748e-03,1.425414014008787034e-02,-3.729754509661024203e-02,7.736936211585998535e-01
-4.050086820353615558e-01,-4.048729359260870297e-01,3.040200563248803833e-01,-4.734538734593105036e-03,2.420185884412568225e-02,-6.993278523131575553e-02,7.205010652542114258e-01
-4.188849936073364977e-01,-3.998830728794652845e-01,3.514557237571322990e-01,-1.256682768894220453e-02,1.872778707768037176e-02,-1.039972578397209413e-01,7.830199003219604492e-01
-4.342870376003004074e-01,-4.402733914562757533e-01,5.511751820786134903e-01,-1.500095443450631368e-03,-1.096602221828501004e-03,4.072072504996620407e-03,9.884994029998779297e-01
-4.492428263778416864e-01,-3.458924933183066819e-01,5.604077075019098242e-01,5.474372485860475035e-02,5.243300263846598433e-03,1.601548599319094299e-03,9.668549895286560059e-01
-3.712824642213582993e-01,-4.133907898540384873e-01,5.208953193660392778e-01,7.638869114747343092e-03,7.537763804655343500e-04,-4.324450944678677813e-03,9.140871167182922363e-01
-3.847877499564310577e-01,-3.852164278552629439e-01,5.290685490551968462e-01,3.244419780954682642e-02,9.081657368756500953e-03,3.172899069718341201e-03,9.159480333328247070e-01
-4.402700858790192240e-01,-4.168367325210245999e-01,5.473067176622248287e-01,-1.799542223095538249e-03,-6.509385063417550202e-03,-5.437334477679205483e-03,9.761866331100463867e-01
-3.880020139508281729e-01,-3.725371995442403050e-01,5.255829845633507302e-01,7.086896519063853872e-02,-4.078886290861326661e-03,-2.068932702463534713e-03,9.142637848854064941e-01
-4.054545397463136802e-01,-4.193578941580876074e-01,5.780145183443674561e-01,8.395733826440655856e-02,-4.960761012879570837e-03,-1.195211194504641576e-02,1.001362681388854980e+00
-4.001112258818802503e-01,-3.498559864425089261e-01,5.253756881552869018e-01,6.871303245286408679e-02,1.815001049536067636e-03,1.804545190798432456e-03,9.092442989349365234e-01
-3.901008761315288287e-01,-3.546646337938798021e-01,5.197745675443560254e-01,6.943170064938528063e-02,-2.832919188987781303e-03,-4.685837037062979410e-03,9.007989168167114258e-01
-3.883702739875158905e-01,-5.183843788399420394e-01,5.610867657949122345e-01,1.198702718146281293e-01,1.632222887828753063e-02,2.111019679555680567e-02,1.042620658874511719e+00
-3.846223874335290560e-01,-4.277143743970679424e-01,5.330059468548735691e-01,4.491913339535866939e-02,1.570567032996373832e-02,1.272363329653865976e-02,9.437796473503112793e-01
-4.295613572422696258e-01,-3.831239708777973152e-01,5.064320416349307186e-01,8.147649214027975761e-02,-2.026830441395055873e-02,1.145783334975467764e-03,9.251630306243896484e-01
-3.749440859831624784e-01,-4.446285680028240206e-01,4.834419000588650039e-01,-3.409226186886623808e-03,-1.481079989536513569e-02,-6.027001164511002623e-03,8.957123160362243652e-01
-4.539709446203140097e-01,-4.204873388865068007e-01,5.702465195763635197e-01,4.515892857467043026e-02,1.940963935403901622e-02,1.376628917924762469e-02,1.011763215065002441e+00
-4.196384085982652890e-01,-3.418717447033716161e-01,5.282977017064190983e-01,6.632083448182449215e-02,4.682529565423801908e-03,1.816268959043304630e-03,9.187946915626525879e-01
-5.090172377832803408e-01,-2.694891076438621358e-01,5.794750972504937314e-01,1.465630292959052283e-01,-5.308582399183541314e-03,-2.939395303190037168e-02,1.024003624916076660e+00
-4.141337775046180503e-01,-3.347075691241931938e-01,5.543574109097783031e-01,6.456451241358765469e-02,-7.186829808707237074e-03,2.497288183403348349e-02,9.390909075736999512e-01
-4.397404309814903489e-01,-3.292343213791348866e-01,5.529643016743831518e-01,7.377603559417125756e-02,1.690368415666361479e-02,1.066241818304025646e-02,9.515783190727233887e-01
-4.111155492522991506e-01,-3.479139131442752220e-01,5.352984766967033847e-01,5.823045229174107079e-02,-1.292983842324978150e-02,-2.427889925550027594e-03,9.222638607025146484e-01
-4.828438052770157030e-01,-2.901421160485525563e-01,5.574928085010482093e-01,8.939786383266326575e-02,9.900993989768304068e-03,-2.468813594738448417e-03,9.712095260620117188e-01
-4.692747444366632825e-01,-3.077338490949440564e-01,5.360523960063375837e-01,8.426794069353771288e-02,6.794374425539758539e-03,3.335293896221428606e-02,9.482381939888000488e-01
-5.853904668274244605e-01,-1.916355546453110126e-01,5.977211374386306453e-01,1.292702786955780003e-01,1.216457516206433456e-02,1.861897983623642984e-04,1.067481398582458496e+00
-4.922149392765591269e-01,-3.432240750939971607e-01,5.791919811744885571e-01,2.879965873316225541e-02,-1.203617641045530776e-02,-1.248890797923984594e-02,1.006912112236022949e+00
-5.893453889227027176e-01,-2.020219993308128847e-01,6.273753037840384961e-01,3.779304896454188656e-02,-1.701570015717035825e-02,4.583106225259296618e-02,1.081951618194580078e+00
-5.788247676833819799e-01,-2.272590820092100783e-01,5.992433290202777707e-01,1.152353378598519468e-01,1.132214093838717923e-04,8.889497725641017437e-03,1.066465735435485840e+00
-5.699270519142541902e-01,-3.166884614830258737e-01,5.836356670733978680e-01,7.950334069638505252e-02,-3.859794039858820830e-02,-1.897689825916172232e-02,1.061707258224487305e+00
-5.326516595398556042e-01,-3.367100357829217461e-01,5.532145093191045415e-01,5.574422993875680077e-02,2.843234122963479021e-02,1.498803226002474662e-02,1.008540272712707520e+00
-4.418310858973928390e-01,-4.387631600756313199e-01,5.384257448084307507e-01,2.370918583045231089e-03,4.192403478128561845e-03,-2.196253067636674914e-03,9.787694215774536133e-01
-5.755650311622634296e-01,-2.129119482127529439e-01,5.672717262030469998e-01,4.471787019961622617e-02,-3.267159530220366953e-02,-1.414694651380992221e-02,1.016337394714355469e+00
-4.308146223282136034e-01,-4.184258158665507543e-01,5.474369575297803880e-01,1.241751970927974617e-02,1.352735196508152854e-02,9.455170785281980655e-03,9.727743864059448242e-01
-3.645596597966445085e-01,-4.493943449743926233e-01,5.603781631913308248e-01,8.108886533900884486e-02,5.773761989343069792e-03,2.094326060125689323e-02,9.809769392013549805e-01
-4.581936802011760679e-01,-3.793651033514296445e-01,5.212071181013330223e-01,4.666017539720989510e-02,3.441961510481590658e-02,1.304560817557002400e-02,9.480671286582946777e-01
-4.075104236299925686e-01,-4.257177080590388574e-01,5.197570093568423255e-01,2.439227410965130391e-02,1.281986155931206031e-02,4.130049730475167553e-03,9.377465248107910156e-01
-3.912753595082312796e-01,-4.392069450222343407e-01,5.376184232872288637e-01,-1.670672262319863530e-02,1.500737850709301172e-02,3.442881238527215298e-04,9.545563459396362305e-01
-3.802431174704284378e-01,-4.668445816290282546e-01,5.591407640847582128e-01,-1.756753151519965805e-02,-1.964219189650492567e-02,7.433194616549853445e-03,9.866828322410583496e-01
-3.780535451457874840e-01,-4.580192209505110634e-01,5.353391506910267772e-01,-1.579281683860716753e-02,-1.714374131902303422e-02,3.002749248516324142e-03,9.567537903785705566e-01
-3.876313153166906500e-01,-4.560546097536611887e-01,5.548714714113858193e-01,-3.356471019371058684e-02,-1.299232936762832746e-02,1.285995094188368409e-02,9.807469844818115234e-01
-3.824993296916880947e-01,-4.600401593522622234e-01,5.460534490271479191e-01,-2.266094475256820451e-02,1.519618384160522154e-02,5.159467960522747323e-03,9.708433151245117188e-01
-3.737911327209391121e-01,-3.733946665247689367e-01,2.305054615640942939e-01,-1.680206252822512335e-03,-2.653758806038949980e-02,9.125752824935374347e-03,6.060577630996704102e-01
-3.932340351581591897e-01,-4.059128526331114983e-01,2.515679658142042641e-01,1.928180152551409871e-02,-3.943731192784764861e-02,2.186139306722097858e-02,6.567501425743103027e-01
-3.926759898486736899e-01,-3.980144996399758162e-01,3.341617870849052929e-01,-1.730320015118484624e-03,1.908489151943681787e-03,2.487510479335650754e-02,7.308064699172973633e-01
-3.787286246041073334e-01,-3.875720240220044688e-01,2.741875151346276906e-01,-3.429058942888304779e-03,9.273528479127494256e-03,3.500531886027771072e-02,6.603946089744567871e-01
-3.839944715491006022e-01,-3.706066482996555611e-01,1.711515875633807249e-01,-8.936624865971349099e-03,-7.631087455744860193e-02,6.534235466545072323e-04,5.644865632057189941e-01
-3.933641057782634176e-01,-3.793332180421283839e-01,1.871994347817621529e-01,3.724656815386717147e-03,-3.547384952022161753e-02,-8.385151372627880351e-02,5.949916839599609375e-01
-4.172149585516709003e-01,-3.686279995634892392e-01,1.800333628036639988e-01,1.119963350965940199e-02,-3.833644168192304469e-02,-7.312074932029568111e-03,5.787862539291381836e-01
-3.860652676532576599e-01,-3.901283012781779358e-01,2.662230447130092825e-01,-1.446917378084750135e-02,-2.335820797937017065e-02,6.924654800457097012e-03,6.561673283576965332e-01
-3.804993304916942098e-01,-3.948369651922590817e-01,2.679855934473425183e-01,-8.652429121283623445e-03,1.817204149424534159e-03,4.355086739109317027e-05,6.559500694274902344e-01
-3.839217605467802330e-01,-3.865263520408426245e-01,2.964371249897206351e-01,-1.411718630391147009e-03,-9.594823967408995513e-03,3.835614567872205199e-03,6.819041967391967773e-01
-4.338608106398806896e-01,-4.412433408130420620e-01,9.075870003790670326e-02,1.285031613977989928e-01,8.143994994103638529e-02,-9.491662780125191545e-03,5.906437039375305176e-01
-4.044492492334964551e-01,-4.351770701189678348e-01,3.517973453565120812e-01,2.331200427653679248e-03,2.267150593849447116e-02,1.599963086003320864e-02,7.735742926597595215e-01
-4.075431865755557714e-01,-4.009723723675296947e-01,3.440382101160286421e-01,2.011376566661669460e-03,3.988502989712360003e-02,-3.204037212889570413e-02,7.535539865493774414e-01
-4.027809857382296244e-01,-4.346551315794229819e-01,3.079038766992832077e-01,-5.347376076907434106e-02,4.496017910768766723e-02,-3.161857323510863793e-02,7.391773462295532227e-01
-3.957380155744629202e-01,-3.973313039801121826e-01,3.164702047589991185e-01,-4.888737041958150700e-04,3.814477022282348334e-02,2.164708398004554571e-02,7.170421481132507324e-01
-3.923043881903278685e-01,-3.905827819841692361e-01,3.088310614558524847e-01,-6.822359091843192835e-03,4.842378171946232907e-02,-2.458100415239819914e-03,7.053928971290588379e-01
-4.384273225306364874e-01,-4.419210183832797401e-01,5.329286814401262840e-01,-6.811726234211831071e-03,4.830575858353747384e-04,5.260376525145234574e-04,9.731798768043518066e-01
-4.364836632481619016e-01,-4.314467905148448579e-01,5.296088002208951817e-01,1.126066295138708397e-03,4.004851648165641195e-03,5.111494176105264332e-03,9.636515378952026367e-01
-4.409252740341422228e-01,-4.367411486263632625e-01,5.442067196445746768e-01,-6.825508995354067493e-04,-5.639526482416200477e-03,1.084427223946968612e-03,9.830976128578186035e-01
-6.975221072046763338e-01,-2.015250190577486666e-01,7.329694800588408832e-01,-2.343209418018739887e-01,1.110766207465931632e-01,-1.202822377427179013e-02,1.336026430130004883e+00
-5.953796454621689271e-01,-2.427815031809846258e-01,6.671643284729356083e-01,-8.635428452574048230e-02,4.586282396170423409e-05,-5.551588676953628232e-03,1.138260006904602051e+00
-4.338674972034669008e-01,-4.330862213954468909e-01,4.874096075917111470e-01,1.229836079261003787e-02,8.424750622053609958e-03,1.139151794386987666e-02,9.214599132537841797e-01
-4.990657108929950070e-01,-2.671515369791195860e-01,5.737099494206601147e-01,-8.152489945636141877e-02,-1.845375719590303110e-02,2.797854627356675949e-02,9.895195364952087402e-01
-4.522528918383083019e-01,-2.901528465736009643e-01,5.542279502248755874e-01,-1.110597022593466376e-01,-7.307561943014356451e-03,5.572711157295028288e-04,9.556638598442077637e-01
-5.074784739242765852e-01,-2.819022476604808869e-01,5.705206664733707411e-01,-8.838988205660235076e-02,-1.424307428660823160e-02,1.799519342700530919e-02,9.974037408828735352e-01
-4.637251418385676671e-01,-2.863329276813141866e-01,5.681033755035215238e-01,-1.015444039669598231e-01,-1.220362203533341058e-02,1.732735595342037652e-02,9.723070859909057617e-01
-4.576162609975465423e-01,-2.227127562818507767e-01,6.062815271427950403e-01,-2.080580203300595454e-01,4.133539506069622282e-02,-4.281665741281875937e-02,1.038091897964477539e+00
-5.090272011073970759e-01,-3.232592719719301622e-01,6.489615772649007797e-01,-1.669648316636184460e-01,-2.952996725596548390e-03,3.572860486880156602e-03,1.115359425544738770e+00
-4.432178316318237665e-01,-4.364490610102455537e-01,5.234739760225224359e-01,5.837949587031842670e-03,-1.614061404379316458e-03,-3.630487542796021622e-03,9.634029269218444824e-01
-3.044538569906037329e-01,-5.022155804054304618e-01,5.647242096155278279e-01,-6.140347959285305524e-02,-1.291166577947363853e-03,4.542144855185421305e-03,9.888621568679809570e-01
-3.219543237411656711e-01,-4.827912637729480649e-01,5.884263493254925370e-01,-1.169259532546201713e-01,-1.330707030150597020e-02,-1.362497057733661615e-02,1.021365523338317871e+00
-4.383404328976734932e-01,-4.363349199529611977e-01,5.209428386657262156e-01,4.396258493161850009e-03,7.588548969769131833e-03,-2.919985571750223496e-03,9.584158062934875488e-01
-3.589285535090344093e-01,-4.461528225017311611e-01,5.369106927009394958e-01,5.863133599230241355e-02,-6.814544356898342981e-03,-1.056593036661972705e-02,9.481888413429260254e-01
-4.399070052804220365e-01,-4.271668919415324006e-01,5.312301415009054173e-01,3.905362305810337886e-03,-9.001689122983661667e-03,-1.135564237849525683e-02,9.651802778244018555e-01
-4.414691442985006486e-01,-4.359362021862783765e-01,5.241887470913357827e-01,-6.193276960287644704e-03,-2.649276237285778804e-04,-4.582465012697069934e-03,9.629958868026733398e-01
-4.171661378519339047e-01,-4.369278825687151202e-01,5.414858726667458599e-01,5.614009825824747661e-03,-8.811959875351970881e-03,-8.111530427010764030e-03,9.689549803733825684e-01
-4.266377297072412866e-01,-4.402453989784509969e-01,5.388218801124541324e-01,7.816076831766124652e-03,6.316629681149557585e-03,5.173609100769208970e-03,9.725319147109985352e-01
-4.376133166555912224e-01,-4.369355661668593016e-01,5.492429763570649826e-01,6.497766444529831870e-04,3.145493591836846098e-03,-6.886122136196855389e-04,9.865339994430541992e-01
-4.356722002518206849e-01,-4.346864228209325609e-01,5.367048316463358670e-01,-3.356201438231428097e-04,3.860809520638957930e-03,-6.199075189248066942e-03,9.719669818878173828e-01
-3.875492878128377616e-01,-4.244340091438361662e-01,3.600752661769137664e-01,-1.824999703948736174e-02,-6.506105511539377051e-02,-1.954751311929445526e-02,7.763525247573852539e-01
-4.008998443080658003e-01,-4.517154008811006816e-01,5.447139833114824636e-01,1.477464409372094764e-03,-7.747597257856071729e-03,6.849441898403635723e-03,9.721866846084594727e-01
-4.422184987093372710e-01,-4.301918543263048567e-01,4.535844055385133133e-01,-2.011798184310488718e-03,-3.771156622075539505e-02,7.716520202748948856e-04,8.922524452209472656e-01
-4.020434268998360205e-01,-4.030839546652507654e-01,3.391743872733591347e-01,2.640892245725509971e-02,-2.443258429833406603e-02,-2.270633892749360574e-02,7.453898787498474121e-01
-4.390448237631371931e-01,-4.392357783599961096e-01,5.279955142834431570e-01,4.795800251948252428e-03,5.379326916865825696e-03,-7.515200082439187079e-03,9.673039913177490234e-01
-3.664666574989835501e-01,-4.856215869890238013e-01,3.749468979726074958e-01,-1.534510500757548836e-02,-5.795352510904569487e-02,-2.450873359450181539e-03,8.142697811126708984e-01
-4.162697565883630157e-01,-4.174796233470879914e-01,3.974830066936471118e-01,3.152749118137424585e-03,-3.572885198167810583e-02,-8.536741498964937544e-03,8.168584108352661133e-01
-4.299242635754979558e-01,-4.507238225714123581e-01,5.124740270821581678e-01,4.097155492432380357e-03,-4.558618373169359521e-03,1.615553433309276088e-03,9.530315399169921875e-01
-4.337155038624513348e-01,-4.385496215739100312e-01,5.429860980155915007e-01,1.894996113702959511e-04,-9.544225230000185495e-03,3.650233550285987907e-03,9.792876243591308594e-01
-4.581797125044764774e-01,-3.867148147793441071e-01,5.612064645345088421e-01,-5.104321012054136020e-02,2.124293987487345034e-02,-1.410453649523051023e-02,9.905412197113037109e-01
-3.333372107089609404e-01,-4.720059229187530403e-01,5.420926827258930603e-01,-6.279660961638672267e-02,1.004543668079421748e-02,-2.553673889145907953e-04,9.587149620056152344e-01
-2.992475196623066713e-01,-4.665029966080346258e-01,5.351119578566626567e-01,-6.111897464462488078e-02,-1.532433190195407312e-03,-8.745939145451912117e-04,9.353594183921813965e-01
-3.946123895491929212e-01,-4.464050464222478753e-01,6.613319129380343941e-01,-1.796577786840443669e-01,-9.426044659775657461e-03,7.656476033698437003e-03,1.126793742179870605e+00
-4.573187638184538772e-01,-4.046330344354694408e-01,5.349578620647876814e-01,4.080912835639028367e-03,1.262003272187532752e-03,-4.811482020386995649e-03,9.670749902725219727e-01
-3.523787125304922441e-01,-4.494924158969385575e-01,5.363358965405825574e-01,-3.992465010643283380e-02,-6.078835894084803036e-03,-4.694509670931505153e-03,9.436683654785156250e-01
-3.512423563637098733e-01,-4.694619203355417936e-01,5.628645529773268485e-01,-1.059604848864131033e-01,-2.956616704740105267e-02,1.289713972531383174e-02,9.972146153450012207e-01
-3.585177556529421383e-01,-4.264841784073190034e-01,5.368366832262960742e-01,-8.707613316773298029e-02,-1.226893814343507638e-02,1.470449163040836449e-02,9.439173936843872070e-01
-3.932758212492249994e-01,-3.841165283854374168e-01,5.194371402247135450e-01,-1.052218269005809025e-02,-1.916476796226107039e-03,1.094827838387057734e-03,9.083588719367980957e-01
-3.780949575036054444e-01,-3.735461396999472106e-01,2.613429384550162160e-01,8.939617438202099352e-04,-1.000867062051725639e-03,2.238729268203333849e-04,6.371800303459167480e-01
-2.309165875967345571e-01,-5.932071501294834404e-01,6.408763825466170516e-01,4.256185424618696110e-03,1.615104047495023992e-03,-6.848277941599714702e-03,1.098782300949096680e+00
-1.312912968343507014e-01,-7.154549356644447355e-01,7.818087946673675237e-01,1.287897266942851157e-02,-1.034330977034805246e-03,7.392833771066630033e-02,1.313505172729492188e+00
-1.901713861183518262e-01,-5.797353422962643332e-01,8.256773554802823156e-01,-1.269402611133277348e-01,-1.835068922081345769e-02,-1.644346226242472328e-02,1.276561617851257324e+00
-5.757276573033143219e-02,-5.950164518553135995e-01,5.936658744617132610e-01,-1.001803950900293991e-02,-3.035925941210525225e-02,-4.315702704001007917e-03,1.032513260841369629e+00
-1.453341358507531933e-01,-5.779490195875982561e-01,5.928198531385496794e-01,-1.448431557606827957e-01,2.070008083109647554e-03,7.575656787019026395e-03,1.055692672729492188e+00
-4.431609613615683507e-01,-4.110827139684465892e-01,5.336536670195378695e-01,1.698062431354472506e-03,-5.177679297314627914e-03,-6.261096503081080983e-03,9.612845778465270996e-01
-2.437670091548497231e-01,-5.727413418674514034e-01,5.905640984772694280e-01,4.420670044568019569e-02,-3.068586157065849793e-03,-3.681646800243827157e-03,1.041507363319396973e+00
-1.552460343764988093e-01,-5.899394677522031838e-01,5.459870013599663618e-01,1.058728442101888878e-01,4.877621121663669457e-02,-1.530131688124001035e-02,1.013397455215454102e+00
-1.577915161516723064e-01,-6.202530413413225308e-01,5.462835483822194860e-01,-1.334141921239559610e-02,-9.593132054964766120e-03,6.483818780406250259e-02,1.024022459983825684e+00
-2.554934650098439897e-01,-5.658153922504315370e-01,5.814285955083705604e-01,-9.041879092326461642e-03,2.599036785170137642e-02,1.504550936374362408e-02,1.029273748397827148e+00
-1.065602949338929906e-01,-6.063945511554053036e-01,6.100505018645780986e-01,-6.210456520010889520e-02,1.227243488144509342e-01,1.652492350624990350e-02,1.085875630378723145e+00
-1.444788549598266525e-01,-6.650486533326617211e-01,7.230899481096801917e-01,9.538791058294762704e-02,7.095222308993860694e-02,-2.374564253428544658e-02,1.232635140419006348e+00
-4.268130487192366429e-01,-4.386621587755117346e-01,5.119678056330303484e-01,8.481337762430940193e-05,-9.381525877335613814e-03,-1.352969514813436329e-03,9.449037909507751465e-01
-3.746847468143160165e-01,-4.733556546798705633e-01,5.094926595651668721e-01,-8.991883380677209367e-03,-1.656157622904295967e-02,1.037274784932019564e-02,9.381558895111083984e-01
-4.304566437533953738e-01,-4.331095627079301624e-01,5.105959820201537713e-01,5.362969659328683213e-04,-7.370909132632184890e-03,-2.374109540391920996e-03,9.424777626991271973e-01
-4.265477305648742168e-01,-4.093587194971571863e-01,4.805410686909222795e-01,5.363683879091532547e-02,-5.124491521174598385e-02,-3.041727016690978086e-02,9.092843532562255859e-01
-4.440569514597761946e-01,-4.127460607669848902e-01,5.368423131426172112e-01,6.244066218056162042e-03,1.254605909419934801e-02,5.650635213656692371e-03,9.659792184829711914e-01
-4.317133450688253049e-01,-4.351959752334892406e-01,5.320480203635948868e-01,2.630078832751947798e-03,-1.243726336222286677e-02,-6.475202730953418667e-03,9.658235311508178711e-01
-4.103929688279487342e-01,-3.896482208658789692e-01,5.374547989483597910e-01,5.082573232054639345e-02,4.520817283840055517e-03,1.233078356231341599e-02,9.420456886291503906e-01
-4.342003651958105670e-01,-3.940831898580204884e-01,5.310300213667289437e-01,3.517692376760428452e-02,9.001677813324650279e-03,1.072612746902768324e-02,9.480808377265930176e-01
-4.306489648146036853e-01,-4.410491163447249341e-01,5.507835913594479882e-01,2.750295899310059924e-02,9.278519596159232052e-03,-1.268987881983750857e-02,9.881982207298278809e-01
-4.305868013108395953e-01,-3.850501964947267708e-01,5.220638431119861700e-01,4.160714714065303493e-02,6.384174087444679374e-03,8.237759920577725908e-03,9.336785674095153809e-01
-4.110634029407230217e-01,-4.414504546960665854e-01,5.416174164581769590e-01,1.672368426873900582e-02,-3.917628374157494306e-03,4.902053135323144149e-03,9.687262177467346191e-01
-4.394429316658406970e-01,-4.397584928662236492e-01,5.280114955589499948e-01,-1.326547281709565583e-03,-9.268693498139117840e-05,1.815171115421947146e-03,9.676200747489929199e-01
-4.397043212626164377e-01,-4.346233346838719869e-01,5.258828022066962538e-01,-1.320449272769581243e-04,-4.076379696594935147e-03,-5.110858788657072235e-05,9.630826115608215332e-01
-4.470525021660124443e-01,-4.331259530517118095e-01,5.249929805002319094e-01,-2.351571918488611773e-03,6.010921625606652219e-03,-3.229438611453954583e-03,9.652385115623474121e-01
-4.416959805892231583e-01,-4.415101523079938972e-01,5.052427290007993621e-01,-4.523941958504797199e-04,6.069624114721112844e-03,-5.729749047362857686e-03,9.469565153121948242e-01
-4.085689437432193927e-01,-4.466532382453722305e-01,5.336919614349350249e-01,-7.812880814861067531e-05,-1.531245089779497900e-02,4.242351741104431403e-03,9.622623324394226074e-01
-4.222307541959458010e-01,-4.384956279211137953e-01,4.909928921238149169e-01,8.789751296469520752e-04,1.893323017589120666e-02,-4.534450307405303235e-03,9.220818281173706055e-01
-4.161937203004996699e-01,-4.346534019466300469e-01,3.490160822370632632e-01,-1.978385957309849660e-02,9.230053105670787961e-02,-8.198178418701570352e-03,7.917994260787963867e-01
-3.908478322995063148e-01,-3.821952846045518215e-01,2.457272755281584287e-01,1.268312474489393347e-02,7.725355225598838638e-02,-7.636454624015572012e-02,6.600577831268310547e-01
-4.383041305973203738e-01,-4.380421498547379389e-01,5.189793253287269259e-01,6.788064571371593171e-03,-3.457039150951760065e-03,-4.228814743447978537e-03,9.572714567184448242e-01
-4.538265184975561750e-01,-3.771507797370196591e-01,5.412252440947722398e-01,-9.732770974565561894e-03,9.096689602810851399e-03,-1.347501874819261036e-02,9.595770239830017090e-01
-4.368988807830774812e-01,-4.479104468458975918e-01,3.403554165478833715e-01,-1.361027802110074611e-02,5.943434446718648401e-02,-5.504086214545719996e-05,7.899097204208374023e-01
-3.096958977220118370e-01,-6.575934463599191204e-01,1.377030386941240359e-01,-3.680157482419549320e-02,-1.567755211226271733e-02,4.721239270022041523e-03,6.940567493438720703e-01
-3.905837392673826014e-01,-4.045476607400452784e-01,2.543601648316407005e-01,2.009761153637223269e-04,8.034719756883136610e-02,-6.217757699335030308e-02,6.753657460212707520e-01
-4.204848491952903888e-01,-3.993136616317845555e-01,3.265159438239022549e-01,1.119503638866467185e-02,1.035414833207316809e-01,-1.355793048169779552e-02,7.587710022926330566e-01
-4.280432531784540418e-01,-3.905875589380709556e-01,2.606228286845548858e-01,-2.520454927529542852e-03,6.068219213166888004e-02,-6.462895267066177951e-02,6.880887746810913086e-01
-3.545623286363742688e-01,-3.994690366883010268e-01,1.678154026843870494e-01,-7.234151522691080818e-03,2.972404797830484335e-02,5.302360913569454520e-02,5.564129948616027832e-01
-3.621134960409380654e-01,-3.863671089453821761e-01,1.782016606487497601e-01,3.073725753985252947e-03,3.923815047468538764e-02,-6.837218390495515552e-02,5.694776773452758789e-01
-3.241174612193829518e-01,-4.785522276931478136e-01,5.049270482857910469e-01,2.960633167968238638e-02,1.332494910641477195e-02,-8.263729560943641403e-03,9.179135560989379883e-01
-4.325837637172578187e-01,-4.539126201216433509e-01,5.187504766515578236e-01,-5.613844596690998473e-03,4.857156736222034005e-02,5.773836865281369198e-03,9.659476280212402344e-01
-4.317990325790863615e-01,-4.546736649785205198e-01,4.696753001187768950e-01,3.789954286975090458e-02,6.431495096298918412e-02,-5.745054460775170235e-02,9.275883436203002930e-01
-4.326046532893858543e-01,-4.440085983945558645e-01,5.496610427318954217e-01,3.381177215990102940e-03,-4.646515118826274708e-03,-1.067510652302942377e-02,9.882401227951049805e-01
-4.616515662579440127e-01,-4.274348630032775431e-01,5.363836839407528645e-01,1.148108327420985404e-02,-1.115589700311810789e-02,6.498145625630721151e-03,9.818305373191833496e-01
-4.190105526514960044e-01,-4.558776510818457472e-01,5.521840014914869421e-01,2.641017810239993432e-03,1.481893950004095628e-02,6.174374051837513283e-03,9.905439019203186035e-01
-4.632539986527483000e-01,-4.389952807209080987e-01,5.493087013130826257e-01,-1.056672159053668493e-02,-2.132470182628143970e-03,1.533073287172224269e-02,1.001180291175842285e+00
-4.117486072722593704e-01,-4.197892041012493691e-01,4.898680766679637255e-01,-3.239857524760043905e-02,3.900934988163433891e-03,-1.602339278004808604e-02,9.078500866889953613e-01
-4.296349894600902108e-01,-4.304876375206493355e-01,4.679736612068300383e-01,1.028275017209896725e-02,-1.569220077823231529e-02,9.834518022020921971e-03,8.987844586372375488e-01
-4.269350641302332439e-01,-4.538003557419255096e-01,4.040572756133380405e-01,-5.053288584066985278e-02,-7.384202506096061713e-02,1.033926569091292436e-01,8.773161768913269043e-01
-4.005402317061347306e-01,-4.109215680908886448e-01,3.628076305982427252e-01,1.004083957968144453e-02,3.784370626219005804e-05,9.300375286400982405e-03,7.689566016197204590e-01
-4.044766886355711799e-01,-4.018527860966163434e-01,3.583042558600156857e-01,-2.059729984759540295e-04,4.017782890865124849e-03,2.247656402679289525e-02,7.624987363815307617e-01
-4.137105275310397068e-01,-4.638240247325322030e-01,4.471672444426962878e-01,-1.860509205396275456e-02,-1.650799518068011770e-02,4.157907757520076103e-02,8.909578919410705566e-01
-4.568692821101540402e-01,-4.042770209811206716e-01,5.531915675567617985e-01,1.663503288479353109e-02,-3.357297073019731293e-03,-1.462226083689484313e-02,9.855825304985046387e-01
-3.906864837155016312e-01,-4.824460327803623549e-01,5.337160102755961200e-01,3.954963541342860003e-03,-1.574541630288943395e-02,-1.010783281531590569e-02,9.740943312644958496e-01
-4.232049960865517102e-01,-4.599770388950040201e-01,5.419951883236977519e-01,-7.792589470057609963e-03,2.291208018512022951e-02,7.242653182364755179e-03,9.850738048553466797e-01
-4.282178806391438997e-01,-4.639269304542802952e-01,5.498859664169057915e-01,3.375166001773179016e-03,2.180951978142264130e-02,-2.303526279655929675e-03,9.971792697906494141e-01
-4.394929436935057776e-01,-4.234733403428207477e-01,4.662628670541499876e-01,1.657798850799199362e-03,3.261454991361946443e-02,2.217220928239527558e-02,9.004524350166320801e-01
-4.230874298773509290e-01,-4.405424649612050825e-01,5.014210474660739658e-01,2.672610457308456037e-03,1.798361961464037609e-02,-3.515923729199109740e-03,9.339093565940856934e-01
-4.352557906700675328e-01,-4.251258759702098433e-01,5.393890345726405355e-01,-3.402678104002664766e-02,2.036296730096425270e-02,1.596037210264143746e-02,9.724421501159667969e-01
-4.315488873754584898e-01,-4.409839471453536053e-01,5.453899338128648244e-01,6.291688000049066578e-04,-5.396164567060077882e-03,6.151993393792812726e-04,9.817360043525695801e-01
-4.369178262963535064e-01,-4.289928297646072863e-01,5.021823411912859081e-01,3.581422051474258787e-03,1.080822929518436733e-02,-1.392843794834454710e-02,9.356818199157714844e-01
-1.907215777862634742e-01,-6.957427817640100542e-01,9.036450587196838136e-01,-2.031096184174545349e-01,-1.175565076208679241e-02,1.916704566923298561e-02,1.459671378135681152e+00
-4.747847982427585989e-01,-3.966224948411543050e-01,5.683594311632906848e-01,7.398055375381659519e-03,-5.222990231725254708e-03,1.172275361226408344e-03,1.006466507911682129e+00
-4.145207119869343537e-01,-3.846926032621243441e-01,5.302709796265262510e-01,-3.945010440858027351e-02,2.344937895866566323e-03,2.472540712483355368e-03,9.327611923217773438e-01
-4.230673819627890353e-01,-4.318874275513926442e-01,5.391622284045092250e-01,-1.260134272815113463e-02,-1.042025567635480312e-03,4.052871347745503635e-05,9.669178724288940430e-01
-4.090370858422595624e-01,-3.931926651188301092e-01,5.316239288547507380e-01,-3.674487836877241703e-02,-4.315597828115561160e-04,-2.094503782993396845e-03,9.350156188011169434e-01
-4.057184373480082762e-01,-4.210834036667857050e-01,5.342415661474634314e-01,-3.447643013595275835e-02,-1.696735561305969583e-03,1.391729523951689210e-02,9.499257206916809082e-01
-4.378054170534595446e-01,-4.787892124084162648e-01,5.423261710643859645e-01,1.076475037911787339e-03,3.064358529276685339e-02,-1.804902626066875321e-02,1.003147482872009277e+00
-4.199937463938693827e-01,-4.359287572815433998e-01,5.352243022186436994e-01,-6.841425836114131860e-03,-5.260901032087745774e-03,5.697814521097398568e-03,9.634509086608886719e-01
-4.061925865086367660e-01,-4.117903028513058006e-01,5.429827110038532023e-01,-6.219748500524144297e-02,-1.561848523566214050e-02,-9.704152462527946567e-05,9.584444165229797363e-01
-4.213243477231187750e-01,-4.283577652648844492e-01,5.371956158950190741e-01,-8.739623532498694627e-03,-3.753929060515548768e-03,-1.669387564278796039e-03,9.622013568878173828e-01
-4.070415960610906936e-01,-4.465634241911347613e-01,5.681521200237458213e-01,-5.073032263266168823e-02,-2.444598567861116373e-02,1.114618283332938567e-02,1.000496029853820801e+00
-4.723922334831701653e-01,-3.602548484952750041e-01,5.417229079104969314e-01,-4.574280569057308232e-03,-5.303344323438755580e-03,-2.327109315316899102e-02,9.638754725456237793e-01
-4.416705115740591769e-01,-3.256742300926616096e-01,5.145447741294304489e-01,-8.084046366807944028e-02,-7.160458279993054537e-03,1.753870526863925139e-02,9.151871800422668457e-01
-4.640093923959934252e-01,-3.494120073818346994e-01,4.295692217536345447e-01,3.738024258547840289e-02,-3.476207193333579609e-02,-4.139144063582343019e-02,8.498060703277587891e-01
-4.504603387104162970e-01,-3.672178480318060156e-01,4.300007225504846042e-01,5.003176607104226070e-02,-4.579109784953216966e-02,-3.378329540043362861e-02,8.520992398262023926e-01
-4.511853510145383828e-01,-3.763769401690539862e-01,5.346164182920164487e-01,1.190592177378924955e-02,-1.039459554647064084e-02,-6.264976727090820069e-03,9.510637521743774414e-01
-4.608412589629383715e-01,-3.920183940357200858e-01,5.140336410705204084e-01,-1.769620652151273482e-03,6.843364415733816514e-03,-4.471628838118345620e-03,9.424616098403930664e-01
-4.234120662011949254e-01,-4.248200797196352574e-01,4.487125718884195091e-01,1.561355628268651678e-03,1.119327989141075119e-02,-3.100672047759029520e-02,8.746992349624633789e-01
-4.700978460817110682e-01,-4.623445888190219066e-01,4.281798560747941407e-01,-2.346195379210011187e-02,3.013009315570087943e-02,7.808094369709955157e-03,8.969705104827880859e-01
-4.385645786135688451e-01,-4.389881335777162108e-01,5.215405345038928164e-01,2.527525751226824755e-03,-1.461795473668443465e-02,1.924424275813494485e-04,9.606606960296630859e-01
-4.582051248881664485e-01,-4.601131132553546443e-01,4.955916889533770187e-01,4.365354926113885342e-02,-3.047489293604505045e-02,1.078347308043089807e-02,9.593767523765563965e-01
-4.424707114673497310e-01,-4.429921255559682303e-01,4.696020575852897228e-01,2.229970324944936799e-03,-1.950905342186108615e-02,-1.395414914488140104e-02,9.132871627807617188e-01
-4.207928596714859415e-01,-4.356175733605555656e-01,5.468561385176594625e-01,1.127549249846233805e-03,-2.240668675934617219e-03,2.873071898458772703e-03,9.751682281494140625e-01
-4.038628474130864787e-01,-4.432763591131068659e-01,3.949366550910740070e-01,3.528294746600638132e-02,-4.686577810419907675e-02,-4.309384868134791269e-02,8.288622498512268066e-01
-4.212970508848184470e-01,-4.208473570451230494e-01,4.110988035067301150e-01,-6.610154694684967783e-04,-5.808810958663372659e-02,-5.794420468887928263e-03,8.382920026779174805e-01
-3.113748092767010811e-01,-4.229827889214635706e-01,5.256247313893289697e-01,1.167946480471571818e-01,2.920150308488973345e-03,-2.096755454931127551e-03,9.205445051193237305e-01
-3.597872945231931352e-01,-4.329881554673890576e-01,6.025443790732529781e-01,8.606567659710873119e-02,3.119438341707975182e-02,-1.770296755320921803e-02,1.013886332511901855e+00
-4.100020112062282562e-01,-4.935789015072372110e-01,5.745390969014774196e-01,7.425430148227177285e-02,4.872971139204590463e-02,-9.355065353208258730e-03,1.040441513061523438e+00
-3.742352555619616328e-01,-4.714443516522501820e-01,5.527135455649694329e-01,4.904767820858424443e-02,1.829268960252582090e-03,1.104829408362051693e-02,9.830487370491027832e-01
-4.330718970287872338e-01,-4.151205969703155585e-01,5.835529018340257501e-01,8.469613188589820985e-02,4.552373095138480263e-02,5.668052049701541306e-02,1.026145219802856445e+00
-3.586846501625635675e-01,-4.529398171188180888e-01,5.303825030990597655e-01,2.811073984100499745e-02,-1.778875990391805967e-02,-8.751404832147809815e-03,9.416333436965942383e-01
-3.809273796170040693e-01,-4.605660741939327507e-01,5.481015041112995423e-01,5.011993586367667619e-02,-1.470609387203697729e-02,-6.175602933752284349e-03,9.755628705024719238e-01
-4.419373126734083557e-01,-4.367294204707330985e-01,5.491406411410109101e-01,1.121167021323260846e-04,-3.611703266399577165e-04,1.681971520257393576e-03,9.884887933731079102e-01
-4.196722906293555710e-01,-4.395664345193033840e-01,5.398078218265601746e-01,1.693310573679749492e-03,-8.194511096843945866e-03,-8.380164049902411039e-03,9.697971940040588379e-01
-4.285015540756269559e-01,-4.468667001616964396e-01,5.130773552669384285e-01,-1.765593077177319854e-03,-5.988148705845207365e-04,-1.070180908830394712e-02,9.510806202888488770e-01
-4.453551839632846066e-01,-4.386294174103045340e-01,5.457445112049099656e-01,-3.169861627711018526e-03,-1.232398779538169909e-03,-4.229626454064437310e-03,9.877986907958984375e-01
-4.199851264851862109e-01,-4.385751452403984785e-01,5.396426689927688036e-01,1.749900561584163700e-03,-7.835155780991589006e-03,-9.329871581212345610e-03,9.692910313606262207e-01
-4.900555726599589712e-01,-2.922287226785839631e-01,5.786359477944118535e-01,9.284229304174582142e-02,-6.300210512965938488e-04,-1.785754073423732532e-02,9.983176589012145996e-01
-5.079571685821955285e-01,-3.261831631371602813e-01,6.575754106198485882e-01,1.755240033864046700e-01,8.041927991745684637e-03,1.071598393310422420e-02,1.128099679946899414e+00
-4.773898245345375435e-01,-4.012707213432082365e-01,5.570295563703384634e-01,1.251443332033824220e-02,-1.242245014942986586e-02,-1.575601263073889494e-02,9.993778467178344727e-01
-4.554813512672670761e-01,-2.991375261659511842e-01,5.613014278492550746e-01,1.288598230646599840e-01,1.237310000970858609e-02,3.740979972394632008e-02,9.766244292259216309e-01
-5.087978948091018694e-01,-2.681942371862817698e-01,5.610005013722729750e-01,5.783422852405599446e-02,3.745603545108075125e-03,2.640140020086283179e-02,9.783296585083007812e-01
-4.270312423446689931e-01,-4.312159780873187076e-01,5.469789014461928778e-01,8.129695565868764974e-04,2.259982641803590965e-03,1.917336975255035537e-03,9.761237502098083496e-01
-4.254470242285154913e-01,-4.269532082894955116e-01,3.415268431555268380e-01,1.976000937491760936e-02,3.657699063390359301e-02,-4.198221504500286583e-02,7.745184898376464844e-01
-4.211284694421942310e-01,-4.310298716580941436e-01,5.456834343238230467e-01,-1.208529177562829744e-02,-2.685969682368726484e-03,1.062029134876139695e-03,9.720387458801269531e-01
-4.010542248068519888e-01,-4.390189755776101044e-01,5.159826031709613403e-01,-4.558254570550804297e-02,-2.248195724164584949e-02,-1.228020416440766746e-02,9.409649372100830078e-01
-4.314976624761745483e-01,-4.067405905492827989e-01,5.466408661438977301e-01,-4.562816124903276011e-02,-8.506553020887873059e-03,2.682393800715466431e-02,9.704501628875732422e-01
-4.308420119909263102e-01,-4.384591336304798359e-01,5.487089086023098083e-01,-1.489040251474503182e-03,-4.584934869962817641e-03,-2.334477775721140267e-03,9.834253787994384766e-01
-4.773100822733843396e-01,-3.871390603506600914e-01,5.453869046548289745e-01,1.524704922974363941e-02,1.370891695446171607e-02,2.420181051879519152e-02,9.822630286216735840e-01
-4.441908949056717071e-01,-4.184593432871147045e-01,3.995270906752903528e-01,1.769977310915819835e-02,-7.943384119511013447e-03,3.179627461158782142e-02,8.336510658264160156e-01
-4.505080315500784582e-01,-4.497353840354386123e-01,4.103558383452697855e-01,-4.967444493531578131e-03,7.900074837717634829e-03,5.594424271386999603e-02,8.660672903060913086e-01
-4.216990684865796202e-01,-4.115284706852382346e-01,4.454690951972273272e-01,3.185994145474837190e-03,1.739783891387368820e-03,3.544318933216463602e-02,8.643336296081542969e-01
-4.780719300742619637e-01,-4.222202543256379226e-01,5.275755921926329473e-01,3.081175908289614761e-03,8.784970024451469947e-03,1.407705558786197936e-02,9.793537259101867676e-01
-4.970136709397519059e-01,-3.865054942136689764e-01,4.794326362360169513e-01,-1.703443515388446128e-02,-1.350389925261375260e-02,9.501793205212906435e-02,9.414122104644775391e-01
-4.406513262197142566e-01,-3.966520044654459620e-01,4.342167861943230234e-01,4.728435784351440151e-03,-1.896245416410927403e-03,2.620118926569342532e-02,8.549701571464538574e-01
-4.403103744757344007e-01,-4.484168645422281774e-01,4.431459603177240192e-01,-2.865892141113095953e-02,2.977870948630772369e-02,6.701685469667457984e-02,8.979535698890686035e-01
-4.270426495444475945e-01,-4.245578738691973553e-01,5.526920892105079419e-01,4.043719187165703555e-02,2.767084339383574232e-02,2.208948567258084070e-02,9.829131364822387695e-01
-4.482089568740870722e-01,-4.232923300452089421e-01,5.690360989533913560e-01,8.533928184225314517e-02,4.216872104688498303e-03,-1.958781524142706384e-02,1.016422510147094727e+00
-4.388391654841314882e-01,-4.238965389536089590e-01,5.325138123691968151e-01,5.612851932855700277e-02,-1.245103587026005071e-02,2.986457381800279413e-03,9.691121578216552734e-01
-4.055054755301357172e-01,-4.619996489043176613e-01,5.231139933390690500e-01,2.996761198610155968e-02,-2.589010767846018635e-02,1.826926341712134874e-02,9.610898494720458984e-01
-4.426176953289193694e-01,-4.215533171025926396e-01,5.528219649004646463e-01,4.300816601310489956e-02,1.004715428225954124e-02,-6.489288422174582793e-03,9.881061315536499023e-01
-4.215207439809429135e-01,-4.348880090861079739e-01,5.424520113245878683e-01,9.576281874858353152e-03,-9.368028552175187984e-03,-8.917844820188178950e-03,9.711255431175231934e-01
-4.430145577715996486e-01,-4.482687236538476783e-01,5.122066113521887010e-01,-3.837681918855227053e-04,6.324268017041172196e-02,-3.430248554610931117e-02,9.659312963485717773e-01
-4.264920096735917432e-01,-4.351757477578051536e-01,4.566542425801157767e-01,-5.582452077753340125e-03,-1.469044563173827617e-02,3.131789643082624752e-02,8.895926475524902344e-01
-3.510937268550141099e-01,-4.413986230854360926e-01,5.424686855372760075e-01,5.133961245437804882e-02,-1.946025728116647022e-02,-1.504380981920423396e-02,9.471135735511779785e-01
-4.294305244774696551e-01,-3.968005979127944838e-01,5.433056504046215318e-01,-2.593451441386261311e-02,-1.330590958553406339e-02,7.887286868531699982e-03,9.582669734954833984e-01
-3.252735210952143463e-01,-4.412550473593555012e-01,5.218403959594486441e-01,5.610924412437241077e-02,-1.655916856348488633e-02,-1.392516637689535791e-02,9.165982604026794434e-01
-3.880354280244909249e-01,-4.191174030332641687e-01,5.650820803298189920e-01,7.804071523609898420e-02,2.452071630674784643e-03,1.017700855360742333e-02,9.785825014114379883e-01
-3.376322003523077875e-01,-4.207721329407160260e-01,5.259745810734011151e-01,5.919622260056912194e-02,5.668381788514536765e-03,3.633296496749504646e-03,9.138805866241455078e-01
-4.258195782304534105e-01,-3.803829607831946125e-01,5.409256624684540826e-01,3.477030619403814748e-02,5.750448253169520955e-03,3.984703243051202458e-03,9.468415975570678711e-01
-3.835867258930459878e-01,-4.139478568951497905e-01,5.405778408579012817e-01,8.109161692007030298e-02,-7.936582940722348295e-03,-1.462891106892713448e-03,9.502544999122619629e-01
-3.663589335413983128e-01,-4.505980280563728901e-01,5.404703840186851904e-01,3.208703035500622136e-02,-8.014066476858719423e-03,-1.770095727353607901e-02,9.539641141891479492e-01
-3.688855638726376562e-01,-4.217764376268737792e-01,5.371286207921249778e-01,2.544434977429133743e-02,-1.213758296642264249e-02,5.065789989899302515e-03,9.349011778831481934e-01
-3.697955754244466875e-01,-4.549272091810833696e-01,5.132578278189681154e-01,-5.889754895409565760e-02,1.856733110223158720e-02,-2.320780922043247027e-02,9.355551004409790039e-01
-4.094704864969501146e-01,-4.692663362244453018e-01,5.367664049915908953e-01,5.061503968779777936e-03,-1.578807922123561316e-02,4.707036954153095618e-05,9.779291749000549316e-01
-3.617434902157956045e-01,-3.741686967260517971e-01,6.245871607469510867e-02,-8.151377497270091005e-03,9.770706627564734736e-02,-7.330368147335443452e-02,4.799295067787170410e-01
-4.396710877819339225e-01,-4.407920110892494803e-01,5.291232695397154462e-01,-3.975415543633444189e-03,6.509750450558338813e-03,-3.621768559333959393e-03,9.694656133651733398e-01
-2.999162996652000035e-01,-4.745518799155115652e-01,5.794001535279030835e-01,8.575677024340562504e-02,-1.523242718154132688e-02,-9.477383391951144098e-03,9.900925159454345703e-01
-3.330357172590664994e-01,-4.527287252301140374e-01,5.600127707696316293e-01,6.675827503763930026e-02,2.130866262133952055e-02,1.365500964676373205e-02,9.664601683616638184e-01
-3.965367923459546806e-01,-4.086960745649012017e-01,5.412635828790878234e-01,4.216635539097794011e-02,-1.214180792278308878e-02,-7.024138341472103281e-03,9.470716118812561035e-01
-3.789848703951049225e-01,-3.840470087115687159e-01,5.247516637073850188e-01,9.257231840804505674e-02,3.229479124731327749e-04,-4.189308510087370006e-03,9.203814864158630371e-01
-3.941687445894316855e-01,-4.158676203845517172e-01,5.668362262743991131e-01,7.692215060858739739e-02,-9.676598018865988429e-03,-9.521605592637417265e-03,9.814061522483825684e-01
-3.315008842511601994e-01,-4.560066958593030906e-01,5.592006467548507054e-01,5.817756707882611178e-02,-7.620560230335424526e-03,-8.270156060461586120e-03,9.645111560821533203e-01
-4.065778002077796716e-01,-4.469951838104171959e-01,5.344270116962802630e-01,1.201289689672107100e-02,1.290764328827734286e-02,2.373055974381216553e-03,9.623441100120544434e-01
-3.725913010257200786e-01,-4.421473923952338736e-01,5.068484142874010168e-01,-2.594745992626064021e-02,-1.025530465057780151e-02,2.435044659960077830e-03,9.174833893775939941e-01
-4.285310814422901848e-01,-4.444166173721640356e-01,5.356826701882976272e-01,-3.785403974165589894e-03,-2.308818598243556411e-02,7.912232918653370334e-03,9.731944799423217773e-01
-4.431217974995649289e-01,-4.421158256926173702e-01,5.319636450392466465e-01,2.466784160240024885e-03,2.203388277756327621e-03,-4.303899536302642839e-03,9.746282100677490234e-01
-3.782596780667945024e-01,-4.731293055364662603e-01,5.238716671148773152e-01,-3.286436341620090074e-03,-1.217129534718371098e-02,-5.132787813237319266e-03,9.534054398536682129e-01
-4.485184728907349871e-01,-4.360340980370635000e-01,5.313141219266587223e-01,-1.122166858659662866e-03,-2.646216553544317434e-03,-5.545785991983159802e-04,9.736636281013488770e-01
-4.427244126196091534e-01,-4.409668506778492425e-01,5.501814950964968309e-01,2.606402665143671329e-04,-8.140075144939852309e-04,7.997074325756617710e-03,9.921261072158813477e-01
-4.220141735712081843e-01,-4.288816257492962247e-01,4.343995992772434755e-01,3.481967682499967007e-03,1.258629737830554637e-02,-2.009374604404500983e-02,8.608693480491638184e-01
-4.383747249732793949e-01,-4.242489755161522602e-01,4.818402537032611122e-01,3.889082483264510743e-03,1.699600470987273210e-02,-1.230987705260203589e-02,9.139819145202636719e-01
-4.272252192963279516e-01,-4.406501032528740147e-01,5.091765073099773220e-01,-2.197982342902709933e-03,9.438860799580709240e-03,2.529580435945047012e-03,9.433453679084777832e-01
-4.298083773901675286e-01,-4.315989562437942406e-01,5.046115384587265273e-01,2.679337378977524661e-03,1.321066693801380490e-02,-7.663244205808392902e-06,9.356078505516052246e-01
-4.328572617290219471e-01,-4.474894334323136769e-01,5.429723705970515013e-01,4.458625244024496813e-04,1.290161587519515762e-02,3.794764929232266604e-03,9.835035204887390137e-01
-3.646843560528937322e-01,-4.329174862236944143e-01,3.536068586420537674e-01,-1.564784627300475420e-02,-7.956382236660965168e-02,2.958395678090265657e-02,7.693898081779479980e-01
-4.153050261963415757e-01,-4.184265984334081812e-01,4.405620392398876817e-01,3.947624367063334860e-03,-4.229195778807347261e-02,-5.666244555804719057e-03,8.606385588645935059e-01
-4.200857642507164758e-01,-4.177914752877096571e-01,3.683717434684066205e-01,-9.805519217808951818e-03,-9.660746052992413846e-02,1.970635742329983689e-02,8.058002591133117676e-01
-4.326541058471079504e-01,-4.467290598811011759e-01,3.927948713879172438e-01,-5.459828588714196046e-02,-4.977214342810400843e-02,3.864211523137476255e-05,8.423520326614379883e-01
-4.174650236928701963e-01,-4.371478918906809286e-01,4.592380858349723871e-01,-4.701467393919025843e-03,-3.960997359915140181e-02,1.585960884761921860e-02,8.898199200630187988e-01
-4.497806580248023822e-01,-3.238633495525670147e-01,5.090212506840310347e-01,6.649011934332021978e-02,-4.757212077233953854e-03,2.443152588381009710e-02,9.107952117919921875e-01
-4.693259338752956977e-01,-3.347612733451453826e-01,5.215197064339454069e-01,6.522214323104855160e-02,-2.953028945000736420e-03,2.099519477992638564e-02,9.384350180625915527e-01
-5.181202110155050944e-01,-2.989670602988315773e-01,6.152443136475446162e-01,6.541218615743648462e-03,1.236500075315306695e-02,2.915358557435192982e-02,1.042736649513244629e+00
-5.267598869188506727e-01,-2.834839980118870062e-01,5.506631964073435137e-01,3.973708497636099790e-02,-8.322434763529699617e-03,1.534455489989969973e-02,9.816128611564636230e-01
-5.597682503570163837e-01,-2.824252263595155577e-01,6.241855031709416801e-01,5.095994169450439315e-02,-2.114605537686556347e-02,2.098417505074500963e-02,1.077384591102600098e+00
-5.550522211907651382e-01,-2.557078407070391690e-01,5.537564630990357006e-01,5.779322045417748660e-02,-3.753440146711706921e-02,-2.865394521096202921e-03,1.000709414482116699e+00
-4.637510944260106460e-01,-4.175851530624582475e-01,5.450115614275948817e-01,-2.782515751275389283e-03,-8.559436414235501930e-04,-2.150467881281018304e-02,9.872059822082519531e-01
-4.295674899201116226e-01,-4.336075550969020198e-01,4.598706998110626554e-01,8.789997343287835356e-04,1.688277840345746295e-02,-6.659180266254792480e-02,8.993724584579467773e-01
-4.819917286405264734e-01,-3.693986124968575147e-01,5.453577799802159509e-01,1.365424531640151498e-02,-1.956333451043178878e-02,-6.368499371229786876e-02,9.830191135406494141e-01
-4.453934299444654576e-01,-4.272036293773627813e-01,5.445159488290427507e-01,-1.622303040030978602e-03,-3.954132604800151760e-03,-3.887009199124994568e-02,9.832764863967895508e-01
-4.601385698279530367e-01,-4.312520885644761104e-01,5.341676316495865828e-01,-9.987072051147970891e-03,2.481106471561891208e-02,-2.442903430277801324e-02,9.821881651878356934e-01
-5.052149388969483512e-01,-4.004443183286123253e-01,4.812388563886340620e-01,-4.605667579085096636e-02,3.868575720589336603e-02,-3.916250302024028296e-02,9.466631412506103516e-01
-4.324087246306609900e-01,-4.423163101212645998e-01,5.126724033733464081e-01,6.366941889899401658e-03,-5.297994702593375287e-03,-8.234772713947475370e-03,9.502890110015869141e-01
-4.489137937516520793e-01,-4.303361416227527436e-01,5.244292805772625687e-01,1.648079977379975991e-03,-1.546034222125769984e-03,8.981484632652942703e-04,9.641976952552795410e-01
-4.472424882910052690e-01,-4.203284462822314271e-01,5.096609044385826959e-01,5.488986242101650745e-03,7.622046826331071653e-03,-9.459044057698961713e-03,9.440166354179382324e-01
-4.764326402468254118e-01,-3.462490482707376582e-01,6.389749749228657016e-01,-1.305908188556722527e-01,2.999231801175190892e-02,-8.795007665529132324e-04,1.081543803215026855e+00
-5.354747187484719673e-01,-3.203437249687549615e-01,6.133557993898054450e-01,-9.910881259941914379e-02,-2.083493736164106214e-02,-2.231219363988978799e-02,1.072943329811096191e+00
-4.302606396580715975e-01,-4.382880152584219813e-01,5.490843197630050909e-01,-1.899686439769548638e-02,-6.487967593026727417e-03,8.897237412523961719e-03,9.841183423995971680e-01
-4.568677307101610130e-01,-3.738583823563855768e-01,5.603628895291133949e-01,-5.471664490714515938e-02,-1.477316053052165831e-02,2.149817629394803337e-02,9.839878082275390625e-01
-4.709894656669442181e-01,-3.428244939016575898e-01,5.703614737131079693e-01,-5.513353126656523467e-02,1.345766133001444686e-04,-1.629050860898202668e-02,9.885790944099426270e-01
-4.597955450973387759e-01,-3.430501986166586414e-01,5.380991791928899648e-01,-5.555780883271355802e-02,-8.609980630225198134e-03,-2.813161898464062050e-03,9.499631524085998535e-01
-4.667688265836939521e-01,-3.014858428801209245e-01,5.627222601534217494e-01,-7.636803145436447948e-02,-9.535987150774442520e-03,1.320591297773192341e-02,9.671117663383483887e-01
-4.990069589282271623e-01,-2.706533579325723360e-01,5.521555040817147653e-01,-6.748737812307782635e-02,-2.014342250171038962e-02,3.222812958130022443e-02,9.669787883758544922e-01
-4.958258550710348822e-01,-3.233054605045994623e-01,5.487453795530243816e-01,-4.181243472816672385e-02,-7.329697957141030965e-03,-1.183129117906979444e-02,9.728866815567016602e-01
-4.394721486328534432e-01,-4.389179168502398976e-01,5.370850769527177881e-01,3.242976471202590246e-03,2.172489313732951614e-03,-3.749387371124549354e-03,9.763252139091491699e-01
-4.377343062193044809e-01,-4.345930966741811119e-01,5.453003732819041716e-01,-1.065845389619714256e-03,4.216458066085294323e-04,1.756861298736065152e-03,9.814745783805847168e-01
-4.353176724159282807e-01,-4.356348477422942178e-01,5.288041414760703551e-01,1.813971173403091958e-03,3.980805811611291649e-03,-4.757684756545555241e-03,9.643453955650329590e-01
-4.319105596611931830e-01,-4.386799603842028716e-01,5.463773361503220238e-01,-1.504504928821429749e-03,-1.851660480130495022e-03,1.135179783639747760e-03,9.817007780075073242e-01
-4.312398584024451642e-01,-4.397367947297241009e-01,5.185059503378142143e-01,4.738108934947879956e-03,-6.200027965874887331e-03,-2.102805832934238634e-03,9.541253447532653809e-01
-4.651612672248459091e-01,-4.168143107640292500e-01,5.403180878218015737e-01,-4.063537718158398426e-02,-7.423203023408996709e-03,3.714381112837487897e-02,9.869003295898437500e-01
-4.354866143143816815e-01,-4.409662238528153644e-01,5.488623382576871546e-01,1.500961760650025047e-03,-1.556850675583686030e-03,-7.062010708895978886e-03,9.871830344200134277e-01
-4.398322207388051241e-01,-4.421895427974530390e-01,5.408535460662394767e-01,1.093190448995156987e-03,1.867065613489459538e-03,1.676735611006598126e-03,9.818779826164245605e-01
-4.143765232462880421e-01,-4.458163986645001242e-01,5.404119003465478466e-01,-3.694343126189689446e-03,4.949485847997811723e-03,-1.254447616254441905e-04,9.709491729736328125e-01
-4.398237213815113789e-01,-4.367109373165114494e-01,5.388720357382994486e-01,-3.102925095232222149e-04,5.358383579442970585e-03,-7.248081790385212759e-04,9.771881103515625000e-01
-4.157869875020505090e-01,-4.431610702737577845e-01,5.409258740544553579e-01,-5.993481716208657207e-04,6.935775953360550153e-03,-5.716901459000465167e-03,9.708148241043090820e-01
-4.404570830201966491e-01,-4.182959462887431701e-01,4.783471225519392300e-01,2.358142176627919459e-03,5.410022108590634149e-02,5.770271398411522257e-02,9.182137846946716309e-01
-4.196176979827384579e-01,-4.050933611421315139e-01,3.653959716826049586e-01,-1.129898655722460718e-02,1.043479529840370297e-02,-2.334367898007437894e-03,7.783197164535522461e-01
-4.388711027886927907e-01,-3.900234582590549337e-01,3.103171291105878415e-01,3.132792406767367227e-02,9.142232779855659353e-03,5.667150138115137348e-02,7.347809672355651855e-01
-4.540708194378357265e-01,-4.096240334509278491e-01,3.232243841676756269e-01,6.184159464431388149e-03,1.039467158785228884e-02,5.807167328562551356e-02,7.630012631416320801e-01
-4.138387999527809447e-01,-3.856306888642979658e-01,3.126624792920896789e-01,-5.936972720967657099e-04,4.029215838170723679e-02,3.882866452425721288e-02,7.193754315376281738e-01
-3.870985772775101252e-01,-4.497288319410370772e-01,5.540970931940323307e-01,-4.019040133795061254e-02,1.326441009581852274e-03,4.135864966288286745e-03,9.765354990959167480e-01
-3.904231038360995720e-01,-4.075085692888285593e-01,5.386146840252170609e-01,9.742484576616278202e-02,-2.341000433157548657e-03,1.863041402253417383e-03,9.527737498283386230e-01
-5.055366358642991997e-01,-2.142543010178251661e-01,6.164763612722029551e-01,1.944895294635115846e-01,1.196678740526774601e-02,-1.280838583951580262e-02,1.063642978668212891e+00
-3.082456115207962699e-01,-3.341348934697554451e-01,6.001826310513669327e-01,2.697124895115416976e-01,-5.889055054595026227e-04,-8.812045914344888986e-03,1.033392071723937988e+00
-2.550549109181030616e-01,-5.849965624034664247e-01,6.940643718236356730e-01,2.774250276527288062e-01,1.097395623960455979e-01,-4.422828637240062283e-02,1.263223528861999512e+00
-5.587184362232309187e-01,-2.956720514877437256e-01,6.695966733490548162e-01,3.067142884344945530e-01,4.500371768566437114e-02,-1.674667081058808099e-02,1.242572307586669922e+00
-4.418765237977956839e-01,-3.759796929857207592e-01,5.775741719002135399e-01,1.782639847057384541e-01,6.305237224106447803e-04,1.209336192081105280e-02,1.035479426383972168e+00
-5.132415459065724495e-01,-3.486483216147387987e-01,6.365964223779683184e-01,1.314877382411778761e-01,1.552570600333395140e-02,2.414176580436851443e-04,1.101159930229187012e+00
-3.498484922182290013e-01,-4.876778376338583576e-01,5.612050009305271647e-01,-3.644401616699365770e-02,-1.085924408539667204e-03,8.710072309690234521e-03,9.893437027931213379e-01
-4.294939132983829899e-01,-4.594379843899075166e-01,5.450125571572139727e-01,-7.911625140009422713e-04,1.432890815257643891e-02,-2.719586472944235389e-03,9.901415109634399414e-01
-3.718629652057192647e-01,-4.587589835470790578e-01,5.419128175724495788e-01,-1.215543716452061572e-02,-1.727969387829376632e-02,8.844143872815469695e-03,9.609965085983276367e-01
-3.961972987162468152e-01,-4.651858107287356603e-01,5.543578588606300483e-01,-4.798084630995612734e-03,6.724414135768292181e-03,-2.820827620411426370e-03,9.869754314422607422e-01
-4.069663711762321889e-01,-4.611032403564611082e-01,5.355041805628895091e-01,-4.195700274191015502e-03,-8.220232820540285951e-03,-1.631819308612319358e-03,9.708076119422912598e-01
-4.392033081663189731e-01,-4.376065609432965853e-01,5.504664620726310575e-01,6.244990441856170102e-04,-1.438418039637463135e-03,-1.865060371943835522e-03,9.888813495635986328e-01
-4.084174198961723623e-01,-4.554717657857860758e-01,5.365140804351374859e-01,-5.733550557207772562e-03,-9.224386514782448657e-03,-4.787523634864583122e-04,9.694985151290893555e-01
-3.958508201942147475e-01,-4.579149995536866413e-01,5.455124805512922004e-01,-2.292395261839646342e-03,1.046656660294640467e-02,4.562260267829486293e-03,9.740886092185974121e-01
-4.426347212541343334e-01,-4.295034863885263676e-01,5.406033239154535153e-01,-1.740841701811936823e-03,-2.543898436937923942e-03,-1.927132259262844677e-02,9.773234128952026367e-01
-4.645335486579166284e-01,-3.827071014245521097e-01,5.348259465025244630e-01,-1.315456017101524280e-02,1.124488423012486721e-02,-1.565388325524930818e-02,9.619119167327880859e-01
-4.416169211402926620e-01,-4.290756204738668811e-01,5.057533111322014552e-01,2.830135533291875186e-03,5.050839214415595198e-03,-1.820251485832057384e-02,9.417435526847839355e-01
-4.405196818090058586e-01,-4.383547454598808457e-01,5.417521826095864634e-01,9.258727070905868215e-04,-5.896042949233194644e-04,2.318319842645140405e-03,9.812012314796447754e-01
-4.627534535099135926e-01,-3.804960900315100814e-01,5.190554706551755437e-01,-1.310675644923593383e-02,1.231535971544019288e-02,-1.755465998355086599e-02,9.443775415420532227e-01
-4.554207804104145052e-01,-3.937344427186757478e-01,5.029648014626796337e-01,-5.171417235059189328e-03,-1.354633600688246939e-02,-5.727254086683011662e-03,9.294718503952026367e-01
-4.448196216925635049e-01,-4.358747915749651702e-01,5.293486257458698274e-01,5.538944828567632546e-03,-3.214844140717834642e-03,3.481019257797430232e-03,9.698089361190795898e-01
-4.594966672400802588e-01,-4.280952698852462102e-01,5.242648493019763656e-01,1.118284405586693689e-02,7.391436015644294380e-03,-1.101132909422559937e-03,9.687228798866271973e-01
-4.402483300559913437e-01,-4.325916700259914704e-01,5.215232830596512326e-01,-4.602480336183528871e-03,-1.146265310079830346e-03,2.746019136141939453e-03,9.580132365226745605e-01
-4.356092361466631369e-01,-4.378906805185507345e-01,5.161410141349401792e-01,-7.486575763012001325e-03,4.192381872317772935e-03,-4.236029867255989775e-03,9.530371427536010742e-01
-4.398392111384604175e-01,-3.883543802751698304e-01,4.165065895738789825e-01,3.272739728400606007e-02,-4.220971253037109072e-02,-4.182938632803296503e-02,8.400579094886779785e-01
-4.629056430200904626e-01,-4.377195797340198702e-01,5.600754927345724665e-01,1.173629713598749527e-02,1.923776822846825704e-03,-1.479083603769588279e-02,1.011157989501953125e+00
-4.099282113460587240e-01,-4.266632072401129183e-01,4.188508218589708232e-01,1.573636265177861399e-02,6.093723523155174238e-03,-3.381562867185132493e-02,8.398268818855285645e-01
-4.429031643594111278e-01,-4.498555390196740111e-01,5.487704062281546502e-01,8.476986651704185999e-03,1.476505113766069617e-03,-1.006798342406808183e-02,9.954323172569274902e-01
-3.220916708597497125e-01,-4.955171522771233406e-01,5.713352613881084174e-01,6.899802062655226165e-02,-1.551306352721396747e-02,-1.865898285702856287e-03,9.991224408149719238e-01
-3.677278312674575056e-01,-4.809401919478256127e-01,5.471263108659157881e-01,3.011166937554333664e-02,5.464609405194828518e-02,2.114630166112761028e-02,9.830402731895446777e-01
-4.059744802885377202e-01,-4.168198455484663500e-01,5.083118210467768572e-01,5.975664750560465144e-02,-2.548590902814057424e-02,-6.931651535258624361e-03,9.266920685768127441e-01
-3.753697084346930835e-01,-4.573033549929850228e-01,5.187488850811633467e-01,1.238900490104253779e-02,-1.316283467342718033e-03,2.586501022219855894e-02,9.390911459922790527e-01
-4.009032549920840127e-01,-4.773837961497371385e-01,5.378349649096166862e-01,5.395205907659171574e-02,-2.312656185569031408e-02,-1.729688760769101594e-02,9.849408268928527832e-01
-2.975563419396137221e-01,-4.511246259092838717e-01,3.499802285136782709e-01,-1.684628658583600114e-01,3.171392313077261299e-02,5.468455276138844273e-02,7.996597290039062500e-01
-3.788619756911792980e-01,-4.983115969728621475e-01,4.652267841880264321e-01,-1.577856326337823134e-02,-5.778290094000282373e-02,4.297787468013587048e-02,9.186320900917053223e-01
-4.249543258119984901e-01,-4.426982122525021657e-01,4.767656152531999370e-01,1.464750967953060059e-03,-1.337360008334076769e-02,2.958937493625300817e-03,9.110339879989624023e-01
-4.182437099184379559e-01,-4.803864395582196911e-01,5.592850166565016545e-01,-1.908818851463292901e-02,-2.649539496604288308e-02,9.363469532620074046e-03,1.011747241020202637e+00
-1.307451811872281655e-01,-6.932268470683746742e-01,3.829015458246464165e-01,-2.075524487984987676e-01,6.652540147205117382e-02,2.975744252929769795e-02,1.007126092910766602e+00
-4.051326946820340558e-01,-5.073845819822577763e-01,4.538166086902559737e-01,-5.877946605714924611e-02,-1.067689932945413978e-01,1.552806253372643677e-02,9.388108849525451660e-01
-4.401752161915815642e-01,-4.277857298074778658e-01,5.465584059036528997e-01,-6.486417769424418457e-04,1.370053132090430156e-02,-1.215157895346476863e-02,9.811111092567443848e-01
-4.425359051139047262e-01,-4.376840858982580795e-01,5.593689016406255821e-01,-1.086848657219703466e-02,-6.078287933453140231e-03,4.049207934497307641e-03,9.997450113296508789e-01
-4.163823274391900697e-01,-4.375178652313753136e-01,5.505042400140222059e-01,-1.258049728552896457e-02,4.733029489025153630e-05,-5.164044318409913466e-03,9.779094457626342773e-01
-4.108621819667475639e-01,-4.259587857917804254e-01,5.413974013005701247e-01,-2.378010004858422885e-02,5.295169683137168105e-03,-6.752951568834384202e-03,9.608951807022094727e-01
-4.129173110536413782e-01,-4.399423340619724176e-01,5.485900180342674348e-01,-1.544471243171346986e-02,-2.863218630405957310e-03,2.964430799488700606e-03,9.756936430931091309e-01
-4.406114954466836542e-01,-4.446083912326661003e-01,5.482763421791677638e-01,7.102921826640749012e-04,-1.727998428632008046e-03,1.003050107223065835e-03,9.908991456031799316e-01
-2.838024689273381251e-01,-5.000334331932937415e-01,5.453933351652501260e-01,-4.688629904827568834e-02,9.001200196331269818e-03,-1.280285546130080498e-02,9.596609473228454590e-01
-3.936678372102626611e-01,-4.770647642405744238e-01,5.715708135057355754e-01,-3.580813328447564337e-02,-6.520487061663427994e-03,-1.304749004549586632e-03,1.011492967605590820e+00
-3.034260407113094637e-01,-5.307503978262663180e-01,5.637005292810854939e-01,-2.305875877831933818e-02,-1.483008549231744702e-02,1.379473300354887647e-02,1.001763224601745605e+00
-3.294788944808105802e-01,-4.649523169825631741e-01,5.397064270228351113e-01,-6.025444852671583973e-02,2.969624334501382718e-02,-1.349764077580363833e-02,9.516678452491760254e-01
-4.304222977130527372e-01,-4.283674769103207880e-01,4.612805672194295603e-01,2.265662349800686565e-03,-5.975450835986198875e-04,4.089004198587817968e-02,8.934978246688842773e-01
-4.395313177443646024e-01,-4.146594916681447529e-01,5.401174131888517582e-01,-4.145444108953299372e-02,2.773764028171045101e-03,-2.470544008477753434e-02,9.710685610771179199e-01
-4.048716253742006277e-01,-4.264798714920008949e-01,3.355895495448758536e-01,-9.371505838348472006e-02,-1.761894614602954601e-02,1.086473607001995911e-01,7.921119332313537598e-01
-4.460889769353458822e-01,-4.377353176388297795e-01,5.168115863718415470e-01,4.140716702696404226e-04,-2.051522094020276875e-03,-2.087760709070883743e-03,9.587646722793579102e-01
-3.809774692143219066e-01,-4.888085649316658565e-01,5.670411297626943847e-01,-6.827809462858478763e-03,-1.708660930788217028e-02,-5.119868419725621955e-03,1.006820321083068848e+00
-4.400690798508688495e-01,-4.420709237201064790e-01,5.416595606996055245e-01,5.680665574915499429e-03,-5.804464845977580154e-03,-2.864581484846529403e-03,9.828442931175231934e-01
-4.401298307758932937e-01,-4.339519493208537360e-01,5.522522862606622507e-01,6.631015315412902913e-04,5.603270449447749456e-03,1.088264901893732956e-04,9.893559217453002930e-01
-4.406666609023720538e-01,-4.365698325492368692e-01,5.468089468842824985e-01,2.096298629326874812e-03,-7.692437986805846992e-03,-1.562666176352030516e-03,9.855340719223022461e-01
-4.433775351922404351e-01,-4.203453599725404111e-01,5.456340559499565090e-01,-2.801922745426753403e-03,-2.601163017478722549e-03,4.965227262617037500e-03,9.777592420578002930e-01
-3.455179263158956737e-01,-4.496457027677073226e-01,5.336565635074176361e-01,-3.223930104760858173e-02,-3.410049253888090305e-03,-7.753995435206184964e-03,9.373741149902343750e-01
-3.227494055874389756e-01,-4.608390312470596606e-01,5.338791311569693887e-01,-2.572183387479070812e-02,2.390082567085086152e-02,-1.518776657205054420e-02,9.357153773307800293e-01
-3.361833625199174280e-01,-4.971001415399365353e-01,5.622641466713671488e-01,-2.443502553699789664e-02,1.090024132536012748e-02,-1.067514659847277995e-02,9.900338053703308105e-01
-2.856920280495097719e-01,-4.908491644912317819e-01,5.487336947817145205e-01,3.084321304334967061e-03,3.136440678643941798e-02,-1.615211325004247225e-04,9.552611708641052246e-01
-3.530076878072915258e-01,-4.700261093209545660e-01,5.434735123027119030e-01,-1.690366200695733040e-02,8.997794884051873304e-03,-3.287477012984243475e-03,9.609417915344238281e-01
-3.463408572584897871e-01,-4.850636869782946614e-01,5.541336299860426529e-01,2.459638993681215104e-03,-1.480206200599799501e-02,-1.673503797314957614e-04,9.775940775871276855e-01
-2.999562295613993346e-01,-4.994624374020965596e-01,5.570925345310745458e-01,2.901878227951317640e-02,-1.600717879256616585e-02,-6.655241189704192567e-03,9.740378260612487793e-01
-2.701181455407699050e-01,-5.276488506805491197e-01,5.602812737102109697e-01,2.168590688733292027e-02,8.112439931309996938e-03,8.969746231969534522e-03,9.856917858123779297e-01
-3.331558528255716967e-01,-4.829887418195960014e-01,5.388989698157061747e-01,1.780147447637822622e-02,1.234145770717703927e-02,-2.957664306512355901e-03,9.565698504447937012e-01
-3.563277319786209429e-01,-4.828107562775025841e-01,5.480939448992959706e-01,7.513893761423055470e-03,-1.501524917590076752e-02,-5.182533560729364434e-03,9.743186831474304199e-01
-2.858769491990226230e-01,-5.014244917843031502e-01,5.350420191490328214e-01,1.501392454180280542e-02,-2.456957991444903150e-02,-1.132298438634058747e-02,9.487822055816650391e-01
-3.138990830751965944e-01,-5.051436012134328246e-01,5.475658918903049122e-01,-4.712707601771193647e-03,1.134505855170854505e-02,2.157969796432152683e-04,9.715450406074523926e-01
-2.739101361569404869e-01,-5.094077071964751013e-01,5.433240843642214157e-01,9.721284162474236280e-04,-2.402352406167210935e-02,-4.518644898111416879e-04,9.578738808631896973e-01
-4.436613566633045846e-01,-4.332955310992726017e-01,5.191812583849302332e-01,4.550572737703569362e-03,-3.697732335240309053e-03,-9.712250597588057560e-03,9.579033255577087402e-01
-4.451004820280581864e-01,-4.395849853856435563e-01,5.395525911899337057e-01,4.687528876012779511e-03,5.262793123169279448e-03,-6.080291776509940370e-03,9.820392727851867676e-01
-4.285848080724766196e-01,-4.278824055030305273e-01,4.933528676622163101e-01,-3.678927466098737536e-03,9.397082033050424554e-03,-9.257180566512911504e-03,9.218918681144714355e-01
-4.513184165097526290e-01,-4.303121805432912894e-01,5.246521667597169314e-01,5.792605034594255561e-03,8.594388604420334643e-03,7.264086382665882382e-04,9.658064842224121094e-01
-4.431017778150095898e-01,-4.395451264942489278e-01,5.335360915025210149e-01,7.676021071545580110e-03,5.943504529865990121e-03,-1.985155070645315773e-04,9.750095009803771973e-01
-4.418664349970101157e-01,-4.286808142753950612e-01,5.003051930477308007e-01,5.884875934797669308e-03,1.678527771803892121e-02,4.534647699899197783e-03,9.361885190010070801e-01
-3.992977739477270860e-01,-4.098923611106629616e-01,5.301863844052793207e-01,-2.470008650794212023e-03,-2.715212453007428712e-03,-4.060362272867086217e-03,9.348745346069335938e-01
-4.463414804118522872e-01,-4.025077429734204015e-01,5.303650363345110419e-01,1.323160395778604295e-02,-1.197998169893826209e-02,-6.702620607723410937e-03,9.561144709587097168e-01
-4.432994488475752171e-01,-4.319079882124315928e-01,5.084372843020268373e-01,-7.282812243474417330e-03,-1.885720292529231151e-02,-1.070384142401708746e-02,9.469215869903564453e-01
-4.210294111233421899e-01,-4.108851374596015904e-01,4.235364814678198586e-01,1.255030886927543943e-02,3.419226238224874759e-03,1.736316286252639549e-02,8.403802514076232910e-01
-4.294405119631630741e-01,-4.187761620071508983e-01,4.501934352771352899e-01,-7.712590015486250374e-03,3.289126561985860481e-02,4.214559283897283126e-02,8.793415427207946777e-01
-4.323264742113374082e-01,-4.335665602100842730e-01,5.476717647243642961e-01,2.269087632406264349e-02,-5.545781332739452806e-03,-1.178387354383579264e-02,9.816653132438659668e-01
-5.174034666490321399e-01,-3.229465427954014700e-01,5.763754917132161149e-01,4.700702779968062017e-02,1.036191112556435201e-03,-2.213929801018042418e-02,1.014680027961730957e+00
-4.115523386534231665e-01,-3.786575048875921445e-01,5.299590361382325865e-01,4.801691457992100787e-02,-4.756237194543477646e-03,-7.658351296311585385e-03,9.293630123138427734e-01
-4.455070341271383239e-01,-4.379800959209523836e-01,5.523641024887971929e-01,1.902332498961249773e-03,-2.301689537239711477e-03,5.141174323751268073e-03,9.941823482513427734e-01
-4.500598957862043670e-01,-3.799124829152437099e-01,4.448899816478543157e-01,6.467275178725148156e-03,-3.858369754870744420e-03,6.072870006501630835e-02,8.685111403465270996e-01
-4.366101867371137146e-01,-3.971001854653924412e-01,4.212409583469760577e-01,1.512954147055720197e-03,1.083849733068403647e-02,1.025030491325802304e-02,8.391962647438049316e-01
-4.337954012258607439e-01,-4.429362628776168931e-01,5.194922788809027692e-01,-5.979196469719283424e-03,7.543862785139233279e-03,1.274382294443121219e-02,9.582901597023010254e-01
-4.443704337399292936e-01,-4.498258605999915227e-01,5.261642321465299643e-01,-2.413611744736938753e-03,1.383725740920839845e-02,1.702237101293546315e-02,9.740241765975952148e-01
-4.889915291790885021e-01,-3.373824036974431007e-01,5.691830723586263074e-01,1.319728794224707957e-01,3.704422386356224541e-03,-5.493509659167337966e-02,1.021584630012512207e+00
-4.752811136974012252e-01,-3.338171200441759079e-01,4.872726605843684666e-01,4.455016811817030103e-02,9.842885836293228247e-03,2.103262626308983682e-02,9.043931961059570312e-01
-4.790359074300349906e-01,-4.139044217768167444e-01,5.349951182399987903e-01,1.055246323730437696e-01,-3.739377146428620596e-02,2.223805658649524730e-02,1.002766370773315430e+00
-3.959991407510500827e-01,-4.137069355519460423e-01,5.326198605289200749e-01,3.629374965903368194e-02,1.237688904692459211e-03,-4.237723318918427788e-03,9.397343993186950684e-01
-4.349252404463746502e-01,-4.458250548191752261e-01,5.412207042987082772e-01,3.354938579393888787e-03,1.194365229521518988e-02,-3.028949671465473031e-03,9.818903803825378418e-01
-4.752688431615925135e-01,-3.077221474598477724e-01,5.574187174388047783e-01,8.196777376120630010e-02,-8.265465592274666429e-03,-1.242965779929316311e-02,9.707300066947937012e-01
-4.346156398205957561e-01,-4.481104225797047369e-01,5.323332905764296408e-01,-1.491416896079860019e-03,-2.562414229808462028e-03,2.985776243220885588e-04,9.737801551818847656e-01
-4.156822983420654927e-01,-3.916256117179341967e-01,5.311673089069710585e-01,2.966164518446618228e-02,-6.612422803033413815e-03,2.120628075876097775e-03,9.365409612655639648e-01
-4.255230025075703026e-01,-4.023755986847737942e-01,5.424483756366297316e-01,-2.087845650322832022e-02,-1.251218051691734001e-02,1.249188445486301008e-02,9.577807188034057617e-01
-3.906618205661510079e-01,-4.237416072259047040e-01,5.373818634645229908e-01,-2.780228669637449870e-02,-8.906640147470716584e-03,1.504692003021919008e-02,9.467285275459289551e-01
-4.431619480928841726e-01,-4.602164326083892920e-01,5.167002749360241065e-01,-6.637325534008391148e-02,1.434876512716339730e-02,-4.492663061785080736e-02,9.787161946296691895e-01
-4.080076259261131710e-01,-3.389591402493642991e-01,5.192994682325680067e-01,-6.589984541892662806e-02,3.039562372800399051e-03,-6.354344000571814782e-03,9.021165370941162109e-01
-3.193898492397641564e-01,-4.253213418401878831e-01,5.218250269137059139e-01,-6.834120111780422890e-02,2.718899405130779500e-03,-3.148801983668349583e-03,9.066634178161621094e-01
-3.824237378310536561e-01,-4.190118204450252737e-01,5.291789337300716323e-01,-3.526533454012957536e-02,4.482439596287916567e-04,3.799494517055604544e-03,9.324627518653869629e-01
-4.363045871708758350e-01,-4.435674043247311849e-01,5.334104775343196936e-01,2.947951353801336188e-03,2.943623892426416866e-03,-1.005915225792087739e-04,9.733935594558715820e-01
-4.390426186261245367e-01,-4.450833575484215432e-01,5.447331016490416511e-01,2.188474309406773788e-03,-3.132217931819424213e-03,-1.264123935579966607e-03,9.868345856666564941e-01
-4.414202335626152829e-01,-4.341346272691440356e-01,5.446267934060442517e-01,1.302070583127844195e-03,-8.066963207937149181e-04,6.990354545197275185e-03,9.825026988983154297e-01
-4.320863709449834222e-01,-4.367394378299002677e-01,5.091532253690728149e-01,3.629269834599486814e-03,-2.418779946075760075e-03,3.347122452087855117e-03,9.436227679252624512e-01
-4.377920476011498696e-01,-4.436118950809264105e-01,5.126324560329516000e-01,2.711386297292632443e-03,-5.396528708884153029e-03,1.301401349441114880e-02,9.536715745925903320e-01
-5.040686800048231886e-01,-3.550604237152817366e-01,4.518166445854501223e-01,-4.120457181476870623e-02,-1.120515902175809805e-02,2.705756286164439500e-02,8.950708508491516113e-01
-4.309755713191738002e-01,-4.414276894606213864e-01,5.117274277973955510e-01,8.163562680061166310e-03,-7.263542945969458584e-03,7.584453097715311218e-03,9.482522010803222656e-01
-4.351232741102624146e-01,-4.444871914296090187e-01,5.328019489176551993e-01,2.434928125174521188e-03,-4.860210278095022061e-04,5.174428494327318676e-03,9.726917743682861328e-01
-4.406389450808297914e-01,-4.398439936443024334e-01,5.325659085028124906e-01,1.245644588079056984e-03,-1.393063095423663052e-04,-1.720094301456044725e-03,9.728146195411682129e-01
-3.976226637992597568e-01,-3.921359503788357515e-01,4.539114322824826520e-01,-7.039067560289685721e-02,1.435983697577927418e-02,-6.632014969981125246e-03,8.579530119895935059e-01
-4.363108350453539508e-01,-4.407632903608367236e-01,5.467474665471089290e-01,1.996845613745989491e-03,7.973771973963553195e-03,6.352073976925965652e-04,9.853955507278442383e-01
-4.429605621158238526e-01,-4.374622246814167670e-01,5.510050354633219127e-01,1.748302735767749434e-03,3.767319315410821469e-03,-3.750803476247889685e-03,9.912752509117126465e-01
-4.446072164443085062e-01,-4.248911371569927264e-01,4.749457233550097301e-01,3.930324119087141854e-03,1.652895648265874720e-03,-7.345108497492531044e-03,9.099740386009216309e-01
-4.962090174486202265e-01,-3.920227259285757881e-01,4.994133443073112133e-01,2.706891448219493623e-02,2.176623098032845482e-02,-2.833006244235376087e-02,9.510077238082885742e-01
-4.255374584304604246e-01,-4.449974023672043089e-01,5.004908441010236242e-01,-9.447804461364593632e-04,1.589598236841681476e-03,6.160890947077449914e-03,9.359763264656066895e-01
-4.319817732683167155e-01,-4.398451070650811756e-01,5.073371848855766642e-01,6.399620853641730181e-03,-1.273817053181418996e-02,1.005633541773629479e-02,9.437590837478637695e-01
-4.248997164607621335e-01,-4.374376427078471297e-01,4.661469397405790804e-01,-8.399366234326284195e-03,-7.460872196609203214e-03,6.024451185072512982e-02,9.036371111869812012e-01
-4.477847155446546545e-01,-4.287173089901740730e-01,5.247876984849585424e-01,3.712159028424511474e-03,-5.776782364770453697e-03,6.314250822103037106e-03,9.633157849311828613e-01
-4.278572595452893035e-01,-4.451082764005537262e-01,5.024114350086147374e-01,3.321899549752123392e-04,2.385846683145258305e-03,4.828102487995117320e-03,9.390595555305480957e-01
-4.379291819712625711e-01,-4.287240681822897526e-01,5.036990778836700766e-01,3.133064405863685616e-04,2.868095667993265604e-04,1.451422968213330472e-02,9.373970627784729004e-01
-4.355420702200250571e-01,-4.224180109115284187e-01,5.497865378774408063e-01,-8.897086051069928031e-03,-9.488913373463310486e-03,8.053107738864936568e-03,9.791911840438842773e-01
-4.255072856441988738e-01,-3.948583648089522558e-01,5.355656365004756170e-01,-1.612980906809043102e-02,-9.967962043973141451e-03,-9.861073401184192785e-04,9.466922283172607422e-01
-4.062781761358956745e-01,-4.048863982539680495e-01,5.338581738821974731e-01,-3.122691591943338452e-02,1.617337799530202402e-03,8.674523417183383281e-03,9.411210417747497559e-01
-4.117500396210171942e-01,-3.515894045276041213e-01,5.229290417176950534e-01,-6.131452786730500620e-02,-5.160724037084975062e-03,1.056022951784098794e-03,9.123458862304687500e-01
-4.189684382406486107e-01,-4.306202388535597114e-01,5.470886844812922201e-01,-4.359537650544469123e-03,-8.647769372203191474e-03,8.387034749458489868e-03,9.721886515617370605e-01
-4.353414149266015554e-01,-4.226036352826536557e-01,5.477149064703192849e-01,-8.600319878066396001e-03,-1.084441084527166220e-02,1.257536267353270149e-02,9.772866368293762207e-01
-4.410406572316481477e-01,-4.360816482814361406e-01,5.421605854786365475e-01,1.634611774068548415e-03,-1.348397775422734797e-03,-8.213281621329849777e-03,9.808411598205566406e-01
-4.407445912292024537e-01,-4.356110168855752973e-01,5.401872474483466746e-01,3.526572601347649147e-03,-1.473600180701669380e-03,-5.448110183044127530e-04,9.783980250358581543e-01
-4.372424341300305550e-01,-3.701274841909489299e-01,5.512318742062732868e-01,-9.923403274560978204e-02,-7.534000909563895454e-03,-1.325028228591974486e-02,9.723598361015319824e-01
-4.359284570012694759e-01,-4.413125813996863767e-01,5.493468366859679541e-01,3.177531348122399762e-04,6.177037006110781825e-03,4.178896454710129445e-03,9.880629777908325195e-01
-4.350585588046372854e-01,-4.362544895574598236e-01,5.286247128218688474e-01,-2.083095914688208887e-04,1.479708922674987130e-03,-2.865455109473982222e-03,9.642980098724365234e-01
-4.117035310332001763e-01,-4.325362256706027919e-01,5.293223038975913841e-01,-1.561476844394552033e-02,-3.995272394188208349e-03,-1.671273149254437831e-04,9.520226716995239258e-01
-4.217578870067512642e-01,-4.332118608455398090e-01,4.908158692296522574e-01,1.011737230037526320e-03,1.507364329372030270e-02,-1.072457035470545739e-03,9.187288880348205566e-01
-4.421232225175454889e-01,-4.380146307062414146e-01,5.296797067093890199e-01,8.715546233004869969e-03,4.318090238671081285e-03,-3.547547196082440936e-03,9.699209332466125488e-01
-4.348782131901921533e-01,-4.272903695346368380e-01,4.786836442522151014e-01,-1.429584915738303132e-03,-5.502153604220332006e-02,4.954813616486696687e-02,9.187895059585571289e-01
-4.352307552032966265e-01,-4.398178534030307563e-01,4.758733720235709397e-01,1.954864824059962796e-03,-3.798996118738057204e-02,4.132087002259372116e-02,9.185720086097717285e-01
-4.369741466041945910e-01,-4.308858847725933194e-01,5.033766789711032752e-01,3.836377217140020564e-03,2.835494231229705557e-03,1.402891432535608232e-02,9.376728534698486328e-01
-4.003704926162285349e-01,-4.326341665128011216e-01,5.182950449126420001e-01,-2.900802348798718622e-02,-4.781354137315249261e-03,-2.564006378343032001e-03,9.366106390953063965e-01
-4.365465485701969239e-01,-4.420977714351032595e-01,4.260840303182205080e-01,-1.530908366964551029e-02,-2.227590866661390695e-02,-1.759476365457995559e-02,8.672205209732055664e-01
-3.671287641250385869e-01,-4.614322919712981474e-01,3.790242436804351911e-01,-2.811451976653531887e-02,-7.742768877526304272e-02,5.048719339141798795e-02,8.148654103279113770e-01
-4.237542515625607464e-01,-4.347001013914547629e-01,4.691022414330853207e-01,3.697193864363241666e-03,-2.570794780530727408e-02,1.375933451978146593e-02,8.998206853866577148e-01
-4.278019510638785827e-01,-4.256876958860205118e-01,4.125957656502715620e-01,7.834699220753367499e-03,-5.077797861911519106e-02,3.915988761092662612e-02,8.467678427696228027e-01
-4.330367161568473566e-01,-4.208598801014175605e-01,4.463456969519352668e-01,1.560606022482607545e-03,-3.029808543387969150e-02,8.058613074950900582e-03,8.750483989715576172e-01
-3.654562087465386688e-01,-4.138235626993466143e-01,5.245544903661570890e-01,2.118240204784140046e-02,7.717064803547706714e-03,7.207530311770678905e-03,9.160712361335754395e-01
-3.808920770321087557e-01,-4.200983630402971847e-01,5.419184745846015172e-01,3.509349271015235749e-02,-4.640370904299774384e-03,-7.669558203549059483e-03,9.451096057891845703e-01
-3.995719763693666993e-01,-4.019121414754603383e-01,5.350910753219901839e-01,2.433864299595064201e-02,1.404777446614761255e-02,1.169910561825313403e-02,9.373193383216857910e-01
-4.384193160716657878e-01,-3.871154248568480782e-01,5.557638709906587149e-01,4.152280077029436856e-02,-1.397983714420079513e-03,1.866519803003411498e-02,9.727540016174316406e-01
-3.709940201928809689e-01,-3.772241172781730656e-01,5.770307691461222799e-01,1.390952637679034876e-01,5.230529883393385607e-03,4.025211346212329705e-02,9.837079644203186035e-01
-4.147856453774662056e-01,-3.591190070669040835e-01,5.244993648060852776e-01,5.205154022386785512e-02,-1.739304942881146968e-03,-1.828049056733091308e-03,9.171779751777648926e-01
-5.491514030266785307e-01,-2.538493356455233663e-01,5.981842973077887704e-01,3.288379180242712724e-02,1.170827614570914277e-02,-1.313498124678031970e-03,1.033650040626525879e+00
-6.435166342468991996e-01,-1.945991338140270477e-01,6.637067558449303295e-01,1.974490051296792781e-02,8.000763563364234748e-03,-2.618837783487345389e-02,1.151930332183837891e+00
-6.460661640874890699e-01,-6.577664009241399046e-02,6.082294158445393784e-01,3.271038106654135941e-02,1.828434523276707691e-02,-7.374428228284214681e-02,1.096661448478698730e+00
-6.498274393340509603e-01,-1.498417121847849809e-01,6.020415632748258306e-01,1.580655492264584072e-01,5.857734505050345847e-02,-1.174468406287928479e-01,1.147987127304077148e+00
-4.805590234998411425e-01,-3.395060179663239586e-01,5.602818408894915114e-01,-8.272742213660379262e-02,-1.761384632332749917e-03,1.020146264813987479e-02,9.885772466659545898e-01
-5.406291648597075783e-01,-2.539999621990626233e-01,5.474551414332117227e-01,-4.896563948696762425e-02,-1.007206554912900079e-02,1.795890170084350757e-02,9.811584353446960449e-01
-5.027561243339823127e-01,-2.506785376219912709e-01,5.265907963593990937e-01,-3.149663756475358511e-02,-9.999760293660877632e-04,2.225072255514121480e-02,9.317120313644409180e-01
-5.636268791303179482e-01,-2.717618473005133373e-01,6.038571717393863558e-01,-8.801276477103775475e-02,-1.469785743583635132e-02,-8.274559836917947178e-03,1.063742756843566895e+00
-5.360515618622142542e-01,-3.216323726410184047e-01,5.670705968914860895e-01,-5.654541618281683918e-02,-1.068257154234645775e-02,-3.033642896407726108e-02,1.019322752952575684e+00
-4.977370614395928983e-01,-3.260434557178607529e-01,5.596964144481689774e-01,-4.245537018109776795e-02,5.184123971028262688e-03,-2.478921050363620815e-02,9.866210818290710449e-01
-4.379177832423449268e-01,-4.242779534743096326e-01,4.471298575752695736e-01,2.249421640319868888e-03,-3.544918133016001366e-02,1.922850454290870800e-02,8.810889720916748047e-01
-4.300318110453617559e-01,-4.483440400283040805e-01,4.648017890953463072e-01,5.400927364791877940e-03,-3.193673297134649956e-03,5.439200904005531134e-02,9.090888500213623047e-01
-5.131604925663155736e-01,-3.814748845766394170e-01,5.172610342051102705e-01,-8.788555395149968280e-03,2.106088393892267471e-02,1.825084547959641285e-02,9.726148247718811035e-01
-5.149093165729698995e-01,-3.789052814539554670e-01,4.529772453181141190e-01,-2.415211722945130243e-02,2.002034727740658465e-02,5.769408431245517943e-02,9.146602153778076172e-01
-3.855712683307489508e-01,-4.790023902613902984e-01,5.274645494297703907e-01,8.734130956154320972e-04,-7.938264275939029002e-03,-1.254255586011312693e-02,9.635003805160522461e-01
-4.047471844660047724e-01,-4.240679178706047159e-01,5.382523672267444104e-01,-7.520621291953581006e-03,7.448349031166411408e-03,-7.923620333997268353e-03,9.530820250511169434e-01
-3.886983694548296064e-01,-4.598252162835751999e-01,5.081301959713876437e-01,-4.484593029944664196e-03,4.671347370549991905e-03,-2.343532340383846276e-03,9.345005750656127930e-01
-4.268047788265543208e-01,-4.431008158799456531e-01,5.088665119320078256e-01,1.182973571097445734e-03,9.394379559966841570e-03,-3.417676417500237207e-03,9.440858364105224609e-01
-3.865666087156594544e-01,-4.501951510000820056e-01,5.128975559469877155e-01,8.957822697562442538e-03,5.657106622250020200e-02,1.093429854409397328e-02,9.383582472801208496e-01
-3.907192043199824716e-01,-4.786469205901798252e-01,5.180667464161241575e-01,-9.044198745262825231e-03,4.695893663614383179e-02,-9.376226928031803839e-03,9.595078229904174805e-01
-4.278984314915810216e-01,-4.324388195470273422e-01,5.060284987456187267e-01,9.405464827503861105e-04,7.902685188738245090e-03,9.204223324874730508e-04,9.363082051277160645e-01
-4.797047713709960415e-01,-3.154623140027873474e-01,5.519476219583883125e-01,-6.473460747729165021e-02,-2.196562001592652653e-03,1.528411093314136285e-04,9.666578173637390137e-01
-4.516945797089030878e-01,-3.427991868546797494e-01,5.306697907957053095e-01,-3.909166835943791996e-02,9.917412403774009469e-03,-1.251858677969531217e-03,9.353113174438476562e-01
-4.500191102611905136e-01,-3.402546208272594352e-01,5.311660939905743506e-01,-4.319842993199056458e-02,6.423008742786913590e-03,8.347907131525715563e-03,9.343470931053161621e-01
-4.344388643277949935e-01,-4.472051653984089881e-01,5.305745630637754839e-01,-1.945319418709062472e-03,-1.363244057683584039e-03,2.176263949922819987e-03,9.714755415916442871e-01
-4.003607896413986511e-01,-3.962806082257893103e-01,2.015993552491241458e-01,1.508590099702113337e-02,-8.565403800485699506e-03,-8.385698481000364302e-02,6.179930567741394043e-01
-4.172715653595334695e-01,-4.108346466962317645e-01,2.438135213110588229e-01,1.021852143315192139e-03,6.105313735423206767e-02,2.874941311812120176e-02,6.681951284408569336e-01
-3.595973650431681934e-01,-3.775059449867340655e-01,2.458571839073725451e-02,-1.252054828916981770e-04,3.510454302139759397e-02,5.666132281438604479e-02,4.100317955017089844e-01
-3.474694534765763176e-01,-5.749290170405716438e-01,1.316202782652104997e-01,1.145357345730558252e-01,3.062755949764797703e-02,-2.703296594767494107e-02,6.592420935630798340e-01
-3.514710044708827530e-01,-3.868597324073529409e-01,5.058871865076025598e-02,-5.851429614880829418e-03,-4.533901918370130540e-02,7.079131034463648220e-02,4.454622268676757812e-01
-3.709682668923363069e-01,-3.852319337956837675e-01,1.094439651872741726e-02,-2.737821578705674358e-02,-3.230552959936056068e-02,-9.483676930972698149e-02,4.288005232810974121e-01
-4.412665541554290360e-01,-4.422630347937989703e-01,5.481465563243107519e-01,3.196658386764396776e-03,4.232913197186826369e-04,-1.777330448091329809e-03,9.899322986602783203e-01
-6.572546520603846920e-01,-5.622090724564228204e-01,3.274646981293319881e-01,7.525353520243975754e-03,-5.741757461068967838e-02,5.945420107517848662e-02,9.517233371734619141e-01
-4.550212159519007038e-01,-4.107027728300097213e-01,5.745177951953898132e-01,-6.197603833992002681e-02,3.689763502972702447e-02,-3.089294530292186619e-02,1.017230391502380371e+00
-4.406745347590985129e-01,-3.913623205249426862e-01,5.635958610425138016e-01,-5.512187403432532162e-02,3.694962908959687452e-03,-1.685030678176209148e-02,9.856348037719726562e-01
-4.024073693605659807e-01,-3.946246853557469625e-01,5.283526803320485188e-01,-4.294168883603285969e-02,1.819396264444545983e-02,-9.919711994515351475e-03,9.305649995803833008e-01
-4.106470342585018529e-01,-4.064601786629610247e-01,5.688893943169983647e-01,-7.890698918177314891e-02,8.946934954960013980e-03,-9.235736978410152842e-03,9.872096776962280273e-01
-3.994924732721730765e-01,-4.233685584736834873e-01,5.623509245250550848e-01,-1.493933796659172863e-01,2.259697277506202487e-02,-4.396396931067173344e-03,1.008574604988098145e+00
-3.870537521377063750e-01,-4.216795396994299505e-01,5.305942272178034713e-01,-3.787498364693930170e-02,2.295637289378971505e-02,-1.916409183846845207e-02,9.391684532165527344e-01
-3.583827443377558541e-01,-4.298602242710720112e-01,5.314246242515165974e-01,-4.396268216321187750e-02,-5.962172036878704041e-04,-8.083314858012245752e-03,9.308397173881530762e-01
-4.081302002855817790e-01,-3.510952902953083377e-01,5.568086236595428673e-01,6.729204704756400202e-02,-5.368672247365326687e-03,-9.485453393762411159e-03,9.451273679733276367e-01
-4.127570016750524706e-01,-3.619111288046078512e-01,5.505948736509925778e-01,5.473265104985651497e-02,1.513639386779867466e-02,1.174390863382218653e-02,9.443186521530151367e-01
-2.983673692369122055e-01,-5.046037537113086113e-01,5.475069141761705893e-01,5.751850933206754252e-02,2.244221305244466225e-03,2.218550182713222019e-02,9.715470075607299805e-01
-3.457020724953946966e-01,-4.224166228775593779e-01,5.471537845071611228e-01,1.124568579045260724e-01,-1.070246706301669452e-02,-1.305302964239574148e-02,9.541310667991638184e-01
-3.806043558052566445e-01,-4.214516992404003237e-01,5.394458620374878999e-01,3.890162725881769756e-02,8.507658607410645626e-03,5.487855455339926171e-03,9.437107443809509277e-01
-2.393687050029835728e-01,-6.110837694203142823e-01,6.843883164963215915e-01,-1.067371209102491725e-01,-6.495215305522330021e-03,-1.053233566904967014e-02,1.170261263847351074e+00
-4.320724559811860432e-01,-4.316305554448634507e-01,5.492761427604730962e-01,3.175216768481016472e-03,-1.693714431771751842e-03,8.245813932442681501e-03,9.812514781951904297e-01
-4.326813964044569083e-01,-4.382352444471523945e-01,5.488322194630967932e-01,-1.329716241317147572e-03,1.451999629301044259e-03,5.725431924659626654e-04,9.843087196350097656e-01
-1.000952014494373710e-01,-5.833284702690358925e-01,5.609509617096820611e-01,-1.212474848068462868e-01,-9.237567411107294735e-02,-8.798187931480880991e-03,1.029500246047973633e+00
-4.325771882892744391e-01,-4.404408187071112701e-01,5.422242316938249429e-01,3.472158749549029652e-04,-3.884602094774893682e-03,-3.957476428258653069e-03,9.788042306900024414e-01
-3.182616925026958699e-01,-4.727748224298356505e-01,5.295827380405764284e-01,-1.025475795446552200e-02,7.970706327071919173e-03,6.658185786608877485e-03,9.350703954696655273e-01
-4.309722165503911961e-01,-4.384181031300742326e-01,5.293760150118117513e-01,-3.353632672418960735e-04,5.743314854597761712e-03,1.342102194728865810e-03,9.641470313072204590e-01
-6.177293655346710599e-02,-6.566546628527304419e-01,6.607345149597897427e-01,-1.070052157973531981e-01,2.400016849322015970e-03,-1.084298426046696392e-02,1.157768607139587402e+00
-7.601847426714504197e-01,-1.448210658251531668e-01,6.931227679145273157e-01,1.278236445069387828e-01,6.768903437084382302e-02,-1.371326597547980475e-01,1.309824705123901367e+00
-4.472154328364394971e-01,-4.374954072435557895e-01,5.410932230649296848e-01,9.969513123954225082e-04,-1.504426489370875534e-03,2.654424202929045809e-03,9.835003614425659180e-01
-4.216987924456043757e-01,-4.408242448091783672e-01,5.392432218639797714e-01,6.406413726191972783e-04,4.073928403154669468e-03,-1.627319049944814244e-03,9.706764221191406250e-01
-1.209616291779192221e-01,-5.723061786474918922e-01,6.285551913464817453e-01,-1.930489833216088302e-01,2.567890150347870628e-03,-5.933831169135360970e-04,1.102543592453002930e+00
-3.821252381515325425e-01,-3.757361668640564756e-01,2.778266705215344246e-01,1.367289301541914966e-03,-2.348936079768050925e-04,-1.793224961207995143e-04,6.567851305007934570e-01
-4.394068614365345127e-01,-4.415649919082700325e-01,5.479741633500533338e-01,3.367917212392535636e-03,-4.042286803610212198e-03,1.322638391859490932e-03,9.885064959526062012e-01
-1.538908749221078454e-01,-7.976283225006093325e-01,7.438316073453883348e-01,4.161575003503276138e-02,4.275067448358220445e-02,2.107618522223195234e-02,1.345441222190856934e+00
-4.540602470628918863e-01,-4.337200860391937640e-01,5.479231382559791586e-01,-1.589215406506903466e-05,-3.940803453782075819e-03,1.120509975928315853e-02,9.921830296516418457e-01
-4.678549399631214967e-01,-3.901379522034166270e-01,5.305141355361975286e-01,-1.970686986228615406e-02,-3.345015364547480538e-03,-6.244614333779418061e-03,9.625518918037414551e-01
-4.369834653125865276e-01,-4.327026530756713507e-01,4.554478499194978269e-01,9.858926497109425299e-03,-2.530911980295565133e-02,4.780906154224828786e-02,8.953781127929687500e-01
-4.249153911286968621e-01,-4.223759773772898796e-01,4.664401682722403297e-01,-7.808756158678358894e-04,3.487837876726644984e-03,2.539752708141065907e-02,8.911964297294616699e-01
-4.346620370577490289e-01,-4.209834589015329365e-01,4.716358157893438818e-01,-1.228807825971134859e-05,-4.600581301405145054e-03,2.875516681546473607e-02,9.009495377540588379e-01
-4.379805020669906845e-01,-4.332856193140079970e-01,5.254952377400906594e-01,1.429433251880670320e-03,-1.018285911685780191e-02,1.058885391022714069e-03,9.613036513328552246e-01
-4.401041508417993797e-01,-4.330167658260992147e-01,5.316486719082209600e-01,3.384177607036251275e-04,1.326990266081937413e-03,1.591091728735745565e-03,9.682354331016540527e-01
-4.996286917741480926e-01,-4.270908654583437380e-01,4.889855506600480073e-01,-1.777356101867805238e-02,-3.026005785171603790e-02,5.113472682355814369e-02,9.604409933090209961e-01
-4.385008424188993059e-01,-4.389049187886726044e-01,5.452564085172042496e-01,-1.299119866488888941e-03,4.353445516088038248e-04,-3.334701635468223860e-03,9.839791655540466309e-01
-4.209524479842611799e-01,-3.917720284004637676e-01,3.078237977700358785e-01,-4.276987279351662785e-03,-3.724286083643472273e-02,5.607009324630700398e-02,7.241186499595642090e-01
-3.789611310743682959e-01,-4.229088567541185451e-01,5.372156242712686769e-01,4.347493201913400079e-02,-4.485786380893533147e-03,-1.438340300698043263e-03,9.419723749160766602e-01
-3.978099137745891301e-01,-4.050070904584897602e-01,3.589016096840081937e-01,-5.984831438091852210e-03,-1.174429428255059507e-03,-1.803660060362592427e-03,7.604154348373413086e-01
-1.527773424348491949e-01,-7.951469602114585866e-01,8.241726251168314255e-01,3.531010452954604084e-02,1.172482925605974335e-01,-3.582928066328278788e-04,1.428151011466979980e+00
-4.334290948529339049e-01,-4.111916821171348047e-01,5.619008031254284496e-01,3.740175611158259167e-02,8.037872847851523089e-03,1.617576453344709772e-02,9.870248436927795410e-01
-3.573658079583999503e-01,-4.585414342829763346e-01,5.466786019465275093e-01,2.902659536315221542e-02,1.596449542520639656e-02,-5.186098769942170880e-03,9.604024887084960938e-01
-4.256701081155724875e-01,-4.042987514967806839e-01,5.432911420083565979e-01,2.186638761533552314e-02,-1.444677335818213976e-02,-1.496799046145269596e-02,9.598788022994995117e-01
-4.052476532331337200e-01,-3.985516993083094150e-01,3.656683447032302858e-01,-2.532138562687954574e-03,-4.442307316564083480e-03,-1.267088594777461422e-03,7.676441669464111328e-01
-4.332507465439361383e-01,-4.403804711357944268e-01,5.467666434914526530e-01,3.500428999373049140e-04,-3.875944571531412565e-03,-3.544546218621457399e-04,9.836249351501464844e-01
-4.415782834921904709e-01,-4.375565255799462872e-01,5.278955875936770514e-01,4.838753739977153662e-03,-5.446777633532258640e-03,4.946290974411775114e-03,9.675894975662231445e-01
-4.647390930638376494e-01,-3.475181205309921251e-01,5.444968962290536174e-01,6.817939873561938355e-03,6.648493841206953381e-04,1.202885857622332244e-02,9.563311338424682617e-01
-4.238987729213145594e-01,-4.576306887360243048e-01,5.734573766427655261e-01,4.345736905494445440e-02,8.134408565972418327e-04,2.358864894143268120e-03,1.017439961433410645e+00
-4.462859002527608809e-01,-3.465305001694344300e-01,5.287050447758028238e-01,-1.288034151364817609e-02,1.683908181474070328e-04,-2.642171177936162348e-03,9.294173717498779297e-01
-3.548512178537456818e-01,-4.601581365407647617e-01,5.545999275837674158e-01,4.022714014866244497e-02,4.709011466336248189e-03,-1.159315835702915375e-02,9.691681265830993652e-01
-2.633934138144794490e-01,-5.406414990283485711e-01,6.411047226174888536e-01,1.533954781052779270e-01,8.025684770371774301e-02,6.375481924524216415e-02,1.117077350616455078e+00
-2.989326005453453172e-01,-4.809774344874765406e-01,5.296676482281579279e-01,1.458798131704310691e-02,4.288104711623094700e-03,-2.212103291669766016e-03,9.334180951118469238e-01
-2.413950189533486668e-01,-5.017489219644067910e-01,4.632659224656828778e-01,1.497288125282603410e-01,9.607538263762288588e-02,7.185997613182032451e-02,9.264078736305236816e-01
-4.362900444754365670e-01,-4.474306564400598041e-01,5.319580537488033389e-01,4.398781480627716165e-04,5.370835971438388734e-04,2.640048341073235067e-03,9.738776683807373047e-01
-3.865555541785030136e-01,-5.027403020754179774e-01,5.676661389033501592e-01,8.191975784182747855e-02,3.937100519704928719e-02,-4.208187877656492139e-03,1.029436707496643066e+00
-4.435382468109895782e-01,-4.371591694809925377e-01,5.231040083493186943e-01,6.968957584928168851e-03,2.126993548725578630e-03,2.439266438963705493e-03,9.635604619979858398e-01
-4.397804545176686730e-01,-4.408619556910530202e-01,5.472535589482602214e-01,8.206877034165139043e-04,2.217936813192962400e-03,-1.752859219848950517e-03,9.875883460044860840e-01
-4.351287226163246813e-01,-4.436963989090743632e-01,5.458197725940343581e-01,-5.454733821566807445e-04,-9.734049902622173012e-03,-5.568295936963366284e-03,9.854521751403808594e-01
-4.399041935030347239e-01,-4.377863844318617970e-01,5.123613397080156728e-01,-5.501901508029092766e-03,-9.591548138844217461e-03,-1.022807076322120555e-02,9.515661001205444336e-01
-3.723312921050094815e-01,-4.379041870638222256e-01,3.695584828795869248e-01,9.070882388234583968e-03,-6.831518545119888430e-02,-7.379285163814296514e-03,7.859765887260437012e-01
-3.543710859700325289e-01,-4.508313618424827918e-01,4.194469164045946385e-01,5.675608959025644010e-03,-3.516183191700416460e-02,-7.521722815421147054e-03,8.286839127540588379e-01
-4.314103806959758147e-01,-4.389330776135515477e-01,5.278252638777999328e-01,7.449212533975769612e-04,-2.080618346676669367e-03,-2.787082669137561086e-03,9.630387425422668457e-01
-4.021212282148995953e-01,-5.053378309168296001e-01,5.390748082017863263e-01,3.370686799993241611e-02,2.639053832008812685e-03,-2.898621970725210467e-02,9.998003244400024414e-01
-3.791538470731850574e-01,-4.925249286089485312e-01,4.654685602908016362e-01,4.586850193472304105e-02,-2.950034947814377667e-02,-3.199984502218176929e-02,9.132307171821594238e-01
-3.929403150763154939e-01,-4.430664869596170341e-01,5.001241305006043358e-01,3.813260335878923372e-03,-1.794124081020696034e-03,-1.779657639536547445e-03,9.191873669624328613e-01
-4.243763501358379098e-01,-4.340303378820054570e-01,4.736504258145816104e-01,9.945879162585298874e-04,-3.845850368338121772e-02,-5.631509713478233779e-03,9.054005146026611328e-01
-3.942686913360978762e-01,-4.760562872201570817e-01,5.598307570092776464e-01,2.006320236925043798e-02,-1.232499196308913317e-02,2.948383029004936640e-03,9.983575940132141113e-01
-4.405648216172260989e-01,-4.389447552363721639e-01,5.316821234900540594e-01,6.063355076018530319e-03,-2.568749543117666238e-03,3.018018857572611797e-03,9.715189337730407715e-01
-4.429620890637108177e-01,-4.363638204077983640e-01,5.410526275308347177e-01,8.041138968230802800e-04,-1.027048426694140764e-03,-1.497778086497069013e-03,9.807382822036743164e-01
-4.568123863720143785e-01,-3.466239511422929409e-01,5.452400119983359383e-01,4.998054955738551186e-02,7.044380919768547175e-03,-1.104555622752869358e-03,9.557628631591796875e-01
-4.412923709024257901e-01,-4.363012681366763568e-01,5.307426319576975526e-01,-2.556302361501838760e-03,-1.064221896618753813e-03,3.724552689108880750e-04,9.695611596107482910e-01
-4.406723254605608986e-01,-4.356240934162358691e-01,5.553595133465437650e-01,3.093774397887326735e-02,1.242273659690686094e-02,7.235298961435633613e-03,9.952729344367980957e-01
-4.274370875099514078e-01,-4.405981373365517872e-01,5.218353027663935606e-01,-2.567810574062136600e-03,-1.719721903872163758e-03,2.922982216961650219e-03,9.559492468833923340e-01
-4.017441351576463426e-01,-4.237420490600701251e-01,5.376832166965781479e-01,1.842376441882919574e-02,9.906374896875172562e-04,5.443564279724671072e-03,9.512009620666503906e-01
-4.321491323265588269e-01,-4.249206023454439318e-01,5.395946917202615323e-01,9.826074647597037644e-05,-4.033635677935441116e-03,-1.888133639299982482e-03,9.681805372238159180e-01
-4.144047972126871926e-01,-4.271806494928828135e-01,5.424432461800066108e-01,-2.703486683323149189e-02,1.740315417974408127e-02,-2.664966007586996085e-03,9.649189114570617676e-01
-4.289623372207049812e-01,-3.722770594098793739e-01,5.857374733741486095e-01,1.713183622260884831e-01,4.186435820981615485e-02,1.898533610637870295e-02,1.034262776374816895e+00
-3.541049308535104689e-01,-3.732636136989558318e-01,5.158107870702346442e-01,8.806752400471681841e-02,-5.993143321668812149e-05,1.631466922438755407e-03,8.927835822105407715e-01
-4.445459644857422399e-01,-3.757760039692578657e-01,5.380692425586783845e-01,-9.109436231815965998e-03,-5.181497129345479825e-03,-4.749099885380188117e-03,9.503076672554016113e-01
-4.173922881836225063e-01,-3.993959458054648914e-01,5.377402055625460919e-01,3.094570169731293216e-02,1.427420144394471804e-02,1.681201991635432672e-02,9.485489726066589355e-01
-3.799380205165823199e-01,-4.195276293107674248e-01,5.317503072015441479e-01,3.782410511135324283e-02,1.631916784670120121e-02,1.720927496774080079e-02,9.353158473968505859e-01
-4.170715227487797883e-01,-3.830465974677667029e-01,5.410420294584362688e-01,3.436435143069418302e-02,-1.498461913333552081e-02,-1.313079294387604554e-02,9.440726041793823242e-01
-4.282518707073530440e-01,-4.572572840032078090e-01,5.207575356362263985e-01,-4.328859772719833438e-03,-1.053454167840305045e-02,8.953943948197005953e-03,9.641661047935485840e-01
-4.785243964007062645e-01,-2.938816014250508202e-01,5.272022443005269787e-01,1.473061818395107747e-02,1.942848764252653408e-03,-5.779065286103208729e-03,9.277075529098510742e-01
-3.804959542300674902e-01,-4.810902514735773128e-01,5.572294290708983411e-01,-8.206223322811911219e-03,-2.254850717461865522e-02,8.794896431031510795e-03,9.928430318832397461e-01
-3.376871133244557788e-01,-4.577856622975310374e-01,4.799390612483893648e-01,-5.399770107996283014e-02,-1.314756473065452347e-02,1.635261128304795007e-03,8.890476822853088379e-01
-3.875089621662802797e-01,-4.339747443094018609e-01,4.496321545615254989e-01,2.408027144277244749e-02,8.099675889834030001e-03,-1.444481224486756504e-02,8.628007173538208008e-01
-4.252183483586806645e-01,-4.208610472511119527e-01,4.621858724843427302e-01,2.437087641063402990e-03,-6.419776181065895218e-03,2.796821921282197088e-02,8.866378664970397949e-01
-4.414888353499295537e-01,-4.339593391127115618e-01,5.235190364607872349e-01,3.719069263441082077e-03,1.151128010304636011e-02,2.183529572908589084e-03,9.615010023117065430e-01
-3.445567898796615958e-01,-4.707323320601220495e-01,5.425360493302899823e-01,-4.137558988130152215e-02,3.138033502181362261e-02,-3.447377779890366430e-03,9.606815576553344727e-01
-4.511821074790857145e-01,-4.327136006268725299e-01,5.266200233370319506e-01,-7.828995815592080035e-04,2.439941401888757674e-03,-1.277597300663362587e-03,9.687126278877258301e-01
-3.441387757163671957e-01,-5.062672877872109733e-01,5.571785097527044428e-01,-6.462989584051913317e-03,3.083134078338930356e-02,-3.219217055615343492e-02,9.954264163970947266e-01
-4.107132482879795043e-01,-4.120227288299495028e-01,5.357661400051840772e-01,-7.823055222996002506e-03,-2.238786533944223892e-03,6.638173317260426948e-03,9.473094344139099121e-01
-4.262096918674617152e-01,-4.460257998606997343e-01,5.147566123509276226e-01,6.567206473963668571e-03,-1.629858821432914398e-03,3.675559636698465769e-03,9.511227011680603027e-01
-3.337201904301450583e-01,-5.185929009641045973e-01,5.811648126285944294e-01,-9.888202029714908067e-03,-6.187819545422619180e-03,4.137339955005477771e-03,1.020190834999084473e+00
-3.935431346432148869e-01,-4.697667680307932025e-01,5.280178149238602403e-01,-4.047643714688258301e-03,3.123271790810139108e-03,-9.774025464311003261e-03,9.621301293373107910e-01
-4.096979442968175511e-01,-4.004434148020097894e-01,5.314499037613323873e-01,4.388794318889045927e-03,-1.765413869703365713e-03,2.853594189966424197e-03,9.366037845611572266e-01
-3.792820607596779636e-01,-4.603439016899459890e-01,5.719010713274320645e-01,-3.582096367637777057e-02,-4.946416244091545941e-03,2.096793137024286630e-02,9.968283772468566895e-01
-3.442927827005588526e-01,-4.445256417356647227e-01,5.340281989329641599e-01,-1.192931194852826435e-02,2.622291835896035342e-04,-6.958984189408306403e-03,9.327933192253112793e-01
-4.121780738849005754e-01,-4.073579538056019134e-01,5.618333103013127827e-01,-7.801618698751305869e-02,-2.402066611504254795e-02,2.255364517698692575e-02,9.826205372810363770e-01
-4.262285448301679214e-01,-3.812755940443450231e-01,5.659933148573661477e-01,-1.501482042155459773e-01,-4.659552711590014829e-02,7.419148716096260823e-03,1.008084177970886230e+00
-3.862996025942535550e-01,-4.594259726779206798e-01,5.421834294498977247e-01,3.909901173048842965e-03,1.196611220249256535e-02,5.511335039545210007e-03,9.674147963523864746e-01
-4.454972862774222997e-01,-4.296776848407008464e-01,5.118717450184989692e-01,-5.640594329473820265e-03,5.953899066557718014e-03,1.117520611023433341e-03,9.496663212776184082e-01
-4.405261786581929351e-01,-4.439135183945340235e-01,5.347164276352832646e-01,2.847098518952785422e-03,-5.743649080054359819e-04,5.042772540082852625e-03,9.769926667213439941e-01
-4.474959385702697579e-01,-4.332129629587906372e-01,5.314721179399848339e-01,-1.294909581802853194e-03,5.055945110963366157e-03,-2.230781227718343571e-03,9.719550013542175293e-01
-4.192677555287893654e-01,-4.404415655195555446e-01,4.724614278996940309e-01,1.650122160612413520e-03,8.973212166484146723e-04,1.773273623364604937e-02,9.030307531356811523e-01
-5.875769238798523864e-01,-6.210596786837625505e-01,2.879447874766539739e-01,1.610321398979983054e-02,-9.381994722520279120e-03,1.972743211094896230e-03,8.933240771293640137e-01
-4.233090300388765992e-01,-4.163705518249900539e-01,5.416094547557965821e-01,-3.964019335195491205e-03,1.421281832263499370e-03,2.624872252413986730e-03,9.615064263343811035e-01
-3.688856103935193587e-01,-4.702980757004622259e-01,5.482269155250381054e-01,-1.250461780276168888e-01,3.282915469434710687e-03,-2.085243189515237697e-02,9.963096976280212402e-01
-3.081440503346036253e-01,-3.828742993811910522e-01,5.329791007378511525e-01,-1.548337186597699699e-01,1.087451851389430874e-02,-1.074948576786411390e-02,9.211688041687011719e-01
-3.570055409161426163e-01,-4.504848320547934493e-01,5.559021401719780320e-01,-6.269981445772032647e-02,-2.022009491401790399e-02,2.588926066275525767e-02,9.708284735679626465e-01
-4.190494825457423689e-01,-4.315173330646285832e-01,4.504014782152134799e-01,-4.811992369167151888e-03,-2.270671380093362314e-03,-2.218341635641684489e-02,8.766423463821411133e-01
-4.390795778046505116e-01,-4.389718228028479108e-01,5.428559917936757184e-01,-6.136845316720855635e-04,1.136470408218640416e-03,-3.548771184728180712e-03,9.819034934043884277e-01
-3.921599329782333165e-01,-4.028701101444835397e-01,2.475252929027894622e-01,-9.313386299506717925e-03,-2.831760247626740083e-04,-1.099152777838059182e-02,6.455895900726318359e-01
-3.923206701103440497e-01,-4.099627580838013374e-01,3.040190845155474886e-01,-2.639914101777182318e-03,1.790023799018961199e-03,-6.909894356414773842e-02,7.154297232627868652e-01
-5.682913592413026960e-01,-3.864077608750482451e-01,6.073536251616856729e-01,3.919691579282691407e-02,3.040496462337016065e-02,2.721726893245442896e-02,1.100453138351440430e+00
-5.139636103584415139e-01,-2.651180489771685633e-01,5.447629856776539103e-01,6.530915184568056309e-02,-2.722656491486504654e-02,-2.214733894949516817e-03,9.666442871093750000e-01
-5.629799785369921095e-01,-3.161621090999833794e-01,6.287889048191795949e-01,7.754089887326476305e-02,-1.299232554620668306e-02,-2.308798724829035087e-02,1.098738193511962891e+00
-3.912024362990390025e-01,-4.015384858362269771e-01,5.235282333030359947e-01,2.733902822270151568e-03,3.919765316343367485e-04,-2.076144354368386451e-03,9.199616909027099609e-01
-5.278873846271250336e-01,-3.384836373630080164e-01,5.392311641050715476e-01,6.063173133361762085e-02,4.799588607778074861e-02,-4.042206381127249476e-02,9.976676702499389648e-01
-4.382547868409544245e-01,-4.420127088698996287e-01,5.496789119912988131e-01,-1.365501026263626991e-03,-9.244038968482528543e-04,-1.389739688187678363e-03,9.898250699043273926e-01
-6.816761471468807398e-01,-1.389381910418306665e-01,5.208463887079720633e-01,1.200171460097836512e-01,9.929322167246863728e-02,1.399400898407313770e-02,1.077658414840698242e+00
-5.837744355220250148e-01,-9.558176285715472287e-02,4.183998929923093968e-01,2.347229560831786896e-02,-5.433897103893865072e-02,5.301773621805282166e-02,8.788486719131469727e-01
-5.028040155797646182e-01,-1.506437142225356685e-01,5.969560440402813528e-01,1.530183776329307188e-01,5.467242221505388966e-02,7.538123595364372431e-02,1.021007061004638672e+00
-5.121447381017150136e-01,-2.675514299618426683e-01,5.431647238159363900e-01,1.537782799162804893e-02,6.595227143589829427e-04,6.552920417802646919e-03,9.571948051452636719e-01
-5.573920923738889810e-01,-2.502796187211830947e-01,5.674385209429700927e-01,1.342043374051088509e-03,2.209967440974257638e-02,3.024071541048825584e-02,1.009121656417846680e+00
-5.560494222879522885e-01,-2.063718263994974156e-01,5.752975914049419659e-01,3.747124861145533035e-03,-5.330525480250214616e-03,-5.071908375683248371e-02,1.007203221321105957e+00
-4.405474613411580753e-01,-4.415160219279322673e-01,5.455401164843557416e-01,2.427506021152018353e-03,2.800756778611701754e-03,1.509755384129172475e-03,9.865965843200683594e-01
-4.362805358020999669e-01,-4.306815720947858583e-01,5.493768541660043470e-01,-2.856580509637080423e-03,5.478635984865115388e-04,2.374934546933704475e-03,9.828913807868957520e-01
-4.484729898041405760e-01,-4.208888590198153201e-01,4.575024613943831087e-01,8.500034465343478006e-04,3.530197408462308617e-02,-3.874231669271641088e-02,8.971095681190490723e-01
-4.569144192366396684e-01,-4.342314891211934702e-01,5.677712604958620179e-01,-2.053104168173866886e-02,-1.394197544161733049e-03,-5.724386572966345954e-03,1.014209628105163574e+00
-4.396038020409047120e-01,-4.371194006230206264e-01,5.276559983937810783e-01,5.210973023105460074e-03,-4.676216815286448128e-04,4.476209349523523930e-03,9.660935997962951660e-01
-4.350183084582965876e-01,-4.401702845291809441e-01,5.502100230415506443e-01,-2.869847792761314950e-03,5.457419954570391510e-04,-4.408554114035770702e-03,9.878568649291992188e-01
-4.431202025510030396e-01,-4.403144695353908844e-01,5.219429940109704402e-01,-7.963195746362564695e-05,5.092907781500806592e-03,-1.292674739210801158e-02,9.639638066291809082e-01
-4.240234685610768661e-01,-4.482071270482546610e-01,5.414059371542506716e-01,-1.718736524412202904e-03,9.890602754401364369e-03,-2.837906744705369702e-03,9.779125452041625977e-01
-4.372301346463228766e-01,-4.187811766587825058e-01,4.683178972588858402e-01,2.486219280916461983e-03,2.263170174832985354e-02,1.854382225439166806e-03,8.973386287689208984e-01
-4.412218050506622191e-01,-4.333167460982621511e-01,5.425651116765372040e-01,-9.567102715632811328e-04,-4.429106846901591753e-03,1.068359028478917463e-02,9.800644516944885254e-01
-4.402698813275822132e-01,-4.412178142988322227e-01,5.158456721009324619e-01,6.212701709989446736e-03,-1.021321588862938307e-02,-9.607016822154468977e-03,9.569585919380187988e-01
-4.502114159901333679e-01,-3.915194403079613195e-01,5.113756645938557499e-01,-1.411170126566383028e-02,-4.746356516611008498e-03,-2.392899840228367766e-03,9.339910149574279785e-01
-4.210979768560241254e-01,-4.438572269965361805e-01,4.634452379518017029e-01,8.808879261887041928e-03,5.792549990676498436e-03,-3.892363255302332820e-02,8.988575339317321777e-01
-4.374428488037213070e-01,-4.302778679364279157e-01,5.097069174900146216e-01,7.796915864415382880e-05,1.334190672935676655e-02,-1.026861665905706017e-02,9.440381526947021484e-01
-4.320615040140688423e-01,-4.392039317592207337e-01,5.456440443936612095e-01,-3.185960286392891874e-03,4.187617985495656900e-04,-5.552220156205432341e-03,9.813591837882995605e-01
-4.448930926465514690e-01,-4.385107508767970286e-01,5.468811623397321631e-01,-1.677888892263450400e-03,1.251263925002741141e-03,1.640909908973780217e-03,9.886092543601989746e-01
-4.272410861161332063e-01,-4.247786496241900966e-01,4.020226345713887595e-01,-4.230985761172824898e-03,-2.588454467194468978e-02,-7.714583938418471953e-02,8.399764895439147949e-01
-4.429131865291673908e-01,-4.406534344961548499e-01,5.489438510940103377e-01,-1.812789991647094877e-04,-2.258497916987337777e-04,-1.526119717124702329e-03,9.907327294349670410e-01
-4.186372448904704946e-01,-3.834285479840158217e-01,3.181208166257212255e-01,4.662403055804200530e-03,-9.462233075962763005e-04,-4.724446421375212007e-02,7.244831323623657227e-01
-4.436714070629290130e-01,-4.347272146371744528e-01,4.637700247944351872e-01,6.019952823975531497e-02,-3.429950437586866407e-02,-6.314610348131927120e-02,9.174841642379760742e-01
-4.673143508051452732e-01,-4.013942439912585591e-01,4.331753542517833289e-01,4.132343860301325444e-02,-7.713513839232835623e-02,-6.754498034348269120e-02,8.902393579483032227e-01
-4.690871202915833926e-01,-4.271369378131875116e-01,5.528041216010826098e-01,4.005309301716623339e-03,2.486073713975024690e-02,-2.748273943173856759e-02,1.003653883934020996e+00
-5.247713751814047090e-01,-3.432287356489746033e-01,4.365632215202683852e-01,5.540026672534847235e-03,5.975373983409815182e-02,-2.990794550308602945e-02,8.922364115715026855e-01
-4.587106953759622630e-01,-4.274076579917359675e-01,5.597379380964673246e-01,2.339665243920232771e-02,-1.330570557852015640e-02,-3.402498212311018400e-02,1.005973815917968750e+00
-4.447324167543034723e-01,-4.372598197760887984e-01,5.429445140667120695e-01,3.297663903832205416e-03,8.132536184607299171e-03,-5.958209241564499208e-03,9.841334223747253418e-01
-4.447848570565223758e-01,-4.376216888885517964e-01,5.404171659611963774e-01,-8.300022334135246597e-04,-4.238546616463431671e-04,-2.645674618951450192e-03,9.816520810127258301e-01
-1.047845810868988092e-01,-5.956115895908488111e-01,6.199445404218808520e-01,1.142649831821052342e-01,5.357652439153417698e-03,1.627862964174798047e-04,1.077550768852233887e+00
-3.915620771478297013e-01,-3.965357378749692074e-01,3.440572318304864208e-01,-4.416606218725449215e-03,2.755366795031886917e-02,-3.245680033104507770e-03,7.397208809852600098e-01
-3.848627091924983756e-01,-4.746973863061924037e-01,5.482184662848250678e-01,-7.137104231486085960e-04,1.253951884394772717e-02,-1.533314182912621495e-03,9.813328385353088379e-01
-4.419189971444366094e-01,-4.277792236267217718e-01,5.359050328412058306e-01,2.893788057009937572e-03,-3.987304736911865405e-03,-9.431245823941006995e-03,9.710062742233276367e-01
-4.550589899372600722e-01,-3.785466084975280809e-01,5.318992135733235926e-01,-4.562242103121066233e-02,-2.552373389397157456e-03,1.471280622377448694e-02,9.546409249305725098e-01
-4.203069271781330607e-01,-3.917252528691670954e-01,4.658965535395839241e-01,-5.669796263733704184e-02,2.317285957452092787e-02,-4.149047550098158843e-02,8.816255927085876465e-01
-4.546206582277666497e-01,-3.891056139299709504e-01,5.399787436856511302e-01,-1.454310396705025231e-02,-4.484294583342710722e-03,-2.072116066503337448e-02,9.645423293113708496e-01
-5.375686069636145259e-01,-2.968186821860216984e-01,6.084740377896872277e-01,-8.940173216214550300e-02,-2.203840826655250121e-02,3.115521957049028484e-02,1.060099840164184570e+00
-4.484971251042336737e-01,-4.338727528382199106e-01,5.301890258550453483e-01,-8.125882120800195004e-04,2.929050606025533892e-03,-3.525191809381781542e-04,9.714710116386413574e-01
-4.082749256131632531e-01,-3.939250702013348815e-01,3.480196009326680384e-01,-1.849693986761510520e-03,2.173629749932323024e-02,-2.807242876599857096e-03,7.501906156539916992e-01
-5.079549655984829659e-01,-2.798696338595171862e-01,5.460979536465203621e-01,-3.685744492092828117e-02,4.946880545995174273e-03,-2.420717062742764464e-02,9.636095166206359863e-01
-5.062679404548566797e-01,-3.336229943287477573e-01,5.571553625075056360e-01,-6.209839358997560482e-02,1.189937957840403807e-02,7.255326505935493896e-04,9.945228695869445801e-01
-4.196027211924862610e-01,-4.051397231590553316e-01,3.947524180405911354e-01,1.827384722340802663e-03,3.012301458413938621e-02,-8.359628051643258270e-03,8.090409636497497559e-01
-4.351655043964815506e-01,-4.063969560711272466e-01,5.684432821241439671e-01,-7.409166790547638826e-02,-1.959420373428536616e-02,-1.527414697180844508e-02,9.987523555755615234e-01
-5.032537064776237967e-01,-3.715883966486033252e-01,5.660179829609671698e-01,-5.282281362182398438e-02,1.019518992312963036e-02,5.749639778754730979e-02,1.019064188003540039e+00
-4.359917467092300769e-01,-4.393379008269565067e-01,5.461200300271790153e-01,1.006028524961454038e-03,5.857743774746252720e-03,3.134854159066575302e-03,9.838579893112182617e-01
-4.305879258667326681e-01,-4.460077899019921910e-01,5.119038744988395617e-01,3.389922082150395935e-03,-1.010681457826583755e-03,2.137657372955124088e-03,9.503225088119506836e-01
-4.134607464329023152e-01,-4.350508661848869196e-01,4.448465869882438639e-01,-2.509199952679719878e-04,-4.163726717934330274e-02,2.098003859948129827e-03,8.722975254058837891e-01
-4.173651311466059499e-01,-4.057811107138826201e-01,3.913147193996419082e-01,-2.808446938158194392e-03,2.952142551188229741e-02,1.112158083201232779e-02,8.048222064971923828e-01
-4.258829789571008662e-01,-4.235242481187251329e-01,4.676700610261391722e-01,-2.341265006684098079e-03,-2.245259653561461344e-02,-2.811775471333833373e-03,8.932454586029052734e-01
-4.503170104286964848e-01,-4.312831474330142134e-01,5.253941114143010349e-01,-9.099414081886208648e-04,-1.452687673697482165e-03,-1.051461513966949141e-03,9.663410782814025879e-01
-3.942365652334581805e-01,-5.435345858824476295e-01,5.539102978096751562e-01,-3.636244620007650363e-02,-6.233600825281278290e-02,5.608115196054834495e-02,1.043018698692321777e+00
-4.341015057439983060e-01,-4.183628564700537789e-01,4.578032336022868076e-01,-5.959084275716479071e-03,-1.047898252573526345e-03,-2.323852969734435062e-03,8.842117786407470703e-01
-4.413528706851794214e-01,-4.261917741845310803e-01,4.377401451473125205e-01,-7.662573778758265119e-03,-1.999863776696526527e-02,-2.296108056395574151e-02,8.733063340187072754e-01
-3.810729071421442016e-01,-4.477095225629548203e-01,4.927890158361967199e-01,-3.993884768603204148e-03,-5.759899920384811516e-03,-4.688597359949005575e-03,9.091312289237976074e-01
-3.644563743058611416e-01,-4.229797382596769406e-01,5.263408365238234632e-01,-2.129261503002804340e-02,9.290158191679442901e-03,-6.315895818633815439e-03,9.223967790603637695e-01
-4.067551619085125192e-01,-4.128205744814819056e-01,5.393379849719723840e-01,-1.901829701822125088e-02,9.887027489700788221e-03,-1.215507492593809712e-02,9.500995278358459473e-01
-4.190526578197237839e-01,-4.353633015763761493e-01,5.419235223227536480e-01,-6.351030123992769741e-03,1.195671110209311876e-02,-1.232804549107362202e-02,9.697532057762145996e-01
-4.316427343429476426e-01,-4.085976704207630594e-01,5.462622192527500919e-01,-1.283569204600015605e-02,1.115889960832237675e-02,-1.244682717797478133e-02,9.672775864601135254e-01
-4.228262499026173571e-01,-3.876092152471150576e-01,5.272449705777504381e-01,-2.990272186736636292e-02,-3.663922214340507161e-03,-1.399605537437591989e-03,9.344225525856018066e-01
-4.417058683916244011e-01,-3.985167844783311097e-01,4.664793007901238964e-01,-2.406738166798720255e-02,-1.846453202478613373e-02,1.459934088688773571e-02,8.892928957939147949e-01
-1.087201632820384567e-01,-6.711740329692693630e-01,6.986492735169772539e-01,8.866427335177441693e-02,1.011052256468113024e-02,-4.333660808735936149e-02,1.204920172691345215e+00
-4.424915234659020924e-01,-4.381399757016340435e-01,5.507172956642357731e-01,7.542030765371832233e-04,3.951256969341599822e-04,1.797104135586352527e-05,9.910413026809692383e-01
-1.347458718605719641e-01,-6.444373637982846459e-01,7.095339083205477460e-01,1.399185362081077910e-01,-1.459572422342860221e-01,-1.432071809217162414e-02,1.235383868217468262e+00
-4.268759631211188066e-01,-4.531767126592260997e-01,5.380124531984321612e-01,2.235890570520066012e-03,1.179068174776472071e-02,-4.710358480121542776e-03,9.785587787628173828e-01
-4.154001809327578787e-01,-4.425117470023643418e-01,5.479467826438658706e-01,2.523331022601304151e-04,6.386988284584416489e-03,8.793149918934988971e-03,9.773662686347961426e-01
-1.610124134967895193e-01,-6.244643284694083585e-01,8.890443679462840532e-01,1.658073957793694819e-01,-2.904019130908248175e-02,-7.690903531299617124e-02,1.380872607231140137e+00
-1.056280751489906411e-01,-7.570532073151537977e-01,7.837314234172175764e-01,7.208802082888633722e-02,-1.209438855784991662e-01,-9.295905058927600786e-04,1.361668467521667480e+00
-3.815002795687281179e-01,-4.431917656125709537e-01,3.233496467749155112e-01,2.892240674734902414e-02,6.605031635531428968e-02,4.165892785216688404e-02,7.516025304794311523e-01
-4.535221662349097071e-01,-2.639554730217615330e-01,3.862375968835892737e-01,1.653400239159686924e-01,1.702386846965504852e-02,-6.813573723055672826e-02,8.238630890846252441e-01
-4.752694587738066634e-01,-2.969736852307811037e-01,6.318079243488052832e-01,1.571943788581064150e-01,-6.751814286311134949e-02,-6.205353554722335685e-02,1.076745390892028809e+00
-4.844362274698710835e-01,-3.132023189432663335e-01,5.062158068579075687e-01,3.292749677954504017e-02,-8.945850228880712976e-03,5.424791933248786398e-03,9.190540313720703125e-01
-4.393393817989666994e-01,-4.436937233066030606e-01,5.462611859247944457e-01,1.885876828698392548e-03,3.355364614113670618e-04,-2.153388195885729949e-03,9.877975583076477051e-01
-5.444014992891811344e-01,-3.350007048220944861e-01,5.731826560015061967e-01,6.749984941647016456e-02,-1.389255602830374425e-04,-2.829802313319127599e-02,1.036769509315490723e+00
-3.260384639289469200e-01,-5.269325635977075706e-01,5.670797465085258837e-01,3.154340872619555008e-02,1.710390774165393424e-02,-3.947815148549212866e-02,1.012906193733215332e+00
-6.586253717002741315e-01,-1.366887868545568763e-01,5.364407458723298161e-01,6.504677584730295115e-02,2.350515391131446225e-02,-1.320223536950105303e-01,1.069342136383056641e+00
-3.604279692598387208e-01,-4.288408816541253166e-01,5.348011046536202961e-01,-4.307735940463945645e-02,-8.523378419345624055e-03,5.782117203841146032e-03,9.344762563705444336e-01
-4.098823814724895653e-01,-4.105371489582371192e-01,3.880516873282394696e-01,8.351668605300441306e-03,-2.888203724104703926e-03,-3.482765219764532433e-02,8.006839752197265625e-01
-2.358721423322385768e-01,-5.136069876600215522e-01,5.932855131271704829e-01,1.132834031094910043e-01,-2.401453020910048614e-02,-2.432432298065754367e-02,1.018297314643859863e+00
-4.420355292156190607e-01,-4.418410365617919111e-01,5.478032079755656980e-01,1.536163843973266602e-03,-1.709188735868691876e-03,9.590097664097178409e-04,9.897509217262268066e-01
-3.612191183289870655e-01,-3.849282728283435207e-01,5.724872244724317216e-01,1.273013170472740152e-01,8.564084370145722686e-03,2.119150858509713173e-02,9.719522595405578613e-01
-4.436538095849252294e-01,-4.364308898603108111e-01,5.317782687460905766e-01,3.223101241048423327e-03,1.215634102989861373e-03,2.347715827105187943e-03,9.718675613403320312e-01
-4.348092790074422620e-01,-4.268401214723850368e-01,4.814810204741188926e-01,7.615308387012128394e-03,-2.989954585028373364e-03,2.257791251140819390e-03,9.124502539634704590e-01
-2.132738988774680600e-01,-5.770242584207866399e-01,5.915077264269870128e-01,1.332992132924231687e-01,-1.717470692552824571e-02,5.296184419128031548e-03,1.061603784561157227e+00
-3.228566895384899493e-01,-4.614687352594042391e-01,5.430369161775427944e-01,6.994250848335664683e-02,8.628515977536662523e-03,-3.732246324065346434e-03,9.507625102996826172e-01
-4.402880837083114618e-01,-4.358143622835990993e-01,5.462684950534053563e-01,1.181171602414519701e-03,-5.100334205796798644e-03,-2.079445632270671227e-03,9.843757152557373047e-01
-3.691056964870194634e-01,-4.142509442618124149e-01,6.505926900007338309e-01,1.455686060267668003e-01,2.530043379537847813e-04,-2.999493859674517982e-02,1.074303150177001953e+00
-3.254564820796735369e-01,-4.992513698320104609e-01,6.043744308126872689e-01,1.360941158697520359e-01,1.704499356929349910e-02,-3.184704614631875264e-02,1.056347131729125977e+00
-4.307585778433009605e-01,-4.203227035545402113e-01,4.509696613783101826e-01,7.222454993357651024e-03,-5.260764912370301076e-03,4.503548102760989401e-03,8.767282366752624512e-01
-4.966356522633695869e-01,-3.804273392122964892e-01,5.730046344138016723e-01,-2.076421458918168220e-02,7.382553271113433818e-03,-2.861498572358042117e-03,1.017258644104003906e+00
-4.476634017487229333e-01,-2.715845399540612881e-01,1.416574741190139708e-01,7.782363693511834546e-02,-6.224981127118138502e-02,-8.507223075302190740e-02,5.710012316703796387e-01
-5.492247534100664907e-01,-1.873819300040872049e-01,4.789374802229929839e-01,6.002101603082565101e-02,1.458484499932928948e-03,1.143217805223726430e-03,9.093033075332641602e-01
-5.574173019539641061e-01,-2.974804532533729673e-01,3.598252537106090276e-01,8.381344121144792755e-03,5.907681739377200481e-02,-2.362687882596453334e-02,8.263362050056457520e-01
-4.372947966881019499e-01,-4.458309303639187426e-01,5.314311689195930777e-01,5.490840952009337986e-03,-3.408969446338217663e-03,2.685770950004232483e-03,9.730976223945617676e-01
-5.763861999583022033e-01,-2.358291695739113403e-01,5.146941994919155272e-01,1.315475772071164617e-01,2.661402250273161088e-02,-1.156697372927851242e-01,1.014415144920349121e+00
-4.245517847551056878e-01,-4.372593750084854958e-01,3.889722585770764018e-01,-5.705267663594288004e-03,-1.891322601482385915e-02,-8.885468189809091200e-02,8.349712491035461426e-01
-4.421415598500355038e-01,-4.381762459297196544e-01,5.450281115984062508e-01,9.374122030340805312e-04,1.413607410016069809e-03,-9.182282002744295187e-04,9.851986765861511230e-01
-4.312685070062202142e-01,-4.228646245755038335e-01,4.966268366451020988e-01,1.621496701345238444e-03,3.639092785387900027e-04,-1.253491936489492878e-02,9.239816665649414062e-01
-4.285486619518150686e-01,-4.435070830471779524e-01,5.043523086516980003e-01,-1.964580471275713391e-03,-3.679581246535250892e-03,-4.472566697298851340e-03,9.405290484428405762e-01
-4.959830831406553120e-01,-3.640811315304339213e-01,5.092886016201897403e-01,5.588074848933532318e-02,-3.247300649025388480e-02,-1.152929972005939298e-03,9.528417587280273438e-01
-4.072673561313500668e-01,-4.544894682528132779e-01,4.595399722944392140e-01,1.224853107252421060e-02,1.061175939579369135e-02,-3.195249323361729066e-02,8.935145139694213867e-01
-5.204314701361885120e-01,-3.735702638842420265e-01,4.770569316981495556e-01,3.942215281951787220e-04,4.595665364962736761e-03,-9.786815824170097544e-02,9.480808973312377930e-01
-4.225548489579727951e-01,-4.270679765636755665e-01,4.987659391569597700e-01,1.039690121173733953e-02,-1.794771811358641250e-02,-1.129902220408964680e-02,9.244912266731262207e-01
-3.872748791603184970e-01,-3.749456893371327371e-01,5.158528675637452654e-01,-3.476255779713439964e-02,-4.669797454666601514e-04,2.071234093275994056e-03,8.990526795387268066e-01
-3.664997907225863716e-01,-4.045116418645686718e-01,5.189702129704220068e-01,-9.700716980600850026e-02,8.366875106760146910e-03,-1.377621675533935441e-02,9.209619760513305664e-01
-4.341815907335307978e-01,-3.080602762156253727e-01,5.063050730442767433e-01,-9.513314160806804476e-02,3.908412587770237860e-03,-4.704874124761467165e-03,8.994829058647155762e-01
-4.131845085111771065e-01,-3.527768851183667453e-01,5.837996027733438620e-01,-1.193666283905299857e-01,-1.588926358573924946e-02,5.055348123875606781e-02,9.942688345909118652e-01
-3.934814822274330104e-01,-3.342303886597365881e-01,6.066049339723452727e-01,-1.480020169059090285e-01,-3.610869400541003027e-02,3.348235321796702579e-02,1.008670330047607422e+00
-4.287029031093581577e-01,-3.810226249098986884e-01,5.400754557935866229e-01,-3.252645097413452147e-02,5.173983860757653576e-03,-7.046936723198999122e-03,9.476373195648193359e-01
-4.053179887601576770e-01,-4.166048381162807401e-01,5.693837413854638818e-01,-1.195036643775173185e-01,4.561702825792525451e-02,1.606114727529653341e-03,1.005119919776916504e+00
-4.174953669634145492e-01,-3.665049401578173160e-01,5.336526857136547619e-01,-9.850254760223571548e-02,1.566181119543785111e-02,-6.758774103509442716e-03,9.427430033683776855e-01
-3.696173345240886809e-01,-4.174563205352013195e-01,5.392340005738551767e-01,-4.625092637718104804e-02,5.672597493260287359e-03,-2.797649591283928212e-03,9.371847510337829590e-01
-4.119582249048837075e-01,-3.563809040082583923e-01,5.452080626335542579e-01,-5.890096739414002469e-02,-2.238740480621066731e-02,2.549278552181311747e-02,9.380408525466918945e-01
-2.169826907576911101e-01,-5.901922605480811601e-01,5.816423642006801620e-01,1.463731661444640396e-03,3.576472901260759757e-02,8.351345882967159059e-03,1.038843035697937012e+00
-3.191690952215664456e-01,-5.646601653772633789e-01,6.459108772576848123e-01,-1.711994703010719446e-02,2.453932286681621139e-02,2.272195634636342467e-03,1.109623789787292480e+00
-1.823476481654343062e-01,-5.524208657321449945e-01,5.852666956671133125e-01,-3.470344017302399997e-02,-5.830207896319163086e-02,2.106757491776234739e-02,1.012621045112609863e+00
-1.618207288621496542e-01,-7.444202235757672037e-01,4.618055637659043144e-01,5.477413023487566479e-02,-1.044780680137832041e-01,-4.690159850376966755e-02,1.067709326744079590e+00
-4.430062144306168848e-01,-4.425030485562844729e-01,5.533180579153993417e-01,7.624970167401372723e-05,-5.652862109654540040e-04,6.557752174765773710e-04,9.960739016532897949e-01
-2.290160223841728460e-01,-5.641752304259108897e-01,6.609030131595645674e-01,9.221815499512414638e-02,-6.909975645271088096e-02,-7.126087373928677304e-02,1.121438026428222656e+00
-1.900436551090081694e-01,-5.417175493037258427e-01,3.809434581665344099e-01,1.004051041520410276e-01,-1.171679371620405197e-01,-4.629310374549416851e-02,8.534399271011352539e-01
-2.025276940272632831e-01,-5.767516540767562150e-01,6.069604888716151336e-01,1.516454389128765456e-01,-3.696259575096578348e-02,-3.705147159801939344e-02,1.084182024002075195e+00
-3.321200995406339285e-01,-5.572650092782349684e-01,5.331381263673379278e-01,3.676736000526067971e-02,-5.360007096170843477e-02,2.753535112448939753e-02,1.004549384117126465e+00
-2.730318336819344549e-01,-5.031436009904627360e-01,5.497470151028449603e-01,4.768839766764863125e-02,-4.186433981471701475e-03,-8.958757432270211297e-04,9.623539447784423828e-01
-2.126673445025392128e-01,-5.812707238026666445e-01,5.939197533651294769e-01,1.168590029208782521e-01,2.283804312039933171e-02,1.020887367177171316e-02,1.061417579650878906e+00
-2.237659952512444650e-01,-5.322323131903470284e-01,5.761580513128247150e-01,8.019384397157779121e-02,7.334148188597400253e-03,1.413595565358181406e-03,1.000619888305664062e+00
-4.444880949316852847e-01,-4.375564188401717125e-01,5.345014014575860672e-01,-5.702037020514386274e-03,-6.856769963651092054e-04,-2.397607543119442165e-03,9.756016731262207031e-01
-2.868147762366020093e-01,-4.916056244859700053e-01,5.802442787655675005e-01,8.771042700501015255e-02,3.047226940354397923e-02,1.797454858556750412e-03,9.985845685005187988e-01
-3.511226378378506929e-01,-4.942333462248525433e-01,5.657212997861509329e-01,3.066349011544590095e-02,-4.660267244418753521e-03,-1.027148573860393183e-02,9.977455139160156250e-01
-3.479684274535838617e-01,-4.732686637197873747e-01,5.363695325354183030e-01,3.811361401997291620e-02,-3.559620423936009012e-03,2.746956286822691082e-03,9.554999470710754395e-01
-3.653404181286203922e-01,-4.543370492807290995e-01,5.438786422348684813e-01,4.715029252232401380e-02,-2.680086073816372733e-02,-1.790884324417158294e-02,9.619270563125610352e-01
-4.193324297237018272e-01,-4.138011473149179054e-01,3.819978206550905808e-01,-6.381818040450433840e-03,3.154938413964033378e-02,4.047626320365478592e-02,8.035867214202880859e-01
-3.237820528269549358e-01,-4.786148601064131869e-01,5.585567053911150159e-01,8.943939546445707489e-02,-4.333070193111097229e-02,-2.513831628845939609e-02,9.852088689804077148e-01
-3.177718300914995075e-01,-5.111656287664587683e-01,5.553756919678444204e-01,9.039012571746478375e-02,-6.696099759734275986e-03,3.932187171823432748e-02,9.989661574363708496e-01
-4.128514442917625704e-01,-4.415020504226014886e-01,5.466948176622971056e-01,2.449757549962835578e-03,6.348019950669832670e-03,-6.097064480948892820e-03,9.743161201477050781e-01
-3.592977203901739358e-01,-4.594194884412521884e-01,5.661744101692295361e-01,8.089835836354970777e-02,2.111222421745293648e-02,3.853762756157401437e-02,9.922747611999511719e-01
-4.215117515197253084e-01,-4.013286751759354565e-01,5.407797948990223924e-01,1.506400759346565761e-02,-1.259937558273638639e-02,-1.529085531447861926e-02,9.533356428146362305e-01
-4.296566479658453508e-01,-4.398056438371640287e-01,5.404107581428005957e-01,-2.160971264904712127e-03,2.130923556092431063e-03,-5.515225732323638698e-03,9.752424955368041992e-01
-2.822357961058079012e-01,-5.497995333783116667e-01,5.571929075946990828e-01,7.226202375698517755e-02,-7.146153011262230959e-02,2.880389099622782806e-02,1.017008423805236816e+00
-2.706657475831041326e-01,-5.518095237021330979e-01,5.490357678526457397e-01,8.395381653187966586e-02,4.596866370706423344e-02,3.002219823120728937e-02,1.005780577659606934e+00
-4.156465212420674127e-01,-4.206839862760003990e-01,4.228647258221814864e-01,9.377200134675578447e-03,5.599043242903129630e-03,8.049207194727143327e-03,8.413695096969604492e-01
-1.809253667578397951e-01,-5.298919791751983688e-01,4.708637955322523272e-01,1.165812868929570617e-01,-5.130499418372914955e-02,-3.133413065989435961e-03,9.070606827735900879e-01
-1.527459770432895991e-01,-6.761347809075795023e-01,6.237045959299574172e-01,-1.089424069255255038e-03,5.498667985333886843e-02,-6.393919850110907355e-02,1.142162680625915527e+00
-2.408645374615912549e-01,-5.450243400908779678e-01,6.149779762480382939e-01,3.198276925420582423e-02,3.509035203686219906e-02,-1.150077275568307800e-02,1.045204281806945801e+00
-2.305858649941889271e-01,-5.654920770833056221e-01,5.674372565099070620e-01,7.523153234578439097e-02,-1.553078053968468203e-03,2.826040886509011141e-02,1.017668128013610840e+00
-4.392241418027771904e-01,-4.305351609675643898e-01,5.422239378115060182e-01,3.145620535415291421e-06,-4.723028397010192725e-03,5.387446971470053435e-03,9.772113561630249023e-01
-4.850123801143572111e-01,-3.152304705523689687e-01,6.182399260411992614e-01,1.079530708027401781e-01,-3.965226752021413364e-02,5.706425472266569814e-03,1.048072218894958496e+00
-2.388324723053399934e-01,-5.679869169030923315e-01,5.254067363873848873e-01,-1.034954946081458049e-02,3.332474058149205443e-02,-3.233054042841518316e-02,9.750618934631347656e-01
-4.417481046264362110e-01,-4.368947192776657662e-01,5.314113187381038772e-01,2.246533477495968106e-04,-2.346008315126183082e-03,-1.289940078144933286e-03,9.707529544830322266e-01
-2.799610933920315681e-01,-5.012190220704640931e-01,5.497213154265371271e-01,4.431957263725718604e-02,-4.755001365851559136e-03,1.069472249817317137e-02,9.629150629043579102e-01
-5.698744391618104643e-01,-2.331410523948882763e-01,5.287003146565283362e-01,-1.722880457654780706e-01,2.115164275507017133e-02,1.384225622813946566e-01,1.047951936721801758e+00
-6.968475096901977084e-01,-1.613239172687523926e-01,6.385722576061374500e-01,-1.124201911381123437e-01,-3.182464054889955901e-02,3.297578880392856848e-02,1.182877063751220703e+00
-6.722804133649509239e-01,-2.591872311608416357e-01,5.774042819628583123e-01,-1.380510525459743842e-01,2.076170125641970884e-02,1.292522501300957527e-01,1.150959372520446777e+00
-7.826799348101270981e-01,-1.966663029309699551e-01,5.450451219005509884e-01,-9.580594415813323272e-02,-1.065325094850113896e-01,1.246270724401757346e-01,1.198490858078002930e+00
-5.532743616983515356e-01,-2.419887823496201518e-01,5.122143846304746395e-01,-1.449109243961754778e-01,1.195667126077878950e-02,8.368198723167140363e-02,9.924354553222656250e-01
-4.376168761399943374e-01,-4.259704012246078308e-01,4.839799048157136241e-01,4.812809781773444082e-03,2.960822633807393134e-02,-1.513715292988540573e-02,9.176762700080871582e-01
-4.445202013211876357e-01,-4.223548150119794120e-01,4.918580411208446357e-01,-2.478077706288932258e-03,-3.112608203793067706e-03,-1.743098412517097955e-03,9.255252480506896973e-01
-4.907350132988556046e-01,-2.385186654844062837e-01,3.729251167730562866e-01,-1.156349540473844001e-01,3.579273574875102559e-02,2.259441535574320190e-02,7.982367277145385742e-01
-4.228224480798112861e-01,-4.035869281484859572e-01,4.043328062819684376e-01,2.790166760963320742e-03,2.772886095545559065e-02,1.641352874522313508e-03,8.191356062889099121e-01
-4.430602613969690795e-01,-4.490866993584818334e-01,5.295886104388984883e-01,6.871642342299640049e-02,1.704517907261352688e-02,5.312519307320749673e-02,9.876477718353271484e-01
-4.345558842437987623e-01,-4.270475122498050835e-01,4.791014043760111196e-01,1.053113931268420558e-04,-5.177616636419355052e-04,-4.228689118680078324e-02,9.128698110580444336e-01
-4.249981675943078629e-01,-4.293114781195519480e-01,5.106360206080522435e-01,9.294374537929597779e-03,-1.911892218987590319e-02,-1.126687059178446346e-02,9.387236833572387695e-01
-4.395283343949689114e-01,-4.426990519478925523e-01,5.522801465810771582e-01,-3.347180344759529899e-03,-9.781016984884642173e-04,-6.291311524009479857e-04,9.934166073799133301e-01
-4.216793355574254831e-01,-4.230491994437184933e-01,5.434139852686931116e-01,-4.085901326699089078e-03,1.985817108882535331e-03,9.477304840953583442e-03,9.659505486488342285e-01
-4.390429664066280990e-01,-4.328111217828344293e-01,5.304269720307466240e-01,1.144211967302805793e-03,1.732509989473952558e-03,-8.828717833435325343e-04,9.663769602775573730e-01
-4.859289674745344567e-01,-4.266294744953462170e-01,5.410800623113305452e-01,-9.838563122084750118e-03,3.237404219851722047e-03,2.874551655967050312e-02,1.000081777572631836e+00
-5.221448823752052881e-01,-3.664878567883191884e-01,4.720816356840379369e-01,2.656016701485507114e-02,-1.120138338308957794e-02,5.280629897814489992e-02,9.321026802062988281e-01
-4.663572115348694758e-01,-4.048051174557580345e-01,5.116983887046639978e-01,2.223235134591880144e-02,-1.249479626972566093e-02,9.621369859447132661e-03,9.499520659446716309e-01
-4.906102022206969560e-01,-3.826092342464392226e-01,5.602954845546909146e-01,-2.269158469284808023e-04,-1.119626461167322513e-02,2.238951463513667514e-02,1.002221703529357910e+00
-2.589348430384073030e-01,-5.086906108427209361e-01,4.434827979782646201e-01,-8.608056756509230301e-02,1.583353402891013798e-02,3.980422824470539536e-03,8.684644699096679688e-01
-4.155106211135105032e-01,-4.035684143486642506e-01,5.328368061981653137e-01,1.414225808099420678e-04,-6.449137415277429383e-03,-8.222503229385036937e-04,9.425003528594970703e-01
-4.960571667600976453e-01,-3.508756777873764943e-01,5.501799633150038504e-01,1.280784107532266514e-02,-3.378794633380823552e-03,8.953972558902109635e-03,9.821214079856872559e-01
-4.610847927070023111e-01,-3.968840607298995127e-01,5.170471474149752611e-01,1.668190962709287933e-02,4.533489643205771552e-03,-5.713088255764981090e-03,9.481885433197021484e-01
-4.256331932384112560e-01,-4.356649787136246954e-01,5.460908141226830104e-01,-1.901018094966370250e-03,-4.320619093435201785e-03,5.626564680428574293e-03,9.768613576889038086e-01
-2.419002961797251938e-01,-6.919223440147794779e-01,7.428764275331984912e-01,-2.082388217234372729e-01,9.507671328820596623e-02,-3.255554758962001666e-02,1.332615733146667480e+00
-4.771018428527428745e-01,-4.111900065578893426e-01,5.619051929951052182e-01,2.066841090301078585e-02,-1.273550860398971890e-02,7.008878791584028864e-03,1.008619189262390137e+00
-5.148832274635256612e-01,-2.906496436807426975e-01,5.346023878892088854e-01,1.802591836476176435e-02,9.138916160801091593e-03,3.831600228204522923e-02,9.602085947990417480e-01
-5.939733789943840714e-01,-2.368091582180532617e-01,5.676011848291264705e-01,8.900017663811544966e-02,-6.739540129282906022e-03,-4.121279686386236651e-02,1.044482469558715820e+00
-4.052007780655495495e-01,-3.601474110848693622e-01,5.554109481989992769e-01,-6.149129577934496493e-02,-9.331986787457354979e-03,2.134689117889197046e-03,9.450631737709045410e-01
-4.636422918903699841e-01,-2.462789508424484963e-01,6.120107468313060739e-01,-1.184349992761479370e-01,4.469939395464486709e-02,-2.400790304668346670e-02,1.010085463523864746e+00
-4.469696480065863398e-01,-4.400180392420882103e-01,5.501159572659994890e-01,4.917204698240878390e-05,-9.839630636815771807e-04,-5.273164747325969660e-03,9.936714768409729004e-01
-3.896036293177163601e-01,-4.148477743898523751e-01,5.413942005387977208e-01,-3.420170045920559176e-02,6.879304206758239909e-05,2.177666989647584019e-04,9.457303285598754883e-01
-3.578896513087772568e-01,-4.545508221937211712e-01,6.231860789527050581e-01,-1.662599338382287073e-01,-8.339905646492033406e-03,-1.812881030269516188e-03,1.072301506996154785e+00
-4.379890555683682574e-01,-2.518158294251378604e-01,6.190392844530910876e-01,-2.329998472012062005e-01,4.778945257553855741e-02,-7.454140041672628614e-02,1.068441152572631836e+00
-4.052833498514125665e-01,-3.547683803693665316e-01,5.269054575908922455e-01,-6.052027628936094972e-02,2.216921818112237846e-03,1.034380135075680350e-03,9.140264391899108887e-01
-5.727639100873727074e-01,-3.910198432291071557e-01,5.877033634243555849e-01,-5.249757278583105924e-02,-1.874339520923912553e-02,3.091908769014233005e-02,1.086736917495727539e+00
-3.716685382064350285e-01,-4.160494000153822647e-01,5.264737275723460064e-01,7.060671164260392749e-03,2.418381057388387708e-03,-2.105356674455864489e-03,9.212328195571899414e-01
-4.282454566525528694e-01,-4.361447439488623790e-01,4.019262249708951407e-01,-1.186573785626606099e-02,-2.527500965023302126e-02,1.876603674141377395e-02,8.361821174621582031e-01
-4.161181872550286931e-01,-4.292663299253685616e-01,4.399252636380720505e-01,-4.869291725441786053e-03,2.088004624606156802e-03,4.169535999617107226e-03,8.627716898918151855e-01
-4.260966184519691113e-01,-4.410917243130200172e-01,5.167224117451740817e-01,-5.914232907879376014e-03,-1.649739660666923406e-03,-6.091580938921465835e-03,9.505233764648437500e-01
-4.271352212880159538e-01,-4.367735059303839984e-01,4.550306068770051393e-01,5.348927321867285277e-03,-6.837047328093584161e-03,-1.739796188408240796e-02,8.876633048057556152e-01
-4.284174611690951817e-01,-4.505426271821890150e-01,5.394304018597794181e-01,1.321357439481041403e-03,1.417047130331308691e-02,-3.648716563411239303e-03,9.794285893440246582e-01
-4.401898624488627121e-01,-4.052137429804011370e-01,5.374878883213616287e-01,-3.629318475280030737e-02,1.397777657146128186e-02,-2.985506316212312855e-02,9.644135236740112305e-01
-5.242343807393343713e-01,-3.048708996581643293e-01,5.385913316028466680e-01,-3.669851303234696049e-02,1.706020122041156800e-02,5.624303998441822217e-02,9.792737364768981934e-01
-2.016112329123690150e-01,-5.499801303312711331e-01,5.416846354642871342e-01,3.504184449468465690e-02,-1.451846712292953132e-02,-7.764323322694414650e-03,9.681362509727478027e-01
-3.928787975617195061e-01,-4.530067468627441696e-01,5.446943054750396085e-01,8.407013601122466763e-04,1.373225151448908068e-02,-2.136474350886279419e-03,9.693371653556823730e-01
-4.187964090561703268e-01,-4.229502138615812146e-01,5.419597932295997511e-01,1.648688700930885966e-04,2.167563527759445042e-03,-2.420448699739825502e-03,9.628562927246093750e-01
-4.901734020262543123e-01,-3.598276619161231427e-01,5.614140497922528450e-01,-2.427902712721406037e-02,5.047887113550683647e-03,8.570355010058349973e-03,9.938920736312866211e-01
-4.294687718253947240e-01,-4.315591452294725294e-01,4.675444406114988016e-01,8.323840704308027583e-03,-5.031096062136661794e-03,1.864607682746826506e-02,8.987986445426940918e-01
-3.053466009483021826e-01,-5.061488255275234938e-01,5.423703193760587293e-01,4.898387865331975920e-03,1.364869377730664954e-02,-7.740902231293029026e-03,9.643544554710388184e-01
-4.605886652237441425e-01,-4.001222295674177198e-01,5.655624591776460264e-01,-2.676786677196893102e-02,-2.522988206847354142e-02,4.699651767600364349e-02,1.002636432647705078e+00
-4.347154457112217263e-01,-4.422847978486478260e-01,5.279117112956845936e-01,5.484301620795105879e-03,4.289416578042484426e-03,5.635490969791305364e-03,9.665585756301879883e-01
-4.370843204401423376e-01,-4.025706696400460083e-01,5.376493755165611121e-01,-5.132770985362694605e-02,9.010200185109003973e-03,9.339584941262185983e-04,9.621876478195190430e-01
-4.436716831316632192e-01,-4.096393948456145129e-01,5.464707597054435650e-01,2.745153229923115879e-03,-5.800045127335029006e-03,8.758590507270958003e-03,9.737541079521179199e-01
-4.129272203681398912e-01,-4.408760882575870621e-01,5.465854291330416448e-01,2.437879113943162198e-03,6.344856022217029712e-03,-5.693675873031966636e-03,9.739090204238891602e-01
-4.251228775247986591e-01,-4.519490474881248110e-01,5.041025490646586782e-01,1.262437946727212358e-02,-1.512223296816958551e-02,7.729699405613455615e-03,9.436368346214294434e-01
-4.320005994416188932e-01,-4.097367637446223676e-01,4.473923084004287620e-01,5.282932633279008826e-03,-3.532424924223919772e-03,-5.567155338437559291e-04,8.685453534126281738e-01
-4.329009331092663060e-01,-4.397953551709668507e-01,5.147673256951758036e-01,-4.617950564506931657e-03,9.427559883130589777e-03,-1.449099352457435333e-02,9.516390562057495117e-01
-4.046475724040883848e-01,-4.191652017527783824e-01,3.738752878573754490e-01,-4.413683561327776637e-03,1.101379122643920830e-03,-7.117280882584980928e-02,7.955310940742492676e-01
-3.732518508937893720e-01,-4.443591835486009889e-01,5.383798073150098951e-01,7.240166809262459265e-03,8.198360681752246693e-03,-1.034766003449360400e-02,9.495432376861572266e-01
-3.918257062383771472e-01,-4.618098333650708098e-01,5.464859856935256888e-01,4.263711481237114284e-03,1.422050930671681437e-02,-7.562353553215928753e-03,9.756158590316772461e-01
-4.304723544372325850e-01,-4.452690126650824531e-01,5.045033412590774757e-01,-5.734736653206182547e-03,1.132939357914596046e-02,4.894494805092079043e-03,9.427558779716491699e-01
-4.396745949846538326e-01,-4.239548398363311987e-01,5.176679630319613867e-01,1.494257231817965135e-03,1.929611656532295022e-03,4.812927398949745465e-03,9.496262669563293457e-01
-4.499652055584729138e-01,-4.323554073228894068e-01,5.506444957790185279e-01,6.891875744245910124e-03,-4.785351692998100932e-03,-1.345575619989291399e-02,9.923022389411926270e-01
-3.843900802887116885e-01,-4.808806766175567904e-01,5.513671815092130446e-01,9.182611922727505760e-03,1.190065700679960280e-02,-5.073418577068179378e-03,9.879266023635864258e-01
-4.838142118017926818e-01,-4.101756940839856314e-01,5.466498466867290018e-01,1.587408026423752644e-02,7.126859852946870397e-03,1.005521916454787425e-02,9.962974786758422852e-01
-4.367384926218655927e-01,-4.386584116761523267e-01,5.057408607311962845e-01,-3.298659810926063505e-03,-1.912794413573022396e-03,-1.679111360440253484e-02,9.439120292663574219e-01
-4.266792614502989411e-01,-4.386172554289437531e-01,4.730466973427134292e-01,-5.139762872162037012e-03,-1.212951654284945627e-02,-2.662855497919608405e-02,9.072144627571105957e-01
-4.371230995348842630e-01,-4.359739906412538057e-01,5.504627375121793342e-01,1.650105047856166964e-03,-8.873890678361654339e-04,-2.977423017202141062e-03,9.870305657386779785e-01
-3.933614322342066649e-01,-4.518316300172511846e-01,5.425555624531539500e-01,-6.073631380493413594e-04,1.535207947307329346e-02,7.689684921049681418e-03,9.669375419616699219e-01
-4.330894802839021507e-01,-4.446214065783948843e-01,5.358978717239988310e-01,-6.316007891230232194e-03,1.829896485913585710e-02,-2.120687818565320654e-02,9.760723114013671875e-01
-4.193047638983993797e-01,-4.215409357814507429e-01,5.640166033372282506e-01,-5.150207444847297589e-02,-1.256580631955496463e-02,2.634907618485486658e-02,9.897670149803161621e-01
-4.229813012580053155e-01,-4.221787295618225633e-01,5.385977800716831299e-01,-1.067126031764914842e-02,-4.127827332328709402e-03,3.824815513302048074e-03,9.614051580429077148e-01
-1.920032928900065605e-01,-5.904427516648199648e-01,5.555981815598372009e-01,2.984100237459388471e-03,-1.601657781911440190e-02,-2.778945319984908041e-03,1.008144497871398926e+00
-2.506934414694957924e-01,-5.335503874578302330e-01,5.528214225234584500e-01,-4.788039026896126829e-03,1.801267979229173068e-03,6.324673258988502793e-04,9.762190580368041992e-01
-2.255642383448414612e-01,-5.651653560698570722e-01,5.979134767147433749e-01,-2.393978816140605870e-02,1.432165690112168280e-02,1.191678481709037771e-02,1.037236332893371582e+00
-2.649164961489133274e-01,-5.226474466303103750e-01,5.535787051648158874e-01,1.484995340628510185e-02,7.286188730423470705e-03,1.317615043222311209e-03,9.737233519554138184e-01
-2.679967984882382082e-01,-5.396484784867400242e-01,5.657781480210962721e-01,-9.462913348489246021e-03,-7.989593406319498575e-03,5.224774310777514572e-03,9.980048537254333496e-01
-4.229873369003373518e-01,-3.519769765645209825e-01,5.312839181394066745e-01,-1.672430363653378341e-02,-7.159101088194665618e-05,-1.313450274954143515e-03,9.212802052497863770e-01
-4.155321115490678840e-01,-4.396275959286327084e-01,5.459144292516402430e-01,-4.378124889269810840e-04,6.763804646839984350e-03,9.421517725889021547e-03,9.739254117012023926e-01
-3.337361434146703942e-01,-4.960996718350463297e-01,5.542004808427438700e-01,-5.928086775930686836e-04,3.330492247138690590e-03,-6.938211264038013359e-04,9.792842864990234375e-01
-2.750311928421463326e-01,-5.214254620752778457e-01,5.521322913816699707e-01,-1.235242626664277525e-02,-3.775530543631252893e-03,4.523289800540832191e-03,9.743099212646484375e-01
-2.833769400200792932e-01,-5.225708910908130056e-01,5.646408087741069393e-01,-9.465152064049589531e-03,-3.377141140062022914e-03,1.803733500636237400e-03,9.896975755691528320e-01
-4.109506955144140994e-01,-4.424086677185518068e-01,5.470025279131773832e-01,-2.304904060868855943e-03,-6.628118558407650532e-03,-5.255008032276375397e-03,9.741815924644470215e-01
-2.514057874480096211e-01,-5.228217032914487250e-01,5.360049114376265189e-01,-8.117793754555933244e-03,-1.174296626599972016e-03,1.615840688254452677e-03,9.526844620704650879e-01
-2.133568977536538513e-01,-5.697686331483786670e-01,6.428496609707788911e-01,4.365135971147404009e-02,6.710227541344929852e-03,-8.914554097847473060e-03,1.082298874855041504e+00
-4.330312484148488017e-01,-4.304943198211227950e-01,5.020067192140817980e-01,1.395873869739910683e-03,-1.073038248699837403e-02,-3.411981706043888739e-04,9.339603185653686523e-01
-4.348162369055942333e-01,-4.612764114331526222e-01,5.465899378124263741e-01,-1.391109727292831263e-02,-1.699419012225037232e-02,-1.608682251501888927e-03,9.956310391426086426e-01
-3.869953212330169978e-01,-4.837518434135556489e-01,5.652533796191392401e-01,-1.307763922848899536e-02,-1.325485700959708885e-02,-7.468405947341109213e-03,1.004730343818664551e+00
-3.527231340918242641e-01,-4.034171782947222895e-01,5.185015803936368073e-01,6.373200938483850053e-02,3.409624630685373706e-03,1.276789759676042954e-03,9.044298529624938965e-01
-4.345490309931689388e-01,-4.278063194614669107e-01,5.461699062098541724e-01,8.690356716768191884e-04,-3.709759285750198650e-03,-3.200031948352556090e-03,9.774030447006225586e-01
-3.773740043871369187e-01,-4.952415854706316289e-01,5.611696744793251979e-01,4.932452945033879640e-03,-2.551536374005191482e-02,1.006071985847217798e-02,1.003847956657409668e+00
-4.340932231623156889e-01,-4.431762530020003088e-01,5.463117266799918381e-01,-2.175039270488715766e-03,-1.046735883545016864e-02,6.151432436955130145e-03,9.852095246315002441e-01
-3.636131503732115688e-01,-5.025162082387560902e-01,4.595605898520647159e-01,1.028348811905760787e-02,-2.459687108566124825e-02,3.196361387883697031e-02,9.035749435424804688e-01
-3.800716948719847221e-01,-4.208558904035942794e-01,5.511254324554928363e-01,-7.402396282793553828e-02,-3.121409598564739776e-03,9.054954110367559317e-03,9.609804153442382812e-01
-4.256580934455102549e-01,-4.310493336740633952e-01,5.106512765887046834e-01,-4.472174689298811373e-03,1.053230521345385057e-02,-1.118043767683156615e-02,9.394253492355346680e-01
-4.306218693262585107e-01,-4.346477693382459484e-01,5.522455940332320345e-01,-1.262511691716391993e-02,-1.474094338784636901e-02,2.553714931257187321e-02,9.864522814750671387e-01
-4.293966747058760580e-01,-4.322632840786865827e-01,4.612062918106590859e-01,1.602520988426256281e-03,-1.064304144742493283e-02,-2.215903241805859680e-02,8.930596113204956055e-01
-4.023224124727988738e-01,-4.152873379499241735e-01,5.319671170312074704e-01,5.835422773193476090e-03,-5.582913629642405166e-04,-2.199185317155380286e-03,9.409014582633972168e-01
-4.467279983842416535e-01,-4.270210727088880609e-01,5.206595318768162395e-01,-1.474449882471602462e-02,1.104663024711433766e-02,-1.552491866988746361e-02,9.585948586463928223e-01
-7.183357615351798620e-01,-2.751528000909362892e-01,4.602937672317859441e-01,1.396413849112335681e-01,5.508467898060603885e-02,-2.098807669072657797e-02,1.064027190208435059e+00
-4.473218130231736978e-01,-3.970078601465186208e-01,5.563624186880704592e-01,-7.674738430563397829e-02,1.580448041612236149e-02,1.072494762488800275e-02,9.890294075012207031e-01
-3.921354680884558963e-01,-4.260731879759329099e-01,5.385540932931673908e-01,3.704459718872976995e-03,3.882189359389332829e-03,-9.751806015595484989e-03,9.483100771903991699e-01
-3.891813427163107186e-01,-3.894007277299531000e-01,3.154616530036029598e-01,-1.762193384537920392e-03,1.794805231314544353e-03,7.455499092102330083e-03,7.048844695091247559e-01
-3.977322916680041676e-01,-4.585049122967556068e-01,5.461623696908465275e-01,2.034051945112944765e-03,-1.330825751829696826e-02,-4.034782859730191330e-03,9.760051369667053223e-01
-3.077501940657746959e-01,-4.886541164813822946e-01,5.400869955082213680e-01,8.566581235327497268e-03,1.434730129054289163e-02,3.556104946058886648e-03,9.517388343811035156e-01
-3.898781761841917382e-01,-3.816129263860796317e-01,2.655557594148315603e-01,3.156787502875783857e-04,1.108134803110691000e-02,-2.264794796606665883e-02,6.528032422065734863e-01
-3.967504144845265812e-01,-3.893378408147580849e-01,3.361922392496737855e-01,-2.348428832527619387e-03,-2.799457533492771127e-02,1.089758666638783588e-03,7.308885455131530762e-01
-4.441062212122928177e-01,-3.330240704306243193e-01,5.218867274020688729e-01,1.668325445421188491e-02,7.158506572941260651e-03,-3.071512725770380627e-03,9.160753488540649414e-01
-3.935291162836939693e-01,-3.953785089113494022e-01,3.382581118428954481e-01,-7.389510346450285302e-03,4.034714340864646413e-03,-2.762208120226940927e-02,7.344187498092651367e-01
-3.930039061930891697e-01,-3.928625237763689881e-01,3.188893940152660589e-01,-9.819806879209280401e-04,-1.249044496539290609e-02,-1.867878755464644214e-02,7.128878235816955566e-01
-4.276578552481649642e-01,-4.341241208617016012e-01,4.954846393848105768e-01,1.603015293209321575e-03,1.791283630427645615e-02,-9.353347527958602754e-04,9.269175529479980469e-01
-3.555053735673813775e-01,-4.771550681212494149e-01,5.474273786357500837e-01,8.643497350486976233e-03,1.346790702319772964e-02,-1.082289343284597617e-02,9.700759649276733398e-01
-7.985007063375859637e-01,-1.357491145937214649e-01,7.765658179438287290e-01,1.070152903505194181e-01,1.983534880870236466e-02,1.063677384084559530e-01,1.394874811172485352e+00
-4.181234298676095862e-01,-4.476878303481383603e-01,4.949895771171772818e-01,5.719688686025775626e-02,1.341736866126310573e-02,-1.063683892326659601e-02,9.339908957481384277e-01
-3.816108005656356772e-01,-4.740476123957971244e-01,5.511312849121748902e-01,2.192578532223842663e-02,9.266867720860600191e-03,-3.224139777600950642e-03,9.831088781356811523e-01
-4.291548694217461324e-01,-4.486298726494337696e-01,5.262346282975957079e-01,-1.906298690849907076e-03,8.900741389195052696e-04,-5.912898511976998322e-04,9.652817845344543457e-01
-3.525042791107496631e-01,-4.421777446252568300e-01,5.300662181936462991e-01,-1.369626682550164308e-02,2.150361891116999141e-03,-1.927627564937466282e-04,9.309629201889038086e-01
-3.738095415511665798e-01,-4.946548482384410805e-01,5.608108440658894356e-01,1.229760362464365001e-02,1.684944854953320664e-02,4.741263167820928062e-04,1.001183986663818359e+00
-2.844397644516034607e-01,-5.127025563896581151e-01,5.992209148124225671e-01,6.045804930508731634e-02,9.404259704613417842e-03,-1.211282171078119883e-02,1.022906661033630371e+00
-3.213883668922377645e-01,-5.058895461640222635e-01,5.503163259022278986e-01,8.292915989286306615e-04,1.409012994332886626e-02,-2.938736779461121901e-03,9.774271845817565918e-01
-4.325474256099853809e-01,-4.760777932059419570e-01,5.475110739536878102e-01,9.985937744655688092e-03,1.270683844017382602e-02,7.504106525370762490e-03,1.003007650375366211e+00
-2.600538057570838668e-01,-5.184243326299580179e-01,5.414049216354429594e-01,-7.710476667883488927e-03,6.015342929712553383e-03,6.715968925746540518e-04,9.573155045509338379e-01
-5.049733283494797220e-01,-3.052328848102047743e-01,5.002801166113766129e-01,-1.104764311374094032e-01,-4.862790042586637163e-02,-2.341459641572159883e-02,9.460416436195373535e-01
-3.849613098098123576e-01,-4.584058896420885043e-01,5.201134216456332338e-01,9.733363278105025204e-03,-6.014686080662382146e-03,-6.438855309734866500e-03,9.442162513732910156e-01
-3.329637430764236794e-01,-5.366442101170676438e-01,5.618183512535648294e-01,4.164110810452489875e-02,-2.390439088845947024e-02,1.939286143347705021e-02,1.016078114509582520e+00
-4.271796299177519352e-01,-4.274348090995385707e-01,4.976635162950271418e-01,5.977073997010082240e-02,-4.973532151746413998e-02,-2.158244017647650836e-02,9.354714155197143555e-01
-1.098275456409760487e-01,-5.892070476024796610e-01,5.710336531584996322e-01,7.045150901099136997e-02,8.206032494629547647e-03,-9.314603079244987817e-04,1.017281889915466309e+00
-4.390884059494843394e-01,-4.441267266532974434e-01,5.463290114527782348e-01,1.495043530745092776e-03,2.329274481576737357e-03,-1.147936876456030156e-03,9.879598617553710938e-01
-4.244874341111122829e-01,-4.182961963171937247e-01,5.423747604686376400e-01,2.354778553913464655e-03,-2.412968925604599187e-03,-3.185053955833826340e-03,9.638149738311767578e-01
-3.754509466022086239e-01,-4.161541403507049153e-01,5.235160122882849265e-01,-8.120640088182558627e-03,2.629752864519325226e-04,-9.519465159480377213e-04,9.201031923294067383e-01
-4.138730915322416659e-01,-4.449474488771567593e-01,5.133604981077468654e-01,7.954142606260776460e-02,-1.959406373594610798e-02,-8.080698443938730269e-03,9.538705945014953613e-01
-3.246750309542988377e-01,-4.600747060782655051e-01,4.692488652941801952e-01,8.851983972166581338e-02,-2.084202500911470999e-03,-2.451782790423389161e-02,8.840073347091674805e-01
-3.966922780019137007e-01,-4.253455225237028348e-01,5.346064195240278760e-01,-5.558397625869285728e-03,2.642005006445178814e-03,2.245170672659359094e-03,9.460188746452331543e-01
-4.242994178735778887e-01,-4.386594840237024728e-01,5.170477442434897597e-01,4.362847104155876299e-04,-7.607535351818699295e-04,1.154366689868487625e-03,9.486120343208312988e-01
-4.229683976246595423e-01,-4.423779361597755533e-01,5.465266950161844495e-01,2.972165820596513186e-03,-1.676738099885031683e-02,-5.683943165400348260e-03,9.798376560211181641e-01
-4.395008153890703761e-01,-4.399940560475703033e-01,5.450228203167144514e-01,-5.169700065939079880e-04,-1.871823830050436260e-03,3.639512235709724437e-03,9.847962856292724609e-01
-4.072300553664416900e-01,-4.093795889805904031e-01,5.378921968017476019e-01,6.663870190623577550e-02,7.241533766292990518e-03,-8.313277069881689837e-03,9.534039497375488281e-01
-4.364313499208304914e-01,-4.396199450294494548e-01,5.526972430984045115e-01,-4.615436028138506170e-04,3.526428171300263650e-04,-5.439282049657870842e-03,9.907720685005187988e-01
-4.431204988762126318e-01,-4.401006389637533989e-01,5.443012003609153382e-01,-3.191762955624017749e-03,5.835511025897089418e-04,3.001945120412080701e-03,9.859449863433837891e-01
-4.213881701255189904e-01,-4.419804715169222131e-01,5.014864836825293493e-01,1.460826811439124365e-02,-1.148084935966057346e-02,-1.151451888442462865e-02,9.341087341308593750e-01
-4.041140577809593792e-01,-4.498852447108676045e-01,5.340386161437540302e-01,1.124799256298575356e-02,-5.281505821404173552e-03,8.078222270263923574e-03,9.621978998184204102e-01
-4.206788830233008647e-01,-4.677417057346204832e-01,5.398139748064979537e-01,9.115439988450921294e-03,8.157631955378434607e-03,5.434129860550040297e-03,9.851408004760742188e-01
-4.358018630755531864e-01,-4.346867918097256922e-01,5.434985075523525166e-01,7.393013303818003019e-04,-2.840880713811649166e-03,3.463327454876920621e-04,9.787567257881164551e-01
-4.197793230644961127e-01,-4.367241470849103635e-01,5.425542581584752444e-01,8.538080941664860863e-04,1.129344305432837883e-02,7.517570731978421780e-03,9.712023138999938965e-01
-4.324498608818623246e-01,-4.372509997381147095e-01,5.195784549117625772e-01,3.024909741947078533e-03,2.118310316289543586e-03,-9.481294060346972131e-04,9.544607996940612793e-01
-4.477817674453426489e-01,-4.446642497729373367e-01,3.443366640256951827e-01,3.757412864140709241e-02,-8.092055558345352673e-02,5.782619399541328101e-03,8.055880069732666016e-01
-4.126098554981800226e-01,-4.085812723971075644e-01,2.918944570958608153e-01,3.619355733655038512e-03,-2.662016658317755552e-02,-5.068690698128222594e-02,7.094907164573669434e-01
-2.218098855609075548e-01,-4.552279685223323824e-01,1.379740977315456751e-01,4.356978837240679803e-02,-7.220078242816217740e-02,1.248375231717507514e-04,5.378127098083496094e-01
-3.640573601329209485e-01,-3.951304631186110528e-01,1.532088145525262179e-02,-1.956444326799110234e-02,1.664160373856194905e-02,1.409068535340406991e-01,4.671458005905151367e-01
-3.942935626127460069e-01,-4.278287584779857933e-01,2.934216570546069880e-01,3.367985167882585340e-02,-5.737930604440601157e-02,6.311248921910130039e-02,7.227511405944824219e-01
-4.056689661310756700e-01,-4.314120928330110183e-01,2.909813673734185091e-01,-3.905370860701036506e-03,-6.101336081054186539e-03,3.486526732081365182e-02,7.125465273857116699e-01
-4.405990387083120741e-01,-3.540510937835261163e-01,5.419910880441275447e-01,5.507264284336173960e-02,-1.348331031911830999e-02,-9.652385380922194266e-03,9.475529789924621582e-01
-4.563155968766343107e-01,-3.533637312202139169e-01,5.564996853117829545e-01,1.363868371224045695e-01,5.092321742893314053e-03,-5.280806870878902715e-03,9.940262436866760254e-01
-4.487119985147612899e-01,-2.874363053998318374e-01,5.243760489144030368e-01,1.039160555376329037e-01,2.490904312995064710e-03,5.750182699759944817e-03,9.211341738700866699e-01
-2.416145588576749659e-01,-5.372331054577922371e-01,5.771416133554855277e-01,-7.265903662198555310e-03,-1.428589274608121559e-02,-7.377933118761085748e-03,1.000362634658813477e+00
-1.313671564966431560e-01,-6.629972020752584738e-01,7.801517049863069264e-01,3.942863653992260964e-02,-1.854532804188481140e-02,1.515839303027113893e-02,1.266677856445312500e+00
-3.349492646827076925e-01,-4.471198897505695435e-01,5.236738420940539873e-01,1.488961405816721650e-02,-3.027806560109188271e-03,6.022365985062091368e-04,9.202292561531066895e-01
-7.396320442592083100e-02,-8.015099346657309498e-01,6.352160390863490491e-01,-8.300024326654359408e-03,8.310978964740026176e-02,-1.925096139806693751e-02,1.253100395202636719e+00
-9.720653026430239874e-02,-5.872676595232436680e-01,5.223700400586747117e-01,1.157688631622779130e-01,4.075671771819260741e-02,1.121380149956695792e-02,9.865258932113647461e-01
-1.578655442661430208e-01,-5.896944309258734807e-01,5.031659032469494308e-01,1.258262382920041431e-02,1.397644283951164634e-01,3.417647294207685343e-02,9.856330752372741699e-01
-3.396099482700462024e-01,-4.426853874549692147e-01,5.247512122627551179e-01,1.488812804310194957e-02,4.958054170966789270e-03,-5.712963810974935365e-03,9.206930994987487793e-01
-3.760463059140843889e-01,-4.176858391052963304e-01,5.237679189544165448e-01,9.418776790848650687e-03,-6.425648543091170293e-04,-3.505133455853168159e-04,9.214852452278137207e-01
-3.353623522962942416e-01,-5.599225558812478409e-01,5.471849781474371621e-01,-7.679516811163257170e-03,-1.930055645564730457e-02,-3.219484631742025593e-02,1.015827775001525879e+00
-3.528276587495060568e-01,-4.160675886083354813e-01,5.501082865304252056e-01,8.848685179492848940e-02,1.724140374415737871e-03,1.378845675697875153e-02,9.489274024963378906e-01
-2.524314026589961069e-01,-5.883332062472983459e-01,6.314536554240653965e-01,9.375232393084338700e-02,6.165573000545757076e-02,1.116493408104037716e-02,1.108660578727722168e+00
-2.368279079858727765e-01,-5.678186307694481627e-01,5.182564546088775925e-01,1.077271782564107466e-01,9.223038052890102090e-02,2.765077187045147933e-03,9.949828386306762695e-01
-3.968623826356538209e-01,-4.163442361502086020e-01,5.349187547846795399e-01,7.154192703355292601e-03,-8.738797828451699140e-04,1.089496384344206675e-02,9.419450163841247559e-01
-3.046410266244363174e-01,-4.841121023435612236e-01,5.358018473192088793e-01,1.416973174667526293e-02,6.120691483039257183e-03,-7.629507832702905543e-03,9.435457587242126465e-01
-6.722982020805569059e-01,-2.339123462054897296e-01,5.145636822845603975e-01,2.065346088634369415e-01,9.912851247171550195e-02,8.002638772544848345e-02,1.121241092681884766e+00
-5.777684106391388630e-01,-1.795931236050538893e-01,4.812199832711252512e-01,1.040055008310486473e-01,3.686423325659638622e-02,1.319506692251420921e-01,9.731897115707397461e-01
-4.416671936599959047e-01,-4.098372283322708753e-01,5.458022189266446000e-01,2.886089890341762224e-03,-6.817316561567102196e-03,8.760386135130483407e-03,9.721484184265136719e-01
-6.764398555400610302e-01,-2.309646043226390444e-01,8.725960468183574514e-01,2.534144048404711747e-01,2.451384936725125446e-02,3.761383303391672983e-03,1.449967265129089355e+00
-5.151275355548489143e-01,-2.978405060513680258e-01,5.659109782694180524e-01,8.707839051090787708e-02,1.422891367167609944e-02,4.951690560038638639e-03,1.002193212509155273e+00
-3.701818627114897842e-01,-4.594716308481174849e-01,5.377189194093058289e-01,3.142274421271093465e-02,1.537829643610595654e-02,2.213339158111317720e-02,9.583653211593627930e-01
-5.045022676225299207e-01,-2.985300905169526731e-01,5.879657021505999559e-01,1.796290382431294519e-01,1.043596585991216595e-02,1.335960994780716407e-02,1.052879214286804199e+00
-5.524864408114380510e-01,-2.981416389661729061e-01,5.294207676356423864e-01,5.590870422946880858e-02,-4.629004874100828976e-03,-1.698017524442775594e-02,9.850602149963378906e-01
-5.485662056800244546e-01,-2.953034944766288472e-01,5.587147948920199170e-01,1.287724427675099315e-02,1.784007069649951732e-02,-1.943900294015951657e-02,1.006164073944091797e+00
-7.987555922557660892e-01,-1.065781186534023317e-01,6.119625765327003641e-01,1.166291562024315970e-01,4.499031874084463700e-02,7.690195500030927445e-02,1.247954010963439941e+00
-3.079741412265781797e-01,-4.895638505782299865e-01,4.895895170812770703e-01,-6.471434260179252142e-03,7.354084388842458547e-03,9.459207918676737839e-03,9.024789929389953613e-01
-4.295104032509817205e-01,-4.380743451626831209e-01,4.655265035735424162e-01,-9.678376913411935317e-04,5.331683001157086488e-02,1.356563986241622957e-02,9.043850898742675781e-01
-2.456988059962896820e-01,-5.225527876184340448e-01,5.376923787460304860e-01,5.460783243796106870e-03,9.571239953255632898e-03,-3.414732694616924927e-03,9.526983499526977539e-01
-3.952105714486897625e-01,-4.559955817591417326e-01,5.194689526180972239e-01,6.714781421805323704e-03,-6.732935960188833613e-03,4.475665121364777801e-03,9.467120170593261719e-01
-4.332559164305698207e-01,-4.375137007362198682e-01,5.175000977145287617e-01,-3.108895376633828266e-03,1.313973152978016937e-02,-2.291852149448686104e-03,9.531872868537902832e-01
-1.719507175443766300e-01,-5.698369899000742533e-01,7.922967137374545832e-01,-2.530934511356527361e-01,3.372660534493078510e-02,-1.066734089022979282e-01,1.304402709007263184e+00
-4.240641130789545854e-01,-4.162592523061279803e-01,4.194641546564129575e-01,7.261198824087179531e-03,-3.165755248557187984e-02,2.485460182455028269e-02,8.426359295845031738e-01
-4.362491819487482880e-01,-4.426009922473627678e-01,5.495820861947423586e-01,7.101890907572567038e-03,-7.354802545453859725e-03,-6.660582615798703657e-03,9.892482757568359375e-01
-2.661294240771633346e-01,-5.104173310981059419e-01,5.393315842362826906e-01,-9.427039340600937983e-03,-6.768219134555726602e-03,1.651698480557788930e-03,9.516410231590270996e-01
-3.879100663633121004e-01,-4.785661538966014539e-01,5.115369385845134342e-01,-1.150558737271057536e-02,5.798740489925204022e-02,7.142183971696646622e-03,9.536255002021789551e-01
-4.233614201997081272e-01,-4.375022848214842885e-01,5.028796364535771390e-01,-2.410076622527423419e-03,1.876244551898454890e-02,-2.695168495806443167e-03,9.339783787727355957e-01
-3.336355115798862458e-01,-4.815010627449936575e-01,5.390562603340847136e-01,-1.334808525643125382e-02,-1.209992984129684701e-02,-1.688701089799155355e-02,9.562036395072937012e-01
-4.193983494422152125e-01,-4.281122770073298445e-01,4.912143810331782712e-01,9.303768349685428637e-03,2.567218108018383405e-02,5.789047409310869342e-03,9.162771701812744141e-01
-3.714949092960270205e-01,-4.608882526259371892e-01,5.237815341493738952e-01,5.869113888490785913e-02,8.150439223104979578e-03,1.597504517691546513e-02,9.491267800331115723e-01
-4.336067009947879303e-01,-4.314362477683557628e-01,4.535171334930123699e-01,4.772232319204994418e-04,3.712836663695766315e-02,2.904723314451915922e-02,8.897951245307922363e-01
-3.259517826801033857e-01,-4.449959810441726504e-01,5.223393788498885693e-01,-1.269695765292359196e-02,2.218006403588140135e-04,-6.206498590247864003e-03,9.139764308929443359e-01
-4.002584051180905766e-01,-3.958161539186398903e-01,5.251021615545156118e-01,-1.795924848573712124e-02,-2.005311770741024027e-03,2.486271338970951969e-03,9.236879348754882812e-01
-4.888060026553159854e-01,-5.026354446657690378e-01,6.599794279514128448e-01,-3.076287097323603947e-01,1.055236819633079970e-01,-6.251759868718684277e-02,1.290280461311340332e+00
-4.015083046377465603e-01,-3.997487009469092301e-01,5.260790235548191696e-01,1.320139843550436655e-03,-1.426854439022602530e-03,1.254698601108297741e-03,9.267174601554870605e-01
-4.275022371748622985e-01,-4.036581691367492897e-01,5.026832243393143385e-01,-2.237141709162567341e-02,-1.962847718329860207e-03,-1.580211592433632822e-02,9.197261929512023926e-01
-4.151931190797527038e-01,-4.336646564579291208e-01,4.652980498037431190e-01,5.325669333255299114e-03,-3.939795498340964257e-03,4.266870800926842074e-03,8.899753689765930176e-01
-4.279345180751741307e-01,-4.456569351002641066e-01,4.958231042719205561e-01,1.553302887955669174e-03,9.379263547732958478e-03,5.758011532528374207e-03,9.329437613487243652e-01
-4.018572749041374181e-01,-4.023919268416327188e-01,5.294513323522282988e-01,-3.766290104158308109e-03,6.182782361069236524e-03,9.103620514048717423e-04,9.316617846488952637e-01
-3.911627438755258535e-01,-3.948828320830020666e-01,5.194081696618749744e-01,-2.524814645832691370e-03,-1.316224363964186433e-03,-3.802327067557434621e-05,9.124499559402465820e-01
-4.283155968271223357e-01,-4.410591905343489993e-01,5.016718657367605916e-01,4.515029794336334820e-03,-8.252574227747951074e-03,-5.605859155134724874e-04,9.365665316581726074e-01
-4.297899737604820580e-01,-4.464604970037506226e-01,5.156651308394697431e-01,1.516001099713905429e-03,-9.254067114469967294e-04,-4.898900517445032438e-03,9.539422988891601562e-01
-3.988651500949119133e-01,-4.385792565041434776e-01,5.049991133001100474e-01,-1.806821728217005221e-02,5.148012996589237944e-02,-1.164762619493399202e-02,9.293981790542602539e-01
-4.424560012024303379e-01,-4.299083600848644382e-01,5.080149785875837098e-01,7.273999253111221829e-03,-5.121017436990024305e-03,3.288864571732612492e-03,9.444025754928588867e-01
-3.246752166483894420e-01,-4.515097918456809079e-01,5.311236995576199549e-01,3.080615556421022194e-02,1.183782729544793563e-02,6.515700119054184183e-03,9.275874495506286621e-01
-4.339249390368560833e-01,-4.201445715753537313e-01,4.649488187496990665e-01,-2.325642922267170346e-03,-5.098776065546266507e-03,-8.909277322975528435e-03,8.922496438026428223e-01
-3.907225896862510650e-01,-4.622143834767428738e-01,5.331559312384703819e-01,-2.834335573341894080e-02,-3.603662404345462159e-03,2.867603883531878554e-03,9.629049897193908691e-01
-3.970361984225546093e-01,-4.126184552758550561e-01,5.303401352492216336e-01,-1.749796209579652971e-03,-2.974809259349535037e-03,-4.457340444753563578e-03,9.353157877922058105e-01
-4.027204404207709865e-01,-4.611572952960849014e-01,5.654225675535440310e-01,-1.306370410096648407e-02,-1.432639479867007766e-03,-6.879018582992576722e-03,9.989750385284423828e-01
-4.357942598218119690e-01,-4.197017248801905298e-01,5.363783385388087854e-01,-5.127024759460797193e-03,-7.009935954421489882e-03,1.745233451017075797e-03,9.643490910530090332e-01
-4.996184723841925468e-01,-4.027038959868430856e-01,5.465926851416187393e-01,-2.711688049912546264e-02,3.388543787397214208e-02,-2.311836107403318283e-02,1.004893541336059570e+00
-4.440390722805616641e-01,-4.399415959021185096e-01,5.445569423539134979e-01,3.709652266385663009e-03,1.939379267018086651e-03,-2.570041021155735489e-03,9.865903258323669434e-01
-3.978926810499474054e-01,-4.289790646390321260e-01,6.111293178674619408e-01,-1.302344989082860616e-01,1.093176841464867360e-03,5.973709640033113754e-04,1.049450516700744629e+00
-4.425760719346235050e-01,-4.456150402341900185e-01,5.544412460529493103e-01,4.563412761857999628e-03,-2.165905081944293452e-03,2.002908931310027653e-03,9.985846281051635742e-01
-3.915809940271153256e-01,-3.947972666198469316e-01,5.213447103589409215e-01,4.517051625418685816e-03,-2.253009826907938652e-04,3.300613948239852942e-03,9.145895242691040039e-01
-4.270194185193875169e-01,-3.896138633330026302e-01,5.417376681227328294e-01,-2.783685871527501188e-02,-5.921023185392719490e-03,3.332857244560670160e-03,9.519011378288269043e-01
-4.325055088079025056e-01,-4.528012850595276584e-01,5.851846339301187694e-01,-3.414256943056212523e-02,-5.441475817172736684e-04,-3.534259580270890898e-03,1.029706478118896484e+00
-3.941875766956781657e-01,-4.316585255756986150e-01,5.227706182445338579e-01,-2.746990536684334322e-02,-4.414629495999208494e-03,2.805069219235748791e-03,9.375081658363342285e-01
-5.422452901954808446e-01,-3.717772641491927654e-01,6.189320978404632134e-01,6.131285910083610069e-02,-1.483912746525038739e-02,-2.666425126919899635e-02,1.092483401298522949e+00
-4.782933177897590316e-01,-4.181977666625423251e-01,5.360981839134038029e-01,5.920345781994332951e-02,-4.712498046810879165e-02,-8.238789355438532608e-03,9.944959878921508789e-01
-4.423338556833386059e-01,-4.172950483867956528e-01,4.649423806189540986e-01,3.329806363036987016e-02,3.466785847230219580e-03,-5.094299691413009534e-02,9.012258052825927734e-01
-4.272705500867980954e-01,-4.426771455530466026e-01,4.956923376547117677e-01,-6.521076019134748256e-03,8.339540826196205955e-04,-3.510213172718759525e-04,9.308316707611083984e-01
-4.360890675198813016e-01,-4.277701248242830601e-01,5.037516018528018780e-01,8.733195885611794856e-03,1.680324049268767418e-03,-9.456532947402094408e-03,9.359790682792663574e-01
-3.858857807880337054e-01,-4.251120661327411621e-01,5.284619029605805984e-01,2.832349688613638658e-02,-1.027430310262001691e-02,-1.094645598206611843e-02,9.362263083457946777e-01
-4.395373195591822379e-01,-4.207130303337935362e-01,4.489564212228683848e-01,5.291182399139652062e-03,-2.699575094944842157e-02,-6.915743927144170355e-02,8.886330723762512207e-01
-3.989441346919007092e-01,-4.071360671455015456e-01,3.596806567681122280e-01,1.547817659112144797e-03,2.163159713376663299e-03,3.208223990431447424e-03,7.627878785133361816e-01
-4.114950584825235458e-01,-4.407421264527928706e-01,5.445791624480076365e-01,2.652598603253541239e-03,-6.036374929127942719e-03,5.777253491192362381e-03,9.711468815803527832e-01
-4.343586429587577569e-01,-4.399692751447590311e-01,5.524707391411747270e-01,2.039209513079252856e-03,-9.935911997612817837e-04,-1.555796460961816376e-03,9.896581172943115234e-01
-4.317560921435845134e-01,-4.429805655766564931e-01,5.281967842437030880e-01,-4.204437692191370299e-03,-4.082202613687348387e-03,6.250885711745474485e-03,9.657281041145324707e-01
-4.441730111019760452e-01,-4.372875695317815503e-01,5.379203071537356218e-01,-1.594869914102983472e-03,-3.266403603122003917e-03,-2.551862447344847590e-03,9.786989688873291016e-01
-3.095817660921172387e-01,-4.589263288951019315e-01,5.423837283541925736e-01,2.769962637827116242e-02,8.490875287204945748e-03,-1.506768703321025677e-03,9.369686841964721680e-01
-4.869156743491894757e-01,-3.731548092927789995e-01,5.789993088418043943e-01,4.206145833243983556e-02,-6.947163308756906450e-03,-4.164117321151736273e-02,1.019073605537414551e+00
-4.656762466801072642e-01,-3.602503232878748740e-01,5.476543503056335860e-01,3.481144237891161536e-02,1.253464643489906813e-02,4.108254670182660134e-02,9.696867465972900391e-01
-3.883267723752837353e-01,-4.150278669431253231e-01,5.151225086974360323e-01,9.662877116070445194e-02,-2.246617191234293390e-03,1.448441850818061802e-02,9.325838088989257812e-01
-5.459944153858491411e-01,-1.856658549634471467e-01,5.390279104219483086e-01,-8.207458366648283724e-03,-4.625336210815649517e-03,3.062610667349781671e-03,9.573087096214294434e-01
-4.075273604901629709e-01,-4.644176476399173303e-01,4.146405566246178509e-01,8.106887507240297108e-02,6.766274684983808463e-02,5.297940013394794589e-02,8.762657642364501953e-01
-4.282734200955704007e-01,-4.435372783818204989e-01,4.273181255238666099e-01,-1.612136779177044538e-02,3.723017459281471875e-02,5.786756047334722097e-02,8.719595074653625488e-01
-4.337007820452556950e-01,-4.376542761984533181e-01,4.649319427088525192e-01,-8.799688785164481997e-03,2.458902698639402890e-02,4.549855681427314447e-02,9.051882028579711914e-01
-3.528424763779069440e-01,-4.290168549310215407e-01,5.079287236526880411e-01,9.460040776839026555e-02,2.731186672848433250e-03,1.108182817980044900e-02,9.162623882293701172e-01
-4.901948165128371948e-01,-3.953359589949079766e-01,5.710334333598567902e-01,-1.139728645753469542e-02,8.165378912443687492e-03,-6.521846553793830218e-04,1.017412304878234863e+00
-4.715132977749176835e-01,-3.515134818650425541e-01,5.421247031072343736e-01,-1.436439000949498931e-02,-3.138888426134754054e-03,-4.318794311569618127e-03,9.596510529518127441e-01
-4.907842454869181248e-01,-3.525348141710717420e-01,5.702027447727224807e-01,-1.546790222650249250e-02,9.039264968766484330e-05,-1.171960172805110384e-03,9.994235038757324219e-01
-4.955876431105146751e-01,-2.670096041857242808e-01,5.426539961604397444e-01,-4.409456078356410041e-02,-2.901318708822533173e-03,1.267094045920020770e-02,9.482691287994384766e-01
-4.630552669455013093e-01,-3.296073163408347328e-01,5.424402272391023461e-01,-2.473889920229750683e-02,1.011127395016965178e-02,-1.907358011427773628e-02,9.475665688514709473e-01
-4.661015739620599230e-01,-3.354144792739134906e-01,5.526926882890952353e-01,-4.612770908601865338e-02,3.243197666972149999e-03,-5.931854142348138778e-03,9.635341167449951172e-01
-4.175796830849596297e-01,-4.341209288916533793e-01,4.562736575637064140e-01,7.843565893683815144e-04,5.019685438062711615e-04,-2.697878744510801875e-03,8.822541236877441406e-01
-4.811307827941071480e-01,-3.033129445145672509e-01,5.451092537293749096e-01,1.653515064865060391e-02,-2.370441357985285120e-03,-8.347308359267620326e-03,9.504473209381103516e-01
-2.565872845051796469e-01,-4.890336580350384543e-01,5.268241192429943265e-01,-3.160591715919210121e-02,-1.003074215396150201e-03,5.406656409462322690e-03,9.235547780990600586e-01
-3.479241100764631778e-01,-4.668775516022770633e-01,5.392023285503338981e-01,6.954369854295125268e-03,8.547760852339349874e-03,-6.759020641082700079e-03,9.524554014205932617e-01
-4.217911544812392166e-01,-4.332365523518879047e-01,4.635008943913955237e-01,9.066020891330484402e-03,-1.163393876709428775e-03,-6.417894974445186376e-03,8.912798166275024414e-01
-3.252015448157652422e-01,-4.865626312471293402e-01,5.483011654568179516e-01,-4.654733516813898409e-03,-1.287485194194798802e-02,3.256678628120152075e-03,9.646698236465454102e-01
-4.427891345281105284e-01,-4.233185635469045027e-01,4.799599019115365905e-01,5.207810687114211232e-03,2.727816843964477739e-02,4.816501480382773259e-02,9.182329177856445312e-01
-4.431374558457775725e-01,-4.289634908836992833e-01,5.222814273260238949e-01,4.503008362919674748e-04,9.607943795416689844e-03,1.457696184220933638e-02,9.588877558708190918e-01
-4.016361562041126376e-01,-4.527263022307535523e-01,5.465831137604606482e-01,1.935680772583632655e-03,8.126299235437586116e-03,-7.894012617453349465e-03,9.749723076820373535e-01
-3.395397925005341211e-01,-7.030747619327866182e-01,4.694821161899644935e-01,-2.207394043197479783e-01,3.069048827301314175e-02,-3.715460576662078795e-02,1.110822558403015137e+00
-4.612501044127291783e-01,-4.342691647939308508e-01,5.488192330979030364e-01,-8.239737150192572154e-04,-1.622883075796934145e-03,9.109707692810468591e-03,9.969826340675354004e-01
-4.433833218279390476e-01,-4.152626982384114984e-01,4.464469456904511802e-01,-8.786711910031168912e-04,-3.248530884060153029e-02,2.795556416784178433e-02,8.792490363121032715e-01
-3.012812863317554379e-01,-4.838005297440575170e-01,5.405335765058446595e-01,8.121940978010670081e-03,1.676805334151650756e-02,7.850658341726325998e-03,9.470159411430358887e-01
-4.464872996737169197e-01,-4.319397446053617196e-01,5.289974788754728818e-01,1.311904321653134704e-03,-1.159798436956317562e-02,2.904542896242049560e-02,9.698097109794616699e-01
-4.854815404629937992e-01,-3.462029619329705099e-01,4.554307597574257516e-01,-1.016682800507607252e-02,7.566074801530214486e-03,3.735938149984591172e-02,8.822327256202697754e-01
-4.894349993757751704e-01,-2.986217230401169709e-01,5.365327863775704031e-01,-1.037916030858327234e-03,7.175590511718532918e-03,1.565993819881265556e-02,9.455922842025756836e-01
-4.220724040546154909e-01,-4.434200939623495485e-01,4.729853075793487571e-01,3.006920246208966141e-03,3.797652950111859299e-03,2.642770298501201376e-02,9.071147441864013672e-01
-4.145579547943893384e-01,-3.902672952962743524e-01,5.280962140298020024e-01,-5.796945053283073662e-03,-5.375909263715778277e-03,-2.743793219171848218e-03,9.308594465255737305e-01
-2.871600602794266432e-01,-4.981253872704751728e-01,5.432178565707469486e-01,2.721399035331251853e-02,-2.703569682996415091e-02,8.749029636739869345e-03,9.559597373008728027e-01
-4.794092027712838489e-01,-2.640043208054847490e-01,5.501081014269633140e-01,-9.362872445155619172e-02,-8.487501338605502738e-03,1.234766377854029998e-02,9.547327160835266113e-01
-4.259398934101344403e-01,-4.021062503892163797e-01,5.374178145133802209e-01,-3.314425143713114943e-03,7.484137764140846817e-04,2.587466379289591126e-03,9.516934752464294434e-01
-4.660630308258975618e-01,-3.477040872129383842e-01,5.324710878332061803e-01,-5.269775677587824197e-02,-6.245958116037038724e-03,3.313389422768006631e-02,9.511232972145080566e-01
-4.225270246351146008e-01,-4.297169558120098598e-01,5.040639582957896492e-01,-7.581553440516339976e-03,-1.703742294595914433e-02,1.421987037030076131e-02,9.310932159423828125e-01
-4.596857513721305244e-01,-3.646333731557355740e-01,4.956142842780814073e-01,-4.193213588194382585e-02,1.961146472335456581e-02,-3.352607036419993393e-03,9.150366187095642090e-01
-1.584063481995447165e-01,-7.221197789661667477e-01,4.452188176123610397e-01,-8.692947661697017492e-02,-6.391945227511409977e-02,-5.593964588308476815e-02,1.032822728157043457e+00
-5.169123802242797661e-01,-3.579591528347648155e-01,6.221441358082444584e-01,-1.192195668011559045e-01,1.791374441130203637e-02,-3.282761574604962235e-02,1.090181112289428711e+00
-4.290601238208686108e-01,-3.994839592356085323e-01,5.352746733691016168e-01,-2.426751401037380296e-02,-2.721289488683339020e-03,7.770870693801178869e-03,9.509285688400268555e-01
-4.602681560298750862e-01,-3.944923903071518301e-01,5.557893328809737632e-01,-1.420796707900256854e-02,3.258868787936707034e-03,2.022089580218282279e-02,9.857643842697143555e-01
-4.480876858878619085e-01,-4.335853865645754590e-01,5.505693660385386767e-01,1.415516016771097875e-03,-2.603553072122052024e-03,8.687529485039553051e-03,9.916129112243652344e-01
-4.386504588428863372e-01,-4.305952736934615666e-01,5.061972939047261200e-01,-6.325563987695181044e-04,-5.605405956304072325e-03,6.210290334638809973e-03,9.409582614898681641e-01
-4.312759711960379438e-01,-4.491827338215661491e-01,5.470264824476501753e-01,-3.631830448357079282e-03,-1.531695255940910411e-02,4.568338205115160880e-03,9.877856969833374023e-01
-2.025241512762918084e-01,-7.067849419963827540e-01,8.379329275030149571e-01,-1.903184724238835834e-01,-1.772313370560037876e-02,-1.251330507584511899e-02,1.404124975204467773e+00
-4.257573318847223121e-01,-4.019779092564712553e-01,5.363068555357758393e-01,-3.693502538599933733e-03,9.149190191056732688e-03,2.627488260981972017e-03,9.505621194839477539e-01
-4.402842186870813412e-01,-4.430083669980340866e-01,5.271718082244164494e-01,4.413717427491851975e-03,-8.444104396222347486e-03,-1.400026303263165193e-03,9.689645767211914062e-01
-3.815036617154791143e-01,-4.562357715256362689e-01,5.132393287247269953e-01,-1.042343068154018802e-02,-2.284348077719263598e-03,-4.584222967766744122e-03,9.345697164535522461e-01
-4.230229310991940328e-01,-4.357087209010783169e-01,4.664758488175326789e-01,-3.211183802689975084e-05,-3.374074439427422051e-02,2.449921697247217992e-02,8.988153338432312012e-01
-3.954944778378573500e-01,-3.950644307402967348e-01,5.228022985898085340e-01,1.957844335504637864e-02,-1.207665512023227763e-03,1.250596413389176383e-04,9.187102913856506348e-01
-3.221047084166937524e-01,-4.729055720503941851e-01,5.429549204313457444e-01,-6.431133093129159928e-02,2.227580300586939552e-02,-1.470451002818218625e-02,9.571133255958557129e-01
-4.256005978532564349e-01,-4.429827698596091601e-01,4.969985998226675861e-01,-1.207703580080074762e-03,-2.615116857450545951e-02,1.835402028544041650e-02,9.330567121505737305e-01
-4.443497978816078886e-01,-4.385942885949378200e-01,5.280180844487941672e-01,3.957278400637616669e-03,-6.425471380935219440e-03,4.449512117206413930e-03,9.696216583251953125e-01
-6.722878361420974169e-01,-2.221144596632746437e-01,8.736802629221577243e-01,2.650552502048383330e-01,1.502458652929220331e-02,-4.977198381283115536e-02,1.454507350921630859e+00
-4.071933865494592464e-01,-4.475732560824314255e-01,5.317767251376755988e-01,-9.593607178051211451e-03,5.139873827732775215e-03,-9.889079161761720610e-03,9.601352214813232422e-01
-4.391090987746062435e-01,-4.391613236349367622e-01,5.400937259003393276e-01,-1.029491447779059925e-03,3.915185408451283058e-03,-1.933913435599033184e-03,9.792597889900207520e-01
-4.123197182036707487e-01,-4.395181540258938369e-01,5.467078970476453303e-01,-1.624491822725002491e-02,-2.766077345324208063e-03,4.363779642151996430e-03,9.733599424362182617e-01
-3.729824532660859782e-01,-4.179574435812413169e-01,5.225679912014188355e-01,-8.360409998773240398e-03,-1.187360742136666725e-03,4.354175154041709569e-04,9.189805388450622559e-01
-4.350253150072838082e-01,-4.308499380083628538e-01,5.098585990196035089e-01,-1.590648360795580106e-03,-1.239436080779991387e-02,1.819426608339073936e-02,9.435779452323913574e-01
-4.163758041599376902e-01,-3.729022260443066727e-01,5.257902165268788508e-01,6.913563190777517221e-03,2.748052347497928830e-03,-1.927168502454246549e-03,9.212951064109802246e-01
-4.210005423192755281e-01,-4.168835609502399842e-01,5.496388391551784158e-01,-7.998793229643001365e-03,1.376081898385550549e-03,-9.301982006516354168e-04,9.686908125877380371e-01
-4.348927243798412223e-01,-4.410772227011187097e-01,5.477593348723210909e-01,-4.001662878880784787e-04,-3.367885875067371903e-04,6.148252068762839057e-03,9.858167767524719238e-01
-3.641658643176741150e-01,-4.750295863850476086e-01,5.554770301045678371e-01,5.393991298807918403e-03,-1.151317787265320608e-02,5.042516536903633023e-03,9.800765514373779297e-01
-4.124474918522151312e-01,-3.727434256338528762e-01,5.205772077091914696e-01,7.853823969904336760e-03,3.728146031966059898e-03,-5.164830760146276248e-04,9.139443039894104004e-01
-4.388111095297050901e-01,-4.385918792080782391e-01,5.540968294357329071e-01,2.164271063160623108e-04,1.029542172958454677e-03,2.546160439414852056e-04,9.928001165390014648e-01
-4.786067593677212906e-01,-3.956734668048094705e-01,5.521672772568281262e-01,6.020770532051129657e-03,4.228327085753007600e-03,-1.387796370884564895e-02,9.922841191291809082e-01
-3.820600628241396235e-01,-3.893940647903711971e-01,2.505988916483027351e-01,-1.591915265983222597e-03,-1.347446039447592128e-02,-1.656248114365208631e-03,6.367979049682617188e-01
-4.248169736579028855e-01,-4.070670276726131021e-01,5.369947779016848166e-01,2.221020547450876237e-02,-5.910683874275911125e-03,-9.554105334165218302e-03,9.540352821350097656e-01
-3.644380316592860658e-01,-4.654878904823762653e-01,5.473833646159542710e-01,8.675304258060692608e-03,-1.405323149385461975e-02,6.007963721816410307e-03,9.667963981628417969e-01
-4.389701009564400680e-01,-4.135008211771190600e-01,5.450287986970442367e-01,-8.442392526813079223e-03,6.271310989565471658e-03,1.684134388435365795e-03,9.716898202896118164e-01
-3.916341347466506528e-01,-4.250957553376492615e-01,5.335748049804635018e-01,1.064400427074890278e-02,-3.535691951749707351e-03,-2.406956401766572294e-03,9.425948262214660645e-01
-4.371339912413180762e-01,-4.399360710315862177e-01,5.521822569414265303e-01,-1.110913554473411027e-03,-8.983475683725071232e-04,1.653032558061102563e-03,9.907274842262268066e-01
-4.670345348041520794e-01,-3.623410082049299263e-01,5.669347450599695470e-01,9.565380194937882219e-02,1.725611740859782015e-02,1.776344208572612493e-02,1.000545978546142578e+00
-4.230699254905031514e-01,-4.072612449411853186e-01,5.457785229928282522e-01,2.898017293358048224e-02,-2.524596147452244036e-03,-2.707970775254349947e-03,9.623729586601257324e-01
-4.558982467758039281e-01,-4.046766122009174405e-01,5.611277319854757195e-01,2.718495847784481098e-02,-1.696292015652343856e-03,-7.820036111805600196e-03,9.936200976371765137e-01
-4.268262996162744960e-01,-4.192834053432775709e-01,5.301729259983027909e-01,2.215552800898453606e-02,-1.508687458812974988e-02,-1.581449083399704553e-02,9.547730684280395508e-01
-4.363768575220594581e-01,-4.509199752695539076e-01,4.852905797285482770e-01,4.149502909697268260e-03,1.691814554413154439e-02,6.562908215924494193e-02,9.364390969276428223e-01
-4.450248016321888822e-01,-4.394914736304921243e-01,5.465066135847697071e-01,1.435835028418661627e-03,-2.354992855627174032e-07,-1.622588396986793160e-03,9.887834787368774414e-01
-4.221821274547729042e-01,-4.159282941840776182e-01,5.390465795583672115e-01,-9.610564432142906788e-03,8.132234983467276704e-03,2.931401652993250329e-03,9.583786725997924805e-01
-4.120030198192964344e-01,-4.359086092042199212e-01,5.316525994147444090e-01,-1.056753826594842433e-02,5.190720951338202889e-03,-3.303439121242271459e-03,9.560672640800476074e-01
-4.463511687212133316e-01,-4.366692824740095458e-01,5.319526128331324433e-01,-1.470850663632295493e-03,-3.765247429315383802e-03,-2.826557808785083118e-03,9.735364317893981934e-01
-4.178932420854721830e-01,-4.307918881904811426e-01,4.500559335251117510e-01,1.351909654535397767e-03,1.488982712128982758e-03,4.180194774684311415e-03,8.745067715644836426e-01
-4.479672063383207115e-01,-3.869451461337418130e-01,5.390799145471071308e-01,-3.780734347001843496e-03,2.246013192755058705e-03,-6.227646821054715412e-03,9.580858349800109863e-01
-4.343299071742162676e-01,-4.494709860754718123e-01,5.346898343268833287e-01,2.038251145091680462e-03,-1.059709180076613818e-03,-3.083250510576943625e-03,9.767010211944580078e-01
-4.403297496211955875e-01,-4.152022074707538701e-01,5.301837274478765627e-01,-5.872219627606026747e-03,-2.091106628110105288e-03,-6.502684705792958694e-03,9.583238363265991211e-01
-4.219207490717428732e-01,-4.379992169465969920e-01,5.396748674657533273e-01,-1.665214116915916115e-02,-2.459105648403232119e-02,1.228714621722946237e-02,9.713313579559326172e-01
-3.546586697080803541e-01,-4.451378169008924912e-01,5.398482805727541356e-01,1.017468545939620439e-02,9.710868221799080074e-03,1.064870166885269025e-02,9.435025453567504883e-01
-4.378605575978891662e-01,-4.376055857465004362e-01,5.241002320240167878e-01,1.193216391479684155e-04,-2.294879817087681472e-03,-9.525443558485702754e-04,9.618429541587829590e-01
-4.376377171141955791e-01,-4.338684853038904388e-01,5.259208121097895816e-01,9.619760735179356832e-04,7.386927620046878588e-04,6.410415278084715882e-03,9.617458581924438477e-01
-3.945994834802465379e-01,-4.315161587216109762e-01,5.243023814858597254e-01,-3.707174171065032858e-02,5.702785567097269463e-03,-1.252253792833173118e-02,9.404026865959167480e-01
-4.400594447085294791e-01,-4.342584527089091151e-01,5.345293096910980202e-01,-5.648245130188635135e-04,1.583424176108993650e-03,1.064078038994065861e-02,9.718803763389587402e-01
-4.353271689331289496e-01,-4.284611771792087853e-01,5.475573095096697429e-01,1.215565191594056857e-03,-8.701622644225546609e-04,3.574170409414124776e-03,9.794925451278686523e-01
-3.970778691197361376e-01,-4.574874007538362597e-01,5.455384191520449289e-01,3.805489509090757947e-04,-1.672227299431278125e-02,8.031993636793903490e-03,9.747567176818847656e-01
-3.988411924864662672e-01,-3.913343319875070558e-01,5.261227632070131222e-01,2.202770762688702894e-02,-2.232026772436150434e-03,1.696372510606599781e-03,9.220359921455383301e-01
-3.832386306032483647e-01,-3.981910943668440783e-01,5.446540157838765106e-01,6.678359929397353900e-02,6.463937534908901356e-03,3.027921524154705141e-03,9.426640868186950684e-01
-4.423587363873910383e-01,-4.384043865927679806e-01,5.345068255434056725e-01,4.480021730648231851e-03,2.325805289797918968e-03,3.023966046430886373e-03,9.749476909637451172e-01
-4.179964343511025082e-01,-4.306839128958291352e-01,4.500547290260097366e-01,5.714465570981180909e-03,-1.694240555811664991e-03,4.117590558814647299e-03,8.745539784431457520e-01
-4.218874831924764868e-01,-3.805247630079696131e-01,5.434804867389979588e-01,3.718537660919744164e-02,-5.831624208831194187e-03,-3.989122244071143832e-03,9.476360082626342773e-01
-4.327604190577571397e-01,-4.073213972572800046e-01,5.591685526820747709e-01,3.924458612106351135e-02,-1.413246508034022783e-03,-1.725038324931819564e-02,9.822706580162048340e-01
-4.034716838592458665e-01,-4.253355627611000722e-01,5.422148455775637199e-01,2.867321249262829927e-02,-1.555019644900891215e-02,-1.622399113788075553e-02,9.588842391967773438e-01
-4.470448206367457211e-01,-4.369766777504126010e-01,5.387868340500249209e-01,1.361615336640754599e-03,-1.794125660938610412e-03,1.402136153632040257e-03,9.808471202850341797e-01
-4.360880083050455713e-01,-4.421232473732309987e-01,5.403226485500514098e-01,2.074107663083747145e-03,1.137187636083325515e-02,-2.402368213231461345e-03,9.796556830406188965e-01
-4.014645585409115092e-01,-3.632796644146125686e-01,5.806975718374975948e-01,1.177052813911530493e-01,-3.322703169429085113e-03,-2.300806926715558143e-02,9.857898354530334473e-01
-4.347070195386848468e-01,-3.658714310738649389e-01,5.349834458833412354e-01,4.317928823089235701e-02,1.734118983170995342e-03,4.041413845100995904e-03,9.401808977127075195e-01
-5.387142220547705973e-01,-1.974833760984962272e-01,5.562097537542017855e-01,-3.485947197793631824e-02,3.473202681802378330e-03,-2.502963946816769841e-02,9.732607007026672363e-01
-3.848483452035548202e-01,-4.447924443809166961e-01,5.389043327862211852e-01,-6.769283628180769626e-03,1.099408656755502395e-02,-1.058588754646980733e-02,9.555742144584655762e-01
-5.329946284969000470e-01,-2.396237810069309915e-01,5.642375556870760089e-01,-3.480305384427513637e-03,2.489246799041820637e-03,1.103284736030553208e-02,9.841285943984985352e-01
-4.329515238313705883e-01,-4.435388251124120496e-01,5.184356880378652166e-01,1.253942026083859759e-03,2.378949134082307317e-03,-5.253546851479696210e-03,9.567794203758239746e-01
-5.407449265586955489e-01,-2.390778501403636458e-01,5.675849113387018141e-01,-2.241002581308075212e-03,-1.780979272461966859e-03,1.185932438827648136e-02,9.927225112915039062e-01
-5.257425415359744392e-01,-2.626103329293882904e-01,5.531867469616797983e-01,-1.551034258352621334e-02,4.848805323792979710e-03,9.318410102714204390e-03,9.749249815940856934e-01
-5.222513802244624914e-01,-2.561960709522577706e-01,5.514305363165302731e-01,-2.573672071713305545e-02,-6.973637545157047521e-03,1.475598837879276912e-02,9.698998928070068359e-01
-4.177777071189709979e-01,-4.221087156367836490e-01,5.401734002837568216e-01,-1.429352113618182624e-03,1.602123273872029657e-03,1.549362869042511873e-03,9.601348638534545898e-01
-5.335259353408889904e-01,-2.548294504687356188e-01,5.481410814544449561e-01,4.971789458318132474e-03,1.271295116991527294e-02,-1.407810541207494062e-02,9.733303785324096680e-01
-4.003486654049857041e-01,-4.002982956285315308e-01,3.488012793811772205e-01,2.458789096387091738e-03,-2.878180922563359362e-02,2.723386321671750383e-03,7.508085370063781738e-01
-4.153375917532061146e-01,-4.058361032392820977e-01,4.014994950435316623e-01,8.399580276764826575e-03,4.553774390045609542e-03,2.938723497768159360e-02,8.138898015022277832e-01
-4.330374967623283888e-01,-4.603323581614903737e-01,5.568200738745719969e-01,-2.189017030375669734e-02,1.852188878361245641e-02,-1.043355283132714039e-03,1.005012989044189453e+00
-4.203818997612719932e-01,-4.375500150685477374e-01,4.661803802134025787e-01,1.482854743130947650e-03,3.993375475339852598e-02,4.069903595487076031e-03,8.979690670967102051e-01
-3.764792468522175639e-01,-5.194529729905796867e-01,4.997172036376016369e-01,1.130209106925384940e-02,4.166725812205036763e-04,1.912642638678044640e-02,9.565123915672302246e-01
-4.115197076913534868e-01,-4.424338321162115673e-01,5.464873931205321833e-01,2.411607304514044696e-03,-5.743824782238285236e-03,5.969838434064919305e-03,9.739469289779663086e-01
-4.264660098702099389e-01,-4.409749266272205981e-01,4.648052220664623535e-01,-6.282317776249440530e-03,4.788700392552135143e-02,1.110136435853454652e-02,9.027036428451538086e-01
-4.198650367405113437e-01,-4.302282151485465889e-01,5.443184696754426177e-01,4.554712176839947890e-03,-1.245182811165544950e-03,-2.483852667256493483e-03,9.694507122039794922e-01
-3.963907286254385598e-01,-4.451910359326547439e-01,3.314163959855039865e-01,-3.299403537978166934e-02,7.224442430051314368e-02,1.872690464161319178e-03,7.658563852310180664e-01
-4.168885413863115397e-01,-4.310048114356516136e-01,5.428923789059602045e-01,-2.239810960837086175e-03,2.322265957665165925e-03,5.926847538933289333e-03,9.669869542121887207e-01
-3.932413649126939026e-01,-4.482226944048575690e-01,5.061344821286956064e-01,3.295854401771906731e-04,5.183112799492834051e-03,7.057175712628712284e-04,9.281331300735473633e-01
-3.840615033988722948e-01,-4.690221274125753181e-01,5.597668627809914144e-01,-3.147938299704539089e-02,1.727061055154190117e-02,-3.631948471588855067e-03,9.910225868225097656e-01
-4.442000291469965778e-01,-4.031767313682770859e-01,5.238376073087276374e-01,1.486967254597260438e-02,7.820257042149090371e-03,-5.337515289329576471e-05,9.486382007598876953e-01
-4.353727235686102315e-01,-4.415725671804869856e-01,5.484393039773226564e-01,-1.044451186265624512e-03,-1.916305775534420195e-03,-2.309274801731179758e-03,9.869418740272521973e-01
-3.849907231442566413e-01,-3.864489614217228586e-01,2.789780286632996820e-01,4.421298751470728247e-03,-1.229628429663780567e-02,2.189022048339494403e-02,6.661641001701354980e-01
-3.983331438370009692e-01,-4.279384141939879815e-01,5.368024331967560236e-01,2.244911512619750249e-02,4.079018542971524740e-03,8.941149142129950836e-03,9.512315988540649414e-01
-3.034966452226662281e-01,-4.729062257964484761e-01,5.657686223125713010e-01,9.994446747652152574e-02,1.045746493228398577e-02,6.989700199207209488e-03,9.808287024497985840e-01
-4.098573454502715263e-01,-4.172797291923758256e-01,3.964295577648859759e-01,-5.377038675709868917e-03,2.711047841261885090e-03,-3.197077242334572106e-03,8.101096749305725098e-01
-4.208162325964007189e-01,-4.268570312923995469e-01,5.419295174160293493e-01,5.118739029742217124e-03,6.642572173299388094e-03,1.096412285095034770e-03,9.658914208412170410e-01
-4.388343371205228327e-01,-4.300553552112957867e-01,4.984241032177777475e-01,-7.877393747523352141e-03,-6.673713525513338962e-03,3.515951704668479616e-03,9.330911636352539062e-01
-4.365607025188733559e-01,-4.243574028207563464e-01,4.844173187022075000e-01,9.099407163696067447e-03,-4.719976393593045168e-03,3.405576542513158098e-03,9.151286482810974121e-01
-4.368992431305833701e-01,-4.497469788782820221e-01,5.342853916263553549e-01,-7.213763720342582231e-03,-5.777981528587568423e-03,-1.075238686158105396e-02,9.779801964759826660e-01
-4.194348257332600194e-01,-4.461582793809549807e-01,4.858637242443780702e-01,5.105809524350496398e-03,-1.199629061334528748e-02,-2.529508608933263292e-02,9.202726483345031738e-01
-4.145136352954085779e-01,-4.426062903044959418e-01,5.420038730278732286e-01,1.211413900369521547e-02,6.725243930475350088e-03,7.549286178456789814e-03,9.712532758712768555e-01
-4.422627660487347678e-01,-4.393859630074496980e-01,5.440521260336459441e-01,-2.288107045630221117e-03,3.046814442571791400e-03,-1.982736601406943043e-03,9.849077463150024414e-01
-4.675231142580481558e-01,-2.999236057901255581e-01,5.990662193611072661e-01,9.271869880223621019e-02,1.501767056763568531e-02,7.156794347577677753e-03,1.006758689880371094e+00
-4.024339131774702372e-01,-4.590252622809168348e-01,5.497813469712319323e-01,-2.483690583413460974e-03,-1.230337631790740655e-02,-6.421812215541026700e-03,9.820386767387390137e-01
-3.753227219530769210e-01,-3.832305830852696937e-01,5.157266919416786388e-01,3.783205045816194489e-02,-1.382343822569091470e-03,-1.751015098634746935e-03,8.974333405494689941e-01
-4.879595099346768494e-01,-3.731053725908211605e-01,6.206009109757323339e-01,1.661261470826603248e-01,-3.525611854086600078e-02,-1.790226706062136158e-02,1.096475720405578613e+00
-4.441435238997384904e-01,-3.659947383171086033e-01,5.261885058937794124e-01,2.646810685434642166e-02,-1.304002363137396134e-02,-1.880963653008708644e-02,9.356786012649536133e-01
-3.682149918469200256e-01,-4.565521969221787435e-01,5.462478621089804642e-01,5.818822643742302403e-02,-1.386623535448790884e-02,1.272260197426603942e-02,9.674951434135437012e-01
-4.448298333119501957e-01,-3.994430745336520205e-01,5.511787827963842146e-01,3.585145278322474094e-02,-1.583360668892667272e-02,-1.807673941605197898e-02,9.769728183746337891e-01
-3.943384865105818426e-01,-3.662530172386190275e-01,5.337528975801090203e-01,1.097780486391231602e-01,1.304507274255821761e-02,1.219823867616302154e-02,9.344447851181030273e-01
-4.349774884655361884e-01,-4.303226904033992106e-01,5.627494127467462803e-01,1.267668959290331188e-01,9.811085029103024449e-03,3.212507162357480794e-02,1.020995020866394043e+00
-4.225765452010226686e-01,-4.273514951344972723e-01,5.389531089008248177e-01,-9.554458378908182656e-03,7.214956827218932910e-04,3.616599361766665958e-03,9.640892148017883301e-01
-3.308726688812399508e-01,-5.041501304758917446e-01,5.561147113714868251e-01,3.644635681179231448e-05,-1.837176907163028811e-02,-1.426140250010128705e-03,9.856395125389099121e-01
-4.293986449191150023e-01,-4.448764651052177221e-01,5.072219115346062734e-01,5.807306825776417658e-04,-3.586804845082451794e-03,1.210387587317049603e-02,9.447082281112670898e-01
-4.338194195553141674e-01,-4.381618597056226028e-01,5.331916937452672034e-01,-7.147857908378168855e-06,6.443468077777528280e-03,-4.957500390999448198e-03,9.692919254302978516e-01
-4.072051530895431926e-01,-4.233738168277212388e-01,5.388961694967551175e-01,-4.272483614408927044e-03,-8.681466334824432599e-03,6.011668889525277615e-03,9.544923305511474609e-01
-3.854660742550328201e-01,-4.498318366151477510e-01,5.471237518740162953e-01,-3.189244931128307203e-02,1.451974672028438079e-02,4.908284119369980651e-03,9.683231711387634277e-01
-3.877588687536220879e-01,-4.248034832196289634e-01,5.357837400297983388e-01,-4.234371927725736305e-03,3.955042367266528580e-03,6.650084829409128734e-03,9.427348375320434570e-01
-3.406051664576453253e-01,-4.816314663041068589e-01,4.694295763012794609e-01,-3.246034759067550207e-02,-6.737000905991451932e-03,-1.981828709376561720e-02,8.914911150932312012e-01
-3.930113277928839466e-01,-3.950282358048867737e-01,3.212030649978856456e-01,-4.203651031300085876e-03,-2.180538203434731828e-02,-2.266528066060479255e-02,7.173334956169128418e-01
-4.162597974110260335e-01,-4.353273428571199366e-01,5.428744246763578252e-01,3.027990084401009988e-03,1.021220208655600377e-03,9.756490883526995964e-03,9.689719080924987793e-01
-2.520614436027763805e-01,-7.186020899033719322e-01,5.123648873690304084e-01,1.334803993081385975e-01,9.991697190536899531e-02,3.877540892930500527e-02,1.116492509841918945e+00
-2.325748859276818292e-01,-5.855138243875716020e-01,5.737742270199760464e-01,7.970572153489594025e-02,-1.894853994835248717e-02,3.650761092114488977e-03,1.039005756378173828e+00
-4.015308387147589753e-01,-4.004673912803518587e-01,3.481081020370064838e-01,-1.685947839897434727e-03,1.309464699368357438e-02,-2.821342450409926317e-02,7.510482072830200195e-01
-4.014638880085301120e-01,-3.927147610692902635e-01,3.423268477472043436e-01,-5.676058300414273637e-03,-1.533615064290422270e-02,3.959487953297421287e-03,7.400290369987487793e-01
-3.871178031748027104e-01,-3.858256224933687140e-01,3.068215316912026314e-01,4.693909808249446987e-03,3.511129873041834992e-03,1.539293331577237627e-03,6.933736205101013184e-01
-3.934342946081298420e-01,-3.929114810392024815e-01,3.044616528446481007e-01,-7.835568204861014007e-04,-1.300639547768097509e-02,-3.274827259163329285e-02,7.003005146980285645e-01
-3.832532474132729905e-01,-3.742893073591659348e-01,2.699529639280433546e-01,5.649731121311268390e-04,-2.101941639238448165e-02,2.971618492444932469e-04,6.497923135757446289e-01
-4.418491127974201182e-01,-4.365678064856285401e-01,5.443323774347302857e-01,3.734484968483906941e-03,1.806767028792037252e-03,-9.309723479419889855e-04,9.835790395736694336e-01
-4.333096581554974902e-01,-4.260579037731520025e-01,4.790417280212968532e-01,8.440272939826961446e-03,2.708550304973330984e-03,-3.011173994860876640e-03,9.088918566703796387e-01
-4.258593171872048777e-01,-4.042548204041940818e-01,5.380934364967021599e-01,4.501372884895182315e-03,6.488699470820554968e-03,7.455520256943638444e-03,9.535197019577026367e-01
-7.745365727253933352e-02,-7.620329489951933599e-01,7.288918524238869878e-01,1.030475831505367756e-01,5.321293130048253273e-02,5.255590194201692489e-02,1.311292052268981934e+00
-4.011323349100577862e-01,-4.059584732504540883e-01,3.579780454531318323e-01,-4.571139796883436947e-03,1.629488792546791550e-03,2.816376766385332575e-02,7.631419897079467773e-01
-5.938639754633746604e-01,-2.093529703325412439e-01,6.441148359991339944e-01,5.398647522547390942e-02,-1.613440527307855726e-02,-2.098494706933468762e-02,1.102392554283142090e+00
-4.677740056160197835e-01,-3.596806640677812084e-01,5.491435912392773622e-01,-5.377225037000248585e-03,-2.773668717703518544e-03,-6.499641247726235804e-03,9.675329923629760742e-01
-4.313547385580983051e-01,-4.368398709895843224e-01,4.998938273022409673e-01,-9.044692701019724917e-03,-2.710520212389289866e-03,1.267330368253403311e-02,9.344042539596557617e-01
-4.251249992035719960e-01,-4.324146264718908839e-01,4.695441413625299765e-01,-4.634197837107381299e-03,6.706510368439300498e-03,7.210593760559682458e-03,8.985338807106018066e-01
-4.331168199513877326e-01,-4.079611954533698959e-01,3.941891206012809734e-01,2.665451356073060031e-03,6.295068487625530250e-03,1.899267429795427342e-02,8.157688975334167480e-01
-4.818679508135648715e-01,-3.313993462644277965e-01,5.429981947231828920e-01,4.193501144653553891e-02,1.698615093719775537e-03,-1.783760777677994777e-02,9.617796540260314941e-01
-4.832763150299364541e-01,-3.159269345103149496e-01,4.547916837014187585e-01,-1.688210414340140381e-02,1.004574012028870179e-02,-1.671708863764480649e-02,8.677490353584289551e-01
-4.468530866352941056e-01,-4.419940966529200543e-01,5.525310556860749678e-01,-3.075276711044923512e-03,3.079735654049434190e-04,1.681117923678246504e-03,9.969821572303771973e-01
-4.225755032175836368e-01,-4.475908945795156191e-01,5.028217802256674807e-01,-2.617529316854480537e-03,1.364916131521078839e-03,6.957891615747051556e-04,9.381698369979858398e-01
-4.388847079684372599e-01,-4.456987384472454461e-01,5.422290283905711883e-01,-2.425959887989201803e-03,-1.641534632533670022e-03,-1.623302844755988763e-03,9.845555424690246582e-01
-4.424086955047378811e-01,-4.002400285002669644e-01,4.715426752558692369e-01,3.724203483059089492e-02,4.547660447253709659e-02,2.858443946684556536e-02,9.007561802864074707e-01
-4.223246233195836474e-01,-4.152330042380710795e-01,4.166065203334070599e-01,2.876898022120449698e-03,1.790220815264134333e-02,-1.162824958332105835e-02,8.362405896186828613e-01
-4.294709274541186894e-01,-4.193905721719782265e-01,4.034473324743013123e-01,-1.200606764833128497e-02,2.791424904552512742e-02,2.743375696606391995e-02,8.309550285339355469e-01
-4.357836996857009648e-01,-4.471714183812702248e-01,5.333477273161585375e-01,-2.927046436013137909e-03,-1.398932591874340855e-03,-3.860485127955527555e-03,9.749143123626708984e-01
-3.771856794010223224e-01,-4.242722924281654429e-01,3.708195515407037846e-01,1.503396113828980342e-02,-7.164129019575390944e-02,-1.850681837423864134e-02,7.836153507232666016e-01
-4.369232781472284777e-01,-4.318615103798424948e-01,5.092097730292490798e-01,-3.450514890276272419e-03,-2.488560918741850730e-03,9.828503861106444982e-04,9.436426758766174316e-01
-4.345273765901949692e-01,-4.503664587758814952e-01,5.207386204550294995e-01,2.349755695479784686e-03,-1.926907158722951374e-02,-2.533506843057763136e-02,9.648681879043579102e-01
-3.045082592401023858e-01,-5.226273589363457095e-01,6.000266770764461910e-01,9.872987911499406244e-02,-7.522003894951323488e-02,-3.729770726836823674e-02,1.055199503898620605e+00
-4.118461295959188750e-01,-4.224036960817343922e-01,4.066596270442885963e-01,1.682489108833261013e-02,-1.443692160308667968e-02,-1.494379145730966377e-02,8.251357674598693848e-01
-4.320834611087123744e-01,-4.468457709034444614e-01,5.151513326096390788e-01,4.663184135941589488e-03,5.279846797084161844e-04,2.353104133314019939e-03,9.547448754310607910e-01
-4.392467368335586930e-01,-4.398623433964928831e-01,5.377382857066815847e-01,-2.945396883878171907e-03,-1.054579773851001614e-02,-4.391604748064201202e-03,9.775065779685974121e-01
-4.429653674752314640e-01,-4.416553961577081577e-01,5.527115582574682051e-01,-9.902924960558446600e-04,-1.475223526516202498e-03,1.855969283992411466e-03,9.950325489044189453e-01
-4.287216437282685422e-01,-4.441148147466779661e-01,5.335378791265631415e-01,-2.651008663079713803e-03,-1.290192033407436267e-02,-7.844427017770140998e-04,9.703168869018554688e-01
-3.822430464187464016e-01,-3.787712565312527646e-01,5.166459503637652606e-01,3.721636384632361766e-02,4.537776801209441116e-03,3.444600533769106090e-03,8.995250463485717773e-01
-4.385711497622126198e-01,-4.388667816456426340e-01,5.399206066200910037e-01,1.050514811228175379e-04,-1.006259903491552900e-02,5.279452465284445103e-03,9.788375496864318848e-01
-3.510801163557412674e-01,-4.511654805382884215e-01,5.939918985349059710e-01,1.726364859951438346e-01,3.056633292427490822e-02,1.494424799940622176e-02,1.044341444969177246e+00
-4.368772043945302053e-01,-4.466394844699340116e-01,5.459216690766338642e-01,-7.813623755635249043e-04,-7.003483742036754542e-03,-2.046737240668110303e-03,9.877979755401611328e-01
-4.263677192805399030e-01,-4.085263591725552534e-01,5.516120951324021693e-01,2.059388070793801220e-02,3.212049586598712120e-03,1.962809532008772360e-04,9.698544740676879883e-01
-4.647412810171191455e-01,-3.236251536507637749e-01,5.706758550994335266e-01,8.039283043117190219e-02,-2.673619973187425086e-02,-2.817222218619089280e-02,9.847856760025024414e-01
-4.514866745727562081e-01,-4.370627326994813711e-01,5.344704065545162752e-01,-2.786920661692059457e-05,-4.796732702178638751e-03,-1.104795535422209603e-03,9.788619279861450195e-01
-4.071903843320274219e-01,-4.128309895093308923e-01,5.350483441920639294e-01,3.961439639435268383e-03,8.600760591198644556e-03,6.019322109916606760e-03,9.452714323997497559e-01
-4.566965147841685613e-01,-3.708141643776653451e-01,5.566700982393879560e-01,3.047137691700376946e-02,1.968515182321908807e-02,7.733902073119499135e-03,9.753895998001098633e-01
-4.696323860591367083e-01,-3.118203887833787546e-01,6.173910402481986859e-01,8.179212298659405134e-02,-1.360524029049694703e-02,2.860610917868334352e-02,1.028620123863220215e+00
-4.383025868857687857e-01,-4.356559149205846415e-01,5.439240470395192428e-01,-3.057493495387157505e-05,1.354056182568538162e-03,3.934678262292467740e-03,9.809324741363525391e-01
-4.670648725956388914e-01,-2.654112296852324526e-01,5.324387446188898476e-01,9.743118866417024848e-02,-4.790989268812299515e-03,-1.086541357490641152e-02,9.311389327049255371e-01
-4.739361236019556944e-01,-3.539552548285002098e-01,5.923820191567858995e-01,5.644146986827548729e-02,2.279613080349308582e-02,-2.852036586465721280e-02,1.018355607986450195e+00
-5.149784394423361222e-01,-3.364303607294670817e-01,5.409013515368548131e-01,4.417876830988562431e-02,-2.167835346572487970e-02,-7.820093339972390700e-03,9.826926589012145996e-01
-5.094505049239264061e-01,-2.884341039362523507e-01,5.062020682749921452e-01,1.780162777428934487e-02,-1.870685955027240333e-02,1.187303826962603399e-02,9.264696240425109863e-01
-4.287253179549371795e-01,-4.327542772967066798e-01,5.352822264094845295e-01,1.188563022197068261e-02,-1.998875783691016553e-02,-7.539930555362332754e-03,9.669559001922607422e-01
-4.811408998370326207e-01,-3.636176854982320350e-01,5.474429815131670596e-01,3.731721259234702104e-02,-1.108339803846613951e-02,-1.721671126290150178e-02,9.779312610626220703e-01
-4.528828195344516416e-01,-3.604947166484111509e-01,4.806014494556388739e-01,5.139949228421539229e-02,-2.450991658514930713e-02,-1.797129623263556131e-02,8.968737125396728516e-01
-4.905521177542200850e-01,-3.734210344276422955e-01,5.202484901386207339e-01,9.913803983201768810e-02,-6.455246514277973059e-04,-2.623970177469832441e-03,9.729071855545043945e-01
-4.361983053907305674e-01,-4.289542740974200963e-01,5.490165249080829479e-01,2.900320933436984459e-03,-7.671832231689253460e-04,2.497298802294818047e-03,9.816361665725708008e-01
-3.745855086125944866e-01,-4.622277916056811153e-01,5.418031117450295975e-01,1.265346891065991311e-02,1.727439105571864503e-02,8.912169921689059443e-03,9.640422463417053223e-01
-4.460639908055620828e-01,-4.119432378891479396e-01,5.375411726656414979e-01,1.317453509896729900e-02,1.359278812046717591e-02,6.881757064910615576e-03,9.676254987716674805e-01
-4.116248800832407739e-01,-4.708084413323566086e-01,5.415685739462701154e-01,7.603867151242889311e-02,-2.728244292378519294e-03,-4.104077218939599508e-02,9.954470396041870117e-01
-4.495594322795961051e-01,-4.343592068929578165e-01,5.318141720985603005e-01,8.290546095235052032e-04,1.891856020236193717e-03,-2.046846655688468967e-03,9.738754630088806152e-01
-3.939876817735233350e-01,-4.077775925925716805e-01,4.998543856826456189e-01,9.884182549549180852e-02,2.599139509609692950e-02,1.978643106672386617e-02,9.186838865280151367e-01
-4.357917844975096044e-01,-4.395152354651933324e-01,5.473269598976249206e-01,1.015948277372788174e-03,-2.040052487699864966e-03,-5.825674263739110716e-03,9.850453138351440430e-01
-4.118611275284718154e-01,-4.313030240474305943e-01,4.191914710018276313e-01,-6.888273368259294031e-03,-1.078179978177853417e-02,-6.071769831101685166e-02,8.477821946144104004e-01
-1.439064848774583016e-01,-6.453455990676851828e-01,5.983947139146338356e-01,1.253138110849384979e-01,-1.958071684639302963e-04,7.751014927151151507e-03,1.105423927307128906e+00
-5.556770533896101538e-01,-2.110764815128786664e-01,5.867976848558079661e-01,-1.334533830364294238e-01,-1.906384337249782124e-02,1.471672004731808536e-01,1.072284936904907227e+00
-4.321968199384403353e-01,-4.254445931382398460e-01,4.474449513342436680e-01,-5.869391823909958332e-03,9.147312993116881591e-03,-2.044803643458510331e-02,8.772026300430297852e-01
-3.908849929080593921e-01,-4.476453254332621312e-01,4.645554767719044520e-01,2.937811378643391536e-02,-6.810073856235972223e-02,-4.225657663659001390e-02,8.974488377571105957e-01
-4.433420353072864417e-01,-4.352379605102516535e-01,5.412572622506670594e-01,1.038147425825545946e-03,-6.824747763263764189e-04,7.304196605889960378e-03,9.806563258171081543e-01
-5.219043179617760542e-01,-2.490343960530795320e-01,5.425229386732605130e-01,-2.132211383358779966e-02,2.994032823893583769e-03,-9.190412530245441539e-03,9.584661722183227539e-01
-4.170982891814864479e-01,-4.846682160637213466e-01,5.544767347319076167e-01,2.591234917682047265e-02,-4.859015242054945047e-03,4.222526637578327772e-05,1.008096337318420410e+00
-2.270521990012471236e-01,-5.629450893723040306e-01,6.229926358308536249e-01,-2.707014032690291047e-02,-1.336308751265390116e-02,-1.269609038686422137e-02,1.060255646705627441e+00
-4.733523454011908660e-01,-3.060016223297319371e-01,5.586665478633738857e-01,-8.089459552929592623e-02,2.615924146018465402e-02,-1.648902484956856276e-02,9.710100889205932617e-01
-2.367730064312930649e-01,-4.942647306041328958e-01,5.680483499080374310e-01,-1.156694560054450233e-01,-1.188865511174834466e-02,1.567730084441175398e-02,9.811084866523742676e-01
-2.037875650079447598e-01,-6.021715179056543743e-01,5.933073386204446020e-01,-1.219073678719187898e-01,-2.135749992471988601e-02,2.669122392475411880e-03,1.075915336608886719e+00
-3.775304021111350328e-01,-4.489520961225283435e-01,5.308668242533742809e-01,3.206342054838189071e-02,-2.260250931114354128e-02,1.014825675389408911e-02,9.487316012382507324e-01
-1.877660701052156766e-01,-5.596521599333086350e-01,5.520150504615872755e-01,-5.688958957457690424e-02,2.345958099334426866e-02,-1.716124273764403976e-02,9.863739609718322754e-01
-2.540795207471246431e-01,-5.070861121969503227e-01,5.381960911196056463e-01,-5.331055233043296981e-02,-2.187768642132022559e-02,6.074425351853818267e-03,9.498613476753234863e-01
-5.824606351760545087e-01,-2.154183826447647054e-01,5.676008926501097118e-01,-9.768070750479668218e-02,1.119078428427012530e-02,-4.162256928862655657e-03,1.031645536422729492e+00
-3.998434251183739518e-01,-4.581852684750985505e-01,5.475316223261785797e-01,1.597005024616958077e-02,-2.211540924357533345e-03,6.362800950478388756e-03,9.783129096031188965e-01
-4.608155239194595687e-01,-4.077636650854208900e-01,5.464717955452546017e-01,-1.907619540298000765e-02,-5.613799324687085424e-03,3.251810297942518690e-02,9.840540289878845215e-01
-4.347061790621664645e-01,-3.473616726283900724e-01,5.447665078989517573e-01,-1.082917963791088234e-01,6.024246215451101866e-03,2.304398804404637988e-03,9.574708342552185059e-01
-4.808409434397713511e-01,-2.482293382361470679e-01,5.409179404300211713e-01,-1.122668677523613184e-01,2.969045244428554671e-03,-1.855515195460975472e-02,9.483128786087036133e-01
-3.912148270285262797e-01,-3.629044478666866858e-01,5.377957117529447162e-01,-1.129899968381530700e-01,-5.488279444692912255e-03,2.534927029981675749e-03,9.359333515167236328e-01
-3.907774649754228169e-01,-4.721230109490004434e-01,5.379642569401881236e-01,-3.288592223035982642e-02,5.450184681057033097e-03,-7.100266949162756247e-03,9.737617969512939453e-01
-4.407194171584377096e-01,-4.361789014702568412e-01,5.449397276084574360e-01,8.103414094117906150e-04,5.030032586100159110e-03,6.230825536545449295e-03,9.834955334663391113e-01
-4.055197112030825002e-01,-4.244827277482473016e-01,5.373604906289934924e-01,-2.707398848722201209e-03,-6.845574144459276242e-03,7.915943205466693944e-03,9.526873230934143066e-01
-4.111029382339734251e-01,-4.228297950393253846e-01,4.221900180925793888e-01,-4.950023451797069818e-03,-3.539597351708088772e-04,2.152245084954409679e-02,8.400893211364746094e-01
-4.270339782039069276e-01,-4.249550817555876603e-01,4.666410366477458105e-01,-3.250656447897506181e-03,-2.699412856731522176e-02,1.367890297341292638e-02,8.941926956176757812e-01
-3.389064719855230390e-01,-4.966246759516165232e-01,5.608267327094843546e-01,-2.717005487331744171e-02,1.418420108994121118e-02,-8.067705186983360754e-03,9.896022677421569824e-01
-4.469395242044931771e-01,-4.414277004498018409e-01,5.431288929394659792e-01,1.211180870197761791e-03,2.032444907662989478e-03,1.712762343270215690e-03,9.873369932174682617e-01
-4.160031103077609371e-01,-3.812459032389834968e-01,5.300531819038197812e-01,-9.852836043183920214e-03,4.432968280986985870e-04,7.208151984587980905e-04,9.293232560157775879e-01
-4.001141802545128412e-01,-3.963028351730270016e-01,5.291654929883629066e-01,-1.897063210870709657e-02,-1.212140975713868918e-04,1.279924436286687109e-03,9.279644489288330078e-01
-4.363174248643979514e-01,-4.357773112379906277e-01,5.094550703951128412e-01,-6.704898615511524496e-03,4.534227849703479502e-03,4.182042674725263039e-03,9.456342458724975586e-01
-3.846078016140697664e-01,-4.529390504737629275e-01,5.742297805122571486e-01,-6.423482242216871363e-02,4.677943337685901322e-03,-4.769621364338012814e-03,1.001034259796142578e+00
-3.469870393926349772e-01,-4.175096681134199961e-01,5.332067371656072918e-01,-1.046441551814714099e-01,2.161197596610641911e-02,-1.781450358456575581e-02,9.364788532257080078e-01
-3.548040609194834660e-01,-4.656781859570859328e-01,5.433020767882570379e-01,-4.762696923761695206e-02,-1.256659475144469374e-03,-6.466320785276723215e-03,9.619769454002380371e-01
-4.490397097687024996e-01,-4.328926489948655698e-01,5.315614482777566430e-01,-1.174316271054982614e-03,-2.668996099284396545e-03,2.132329217771346177e-03,9.726482629776000977e-01
-4.579513117824732249e-01,-4.144259435108991196e-01,6.074918582811722478e-01,-1.312139054592420806e-01,-1.368236434919258004e-02,3.682839181792619404e-02,1.070967674255371094e+00
-4.455634374756343163e-01,-4.306749548841423691e-01,5.253797823952653934e-01,5.020210209412286767e-03,-5.973015546287724180e-03,3.971724844141905943e-03,9.637045860290527344e-01
-4.171347272323839839e-01,-4.353764644496987968e-01,5.450401892987778441e-01,7.478073016147407208e-03,-2.818349305589533220e-03,-1.070953689613969063e-02,9.716999530792236328e-01
-4.208263151661842949e-01,-4.390274482298311964e-01,4.756036690464033878e-01,-4.653348970853505955e-03,-1.602052484520636103e-02,9.518807705359783392e-04,9.061300754547119141e-01
-3.327297953319910961e-01,-4.844795643093963156e-01,5.481846187731671538e-01,4.144788258848980389e-03,-1.888119392674700997e-02,7.261597195737849383e-03,9.664346575736999512e-01
-3.935222848114410810e-01,-4.571179637337581259e-01,5.222151953338866059e-01,-1.979572642590804454e-02,5.915992440299321434e-03,9.317100343421905531e-03,9.499460458755493164e-01
-4.395584694442072893e-01,-4.118905314226557479e-01,5.754682184487627250e-01,-5.228279101328961453e-02,-7.274417836294727949e-03,1.373424130648437727e-02,1.005925536155700684e+00
-4.556330064325921914e-01,-4.088631841225565666e-01,5.692523738433987734e-01,-4.647304548949760666e-02,1.414624288127791160e-02,2.709065102550109114e-03,1.005855560302734375e+00
-3.793064452229813477e-01,-4.838733533341934567e-01,5.685507220068855005e-01,-1.500960366163571827e-02,-1.305196546113042769e-02,-1.798204374162623055e-03,1.004827618598937988e+00
-5.286450701922661422e-01,-2.629120783159418773e-01,6.316313987481134706e-01,-1.633975692254238388e-01,2.104929206336919947e-02,-4.001843999283911241e-02,1.093051552772521973e+00
-4.452182972868711786e-01,-4.392975852392431713e-01,5.471039395167918151e-01,1.424040521492174645e-03,-9.919002699588128319e-05,2.809352052255914643e-03,9.893901944160461426e-01
-4.752706622606323039e-01,-3.432980887167386141e-01,5.504855357816628159e-01,-5.477452060413192519e-02,2.155375507224772946e-02,-1.123947939947682762e-03,9.719151854515075684e-01
-4.425490081588232538e-01,-3.231670620626738710e-01,6.282988515089589221e-01,-1.202716060517217550e-01,-1.248331265115110514e-02,-1.442377371811112176e-03,1.037784576416015625e+00
-3.743753471665665633e-01,-4.490847546264565282e-01,5.519599853959441527e-01,-1.041976131986930704e-01,-2.293566544030313861e-02,2.495710011118024846e-02,9.843285679817199707e-01
-4.378181378428750437e-01,-4.272204667071703432e-01,4.573059821380874856e-01,1.558244852409305112e-03,-3.641879174088928812e-03,-1.718576619931422647e-02,8.903967738151550293e-01
-4.304070158759294995e-01,-4.385968681480234554e-01,5.092740801373909498e-01,-2.670500487449206303e-02,2.775062982393194932e-02,-2.800247718301831362e-02,9.473994374275207520e-01
-4.428799161592119615e-01,-3.707573025839481784e-01,5.368248622629966382e-01,-4.951242901683154674e-02,-1.347421187828463582e-02,2.197258348357662705e-02,9.506375193595886230e-01
-3.985055348916224927e-01,-4.225230136494001476e-01,5.336874800695071697e-01,-1.330142579691063510e-02,-1.202181519707069780e-03,9.084882726058131006e-03,9.448451399803161621e-01
-5.936728160484708861e-01,-2.052098891077548948e-01,6.682335931653146099e-01,-2.346515957120870466e-01,6.431177575550879599e-02,-2.690012268938019729e-02,1.197025656700134277e+00
-4.292606868584961100e-01,-2.712644248020464888e-01,4.431873795697702789e-01,-1.784360531946823092e-01,7.730698906821585614e-02,-1.232344111930335773e-01,8.984945416450500488e-01
-5.492652529131719641e-01,-2.115390270690743202e-01,5.106416347666539179e-01,-1.642365847582561433e-01,3.604875915328883962e-02,-5.401363563912560048e-03,9.820439219474792480e-01
-5.772959930291832187e-01,-3.135867393333829356e-01,6.534399891204935029e-01,-2.906999298265526832e-01,-7.236388724194309230e-02,-4.374027239710762127e-02,1.238816261291503906e+00
-4.809785292316144378e-01,-3.392688753962462278e-01,6.020209093145078016e-01,-2.313098121705293442e-01,9.120047235080411263e-02,-9.184184531519132277e-02,1.118153810501098633e+00
-4.020341255021653293e-01,-4.021990533245345389e-01,3.126904673479531382e-01,-1.099403110572075293e-02,2.846571964269303812e-02,-2.684128150494067416e-02,7.182645797729492188e-01
-4.347958138539829154e-01,-4.389211375956550976e-01,5.467931987971825780e-01,-3.593383171328779087e-04,-4.390810117372719382e-03,-1.130647397264447499e-03,9.836897253990173340e-01
-4.421099162843100117e-01,-4.392313993344068024e-01,5.532481636625788957e-01,1.144939970784977779e-03,-1.959090240125595976e-04,1.580166588851018763e-03,9.939277768135070801e-01
-4.051945242276821513e-01,-4.423775966008687832e-01,3.944350051121490175e-01,3.822645256456823609e-03,1.515985658605493308e-02,-4.964512118866417495e-02,8.238020539283752441e-01
-3.527867812743519793e-01,-4.890746620064920780e-01,5.466822027244541138e-01,3.274355465749924365e-02,-2.330638251446781259e-02,-1.403799493852769462e-02,9.775698184967041016e-01
-4.171033510106634257e-01,-4.178490887034880807e-01,3.824234036461274799e-01,-1.340353910541914294e-03,4.750546841299109480e-02,3.532849968705694885e-03,8.041473627090454102e-01
-4.427379085488210575e-01,-4.421050955693454632e-01,5.525055447249805907e-01,4.011400489535733708e-04,7.971207421448331214e-04,-5.256084712238676517e-04,9.949288368225097656e-01
-4.271212612768184314e-01,-4.260704386973248048e-01,5.455135670701397599e-01,-4.678651248147107714e-03,3.036446756782336821e-03,1.400269195171339369e-03,9.721608757972717285e-01
-3.996563793005365461e-01,-4.066043246144690482e-01,3.398196911075618276e-01,9.589822392686483607e-03,1.629580225501276250e-02,-1.224672706823213240e-02,7.439982891082763672e-01
-4.282120483971142977e-01,-4.101838290225717776e-01,4.151801848251591709e-01,8.633641571365341383e-03,1.364927122700333381e-02,-6.225952892776388282e-03,8.350625038146972656e-01
-4.401568487600836521e-01,-4.230068939647710358e-01,4.772934299129107938e-01,-1.285873192500118804e-03,3.462822350502844232e-02,-2.560185167453091410e-04,9.109760522842407227e-01
-4.305945516455773059e-01,-4.735711142419970487e-01,4.051064081829622854e-01,9.194620411108670247e-03,5.619987747813334766e-02,9.479716247423733422e-03,8.638038635253906250e-01
-4.086141001903327852e-01,-4.002500976684961742e-01,5.298882767727396415e-01,-1.590253628315977828e-03,-1.830524646896928426e-03,-8.542997266651264961e-04,9.343590736389160156e-01
-3.842253088938337169e-01,-4.413643257148180399e-01,5.439874506987278924e-01,3.153482251993383612e-02,-1.258892323252220474e-02,-1.501295882581708471e-02,9.602165818214416504e-01
-4.415450731118604755e-01,-4.388892755847943472e-01,5.647583270233871300e-01,1.577574198195012475e-02,-2.120041979975449686e-02,-1.953755993783235639e-02,1.006588935852050781e+00
-4.485607837348007942e-01,-4.439015323321865436e-01,6.271167210628088018e-01,1.196836728537267747e-01,3.936123869891532123e-02,2.471645485774418699e-02,1.096150159835815430e+00
-4.021394148511521216e-01,-4.146475239268922475e-01,5.312407249834733003e-01,-4.992845561838651219e-03,3.277093601322502228e-04,-2.337318305537519451e-03,9.397453069686889648e-01
-4.385104082741379528e-01,-4.338317565169516055e-01,5.038420979722986193e-01,2.029653298066769803e-03,-4.051990521065444370e-03,-9.488547095192327932e-03,9.401983618736267090e-01
-4.038564508369186234e-01,-3.992892164553952794e-01,5.282917994138368600e-01,-4.014459661728680268e-03,4.647318979843687416e-04,7.139647910617507448e-03,9.299815893173217773e-01
-5.812259205000008810e-01,-3.211569523946215532e-01,6.918398541897042842e-01,-2.979358469678252685e-01,-1.095897078052939788e-01,1.350714974008096481e-01,1.309315562248229980e+00
-4.007626563424431798e-01,-3.926517079526249399e-01,5.251286845156819538e-01,-3.426300720268404560e-03,-1.677982149189237958e-03,-1.031364588822491091e-03,9.218880534172058105e-01
-4.440911580543071557e-01,-4.416643024369481529e-01,5.466328284380711500e-01,4.030066446868833287e-03,-2.514995853756005467e-03,2.198997386067782622e-03,9.895543456077575684e-01
-4.188258200908260842e-01,-4.572261974373730276e-01,5.514047970500902673e-01,3.155717963258251966e-03,1.747330292705127561e-02,-2.272041611465781038e-03,9.904749393463134766e-01
-4.017393499134357948e-01,-4.009815329294633690e-01,5.283184612793556667e-01,1.547036227556455105e-06,1.717484234718092643e-03,4.611679042293315590e-04,9.296842217445373535e-01
-2.811294543452321215e-01,-4.748862552100187595e-01,5.202841492031263781e-01,7.356812385565865420e-02,-7.488519078862372266e-03,-1.016841165726612047e-02,9.229301214218139648e-01
-4.395688126844010113e-01,-4.386399067584035860e-01,5.510547230358080473e-01,-6.152666645297214529e-04,-1.261602367184828455e-03,2.116406764126329849e-03,9.901691675186157227e-01
-3.711436538086424486e-01,-4.628160847304445547e-01,4.848318933105395523e-01,2.899046747941238719e-02,3.909007313765894970e-02,-1.114590651402198873e-02,9.094204306602478027e-01
-4.389533953911500253e-01,-4.408196081395653887e-01,5.414328489107582687e-01,1.696993916185042701e-03,4.487579296839801224e-04,8.340275038224995510e-04,9.813264608383178711e-01
-4.448136247854398428e-01,-4.311785024328911309e-01,5.092981770754250181e-01,5.007235527630804137e-03,-5.412645489459435438e-03,3.114130029235603198e-03,9.474692940711975098e-01
-4.194232287934263059e-01,-4.244176756762250702e-01,5.448382026647592413e-01,4.110955668642279903e-03,-2.548056808913960487e-03,-8.310202618351831150e-04,9.668056964874267578e-01
-4.355353127890364551e-01,-4.201755384407864224e-01,5.406056830758949605e-01,5.326238649269680187e-03,-5.891902438084784671e-03,-1.062701059737045052e-03,9.686518907546997070e-01
-3.943980395219796042e-01,-3.929101158387019455e-01,5.205753140214225416e-01,-1.595403690863612424e-03,-3.051966994569226487e-04,-2.059674447001095046e-03,9.142416119575500488e-01
-4.159988565354542089e-01,-4.028808108635084095e-01,5.332295943714930875e-01,4.939378283975760786e-03,-2.176698409947250105e-03,-4.564141546209909625e-04,9.427845478057861328e-01
-4.295484157740392384e-01,-4.375104108223031862e-01,5.433975534473249880e-01,1.118138151358340649e-03,-3.553270512068584450e-03,-1.000959134405030211e-02,9.771264195442199707e-01
-4.155142722228020169e-01,-4.101628173421004164e-01,5.371241257613736941e-01,2.849779984398342339e-04,4.479866999307257486e-03,4.273039685540934961e-03,9.500346183776855469e-01
-4.392656560767077001e-01,-4.383682012511097015e-01,5.460335455899304469e-01,-1.440191706289004883e-03,-1.175951031596495985e-03,1.033120084682017693e-03,9.848576784133911133e-01
-4.244700517492221437e-01,-4.318914396880133566e-01,5.455858398253642383e-01,8.635232186062543475e-03,5.834800083613731619e-03,-5.726619663078322785e-04,9.739555716514587402e-01
-3.938209781915805729e-01,-4.478226850656428226e-01,4.753036392848259961e-01,4.098837020333284675e-02,4.308761644868156632e-03,3.330288026086333092e-02,9.020261168479919434e-01
-4.484715482979836354e-01,-3.627428861329363152e-01,5.289827846178228876e-01,4.239149481798946961e-02,2.413656040935656475e-03,8.499593700947489019e-03,9.405295848846435547e-01
-4.532543508284322398e-01,-4.130541714851730384e-01,5.401047220409481708e-01,-4.648095824978796739e-03,-2.131745882594666183e-03,7.771330644617635217e-03,9.740147590637207031e-01
-4.452537002986389214e-01,-4.317747969170312450e-01,5.097509197715353046e-01,-9.328568153890137368e-03,-2.402830480696343737e-03,-2.289979686479457193e-03,9.484920501708984375e-01
-4.408129093344738680e-01,-4.355032434457598578e-01,5.450658569348326710e-01,-9.141172148744041749e-04,5.418729407272703143e-03,-5.996784141744561196e-03,9.833356142044067383e-01
-4.310407655899259338e-01,-4.135870193717156584e-01,5.334410692660783715e-01,1.533064929565614368e-02,-3.223964570543191854e-03,-1.829043387277365373e-02,9.567841291427612305e-01
-4.360722091212347884e-01,-4.272021436823236762e-01,5.478231980365306786e-01,1.507663584831691987e-02,-3.055035293327412489e-03,3.151734520659497073e-03,9.798680543899536133e-01
-4.595948527115114035e-01,-4.137836578942075128e-01,5.424985756089339972e-01,7.655797946528963924e-04,-1.712210777210206817e-03,-1.017676946544398935e-02,9.801551103591918945e-01
-4.372592085874850154e-01,-4.469303805524514894e-01,5.393351803285805213e-01,1.340322072368534904e-03,1.765286820078856411e-03,-3.144824262035118487e-03,9.814883470535278320e-01
-4.652124818247690419e-01,-3.703514509423397327e-01,5.407834951579609806e-01,3.441809841207329156e-03,-4.313901935219238183e-03,2.245107766512586048e-02,9.629123806953430176e-01
-4.828603403820443396e-01,-3.749796132039281416e-01,5.362918993167972159e-01,1.666465155436401904e-02,2.026116897390568827e-02,-2.096806731628374741e-03,9.707937836647033691e-01
-4.203758172987874797e-01,-4.131659912038264659e-01,5.390904509883979179e-01,-6.780988171751817142e-04,5.225410595004030415e-04,6.720646939320579910e-03,9.559537768363952637e-01
-4.203843747464529601e-01,-4.352558012498991546e-01,5.466459170274670099e-01,-1.494404925128601722e-03,2.134700909297609223e-03,2.590145173105903604e-03,9.745718836784362793e-01
-4.893318920168239217e-01,-4.067547635585224697e-01,4.488938480758847271e-01,3.581892120139865132e-02,1.222399865045734405e-02,1.242609083624668376e-02,9.024250507354736328e-01
-4.112569949431032490e-01,-4.278674090239061867e-01,4.163573010341609093e-01,-1.689910852907169220e-02,6.350916919395391269e-03,3.692545130308247381e-02,8.390688896179199219e-01
-4.104742338414177349e-01,-4.002343187157914040e-01,3.742418412453152321e-01,8.881350388639594343e-04,-2.609549789450566620e-03,5.835248818394480133e-04,7.796618342399597168e-01
-4.201540278973303066e-01,-4.177483263549116033e-01,4.156643980569423302e-01,-1.194121664551731077e-02,9.056594405344498694e-03,3.294024599934546049e-02,8.369686603546142578e-01
-3.852284355600416044e-01,-4.756395889771470320e-01,5.263129468876384109e-01,-1.535692556237416850e-02,-3.743564556268092793e-03,-3.303508694393406629e-03,9.603528976440429688e-01
-4.163323327808580165e-01,-3.785346105563193175e-01,5.298873676261379728e-01,-6.818696799702654750e-03,-2.129388584827051657e-03,-1.823231838337489082e-03,9.279862642288208008e-01
-4.577341185485697683e-01,-3.728774789772005271e-01,5.444874953553195951e-01,-1.163775493119143314e-02,-8.133600513491205664e-03,1.201608810854107659e-02,9.631415009498596191e-01
-4.989416255348288476e-01,-4.138463392068660318e-01,5.573903601427442345e-01,4.842366557496508711e-02,1.469853228352643523e-02,5.776378103777920700e-03,1.020280599594116211e+00
-5.671055767895353261e-01,-3.120251264294427451e-01,6.456962751097922171e-01,1.398345372991343094e-01,-2.736020179024022635e-03,-1.666171433261520035e-02,1.134067296981811523e+00
-4.361129159390141341e-01,-4.505715686569989886e-01,5.335817600920946813e-01,-4.107709309080870242e-05,-8.604444565389608550e-04,-2.424782985938217679e-03,9.770144224166870117e-01
-4.849585903647764540e-01,-2.997900821867207077e-01,5.407658210888335315e-01,-1.326800793075710340e-02,6.173059970653509664e-03,4.734514468416795366e-03,9.471936225891113281e-01
-4.343129194177428598e-01,-4.461865280863286376e-01,5.313916524731582269e-01,7.907372025385801069e-04,-2.194520879168770922e-03,-6.313517241573912177e-04,9.717047810554504395e-01
-1.667357620568526433e-01,-5.565676850679854848e-01,6.139091464836533563e-01,-1.724960229198866379e-01,-8.723761357376613734e-02,5.715933847455781369e-02,1.089767456054687500e+00
-4.128897780595228717e-01,-4.339450715385047008e-01,4.286531466880099117e-01,-2.096960229248249000e-03,4.863675569784408487e-03,1.690907010346814551e-02,8.528180718421936035e-01
-4.268281725588424780e-01,-4.405974021725194145e-01,4.758855242102518757e-01,-1.108767709379420568e-02,3.826841980940169641e-02,4.552234464084126825e-02,9.156911969184875488e-01
-4.292412074097596841e-01,-4.357145806135337418e-01,4.828707885974999892e-01,-8.146824118955436206e-03,5.080834582530199643e-03,9.071947502837842889e-03,9.156517386436462402e-01
-4.287667118050080828e-01,-4.217035000920736909e-01,4.318176268197623235e-01,-3.204949517873886908e-03,1.425704189258898691e-02,2.249565492028749933e-02,8.583329916000366211e-01
-4.391501606822794113e-01,-4.363157425024843383e-01,5.485491435968169460e-01,7.027928916658190235e-04,-2.416340580205064443e-03,-3.175378793686929081e-03,9.863101243972778320e-01
-4.752391685976088409e-01,-4.417593604347068714e-01,4.513991196016403640e-01,1.872430156365169698e-02,2.111371220564798104e-02,5.114281246468277420e-02,9.159649014472961426e-01
-5.569263655052673068e-01,-1.334376804720563692e-01,3.307747627641195454e-01,-6.335826539450849226e-02,2.171840789073624725e-02,-1.064528749893282888e-01,7.992991209030151367e-01
-4.070547013144257820e-01,-3.761369267373267933e-01,3.068821344859077316e-01,1.405978783490318025e-02,1.993274151514960388e-02,7.484486179000894579e-02,7.121647596359252930e-01
-3.843379799002292208e-01,-4.894578427401574117e-01,1.893930225244758736e-01,1.212830476068299176e-02,-3.392265924817915168e-02,-9.774261258911337569e-02,6.580899357795715332e-01
-3.639112706353344051e-01,-3.647732806016290574e-01,1.428295371637189337e-03,-2.074506814221863116e-02,-1.908950763239742818e-02,-6.791700641740280875e-02,3.873127102851867676e-01
-4.227895878001809438e-01,-4.081310420468652889e-01,5.393512598763434696e-01,-6.758961044475642749e-03,-9.111721060554720669e-03,6.907498617444140718e-03,9.551730751991271973e-01
-4.260627345350150863e-01,-4.029962646897345402e-01,5.387358973605754775e-01,-3.998416360251260543e-03,-8.950035366567764272e-03,6.316598445211030893e-03,9.536886215209960938e-01
-4.435123700879842201e-01,-4.106703213687621923e-01,5.463914581873745568e-01,2.173002512825741341e-03,5.119127264109983241e-03,-5.306323872346616760e-03,9.739891886711120605e-01
-4.337364076004565083e-01,-4.357857140252321959e-01,5.296622645484025949e-01,-1.927224996992593767e-05,4.985085861594446173e-03,2.663685708129296791e-03,9.644746184349060059e-01
-4.549781706939581838e-01,-4.072030114445886473e-01,5.361205537041433544e-01,-2.712305381680683511e-03,-3.702729840958704673e-03,9.351261309921910653e-03,9.682638049125671387e-01
-3.982203298184285312e-01,-4.145424230154702849e-01,5.346485516461872978e-01,-8.570729714790182793e-03,1.481515396839287865e-03,1.049677720220921692e-02,9.414322376251220703e-01
-6.155969930622043895e-01,-3.470097614191343105e-01,1.523504544701301811e-01,6.609979156872854145e-02,-8.738887701305848854e-02,-4.994742005936550489e-02,7.064868807792663574e-01
-4.745991566745028645e-01,-3.236499998076509677e-01,5.124915846550482934e-01,-2.224607715066640595e-02,-7.500881870861500142e-03,1.773033327015091296e-02,9.223501682281494141e-01
-4.040997548538936002e-01,-4.169458102437734737e-01,5.361475685991554663e-01,7.565007899093702595e-03,-2.930054891523097612e-03,2.951263665476076999e-03,9.468537569046020508e-01
-4.364467727276393760e-01,-4.485566937598247095e-01,5.312274109569830038e-01,-1.013291418515777954e-03,-1.645522529118389685e-03,-3.128211701020960564e-03,9.738064408302307129e-01
-4.275212664222329262e-01,-4.440847590711400894e-01,5.101402066420548387e-01,6.505271671409218123e-03,-1.062345335715928060e-04,2.754172531640400583e-03,9.461311101913452148e-01
-4.320917561154378750e-01,-4.507170445723654995e-01,5.304505443101078521e-01,2.722829108479441537e-04,-1.595141010683687936e-04,-2.626235957332761009e-03,9.719995856285095215e-01
-4.411371715949303773e-01,-4.066246152297000038e-01,5.440606068670016393e-01,-3.113430690458317187e-03,-6.057385524797599674e-03,-8.433377345700099337e-03,9.685848355293273926e-01
-4.158809425728751119e-01,-4.397980668708184049e-01,4.484972964586539934e-01,6.267755428879739736e-03,-4.311717340117778192e-03,-3.746248297199916699e-02,8.790785670280456543e-01
-4.335002879003174159e-01,-4.331517957627589732e-01,5.249518669560482298e-01,-3.179104477820457984e-03,6.617093004645611259e-03,-1.363505824366089900e-02,9.586532711982727051e-01
-5.031163948984013201e-01,-4.027418717860376529e-01,4.412433426621850119e-01,-6.106131466707113292e-02,2.285047488154515541e-02,-1.028868321847437317e-01,9.228270053863525391e-01
-4.372776414740380813e-01,-4.469733218621867454e-01,5.329186264722859390e-01,-1.478231095473935171e-03,-2.757956879892173654e-03,-3.755684609253782426e-03,9.751170277595520020e-01
-4.110381342307862784e-01,-3.671177316011645653e-01,2.827779117872654124e-01,-3.401509424595233755e-02,1.283887697823769131e-02,-6.086826378386073211e-02,6.840448975563049316e-01
-4.208754823810549328e-01,-4.339825400155761237e-01,4.547953597408449511e-01,6.452017314802336104e-03,9.618231379791924995e-03,-1.613887465991666742e-02,8.829680085182189941e-01
-4.106436403761227205e-01,-4.067860713815120710e-01,3.859657839572168125e-01,6.153194586202056365e-03,1.508788948847866046e-02,-2.520967887920990899e-02,7.963865995407104492e-01
-4.379461248125040007e-01,-4.434798737275832958e-01,5.382842427356085979e-01,-1.701833004155370961e-03,-2.424765338366356802e-03,-2.612428965213054420e-03,9.790328741073608398e-01
-4.091871863073109905e-01,-4.285210392024903503e-01,5.749058276488865360e-01,-7.209758471487627551e-02,3.432790687489423176e-02,6.052223060464117024e-03,1.003533005714416504e+00
-4.059714374137728399e-01,-4.272195212914982609e-01,5.418027696589126085e-01,-2.412854441085517457e-02,8.239681876868066440e-03,-1.064641523633286235e-02,9.597687721252441406e-01
-4.749737634148729626e-01,-3.907376130608012366e-01,5.491688795124257672e-01,-2.022962805867487435e-03,-2.149155189211127484e-03,-1.908551765632199304e-02,9.852983951568603516e-01
-4.441995239203054280e-01,-3.669704345792899058e-01,5.346301524845765707e-01,-7.804159130639474681e-03,-1.045970659965490476e-02,-5.677712407185191504e-03,9.429132342338562012e-01
-3.730003648301464247e-01,-4.238180031417219107e-01,5.270843258776288787e-01,-3.829612847410698850e-02,4.200024750728154239e-03,-6.149300321222085294e-03,9.290001392364501953e-01
-4.308076437993320074e-01,-3.620499845177693188e-01,5.324328196244753064e-01,-4.522904806393730076e-02,-4.489937241565117353e-04,2.693197036080619000e-03,9.340711832046508789e-01
-4.205959178049595848e-01,-3.979379626242548484e-01,5.421844460844519320e-01,-3.215361275002444341e-02,1.722621347289386706e-02,-1.552257494655005093e-02,9.541275501251220703e-01
-2.691289439322771537e-01,-4.671553914671394137e-01,5.441201428606267099e-01,-1.310911579520797066e-01,1.531545168588941547e-02,-1.482569870268925227e-02,9.563216567039489746e-01
-3.797697424579554171e-01,-4.290120819546379138e-01,5.692174231658247985e-01,-8.810563125663391226e-02,-6.106427284497993949e-03,2.653409992781291873e-04,9.864743947982788086e-01
-3.936212922799734448e-01,-4.467143657327860007e-01,5.459140715681722877e-01,7.449391735745055894e-04,4.180247700481411373e-03,2.590163882899623564e-03,9.672138094902038574e-01
-4.285216953635860859e-01,-4.347436845636982738e-01,5.341020716509778943e-01,-6.140534051331570514e-03,7.195352626445262328e-03,-2.763002146563472376e-03,9.659005999565124512e-01
-4.296121828604753667e-01,-4.521790230819003886e-01,5.279317845499157391e-01,3.793368548510162155e-05,1.893797671918367748e-03,1.516291185622976748e-03,9.690335988998413086e-01
-3.887243764343867314e-01,-4.324288536879495881e-01,5.220154817669104830e-01,-3.043837947366091409e-02,1.875465156906084251e-03,2.625108849480520343e-03,9.348643422126770020e-01
-3.398427780435382961e-01,-4.543536512286049933e-01,5.321900558014248661e-01,-2.051658032266721540e-02,-6.056725832928176734e-03,1.007293227073942886e-02,9.354616403579711914e-01
-4.399462092775846545e-01,-4.410307296018934897e-01,5.492763309754574719e-01,1.894185750641560030e-03,-2.168300638175313117e-03,9.009572226080109095e-05,9.897778034210205078e-01
-4.372525254922050575e-01,-4.389286317209510901e-01,5.468278297123160270e-01,-2.100415114795604020e-03,5.625865208528644298e-04,-4.127341306423764700e-04,9.849269390106201172e-01
-4.139964532936500907e-01,-4.209384320834043125e-01,5.393174405941596472e-01,3.093324803189409673e-03,2.194887692142094907e-03,-7.646464349157096850e-04,9.568272233009338379e-01
-4.329844679588957246e-01,-4.517350580552687567e-01,5.313660476707208202e-01,-3.408242073883140620e-03,2.407464186734434557e-03,1.222480889296947461e-03,9.738903045654296875e-01
-4.606031564347824458e-01,-3.402069304243057757e-01,5.506463038058008186e-01,-1.322989863161627144e-01,2.995962283655773800e-02,-2.149811188303122136e-02,9.858795404434204102e-01
-4.372602430941555651e-01,-4.487366666429782325e-01,5.450279476375416987e-01,-2.196848116632598488e-03,3.719090537323605297e-03,7.411790045357826784e-04,9.881055355072021484e-01
-4.141425246625260459e-01,-4.250327431651159116e-01,5.089485937095086232e-01,-2.770600863498598465e-02,2.540018712694543795e-02,-1.556424549447198505e-02,9.312537908554077148e-01
-3.688538678354930100e-01,-4.551652962931236890e-01,4.946464958169697335e-01,-4.984780733643792705e-02,-8.302040024083554709e-03,-1.397654047942131512e-03,9.139362573623657227e-01
-4.380482285680265542e-01,-4.372516710126125306e-01,5.228538531022991487e-01,-2.468742818425611468e-03,-2.454242507047304026e-03,-7.940895272843997293e-03,9.606214165687561035e-01
-4.290329125641475505e-01,-4.397806443490402395e-01,4.852944016323699206e-01,1.425594141034675988e-03,2.804646565760899463e-02,-3.493335732284818390e-02,9.230188727378845215e-01
-4.148747243210109681e-01,-4.282368227601161537e-01,4.021479586268796869e-01,-9.385875704543043818e-03,-8.383985143984305777e-02,-1.866383913908723283e-02,8.372684121131896973e-01
-4.385645252775542957e-01,-4.049822736420622404e-01,4.090935018245593913e-01,-1.812482026137370375e-02,1.376143841127402956e-02,-2.910796049958377235e-02,8.338351845741271973e-01
-4.250044614716556590e-01,-4.370860624130047389e-01,4.774792136299110812e-01,4.044095581014203050e-03,3.032351641547426091e-02,-3.226800956142028554e-02,9.118428826332092285e-01
-4.315693967333916747e-01,-4.331619873796331843e-01,5.128276975632377610e-01,-4.302117319204269187e-03,-1.014935302719327526e-02,2.581310070225171886e-03,9.453977942466735840e-01
-4.269217479274947102e-01,-4.506311513914588174e-01,4.543365906227374573e-01,-5.715057922049587673e-03,6.141097205856754782e-02,-5.102824261200945843e-02,9.040442705154418945e-01
-4.415416595003722744e-01,-4.421698094395630774e-01,5.516320571717550081e-01,-3.033032884177713751e-04,2.025476934485599158e-03,-2.095378904507204116e-03,9.935008883476257324e-01
-4.382333535667345403e-01,-4.417608996264882348e-01,5.454641606547701027e-01,-9.611468728331084860e-04,-2.489498782541637754e-04,-4.274770559621575428e-04,9.854677915573120117e-01
-4.159126645028199953e-01,-4.454929666556991519e-01,5.449834252806384782e-01,-6.408543817119360941e-03,-6.677871953146237438e-03,2.722953360791115912e-03,9.761655330657958984e-01
-4.234832242890561038e-01,-4.219612226476612271e-01,4.456372303833080473e-01,6.660762429721441349e-03,2.120784212814518649e-02,-1.582129921552862927e-03,8.692179322242736816e-01
-4.406296816685200679e-01,-3.788449679721382912e-01,5.426940853957523681e-01,9.241023442785226139e-03,1.099034939786557204e-02,-3.394175666724072796e-03,9.542754888534545898e-01
-4.390059557066131046e-01,-4.352440930537808672e-01,5.525993459767777338e-01,2.238942556751480698e-03,-1.626210580362167073e-03,-1.552602192764189308e-03,9.897449612617492676e-01
-4.275165372334875369e-01,-4.667479981207018902e-01,5.246466050844267315e-01,-6.614048201180817640e-03,6.462332128525904648e-03,-2.621938149162488223e-03,9.725151062011718750e-01
-4.238637757082321933e-01,-4.235613961057019816e-01,5.461307861631745642e-01,-1.027853346752433811e-02,-1.012527416630321260e-02,7.987692736163674520e-03,9.702639579772949219e-01
-4.326758331348804498e-01,-4.379181755179381019e-01,5.469567012935393491e-01,9.620267856312682058e-04,4.090444535991247417e-03,-2.910354717164726455e-03,9.823040962219238281e-01
-3.838347535331740334e-01,-4.782552340800796942e-01,5.546998473362076965e-01,-1.209291650509904809e-02,1.279733612568221407e-02,4.910892007481518912e-03,9.896371364593505859e-01
-4.382370961322755720e-01,-4.389073099425125357e-01,5.509766721841825587e-01,-2.780937435014396977e-05,1.231822672237757686e-03,2.778110727210285780e-03,9.895630478858947754e-01
-4.714885525474117323e-01,-3.420947921859306406e-01,5.263755067246377317e-01,1.828369035579546428e-02,5.620029682018649365e-03,-2.678553429507558176e-02,9.415986537933349609e-01
-4.487184914190046059e-01,-4.088128815757131052e-01,5.516488362370564058e-01,1.518478899318160408e-02,7.311377400346623021e-03,-4.805064263566263816e-03,9.814929366111755371e-01
-4.411795235046517827e-01,-4.108045953935911543e-01,5.449359745308551828e-01,2.720758761243335065e-03,5.774487839130666017e-03,-5.542910484429576165e-03,9.713946580886840820e-01
-4.306793601994963749e-01,-4.193442795735270456e-01,5.448329522009927040e-01,3.114870529584481788e-03,-6.475243976277668401e-03,-7.616899080974302242e-04,9.699751734733581543e-01
-4.374305745982510207e-01,-4.363171505295803665e-01,5.404321791172982392e-01,-1.659060902591370313e-03,2.121041930712190202e-03,1.235369623688253654e-03,9.773200154304504395e-01
-4.272135351215867738e-01,-3.848522138967122586e-01,5.345479611831116529e-01,1.105198245857226709e-02,4.672256934567480327e-03,-5.441845471882087934e-03,9.415726065635681152e-01
-4.097848032570857724e-01,-4.163302561037352523e-01,5.363676413061535531e-01,6.366308557233389849e-03,7.088112314748526432e-03,3.857643692896573460e-03,9.496089816093444824e-01
-4.056438329092981188e-01,-4.088225699976031913e-01,5.339430817527647255e-01,5.594552005662560730e-03,-2.731828679452335921e-03,4.121399428418489469e-03,9.412691593170166016e-01
-4.077658989015602864e-01,-4.075179646445060144e-01,5.324943985852129691e-01,6.178736578428506258e-03,5.808524807022582247e-03,6.060287698521615689e-03,9.403097033500671387e-01
-4.402629974788360157e-01,-4.430064801183923873e-01,5.520485963415802111e-01,-9.003767229427851043e-04,-2.283112637822469980e-04,1.990266828683906735e-03,9.936934709548950195e-01
-3.945474088995071793e-01,-4.293810700554889781e-01,5.438324665735189134e-01,2.501039982630594988e-02,1.179083331705449260e-02,1.279049142511065607e-02,9.577274322509765625e-01
-4.288584012647041477e-01,-4.366895415618285425e-01,5.493783870061444974e-01,3.629730487877085368e-03,2.495889290433674773e-03,-8.296727045322938813e-04,9.822064638137817383e-01
-4.074381474112278023e-01,-4.155539747011353646e-01,5.367894209008023942e-01,6.359091382539468510e-04,-1.398560322645010399e-03,5.608826629054899232e-03,9.483650326728820801e-01
-4.434732919935593931e-01,-4.283449051693715148e-01,5.092269260652280138e-01,1.524742085794921018e-03,-6.636581009870828884e-03,-1.077072371935453672e-04,9.453004002571105957e-01
-4.226109770175770497e-01,-4.354349957199593057e-01,5.455984066664775201e-01,-2.710619896286009002e-03,-2.351246629167584763e-03,-1.874695248655282881e-05,9.747045040130615234e-01
-4.477237457058952930e-01,-4.312685662175925194e-01,5.285133355474725958e-01,-2.291945183692788504e-03,-6.130199367711890689e-03,2.608163986121038707e-03,9.681912660598754883e-01
-6.192057026078042758e-01,-7.987453751540138369e-02,6.135010992358703730e-01,5.575544935641578957e-03,-2.835870292448561258e-02,-8.000706210653474315e-02,1.080424070358276367e+00
-4.446808968187120903e-01,-4.309663617423544757e-01,5.120350172243002262e-01,-7.537299427403466911e-04,-6.475993467237758233e-03,-1.206027751458836703e-03,9.500023126602172852e-01
-4.320889646611609236e-01,-4.422470118348071910e-01,5.190880840923064454e-01,1.908474746286073801e-03,-9.692719147193763068e-03,-1.329793290906496409e-02,9.567269086837768555e-01
-4.501316692450763046e-01,-4.331795458785905883e-01,5.299274449511613971e-01,-1.475254522246992675e-03,1.519292306566560110e-03,1.140702979565588965e-03,9.717028737068176270e-01
-4.385520490517678671e-01,-4.399233868537165693e-01,5.408981467548144018e-01,4.828820911769232189e-05,-1.581749331085022595e-03,-5.284870039203720671e-03,9.801831841468811035e-01
-4.404473395431502958e-01,-4.364304772962844248e-01,5.256724274328268276e-01,1.664103430473281046e-03,-5.573198037760768598e-04,2.240874754765101451e-03,9.641302227973937988e-01
-4.386335372387081821e-01,-4.366738673560312534e-01,5.360069488547468675e-01,-1.549099792617177583e-03,1.617138578230875676e-03,-8.316580828913851253e-03,9.737764000892639160e-01
-2.961529863696195086e-01,-4.879294497055471913e-01,5.357439002612819356e-01,-1.354550708298512228e-02,-6.549031949140944955e-03,-6.829497775286840280e-03,9.429675936698913574e-01
-4.409387726644936056e-01,-4.347956315678880301e-01,5.281095536977632454e-01,4.242725307937885945e-04,8.679713254602264109e-04,-1.014769468321793889e-03,9.659944772720336914e-01
-4.402155872544874504e-01,-4.365481103399136420e-01,5.290338005609392935e-01,4.766623856029334112e-04,-1.740371858525146533e-04,3.627219694582925458e-05,9.674212932586669922e-01
-4.470996004862135553e-01,-4.334770916646770167e-01,5.307597183396725038e-01,2.906867517743083693e-03,-3.512643950762488025e-03,6.462193674309965044e-04,9.711524844169616699e-01
-4.390155723947469224e-01,-4.364811395708377839e-01,5.286158906110284272e-01,1.345568491045180974e-03,8.501200805384091113e-05,1.511599440231295726e-04,9.663695693016052246e-01
-4.468116262591527721e-01,-4.358063309837447163e-01,5.314581007083185593e-01,3.071193788865850521e-03,-3.532011747743381801e-03,2.135501659211567105e-04,9.728476405143737793e-01
-4.347625047443822721e-01,-4.372360329915269128e-01,5.431811853802620549e-01,1.223093387844791623e-03,6.562291588250765417e-03,6.530793438426166914e-03,9.793164134025573730e-01
-4.355404620732821752e-01,-4.158976863795366685e-01,5.447864687008974194e-01,1.489779000062516501e-03,2.008763368436848953e-03,-1.812348169139663297e-03,9.706693887710571289e-01
-4.207818225965583303e-01,-4.139362941910641469e-01,5.384074742103860389e-01,-1.215457272609644359e-03,-2.061120187892992017e-03,-2.482099488371485377e-03,9.558035731315612793e-01
-4.016905833735250897e-01,-4.235845020568513308e-01,5.364925014072984277e-01,1.842188912268701365e-02,3.158211703791035177e-03,6.197672926376634681e-03,9.499319195747375488e-01
-3.927521657937949606e-01,-4.236396906625030656e-01,5.335030798735254098e-01,1.047655520152056610e-02,6.062927466863008395e-03,6.038370529504659238e-03,9.423701167106628418e-01
-4.503342217530282299e-01,-4.360651996298873789e-01,5.399358294523636248e-01,-3.659793272110884333e-03,-5.146191728287734420e-03,-1.287246785799310914e-02,9.835267663002014160e-01
-4.042329152752734411e-01,-4.259042346106395316e-01,5.381050313680056929e-01,2.139170979283576239e-03,7.230233259381133731e-03,7.175927179980313986e-03,9.535288214683532715e-01
-4.519557898335318513e-01,-4.358635582119758656e-01,5.441967104896928697e-01,-1.475466250703997423e-03,-2.427821951881951879e-03,-8.357475058114374050e-03,9.883229136466979980e-01
-4.273621015424372560e-01,-4.387841928940350300e-01,5.470600837128138938e-01,-2.504489693796737009e-03,3.504728887029991483e-03,1.906417288793964097e-03,9.802170991897583008e-01
-4.224221741497239391e-01,-4.395782039027271715e-01,5.456552118666693207e-01,5.531315165801805635e-03,-5.094996190107111550e-03,2.059835366985471403e-03,9.768617749214172363e-01
-4.065389726033240003e-01,-4.250538122004179353e-01,5.385942516759785192e-01,4.433806613604165947e-03,6.914207008950472647e-03,7.802145301524234314e-03,9.547269940376281738e-01
-4.523815551783917366e-01,-4.016522574013859925e-01,5.456544800567540987e-01,3.452427607485457003e-03,7.637102294846761369e-03,-1.186141685787922909e-02,9.739879369735717773e-01
-5.072525416730554459e-01,-3.043749495239220781e-01,5.440235095371455110e-01,-5.440912936913625680e-03,-8.262479612486208977e-03,-1.644028623943830786e-02,9.665219783782958984e-01
-4.396183153027055091e-01,-4.367757205143770194e-01,5.451080362036240246e-01,-1.127692877609211015e-03,1.459832135413680586e-03,-4.608427298742143879e-03,9.833457469940185547e-01
-4.362420312358365471e-01,-4.366486236698591261e-01,5.507210737985245297e-01,-3.409955811458257029e-03,-1.453639386275955726e-03,2.765872192985684673e-03,9.871989488601684570e-01
-4.302823514142052330e-01,-4.282253552606931080e-01,5.461407897781692666e-01,1.759522600307745479e-03,2.967358159619977627e-03,4.274617873165702589e-03,9.754426479339599609e-01
-4.474843761191103497e-01,-4.342689370565351314e-01,5.434986399216567010e-01,-2.899729440184317577e-03,-1.048575083540361419e-03,-7.344022277414295058e-03,9.845384955406188965e-01
-3.767593927731130998e-01,-4.108230117354228494e-01,5.276919187837441072e-01,-9.710235433636497590e-03,-1.730118574961294828e-03,6.248092691576629526e-03,9.221769571304321289e-01
-4.415457666795281066e-01,-4.423165443755708859e-01,5.505492619180507585e-01,7.423622422983240828e-04,6.101157752011062644e-04,4.397368970498106869e-05,9.924820661544799805e-01
-4.414182392749878558e-01,-4.426501613077959973e-01,5.479681885940788089e-01,3.623133312835856348e-03,-3.059670553045466205e-03,1.997165744977305504e-03,9.900431036949157715e-01
-4.386297177713679440e-01,-4.441485715562357162e-01,5.431336138376261502e-01,1.229635811338580711e-03,7.840709873156844964e-04,4.974823691212781852e-04,9.845379590988159180e-01
-4.302520826168761969e-01,-4.261044089060915807e-01,5.004623905021463592e-01,-1.623480439402141470e-03,-6.007488703979764304e-03,-1.082460073252321936e-02,9.288993477821350098e-01
-4.280744582729182901e-01,-4.255651559845848309e-01,5.442608497977464710e-01,1.891878880752106062e-03,4.487137881214598237e-03,5.575735980478922077e-03,9.711677432060241699e-01
-4.471018727056720876e-01,-4.366373836796553776e-01,5.336616253666441878e-01,-6.481840522567609841e-04,-2.151410781173214524e-03,-9.527154149895778867e-04,9.755824804306030273e-01
-4.435275744845489920e-01,-4.412159268771438936e-01,5.459772375665851163e-01,-4.429935384173360954e-03,1.613388179977191892e-03,2.307312367284123419e-03,9.883928298950195312e-01
-4.419315876219983008e-01,-4.410563925153258569e-01,5.462946447964331931e-01,1.967093154296222987e-03,-1.301695927955631889e-03,3.454660387404342569e-04,9.877975583076477051e-01
-4.803281299684133421e-01,-3.219799644981234388e-01,5.386998970339982318e-01,1.750107713422374700e-02,2.771227351323735967e-03,1.683404835667956859e-02,9.507486820220947266e-01
-4.980678237540753228e-01,-2.865766068309953951e-01,5.427147427804789315e-01,2.634373672542287409e-02,-2.620502658560903975e-03,-1.615278236625777852e-02,9.543195366859436035e-01
-4.524313769485118764e-01,-3.723268234608084204e-01,5.402575449948070485e-01,8.158119232591631853e-03,-7.493211403525589301e-03,-1.776883727133348606e-02,9.558475017547607422e-01
-4.637535095303587096e-01,-3.671483280909255686e-01,5.425379806286807494e-01,5.841724040798144772e-03,-1.139668711199812341e-02,-1.577352079034557292e-02,9.622788429260253906e-01
-4.528636475830812858e-01,-3.528592694590041434e-01,5.457019491030087321e-01,4.835439530904499239e-02,-7.941723822058341029e-03,-2.899788270668599011e-03,9.562960267066955566e-01
-4.536637275889451870e-01,-3.400825375436804521e-01,5.325644959187137983e-01,1.524613938709859333e-02,-4.746633551770075912e-03,-6.408964637719437654e-04,9.350379705429077148e-01
-3.976540796960553736e-01,-3.986656389006223988e-01,5.281473329322932120e-01,1.674506623318930409e-02,-6.032257582938173497e-03,-4.835712984287440439e-03,9.268583059310913086e-01
-4.007953241063100247e-01,-3.969604209353714275e-01,5.260904852583651037e-01,1.238884244834379325e-03,-4.278002629032585068e-03,-3.431849745588131870e-03,9.250255823135375977e-01
-4.288165290043398636e-01,-4.291228109975059879e-01,5.472215094670642710e-01,1.664502989170062262e-04,-4.993800905689471832e-03,2.871560503735791792e-03,9.762422442436218262e-01
-4.421562855368563194e-01,-4.382800388072071174e-01,5.425110632334594341e-01,5.300014073708358454e-04,9.260550617522609208e-04,2.099323316337691880e-03,9.827434420585632324e-01
-3.955722490233736233e-01,-3.906859653496292939e-01,5.213878358145636049e-01,1.951190081190328548e-03,-4.927161795378899025e-04,-7.299891387623290266e-05,9.145333766937255859e-01
-4.004761407529737749e-01,-3.850857152401049310e-01,5.216674261564715476e-01,1.061173878224948817e-02,-1.013169432329396637e-03,1.337614685033595811e-03,9.147347807884216309e-01
-4.270128187416358800e-01,-4.286822079358620363e-01,5.465030508429816747e-01,1.447961163862724167e-03,1.475112234902746771e-03,-1.797547045936309044e-03,9.743632078170776367e-01
-4.254736293283004622e-01,-3.889672840009119614e-01,5.348994314421438023e-01,1.172829445691040903e-02,-4.203152765468548720e-03,-6.431190747278272071e-03,9.429629445075988770e-01
-4.590689109985477967e-01,-3.816906722507399929e-01,5.405736763535373690e-01,-1.086428031911183117e-02,5.518656416455664480e-03,-1.524294558897733992e-02,9.638800024986267090e-01
-4.160782086363205567e-01,-4.317704344436371078e-01,4.371094993472466328e-01,2.510044542390913336e-03,3.100518570603591419e-04,-4.372002909614482527e-03,8.611854910850524902e-01
-4.250706182538578348e-01,-4.064532329223855545e-01,5.405962443626588509e-01,4.480942557731799891e-03,-7.678261928964922808e-03,-8.952164484100485695e-03,9.567436575889587402e-01
-4.317717612106237723e-01,-4.258282957049119855e-01,5.446134739912893430e-01,6.731470724526104725e-03,-1.647146247814586066e-03,-6.834155593399813405e-03,9.735730886459350586e-01
-4.214209871306642263e-01,-4.290034227103606268e-01,5.470813176727503668e-01,1.204557018094579157e-02,-4.758153214297098504e-03,-2.676146957401957777e-05,9.725744128227233887e-01
-4.567012915352459124e-01,-3.923154873340422566e-01,5.409866540043378746e-01,-4.374843930689110635e-03,5.553974952933806233e-03,-1.858823661006385464e-02,9.677171111106872559e-01
-4.457990688183723904e-01,-3.676215266301119944e-01,5.408876696529836270e-01,-7.811846617736667268e-03,-6.941949260114989653e-03,-5.495673752685715369e-03,9.502336382865905762e-01
-4.350422625115326070e-01,-4.445702032699309636e-01,5.297785276608060201e-01,1.619015252786555484e-03,2.281650007724731529e-03,-5.552983120807979990e-03,9.696796536445617676e-01
-4.759153135435251758e-01,-3.582752060778267578e-01,5.478683125245046304e-01,-6.715696812538338861e-03,-9.940558068268925615e-03,-7.270334542833418665e-03,9.706309437751770020e-01
-4.183658972326839698e-01,-3.106489644005147599e-01,5.460761699359805155e-01,2.631482612909843422e-01,-6.572950871178645516e-02,-2.104587771134708990e-02,1.029512286186218262e+00
-3.382592110469644364e-01,-4.494844327310730248e-01,5.300065942618977788e-01,-8.992981445994023548e-03,-5.282468621191612271e-03,-9.179853651723903982e-03,9.291979074478149414e-01
-4.441794660248720716e-01,-4.076142797878204993e-01,5.442645784272990284e-01,-6.747769529441709040e-03,-9.078681294591244531e-04,1.125288184035371300e-02,9.709454178810119629e-01
-3.367364513407649640e-01,-4.665686165484699277e-01,5.447689235835343480e-01,-1.488507623788821836e-02,-1.335313012929529794e-02,-1.354657210092353016e-03,9.537090659141540527e-01
-2.892614050901471945e-01,-4.792676437795429512e-01,5.393539460146260511e-01,-8.221247956509410149e-02,-1.455526941795789314e-02,1.472448843997943221e-02,9.495844244956970215e-01
-4.394146302664707071e-01,-4.439831937103398962e-01,5.364829260763190888e-01,2.614079215385117783e-03,-1.351037925982790473e-03,-1.427895096284954418e-05,9.782031178474426270e-01
-2.968940677219044644e-01,-4.854560560300953953e-01,5.382185082463757375e-01,-1.343499000726441558e-02,-6.407634482335862816e-03,-3.173923580964002535e-03,9.439989328384399414e-01
-4.322178109796044332e-01,-4.437754996558201381e-01,5.225502017167892310e-01,2.264101225845243249e-03,-2.589705268426958050e-03,-7.822980673556625617e-03,9.607130289077758789e-01
-4.362548885644184637e-01,-4.456227640738969487e-01,5.387104653383282260e-01,2.665027122239042607e-03,1.851152852299766793e-03,-2.191190026748873060e-03,9.797063469886779785e-01
-5.866238626239187459e-01,-3.296730175997467649e-01,7.323560284364039052e-01,2.395554143974969741e-01,6.871976836955712153e-02,8.074811712052296087e-02,1.293331742286682129e+00
-4.206725314777834956e-01,-3.828533969593508890e-01,2.867317853805536609e-01,-9.127471270664917410e-03,-7.614073601863788343e-02,1.607268178907136566e-02,7.025061249732971191e-01
-2.951155162069095672e-01,-4.966199114985297980e-01,5.428342222839795950e-01,1.284724940521211715e-02,1.560134996028065407e-02,8.271889534267851465e-03,9.555338621139526367e-01
-4.108232861559054649e-01,-4.436050765846163424e-01,5.473352074723039085e-01,-2.326648613506921218e-03,-6.631059527505403853e-03,-5.930110993974616745e-03,9.750928878784179688e-01
-4.246151577808649491e-01,-4.170922845816530944e-01,5.420990749553605825e-01,5.906426429756957662e-03,8.325129789767732671e-03,-1.461365022139267909e-03,9.631404280662536621e-01
-4.042180913742615123e-01,-4.014445687765430537e-01,3.484366913067872273e-01,5.582235405332437381e-03,2.747946357515287930e-02,-3.428714841262267554e-02,7.551788687705993652e-01
-3.857817804466080469e-01,-3.937026696211528010e-01,3.079768172607858512e-01,-2.807463443061872840e-03,-1.901672899692608693e-02,3.999421385782907755e-03,6.985810399055480957e-01
-5.527476986752122290e-01,-3.390539817599620420e-01,5.891673063306738234e-01,5.122895803088262090e-02,8.668700688706702448e-03,-1.443707961171253329e-02,1.055622458457946777e+00
-4.259514755183191892e-01,-4.201371411589630012e-01,4.279284043827235040e-01,1.017276416400466482e-02,-2.081456918073388423e-02,5.426889734631901163e-03,8.519850373268127441e-01
-3.509505978931274917e-01,-3.781859599273992845e-01,5.417493462581123298e-01,-1.364118822303198031e-01,-2.919703110590534615e-03,2.435312038109665404e-04,9.369195699691772461e-01
-3.900262832455537176e-01,-4.180647252359265820e-01,5.318747141407843548e-01,-4.164662978882115868e-02,3.576921606597899457e-05,4.760190877275329718e-03,9.390460848808288574e-01
-4.293384945055497282e-01,-4.302365708060055249e-01,5.021518973277696585e-01,-3.953767507697786981e-03,8.983877524398600420e-03,-1.866515262249044890e-02,9.326552748680114746e-01
-4.280985883229105338e-01,-4.264681634250344078e-01,5.459341288613046572e-01,-5.318829420095903121e-03,1.233505980820482966e-03,-2.135200934394691904e-04,9.732645750045776367e-01
-4.257341245450612655e-01,-4.192159597398307236e-01,5.431143998851404309e-01,1.043493835955172210e-03,-2.116003225015466310e-03,-2.937371690896961856e-03,9.656279683113098145e-01
-4.360734288901515487e-01,-3.977499443396355083e-01,5.388157429221346328e-01,-3.685874908373142772e-03,-2.147288321797378909e-03,3.056039370791824306e-03,9.563466906547546387e-01
-4.072174752878460202e-01,-4.091513880816732285e-01,5.746909790482079838e-01,6.424301974370880131e-02,3.014028536643007135e-03,2.733089859551508100e-02,9.903012514114379883e-01
-4.865194651317316654e-01,-2.856618105104633543e-01,5.620513523906091047e-01,7.348323397773041943e-02,2.583849547127980983e-02,5.019514044584361123e-02,9.772369265556335449e-01
-4.417246589623634589e-01,-4.056528342074536830e-01,5.551819421101027441e-01,6.070296382461499302e-02,7.464750305291874277e-03,-3.240528947137799945e-03,9.850974082946777344e-01
-3.826592483013478985e-01,-4.785315033771185278e-01,5.478396011725682468e-01,4.778545443680780086e-04,-1.435079171515987045e-02,8.064200998180120691e-03,9.823656082153320312e-01
-4.145902743081698039e-01,-4.179795530443618512e-01,5.383477053447899285e-01,1.144355542082291927e-03,5.593093978664308817e-03,-1.910509215295594625e-03,9.546940922737121582e-01
-4.305899539418741040e-01,-3.512240464993205413e-01,5.274161884440260462e-01,1.098793720910463123e-01,2.451785351376963929e-04,8.038796634696570437e-03,9.404553174972534180e-01
-3.919521887620098233e-01,-4.208342955912389161e-01,5.995689846409658630e-01,1.393027458620015313e-01,-5.276577994288321471e-02,-4.692430258466777360e-02,1.041997909545898438e+00
-4.570823590148528348e-01,-3.316732781794657359e-01,5.301586971236439405e-01,-1.667436102945143994e-02,1.725020682645251810e-03,-4.736772688189457882e-03,9.313826560974121094e-01
-4.147360945534161458e-01,-4.148150500992451861e-01,5.387269429742860272e-01,1.896704399679903031e-03,5.427014553692965579e-03,3.538115473508192388e-03,9.535741806030273438e-01
-4.681493401877592220e-01,-3.419233315878120738e-01,5.265932382239445486e-01,5.614368734294036822e-02,2.830108353752397443e-02,3.387548508019307819e-02,9.461423158645629883e-01
-4.318819835371401905e-01,-4.206696276289286218e-01,4.576522853230242660e-01,-7.950660343353073423e-03,2.439715800239110940e-03,3.540666474664031643e-03,8.841200470924377441e-01
-4.133737982213809836e-01,-4.323617566402269130e-01,5.427180839658460876e-01,-8.626489726832243035e-03,9.130174968186990231e-03,7.922827872427666909e-03,9.660683870315551758e-01
-4.135307114680282781e-01,-4.156129457503510705e-01,5.385321327573087125e-01,-8.370401891975668427e-04,-4.292445423325486412e-03,6.214597310226409321e-03,9.531965255737304688e-01
-5.250827652523076816e-01,-3.298599743308890941e-01,5.746599470609287108e-01,4.259261014520343558e-02,1.907638193466228149e-02,3.934001888421540666e-03,1.019525170326232910e+00
-4.857368138092229004e-01,-3.536624050911856831e-01,5.662756922929625958e-01,-4.190081635450633099e-03,4.061975488035638598e-03,-5.741335197538075495e-03,9.926888346672058105e-01
-4.414744218290387878e-01,-3.664669424457600022e-01,5.367587781908768063e-01,-2.711744466826618641e-02,1.067872101388783225e-02,-1.089731785723152720e-02,9.445083141326904297e-01
-4.181360267701623723e-01,-3.774612977726440333e-01,5.254194085709263939e-01,6.657614070817639146e-03,5.377423259738883061e-04,-1.010687663821572711e-03,9.239639043807983398e-01
-4.061779620144345126e-01,-3.974261991645580139e-01,5.276933708924539390e-01,-9.481805804950916086e-03,-4.326991590634945116e-03,-2.161659757400624226e-03,9.297091960906982422e-01
-3.700090520961201723e-01,-3.863126145990979365e-01,5.414352612255303177e-01,-1.023936493479695037e-01,2.106491510492860056e-02,-1.054127245281458007e-02,9.375362992286682129e-01
-4.999234407994374574e-01,-2.923181730392568345e-01,5.417455750487195631e-01,-1.357639359004712658e-02,1.017687653959311461e-02,-1.326679861669224567e-02,9.556725621223449707e-01
-4.280825376090531820e-01,-4.348580795710161317e-01,5.513030062321837566e-01,-1.153240612270839318e-03,-4.249397279870240941e-03,4.486429753869461759e-03,9.828511476516723633e-01
-4.374907569561569121e-01,-4.395466561551977236e-01,5.275089765955597310e-01,6.128193629237038004e-03,-4.270941142023673308e-04,5.783409336380454513e-04,9.660884141921997070e-01
-4.119021809791333366e-01,-3.783662108374992727e-01,5.241024554806200664e-01,-6.197290935116197413e-03,-3.160160606885957686e-03,-2.731555743853617685e-03,9.197864532470703125e-01
-3.989166594667447607e-01,-3.878641832828984559e-01,5.220403889813567400e-01,-1.240917715537987256e-02,-2.082089915568215502e-03,2.576351286821482959e-03,9.157510995864868164e-01
-4.954038459657500448e-01,-2.858891258247078793e-01,5.127601323571064906e-01,-1.555027090168927678e-02,1.670828123239034933e-03,-1.992503272958688620e-02,9.224915504455566406e-01
-4.270373353153951168e-01,-4.373897383983176845e-01,4.885929382838282153e-01,2.012988024108102077e-03,1.169678537395117332e-02,4.131210471545924447e-03,9.211073517799377441e-01
-4.947671467155378422e-01,-3.465116166740905834e-01,5.547514680107376028e-01,-5.480808561947084559e-03,1.781696966926339058e-03,-2.325978794506025626e-02,9.846800565719604492e-01
-4.846597441268188367e-01,-2.921580799422220931e-01,5.302983064969194471e-01,-1.663605277060762472e-02,-5.814809439782701352e-03,-9.843698013217806742e-03,9.343650341033935547e-01
-5.024869123733454179e-01,-2.851491247714105226e-01,5.110355165328174243e-01,-1.273645719673131491e-02,1.187997464307207277e-02,-2.471494386316470948e-02,9.257047176361083984e-01
-4.158938866292717917e-01,-3.735354098632726605e-01,5.213276009652559884e-01,-1.048351686028654167e-02,-1.730198165908130670e-04,-6.313373105614039486e-05,9.169563055038452148e-01
-5.189887367508005944e-01,-3.259953549824215480e-01,5.338671710103481960e-01,-6.002330578900309799e-02,4.820400470544005528e-03,-1.470329037074835990e-02,9.767724871635437012e-01
-6.994319792199064079e-01,-2.025442813981310763e-01,7.114608013232661676e-01,1.394313432908831918e-01,3.797526374090370860e-02,7.493722920045454983e-02,1.271202921867370605e+00
-4.349039822316117521e-01,-4.399777780848763697e-01,5.511658548316265005e-01,1.336349922213357242e-03,-1.003872399008134530e-03,-4.453886170248727225e-03,9.886508584022521973e-01
-4.441186974957093136e-01,-4.376304169513985931e-01,5.379780618102117939e-01,1.426612643620753977e-03,-9.796350827806428766e-05,-3.086080506358256266e-03,9.788864850997924805e-01
-4.409406909434410160e-01,-4.246575840424796633e-01,5.467138433063775116e-01,-2.855618407246086985e-03,-2.787215398074447976e-03,-3.936976971086938309e-03,9.796625971794128418e-01
-5.204602437125260828e-01,-2.322699539214540532e-01,5.551801504157880540e-01,-8.345572790584444844e-02,2.247803967780820020e-02,-1.851703227671794988e-02,9.764761924743652344e-01
-4.653364629773746319e-01,-3.550321298179457408e-01,5.430639918852689929e-01,5.099793668685396152e-03,6.482165746423764613e-03,-6.082320902090687306e-03,9.581871628761291504e-01
-4.419997056339475816e-01,-4.406337488142075820e-01,5.489929368873166515e-01,-3.327182546595713278e-03,4.257534384737315675e-04,2.640024392108533398e-05,9.903274178504943848e-01
-5.084168333129945871e-01,-3.154396073489377228e-01,5.490800527377324158e-01,-1.691245369536368160e-04,-6.847615571087017558e-03,-2.047109918096684175e-02,9.761480689048767090e-01
-4.378548251495602006e-01,-4.393740803920435090e-01,5.463419094447884428e-01,6.180693814895471538e-04,-1.109712555397508911e-03,-1.202508298721622227e-03,9.849619269371032715e-01
-3.877591296123139575e-01,-4.430084803059780585e-01,5.375273335373776940e-01,5.685592816919005262e-03,-8.863329443556274695e-03,-9.793087197639336119e-03,9.544366598129272461e-01
-4.332796916642047691e-01,-4.260542995452633597e-01,5.487121755054370498e-01,2.063677856473874225e-04,-2.199931063860338480e-03,-1.523980855286831025e-03,9.784102439880371094e-01
-4.427122479149974699e-01,-4.412541831169295437e-01,5.518407041746753450e-01,-1.059066210267819649e-03,-4.461628541120634664e-04,1.219765596325002115e-04,9.938267469406127930e-01
-4.583601939183343799e-01,-4.276904408898176690e-01,5.672070778589313189e-01,3.055131347819467231e-03,-8.891959383820353599e-03,1.303343362629328858e-02,1.010964751243591309e+00
-4.617110978005912192e-01,-3.786618234380146331e-01,5.065788096473106128e-01,-1.292496408143395739e-02,-8.621582008464832164e-03,-1.882643772665066120e-02,9.305129051208496094e-01
-4.455243090193832800e-01,-3.399875496050115409e-01,5.268775386821383799e-01,-1.473362524213834603e-02,-4.939063692342145900e-03,-4.718806151389324556e-03,9.245920181274414062e-01
-5.114551431271179283e-01,-3.654888617960921904e-01,4.597404235790952809e-01,-2.055989438443545612e-03,-1.497433935064742747e-02,-5.616242350632302816e-02,9.126408100128173828e-01
-4.745736633224593159e-01,-3.550715353375669125e-01,5.529020896771984495e-01,3.074796016750462428e-03,7.063295833336060564e-03,-3.847141523515585151e-03,9.733571410179138184e-01
-4.755895411332252687e-01,-3.896060204724230980e-01,5.489880661838905107e-01,3.797539775482955578e-03,8.390746790666587032e-03,-1.800853568856471826e-02,9.850294589996337891e-01
-5.211712811576789672e-01,-2.323985128279891232e-01,5.312941365105928737e-01,-3.667359756020250119e-03,-5.170097773514492926e-04,5.580308856997370608e-03,9.419577121734619141e-01
-4.457658612361510286e-01,-3.376809860593172896e-01,5.336385777988540413e-01,-1.312166130418425739e-02,2.381946789186409276e-04,5.848877857628981443e-03,9.304170608520507812e-01
-5.603559825477421041e-01,-3.807409437241713879e-01,5.839843415422520945e-01,-3.237065180814983900e-02,-1.250271337514477586e-03,-3.661546642162071680e-02,1.069301605224609375e+00
-3.882982938468214074e-01,-4.087147582328913287e-01,5.946258601508929154e-01,2.218732155728507238e-01,1.135649793090455842e-02,-4.178873229370425740e-02,1.067676663398742676e+00
-4.641032192211694829e-01,-4.011696407773440165e-01,5.371483392042812888e-01,-1.350588653546517474e-03,3.731454861429241675e-03,2.478723897887391125e-03,9.713488817214965820e-01
-4.447016333686587553e-01,-3.775924078083105484e-01,5.379779649073500591e-01,8.141761266487398951e-03,4.293682954518444374e-03,-5.240030371106190604e-03,9.510796666145324707e-01
-4.386538467992783241e-01,-4.424306913033237421e-01,5.408959805501329932e-01,-2.376832505881748547e-03,2.332371823700959187e-03,2.983157074113761738e-03,9.814742207527160645e-01
-4.414390834939158625e-01,-4.409136156601225487e-01,5.470812016875102879e-01,-2.422526401551886727e-03,-1.824265442511955292e-03,9.414249904296232482e-04,9.882729649543762207e-01
-4.387788524148140135e-01,-4.446516590512937794e-01,5.452481131239438339e-01,-1.717660958073129922e-03,1.239283939259532008e-03,-1.217683923717249829e-03,9.869855642318725586e-01
-2.961260831571052021e-01,-5.703522768572292234e-01,6.283590416748646712e-01,-4.394241349643419892e-02,2.159780446704587936e-02,-3.043561067731656404e-03,1.091151118278503418e+00
-3.608437001039982439e-01,-4.437552197601850046e-01,3.985518309235227541e-01,-4.539812371646027161e-02,-2.390880757079308708e-02,1.789159011121170192e-02,8.095533847808837891e-01
-2.805377405913737632e-01,-4.922767031618085487e-01,5.393910579230296598e-01,-4.619641116647447976e-02,-1.473739522640113778e-02,-8.493598936698798160e-03,9.476274847984313965e-01
-2.033931281830231308e-01,-5.580312339225822482e-01,5.528290668074119507e-01,-3.643517007229486737e-02,-1.813749797388592225e-02,4.767676932876998078e-03,9.853238463401794434e-01
-2.112519873769547196e-01,-6.188863950090096600e-01,6.616901855845589431e-01,-2.795024549644762549e-03,3.651262492758697992e-02,-5.865244586536231403e-03,1.134971976280212402e+00
-4.014633411656961526e-01,-4.044413851341269184e-01,5.299151015454727220e-01,6.579662050822735787e-03,6.389708926163249411e-03,-3.097035388983703039e-04,9.330064058303833008e-01
-2.020222888091566249e-01,-5.263436120475708524e-01,4.092964557407215986e-01,1.166072032255784791e-01,-9.540993243376424959e-02,1.218966917918784011e-02,8.635422587394714355e-01
-4.179523399725090238e-01,-4.485119006049602119e-01,5.453453418103916261e-01,9.178903066978002763e-04,9.461347404798897687e-03,3.919836694814549105e-03,9.790972471237182617e-01
-4.462961226298536310e-01,-4.381078133422787180e-01,5.398040880174187484e-01,-1.490143762909075737e-03,-1.538551711193762717e-03,-1.187119191554738152e-03,9.820408225059509277e-01
-3.021969235191238612e-01,-5.132105814401298760e-01,5.962758213552286080e-01,-1.076986578015713247e-03,-4.174189508357848896e-03,-7.815675584448875807e-03,1.020592451095581055e+00
-1.052610871656635694e-01,-6.658625705539310546e-01,5.507436148211206639e-01,4.158859685796086753e-02,-4.009727135945355403e-02,5.189374597375868980e-02,1.063233017921447754e+00
-1.106099501201831536e-01,-6.429875980354549103e-01,6.579904684390017744e-01,-1.006636543347037421e-01,-8.861869878935946243e-02,-1.664394487421862190e-02,1.156783699989318848e+00
-4.332836827737872043e-01,-3.737980040310807661e-01,5.312418776282088473e-01,-2.042481827089353066e-02,1.064212185914365644e-02,-6.726425455599858473e-04,9.370513558387756348e-01
-4.833083097824311669e-01,-2.701247757257567716e-01,5.245793411389576555e-01,-1.757003846123064428e-01,-7.013691475331929048e-02,9.694342035348318953e-02,9.909506440162658691e-01
-5.952141850273168222e-01,-2.385449474540753401e-01,7.022437856072557549e-01,-1.724014501488476958e-01,5.893962593387934434e-02,6.650541544267973837e-02,1.208595871925354004e+00
-4.471780405772261546e-01,-4.241878551098958727e-01,5.028916600952515470e-01,-6.039806121575226443e-04,4.226865170720865185e-03,-9.760557321346048729e-04,9.388164281845092773e-01
-4.024701424436084585e-01,-3.894156277983315539e-01,5.220582927818023800e-01,6.219622643656610821e-03,-1.419696710991026709e-03,1.083146534679289234e-03,9.181392192840576172e-01
-4.359803343511767793e-01,-4.351611123493334676e-01,4.980907675384753652e-01,-4.724090288948646493e-03,-1.038284593935441405e-03,1.268982174501768340e-02,9.339579939842224121e-01
-3.900065896710175894e-01,-4.286305293254232263e-01,5.317241760148678775e-01,-1.542471533494317072e-02,3.283694912117028804e-03,7.844144296960040702e-03,9.421311020851135254e-01
-4.730594365672964319e-01,-3.330154703234406433e-01,5.632540591490209358e-01,-6.129035876821037343e-02,1.553620392403353215e-02,-1.467051914093726525e-02,9.803406596183776855e-01
-4.549772882177856581e-01,-3.573604934339709716e-01,5.384973839844556798e-01,-1.558407736009258422e-02,2.172178267144901772e-04,1.011648419084897228e-02,9.489873051643371582e-01
-5.490113395778138949e-01,-3.353655669632331082e-01,6.170990115337718906e-01,-5.300362779011914827e-02,-3.157516872143701844e-03,-1.561181098725411553e-02,1.079589128494262695e+00
-4.340331461616589448e-01,-3.909192496847093135e-01,5.521336118021111794e-01,-4.087690276866816352e-02,2.648286762345193612e-02,-6.707885169835493128e-03,9.690809845924377441e-01
-4.686986681851376124e-01,-2.840488381209430035e-01,5.970957969500451101e-01,-9.876051603160873604e-02,1.361127925164913946e-02,-1.735937244659068249e-02,1.001965761184692383e+00
-4.146132256372865865e-01,-4.132080527503260714e-01,5.380012033853608377e-01,3.085044107822129049e-04,-5.009282745241126940e-03,-6.776735160939460420e-03,9.520246982574462891e-01
-3.700374954496727375e-01,-4.106560094771330993e-01,5.194386320281048075e-01,-8.011124128802258465e-03,-3.282078894346902864e-03,-2.769463884610077684e-03,9.106012582778930664e-01
-4.288843607177149075e-01,-4.285783050642938963e-01,5.458897215337400466e-01,4.514521128397026698e-04,-1.837066655274243333e-03,-3.926109368164341570e-03,9.746503233909606934e-01
-4.234087380553817059e-01,-4.250361711866164627e-01,5.463556233841166954e-01,1.299843746785788769e-03,-7.636547490817980482e-03,-5.908996190714122139e-03,9.707257747650146484e-01
-4.369910520786413066e-01,-4.384256377180845710e-01,5.382730277838573274e-01,1.304181111485521079e-03,-8.828859581763657746e-03,-1.586254717919029396e-03,9.761084318161010742e-01
-4.230377850793625716e-01,-4.169927683862142409e-01,3.883114778444795023e-01,-5.087031308936057830e-03,3.645001041462519326e-02,5.648746725797548773e-02,8.167346715927124023e-01
-4.412882316023424845e-01,-4.413548880043730027e-01,5.464345106792617424e-01,1.611532683202567158e-03,1.863294901657054289e-03,-3.349227095549100509e-03,9.877822995185852051e-01
-4.206848255622090416e-01,-4.238408209968282381e-01,5.429032329103977705e-01,2.659388475347767167e-03,2.733977377710130816e-03,-3.542525409754139834e-03,9.652120471000671387e-01
-4.160526559406415581e-01,-3.107354579090183533e-01,1.321447591594381854e-01,9.595957861901606434e-02,-2.171960614048781477e-02,-2.670635176578543130e-02,5.339074134826660156e-01
-3.510545548102801394e-01,-3.676867657976328752e-01,1.837994214035826301e-01,1.381626270211839813e-01,1.618717545210600611e-03,-4.048062704975068787e-02,5.978560447692871094e-01
-3.989396728540924308e-01,-4.389239974163589575e-01,2.740171071635284505e-01,1.480167607438811171e-02,-2.439898690247928673e-02,1.653311898099793509e-02,6.961612701416015625e-01
-4.494986763022853493e-01,-3.056186597346083889e-01,5.282167268494284418e-01,-1.436133421424864998e-02,7.158456114814384236e-03,-2.244973732147421963e-02,9.155542850494384766e-01
-4.633227854936620704e-01,-3.881970037308022370e-01,2.573281639840320212e-01,1.902951003971462690e-02,-4.121933006618648532e-02,-1.051850525536057821e-03,6.906728744506835938e-01
-4.864817296451953710e-01,-3.273651669529799579e-01,5.545461615922578913e-01,3.451500822311927286e-02,-1.468198451386302020e-02,-1.924189252638444994e-02,9.740347266197204590e-01
-4.313461761044316556e-01,-4.511630999315069945e-01,5.247981644014463321e-01,-1.528757268717517367e-03,1.165435444256358952e-03,8.675356074082001337e-04,9.662121534347534180e-01
-4.127044078450938236e-01,-4.156714675908041445e-01,5.361076599346425997e-01,-1.502802752646522711e-03,5.865676609384353965e-03,-4.293233082065655085e-03,9.503860473632812500e-01
-4.399354725187076820e-01,-4.436833400787351112e-01,5.508499637681257832e-01,-1.190145518231124772e-03,-3.047710273563468560e-04,7.903276135862464385e-04,9.926679134368896484e-01
-4.442945464678141332e-01,-4.404339246463674917e-01,5.523847814321571903e-01,-1.298122647062186028e-03,8.458860728911964545e-04,-1.027910385614500661e-04,9.947582483291625977e-01
-4.354811962091448274e-01,-4.266672693206432498e-01,5.481033948206712747e-01,6.972413348214650695e-04,2.139249888687672248e-03,-2.252824420833413857e-04,9.792152047157287598e-01
-4.403145703342788431e-01,-4.385168245029922307e-01,5.513603653919421088e-01,1.119044899903797775e-03,3.651278787881542115e-03,2.359183444495184089e-03,9.908077716827392578e-01
-4.421050241665978597e-01,-4.424042872955466499e-01,5.547358093581410410e-01,4.222245947357881391e-04,-1.350711590564027467e-03,-1.102406491762738941e-07,9.969934821128845215e-01
-4.030390523648828549e-01,-4.514983407720082886e-01,5.462149796124725620e-01,-3.058541416120203089e-03,-1.216246905641922560e-02,-3.322258148841582964e-03,9.746469259262084961e-01
-4.305504444216507465e-01,-4.483859289744633325e-01,5.214425038316437000e-01,-4.936899744094483747e-04,-8.794570936083443216e-04,-6.907402975717720148e-03,9.611108899116516113e-01
-3.920802187776505909e-01,-3.834732504688707633e-01,3.045113007981757880e-01,1.249699713370070429e-02,6.214093692545212544e-02,-2.308267857099683459e-03,7.009902000427246094e-01
-4.421703548497614711e-01,-4.386688032403323056e-01,5.513842123172844056e-01,-7.689679887407542677e-04,-3.723116171468245908e-04,2.913718694177288497e-04,9.918096661567687988e-01
-5.191026470728862252e-01,-2.450687575245968919e-01,5.403085249208976482e-01,7.185812949155428488e-03,2.161101134270197732e-03,-6.110765883160750034e-03,9.525822997093200684e-01
-2.880799441936766625e-01,-4.851672482537416342e-01,5.305815296812514958e-01,-1.464490352022816341e-02,5.529553850214347045e-04,8.362083165372926480e-04,9.332975149154663086e-01
-4.094789950591920524e-01,-4.062245724433088956e-01,5.337828759998085593e-01,-9.958771774193022133e-03,-6.631472598879068966e-03,4.710587106060478563e-03,9.419022202491760254e-01
-3.998156073991777082e-01,-3.979282790762104227e-01,5.257921611263448591e-01,-1.198966720480516921e-03,-4.052192243457345897e-03,4.039320276377061751e-03,9.247210025787353516e-01
-4.112061544079563258e-01,-4.071548150368221597e-01,5.340113436400535374e-01,-6.493138396557553149e-03,-6.876895717119890436e-03,6.927662365196214644e-03,9.434168934822082520e-01
-5.570671027252970253e-01,-3.879757742696179346e-01,5.969216589091260738e-01,5.248018362938751402e-02,8.816040816056755838e-03,3.168510340365488648e-02,1.084739565849304199e+00
-4.108017450570728424e-01,-4.070474611488321681e-01,5.336461503505195436e-01,-1.138209128033194732e-02,-3.760066019059941402e-03,7.104332161557555189e-03,9.428852796554565430e-01
-3.978752308374765012e-01,-4.074234442118301880e-01,5.291512181924372671e-01,-1.050268899857996138e-02,1.226060770964924234e-03,5.258594852496570847e-03,9.320617318153381348e-01
-4.420402937552715406e-01,-4.494559067814672959e-01,5.290977105103493727e-01,7.845183093292306536e-03,9.323883575629316606e-03,1.689934759834881700e-02,9.755346179008483887e-01
-4.859838066766024589e-01,-2.939813167860977350e-01,5.357056868846089559e-01,1.297596856119165483e-02,2.790553295248045067e-03,-3.633430327127116187e-03,9.408057928085327148e-01
-4.025243822547598938e-01,-3.936202955882742160e-01,5.276725019160696251e-01,2.596103964390733890e-02,5.077314118138895023e-04,-1.495875538519564904e-03,9.268723726272583008e-01
-4.106412081070585640e-01,-3.740932638797992427e-01,5.208152000419399297e-01,8.055523778255758646e-03,-3.669079101796696510e-03,2.126515871668267234e-04,9.138594865798950195e-01
-4.217114922478250039e-01,-3.951301378506113515e-01,5.573898123519919201e-01,1.524161897152534473e-01,-1.285118961325736747e-02,-2.754485982711274428e-02,1.002887725830078125e+00
-5.019462840788593283e-01,-3.008910392010112345e-01,5.488509060684788610e-01,4.697118204613626169e-02,-4.545339271129789430e-03,-6.468222750660307385e-04,9.695420265197753906e-01
-4.506712761211117413e-01,-3.730009972467693835e-01,5.407596876576911127e-01,1.294335352921041453e-02,-5.906905579773126698e-03,-1.378006456466047275e-02,9.555836915969848633e-01
-4.491889790722080611e-01,-4.053158192218748179e-01,5.468579269676974164e-01,4.850114233619753738e-03,-4.367913914326179183e-03,1.008634361755308441e-02,9.750730991363525391e-01
-4.666225499014558520e-01,-3.548072129159719479e-01,5.364571307939629552e-01,3.564400797005101360e-03,-4.304636365847232422e-03,-1.972425063439822365e-02,9.527710676193237305e-01
-3.210290756568308645e-01,-5.042774739199666900e-01,5.488568700584398607e-01,5.875832877124326399e-03,-1.357414028885179855e-02,7.173607439492907592e-03,9.749345779418945312e-01
-4.356642581782578794e-01,-4.333097862280281820e-01,5.376865116122013788e-01,-8.868700262988100241e-04,-5.012178308117220269e-04,-1.323395725354716826e-03,9.721799492835998535e-01
-4.438261346363447934e-01,-3.347829665217849637e-01,5.242637457989984817e-01,1.037880378662344415e-02,3.262324498440991212e-03,1.792721377400642579e-03,9.186345934867858887e-01
-4.424276862283886835e-01,-4.371260349537494094e-01,5.513298156488000146e-01,3.569585410809825946e-03,-2.182010330689178584e-03,-1.424633351798927248e-03,9.911468625068664551e-01
-4.296603275759744434e-01,-4.293589741181607633e-01,5.476291208332796367e-01,-4.833573278874049584e-04,-2.977151360468792765e-03,4.867858354330845995e-03,9.771891236305236816e-01
-4.382321268481041421e-01,-4.387032350727375629e-01,5.502722932483317120e-01,1.104209353976430333e-05,-2.699497611906720961e-03,7.830414562158155047e-04,9.887520670890808105e-01
-4.366782703867190252e-01,-4.365965158973807991e-01,5.511011833752951228e-01,3.446017739113754579e-03,1.979355604043627533e-03,1.916250092938338433e-03,9.877681136131286621e-01
-4.404917722173142813e-01,-4.406641923760108992e-01,5.399485943617295947e-01,3.706074706953505025e-03,-1.278537094160966297e-03,-2.182813115666633851e-03,9.805573821067810059e-01
-4.367794665681094535e-01,-4.370568530773108473e-01,5.155889652714374938e-01,6.123559293435030387e-03,8.217670803624146231e-03,2.980627902855599760e-03,9.526865482330322266e-01
-4.428007829204683166e-01,-4.384587057763673634e-01,5.412517277913547753e-01,2.917946961117478828e-03,2.775850714993443203e-03,2.044387231942580100e-03,9.819198250770568848e-01
-4.281256691414133120e-01,-4.123981856046531891e-01,5.399705795406923858e-01,-1.310027316079532926e-02,6.816709335914277954e-03,-5.441133736727331825e-03,9.607158899307250977e-01
-4.389224766080606077e-01,-4.383476929493863583e-01,5.394833161625829376e-01,-5.764343256244017547e-05,1.688531845793366827e-03,1.671487725286717550e-03,9.781271815299987793e-01
-3.536084909635395235e-01,-4.278683533350255974e-01,5.257117845755839847e-01,-2.518819768732289202e-02,7.708259243629608966e-04,-5.477101841225833628e-03,9.197890758514404297e-01
-4.436153707620613118e-01,-4.390116917671316732e-01,5.424216207045858829e-01,4.816307909237693523e-03,2.620177209960553293e-03,4.422286592860382197e-04,9.837893843650817871e-01
-4.416452399482127533e-01,-4.469733833795459521e-01,5.364948491494806460e-01,-4.688131377106460537e-03,-2.382517616792291081e-03,-5.308086313997492341e-04,9.808577299118041992e-01
-4.335433283866050869e-01,-4.441303641859910001e-01,5.358905101683061334e-01,-2.968325810941209539e-03,-6.369857283956028432e-03,7.178684500302093653e-04,9.748472571372985840e-01
-8.073382860657303262e-01,-1.736152747518656114e-01,7.092701053827891178e-01,-1.724729303813091891e-02,2.480261421100494329e-02,-7.628377906343768167e-02,1.326948285102844238e+00
-4.085803873647723128e-01,-3.898904400257891534e-01,3.563799334625201709e-01,4.972505923797392209e-03,-1.094120162993812533e-03,1.011675407796115743e-03,7.558421492576599121e-01
-4.371432903830284600e-01,-4.486393496993628105e-01,5.384227812025449422e-01,-2.820552379094887901e-03,2.665898283767255774e-04,-1.002602686728372309e-03,9.813784360885620117e-01
-4.313149773649435081e-01,-4.442815761914413741e-01,5.193173827083631400e-01,-2.106870847401515114e-03,-1.877262420471073525e-03,5.937438938112603835e-03,9.572492241859436035e-01
-4.294109233485346455e-01,-4.070198205073333186e-01,4.354183257326923462e-01,1.401774153356568058e-03,-4.474740638604759839e-03,1.846113502689241282e-03,8.538985252380371094e-01
-4.420079109169376963e-01,-4.398439274286076728e-01,5.486141896134496543e-01,3.080236103167231787e-03,5.049336613543106700e-04,-1.550300256079388279e-03,9.895603060722351074e-01
-6.712892090516331400e-01,-3.336423494677073776e-01,4.246047472055971550e-01,-6.715257036960781134e-02,3.314462538977806620e-03,1.716732044703866283e-02,9.794943928718566895e-01
-3.959811495224683786e-01,-4.264233337919322575e-01,5.367626885829844818e-01,-4.546164816842052439e-03,-2.389727968002361772e-03,-1.017393474287399402e-02,9.485368728637695312e-01
-4.425238330456355285e-01,-4.403259219371373212e-01,5.514956780431921057e-01,1.699525360819920941e-03,2.582877864294465232e-04,2.587609846008056950e-04,9.929269552230834961e-01
-4.422185390847838127e-01,-4.401439077720301074e-01,5.487502176499420292e-01,2.655124880259719308e-03,-4.587197403309684150e-04,-2.058310801601530640e-03,9.899504780769348145e-01
-5.177491933495430576e-01,-2.590411555077399286e-01,5.388530691636651548e-01,5.087559799688152681e-03,-3.291212258672879080e-03,7.196010041413982566e-03,9.540714025497436523e-01
-3.977579764852587907e-01,-4.013988112923177476e-01,3.404417667424446403e-01,-2.770259328608840835e-03,6.385239592743003137e-03,4.466605395291273206e-02,7.441574335098266602e-01
-4.394622489960318124e-01,-4.389394439634038414e-01,5.475259817555288011e-01,1.675715156391254044e-04,-2.767188042206901455e-03,2.748134939597942912e-04,9.867387413978576660e-01
-4.384552756039404864e-01,-4.389379921951150898e-01,5.459528169872815972e-01,-1.162695074398979213e-03,1.941653681811086538e-03,-1.581593562936742421e-03,9.846611618995666504e-01
-4.336808336659279672e-01,-4.492618184620521538e-01,5.302448828123342839e-01,1.829767717755433369e-03,-8.143368190508585257e-04,2.152841990161281699e-04,9.718161821365356445e-01
-4.456269187522955422e-01,-4.374548437587452154e-01,5.390504691046238417e-01,2.455956974424419650e-03,3.242023542406471427e-03,-1.142921725377676846e-03,9.806441664695739746e-01
-4.461464710613391449e-01,-4.335223274235562863e-01,5.336632724207427403e-01,3.363234300783585207e-03,2.796465785520499056e-03,-6.255607942559170522e-04,9.735891222953796387e-01
-4.069457778250563651e-01,-3.989329548794659508e-01,3.589823134683086669e-01,5.236247615772374170e-05,-9.999110770047411542e-04,-1.294127539790710345e-03,7.619585394859313965e-01
-4.467387270380874797e-01,-4.348219857535607358e-01,5.319864573385971740e-01,2.047408043384794148e-03,3.519215321395543009e-03,-9.228509433821003183e-04,9.728484153747558594e-01
-4.189511443570635429e-01,-4.078152007863534712e-01,3.927184251941462367e-01,4.234320080285884462e-03,3.302672472680470706e-02,-1.981872914710588671e-02,8.089482188224792480e-01
-4.388773475985953687e-01,-4.377288551843880327e-01,5.484923027520234307e-01,1.009331800254674623e-03,-1.918131277017108040e-03,-4.300261570110830607e-03,9.868311285972595215e-01
-4.450206150788201254e-01,-4.334096689585186235e-01,5.247088605626951674e-01,3.855989802309211893e-03,7.639141427321948993e-03,1.598378083807506199e-03,9.640943408012390137e-01
-3.866973001414552580e-01,-4.209655296408880143e-01,5.318154664589593850e-01,-3.224651462240042676e-02,1.330557535627458626e-03,-7.826774885285284200e-03,9.378829598426818848e-01
-4.060876399371938783e-01,-4.567593477529416912e-01,5.367639180856619285e-01,-4.180999840309899268e-03,4.648823428636243531e-03,-1.669149608428892317e-03,9.692462086677551270e-01
-5.000229071050285024e-01,-3.437091996793469328e-01,5.550792062191457488e-01,7.006548474210305168e-03,-7.451213475843817408e-03,1.215515110344782615e-02,9.866633415222167969e-01
-4.320365103525428685e-01,-4.426767414360888719e-01,5.455783483770492159e-01,5.309091175209200604e-04,-1.154154040223540935e-02,-3.156698863788492439e-03,9.831970334053039551e-01
-3.780908207204565774e-01,-4.622889070588699911e-01,5.506708514334854865e-01,-5.119050096558127802e-03,1.253711335925900699e-02,-1.016283285164262633e-02,9.740366935729980469e-01
-3.815900020453460439e-01,-4.554626784936489647e-01,5.500132186757445973e-01,-5.982155986707691532e-03,1.214100893187781624e-02,-7.912530906815930590e-03,9.710299372673034668e-01
-3.943050822308849512e-01,-4.391537650195088127e-01,5.476604441969179504e-01,-3.042630279480324981e-02,1.369322400129371897e-02,-1.925535173149592327e-02,9.674752950668334961e-01
-5.066411723297719050e-01,-2.602748050676799707e-01,5.354236172615440825e-01,5.052193029163798074e-03,2.267790724545392864e-03,7.173996223383796028e-03,9.434575438499450684e-01
-4.471007116273197912e-01,-4.307688311915813806e-01,5.150200500079231691e-01,-4.099475895698692944e-04,1.469174487315241806e-02,6.141492994306659492e-04,9.543998241424560547e-01
-4.852446284848815350e-01,-2.906738628082823905e-01,5.384527184822148760e-01,1.622966141637541271e-02,1.598379823562237102e-03,9.976892996576152556e-03,9.421936869621276855e-01
-4.799341358712593264e-01,-3.453384962933342406e-01,5.448653286019197184e-01,1.553897472355982023e-02,-1.057207620091115026e-02,1.511945529785456779e-02,9.654749631881713867e-01
-3.322297672282474301e-01,-5.025474550349668945e-01,5.562701184820805222e-01,-1.589081952741070586e-02,2.722449781434352345e-02,-3.324429835616660167e-02,9.879595041275024414e-01
-4.468756849190614333e-01,-4.272769428545017401e-01,5.021515329245067605e-01,-2.860128295075270183e-03,-1.498267294658127760e-02,1.251897680723841741e-03,9.397551417350769043e-01
-3.515415257259564830e-01,-4.862404197748705359e-01,5.534438855913841326e-01,3.274177374195210485e-03,-1.984617140883412553e-02,-2.202940078975067825e-03,9.799343347549438477e-01
-4.439181241482309526e-01,-4.385465835150557656e-01,5.406937659658570539e-01,-8.519636399579346960e-04,2.054996607410695974e-04,-2.093617116734588016e-03,9.819449782371520996e-01
-3.729560820965910906e-01,-4.589484018565601064e-01,3.485611430351891471e-01,-7.339779457615118463e-02,-4.408876375917835516e-02,9.714731125244524534e-02,8.002079129219055176e-01
-4.188297711260344225e-01,-4.077289925986852248e-01,3.978403164859749541e-01,7.184051274364589316e-04,-3.647441282100822441e-02,-6.926229937987995328e-03,8.137224316596984863e-01
-4.355987520628407106e-01,-4.474070706726662738e-01,5.435935493457997314e-01,2.033113987446478338e-03,-1.183041214943554055e-02,-7.239105331657683107e-03,9.854486584663391113e-01
-4.412390867217889090e-01,-4.335795534661743278e-01,5.020288749705286158e-01,-1.905617019228306522e-02,-9.642127387975651942e-03,3.132125133055712468e-02,9.417534470558166504e-01
-2.671073859677411400e-01,-4.384856967631850511e-01,4.571618035394060531e-01,1.661752864087771564e-01,1.303481825742577593e-01,7.117716214191091573e-02,9.094358682632446289e-01
-4.412322415656580454e-01,-4.251921399902555132e-01,4.809793141171075925e-01,5.310573022561413531e-03,-1.969864561489506616e-02,3.999492139927587203e-03,9.150058627128601074e-01
-4.277320018415953218e-01,-3.811177768358972040e-01,5.388263657795417938e-01,3.114579741434262555e-02,7.827309522003559478e-03,2.985948856527610544e-03,9.457659721374511719e-01
-4.462040534795125857e-01,-3.871161819541561466e-01,5.598377775219910424e-01,3.781604251892236451e-02,2.459088178485186599e-02,1.566361352246438063e-02,9.813292026519775391e-01
-4.500138875641608860e-01,-4.316595471719740229e-01,5.252864652072342100e-01,1.408373764895381065e-04,-1.886937570837670958e-03,5.013560467003265507e-04,9.662598967552185059e-01
-3.949337450728387933e-01,-3.915929812389563058e-01,5.199104885714982416e-01,1.830988088549015316e-03,1.411365073267806681e-04,3.594222335130147807e-04,9.131841659545898438e-01
-3.952733014168473558e-01,-3.997265485075530145e-01,5.273936080670893478e-01,-1.881407745157536587e-02,-9.322162908789195096e-04,-1.509993599346707411e-04,9.254769086837768555e-01
-4.138270134668330380e-01,-4.036753352864098643e-01,5.364307969120848396e-01,-7.542074011952853811e-03,9.229476709824414871e-03,1.400266722715367423e-03,9.454513788223266602e-01
-4.018762999238207345e-01,-4.073622097430846245e-01,5.297042726726600703e-01,-2.432283302921760260e-02,1.186082260917533174e-02,-1.472487452910914082e-02,9.358580708503723145e-01
-3.902101517627334926e-01,-3.950142766523478399e-01,5.207196573503389825e-01,-2.313412143217312943e-03,-1.182882769866292199e-04,-1.040052551321028404e-04,9.133501648902893066e-01
-3.966086786142064002e-01,-4.006595869650907971e-01,5.254726570309503630e-01,-1.407885427358738888e-03,3.684812697461689948e-03,-4.092154477953775273e-03,9.241659045219421387e-01
-4.191875233106552301e-01,-4.354159455165788062e-01,5.474056393706832058e-01,8.726857712377131759e-05,-2.480339899736985244e-03,-7.697738244703811877e-03,9.749093651771545410e-01
-3.980749374619635406e-01,-3.811309031392375313e-01,5.185228121115666999e-01,-1.500265821257327006e-02,3.514426021881984254e-03,-1.878897111200933151e-04,9.086363911628723145e-01
-4.022399620884621330e-01,-4.151058736500514157e-01,3.721709630491476517e-01,-5.891427481321272197e-03,7.284462080562626460e-04,1.428308925633409512e-02,7.813827991485595703e-01
-4.405032552769263532e-01,-4.412750537325287881e-01,5.520766543980071273e-01,7.753652288708509557e-04,-3.170534488481391864e-04,9.060476097589211918e-04,9.929683208465576172e-01
-4.382817296582945943e-01,-4.415255972184283229e-01,5.513445999069253034e-01,2.679650383185167625e-04,-1.230021656914039420e-03,8.582876303967581274e-04,9.912557601928710938e-01
-4.409823702702181936e-01,-4.411264639002719923e-01,5.521008806920449929e-01,8.303963250264814874e-04,1.547416718870031453e-03,-4.388947298727093656e-04,9.931602478027343750e-01
-4.519205897756324863e-01,-4.354002188638389503e-01,5.431273298639456293e-01,3.908017247508024233e-03,-3.277202317915710143e-03,8.363566407614117168e-03,9.870373010635375977e-01
-4.423680461789978868e-01,-4.406714218934192351e-01,5.503804912460416032e-01,5.051089394987812783e-04,-8.990380836696055394e-04,-7.580548470039031889e-04,9.919037818908691406e-01
-2.560576632613536519e-01,-5.501746289742681650e-01,6.877172110631346591e-01,-3.074897372547137908e-01,-3.754714766287868544e-02,1.063830024594495383e-01,1.255638122558593750e+00
-4.399122001147640626e-01,-4.406581176914500797e-01,5.478543924074875671e-01,6.828239345463151628e-04,8.679142912338684134e-04,-6.999393385773563722e-04,9.881423711776733398e-01
-4.488090886671067259e-01,-4.349066524060603012e-01,5.327574746503106473e-01,2.968817562737675799e-03,-3.216933877731752676e-03,4.704845872022626885e-04,9.747195243835449219e-01
-4.469791021534794684e-01,-4.343859121523047095e-01,5.293246259200186099e-01,5.701100110257170976e-04,3.220745356033867871e-03,-8.126313064812000573e-05,9.700849652290344238e-01
-4.467383565132144185e-01,-4.315749395517213260e-01,5.213375378557755235e-01,-2.159220772296430689e-03,8.558134643676428358e-03,2.286996561726946983e-03,9.607137441635131836e-01
-4.463262491235052143e-01,-4.348748654878953346e-01,5.318638857887506566e-01,1.200488626277490143e-03,-7.405144506967344413e-04,-2.421034325580336856e-03,9.725271463394165039e-01
-4.465173017548962897e-01,-4.346163549119576586e-01,5.316212204159106447e-01,-1.081164335205872951e-03,2.412228330088466745e-03,5.263077024559975050e-04,9.722538590431213379e-01
-4.382597439717251797e-01,-4.424716478401964359e-01,5.513108150561595311e-01,1.394732309440453819e-03,6.987854967780979861e-04,7.607203201500539226e-04,9.916877746582031250e-01
-4.636202372590101928e-01,-3.904888735932022792e-01,5.455074658059789749e-01,-1.421934285713598962e-03,2.183260283742979001e-03,1.242118213647902536e-02,9.748698472976684570e-01
-4.462221424215093712e-01,-4.301760101510319068e-01,5.162935252923429585e-01,-1.551323467116704543e-03,9.304192422396575374e-03,-7.029580308638768305e-04,9.547343254089355469e-01
-3.628261462531534587e-01,-4.139469253575568386e-01,1.382339434736867823e-01,1.678129353283625697e-02,-1.772042915977697919e-01,-5.464355239624058003e-02,6.191088557243347168e-01
-4.204032495956264714e-01,-3.897217926935948595e-01,2.653690372715422630e-01,8.484489948231137280e-03,1.625904306319115450e-02,-8.727807809598735894e-03,6.718794703483581543e-01
-4.201132253493667368e-01,-4.020150737143254327e-01,4.089503189248057113e-01,-2.565832455914466431e-03,-1.953544086186535800e-02,-4.459672454169691901e-03,8.209102749824523926e-01
-4.218676055762666244e-01,-4.034535581877514154e-01,3.959227329145795782e-01,6.294759804315016097e-03,-3.610843120761469266e-02,-1.856230280488494269e-02,8.118653297424316406e-01
-4.271829171455633900e-01,-4.148252092435185667e-01,4.324117956417879993e-01,1.189523218844011632e-02,-4.678064869870226378e-02,-1.773915423162443494e-03,8.575735688209533691e-01
-4.325004887423431477e-01,-4.532483035652921100e-01,5.353808701899868128e-01,1.257980441625139358e-03,-2.515196166044674896e-03,-4.785616135052179858e-03,9.784675240516662598e-01
-6.132196725338199261e-01,-2.254403652841652228e-01,6.373696260415692150e-01,-2.675890887518034104e-03,-1.566785920944101240e-02,9.660749454388731228e-03,1.109248280525207520e+00
-4.368170287103304572e-01,-4.451884691153091822e-01,5.290941428797860668e-01,5.301738702143146860e-03,2.811227599109469844e-03,-2.486313446855013907e-03,9.701892137527465820e-01
-4.273038028215965234e-01,-4.108304687231761343e-01,4.204788132816532631e-01,7.226517980610204159e-03,-2.671921278786406478e-02,-1.056285746196453709e-03,8.410366773605346680e-01
-1.587388161357564942e-01,-5.697179915788888049e-01,5.816686916416793363e-01,-1.109164370114279832e-02,-1.708195532573462266e-02,-1.039997579553893041e-02,1.011418938636779785e+00
-4.021405411740664460e-01,-3.988077775141419257e-01,3.292981850453100545e-01,2.645875410053129262e-03,-5.138519468450869487e-02,1.568759205849459826e-02,7.357014417648315430e-01
-3.666692369576178834e-01,-3.930367713246671335e-01,1.680494424114754026e-01,-1.484861589884519870e-02,-1.368257822710017627e-02,6.336369192647453574e-02,5.603449940681457520e-01
-4.142112667866658660e-01,-3.945154683389481276e-01,5.309775469039212936e-01,2.726811875273299143e-03,-3.326017147120639145e-03,4.184646461857992154e-03,9.355541467666625977e-01
-3.813191482963245171e-01,-3.778124147219913964e-01,2.500441217188219545e-01,1.824059055771720846e-03,-1.237375344141514871e-02,-2.989870505160400864e-03,6.300110816955566406e-01
-3.425490748670111940e-01,-4.809557150074050824e-01,5.502895425736515911e-01,1.790769038624272225e-02,-1.606817916271251895e-02,-4.886239931380452050e-04,9.703758358955383301e-01
-3.826686882320562422e-01,-3.866874690426215788e-01,2.904629267258865832e-01,-1.068594604250228380e-03,-1.209464321967143770e-02,1.286700087970018072e-02,6.758449673652648926e-01
-3.933973384940443463e-01,-3.843556754581572976e-01,2.976082013224455869e-01,3.185788216747688101e-03,-2.084349901786942960e-02,1.310372051138663715e-02,6.878746151924133301e-01
-5.118863727643567785e-01,-2.527407964889576975e-01,5.404133770632352229e-01,-8.530980317753084768e-03,3.421454755586573332e-03,-5.389950709434869480e-03,9.498068094253540039e-01
-4.518458094514061218e-01,-4.328710718823041148e-01,5.272456875183950675e-01,-5.923949328437631660e-04,-2.063566056668774459e-03,-1.592721863533541507e-04,9.697505235671997070e-01
-4.500724543165909308e-01,-4.380171534998170690e-01,5.321781760978684384e-01,2.268110056315101718e-04,1.116411433819265112e-03,3.375145221736686380e-04,9.762809872627258301e-01
-4.475889492443488327e-01,-4.345146057046547217e-01,5.329118703372850430e-01,1.690074840770955638e-03,2.481413791182146295e-03,-4.601718513135129524e-04,9.740436673164367676e-01
-4.488093104887810325e-01,-4.290196524331337247e-01,5.166749348920400831e-01,2.030181248243112741e-04,7.240668616885667999e-03,1.847843153684715616e-03,9.558308124542236328e-01
-4.331030179645751765e-01,-4.380700734072262570e-01,5.275559939375588092e-01,1.274404306266044024e-03,5.383532780847437825e-03,3.320307975175770636e-03,9.632169604301452637e-01
-4.337720477568456356e-01,-4.198471984294548376e-01,5.384122643097921657e-01,-3.673313284132345355e-03,-2.856176687963785533e-03,-2.672977514135224837e-03,9.653419852256774902e-01
-4.430184270578508277e-01,-4.396434619597335836e-01,5.465330851709317983e-01,2.410159703211231259e-03,1.817558736423140718e-03,-4.928721925919069338e-04,9.878825545310974121e-01
-4.405097379272568947e-01,-4.379606553685999049e-01,5.401532280091388971e-01,-8.140492454498192811e-04,2.823645714638843064e-04,5.435288074395501891e-05,9.793920516967773438e-01
-4.321230628953709463e-01,-4.473647608009938548e-01,5.279286733088198735e-01,-1.976464304780388198e-04,-6.236295314561341753e-05,2.940745537362690620e-03,9.677760601043701172e-01
-4.422532262821842752e-01,-4.394314597553308221e-01,5.407731653412649608e-01,1.455548704838970694e-03,-1.013689438627118477e-03,1.429851477293199533e-03,9.816265106201171875e-01
-4.241311730340435737e-01,-4.401135577170526836e-01,4.750492103823071854e-01,2.721101092581725998e-04,1.294978326027292201e-03,1.720270989336388986e-02,9.077692031860351562e-01
-4.128557096632121670e-01,-4.228258828899947863e-01,4.075306738611660373e-01,2.912012694396503795e-04,2.122977022559549565e-03,3.303760556477633448e-02,8.274061083793640137e-01
-4.123834306554443607e-01,-4.213713292956191570e-01,5.380709507153998983e-01,-3.627145037512265885e-03,2.699056223936689963e-03,7.337782706610028677e-04,9.550129771232604980e-01
-4.461294456469583336e-01,-4.289006490665384086e-01,5.082389053206551877e-01,-3.162879898004031763e-03,-2.450823887069118225e-03,-1.491061052338331491e-03,9.459005594253540039e-01
-4.388874137108597084e-01,-4.402239254216660513e-01,5.337076431610700000e-01,8.930848870569855537e-05,2.365083844856078355e-03,-4.040623645522727417e-03,9.732977747917175293e-01
-4.339036237491642467e-01,-4.487558092414455913e-01,5.280619337049773376e-01,-1.898762842234967768e-03,1.685328655267021459e-03,-1.615529755776795411e-03,9.694910049438476562e-01
-4.367596322781551188e-01,-4.464682818176664014e-01,5.356658503830321605e-01,-1.970408704968693546e-03,1.607996457062214023e-03,-1.275249645117941272e-03,9.773284196853637695e-01
-4.371578328990308737e-01,-4.405947937641996881e-01,5.321901253891628825e-01,-4.273894433312284686e-04,-4.380597642528617081e-04,-1.351403378979760053e-03,9.710744023323059082e-01
-4.293670099890949943e-01,-4.511834265564249602e-01,5.229181032546004193e-01,-8.162828704456343964e-04,-1.567061802685925341e-04,1.214617224191126251e-03,9.633820056915283203e-01
-4.392091994833519641e-01,-4.475009301155626895e-01,5.318593471823049867e-01,-1.652342000882263450e-03,2.313375401415865718e-03,4.932929027386461981e-03,9.752907156944274902e-01
-4.329250403764853816e-01,-4.472445720363233401e-01,5.203048678287219841e-01,-2.084843208753565068e-03,1.673347465930024973e-03,9.683545920930378831e-03,9.606273174285888672e-01
-4.385159988672561737e-01,-4.474052392012565771e-01,5.417380029378766615e-01,8.357931173381166930e-04,2.517708128497453575e-03,-2.002237154763617747e-03,9.847455620765686035e-01
-4.397163605926129870e-01,-4.155401065155890916e-01,5.453673721641576488e-01,-2.278777635884012605e-03,7.359232282648939250e-03,5.378281813811568862e-03,9.733569025993347168e-01
-4.415088830105048934e-01,-4.154060717325271379e-01,5.462673231087407100e-01,-1.876743025332274200e-03,6.684517890860408942e-03,5.274361044654282855e-03,9.751038551330566406e-01
-4.325855926859032974e-01,-4.495724823744381982e-01,5.244924807993234239e-01,-3.846146370522828613e-04,7.946105080485368986e-04,-1.653380823533833442e-03,9.656890630722045898e-01
-4.368415264543275556e-01,-4.412463296599903328e-01,5.281537180605410109e-01,-1.011060215800306701e-03,3.779997816012145334e-04,-2.259652193956055658e-03,9.672148823738098145e-01
-3.941905822409058069e-01,-3.931772913490137467e-01,5.246068322443031562e-01,2.512133278281949295e-02,-3.465809346479822514e-03,1.221316105442633642e-03,9.193434715270996094e-01
-4.120938402670936695e-01,-3.887868687020927805e-01,5.290035452979203745e-01,8.719009201292100830e-03,-6.676078675770474521e-03,-4.948170833043037328e-03,9.298970699310302734e-01
-4.586194177394711802e-01,-3.910273099440459976e-01,5.439590619356382550e-01,-5.117465220982079718e-04,7.240839996870978776e-03,1.412988501588829243e-02,9.709392189979553223e-01
-4.330248696510252682e-01,-4.337660516823664825e-01,4.500843506918423831e-01,-8.543018495823181437e-04,-5.248591438534308540e-02,6.471468817223084702e-02,8.951913118362426758e-01
-3.879709228869580029e-01,-4.332476447861574598e-01,5.365346563154700377e-01,2.805855936972091735e-02,-3.130667590897569762e-03,-6.472351091966825967e-03,9.492818713188171387e-01
-3.807875885518812176e-01,-4.122166752308358828e-01,5.308878697417744874e-01,4.881540651162337430e-02,-2.167819638549222695e-03,-4.269319312511315155e-03,9.316709041595458984e-01
-4.106786766760878726e-01,-4.078440499400492469e-01,5.355718914897241723e-01,1.169182193452008266e-02,-5.874973006377447529e-03,-1.109746970584941581e-02,9.453036785125732422e-01
-4.683091805130896179e-01,-2.669866938025795555e-01,2.990619622637404884e-01,-1.107236181568319600e-01,-2.174426804050350395e-02,-2.887319730920846761e-02,7.180520296096801758e-01
-4.136431883963120337e-01,-2.735554578148351457e-01,2.825340246886748341e-01,-1.810292502524941671e-01,-2.905702308279380780e-02,-3.277925689180958418e-02,7.147254943847656250e-01
-4.978819085173721848e-01,-2.740274834263269899e-01,4.963416960441255910e-01,-3.367388820747700944e-03,6.680821470397148298e-03,5.165949687723894734e-03,9.034810662269592285e-01
-5.079562617649995282e-01,-4.359969954890766108e-01,5.532589968806448377e-01,-4.487918086119264266e-02,1.820722256914145826e-02,-2.972405104432424006e-02,1.031832933425903320e+00
-3.342034552536520264e-01,-4.469409575935912593e-01,5.339669027266691348e-01,-6.455979341070107631e-03,1.329154741373290809e-03,-1.023478433862549161e-03,9.297517538070678711e-01
-4.587618696969116283e-01,-4.004444440279508743e-01,5.502001449121638466e-01,3.697733487545217228e-03,-4.163007351821197861e-03,1.186938879360811827e-02,9.813668131828308105e-01
-4.398155561339750497e-01,-4.374379148488948821e-01,5.486570308428646570e-01,-1.124948416685368682e-03,-1.032325633300762912e-03,2.451540117510923617e-03,9.872986078262329102e-01
-4.434412774680882019e-01,-4.101639544261899695e-01,5.458540117711684347e-01,3.420882696083587127e-03,-6.904996054878528855e-03,6.558028548209670835e-03,9.732412695884704590e-01
-2.484564918738139117e-01,-5.210183299540754875e-01,5.863074732585522586e-01,6.429231105454027984e-02,2.777523874599247683e-02,2.368475863968978051e-03,1.006666421890258789e+00
-4.408929019589790110e-01,-4.360038948597184660e-01,5.489673764673853595e-01,5.264195630034258647e-04,3.321855743573985664e-03,2.405853312518042159e-03,9.874508380889892578e-01
-4.298810079245090621e-01,-4.481493118444169754e-01,5.165550116334594044e-01,-1.837795855098694738e-04,-1.934825230790953882e-03,-5.077537640242472776e-03,9.557475447654724121e-01
-4.366480638599324338e-01,-4.351457036705635995e-01,5.427781295735123468e-01,3.969544036218932564e-03,-1.248532085047514067e-03,-2.194998784188234835e-03,9.787098169326782227e-01
-4.394055386953198417e-01,-4.474618087180289305e-01,5.478088511580974096e-01,-3.774654397357779176e-03,7.856777387609892652e-04,2.136738563627941633e-03,9.912964701652526855e-01
-4.435822113248362175e-01,-4.105091602974118570e-01,5.484082785909233371e-01,3.415972857015090597e-03,-5.041063538039020596e-03,6.558683757860376065e-03,9.759975075721740723e-01
-4.282801164269258720e-01,-3.927771294895147647e-01,5.327285110478544583e-01,8.327716272826798244e-03,-5.230059741404593544e-03,2.404424335833953586e-03,9.439209699630737305e-01
-4.990428390879549925e-01,-3.287322390639640934e-01,5.577500773038623905e-01,9.591782260792251769e-02,-5.786158082173787319e-03,6.112233346949958249e-03,9.968184828758239746e-01
-4.419847147597473214e-01,-4.375881876151927474e-01,5.334421757837563005e-01,3.084966126641145237e-03,-3.417076683568817663e-03,-2.445275213206638334e-03,9.732779264450073242e-01
-4.471807410889007683e-01,-3.345107309409207086e-01,5.257094794519412417e-01,1.353498480589888052e-02,-7.544892968239055864e-03,-5.115785541133924046e-05,9.221251010894775391e-01
-4.401202793483983688e-01,-4.413636717340606586e-01,5.508501720658114387e-01,-1.653054122922923298e-03,4.123973656348158294e-04,-5.849656801577841599e-04,9.915976524353027344e-01
-4.387822428145787268e-01,-4.394944606267036646e-01,5.469281904076810363e-01,-1.791287369115051209e-04,1.322346574758029216e-03,3.172376075574885948e-03,9.860847592353820801e-01
-4.392623902776437994e-01,-4.391313669898787020e-01,5.470022654964065145e-01,-3.242693540966624954e-04,-1.689345021168058274e-03,-4.069703710857947195e-03,9.862288236618041992e-01
-4.382702412966644756e-01,-4.454706438535748214e-01,5.454233218816085804e-01,-2.099004885226735465e-03,-9.095119762486025673e-06,-1.168394136036338127e-03,9.873222112655639648e-01
-4.390894933706951941e-01,-4.366466644727609037e-01,5.383613478987656631e-01,3.648789862156369456e-04,3.072950286582682572e-03,8.600798114877036479e-03,9.763600826263427734e-01
-4.474289402863574350e-01,-3.993940359417523234e-01,5.426121679523249197e-01,2.083818231521880962e-02,-7.442130710226604884e-03,1.124057537826719799e-02,9.678739905357360840e-01
-4.518500504632061432e-01,-4.008991858761573601e-01,5.462419712868427091e-01,4.244506133355625474e-03,-1.848836820767926249e-03,1.166461087738535421e-02,9.738596081733703613e-01
-4.429033768962100659e-01,-4.387257662054365182e-01,5.422125003283690958e-01,-3.149870936335350869e-04,-4.792708813543404209e-03,5.935487820625868181e-03,9.831227064132690430e-01
-4.372306263253707415e-01,-4.375317984928783765e-01,5.307943365378334777e-01,2.303262412432606010e-04,8.905259231573210699e-03,5.211959675790924472e-03,9.683405756950378418e-01
-1.580614421808530512e-01,-6.514060400871906076e-01,7.682656327191906831e-01,1.197069384735198472e-01,4.555732225682831982e-02,-1.037534934777177217e-04,1.267945170402526855e+00
-5.864378882003874471e-01,-9.450556781079202939e-02,6.241699356217168537e-01,1.562390053060949413e-01,7.173800488538632433e-03,1.977449961679909538e-02,1.089307546615600586e+00
-6.185564608502246431e-01,-9.714934565543165146e-02,6.021536849477341358e-01,4.498200516115682945e-02,-4.552552872289776509e-03,2.684698931261431804e-02,1.064803361892700195e+00
-2.258274947689042911e-01,-5.847958295581843213e-01,6.621002516837349861e-01,1.239561004292525498e-01,1.250174233321434819e-02,8.787352925495121522e-03,1.132611036300659180e+00
-5.814502575928522932e-01,-1.170707409991937620e-01,5.102567608928919585e-01,1.806022455344316602e-01,1.859490730294324073e-02,1.036897119543691570e-01,1.015701532363891602e+00
-4.177612438464398115e-01,-4.206721001509408087e-01,5.406297130027387654e-01,8.753553196495997279e-03,-2.042920742055402087e-03,5.814486185932597230e-03,9.600287675857543945e-01
-3.464143861590500140e-01,-4.123221096724462020e-01,5.272189360050815177e-01,6.259917277891471898e-02,-5.236539926234399199e-03,-4.396601339027562082e-03,9.149067997932434082e-01
-3.882181952943662417e-01,-4.292351253240961895e-01,5.386675675767399474e-01,1.443933276541327707e-02,-5.872525908799629268e-03,2.747478762609003537e-03,9.484562277793884277e-01
-3.849908868037777432e-01,-4.161482996403675916e-01,5.317818075437765746e-01,4.087263370823469855e-03,4.226496751359254921e-03,6.995242431665516306e-03,9.328760504722595215e-01
-3.951748300300678141e-01,-3.910881161905431780e-01,5.212303477917110683e-01,1.521193294728913044e-03,6.123112900626470102e-04,-8.690532258009448386e-04,9.143742918968200684e-01
-4.321703744473270881e-01,-4.192477624583352269e-01,5.430100437390940060e-01,-8.469371621023894263e-04,-8.839863221024403528e-03,9.385373586269819823e-04,9.689072370529174805e-01
-4.810768580280974094e-01,-3.403471060095234479e-01,5.368062080932886060e-01,-2.534311091968337488e-03,1.021380673843617394e-02,2.336931256639835502e-02,9.563550353050231934e-01
-5.086119214444921877e-01,-3.136950177062198808e-01,5.485678682641922377e-01,7.881616636893712391e-03,5.715880898074212658e-03,-1.894459501168823876e-02,9.751515388488769531e-01
-5.117501791400526079e-01,-2.972927036187151817e-01,6.076739119627697638e-01,-1.313771872000019103e-02,-1.510222332411484056e-02,-1.984975464324528847e-03,1.029683113098144531e+00
-4.457353023440341344e-01,-4.349938763290007171e-01,5.420166597454746382e-01,2.323610406328826313e-03,-1.218136988212007972e-03,7.833001378118117572e-03,9.825294613838195801e-01
-4.404202434039302672e-01,-4.393535404289605761e-01,5.281862199307300054e-01,4.676707085413666157e-03,-3.737337138941494025e-03,1.236465481795128276e-03,9.681314229965209961e-01
-4.403057349795257425e-01,-4.390846695977580483e-01,5.372598290255411468e-01,3.274586304130261676e-03,-1.880855360332278191e-03,3.987406470111603922e-03,9.770019054412841797e-01
-5.891967596793531436e-01,-2.996400702539266936e-01,6.342749056250523987e-01,-5.113537502468226692e-02,8.047593808561449152e-03,4.441565940884693690e-03,1.111107349395751953e+00
-5.788621121094638111e-01,-2.268740167029527077e-01,5.855770803273803171e-01,-1.687316782666941489e-02,2.202348889846033036e-03,-2.798626886673610120e-02,1.035936236381530762e+00
-4.349276773821256215e-01,-4.316275520220131390e-01,5.479274627372689999e-01,-2.016770236220511228e-03,1.592245722166333623e-03,2.318309155027971965e-03,9.812275767326354980e-01
-5.140083670554723705e-01,-2.695299227189611457e-01,5.465772701091635710e-01,-7.618123608146683485e-04,6.165920367035812415e-03,2.478361963443633659e-02,9.629536867141723633e-01
-4.455758340086723446e-01,-4.822988428050663523e-01,5.545366001338216666e-01,-5.708389487188046674e-02,-4.057840835296310650e-02,3.585517677646724022e-02,1.028043270111083984e+00
-4.522917672634714226e-01,-4.340062287194995094e-01,5.420907326877215660e-01,5.012632577290010438e-03,-2.432689231463381480e-03,1.088383759683100860e-02,9.855945706367492676e-01
-3.973946041238668458e-01,-4.670564119054528840e-01,5.446875607572320144e-01,-1.340145853719015671e-02,4.517815094717144396e-03,5.537892379559201765e-03,9.791275262832641602e-01
-4.012858913433226538e-01,-4.624865487896981930e-01,5.077728122159355095e-01,-9.171289946150479322e-02,2.722073344061382884e-03,1.827632940151172752e-02,9.550006985664367676e-01
-4.318559564057442013e-01,-4.101467961012591479e-01,4.474199537461428511e-01,5.368911474143674492e-03,2.703596120239200058e-03,2.100206591049251070e-03,8.686948418617248535e-01
-4.400177010756533558e-01,-4.355938440620418795e-01,5.402029525902902751e-01,1.854036608118284774e-03,5.715737576502637543e-03,1.019522816161671022e-02,9.782310128211975098e-01
-4.341413297251962011e-01,-4.375827610933324396e-01,5.245814870496658955e-01,1.733973433646633340e-03,-5.079314114031221669e-03,-1.795495605893666653e-03,9.604981541633605957e-01
-4.351007750737671542e-01,-4.208877451590668506e-01,4.634849863953984794e-01,6.595271554328653932e-03,4.975786118584487119e-03,2.928623735358001478e-03,8.916934728622436523e-01
-4.368811436816555926e-01,-4.227351129402462382e-01,4.753252835941568222e-01,6.774528589073767343e-03,-1.397821623278132017e-02,1.180688223726178085e-02,9.058468937873840332e-01
-4.467815775266794076e-01,-4.366290321184260748e-01,5.462727552801049935e-01,1.484354019124500389e-03,-1.282484047769231464e-03,5.101027090664782271e-03,9.880625009536743164e-01
-2.517002103521340239e-01,-5.227785667635405087e-01,5.463186247430898979e-01,1.069967645208344011e-02,4.624035456712071238e-03,7.795602917622197411e-03,9.629294276237487793e-01
-3.905493359678047227e-01,-4.099899746406268086e-01,3.577336147062420979e-01,5.224145811422999455e-03,2.384585460724114505e-04,3.606193269913881769e-03,7.582700252532958984e-01
-4.383601216773710396e-01,-4.330343331620111758e-01,4.997909411713113981e-01,6.177949541304270792e-03,-1.372713347692634117e-02,3.543927524296678656e-03,9.358829259872436523e-01
-4.389459427960715199e-01,-4.368282611647302804e-01,5.435758644715199539e-01,-1.188549128418896943e-03,-4.333962576793978262e-03,4.178773301540675451e-03,9.815222024917602539e-01
-4.372375497252545262e-01,-4.462329740811720735e-01,5.317191594532030274e-01,1.397090259907346867e-03,-3.300655586979334491e-03,4.072407832505421481e-03,9.735309481620788574e-01
-4.441566453920710034e-01,-4.330899396817942115e-01,5.158565723178710760e-01,-2.891603259925150816e-03,1.255471043933050618e-02,2.244124440424416674e-03,9.547966718673706055e-01
-4.446187227304806422e-01,-4.425844247505421047e-01,5.390771614924769750e-01,-2.893276730552098597e-03,6.532691711051192077e-03,-5.586506715687689648e-04,9.827587008476257324e-01
-4.386077378515391700e-01,-4.290964206759690369e-01,4.878180261133614470e-01,-5.687958592974885243e-03,1.089731570987172334e-02,3.651477414669055364e-03,9.219744801521301270e-01
-4.474951291518751706e-01,-4.354239620571203062e-01,5.340816773669121442e-01,-3.222516573165210528e-03,1.046614214399222212e-02,6.466477816359695761e-05,9.757816195487976074e-01
-3.846232465942899248e-01,-3.976556744455710390e-01,5.211772922990004497e-01,-8.796647255218672037e-03,1.143099536890243269e-03,-5.596681995946217909e-04,9.125164151191711426e-01
-4.013689739066386153e-01,-3.836899241013773110e-01,5.259108476116404196e-01,-1.062486981987824375e-02,-8.994934558915793315e-05,2.269366089422788710e-03,9.187606573104858398e-01
-4.371879498199527925e-01,-4.409173798934155064e-01,5.277750785691769364e-01,-3.896105463280960437e-03,4.359770595151020271e-03,2.449983969610093366e-03,9.668954610824584961e-01
-3.839494160926079647e-01,-3.975588317896815993e-01,5.202087464282846296e-01,-1.058150171781221775e-02,1.343157965023867662e-03,1.184592635175544043e-03,9.112287163734436035e-01
-4.387571062228650121e-01,-4.367637979679740989e-01,5.389740326574593565e-01,-5.615932152962149803e-04,-6.911144993965335093e-04,6.817832181233536223e-03,9.768086075782775879e-01
-4.310033976590390004e-01,-4.328552415634628336e-01,5.483764252809971707e-01,-1.200899317336335008e-03,1.915525129878824229e-03,1.468176177564773938e-03,9.803181886672973633e-01
-3.948305085406429438e-01,-3.914544381199622780e-01,5.223843322111572096e-01,-1.594548996949197561e-03,-3.057378276133707290e-04,4.843035234128809097e-04,9.155361652374267578e-01
-3.861229754930433078e-01,-5.308465949979257470e-01,5.714929210215757838e-01,-4.495675706117979384e-03,-2.993180447099860059e-02,-3.253401701661097663e-03,1.038914322853088379e+00
-4.342245352919777424e-01,-4.451621651001542723e-01,5.309358999391065037e-01,-1.295830630666784623e-03,-2.217575725545833324e-03,7.332661592749399127e-04,9.706864953041076660e-01
-4.403729005914193140e-01,-4.409416523331258220e-01,5.478225487880218347e-01,-6.108949347596002999e-04,1.732003648899361516e-03,3.474326076713064523e-04,9.884852766990661621e-01
-2.125944258239332307e-01,-6.954248437299407337e-01,6.321696133142020724e-01,1.719811400916778088e-01,-4.643977047806056510e-03,6.328532418758066845e-03,1.201476812362670898e+00
-2.627760935636533346e-01,-5.283632007091814131e-01,5.450488094334131617e-01,1.967319250094149222e-02,8.173916825193892205e-03,-1.887607376682852792e-03,9.690395593643188477e-01
-2.305678419224373443e-01,-5.332525063017456990e-01,4.232201514999248682e-01,1.638735502870039551e-01,-7.448759150854147859e-02,-7.372067027958566221e-02,9.112965464591979980e-01
-4.001917165645847985e-01,-4.554476222154561493e-01,5.331636554227529023e-01,2.375399272990013147e-02,2.037843971801270998e-02,-1.572941592366171098e-03,9.637037515640258789e-01
-3.985444281059036253e-01,-5.313795941794409172e-01,5.497765328311512434e-01,1.555619496274692794e-02,-4.408807924373714382e-02,4.234060512489377925e-02,1.027065515518188477e+00
-3.245990941242999916e-01,-4.932486975576600985e-01,5.371978651099623692e-01,2.388180745546656519e-02,3.461832410954224226e-02,2.017613901021877987e-02,9.607319831848144531e-01
-5.176059116381634961e-01,-4.262532087578156936e-01,5.083043363818915417e-01,1.706631848079321820e-02,9.340955294632137876e-03,1.086868927106527105e-01,1.001844048500061035e+00
-4.167590503201368812e-01,-4.345196508581354311e-01,4.341253722542608440e-01,-4.706159867654260628e-03,-1.072429124381862192e-02,1.618689769084997662e-02,8.605983257293701172e-01
-4.219022787058809287e-01,-4.392141797678467685e-01,4.760086454049959892e-01,-4.082681406447347464e-03,4.813600246905336798e-03,1.846619034561815947e-02,9.073206782341003418e-01
-4.185713653751228502e-01,-4.345813203644552924e-01,4.615193934266150766e-01,-8.391661467946542538e-03,1.032233409376526363e-02,-7.098502706883912106e-03,8.885878324508666992e-01
-4.236756377682239783e-01,-4.385520218484959543e-01,4.689386469210152786e-01,4.852846733470102540e-04,-3.520160741352518045e-03,2.176074711056184482e-02,9.009544253349304199e-01
-4.149195439198043456e-01,-4.183081303437758969e-01,4.049231411765147337e-01,9.633927623136988002e-04,-5.305021772000264105e-03,3.009794784635813625e-02,8.232475519180297852e-01
-4.114901912732435996e-01,-4.258422799506709211e-01,4.128346801723735693e-01,-7.387248529850635494e-03,7.042306122712463368e-03,3.889574942988330286e-02,8.345054984092712402e-01
-4.141378558763972872e-01,-4.247616941585098949e-01,4.210652790647125832e-01,5.477779376027818586e-03,-7.418410230097363320e-03,3.229897840334171322e-02,8.425763845443725586e-01
-4.298613307047909893e-01,-4.374309660457708082e-01,5.049394424829253269e-01,4.301323494013057150e-03,-1.469359859168108823e-02,2.430982367362138040e-03,9.389924407005310059e-01
-5.026015887776563718e-01,-4.190898049675260695e-01,4.320445606177888420e-01,-2.138178519592690355e-02,2.802355021140086333e-02,2.022926343446226297e-03,8.978994488716125488e-01
-4.320976117013271001e-01,-4.458047643202623367e-01,5.402128953626638141e-01,-2.500205879035484729e-03,-1.374864605087150471e-02,-1.463901786346448984e-03,9.795383810997009277e-01
-4.086868160766710667e-01,-4.087819463992746760e-01,3.682683176904313349e-01,6.394459708804610398e-03,-1.208675001517188659e-02,2.125932008932375147e-02,7.782351970672607422e-01
-4.049822655533709126e-01,-4.055854069756629210e-01,3.513191454067451369e-01,5.349621119189565920e-03,-2.442156815354371013e-02,3.828085794865745961e-02,7.607362866401672363e-01
-4.036591811889294057e-01,-4.232787180211018963e-01,4.028126957312040402e-01,3.480690430559975519e-03,5.397937953631700737e-04,3.364809899079614780e-02,8.185586333274841309e-01
-4.140192446416333660e-01,-4.281067956446874545e-01,3.920623109400789286e-01,-1.611425100861847357e-02,-2.748757631329029529e-03,3.427940050392678378e-02,8.158729076385498047e-01
-4.365519754335831504e-01,-4.354899600926371295e-01,5.086569766400079740e-01,7.659569911008298933e-03,3.622903690405548070e-03,-3.384093888886803916e-03,9.448105692863464355e-01
-4.032112174725639986e-01,-4.043220120750250501e-01,3.486486913463110460e-01,9.203558802685375337e-03,-1.324987349502226852e-02,3.997778820382916903e-02,7.561118602752685547e-01
-4.396477670049528941e-01,-4.421537979084957382e-01,5.492210953128791040e-01,1.166643788146122561e-03,1.216744619041740250e-03,2.313270716747320432e-03,9.901366829872131348e-01
-4.325875580898125849e-01,-4.478520478192363208e-01,5.208692412177037268e-01,-2.058456456556699739e-03,-2.917770370964930735e-03,-6.660734861688423492e-03,9.612690806388854980e-01
-4.366572015763194869e-01,-4.468748674363274831e-01,5.293608925607408144e-01,3.384842908621361955e-04,-1.870211561977351902e-03,4.782136593924330055e-03,9.712081551551818848e-01
-4.279885586730723390e-01,-4.364829648441908572e-01,4.937558673900526163e-01,-7.600507589978358972e-03,9.558504241147375291e-04,-7.392268704826325358e-04,9.261167645454406738e-01
-4.323769593861175320e-01,-4.517218975398756831e-01,5.277332533457925745e-01,-8.296973734054540264e-05,-4.604436401408894567e-04,1.399660215224821525e-03,9.699307680130004883e-01
-4.327697087313892577e-01,-4.476711980646701505e-01,5.306433939025797519e-01,1.058030092793061164e-03,2.230817815583327392e-03,5.327880150408284034e-03,9.710028767585754395e-01
-4.328567194644886151e-01,-4.516204276052345756e-01,5.304789343833329340e-01,-1.480325732789587257e-03,1.194786751720518497e-03,2.167506136223598407e-03,9.728660583496093750e-01
-4.369214044256747864e-01,-4.391600672947733597e-01,5.247394561411578007e-01,1.402245977254488150e-03,7.033346030968870045e-04,-8.643771820867659616e-04,9.627871513366699219e-01
-4.388148999456438770e-01,-4.495274415858678818e-01,5.367136891875704530e-01,-2.444973473493666609e-03,-1.571746477892535174e-03,-2.555605928316956148e-03,9.809516668319702148e-01
-4.365552937964490843e-01,-4.473821829488436319e-01,5.325475556956593692e-01,-8.815075175621121069e-04,9.160490263663488260e-05,3.652925900057887171e-03,9.745831489562988281e-01
-4.367262067206227893e-01,-4.494353140609272379e-01,5.362983251027175768e-01,-6.215903729382362720e-03,-4.392304774625299972e-04,-4.367009946934510660e-03,9.795296192169189453e-01
-4.323794488989298190e-01,-4.481095145723109630e-01,5.237946644519542172e-01,-4.490347659696690939e-03,1.915178822835778699e-03,-8.032256426701385801e-03,9.642728567123413086e-01
-4.369305862471682400e-01,-4.477466129848274301e-01,5.380217955324223533e-01,-2.208429050532196951e-03,-1.859111706426227941e-03,7.343658214735062501e-04,9.804187417030334473e-01
-4.409913312059926538e-01,-4.405947845408038077e-01,5.460878955993559991e-01,-3.699078747470001868e-03,-4.154238369881216135e-03,-3.785972970214358801e-03,9.869498014450073242e-01
-4.374430667214564972e-01,-4.459529880902076138e-01,5.394808328771463213e-01,-1.604761125522369963e-03,2.001662313571869398e-03,2.109377488607894115e-03,9.812234044075012207e-01
-4.446715249582990914e-01,-4.379737650724137565e-01,5.404900555747994551e-01,-3.183900546491139159e-03,4.115017495462195904e-03,1.578616358986481300e-03,9.818750023841857910e-01
-4.383363911267477153e-01,-4.441827815385638312e-01,5.467235923070201675e-01,-1.438238177695297815e-03,2.472927128629116671e-03,8.903543274026537826e-05,9.880086183547973633e-01
-4.408432891417180532e-01,-4.416728434849985230e-01,5.462732361490008071e-01,-2.827996231628659117e-03,2.001141010775464406e-03,-1.320239431488052281e-03,9.875524640083312988e-01
-4.451987418497144744e-01,-4.384877952040232563e-01,5.440947094190671240e-01,-1.661738402063995222e-03,-9.526600264938283203e-04,9.701655925056919087e-04,9.859620928764343262e-01
-6.079471535895977219e-01,-1.253557942711105988e-01,7.750138790124139199e-01,-2.988918050903606460e-02,-6.436567223209586908e-02,4.024230070992360596e-03,1.221977114677429199e+00
-4.435502363535895887e-01,-4.317028221058922255e-01,5.150080425761703884e-01,-5.261072672937283472e-03,-2.037908277722242506e-03,-2.349852588732986337e-03,9.527486562728881836e-01
-4.301292055655315805e-01,-4.286182652186465436e-01,5.479897516676840441e-01,-2.014925960989455693e-04,2.501734204340529122e-03,-4.620495748099040685e-03,9.774067997932434082e-01
-4.353722255211522896e-01,-4.249679964540583055e-01,5.477465626100804785e-01,-3.706134849093807235e-03,3.209890381184561312e-04,1.271504082435874440e-03,9.779818654060363770e-01
-4.419731495680258027e-01,-4.419189185950762599e-01,5.546969626581663704e-01,1.172327965663378795e-04,1.228570536268196959e-03,2.784784103844248896e-08,9.966452717781066895e-01
-4.323006268757114690e-01,-4.380817217440748923e-01,5.480808919263379098e-01,-2.183459583750359256e-03,7.174218571275790780e-05,-2.081256904343989529e-03,9.832987189292907715e-01
-4.360266556094062884e-01,-4.359463925208336699e-01,5.502643225485931433e-01,1.538511344395555478e-03,3.045313424634192839e-03,-5.361993819502567163e-03,9.863122701644897461e-01
-4.325591833192150015e-01,-4.383508132964377135e-01,5.491096738987988335e-01,-1.228496393056701264e-03,-9.329439133104912697e-05,1.456592868267472720e-03,9.845830202102661133e-01
-4.453061084225722888e-01,-4.386285927970345333e-01,5.455743160479447074e-01,-3.078848843111605619e-03,-1.034093425221559821e-03,-2.886531498751070297e-03,9.875872731208801270e-01
-4.472014011282327561e-01,-4.368343723799586464e-01,5.351680493766479696e-01,-1.892008397302802998e-03,-1.717279237769408703e-03,2.322237678721503044e-03,9.772454500198364258e-01
-4.433795069501978992e-01,-4.366775096510679410e-01,5.307307729525072570e-01,-3.081031483251905640e-03,2.788170086489766709e-03,2.587289885797121845e-03,9.708136320114135742e-01
-4.401002822942972070e-01,-4.397257619128755457e-01,5.391596828364004779e-01,-3.721497522165237524e-03,2.925627034683826212e-03,2.812901167161037212e-03,9.791192412376403809e-01
-4.381559956008322931e-01,-4.394539701475813631e-01,5.432350445698201913e-01,-3.329665446211341846e-04,-3.224805949401225898e-03,-3.922592484824830375e-03,9.820802211761474609e-01
-4.449619916729141700e-01,-4.378617234221807708e-01,5.399155042401442284e-01,-2.573178157472070290e-03,3.684009984763939906e-03,1.531359634380807366e-03,9.813810586929321289e-01
-3.232361003462335125e-01,-4.662617657691033868e-01,5.366344924681282214e-01,-6.220046233160912014e-02,-1.446210843121955442e-02,-9.756853209247022931e-04,9.460731148719787598e-01
-5.017337017713530134e-01,-3.363871514516073025e-01,5.652323697088296184e-01,-9.825375895654028802e-02,-1.272889132203149781e-02,-2.951874208680009548e-02,1.010642647743225098e+00
-3.770306114900128791e-01,-4.580363925550289816e-01,5.409355172807441825e-01,-2.025521797385977998e-02,9.180015104813970574e-04,4.489924583731947499e-03,9.617058634757995605e-01
-4.388358398525810111e-01,-3.932485654852512225e-01,5.381699104422252855e-01,-1.820330915952492884e-02,-2.655986352396414070e-03,7.832020287562389133e-04,9.555608034133911133e-01
-3.285569771739061951e-01,-4.530386350612918278e-01,5.305764790127041053e-01,-2.551594342185624018e-02,-1.471187055676144786e-03,7.495161772015767471e-03,9.288060069084167480e-01
-3.574231258882878959e-01,-4.421670702018429822e-01,5.355245482842333482e-01,-1.102288698093957346e-02,-7.975094782459521067e-03,1.179324999428934054e-02,9.387127161026000977e-01
-3.618277442948036882e-01,-4.271790066763144211e-01,5.315457236830642973e-01,-1.644597868257861167e-02,-9.746288155871495051e-03,1.133877778327794898e-02,9.285753369331359863e-01
-4.292100966738670031e-01,-4.467066531375686878e-01,5.141542664457819933e-01,1.765436242711141768e-03,-3.277087670801270250e-04,-5.621642945787648331e-03,9.522880911827087402e-01
-3.627139608578018315e-01,-4.086484041803985501e-01,5.208087356728586803e-01,-2.115475596232398864e-02,-5.579935219813337080e-03,5.741624857537929415e-03,9.082077741622924805e-01
-3.909911718609680453e-01,-4.226663335883847350e-01,5.315783924259004367e-01,-1.303077776161381401e-02,-6.209362618031935913e-03,6.305494424790544783e-03,9.392043352127075195e-01
-5.386859443169158546e-01,-4.087403264708783235e-01,5.559836959642039389e-01,-4.091864161863444788e-02,-1.050875481110312426e-02,1.883568659064786648e-03,1.038414597511291504e+00
-5.035235714441709254e-01,-2.835420846291069608e-01,5.390619799666735990e-01,-3.822040797501131178e-03,1.266531650554744400e-03,-2.967886317459450529e-02,9.532670974731445312e-01
-2.958918979068357880e-01,-4.857185502927152121e-01,5.429319688134713884e-01,1.623129518432192206e-02,2.253006914720573264e-03,7.362520771070494782e-03,9.486089944839477539e-01
-4.743297765792349185e-01,-3.742391936989713508e-01,5.531666062705198339e-01,-4.786503822888876075e-03,6.782031213209464837e-03,1.852748288555594244e-02,9.819169044494628906e-01
-5.551207526345032228e-01,-3.213401830464138187e-01,5.493121806880865154e-01,-6.005979096775847237e-02,-4.338455334798580615e-02,8.964743973266861912e-03,1.016336441040039062e+00
-4.867034135522164684e-01,-3.935925989105621969e-01,5.335370121020981404e-01,2.148260393877681265e-03,4.810370618940069780e-03,4.102197575383161737e-02,9.796409606933593750e-01
-4.195481972961511152e-01,-4.107223287070129736e-01,3.988065392117911001e-01,-1.008259855293013908e-02,2.024515513125036900e-02,3.997470515576571209e-02,8.178558349609375000e-01
-4.203194384424005503e-01,-4.679611547510824088e-01,4.098034108666823716e-01,-2.796914292732044505e-02,1.698215037461585017e-02,3.381521559761376666e-02,8.588157892227172852e-01
-4.151633012834201608e-01,-4.370266982395291655e-01,4.545592277401975245e-01,1.449210848679713740e-02,1.041307572784727110e-02,-1.020619777260131991e-02,8.815771341323852539e-01
-4.171539951695197312e-01,-4.241371846988319927e-01,4.262434265359441588e-01,-8.895798217783856821e-03,9.822380472178005376e-03,2.554414958670105096e-02,8.483760356903076172e-01
-4.414311789857199297e-01,-4.395030930759623589e-01,5.516914871006309840e-01,9.540376686792751727e-04,5.054626951292303608e-04,-2.523783176066407476e-03,9.921714067459106445e-01
-4.343062289881391425e-01,-4.396632806632617130e-01,5.249217706280279172e-01,9.931284982489692326e-04,8.922683735140643935e-04,-1.459393603274368196e-03,9.619238376617431641e-01
-3.991895244072834470e-01,-4.058079183582340987e-01,5.292172692420809010e-01,-3.473868849840369265e-03,-7.028346538229092791e-03,-9.138884277278323896e-04,9.318339228630065918e-01
-4.336476962710316685e-01,-4.491018616834621113e-01,5.283554988702238164e-01,2.316258389773364918e-03,1.468025053088746669e-05,-1.971328203251000288e-03,9.698369503021240234e-01
-4.345116662045665490e-01,-4.460020804096527236e-01,5.308248054621396150e-01,2.505458254827452012e-03,2.255680292959787755e-04,2.425715200971121418e-03,9.711515307426452637e-01
-4.411281663810407427e-01,-4.438071361405450110e-01,5.492281072758721239e-01,3.628089684228486943e-04,-1.561532395874109993e-03,1.718807348251387077e-03,9.917068481445312500e-01
-4.385103494108292810e-01,-4.410679755595741103e-01,5.514001177652836372e-01,3.014838535581688744e-04,-6.891226966290773604e-04,-1.056373839270582492e-03,9.911943078041076660e-01
-4.341505864333434217e-01,-4.472890786089995241e-01,5.291247340006249855e-01,6.711727143405570202e-04,-5.467580243658276594e-04,3.039089093789164829e-03,9.699267745018005371e-01
-4.460370605309019743e-01,-4.330901138883561652e-01,5.273755589983178949e-01,-2.066277532077953789e-03,-5.890906652108092792e-03,-1.608898285103239293e-03,9.670686125755310059e-01
-4.432280437289722874e-01,-4.348635545706713290e-01,5.273242900922310294e-01,-6.236478445726694646e-04,-7.113476281654663655e-03,-1.914117970993247514e-03,9.664820432662963867e-01
-4.399103404841472886e-01,-4.365294993806986268e-01,5.256317479067555976e-01,-5.403443781478514674e-04,7.722179849819321002e-05,-8.089580278408579038e-04,9.638575911521911621e-01
-4.489195994719502036e-01,-4.345555020816569969e-01,5.307126539652682329e-01,-1.106927638435854051e-03,1.516141326414193130e-03,-1.658181429972542271e-03,9.725394248962402344e-01
-4.203055828574868702e-01,-4.242614672881365734e-01,5.404758846358967972e-01,7.299355658232045685e-03,-9.351866344233570813e-03,-3.760699907832948732e-03,9.630067944526672363e-01
-4.352850051882984905e-01,-4.249699721261469554e-01,5.472004446615222895e-01,1.062831043868850151e-03,-2.802492439071212725e-03,-4.814936948454731983e-04,9.773828983306884766e-01
-4.420743152647266250e-01,-4.399768212343734275e-01,5.470721073590388839e-01,6.157846816539782643e-03,3.834730823440858204e-04,-6.623550551673846112e-03,9.882237315177917480e-01
-4.115273375233990949e-01,-4.143868187822179472e-01,5.355448524927505227e-01,3.498545160862747642e-04,-4.717737804529453967e-03,-3.776693617129229033e-03,9.485630989074707031e-01
-4.364883261404510773e-01,-4.401635709433180943e-01,5.302227707359092879e-01,-1.210713914138908864e-03,2.286580201507232638e-03,3.456384256817526292e-03,9.685828089714050293e-01
-4.268950167282206110e-01,-4.257717599611940962e-01,5.445292467973000816e-01,1.972244964077406616e-03,-4.588692217697027190e-03,-5.020420959324646245e-04,9.709020256996154785e-01
-4.193491644561898046e-01,-4.253128752964137060e-01,5.425709256654668300e-01,-1.567690060553667171e-03,2.448595918694584841e-03,-3.429065256588329814e-03,9.649471640586853027e-01
-4.431702938022825666e-01,-4.403541910265852954e-01,5.513627227269226605e-01,6.972779753814208666e-04,-4.156798991302990392e-04,-7.869833174213851801e-04,9.931299090385437012e-01
-4.390817694687550454e-01,-4.481586942743142621e-01,5.446980943236546802e-01,9.389135442128438303e-04,-1.827257454042447403e-03,2.409053080935779322e-03,9.883648157119750977e-01
-4.419339156840780269e-01,-4.425156394210606470e-01,5.527084642721824537e-01,1.487603344278037171e-03,-2.547560565802421987e-04,-1.128195839610459088e-03,9.949387311935424805e-01
-4.430620168631720923e-01,-4.415904169826708192e-01,5.527782064345769797e-01,1.216365759546462469e-03,-2.106513971024952681e-03,1.306042832377300213e-04,9.951142072677612305e-01
-4.424759017634785074e-01,-4.419247345232656388e-01,5.544640142478903799e-01,-2.665492108806231686e-06,1.125566936636546904e-03,-5.799452848176896354e-10,9.966663718223571777e-01
-4.414601657641713528e-01,-4.398767978244275123e-01,5.477846687789142965e-01,1.331472852540864938e-03,1.802509459579922178e-03,-2.764568011925745347e-04,9.884618520736694336e-01
-4.417649761187286694e-01,-4.411569555886832306e-01,5.504993858398036233e-01,1.219675013015072236e-03,-2.156212516334778226e-04,-1.415056818326122399e-03,9.919658303260803223e-01
-3.418894114614623447e-01,-4.251022803549246998e-01,5.487765870666483359e-01,-6.920795628660925125e-02,7.805598764490367242e-03,1.813694177212315812e-03,9.428080916404724121e-01
-4.424941351193066308e-01,-4.418720812204297022e-01,5.365318098802798197e-01,8.225403295877026927e-03,-2.924264944763966482e-03,3.217776015327412399e-03,9.788477420806884766e-01
-4.569973040820035637e-01,-3.209905778939272647e-01,5.280459660093662633e-01,-1.894628570071651974e-02,-8.452579669261283540e-03,1.444179526181390769e-02,9.256092309951782227e-01
-4.382648607825225251e-01,-4.417349591746332904e-01,5.483352700547897696e-01,3.830523352958102048e-04,-1.072346354027999254e-03,3.268169066543020682e-03,9.883579015731811523e-01
-4.122933170106410916e-01,-4.242505362392658408e-01,5.402219672903562087e-01,3.783187111884639495e-03,-2.233460033873340810e-03,-6.687448187486476348e-03,9.586499929428100586e-01
-3.883417043901954968e-01,-3.874399018581201615e-01,3.034676985120258186e-01,-4.081127296289652900e-03,5.744096660818159058e-04,2.032996483221227810e-03,6.914047598838806152e-01
-4.090856298917679434e-01,-4.060592690395563586e-01,5.336371773598066470e-01,1.459326853458818574e-02,-3.286687473218651706e-03,-7.493091706299836660e-03,9.416592717170715332e-01
-3.994275791692804001e-01,-4.101516714608899883e-01,5.305022873368521186e-01,2.227609428707968617e-03,2.538544831537271982e-03,-3.895020411281335283e-03,9.353806376457214355e-01
-3.985504792381749373e-01,-4.015114213315771341e-01,5.268759313283759571e-01,9.315599854229508021e-04,-2.515322565773269337e-03,-3.599766087999636127e-03,9.269430637359619141e-01
-5.337974294616327775e-01,-2.645420871946675967e-01,5.529809683552983079e-01,-1.169461758408512839e-02,-9.485024855743299024e-03,-1.882883805238747335e-02,9.811771512031555176e-01
-4.452579745415057855e-01,-4.385309867187268673e-01,5.465152261399918165e-01,-1.580498447915610260e-03,-3.739980614034359337e-03,3.287248070604993633e-03,9.884682893753051758e-01
-4.398150867751979276e-01,-4.402847328166621943e-01,5.404532579842465934e-01,-2.553068797575022870e-03,2.899832929313972754e-03,2.471484880726217137e-03,9.805354475975036621e-01
-4.389858752445189860e-01,-4.433886124672359874e-01,5.422967070237877385e-01,-4.423184980478250816e-03,-3.621353334211887989e-04,7.187313712669590304e-04,9.835221767425537109e-01
-4.316079770007471006e-01,-4.516051913970481890e-01,5.279633307873273784e-01,-4.775762081962526195e-04,-7.611411965850188891e-04,-3.915613437049476550e-04,9.697260260581970215e-01
-4.376074846548033137e-01,-4.461629206615075893e-01,5.421663841984686316e-01,-2.496536593798930753e-03,-7.338718974664268715e-03,-3.072054207434764955e-03,9.841854572296142578e-01
-4.383298353946854520e-01,-4.460313725483811553e-01,5.423421886048197527e-01,-3.414432576005939357e-03,-2.384995024318486024e-03,3.561433229049239778e-03,9.845911264419555664e-01
-4.368188217181604993e-01,-4.511464580250151291e-01,5.407337240899293684e-01,-3.430556039764082188e-03,-1.121597567297305011e-02,-3.744299957358896563e-03,9.850254058837890625e-01
-4.215517420083643163e-01,-4.136390696200742956e-01,5.395958979877287787e-01,1.712198434046922381e-03,-1.327870727643993111e-03,6.670642151437217865e-03,9.572929143905639648e-01
-2.828485831640346615e-01,-4.680305935322313093e-01,5.749663510167751790e-01,1.333579718368685385e-01,4.554372032182819018e-03,-9.382658513706759740e-03,9.912971854209899902e-01
-4.475316700111723334e-01,-4.353277176132669402e-01,5.384086994477247368e-01,-2.092555060649340000e-03,-6.216478628430230705e-03,3.366780470341124328e-03,9.799786210060119629e-01
-4.380758735410812954e-01,-4.421723064580226903e-01,5.369948858653630364e-01,-3.133179456742873382e-03,-2.265774799735218933e-03,1.703145542192417358e-03,9.771528244018554688e-01
-3.777038450999049557e-01,-4.443896715425265653e-01,5.379450569992256792e-01,8.119266078893657215e-03,-2.670532630997938129e-03,4.356194871573497267e-03,9.508926272392272949e-01
-3.884640058239768323e-01,-4.791843586038374569e-01,5.507704208774556465e-01,-3.265964452090455022e-03,-1.662929359406602192e-02,-8.171286341779264439e-03,9.882616400718688965e-01
-4.412571250945368506e-01,-4.404728750736061627e-01,5.322501393666894121e-01,-6.404129159967272876e-04,-3.831238250190219935e-03,-1.367975691387743288e-03,9.731414914131164551e-01
-4.479100256382033129e-01,-4.348149499446419819e-01,5.331810871447903999e-01,1.088348143180609129e-03,6.632363785170080489e-03,2.106400181381371320e-03,9.746859073638916016e-01
-4.391461402209119180e-01,-4.398756117232781593e-01,5.461763647666685317e-01,-9.809950115794523716e-04,-5.647584415044717976e-03,5.047198227826726370e-03,9.857761859893798828e-01
-4.474348615895792358e-01,-4.328488500371257541e-01,5.285756594137667186e-01,5.627358342282244488e-04,5.199109217097406394e-03,1.280156599125271489e-03,9.688447713851928711e-01
-4.406876454807276411e-01,-4.376022024873393312e-01,5.298267631350916940e-01,1.013384201499516277e-03,-2.759078787728264006e-03,-3.514388625787956953e-04,9.689889550209045410e-01
-4.397486435699449192e-01,-4.426340050422788996e-01,5.442227327798698777e-01,1.391287596633536362e-03,1.049977568337584792e-03,-2.813223057162776795e-04,9.854219555854797363e-01
-4.376844074016081887e-01,-4.418372190824907397e-01,5.365928288650100297e-01,1.290165637948040116e-03,-1.316174592330928046e-03,6.488843148838345726e-04,9.763661026954650879e-01
-4.367024435522539605e-01,-4.465541104326427591e-01,5.348512359335011457e-01,2.534508928034978278e-03,1.939505994859997990e-03,8.257100237154223199e-04,9.765334725379943848e-01
-4.389845416683031409e-01,-4.399146048885528848e-01,5.506003085380967166e-01,-1.147099439383537966e-03,-4.212276078383182798e-03,3.628815953600136000e-03,9.900990128517150879e-01
-4.384560263376714451e-01,-4.384630188148173069e-01,5.454591238974981771e-01,-9.157017899257850410e-04,-5.964970994226955966e-03,6.896294396536984100e-04,9.839748740196228027e-01
-4.306778018330054136e-01,-4.504384229396707906e-01,5.231181050120812248e-01,-1.169343547830678162e-03,1.641134474831517894e-04,1.057597695870504196e-03,9.638320803642272949e-01
-3.999461984871550690e-01,-4.609928889317629896e-01,5.477256472972760193e-01,-8.483090419566737027e-04,-7.713001038841604123e-03,2.078779200644791797e-03,9.797216057777404785e-01
-4.385142716230281401e-01,-4.422887454518037442e-01,5.358094390013550257e-01,3.443621644593093320e-03,-2.329022204435148968e-03,-5.865444975198139295e-03,9.762958288192749023e-01
-4.045207724329668575e-01,-3.923258532785263153e-01,5.281213597872257415e-01,1.585317825529308777e-02,1.665491670424572909e-03,7.550663311440985624e-04,9.270170331001281738e-01
-3.921666251792322866e-01,-3.950336624048600975e-01,5.214852212386342778e-01,1.935113949654027532e-03,8.517951198970280958e-04,-2.163463809445202507e-04,9.150961637496948242e-01
-4.019292320335234314e-01,-3.939148746197944084e-01,5.273612505821108076e-01,1.722433396815386403e-02,5.221954526440781598e-03,6.116654852658963415e-03,9.258949160575866699e-01
-3.816481602082417157e-01,-3.945105472978800432e-01,5.178886200633096015e-01,1.435610111754066255e-02,-2.440005036988437243e-04,3.065819618190372166e-03,9.063932299613952637e-01
-4.414685625730426222e-01,-4.415018074956219007e-01,5.319037479900963206e-01,7.576267342924278194e-04,2.354664528110661775e-03,-1.465997970631203800e-03,9.734016656875610352e-01
-4.411272102409228291e-01,-4.352493073106835642e-01,5.291163542811321285e-01,5.854906834670801658e-04,3.415294567536005313e-03,-3.679768158896973306e-04,9.673368334770202637e-01
-4.069623325034864569e-01,-4.440452309359071426e-01,5.281319458184585702e-01,2.571850547036195418e-05,7.567880301730190232e-03,6.221254089022943594e-04,9.542669653892517090e-01
-3.424884976867743624e-01,-5.479549538987692481e-01,5.300947443721236718e-01,2.243845825840635674e-02,4.541359788674973613e-02,3.448137687230672793e-02,9.970802664756774902e-01
-4.267537943338614026e-01,-4.402859367551713587e-01,5.084173878933401225e-01,-4.669245584035437995e-04,8.149542220069123585e-03,-1.523973901066205889e-03,9.421199560165405273e-01
-4.432303230582865239e-01,-4.362464223418587861e-01,5.339109186222131820e-01,-2.260814379382237744e-03,1.252941004439181048e-03,8.039042477673646880e-03,9.737779498100280762e-01
-3.793286198956882793e-01,-4.932022610522641126e-01,5.529711282908017500e-01,2.056180641334773296e-02,3.624982291272002555e-02,-1.902288437181514497e-02,9.973016381263732910e-01
-6.308056208926460240e-01,-3.327647238491564519e-01,2.408414405582419704e-01,4.047781057252030669e-04,-7.788815259847398087e-02,4.637336141466347206e-02,7.832382321357727051e-01
-3.473961668056135266e-01,-4.757499103188329581e-01,5.353208862798390921e-01,-3.081523820704585638e-04,-1.416173356146095685e-02,2.112009518534973401e-03,9.537187218666076660e-01
-4.074686638960789420e-01,-4.464731266656440378e-01,5.304916013526059793e-01,-6.132052330806217737e-04,-7.907788307738883651e-03,3.886452108171658572e-03,9.581803083419799805e-01
-3.949775110508375597e-01,-4.772760359456004187e-01,5.517462836881759092e-01,-4.819627831571875534e-03,-1.677051931481157721e-02,-2.371138108615900627e-03,9.909103512763977051e-01
-4.432901679180931698e-01,-4.414091732426537740e-01,5.531925330969614807e-01,-1.856458699383290280e-03,2.358131587636072470e-03,1.253260412503283340e-04,9.955571293830871582e-01
-3.483480459145404384e-01,-4.698523788218077479e-01,5.340763679410409637e-01,-1.727628111816825913e-03,-1.587585001890417721e-02,5.746934833180374937e-03,9.494833946228027344e-01
-4.383490220604147058e-01,-4.367135918912203318e-01,5.306112324155635163e-01,7.363421002727684600e-04,-8.902460773472656644e-03,8.383972969628941327e-03,9.683761000633239746e-01
-4.376078975389429693e-01,-4.298344472565797103e-01,5.411779274157151320e-01,-3.038836521292163570e-03,-5.798310329333712524e-04,1.972900193835819011e-03,9.749430418014526367e-01
-4.389108495573318947e-01,-4.372377278301545767e-01,5.230809863310081909e-01,5.572746403841971098e-03,-9.246162096622849089e-03,3.980576562008315313e-03,9.613629579544067383e-01
-4.363180082379797264e-01,-4.337996864633639760e-01,5.466027282359453565e-01,4.832700349896701560e-03,3.041322599440823317e-03,2.259643018314135780e-03,9.817216396331787109e-01
-4.343446226414298672e-01,-4.318815975762271275e-01,5.462998603270600162e-01,-6.381877098179718037e-03,-5.637709045814698469e-04,-5.086540230762782869e-04,9.794785380363464355e-01
-4.379486277594120125e-01,-4.403914148068938106e-01,5.488451183810542089e-01,2.958594350826180327e-04,1.668880694490910825e-04,-3.095338615699007832e-03,9.880321025848388672e-01
-4.422065208787545054e-01,-4.458625851771879645e-01,5.502657289675960683e-01,-2.960005739193611630e-03,2.613865681497651652e-03,3.871708620168580082e-04,9.943290948867797852e-01
-4.432935174907098319e-01,-4.427784175335291450e-01,5.436277051186293452e-01,-5.027465698264893881e-03,3.336249365484406960e-03,2.913607098564544896e-03,9.867320060729980469e-01
-4.350958954754311492e-01,-4.522353638077273863e-01,5.312975646471934654e-01,1.670942106335539896e-03,2.804142016082567055e-03,-5.586259238108166533e-03,9.751405715942382812e-01
-4.443364007036683661e-01,-3.531390490233503043e-01,5.311231836517485982e-01,1.195199246708636767e-02,4.563165584961238188e-04,2.300519988639893043e-03,9.334474205970764160e-01
-3.948035469813615528e-01,-3.999846679376711234e-01,5.274255751728607056e-01,1.622932376129025689e-02,-8.110498890605362301e-04,-1.219640045818997818e-03,9.252611398696899414e-01
-3.949963816781529857e-01,-3.823229760693733770e-01,5.183646394841914251e-01,9.130060154778353934e-03,9.541440388216178813e-04,1.039376966343369044e-04,9.072300791740417480e-01
-3.885613072785758515e-01,-4.080380089555741274e-01,5.272117291774159886e-01,9.040632967890007560e-03,-6.028073757207493867e-03,-7.809233464072541306e-03,9.259551763534545898e-01
-3.953485556815980462e-01,-3.976236123740299333e-01,5.246981437573444707e-01,1.729373014791430602e-02,-4.176271428635316106e-03,-3.241807317262510729e-03,9.217186570167541504e-01
-4.344654711324875129e-01,-4.461237848450545496e-01,5.325064449433000169e-01,-1.215997992492406964e-03,2.259935317887505190e-03,-1.994603523113802450e-03,9.728697538375854492e-01
-4.373491268445049429e-01,-4.449346600310642996e-01,5.390458678178648988e-01,-1.431511998436966462e-03,2.979156908573457520e-03,-1.504469653648848892e-04,9.802265167236328125e-01
-3.958583182274956203e-01,-3.820344920939339195e-01,5.185855524292747321e-01,1.135668928069223128e-02,-2.994261950429141436e-03,-1.143841031936529580e-04,9.078388810157775879e-01
-4.480395601778826009e-01,-4.407561353565723206e-01,5.337440123892727151e-01,-5.173956653776986062e-04,-7.654925202399720172e-03,-1.490051734910649529e-03,9.782558679580688477e-01
-4.441226710591462123e-01,-4.333768263668589249e-01,5.200245235705857061e-01,3.213907322488964574e-03,-8.009200655788965839e-03,2.063029823647837512e-03,9.589425921440124512e-01
-4.430272000378345232e-01,-4.089758140761812766e-01,5.408583897845118393e-01,2.184023687658287732e-03,9.213781866015543012e-03,-6.530077577094619071e-03,9.675146341323852539e-01
-4.485465723073746580e-01,-4.336730315331077112e-01,5.276224699949123575e-01,-9.366044079249416076e-05,-9.178950257730699586e-03,1.141689038529003757e-03,9.689503908157348633e-01
-4.466309217355433070e-01,-4.347148742115634068e-01,5.313354625995788671e-01,1.326809149066301161e-03,-2.796969858893836973e-03,1.275668600194481989e-03,9.720804095268249512e-01
-4.362972515800437878e-01,-4.413108864331252712e-01,5.267736816504978714e-01,-4.662850694340660990e-03,2.385600475981623347e-03,1.716780546720740944e-03,9.656347036361694336e-01
-4.765533079977574693e-01,-3.906750910749260952e-01,5.516273095473762655e-01,7.687675836731742637e-03,3.527062133388521661e-03,-1.261216885769371812e-02,9.883946180343627930e-01
-4.455907757848858175e-01,-4.286404987830637059e-01,5.133065802166938418e-01,2.840919939460218296e-03,-1.213927802736735478e-02,-5.458915635934667721e-04,9.507812857627868652e-01
-4.404347046827742362e-01,-4.423080790066648560e-01,5.525079113526076835e-01,-1.321808167561920990e-03,-2.996986436974758447e-04,-1.661902320971055547e-03,9.938875436782836914e-01
-4.385150307491279542e-01,-4.447774821990651550e-01,5.449590353318433111e-01,-1.359890859978714209e-03,-1.285478291700040045e-03,-3.133842841138330393e-04,9.866256713867187500e-01
-4.374844992045970882e-01,-4.432144308605507343e-01,5.366654162951121076e-01,-3.384885396855023473e-03,2.992356098102395834e-03,1.642546216039314413e-03,9.770629405975341797e-01
-4.370975975000144786e-01,-4.395319797526008321e-01,5.449621469370462545e-01,3.972405313574121563e-04,-6.567309296572197046e-04,1.339963047492773174e-03,9.832828044891357422e-01
-4.358955423966581200e-01,-4.475315303607759199e-01,5.389643624668698507e-01,1.794759408304383080e-03,3.523710533062753870e-03,5.752661364122594982e-03,9.808042049407958984e-01
-4.399522001533562321e-01,-4.402261475707440752e-01,5.487693826020193510e-01,-1.285703004281076164e-03,3.085385418546516406e-03,-3.276784764187413469e-04,9.888756871223449707e-01
-4.366707904390462747e-01,-4.430521940479151821e-01,5.353194123861398923e-01,-2.461514032812887106e-03,3.476907720571473584e-03,-2.939635051863929722e-03,9.752377867698669434e-01
-2.289188811191588124e-01,-5.948650802330536225e-01,6.022182477363531294e-01,1.618921358101879926e-01,-7.095013849373207893e-03,-4.255231060256044889e-02,1.101393342018127441e+00
-4.260943369988104967e-01,-4.385347462492327208e-01,4.689628731867291345e-01,1.231650027884613127e-02,-6.025271604972804070e-03,2.864155911130673166e-02,9.030182957649230957e-01
-4.173449641945538580e-01,-4.201983714265173364e-01,4.179179250144894331e-01,5.206672188794466902e-03,-1.227138710892193563e-02,3.272250884380198399e-02,8.389284610748291016e-01
-4.441233909111212963e-01,-4.435808872212044784e-01,5.544114681780126785e-01,-1.466389479485630471e-03,7.662764571727150292e-04,6.138392448642904405e-04,9.982684254646301270e-01
-4.318928580782293580e-01,-4.441968017640569033e-01,5.207853040282955925e-01,3.551593946246526037e-03,-6.796501908739309428e-03,-2.667812848246567479e-03,9.589924812316894531e-01
-4.320462766569343471e-01,-4.455820896775310458e-01,5.088887867857758707e-01,5.872208862064013345e-03,-1.180397561776154371e-03,-4.141190438226183095e-03,9.478594064712524414e-01
-1.697146640271795515e-01,-6.430871717256485542e-01,7.219937683157475750e-01,1.956992585699990905e-01,3.397195713521868055e-02,-5.828556380320333574e-02,1.252950191497802734e+00
-4.352682747102551430e-01,-4.394674463340348392e-01,5.525720208984323811e-01,-1.946247356034830648e-03,1.480754563741987911e-03,-1.827706261274620551e-03,9.899606704711914062e-01
-4.424152897155481101e-01,-4.381766106202688027e-01,5.453950896349220034e-01,-9.343906810020725538e-04,-1.656383278799859922e-03,-1.195179076950223093e-03,9.857055544853210449e-01
-4.432491542093399128e-01,-4.420665330672335358e-01,5.535705444802772046e-01,3.178309216115440107e-08,5.867855849832911237e-04,3.343839809542531569e-04,9.962295889854431152e-01
-4.404103084919967492e-01,-4.385308882400505981e-01,5.382069420566800710e-01,2.885139353843463750e-03,1.072164320577794362e-03,-3.249642240470440938e-03,9.777096509933471680e-01
-4.279313758091397579e-01,-4.266634473852496945e-01,5.460167898132032294e-01,-4.297157984570598895e-03,1.504572415338003601e-03,2.741059617572688418e-03,9.733583331108093262e-01
-4.274074410243771660e-01,-4.259811270425003515e-01,5.455488282121405685e-01,-2.685557315252549201e-03,-3.284398401195820494e-03,-7.639379818714334570e-04,9.722725749015808105e-01
-4.362577269212822850e-01,-4.281604093613893269e-01,5.480200053683728090e-01,-2.513670473578941437e-04,1.279075413183246909e-03,3.431706477687260920e-03,9.802747964859008789e-01
-4.412368122468431353e-01,-4.426907333303155556e-01,5.521102220286101536e-01,6.356593983754280303e-04,-1.091105085032461524e-03,1.184186843540381692e-03,9.940792918205261230e-01
-2.524217164892018639e-01,-5.201093829846225036e-01,5.369518036088406499e-01,4.392572637022093031e-03,-7.659866606598751682e-03,2.672815022575647341e-03,9.520126581192016602e-01
-2.422263927456046462e-01,-5.639208553999325302e-01,7.814352953499914545e-01,2.899288851355984464e-01,-7.543626617775088528e-02,-4.121804108009484435e-02,1.324772357940673828e+00
-4.254768411205145373e-01,-4.343869170504109922e-01,5.456235822798519708e-01,-1.216831828298036745e-03,-5.507920910401435145e-03,3.280337055947405052e-03,9.756514430046081543e-01
-4.416968910709094809e-01,-4.379951836955734978e-01,5.346086390822853973e-01,3.001704996154866498e-03,2.533298217874582325e-03,2.222636395716608409e-03,9.744912981986999512e-01
-3.872670346628713234e-01,-6.316801408582068955e-01,3.794849769545211027e-01,-1.288066896362513591e-01,6.338919067318822542e-02,-1.380103212512160185e-02,9.473384618759155273e-01
-4.443796257702666841e-01,-4.443067273969241171e-01,5.448540050384027555e-01,-6.281330059790704405e-03,-6.309882207335869774e-04,-3.611128292508232820e-03,9.892773628234863281e-01
-4.381057623367660692e-01,-4.394054229219779284e-01,5.505792235299171722e-01,-7.678568857670298479e-04,-1.814196575282347058e-03,2.065426971765300587e-03,9.893478155136108398e-01
-4.413780992260754044e-01,-4.410013591835548752e-01,5.466777115974940093e-01,2.317531312955538499e-03,-5.282518775797123527e-03,2.639846113426773128e-03,9.879286289215087891e-01
-4.402068235390807494e-01,-4.412399806189032381e-01,5.435171005628607332e-01,2.080667534159057717e-03,-1.427442149203074495e-03,-5.432242855022650224e-03,9.842956066131591797e-01
-4.250105606859843621e-01,-4.469689145149588483e-01,5.087378888458231607e-01,3.582975556867997423e-03,1.041584563920479670e-03,1.294272278836513948e-03,9.449437856674194336e-01
-4.408216920463134403e-01,-4.380686549800597573e-01,5.510837268496923125e-01,5.546481629769917446e-04,-3.375663730234143762e-04,1.352798741415470142e-03,9.905351996421813965e-01
-4.444668641406524512e-01,-4.372377431208185339e-01,5.324567084126829997e-01,4.706377395718793974e-03,-2.675958995694822581e-03,3.054216058716295503e-03,9.733886718750000000e-01
-4.198241440264550706e-01,-4.171042177984729538e-01,5.375254685040132818e-01,-1.578644348100177036e-02,-1.166286012277422020e-02,1.106315957686916478e-02,9.567887187004089355e-01
-4.345342082206850032e-01,-4.358600858966855673e-01,5.497946479218136506e-01,-2.332959850446660044e-03,4.179597339589017670e-03,-3.625350657460701931e-04,9.850275516510009766e-01
-4.362683800841348214e-01,-4.392496538373555914e-01,5.447935283536091688e-01,-1.621705813086538831e-03,-2.400476459861849033e-03,2.469114502432888381e-03,9.825780391693115234e-01
-4.111912809758725418e-01,-4.128911929106712786e-01,4.014574896481692967e-01,-7.634249323467526271e-03,-2.231543719029691411e-02,2.832682005773109416e-03,8.145398497581481934e-01
-4.442207422875100176e-01,-4.391387739755929220e-01,5.444087379912067037e-01,2.024441120201710652e-03,-8.173608238312654074e-04,-8.542935145578968350e-04,9.861066937446594238e-01
-4.506882766974178445e-01,-4.307793909887762118e-01,5.239072827899123874e-01,7.259913404395701929e-05,-9.155777111937790994e-05,2.421884218356089302e-04,9.647952914237976074e-01
-3.984671720187290545e-01,-5.456049882040268084e-01,1.460797429955742466e-01,-1.324868495106437116e-01,6.765883138088690102e-03,1.354255421293443749e-02,6.720492243766784668e-01
-4.404055833926273089e-01,-4.408691498708131595e-01,5.460408705194867984e-01,1.557138102691782823e-03,-1.679553219089579240e-03,3.004788466376607462e-03,9.866999983787536621e-01
-4.388410541111889551e-01,-4.461354350775605382e-01,5.470365276276777378e-01,-1.894853234391945468e-03,-1.375984723518371535e-03,1.082101215245373092e-04,9.895532727241516113e-01
-4.346235451351073142e-01,-4.435184915703803132e-01,5.383243690995759279e-01,7.569661159598139381e-05,-1.002356311287997542e-02,1.013033490368489943e-03,9.775815010070800781e-01
-4.375424847587622845e-01,-4.396294912178193570e-01,5.198278551265853586e-01,9.235544326616664098e-04,1.299799033215178617e-02,-1.832016108676778193e-02,9.592062830924987793e-01
-2.677426375486244292e-01,-6.072099014284557672e-01,6.203936334410535824e-01,4.647483340238741691e-03,8.362907877029880296e-03,-2.358640762692021040e-03,1.098093152046203613e+00
-4.220027574497832723e-01,-4.241978895573884634e-01,5.438034362190590221e-01,4.255835576837710757e-03,-2.070927387888352698e-03,9.296745264984690796e-03,9.670744538307189941e-01
-3.484892800719738282e-01,-4.998553251404664888e-01,5.628873824542061088e-01,1.091454114895927573e-03,2.516977995591966610e-02,-5.285328922043790005e-03,9.967238903045654297e-01
-3.968335000573662286e-01,-4.484816923388076360e-01,5.019807678890988445e-01,1.166500726003704032e-02,-2.830056004010142456e-02,-1.051542737957250964e-02,9.274154901504516602e-01
-4.579511524225741148e-01,-3.978820664722100831e-01,5.479729719115651321e-01,2.944430439900039623e-03,1.641296065921871682e-03,1.506570729620912777e-02,9.776408672332763672e-01
-3.987786326173244356e-01,-4.625093579029743163e-01,5.326341333485599128e-01,-1.890510929029580456e-03,-2.660794827579786130e-03,5.685240578948961079e-03,9.649248123168945312e-01
-3.532489226878701705e-01,-4.734573901861551248e-01,5.488894471149334819e-01,-1.476728506157047984e-03,1.939526310703370074e-02,-7.237959779584173664e-03,9.685249924659729004e-01
-4.050759181782526142e-01,-4.122847873905683413e-01,3.919834059343659804e-01,-5.530219160553003464e-03,3.225143155448028341e-03,2.402666658341437705e-03,8.007757067680358887e-01
-4.343528291502631311e-01,-4.227404242837856096e-01,5.452152612099038231e-01,6.862705144984874994e-03,1.301557702122241051e-03,-4.601832785694635365e-03,9.739215970039367676e-01
-4.462641344191368153e-01,-4.415614843202193551e-01,5.359258764643045625e-01,-9.495680330837407432e-04,1.014986757191399004e-02,-9.817850616429758728e-04,9.800077080726623535e-01
-4.452056542846313802e-01,-4.375092849966629727e-01,5.366787788130297221e-01,-5.127717146383613950e-03,3.046669050677183483e-03,3.052479695615505171e-03,9.781278371810913086e-01
-4.471471107794052213e-01,-4.352603892800114282e-01,5.331113479619368212e-01,-2.418733331179024476e-03,4.130471653509909524e-03,1.230308776856980490e-03,9.744070768356323242e-01
-4.482875351718326185e-01,-4.322532801069408070e-01,5.295431807403641056e-01,3.230381277726573561e-04,3.433600752929760400e-03,1.537991471561797748e-04,9.699314236640930176e-01
-3.870083978282803927e-01,-3.800308247334830414e-01,3.004119662185291695e-01,1.850914974715642779e-03,4.328673912340915385e-04,1.596558451752962604e-03,6.839717626571655273e-01
-4.389846396878646639e-01,-4.421341699061078212e-01,5.322849260450460696e-01,-1.318824790700040724e-03,-2.001361290732967761e-03,-9.479635645823604809e-04,9.728583693504333496e-01
-4.520254747140137752e-01,-4.300666195300101857e-01,5.255688621816126949e-01,-1.215514599806039910e-03,-1.453441434258672836e-03,-1.051430889618284103e-03,9.668092727661132812e-01
-3.168893182164463918e-01,-4.812876907205260180e-01,5.454557217070024056e-01,1.070955613117667918e-02,-1.487346839819705946e-02,-1.269408025745947383e-02,9.559943079948425293e-01
-4.408597785529641544e-01,-4.372332601550750764e-01,5.490680218091642528e-01,1.405398620983886251e-04,-1.218869497598308452e-04,-3.696022373138739721e-03,9.881403446197509766e-01
-4.352675108387953906e-01,-4.399718201804757589e-01,5.512033489095796712e-01,7.451441210263252393e-04,-3.165017747840719042e-03,1.768582618468624718e-03,9.888522028923034668e-01
-4.388057078517744736e-01,-4.380076391218736820e-01,5.503347702468577296e-01,-3.025104522129622013e-04,-1.838983518930662961e-03,2.113146776808661875e-03,9.887537360191345215e-01
-4.380172117662809450e-01,-4.434602368186997823e-01,5.281407187164546269e-01,-7.071502971163929133e-03,2.447797951566198053e-03,1.789765417343964961e-03,9.689825773239135742e-01
-4.427837949009378327e-01,-4.382813974583623651e-01,5.379821631344302579e-01,-4.211866974408501677e-03,1.727646265771685691e-03,-6.604844569730700457e-03,9.786211848258972168e-01
-4.399716557398310468e-01,-4.497564881680855553e-01,5.470575148584626568e-01,-7.242092009221622051e-03,9.878476993455587076e-04,-1.699906849654698321e-03,9.920429587364196777e-01
-4.490513126282388301e-01,-4.372381193059693971e-01,5.439250533853131619e-01,-2.875128350497256884e-03,1.230693854012299018e-04,3.244631877805251655e-03,9.871513843536376953e-01
-4.368438351905550299e-01,-4.436354170504691052e-01,5.327110319263970162e-01,-4.748261721013820845e-03,2.430171871604045949e-03,-5.209171853109883371e-03,9.730541110038757324e-01
-4.383579244171629252e-01,-4.349057129438570479e-01,5.484829391724387326e-01,-3.625641184151389210e-03,1.854721013666327332e-03,-3.028232000353084374e-03,9.851585030555725098e-01
-3.787056642816863383e-01,-4.443209987563091490e-01,5.449850102115132433e-01,8.318723528368234671e-03,-3.830601505356063955e-04,9.817758047401757213e-03,9.584442377090454102e-01
-4.312513319925143640e-01,-4.384062809297147312e-01,5.267700508514686630e-01,7.565512520728522299e-04,-2.081591079007261060e-03,-2.452141511969901065e-03,9.616358280181884766e-01
-4.368909040752313455e-01,-4.388542346186167786e-01,5.397395282435513142e-01,5.214848364873201757e-04,2.386847130534520359e-03,3.060234143082019975e-03,9.776371121406555176e-01
-4.409198753250493930e-01,-4.404941352177078051e-01,5.461357049642394657e-01,-1.039172822383116999e-03,-7.235884544863641771e-04,3.369689349387401320e-03,9.868624806404113770e-01
-3.916249871721220743e-01,-4.153473711479327424e-01,5.324001857405938898e-01,-2.457593739970191302e-02,-1.051989598677115917e-02,1.878748665915164553e-02,9.378209710121154785e-01
-4.430021224241906252e-01,-4.149534839521116791e-01,5.371582318351331153e-01,-2.066746951722957769e-03,-1.783481383004266278e-03,-1.518648428574329501e-03,9.664564728736877441e-01
-4.419931436097451760e-01,-4.408380796071872387e-01,5.466394943990375843e-01,-2.735747569048450033e-03,-2.101734210811080899e-03,-1.974633522295052095e-04,9.880737662315368652e-01
-3.891001600152720341e-01,-4.615054895373636445e-01,5.119430259145284490e-01,-2.188368956201276576e-03,5.097656304933785576e-03,6.375025529543403360e-03,9.394551515579223633e-01
-4.205573226361646877e-01,-4.876241055958449588e-01,6.035925566688763455e-01,-9.702500958999120406e-02,5.736444340733137803e-02,-2.245694676414820845e-02,1.077819108963012695e+00
-4.382589264259623141e-01,-4.345765294271392021e-01,5.441281232007522117e-01,-1.640467512027246610e-03,-3.078129489429607714e-03,6.056383782859473030e-04,9.805701971054077148e-01
-3.391567570872154325e-01,-4.431860121802799757e-01,5.400373974513708042e-01,5.753962361299422984e-02,-1.788078107075702014e-02,-1.435311231452808620e-03,9.413629174232482910e-01
-4.345942167557327873e-01,-4.387880984666828188e-01,5.269576996956523152e-01,-1.954264832026517823e-03,2.910988850748389041e-03,1.354721336595577719e-03,9.636777043342590332e-01
-4.098395625681101606e-01,-4.082516340788469589e-01,5.334965770749953151e-01,9.111582611699430706e-03,6.854468413542629673e-03,3.577663991389943253e-03,9.427704215049743652e-01
-3.968564379289325483e-01,-4.630337675394207153e-01,5.476191892545952955e-01,-6.125905034392011873e-03,1.249855830681583305e-02,6.507488748645297305e-03,9.796044230461120605e-01
-3.218668802114249550e-01,-4.792988015731423634e-01,5.404540201771267371e-01,-2.878218237204127096e-03,1.819352364015429380e-02,-2.576289558479184609e-03,9.514077901840209961e-01
-3.995094693205363257e-01,-4.587056712250534574e-01,6.216068222870313464e-01,-1.448910260919872850e-01,-5.029082853865042731e-03,-9.346595922034838314e-03,1.081640958786010742e+00
-3.061642662553983318e-01,-4.915267911881900931e-01,5.409716280320423509e-01,-6.488865885695474511e-02,-1.741838362644851368e-02,1.141921084621892041e-02,9.607074260711669922e-01
-4.463941704559766799e-01,-4.367149381655959783e-01,5.348048547685889664e-01,1.801679175674102476e-03,-7.423754481870514701e-04,-1.839132112785103572e-03,9.764063954353332520e-01
-4.258166555255881169e-01,-4.290245054373134637e-01,5.451832577337890617e-01,-6.777299720487541673e-04,4.554934441086210158e-03,-2.487241622733027315e-03,9.726500511169433594e-01
-4.389084608308241320e-01,-4.386254214257601092e-01,5.516597075206645107e-01,-4.993843713024541300e-04,9.266680057836511851e-04,-1.559021679739023159e-03,9.904320240020751953e-01
-4.416103571410877060e-01,-4.302050257120642596e-01,4.582609710707996609e-01,-3.492297635350317172e-03,-3.918142103485773228e-03,-2.450074989161125580e-02,8.952757716178894043e-01
-4.164304821486191077e-01,-4.306408777450252412e-01,4.493353373476655088e-01,-5.543053312364931706e-03,3.149967281389979938e-03,3.404989788043169541e-03,8.730475306510925293e-01
-4.332022373813375626e-01,-4.340883242902102146e-01,5.482483490694932682e-01,-1.087903293044583481e-03,1.681599172643290924e-03,3.358849574311863380e-03,9.819173216819763184e-01
-3.580588011474651333e-01,-4.199548667848200800e-01,5.289888273343837932e-01,-5.035806809408296253e-02,-6.051915630748593705e-03,2.039431418567273259e-03,9.237529635429382324e-01
-3.029370308317747562e-01,-4.575696452496004207e-01,5.253950598271885930e-01,-3.606782833911530151e-02,4.256000894795459316e-03,-7.119203057619854363e-03,9.177371859550476074e-01
-2.747429599228334851e-01,-4.828360077812001161e-01,5.323798751969005538e-01,-9.066624325104830073e-02,1.053650114318710473e-03,1.980847451231366064e-03,9.420099854469299316e-01
-4.397100688627079701e-01,-4.387213876928456879e-01,5.399215245165905896e-01,4.515934359663977731e-04,-1.809766746216661358e-03,1.043506458773248375e-03,9.791446328163146973e-01
-4.824228247577979634e-01,-2.992436898781831722e-01,5.285955708945134779e-01,4.995318793170078209e-02,9.585626218888823602e-03,4.343691270368983497e-03,9.371945261955261230e-01
-7.016508204354775513e-01,-3.125542113484005013e-01,4.687823798737514869e-01,-1.251501413285097952e-01,2.775574506700580896e-02,-5.503306189102299961e-02,1.060322165489196777e+00
-5.694323922813162575e-01,-2.609270369584573701e-01,5.421204938465351564e-01,-1.223427454111271212e-01,8.003436801124517996e-02,-8.557693659149097354e-02,1.036289215087890625e+00
-4.205255102496007757e-01,-4.187979709428498176e-01,4.358888899778468051e-01,8.210750204686183967e-03,3.678301641156948854e-03,-2.940566606919284721e-03,8.557090163230895996e-01
-3.959682267963763880e-01,-4.582581150956712146e-01,5.453323904191652582e-01,-2.350090882040437588e-04,1.367906165533357837e-02,-7.966307579936016472e-03,9.743266105651855469e-01
-4.561292903026855639e-01,-5.671393668349251627e-01,3.534974227629272825e-01,-1.752742273086404790e-01,5.584138857331648331e-02,-6.447393022875813617e-02,9.336401820182800293e-01
-3.725523036116995534e-01,-4.553741755171287209e-01,6.121930906237835757e-01,-1.244641662890493966e-01,2.484313438671505864e-02,-9.323864756918353799e-03,1.052011251449584961e+00
-4.385056816445356276e-01,-4.311578172135590581e-01,5.526815699816575167e-01,-2.974431312203648604e-04,5.015524396404991668e-03,3.265142578499477879e-03,9.875883460044860840e-01
-5.133789947968261380e-01,-2.442117774140998288e-01,5.287230074620417053e-01,6.499517064455372257e-03,-2.130232636852889133e-03,-4.344314629203762171e-03,9.370831847190856934e-01
-3.765884007907983055e-01,-4.022910207266131577e-01,2.926954872778084749e-01,2.433473461687996661e-03,5.197379665599623222e-02,4.525871887223306689e-02,6.928712129592895508e-01
-1.870705248558420242e-01,-5.279695678540137216e-01,6.440811726486578292e-01,2.158829247211195845e-01,3.946696218070061546e-03,-1.330525422537081823e-02,1.109395384788513184e+00
-3.969167616405129273e-01,-4.268822112129651569e-01,3.238932311044576684e-01,-2.846392457588394972e-02,4.877351271640994329e-02,8.369182870534165597e-02,7.567327618598937988e-01
-3.942009145165538131e-01,-3.938005349587099801e-01,3.088193988712316651e-01,-9.434581326578944270e-04,-1.271640269025945541e-02,-2.948389899956053301e-02,7.050191164016723633e-01
-4.264364500223382648e-01,-4.435335835730714327e-01,5.039025565881046775e-01,-2.939033795404143775e-03,8.926783686115172256e-03,-1.209531810866493369e-02,9.393790364265441895e-01
-4.351923459861103960e-01,-4.393179868218954898e-01,5.265050825543016177e-01,-4.074038080716857121e-03,-4.571755420360358764e-03,2.861480732534510928e-03,9.638379812240600586e-01
-3.739707862127313320e-01,-3.773028754727704159e-01,2.612146677151793162e-01,1.146519155422149900e-03,-1.053501956106996616e-03,2.711873025561222905e-04,6.368639469146728516e-01
-3.884322392640376376e-01,-3.988823675520609680e-01,3.322600930005945585e-01,-3.444897289032884148e-03,2.925528342406060692e-03,2.568900956143130992e-02,7.273781895637512207e-01
-4.374528206889657933e-01,-4.376193249512698169e-01,5.105084731498532591e-01,-8.573495446842912052e-03,4.422835417607069546e-03,4.015947505395933183e-03,9.482173323631286621e-01
-2.818070809605403015e-01,-4.415337320189417492e-01,3.613835810139577331e-01,1.354790154149344561e-01,-3.045006691369809421e-02,-5.209631443643064630e-02,7.796979546546936035e-01
-3.817059145042761004e-01,-3.967182054271554681e-01,3.141549174516522491e-01,3.445830283416773977e-03,2.008024224891923754e-02,4.796674007840112663e-02,7.092544436454772949e-01
-4.352383519560401037e-01,-4.233469182378519213e-01,4.806271320384889467e-01,-7.185129869744869176e-03,1.926709034879001137e-03,2.413100807933868733e-03,9.100788831710815430e-01
-4.202219329011407378e-01,-4.183807542549646818e-01,4.364980145699274283e-01,-6.939796567006719166e-03,1.824957917718205563e-03,3.858850618142826462e-03,8.559172153472900391e-01
-4.006285015359334900e-01,-4.127324072796486054e-01,3.905776991679451582e-01,-2.906771651982766221e-03,4.875721125954566616e-03,2.452813571787353878e-03,7.973989844322204590e-01
-3.970227760803082817e-01,-4.006030433690061510e-01,3.361252337580507010e-01,-7.307553677802286138e-03,-2.295283920072416911e-02,-2.818123307887981672e-03,7.361441254615783691e-01
-4.114947573726787100e-01,-4.305101965982153778e-01,4.184798170219964364e-01,-6.506815745627276062e-03,2.241091733681448497e-02,3.527892297412313360e-02,8.428340554237365723e-01
-3.664475676713478958e-01,-4.630317671992100204e-01,5.300203279243606014e-01,8.111817193398864964e-03,6.414583758515706585e-03,1.134332100400745058e-02,9.488280415534973145e-01
-4.436162243963894247e-01,-4.540291500927996493e-01,5.533133681445446816e-01,1.111173348127054462e-02,-1.351533871659748448e-02,-3.139689114530831195e-04,1.002634882926940918e+00
-4.437692267153262038e-01,-4.137281688656608836e-01,4.412919001974640043e-01,-8.502377444760189163e-04,-1.353593375547512342e-02,-3.426224421118005334e-03,8.707666397094726562e-01
-4.362155708723636227e-01,-4.225253748872666026e-01,4.703678048813821899e-01,6.812614321030995880e-03,-1.798824435947417311e-02,-3.942441407703822613e-03,9.004588723182678223e-01
-4.449120748388409319e-01,-4.376722877878420070e-01,5.303350614439366062e-01,-6.862417857156067474e-03,2.213243877457128812e-03,3.529114521695216403e-03,9.717469811439514160e-01
-3.718029953800263687e-01,-4.467491063500018678e-01,5.252058062270741345e-01,1.507435094480824751e-02,9.312779044390801994e-03,9.843412490187599881e-03,9.373908638954162598e-01
-4.420614918040807195e-01,-4.293016324406025430e-01,5.035050298114353007e-01,-5.091845448747469964e-03,1.805721758375999735e-03,2.162959878268199375e-03,9.393056631088256836e-01
-4.455541910824354912e-01,-4.283388711071926536e-01,5.044000645194236521e-01,-3.146292605815901103e-03,3.742332277775911771e-03,1.361722434084364046e-03,9.415056705474853516e-01
-4.843354431511537883e-01,-3.181397153535943101e-01,5.433822423054607276e-01,5.141216897012826532e-03,-4.750041123720010784e-03,-1.410296945906003990e-02,9.559110999107360840e-01
-4.123093300676288764e-01,-4.414588284576526078e-01,5.356857490386787157e-01,9.376980640647532240e-04,9.132095857285738721e-03,4.929944203092802464e-03,9.630699157714843750e-01
-4.382244745660959784e-01,-4.439906872829552098e-01,5.550113448023813456e-01,2.057746931585812452e-03,-4.809576942313337038e-03,6.995922706763561859e-04,9.961733818054199219e-01
-4.059878269467157019e-01,-4.561653974061381511e-01,5.386064968982873236e-01,3.284783813890757194e-03,3.722583491441463707e-03,-3.893864724759661493e-03,9.707178473472595215e-01
-4.401370831680603279e-01,-4.346744816557938096e-01,5.478853430115524503e-01,-1.870068659474707711e-04,3.634739284586356763e-03,2.166856497717613642e-03,9.853298068046569824e-01
-4.354883289497822330e-01,-4.396172430345757776e-01,5.282169466165126392e-01,3.122020016782156918e-03,3.261133300762139413e-03,-3.598289817206728677e-03,9.658281207084655762e-01
-4.420210966236657879e-01,-4.411826731438061588e-01,5.526727637305105523e-01,4.449461538457939519e-04,-1.640234482284445416e-03,-3.063466876578259564e-03,9.942934513092041016e-01
-4.471595475687176746e-01,-4.335688067355004671e-01,4.935702520465169441e-01,-9.154590630035113266e-03,7.589112705475699414e-04,-8.534861389103493706e-03,9.342610836029052734e-01
-4.414945836507341292e-01,-4.372047608520029938e-01,5.252238447577094460e-01,8.184258671072896715e-03,-2.947132095132118639e-03,-8.072635589901766204e-03,9.647996425628662109e-01
-4.354299282295020501e-01,-4.460045488281821902e-01,5.358991855446626484e-01,1.649526559847676798e-03,-2.387902919909059424e-03,-2.078331489372101538e-04,9.766723513603210449e-01
-4.495011222419686425e-01,-4.338987024151797489e-01,5.319289463230062465e-01,9.521289814685498804e-04,-2.150056108529821430e-03,2.036195838021493971e-03,9.737375378608703613e-01
-4.356228825854958631e-01,-4.474267578020672542e-01,5.362546072652552009e-01,2.224791009467456167e-03,2.311985919716819105e-03,1.187980093021892862e-03,9.778507947921752930e-01
-4.114355702295831030e-01,-4.448270864387688928e-01,5.472584815759055088e-01,1.187592007174682711e-02,6.187074240720801671e-03,-3.257771452694867287e-03,9.761102795600891113e-01
-4.402161482000843673e-01,-4.441829558082462936e-01,5.482831482222491060e-01,2.337247997428178441e-03,-3.145927375020543017e-03,-3.593522843820146605e-03,9.905314445495605469e-01
-4.427554266791235427e-01,-4.395080496523068869e-01,5.467169053389470124e-01,1.214191733274768044e-03,1.171474918280484027e-03,6.484845678320710297e-04,9.878575801849365234e-01
-3.894692779961259621e-01,-3.964885899709257866e-01,5.220718095743861475e-01,1.205492892566504583e-02,-3.011260055162980932e-03,-2.908683341087699332e-03,9.153378605842590332e-01
-4.145059566025900422e-01,-4.144622428862980712e-01,5.365153100674923126e-01,-8.101047123436239420e-04,-5.392443167976966774e-03,5.758315394413752487e-03,9.510986208915710449e-01
-4.146112195178035531e-01,-4.174737458429456094e-01,4.220650153162693874e-01,7.157649293334950383e-03,-4.009069626182991397e-03,4.061012330987761633e-03,8.382611274719238281e-01
-4.131799936940954709e-01,-4.137153563216611762e-01,5.356939796331586789e-01,4.434278287758546206e-04,-6.579200039633286562e-03,4.498528708193808186e-03,9.492424726486206055e-01
-4.094324377722294295e-01,-4.075862152021052509e-01,5.318558371500902160e-01,-5.744445748580250671e-03,-5.385729097103019759e-03,1.928553485639329483e-03,9.404713511466979980e-01
-4.486768553678948668e-01,-4.320166020569181087e-01,5.195740737186920200e-01,4.538431129748369056e-03,-2.586845707270270939e-03,1.929988117013662317e-03,9.600777029991149902e-01
-3.871894949092749560e-01,-4.091681854847610267e-01,5.289280823074834492e-01,-6.192961894877868287e-03,-6.742601634802706037e-03,5.378709059045366433e-03,9.274846315383911133e-01
-4.030408594083750851e-01,-4.075876432504700331e-01,1.319897510945459707e-01,4.876534407245419062e-02,-6.969226841495139435e-02,-1.556856528099942183e-01,6.189752817153930664e-01
-4.822693586628725715e-01,-3.921326626871149412e-01,4.566226910815329720e-01,4.858026744416143322e-02,-3.086677549153556133e-02,-4.515681778095068100e-02,9.061291813850402832e-01
-4.891052623023378065e-01,-4.007071205692792071e-01,4.443994659044945283e-01,-3.160138371442075544e-02,-6.545775238379179448e-03,-1.445515142560666738e-02,8.946935534477233887e-01
-4.399417758272274881e-01,-4.425642109833680116e-01,5.499196275561559766e-01,9.664243936443984518e-04,9.337883194186135868e-04,1.007206083531661696e-03,9.911794662475585938e-01
-4.329615073536485226e-01,-4.287817243202119433e-01,4.847075850704590794e-01,8.579474667107961014e-03,-4.859354635688764405e-03,3.593609215446465568e-03,9.157667756080627441e-01
-4.807047108261268131e-01,-3.889570615419120636e-01,5.527659077960184186e-01,5.371476270381815923e-03,-2.892850137365132919e-03,1.348855345125766006e-02,9.911196231842041016e-01
-4.137348892536431011e-01,-4.039136875162026574e-01,3.901958760508896784e-01,-4.252525601945675651e-03,3.480923846915052328e-03,1.611377711161831889e-03,7.991269826889038086e-01
-4.869265815259480323e-01,-4.267964033427988357e-01,4.595814829203418439e-01,-1.748253201450081402e-03,6.540972964423019675e-02,-8.650331077748932285e-02,9.369484186172485352e-01
-4.809715568217929893e-01,-3.995144609139866243e-01,3.763906812345956254e-01,2.047091202465384924e-02,-7.100695828832188916e-02,-1.205392208619854577e-01,8.554760813713073730e-01
-4.348015330494877095e-01,-4.208684851012693962e-01,4.607186153296394249e-01,-6.998572830916344190e-03,-5.317743348637811104e-03,-2.486112143714689846e-03,8.887763619422912598e-01
-4.345459697706664515e-01,-4.338670136561324497e-01,5.491447990330500240e-01,1.975671706086230307e-03,2.062636316670714894e-03,-2.184920707309007722e-03,9.833711981773376465e-01
-4.195455433082816987e-01,-4.176247011199517578e-01,4.359930621864133160e-01,-6.015395333987124185e-03,2.118923196284154715e-03,4.178899020053981721e-03,8.546818494796752930e-01
-4.264526847827404543e-01,-4.017201789309745030e-01,2.651699980996051753e-01,-1.739534450799420581e-02,5.105388722993371015e-02,-4.668533874091797264e-02,6.907343268394470215e-01
-3.769647700790694778e-01,-3.950804007752631297e-01,7.130801762456745463e-02,2.119407592099410709e-02,5.044665307811655591e-02,-1.563612417366317675e-01,5.401167273521423340e-01
-3.981002872048269858e-01,-4.994980920271519520e-01,1.968346423901143893e-01,2.493583750231656918e-02,-1.364773008432443660e-02,-1.110464789740779525e-03,6.534386277198791504e-01
-4.359462269067157503e-01,-4.482942615112988083e-01,5.364497887904566831e-01,-2.219946984256178715e-03,-7.947575833606190278e-04,1.667150706807628106e-03,9.786412715911865234e-01
-4.718797518165965821e-01,-4.239252504141234335e-01,3.755614508814426600e-01,3.864331270647715366e-02,-8.807242570108810009e-02,-1.050862465286179492e-01,8.606376051902770996e-01
-4.401954400551663094e-01,-4.187142246190231343e-01,4.695858051442022285e-01,5.134770081541260595e-04,-2.090722309050739233e-02,-6.068858325133302605e-05,8.999623656272888184e-01
-3.896991155103691762e-01,-3.877612732976410959e-01,3.102024879834210935e-01,2.155165689460052103e-03,2.829277456022789242e-03,-1.991344290964633390e-03,6.989703774452209473e-01
-4.882327273778868659e-01,-2.675912463036610456e-01,2.244100205004539994e-01,2.443478843222096977e-02,2.308093342209639742e-02,-1.324278908361380680e-01,6.747626066207885742e-01
-3.579371785484629642e-01,-4.164396504534102483e-01,9.136453762573831794e-02,2.555087750899245891e-02,2.151182194237873935e-01,-8.921328668002243001e-02,6.294783353805541992e-01
-4.289168232185649465e-01,-4.297718355778464838e-01,4.696540659683626773e-01,9.171235978464083866e-03,-1.219816855778492297e-02,1.265963057376975204e-02,8.996545076370239258e-01
-4.857522343199435766e-01,-2.891735810322591527e-01,5.287726867968998157e-01,1.631101904532022973e-02,-5.899171614357586434e-03,1.017155576620342415e-02,9.325679540634155273e-01
-3.229523485106335912e-01,-5.060908461511484102e-01,5.533724047688481917e-01,-8.723287846798301326e-03,-1.315262387364820804e-02,-7.547077837398353042e-03,9.812704324722290039e-01
-4.300342798262569710e-01,-4.198286600269797719e-01,4.107709358180414716e-01,-1.509091764476305558e-03,6.263821108348516936e-04,2.941479008654261651e-02,8.373053669929504395e-01
-4.201032531467968623e-01,-4.402383532069424343e-01,5.002229850040887937e-01,-2.870535013170363251e-03,-2.644203889733021812e-02,9.288954578507115784e-03,9.318357110023498535e-01
-3.976575145634281272e-01,-3.991960781914277723e-01,1.965022288485194224e-01,-8.684643702740873009e-03,1.048331183486237708e-03,8.052160950569982323e-02,6.112471222877502441e-01
-4.281349425935540021e-01,-4.198419708775776860e-01,4.641788433184966811e-01,1.486420195487830149e-03,-7.685969328023707983e-03,2.408158829886877794e-02,8.892785310745239258e-01
-3.894385084353285120e-01,-3.988174565893837231e-01,3.408938276725618222e-01,3.211437531788599413e-03,-2.874227048945389874e-03,-5.608652423141861909e-02,7.414956688880920410e-01
-4.382443827298086458e-01,-4.433843149105186621e-01,5.383364458243428130e-01,1.726710890978366613e-03,-2.605741079322758391e-03,3.109858343535613218e-03,9.791907072067260742e-01
-4.114547033762434025e-01,-3.997379642309938363e-01,3.707757336571388951e-01,1.818719902244168808e-03,3.216474796877798539e-03,5.691113118396950098e-05,7.764647603034973145e-01
-3.861447803888367059e-01,-3.416882523510676450e-01,6.306605277673027476e-02,5.076133415629636644e-03,-4.465441439570826121e-02,1.178431133373631368e-01,4.811618626117706299e-01
-4.503124790221351148e-01,-4.321890266709835782e-01,5.301141785895766567e-01,-1.919730862300970562e-03,1.300666612612420012e-03,2.145643890860655673e-03,9.715071320533752441e-01
-2.545052379697610445e-01,-5.422573506404160248e-01,5.862310719654019175e-01,-3.441284754026081860e-02,3.564727176432039984e-02,-2.507482508082064816e-03,1.019287109375000000e+00
-4.570882579722734818e-01,-3.924475280304395852e-01,5.435963946128486990e-01,1.310889894739259223e-03,-5.284099948103112947e-03,-1.342948539335934999e-02,9.703057408332824707e-01
-2.781749623930095949e-01,-5.199403754012688061e-01,5.448560617758403390e-01,-1.541285612726188067e-02,-1.007439837590731573e-02,-4.656776168024148038e-03,9.674157500267028809e-01
-2.852215906257794531e-01,-5.093630136872798753e-01,5.501084926432588951e-01,-7.716293156888664540e-04,1.802887566209437215e-02,3.502448189212145103e-03,9.676060676574707031e-01
-4.420927920170947267e-01,-4.360103306058928374e-01,5.287518249533524894e-01,-4.075812836996300231e-03,2.207388747828309926e-03,3.522511586484948151e-03,9.678702354431152344e-01
-4.457088532497074373e-01,-4.269685729371930361e-01,5.039708517657230935e-01,-5.917024282755102213e-03,2.723941873019655388e-03,1.643389792784516728e-03,9.405215978622436523e-01
-2.858040044884172515e-01,-5.265341332641486627e-01,5.642419221245038585e-01,1.521590131563000173e-02,-8.697035158916880185e-03,-7.762061050542447618e-03,9.931077361106872559e-01
-2.174652281281338473e-01,-5.336257191715015891e-01,5.468400999436854315e-01,-4.495740224706160776e-02,-3.039565263415634939e-03,6.929179838301980504e-03,9.654006958007812500e-01
-1.484625039140451130e-01,-7.055244518195334935e-01,6.511482643105279688e-01,-3.036112482480805407e-03,-9.461081509131255562e-02,2.133655376074861110e-02,1.193052887916564941e+00
-2.559854715733178576e-01,-5.183440850654248422e-01,5.459003314235593152e-01,6.525281034751457534e-04,-3.844469075074934648e-03,1.271499852190767759e-03,9.603567123413085938e-01
-2.350479171296031011e-01,-5.413236260603774275e-01,5.501827740510168985e-01,-7.680209686134850666e-03,7.294113443449275203e-03,3.683067625904248507e-03,9.753288626670837402e-01
-4.311094741518734508e-01,-4.308578746490228650e-01,5.487211768478796881e-01,2.895979056911063450e-03,-7.146112708683477824e-03,8.683386376074422874e-04,9.797970652580261230e-01
-4.354911524147420665e-01,-4.415690421073339977e-01,5.457477394395433556e-01,-4.552604403042937050e-04,-1.019795473096640195e-03,4.038330146064770870e-04,9.842940568923950195e-01
-4.483933278994644556e-01,-4.320136394774976019e-01,5.246619944627364251e-01,-3.751862858484201384e-04,-1.017950399888627525e-03,-1.326890283443059662e-03,9.649742841720581055e-01
-3.729790632956858643e-01,-4.223782282868608906e-01,5.371526956699487210e-01,3.919529175095316093e-02,-1.165681890084338057e-03,-9.903717996609139648e-04,9.382727146148681641e-01
-4.362667252993517875e-01,-4.386290162864310282e-01,5.486628409629478176e-01,5.723923504389200881e-04,6.102520439785549290e-03,5.697208657863055310e-03,9.862193465232849121e-01
-4.181481248923949456e-01,-4.399012843538001594e-01,5.598041178448429633e-01,-1.133222038715890959e-02,-9.620526836909507745e-03,5.337394096085392760e-03,9.893865585327148438e-01
-4.451656518818838393e-01,-4.381204169133807169e-01,5.460692343867377119e-01,2.873785893292452823e-03,-2.283816439047068004e-06,5.936976569947976677e-04,9.877442121505737305e-01
-4.454469924060690533e-01,-4.411079966667080243e-01,5.510395843116869807e-01,1.072320627878402353e-03,-1.870854128828208871e-03,1.913458934197842173e-03,9.943367242813110352e-01
-4.481274550420883962e-01,-4.210153401658355277e-01,5.048523320275832837e-01,3.963851236981803111e-03,-2.893107048951014913e-03,3.238593367069079782e-04,9.397557377815246582e-01
-3.982718926417684879e-01,-3.700658259036276876e-01,2.243666123713669580e-01,-1.384930872436020317e-02,-4.939523431221465311e-02,-2.399781236514165333e-02,6.168751120567321777e-01
-4.396370258024874800e-01,-4.429758123129405312e-01,5.417856159476706068e-01,3.415266201473308224e-03,3.449175037803448376e-03,-3.510926724572348452e-03,9.831510186195373535e-01
-4.413222345654663203e-01,-4.422772625221600973e-01,5.479648900544566992e-01,2.486477911729226362e-03,1.145569379169816132e-03,1.310203344047766423e-03,9.897789359092712402e-01
-4.427423868474774649e-01,-4.424449437190998702e-01,5.505581129076915214e-01,1.913021274930177358e-03,-1.186260107243491176e-03,1.631807339095460354e-03,9.931634664535522461e-01
-3.803082776730890568e-01,-3.878949039433646218e-01,3.013116605997598896e-01,4.713325343450191661e-04,1.822103382051840949e-03,-3.238573020247526111e-03,6.854754686355590820e-01
-4.160130758827434994e-01,-3.859235592010110683e-01,5.397866589562552164e-01,4.306301912610495386e-02,2.801233458397253944e-03,6.724756302839515103e-04,9.440800547599792480e-01
-3.813772065493660213e-01,-4.207410295703424286e-01,5.418642491654758198e-01,3.747590615105100137e-02,2.561111802622999777e-03,-2.616944917635030850e-03,9.457907676696777344e-01
-4.286897143954346290e-01,-4.128401804477920822e-01,4.372149525507390555e-01,2.823526493572686008e-03,-4.124931803503318652e-03,1.027470261095391997e-03,8.581352233886718750e-01
-4.461629455244356945e-01,-4.398587987384574016e-01,5.372715422794671625e-01,-2.055179078566202015e-03,4.022747788545304702e-03,1.019367930019422774e-04,9.803288578987121582e-01
-3.795941733439257004e-01,-4.492521079464692479e-01,5.720092806573112698e-01,3.904371284757002236e-02,8.264441807984463165e-03,2.772379215869792690e-02,9.918528199195861816e-01
-3.280247716679703940e-01,-4.658305874634152133e-01,5.414501893458344428e-01,4.249902909446746230e-02,5.214693150404499031e-03,6.405208740548846980e-03,9.489040970802307129e-01
-4.386508199397972652e-01,-4.298166677792831791e-01,4.969789327053392158e-01,-8.254510159468153585e-03,1.724327157602021862e-02,-6.571021382559220220e-03,9.319021105766296387e-01
-4.830263631354758114e-01,-2.992000483634381647e-01,5.346913182017216659e-01,-1.359617810711711249e-02,3.077729469068259029e-03,6.366503280210086824e-03,9.397673606872558594e-01
-3.854390594850677920e-01,-3.892121522872959982e-01,3.035652324797472046e-01,-3.903896428821417193e-03,1.634691257581655406e-03,-3.318175064326241847e-03,6.909613609313964844e-01
-3.734201246012432973e-01,-3.843622960214739259e-01,5.851801346633286327e-01,1.167752348576154287e-01,-1.877852442275924558e-02,-8.852955719473133006e-03,9.857615232467651367e-01
-4.460509166270729131e-01,-4.368079457739141858e-01,5.384095217967055369e-01,-2.147917105210183069e-03,-1.663356189663975880e-03,-1.357551926294708932e-03,9.798857569694519043e-01
-3.465107601914746982e-01,-4.214193326663190908e-01,5.282059114503050434e-01,2.227591536447106127e-02,5.487185183142472868e-03,8.365402827867381825e-06,9.153378009796142578e-01
-3.520059113314621402e-01,-4.167703578125063202e-01,5.348518980069182360e-01,6.010441995694787432e-02,-1.083166382339653157e-02,-1.250245232660037245e-02,9.272575378417968750e-01
-5.666320562037913122e-01,-2.716404500849011194e-01,6.186913033713875576e-01,5.663101085615740438e-02,7.597096746783393167e-03,1.527923133343702181e-02,1.073706626892089844e+00
-4.453060340713467791e-01,-4.300948087506892281e-01,5.150621418901940585e-01,-1.913548525510534769e-03,-5.953370540841937571e-03,3.206874283557317458e-04,9.529153704643249512e-01
-4.372191094106126497e-01,-4.486799335953199908e-01,5.403226743657223441e-01,-3.666711714141547996e-03,3.051046911022681739e-03,8.073401852537747010e-04,9.833579659461975098e-01
-5.214427910088544893e-01,-2.547029433006691157e-01,5.536382890031236181e-01,2.660936270660967454e-02,-1.776866585402087691e-03,-1.540725259780517664e-02,9.710964560508728027e-01
-4.076122460107131085e-01,-4.108570245646260277e-01,3.904873370873520599e-01,-6.213488581950897711e-03,-7.150627892062704632e-04,-2.875203675936759042e-03,7.998157739639282227e-01
-6.099165253299557721e-01,-1.594804908685362732e-01,8.262708372670819479e-01,1.702716286443731464e-01,1.725345942668937010e-02,4.413533667841336786e-03,1.306347966194152832e+00
-5.195482183357690298e-01,-2.880993344647825860e-01,5.513413774173324677e-01,1.647270288231744706e-02,3.324512311377244254e-03,1.942108988444237946e-02,9.769829511642456055e-01
-4.219636909746413145e-01,-4.391571404919596411e-01,4.739582638771727696e-01,-1.708547540770286987e-03,5.641563711798830644e-04,1.790003309524839520e-02,9.051777124404907227e-01
-5.200422909733297683e-01,-2.508756779549073390e-01,5.366489631343565048e-01,-6.599406050294869333e-03,-5.207815480406961794e-03,-3.599883455240138024e-03,9.512475728988647461e-01
-4.328776662721218194e-01,-4.107598331419585747e-01,4.469746448903674230e-01,-1.753383568056933375e-03,2.144379966041276564e-03,3.714678778275649559e-03,8.690415620803833008e-01
-4.392753391581087352e-01,-4.458326819647068784e-01,5.470769018674568329e-01,-3.446321091190041649e-03,1.751888585654233065e-03,2.822520866439129160e-06,9.896698594093322754e-01
-4.939612276002691149e-01,-2.921802582314915742e-01,5.400773385446278052e-01,3.929512706745759421e-02,7.725741196553809198e-03,-1.061272651269214856e-02,9.520773291587829590e-01
-4.996470625094573959e-01,-2.821947055435020668e-01,5.326073520322882615e-01,-1.618357661876322628e-02,5.807030555710732990e-03,-1.028615793766418478e-02,9.431716799736022949e-01
-4.755702138105438737e-01,-3.554442190455284201e-01,5.601875704902963271e-01,1.382832951036958198e-02,-3.369759081423788667e-03,1.319799151632203293e-02,9.818010330200195312e-01
-5.085670335931782304e-01,-2.619017091854535795e-01,5.565497770690640555e-01,1.937447982719630798e-02,-6.650358296455867598e-05,1.498833941645240711e-02,9.666386842727661133e-01
-3.904610851185253417e-01,-3.573826792852557999e-01,5.081040932105075347e-01,1.918865789680409550e-01,-2.471523376382753906e-02,-2.559408318870615151e-02,9.450129866600036621e-01
-4.513708188060656656e-01,-4.313040449161507639e-01,5.289251046264318301e-01,-5.785390467292824291e-04,5.646399293134833977e-04,1.586440741217725811e-03,9.704230427742004395e-01
-4.325194093919095262e-01,-4.503784190324058301e-01,5.409189085968756361e-01,-2.556249212828601985e-04,-1.387923268759110734e-02,-3.280115448431021596e-03,9.828001260757446289e-01
-4.489337836131300774e-01,-4.296279140756946724e-01,5.228790915022857311e-01,1.880870495243831169e-03,-9.154227793405944646e-05,2.419798041364026159e-04,9.623107910156250000e-01
-5.265777806187367238e-01,-2.614926348698811687e-01,5.624511778835511455e-01,2.576547436760606713e-02,3.776555615079653025e-04,1.457984247948743498e-02,9.849865436553955078e-01
-4.469708592070950059e-01,-3.711193423774465372e-01,3.169902681314890058e-01,-1.126465423357361356e-01,-1.324927246585259621e-01,1.305295196822448545e-01,8.205406665802001953e-01
-5.493228820872607665e-01,-1.954234700414579362e-01,4.660801521903270572e-01,-1.327732334432259187e-01,2.199992938972086462e-02,-1.184210898193172393e-02,9.228740334510803223e-01
-5.017387038031498880e-01,-3.466658857131934002e-01,5.711679789503814053e-01,6.753502003368646277e-03,8.383186273858892965e-03,5.460747476764559426e-03,1.004606723785400391e+00
-4.460739875075575567e-01,-4.231895126779557370e-01,5.022517189294116724e-01,-3.368828294943411526e-04,3.476472005635948721e-03,-7.876077107705934874e-04,9.371135830879211426e-01
-4.455203264676477759e-01,-4.132578863334062103e-01,5.326472090488478806e-01,-3.963766804499471025e-03,4.916760422273790641e-03,-4.273394359435203627e-03,9.625325798988342285e-01
-4.555812988631947613e-01,-3.754685369989713140e-01,5.058875540602479903e-01,-9.885648251717742488e-03,2.227622761318877580e-03,-4.457860963862644117e-04,9.241878390312194824e-01
-4.017100728787565966e-01,-4.009509596998656611e-01,5.281059720678468183e-01,8.572304708496307729e-06,4.358330608875027323e-03,4.875056038851727398e-03,9.295057058334350586e-01
-4.757430646230694227e-01,-2.171069039004459023e-01,1.549516565736785978e-01,6.837242620638219089e-03,-2.770946569313493743e-02,6.610054170098521309e-02,5.631159543991088867e-01
-4.940102871319158595e-01,-4.271329687521331908e-01,4.721366027915998576e-01,9.823411312657093133e-04,6.922039949752302468e-03,4.344472210646335014e-02,9.376076459884643555e-01
-4.452390378048129427e-01,-4.394345575699079576e-01,5.480180824258770178e-01,-2.308918582725811262e-03,5.077805266398369849e-03,-3.483337589790887548e-03,9.904331564903259277e-01
-4.404458129416876644e-01,-4.410700895646461062e-01,5.463618585921012905e-01,-1.591405934186189289e-03,-3.238551807688494315e-03,-1.590737873030368971e-03,9.871435761451721191e-01
-4.702227817029203671e-01,-3.146893848221723466e-01,2.810202353076572956e-01,-7.604762748829997643e-02,-4.974711617202526304e-02,1.709879425485132387e-01,7.643284797668457031e-01
-4.459692784260448906e-01,-4.326363683905039004e-01,5.171356509989433192e-01,-6.663265454689685672e-04,8.876703620534873163e-03,-1.268605934968455699e-04,9.566324353218078613e-01
-4.441121688719295579e-01,-4.374598495230200279e-01,4.894192496218773281e-01,-1.282906318317040368e-03,-2.510828217478932450e-02,4.755255105146708600e-02,9.348769783973693848e-01
-3.802987343678438936e-01,-4.150961083588790013e-01,5.377950288985605676e-01,4.788741235689140952e-02,1.624965138094116354e-03,-3.869413808446159342e-03,9.396737217903137207e-01
-4.399719286170148957e-01,-4.410748013577418525e-01,5.302677920944692813e-01,3.535754894687179054e-04,2.242662545810194218e-03,-4.265048434376878667e-03,9.708276987075805664e-01
-4.314083583917405762e-01,-4.377739845871886915e-01,5.165872223974991018e-01,3.079239092895663058e-03,1.284619011502896591e-02,1.286812111797643596e-04,9.514695405960083008e-01
-4.479351677361684270e-01,-4.160166890771580528e-01,5.291287783372392584e-01,4.341750197355838392e-03,2.559579115003681685e-03,-6.068766883982349087e-04,9.615423083305358887e-01
-4.424015668992795636e-01,-4.355253383860073213e-01,5.484827920198119822e-01,-2.298375987622387588e-03,2.980057525367507242e-03,3.791611318078313975e-03,9.875075817108154297e-01
-4.429608688404567118e-01,-4.375507284520903650e-01,5.338312755412857324e-01,-5.140060304145850113e-03,-2.972880329056931236e-03,-3.465056518126197541e-03,9.741711020469665527e-01
-4.466570768353676502e-01,-3.853357339386488389e-01,3.125234847794072790e-01,-3.003736565201476846e-02,6.084921413755819963e-02,5.525453616910282195e-02,7.460129261016845703e-01
-4.275562187625389088e-01,-4.280120067750357582e-01,4.600413988355824824e-01,-9.983411105627865156e-03,2.901555276473949396e-02,1.153456193220692497e-02,8.896393179893493652e-01
-4.099342602500808397e-01,-4.141963140656756415e-01,3.924850324240618527e-01,-9.939754737641430873e-03,-1.556373636575663277e-03,-3.983609466769014000e-03,8.047770857810974121e-01
-4.363747054351337362e-01,-4.386981078009128399e-01,5.223608918976041515e-01,-4.419606481894653924e-03,1.034697439348429907e-02,1.007226783881284664e-02,9.602556824684143066e-01
-4.315613870558047682e-01,-4.372358192334588334e-01,5.225358582612623648e-01,-2.141627393505677809e-03,4.730483031337118401e-03,-3.302009705298403729e-03,9.570064544677734375e-01
-3.582633173545805572e-01,-3.617011223967315781e-01,2.573234622357062351e-02,-8.471911020734788607e-04,9.150694623614551160e-02,4.817904541816490221e-02,4.252892732620239258e-01
-3.853603696661682676e-01,-3.825177139124557035e-01,2.772392949288371433e-01,7.314585516716834435e-03,1.366675130033255525e-02,3.348204577323610903e-02,6.642641425132751465e-01
-5.057280760324046609e-01,-2.969136970613707183e-01,5.420478001186590511e-01,-4.149916072889777569e-03,-7.267073350455550409e-04,1.589142307398230813e-02,9.609671831130981445e-01
-1.013792965076864006e-01,-5.901986340467237913e-01,5.789786844710632652e-01,6.160379316217577672e-02,-4.422292713825511264e-03,6.875311584248047780e-03,1.022736072540283203e+00
-1.746153925334841261e-01,-5.659404145223324578e-01,5.146609751183462977e-01,8.263632494214455393e-02,9.276363277941949981e-03,2.228202503357970196e-02,9.592716693878173828e-01
-4.323493147394837366e-01,-4.166227352421322250e-01,4.498779226576105073e-01,9.053058737241450292e-04,2.378231819293294413e-03,4.086978264761495288e-04,8.744813799858093262e-01
-2.379269254010319967e-01,-5.177270693965365655e-01,6.304038551632102916e-01,1.070346914253605397e-01,-8.317597461909205514e-02,-7.737064274197623381e-02,1.071600794792175293e+00
-2.198542385628263207e-01,-5.080956394703609602e-01,5.297092690287790173e-01,2.473247676289395264e-02,-1.052385542479022246e-02,-2.910033449168300881e-03,9.290729165077209473e-01
-1.164540938924669145e-01,-5.775421609152322500e-01,6.972488490071917511e-01,9.152780941644590718e-02,-1.197651236471437286e-01,-5.072806036194861534e-02,1.151427984237670898e+00
-2.825392037538780321e-01,-4.851785913650202287e-01,5.352650270619978556e-01,1.171659170990368981e-02,-7.174551213212558218e-03,-5.486632593879180609e-04,9.360304474830627441e-01
-2.183410140994243298e-01,-5.355935102174708140e-01,5.290676752658389770e-01,1.459724988079180545e-02,-3.948230945216023129e-03,1.669867325275464776e-02,9.475804567337036133e-01
-4.794172607801675534e-01,-3.461732755231255454e-01,5.488192154599315087e-01,-4.215441315126041040e-03,5.197344879607424667e-03,1.075904214039891983e-02,9.687618613243103027e-01
-3.821489180508819139e-01,-5.466396901787102802e-01,6.270509589826673835e-01,-6.114490466922144207e-02,5.564770005062546002e-03,2.139727086390262600e-02,1.106448411941528320e+00
-2.324657094039946359e-01,-5.474768901181310543e-01,6.154016960642076928e-01,2.077461357631425060e-02,-3.942690128181812817e-03,3.455171667445840200e-02,1.044088959693908691e+00
-2.324945820811114006e-01,-6.202875814147756905e-01,6.324002224467968336e-01,-1.114931729338125392e-02,-1.424105364221476752e-02,-7.176253828855487342e-04,1.111219763755798340e+00
-3.915602767838508025e-01,-3.962890755556091049e-01,3.199525857907584703e-01,4.955363128852114697e-03,-1.320754495405692536e-02,1.672809825120893240e-02,7.148944139480590820e-01
-1.810384831121005511e-01,-6.120992588468331386e-01,6.039449385207696919e-01,6.474063426917921193e-02,-2.234266287407029108e-02,2.422861973667171653e-02,1.075276970863342285e+00
-2.321770073833371306e-01,-5.879592321145951095e-01,6.225022245160108936e-01,-7.379782779831055295e-02,4.277490890812369294e-03,4.597654940328989651e-03,1.085170030593872070e+00
-4.490516218465400167e-01,-4.341546764873838726e-01,5.282582620979252575e-01,2.464060853153396142e-03,4.793324768116547863e-04,9.276939414970487765e-04,9.699583053588867188e-01
-1.259464487004525179e-01,-8.140696826500680716e-01,8.205837296256808244e-01,-3.874456933373933432e-02,-1.058458424950984855e-01,1.415250620491321706e-02,1.435087680816650391e+00
-2.517025220031279820e-01,-5.339478712282285100e-01,5.493857871669802773e-01,-9.843434166679931874e-03,-2.722956702610241156e-03,3.546927873865525147e-03,9.735805392265319824e-01
-2.617189262698145225e-01,-5.071174118341067460e-01,5.340911847239301347e-01,-1.113387493418792340e-02,-1.181701331335988786e-02,6.409482482459569891e-03,9.432596564292907715e-01
-3.936854408012800954e-01,-3.916819138160828051e-01,3.095663988287783441e-01,1.261448256168060588e-04,2.057910012044256859e-02,2.557181432552889724e-02,7.045498490333557129e-01
-4.020942153130922514e-01,-4.069556868135154049e-01,3.490460360301558262e-01,-3.096897944271224511e-03,-4.217356629408760410e-02,-1.465970689866984145e-02,7.575594186782836914e-01
-3.961264194794597016e-01,-4.116639971995447178e-01,2.824529036706757701e-01,2.250559291887084881e-02,-1.893495814946742628e-02,-4.223671560206344010e-03,6.884064078330993652e-01
-4.373337096039996430e-01,-4.378524052853644544e-01,3.584076654380691229e-01,-8.710776566976136115e-03,-7.123709902030651853e-02,-5.752914181335269661e-02,8.117868900299072266e-01
-4.456825543445844806e-01,-4.231826135315631676e-01,5.021115003150070644e-01,3.798520469682591539e-03,2.989453716241282418e-03,1.102891805584823399e-03,9.367861151695251465e-01
-2.203588834239001704e-01,-5.238768629405100574e-01,4.939634318980420380e-01,-1.402286182820495775e-01,-4.421817722370998544e-02,-9.304493289019610813e-03,9.403759241104125977e-01
-2.547679202335029203e-01,-6.099074377425026672e-01,4.177985897633389456e-01,6.317784164506073941e-02,-8.051048934576278404e-02,1.775242530079042258e-02,9.217864871025085449e-01
-7.258428583209382001e-01,-2.212314310487805136e-01,8.115677612682840047e-01,-2.278924180317137005e-01,-3.616943299352330318e-03,4.890538559603702096e-02,1.416152715682983398e+00
-4.427107890349927799e-01,-4.425075022215100851e-01,5.531080583705618725e-01,-6.601140712224796850e-04,-6.926298584791404757e-04,-4.804999294136579144e-04,9.957189559936523438e-01
-4.025549702202730340e-01,-3.893174573842417274e-01,5.213176424993580804e-01,-5.900723511943946516e-03,-8.900116482190654609e-04,3.802263192278447349e-04,9.173839688301086426e-01
-4.356938612748300632e-01,-4.106599051333573724e-01,3.908617976972599273e-01,3.146980916490818309e-03,2.854972424463096681e-02,-3.550297776165222546e-02,8.181597590446472168e-01
-4.440953148446875609e-01,-4.380486025724941168e-01,5.388823260125870096e-01,-2.341595172380759975e-03,3.979044775458110209e-03,2.671525677014276786e-03,9.800118207931518555e-01
-3.989364597690771563e-01,-3.935212015013572762e-01,3.328519399604470408e-01,-4.081296376656094217e-03,-1.487130041206510822e-02,-4.696902289401668623e-03,7.296302914619445801e-01
-4.014829631905120766e-01,-3.974727212512896846e-01,3.432756483742698261e-01,6.015511494539451786e-04,-3.498092025970810093e-02,8.444096361993331905e-04,7.452308535575866699e-01
-3.909057372417630849e-01,-3.839656195682162321e-01,2.663906975991754411e-01,3.883694662855683571e-03,-1.306710633199782354e-02,-1.648335040726645745e-02,6.549027562141418457e-01
-4.427598173585288732e-01,-4.395274331260874412e-01,5.500298126786865582e-01,7.240574970521698869e-04,5.681569662142432709e-04,2.010461764659546681e-04,9.911787509918212891e-01
-4.419609292086585928e-01,-4.399348117301988825e-01,5.513521076130459830e-01,9.255993270094971031e-04,-1.035749993752868928e-03,7.795126153279730366e-05,9.923044443130493164e-01
-4.461059289253272997e-01,-4.344156464574251975e-01,5.305045858454616736e-01,-7.902060521371583090e-04,-1.529188762189699819e-04,-2.464362073700621884e-03,9.708285331726074219e-01
-4.422196841914991516e-01,-4.390661977223437873e-01,5.386720884071302118e-01,2.381113851646047760e-03,-5.051319823828162234e-03,1.165039627527215613e-03,9.793686866760253906e-01
-4.432152072353495731e-01,-4.401315208848112226e-01,5.466881600930656449e-01,2.142834933127839465e-03,-2.068349658229758168e-03,8.367907962838539750e-04,9.883796572685241699e-01
-4.355191079751210559e-01,-4.460256846651401430e-01,5.146144679984229198e-01,-7.479013322220728031e-03,-9.772225686438757233e-03,-9.562733783003088059e-03,9.558114409446716309e-01
-4.480194357144393069e-01,-4.046190142319670002e-01,5.230251051426888509e-01,-1.084141937033752078e-03,5.481122172782801685e-03,3.838069042808184457e-03,9.501606225967407227e-01
-3.428763752271692944e-01,-4.437541571806043472e-01,5.317264322995358672e-01,1.499609893772657458e-02,1.263363209067495290e-03,-5.092507812886728005e-03,9.295653104782104492e-01
-4.314799866687815677e-01,-4.224442230102997131e-01,4.601024170771427224e-01,-8.346140267130146284e-03,-3.169790118985997725e-03,-2.179688575359521683e-03,8.872418403625488281e-01
-4.373470227732978444e-01,-4.386538005047014299e-01,5.298775263158989057e-01,-1.170314735834045798e-05,1.189848659916412825e-03,2.983415873743576301e-03,9.678946137428283691e-01
-4.357027277662968712e-01,-4.451748601765775915e-01,5.554127520345170099e-01,-1.843881794252458304e-04,1.769366065078729205e-02,6.111284196519313656e-03,9.964130520820617676e-01
-4.360284709560202643e-01,-4.446407941011583098e-01,5.317270331990060495e-01,-4.128519752850385964e-03,2.290508330572102805e-03,8.112994451765476699e-04,9.721257090568542480e-01
-4.753728748977013585e-01,-3.606603216455491756e-01,5.508835673409765432e-01,6.209270512150519283e-03,8.851210187584369893e-03,-1.070245359729731643e-02,9.743362069129943848e-01
-3.866386097884462192e-01,-3.791913243348282725e-01,2.751302354175239051e-01,5.673793753278776920e-03,-2.300251838486747427e-02,3.668155938636479506e-03,6.593856215476989746e-01
-4.214070053608869881e-01,-4.155573366720677342e-01,5.326555202034713998e-01,3.055679259120281863e-02,8.062937825019930033e-03,2.719714281569587944e-02,9.538887739181518555e-01
-4.428923288503488487e-01,-4.158922455229087656e-01,5.405074852501668969e-01,3.435285911411475965e-03,5.742554364163080308e-03,4.112490415956093250e-03,9.702769517898559570e-01
-4.335074460752614822e-01,-4.492902770164651227e-01,5.311798501189700650e-01,-2.706264982798900747e-03,-1.911556999560923200e-03,-1.049463553607479565e-03,9.726933836936950684e-01
-3.471478240042720209e-01,-4.145853227954441889e-01,5.167037465204900037e-01,-2.211728226152943899e-02,6.468906274429333386e-04,-1.656034406144217021e-03,9.002890586853027344e-01
-4.074580258293853396e-01,-4.108771333500772505e-01,3.904399013802094531e-01,-5.517719472445856664e-03,-7.310400885812331356e-04,-3.005563370997637717e-03,7.996880412101745605e-01
-3.850588460875035146e-01,-4.156843756925345246e-01,5.289033142384135244e-01,-5.265177874691511287e-03,-5.208797696702418233e-03,5.759320295632982568e-03,9.297953248023986816e-01
-3.932863885606170951e-01,-3.981169636548532731e-01,5.258249063871988094e-01,-7.845369907514550961e-03,-4.207926607742840282e-03,7.689083839102443113e-03,9.217612743377685547e-01
-3.830198327469030439e-01,-4.007076620347334583e-01,5.237652447249722121e-01,-1.122535698303063836e-02,4.324009216957928154e-04,1.606258309239328645e-04,9.159638285636901855e-01
-4.700657291612066468e-01,-3.963091935673387911e-01,3.402692049298554622e-01,4.604433556718446480e-02,-4.597460944850421949e-02,-2.482037047930198137e-02,7.854073047637939453e-01
-4.012192077526582357e-01,-4.095161752310764736e-01,3.760333139425845461e-01,4.030503550224219869e-03,7.677994853369852265e-04,-2.323358088281503829e-03,7.814767360687255859e-01
-3.980982803664835368e-01,-3.944873861521702163e-01,5.256052272794842217e-01,-1.678366525210337606e-02,9.949629153980148275e-04,3.986986288868957489e-04,9.223634600639343262e-01
-4.307012795803145666e-01,-3.944303225560654158e-01,5.369926659204306008e-01,-8.244260417401828162e-03,1.073485143412094764e-02,-1.264642355083545056e-02,9.506194591522216797e-01
-3.963868705548674876e-01,-3.902222098786884419e-01,5.221470885130392592e-01,-1.182607369836596867e-02,-2.619762211246787296e-03,3.346541476359307654e-03,9.157258868217468262e-01
-3.993862720038084957e-01,-3.809694026158427227e-01,5.216551524894972314e-01,-1.057172328100153269e-02,1.177629315221059457e-03,1.646441257992685599e-03,9.121630191802978516e-01
-3.956109691316548882e-01,-3.975399082495791325e-01,5.264032654439778636e-01,-1.773113800624285391e-02,-3.919304407569591982e-03,7.669657642457991184e-03,9.236115217208862305e-01
-3.978952109578514640e-01,-3.833335214158015702e-01,5.193288124647399417e-01,-1.174306729966898520e-02,-3.363772396562569249e-04,-1.623785768049886263e-03,9.102623462677001953e-01
-3.981827620789968325e-01,-4.613177745458704737e-01,5.581906576892704530e-01,8.284775506807229295e-03,-2.753085561894307726e-02,1.409578599221131961e-02,9.910058379173278809e-01
-2.906604587392203620e-01,-4.864895253205743786e-01,5.441384247268418184e-01,7.747519138272175587e-02,-1.689474682017568560e-03,-6.443842892613065032e-03,9.575262069702148438e-01
-2.751825551823884886e-01,-5.005441419472421716e-01,5.347247899750059430e-01,4.528592355285724486e-02,1.132538755314195858e-02,1.652708531105458872e-02,9.468983411788940430e-01
-4.227176275379334602e-01,-4.077650527442606698e-01,5.197273461706488629e-01,2.042608697189303088e-02,-1.873223165056034194e-03,-1.071831429650852525e-05,9.357330203056335449e-01
-3.848633358667289950e-01,-4.258082028318552203e-01,5.642255183126732021e-01,3.432796883723169407e-02,2.167051324366753642e-02,6.533309082901025619e-03,9.728199243545532227e-01
-4.344855679824237704e-01,-4.310908309127248206e-01,5.466898402510386168e-01,-2.668467004128871178e-03,-1.640921432113717684e-03,-2.214002173658198569e-03,9.795050024986267090e-01
-4.241437209430847788e-01,-4.318112890910928980e-01,4.699728975030632583e-01,8.624352128947347651e-03,2.971507941771307608e-03,-3.288152566671495233e-03,8.981319665908813477e-01
-3.973906039716518790e-01,-4.826386629019135954e-01,5.568355873636975373e-01,9.137385666081727920e-02,3.988421112315179706e-02,-1.105206897546677502e-02,1.014567375183105469e+00
-4.380227365179188981e-01,-4.343129951005703648e-01,4.996537775987169860e-01,6.571208216573898829e-03,-1.542745770356945129e-02,8.328132112459250488e-03,9.363888502120971680e-01
-4.421933804285561598e-01,-4.406235070056032654e-01,5.494820648466698376e-01,3.488323734272811595e-03,3.623957720904101630e-04,7.407144888721919245e-04,9.909108877182006836e-01
-4.923982385057641964e-01,-3.715536225190685382e-01,6.094942461928453126e-01,1.016196946002025647e-01,-1.338758356065383043e-02,-4.709582639984540020e-02,1.064792990684509277e+00
-4.465660052564073279e-01,-4.344296421470122960e-01,5.307805605706543695e-01,2.641187734461447525e-03,1.434463808241635699e-03,-2.084972647260152200e-03,9.713559150695800781e-01
-4.618047407131662951e-01,-4.332860789594020212e-01,5.482761035800681748e-01,2.977920311393425588e-03,4.799095487267724183e-03,1.336383774603651028e-02,9.964446425437927246e-01
-4.397132137067473745e-01,-4.450671947277795581e-01,5.152189313619360833e-01,-1.668221256967278299e-03,4.087776631081393303e-03,6.692327859786585328e-03,9.577210545539855957e-01
-4.434873253508819224e-01,-4.319639191980332860e-01,5.174850077796974146e-01,6.618602832259391951e-03,1.953641584345622989e-03,-2.012820828096530384e-03,9.553439021110534668e-01
-3.120182490138438403e-01,-4.769851446277751927e-01,5.455835157806608882e-01,-7.658770598509920258e-02,1.663280999047415595e-02,-1.080800151263614471e-02,9.607019424438476562e-01
-4.407085821996681863e-01,-4.395304383826010852e-01,5.460881126593803980e-01,1.514521127133999084e-03,1.478064309521735136e-03,-3.858433863016028954e-03,9.862375855445861816e-01
-4.414372763285259738e-01,-4.376889018998891268e-01,5.277123019780195490e-01,6.024881870615360346e-03,3.378060288355129274e-03,-3.794125221488902494e-03,9.673771262168884277e-01
-4.440965900919829346e-01,-4.061674607293417338e-01,5.225942911306541427e-01,-2.573132047165560630e-03,2.042421127503938390e-03,-3.358061481108103735e-03,9.483302831649780273e-01
-3.946572243549230641e-01,-3.901907807281596030e-01,5.198119530610012529e-01,-4.330145081874757496e-03,3.963740854916786988e-03,5.902724525619398302e-04,9.123014211654663086e-01
-4.392478570484554257e-01,-4.471248454310700615e-01,5.312194654894274448e-01,3.117578905903263834e-04,1.806752633613763030e-03,5.304656337669746806e-03,9.744781851768493652e-01
-4.434011695198026848e-01,-4.387996139101262294e-01,5.380349129984259848e-01,-4.890144867293210254e-03,-2.849668820183134596e-03,1.799252766424827565e-03,9.791974425315856934e-01
-4.101506535116921093e-01,-4.102928137806322595e-01,5.336877470418114333e-01,1.143758574630356420e-02,-2.906902286157705441e-04,-1.753521487326667808e-03,9.441223740577697754e-01
-4.412586254908045236e-01,-4.414287620836879200e-01,5.529880490895455747e-01,-1.475813346908470564e-03,-9.556187300114610955e-04,-2.070696468406625949e-05,9.943364262580871582e-01
-4.308888422756861347e-01,-4.305731344662862004e-01,5.464871044166278446e-01,-5.155727381843896485e-04,1.926201464881269546e-03,1.434236770058357115e-03,9.772273898124694824e-01
-4.421315081055603446e-01,-4.360105888512526562e-01,5.391397708692905466e-01,4.750766550726879915e-04,2.452242546337285618e-03,1.636920097604877000e-02,9.786455035209655762e-01
-4.521001676929592428e-01,-4.294041051036862067e-01,5.401063984252301164e-01,7.326101763216893992e-02,-2.293279658770344676e-02,4.780906580315834146e-03,9.900594353675842285e-01
-3.916489152892957404e-01,-3.952293865308159626e-01,5.225469960887585419e-01,-1.878664151105796870e-03,-8.283352595867714881e-05,9.476138904636914259e-04,9.159986376762390137e-01
-5.021434222215683807e-01,-3.136901638823487715e-01,5.193329365722300084e-01,1.310017985449454629e-02,1.587090979553846051e-02,2.786576522208352325e-03,9.421899318695068359e-01
-6.007908678900455435e-01,-9.346231955185607676e-02,6.767882773273318220e-01,1.449770334236435698e-01,1.826615774705568976e-02,5.770560633979635035e-02,1.146945595741271973e+00
-4.403751775066164775e-01,-4.317485419182361395e-01,5.501726379603267825e-01,-1.204215745554851596e-03,-4.010087277227212393e-03,1.470707703621625508e-03,9.862927198410034180e-01
-6.174373234924727116e-01,-8.456820013507526657e-02,5.880180578609204289e-01,-6.576534768039266066e-02,3.806457404272294964e-03,1.495601960141982809e-02,1.052811503410339355e+00
-5.551518268194932659e-01,-3.166004612899126491e-01,6.098705209401261707e-01,2.064414690143894643e-02,1.305897139835434165e-02,-1.149849432500447098e-02,1.066983103752136230e+00
-4.348043802418166681e-01,-4.350128885056436800e-01,5.063115104962571111e-01,-6.661987098631232812e-03,-5.704154190074485140e-03,-5.413425206236788419e-03,9.413894414901733398e-01
-4.412778934265722541e-01,-4.449967772062679017e-01,5.501456250779869217e-01,-2.214715465172978608e-03,-1.920631918389244762e-03,-8.532426075331771276e-04,9.933022856712341309e-01
-6.410074056267844878e-01,-1.290298503886488923e-01,7.223186479333212340e-01,-3.045270786182714511e-03,-2.299075974234811651e-02,-3.345610983901502883e-02,1.194888353347778320e+00
-5.694734579155662502e-01,-3.144850816083773482e-01,6.191056338844322937e-01,2.751012890896582450e-02,1.329819899032886428e-03,-1.488758982699642935e-02,1.085175633430480957e+00
-6.060204348084152759e-01,-1.405303930861868944e-01,5.915566808306600421e-01,-7.538206785865270154e-02,2.270671491655614285e-02,-1.144656619444324175e-01,1.072992563247680664e+00
-4.257063432786293844e-01,-4.347754256468887579e-01,4.811347656518686344e-01,-8.120069826930313012e-03,-3.100353452700091092e-03,-3.955802429133516498e-03,9.115595817565917969e-01
-4.380797944304027358e-01,-4.472418597072575497e-01,5.421894300295677649e-01,-2.725530049554693562e-03,-2.533267282733371074e-03,-5.355971156142734328e-04,9.849037528038024902e-01
-6.043926506809176313e-01,-2.318493463821347245e-01,6.098942527180269968e-01,-5.988515607038225053e-02,-1.550836461501192351e-02,3.775132845630768674e-02,1.084740757942199707e+00
-4.311599736239550840e-01,-4.469770139271256881e-01,5.204031111320956970e-01,1.057464560533623787e-03,-3.114881314604462173e-03,1.001415773924168098e-02,9.597430229187011719e-01
-4.299213623584270394e-01,-4.465019643631258917e-01,5.121418165681718149e-01,2.415189680222317586e-03,-2.467107515614460483e-03,-1.763877258932028229e-03,9.504856467247009277e-01
-4.354838425035104654e-01,-4.417513291102239115e-01,5.313382643240471825e-01,-9.214173208856258008e-04,-2.460133491090426769e-03,-2.926682923747125128e-03,9.699949622154235840e-01
-4.299583148552868495e-01,-4.296933261883157384e-01,4.997636914791346863e-01,-2.076161853820100538e-03,1.670616152309064868e-03,1.253866841774237822e-02,9.298546314239501953e-01
-4.334530067314271706e-01,-4.476640159073301262e-01,5.281002747411017717e-01,7.590674511202629869e-04,-1.147192580191667716e-03,5.830401443202649740e-03,9.687925577163696289e-01
-4.339698038461474727e-01,-4.460734233971869189e-01,5.302060632896783421e-01,-9.967553916601090691e-04,-1.927272137627564566e-03,-5.645185032882669290e-04,9.702920913696289062e-01
-4.545903039022305969e-01,-4.038039484888938380e-01,5.294385908287427833e-01,2.070215344575747525e-03,-1.459822538285336169e-03,-5.627827718329462929e-03,9.597036838531494141e-01
-4.421433471194482490e-01,-4.364140934486044343e-01,5.400372882276992526e-01,-1.504144472086026531e-03,-1.395553593090797509e-03,6.473299147936355941e-03,9.793992042541503906e-01
-4.185738232769312117e-01,-4.337294592867627641e-01,4.578265755862395148e-01,-3.849719614687201023e-03,-1.773828552733371523e-03,-2.788031876342131517e-03,8.841193318367004395e-01
-4.292512494848283455e-01,-4.429754331449637927e-01,5.139183206097740486e-01,-7.583555013429483724e-03,4.368129227666398863e-03,1.913272793231347510e-03,9.502326846122741699e-01
-3.896640612970059259e-01,-3.984888431750923665e-01,5.221666768630620625e-01,-1.127653092347736044e-02,2.397088483968353584e-03,-2.875639207019550520e-03,9.165061116218566895e-01
-4.399380028232420248e-01,-4.409928367434917118e-01,5.294071823399580934e-01,4.424796260401142969e-04,1.982875095230470473e-03,-3.664806458494547503e-03,9.699001908302307129e-01
-4.453741199478188917e-01,-4.376024801205503079e-01,5.360674659721728075e-01,4.113877374793886189e-03,-4.764697045307978752e-03,4.706619521925692979e-04,9.776400923728942871e-01
-4.429669529657939142e-01,-4.374366833355237683e-01,5.364186546040170533e-01,2.555716040504831671e-03,-6.974791959933354744e-04,-2.369570344562200916e-03,9.766516089439392090e-01
-4.300434561938835110e-01,-4.487602575750481715e-01,5.229193310673018180e-01,9.885424636115365538e-04,9.757272513810078245e-04,-1.525160403211548799e-03,9.624643325805664062e-01
-4.317055669094465586e-01,-4.467933444961904033e-01,5.158160028569009903e-01,3.918276441604825674e-03,1.657875153629951703e-03,-1.031472845172841076e-03,9.551849365234375000e-01
-4.197065940164663167e-01,-4.403297961038717956e-01,5.416618331122330376e-01,-8.094544374247978485e-03,9.422160011530592624e-04,-9.500453447247021385e-03,9.720859527587890625e-01
-4.417360238346710322e-01,-4.447325188433362553e-01,5.478913146177947224e-01,3.541034494780152374e-03,2.141453606806154996e-03,-1.438460039774318300e-03,9.911580085754394531e-01
-4.303885067986831237e-01,-4.373429562439531959e-01,5.236202156493112714e-01,9.566913895096325208e-04,-7.134934077380491665e-03,-2.669919554730819204e-03,9.575972557067871094e-01
-4.371472086663114598e-01,-4.454138732984025961e-01,5.386612394982945862e-01,2.788024930601109685e-03,-1.232137398065994566e-03,2.078544006463354035e-03,9.799887537956237793e-01
-3.908381689468921616e-01,-4.007796565019223212e-01,5.229970529699919934e-01,-3.055494628849627498e-03,-1.099998228356656319e-03,-1.789323301212729454e-03,9.188687205314636230e-01
-4.358056649881470457e-01,-4.361879806533875414e-01,5.086399548956704875e-01,7.689828383513662782e-03,3.600286244782430721e-03,-3.364272571666566264e-03,9.447692632675170898e-01
-4.425547979061466020e-01,-4.396285722943517049e-01,5.443059020244697122e-01,3.411285091812774409e-03,1.300349283447610775e-03,-3.174368209864913970e-03,9.854364991188049316e-01
-4.445914074863479559e-01,-4.395882429239555411e-01,5.443267509070569554e-01,1.826197273741796048e-03,9.185587463123008958e-04,1.175036476709388072e-03,9.864345192909240723e-01
-1.686745554977530093e-01,-5.269367069289664363e-01,6.137051615191136955e-01,1.840239507482469561e-01,-3.831463483742741233e-02,1.546567216649324776e-02,1.061829924583435059e+00
-3.429426429118710984e-01,-4.055005335088665563e-01,5.224989394113341845e-01,7.135811788749926721e-02,3.746618368059378285e-03,1.089758787671766486e-03,9.068431258201599121e-01
-3.030885860724905068e-01,-4.872564042757325242e-01,5.889817445943966723e-01,1.631109511107083909e-01,1.595684339273310132e-02,3.257932708879655165e-02,1.038152933120727539e+00
-3.860948313144160760e-01,-3.836034685572294878e-01,5.187162385303243362e-01,3.280924051914088646e-02,2.435971889871112010e-03,3.280251035604324697e-03,9.053808450698852539e-01
-4.444556551868235617e-01,-4.364185911856114375e-01,5.283297103771149583e-01,4.941607367824275149e-03,3.480860426224923962e-03,-3.826899284421913031e-03,9.688710570335388184e-01
-3.430623922772295109e-01,-4.524096419037935135e-01,5.661121660713874792e-01,1.565715008359016003e-01,1.425108209393780023e-02,1.679030375147189114e-02,1.006464004516601562e+00
-4.441207922928381846e-01,-4.012049860225292974e-01,5.180865484149556055e-01,-4.677510534550332992e-03,1.038131866939519775e-02,3.670333245125903532e-03,9.417113065719604492e-01
-3.975540448096845925e-01,-4.001758542752648085e-01,5.252952673863421351e-01,-1.314970083087427504e-03,2.929590693269869608e-03,-3.799623696717310817e-03,9.242031574249267578e-01
-3.883016827677996385e-01,-4.399856846422289247e-01,5.700465003210488657e-01,8.677231703352193681e-02,5.385003397160989178e-03,7.231585405471181380e-04,9.966496825218200684e-01
-4.167330241923852263e-01,-4.061992575762770619e-01,3.608921322631587492e-01,-1.281368182774586008e-03,2.755817378039727983e-02,-2.734275953238677476e-02,7.753365039825439453e-01
-4.407128289031289059e-01,-4.397798468310077369e-01,5.482063959141663112e-01,1.175094423392862011e-03,-9.389711872733593964e-04,8.727192699848336337e-04,9.884576797485351562e-01
-4.427364041127376248e-01,-4.428258203663766324e-01,5.527587073216989610e-01,1.428959297296303072e-03,4.734808956315582568e-04,-5.843330708245939693e-05,9.955432415008544922e-01
-4.450196415919789317e-01,-4.418809883284502416e-01,5.515658958179803228e-01,-2.284478726856415710e-03,-3.787645497143872584e-05,-1.170238478497536826e-03,9.950298666954040527e-01
-3.712321412642878848e-01,-4.531076459170643722e-01,5.448644478592848950e-01,2.663660903570927094e-02,-3.558865779379831104e-03,-9.068508961031319926e-03,9.609139561653137207e-01
-4.348433550699051797e-01,-4.336331663775817025e-01,4.915714238205640685e-01,-1.038874636078575796e-02,-5.090666411172058842e-03,1.552260332079577129e-02,9.264172911643981934e-01
-4.191197863789339895e-01,-4.354030922590161889e-01,5.459553151257455772e-01,2.091273477008958638e-03,1.563723289452112388e-03,-1.667217149970676854e-03,9.733337163925170898e-01
-4.260994260388844546e-01,-4.040891496743336808e-01,5.401480856264022634e-01,2.190546790226777923e-03,-7.002963430279488324e-03,-9.292214864286378606e-03,9.556525945663452148e-01
-4.341012806965087734e-01,-4.370917033927834705e-01,5.411447629804462256e-01,2.222874577649974412e-03,3.250021624893387542e-03,-4.381626778765960800e-04,9.767687916755676270e-01
-4.421160395993588565e-01,-4.376232363353085297e-01,5.513124305443997120e-01,-5.259890626277778907e-04,8.059019458138041558e-04,-7.052056087600293462e-04,9.911918640136718750e-01
-4.422507621706622816e-01,-4.412259250674236410e-01,5.526232805297680573e-01,-2.092562647841240790e-03,5.371069651727875894e-04,-1.244748537352276556e-03,9.943714141845703125e-01
-4.340797830591833772e-01,-4.352116453476010949e-01,5.404170829408860843e-01,1.166392433154264229e-03,3.242589965858239456e-03,-9.221696241073979502e-04,9.750828742980957031e-01
-4.427019358177937680e-01,-4.414179743883868690e-01,5.533002756606568706e-01,-9.773183451989059418e-04,-1.880350405259242214e-03,3.312630806508365844e-04,9.953677654266357422e-01
-4.239428188254537044e-01,-4.231340229193009672e-01,5.424018339134317745e-01,4.543809201527341905e-03,5.591255705474152023e-03,1.951182644464908938e-04,9.660211801528930664e-01
-4.852722013896054176e-01,-4.309934738280921662e-01,6.229840406632789485e-01,1.147517977142695628e-01,3.506392700746121388e-03,3.115857308364472500e-02,1.101579189300537109e+00
-4.430499222357020539e-02,-8.286138585707926163e-01,7.250234573982002884e-01,-7.643595574211191346e-02,2.088055026003547698e-02,-4.273398534289882256e-02,1.354515314102172852e+00
-4.329874418274354264e-01,-4.235279514361088293e-01,5.401998314416327496e-01,9.917697522843165955e-03,-5.258001152464728337e-03,-3.655075789748233640e-03,9.687079787254333496e-01
-4.203745879108713446e-01,-4.246686003120535569e-01,5.439176091698129101e-01,5.052415040767114715e-03,1.111790982404528257e-03,-8.353166374813815812e-03,9.665961861610412598e-01
-4.410897302940559039e-01,-4.415573168291208606e-01,5.453639414243319772e-01,-3.024213003670369552e-03,-2.118529721400225219e-03,-2.056278373781708635e-03,9.867147207260131836e-01
-2.779606240560826280e-01,-5.705091394080061828e-01,6.733375851162579639e-01,-1.389652011946679866e-01,-1.878001148938782464e-02,1.076008604902303420e-02,1.152472615242004395e+00
-4.397137328664889044e-01,-4.291738351469355228e-01,5.457172635155371765e-01,-2.651223842167987985e-03,-5.590072915944468458e-03,3.917843532187982331e-04,9.802623391151428223e-01
-4.410188020235573658e-01,-4.410964209435692118e-01,5.503251543832771153e-01,-2.670586603208891224e-03,-2.542474693507988746e-03,-2.239043621793657384e-03,9.914109110832214355e-01
-4.375307072403250563e-01,-4.434344636285283414e-01,5.346813124538027928e-01,-4.925040483105464807e-03,-3.141831063507344660e-03,-2.625274959264600402e-03,9.752404093742370605e-01
-4.334103589335665530e-01,-4.385149489683709545e-01,5.498382378133028769e-01,3.848578873124490745e-03,-2.357197509087234502e-04,8.748179705389833374e-04,9.858345985412597656e-01
-4.385449348626476729e-01,-4.375166499189387936e-01,5.496145497339427477e-01,-2.601995156979256592e-03,-3.344100408680912052e-03,1.730746339598067136e-03,9.876775741577148438e-01
-2.386175788097764927e-01,-5.823033979964582496e-01,3.260638546381476877e-01,1.134783225826062614e-01,1.000088746885727242e-01,1.054851551628026296e-01,8.561990261077880859e-01
-3.871927362406809014e-01,-4.004614054673514278e-01,3.233968602026460193e-01,-7.896809096352734245e-04,2.454799865620908416e-03,3.958060002316641374e-02,7.205983996391296387e-01
-4.127366002669121681e-01,-4.152865021758224140e-01,4.086075675237670346e-01,8.702887229975895395e-03,-1.794204126311862643e-02,-5.393667733382960690e-03,8.233998417854309082e-01
-4.241456143910211640e-01,-4.367973760274167505e-01,4.781117405634804918e-01,-6.926416423624072796e-03,8.973881833139041656e-03,1.268888521039446618e-02,9.091271162033081055e-01
-4.390146427171155996e-01,-4.400982677112100783e-01,5.494635924331340293e-01,1.414570270692555804e-04,1.631783483873390072e-03,2.476573833248820345e-03,9.890338778495788574e-01
-4.414608353275751851e-01,-4.398278218697151964e-01,5.524164093864448732e-01,-4.315186704135063125e-03,4.024806472919131503e-03,1.054993584271271068e-03,9.931160211563110352e-01
-4.283289689227705033e-01,-4.463411352847357905e-01,5.087123215160802570e-01,-2.832771232758356413e-03,-1.170252778700483533e-03,-1.671293780269038527e-03,9.461953043937683105e-01
-4.390072057809278894e-01,-4.391179212051198322e-01,5.483720082988818856e-01,-1.428064689210664607e-04,3.318183856834667177e-03,-2.339540194401079740e-04,9.874514341354370117e-01
-4.245563366314796250e-01,-4.479974041590965572e-01,5.079643297184965878e-01,-1.505174062525264011e-03,-2.156224235704646327e-03,-1.329960937257549606e-03,9.444732069969177246e-01
-3.698114101982334923e-01,-4.673866769691663592e-01,4.510449838207959417e-01,1.070364484696756033e-02,-3.480151936882248942e-02,-2.177822633679944719e-02,8.768246173858642578e-01
-4.455478241716655519e-01,-3.877069173879138519e-01,4.926796550148191400e-01,2.576595968351304191e-03,-1.023642927989412699e-03,3.179784034777434140e-03,9.107150435447692871e-01
-4.409517625978208732e-01,-4.368298223331250063e-01,5.442931868009843743e-01,-1.979128603789626507e-03,-1.686338783993779952e-03,5.507761520872933234e-03,9.832470417022705078e-01
-4.462204431781808256e-01,-4.228058606028495814e-01,5.452211015345220790e-01,2.687327303461545160e-03,5.973425000415490647e-03,1.958825791337805156e-02,9.805968403816223145e-01
-4.275384015327617915e-01,-4.471516304740471015e-01,5.056226569142698857e-01,4.537598054045454419e-04,1.699083607859543348e-04,-2.498156477596444672e-03,9.431309103965759277e-01
-3.603746864051293186e-01,-4.182482432582510512e-01,3.392093664872659620e-01,2.293181766024510876e-02,-5.589859378637819509e-02,-1.267660032556539376e-02,7.380300164222717285e-01
-4.289991865551309735e-01,-4.171624883897429026e-01,4.260040051611339029e-01,-5.501475802656777443e-03,-3.641851200880155681e-02,-9.416138825806658411e-03,8.516958951950073242e-01
-4.305928579694927594e-01,-4.439013082556296785e-01,5.143993376386647443e-01,6.414266192141943046e-03,1.261142332418640176e-03,-1.856347722866630214e-03,9.517889618873596191e-01
-4.416632174180015191e-01,-4.249232896241997293e-01,4.831154784513794764e-01,-5.391844615178674298e-03,-1.572371484663008523e-02,-9.041811087567217659e-03,9.171091914176940918e-01
-4.255190382627860313e-01,-4.143898838789154548e-01,4.242371073883565158e-01,-9.727028888286521138e-03,-2.997418035554737931e-02,-1.661723262256415215e-02,8.464986085891723633e-01
-4.147906255003639409e-01,-4.322831678263553412e-01,4.346901650581754817e-01,-7.494878574526722161e-03,1.698622629506596048e-03,-1.718033587266945897e-02,8.589795231819152832e-01
-4.479366083935384935e-01,-3.796865896294081555e-01,4.587417527826734842e-01,1.350765239756243283e-02,1.937040313085994919e-02,1.054836263892891535e-01,8.943692445755004883e-01
-1.260142468516561309e-01,-7.271693562467530514e-01,5.906754057817736880e-01,-4.538339303555189580e-02,-1.289627768164072763e-01,1.044401553178421621e-01,1.180961251258850098e+00
-4.308440529540237263e-01,-4.551043526678376638e-01,5.489744216268371835e-01,-1.651752803359789320e-03,-1.087724728139714131e-02,4.349747181945662908e-04,9.923543930053710938e-01
-4.414877140569893887e-01,-4.422139109233320653e-01,5.519850359469056222e-01,1.456181805813495976e-03,7.552260564784697781e-05,-1.761477124435363931e-03,9.938439130783081055e-01
-4.291148318296142405e-01,-4.346246530806975317e-01,5.469478326367238630e-01,-5.747388799363199741e-04,3.021459026179003620e-03,1.640399629456428671e-03,9.788478016853332520e-01
-4.388328432092967191e-01,-4.432758019862553800e-01,5.403927859522181798e-01,3.188087472885925769e-03,2.533277755373276961e-03,-1.416717853780946612e-03,9.814830422401428223e-01
-4.396124302077877855e-01,-4.338056817520303809e-01,5.518882211797506709e-01,-2.157838244019336452e-03,-1.299555568123714937e-03,1.973411812862152590e-03,9.886255860328674316e-01
-4.388020833077088123e-01,-4.438346039733189197e-01,5.441390621549625495e-01,2.369265982028797429e-04,-3.329485426710426625e-04,-2.325680560164424936e-03,9.854755401611328125e-01
-4.423852949161874437e-01,-4.394934849217547734e-01,5.469677038566687077e-01,-3.317643850249602281e-04,1.717202944448417614e-03,3.585081871623530675e-03,9.879344105720520020e-01
-4.417136509162297719e-01,-4.447073024437055988e-01,5.530608176767168871e-01,9.015034232126517772e-04,9.757577099105466372e-04,-1.134258562546124017e-03,9.962792396545410156e-01
-3.840406613214676357e-01,-4.000453685998235920e-01,5.205386158137822461e-01,-1.149374247411420746e-02,-1.556416433294565294e-03,-8.288047167665237806e-04,9.129090905189514160e-01
-4.422272196381801801e-01,-4.423310475975578693e-01,5.543775806879247536e-01,-3.636851548357071745e-04,-1.319549383690778575e-07,1.877249306766032386e-03,9.966621994972229004e-01
-4.398656074109447700e-01,-4.393274029520745638e-01,5.499477165532496992e-01,3.280176609973795097e-03,5.075247827929747074e-03,-1.160786711029932871e-03,9.896017313003540039e-01
-4.213894743737210957e-01,-4.406573144602441983e-01,4.068356419803054180e-01,2.695216563149893316e-02,1.823790461501696714e-02,-1.088697463322676473e-01,8.608258962631225586e-01
-3.978050861729696686e-01,-3.933403296912325042e-01,3.319813253081752569e-01,-6.872905208178044798e-04,1.601997927733106886e-03,-3.639692463239843634e-02,7.302966117858886719e-01
-4.295395558321002949e-01,-4.231610677174409418e-01,4.023114658643525132e-01,-9.999084855341689934e-03,-7.167151233198154614e-02,-1.486084562636231371e-02,8.385009169578552246e-01
-4.022643755315575276e-01,-4.049324521148429668e-01,3.538908645154313914e-01,-9.196312034151983214e-03,-1.516934529377357566e-02,-3.458782766010619174e-03,7.581393718719482422e-01
-3.965509653298949222e-01,-3.996584590954877503e-01,3.477526814872934358e-01,-3.857193988134722997e-03,-2.548176407623139669e-02,-6.902639481478031400e-03,7.472924590110778809e-01
-4.298767331933883717e-01,-4.040310941876328887e-01,4.101496484556129696e-01,-3.775536165350878298e-03,-2.880924353586991615e-02,-1.358723256417167713e-03,8.289387822151184082e-01
-4.439613627309066946e-01,-4.088401477332547773e-01,5.475568206888473677e-01,-2.795401560966055601e-03,6.866783075986995777e-03,7.507549002223227325e-03,9.746037721633911133e-01
-4.446504361276323314e-01,-4.410229539207200511e-01,5.507707316492567173e-01,8.490491590706770357e-04,1.155730541478768069e-03,-1.683834236055088175e-03,9.936197996139526367e-01
-4.277908088381103258e-01,-4.424935853409555642e-01,5.065710078894012369e-01,-1.131363569572599401e-03,7.577268423921041133e-04,-7.852446938076568586e-03,9.419004321098327637e-01
-4.386359187484158428e-01,-4.410570369240359168e-01,5.359135006131576784e-01,8.242648928499817819e-04,2.045047682106227328e-03,5.499313056368411272e-03,9.758161902427673340e-01
-4.396479715916927211e-01,-4.300349780986797987e-01,5.093368062256397044e-01,-1.995134630345959861e-03,6.534663819038874499e-03,2.762622956027168189e-03,9.443012475967407227e-01
-4.360186051430572918e-01,-4.438458395780471299e-01,5.257166486132918148e-01,-6.810344395640567476e-03,-3.042823321769182101e-03,2.131456760153207196e-03,9.657661318778991699e-01
-4.408898922127577058e-01,-4.357545503858910041e-01,5.239795782945089186e-01,5.677104235960712432e-03,4.644762869593830300e-04,-4.521875936235063287e-03,9.623945355415344238e-01
-4.331578664823376168e-01,-4.344707841657312608e-01,4.979055507639157385e-01,-7.038691410755850905e-03,-4.482205026482835412e-03,-1.611975128546468128e-02,9.322508573532104492e-01
-4.329542699033747666e-01,-4.409306532928343181e-01,5.233686354155792086e-01,1.281305007681617222e-03,7.950682972292153459e-05,4.127884270100771243e-04,9.603387713432312012e-01
-4.425724750478819414e-01,-4.413970816685061083e-01,5.531736479599532741e-01,1.548206621541755668e-03,2.206255731350384181e-03,-2.994578046520559125e-04,9.951700568199157715e-01
-4.398534823326554211e-01,-4.380362013015459688e-01,5.355610552018874593e-01,-2.497158631737546146e-03,-1.210950175785124525e-02,-4.528744373187307791e-03,9.747740030288696289e-01
-4.233330324272664424e-01,-4.135177452352519212e-01,5.402358378613436596e-01,-2.461981116334266678e-03,2.996243618852793226e-03,2.248532985825688144e-03,9.587303400039672852e-01
-1.527269642984825371e-01,-5.631436093497497186e-01,5.267483436133512109e-01,-4.098101481497900406e-02,-1.517777690562099047e-01,1.865810438294619733e-02,9.920628070831298828e-01
-4.353178733806149503e-01,-4.645310200793231203e-01,5.526008781783113832e-01,1.005853114458893534e-02,-1.808808053321407996e-02,-1.600207557004090612e-03,1.003488779067993164e+00
-4.434630202236963248e-01,-4.415947898664578930e-01,5.539511095620849312e-01,9.977564494888400623e-04,1.157903756768329699e-03,-1.098136902564785921e-03,9.964866638183593750e-01
-2.169901474190837898e-01,-5.483858228994969997e-01,5.432543808449386002e-01,-2.273069439652563445e-02,-2.122979766758105805e-02,-2.839297069710603784e-03,9.709082841873168945e-01
-4.450613268390693489e-01,-4.106701011570932924e-01,4.402605419528115016e-01,5.214126459695161194e-04,-1.696798416839271142e-02,-6.196866009986741995e-03,8.692007660865783691e-01
-4.366449739840871924e-01,-4.266865250869618098e-01,4.783082047978997053e-01,2.953359602521963764e-03,-1.803118316797537937e-02,4.076836967082524436e-04,9.105651974678039551e-01
-4.473065271857490921e-01,-4.344280128499439786e-01,5.309349226887389861e-01,1.825279822319816805e-03,-5.087407673666610730e-03,-3.705933909223811163e-04,9.719114899635314941e-01
-4.375059375609272050e-01,-4.394409308614931065e-01,5.316011777494226154e-01,-5.689028728480394334e-04,1.258992515296835160e-03,-2.490409047540251102e-03,9.700886011123657227e-01
-4.449075356984107943e-01,-4.289649954692149603e-01,5.114403135781209198e-01,-1.737181168455314987e-03,-6.660353642309725306e-03,-8.657217645496606290e-04,9.485532045364379883e-01
-4.372370044978706738e-01,-4.442497677062386408e-01,5.381102094526252211e-01,1.917791524384398604e-03,3.473842916366026018e-03,-1.969188190130340046e-03,9.789025187492370605e-01
-4.388017254746105489e-01,-4.453876251318624746e-01,5.474073229200183688e-01,1.981220077029036478e-03,-2.636685537500464867e-03,1.463697468204098020e-04,9.895349740982055664e-01
-4.399571412902676393e-01,-4.186363680487553696e-01,4.691722985241715271e-01,2.282001890579754121e-03,-2.175266238068047919e-02,-2.299566130824388932e-04,8.994569778442382812e-01
-4.393550290245284429e-01,-4.374529600207129332e-01,5.205493892360525399e-01,-2.069694125712002401e-03,3.289072401484132054e-03,7.111304675953415352e-03,9.590575098991394043e-01
-4.448073115928811161e-01,-4.316536481534749559e-01,5.172010506742912295e-01,2.668336611346250851e-03,-6.201747182598410860e-03,2.492886812743723597e-03,9.555807709693908691e-01
-4.352061193527158589e-01,-4.405250485812109984e-01,5.286894700311171036e-01,3.989323807685783187e-03,1.871808249506320965e-03,6.707491621100972190e-03,9.666659832000732422e-01
-4.214122508175164317e-01,-4.334483644339949815e-01,4.635980069048382113e-01,-1.696001185029914933e-03,1.902255794612172334e-03,-2.213567380797031026e-02,8.919246196746826172e-01
-4.408190843772664680e-01,-4.452411146953718646e-01,5.509421665808916790e-01,8.796666509619692010e-04,2.556295031458570219e-03,-2.135291256344910241e-03,9.939975738525390625e-01
-4.467330584736368682e-01,-4.382890166441626989e-01,5.413792655352376304e-01,8.700564569442828869e-04,1.835157728329903787e-03,-2.917448768127494339e-03,9.839367270469665527e-01
-4.330852065642432636e-01,-4.375771340393736497e-01,5.121126084741454143e-01,-1.484233160576080594e-03,-1.465092485085220126e-03,-1.087344566122490364e-02,9.476458430290222168e-01
-4.416960377239784186e-01,-4.376158858819001463e-01,5.322297246220066835e-01,5.511551040302787099e-03,2.213782144993849468e-03,3.573123418378580142e-03,9.719662666320800781e-01
-4.215802710403415143e-01,-4.400722124804031243e-01,5.434241358456061155e-01,-3.039557283370676447e-04,-4.746798371792111844e-03,5.285576521050753054e-03,9.744598269462585449e-01
-3.474541564160247842e-01,-4.509038012718991628e-01,5.314836562843469059e-01,-2.823040141514299162e-02,4.656263676783514542e-03,-1.093294177744462761e-02,9.364687800407409668e-01
-4.175689770309328752e-01,-4.363677351048921293e-01,5.465936566147663322e-01,-1.560726638880884304e-04,5.044696375143859109e-03,5.801350650961711874e-03,9.737892150878906250e-01
-4.278980742927501746e-01,-4.204848457085724189e-01,4.606267275673723294e-01,7.354767975305668594e-04,5.042758629304624519e-03,2.990377009575309608e-02,8.864000439643859863e-01
-4.006096440441042073e-01,-4.226500578141442754e-01,5.343555466372094109e-01,-2.028130598899423320e-02,-1.749317084686816386e-03,7.165710837630798538e-03,9.469159841537475586e-01
-4.205173422378669090e-01,-4.228359240686968001e-01,5.424361383988017815e-01,3.216652280274706188e-03,2.372378867920390579e-03,3.047844339529623674e-03,9.641541838645935059e-01
-4.374082554780681642e-01,-4.232566640723600115e-01,5.454284625863196068e-01,-3.468064556857667052e-03,-6.297039743704756568e-03,5.435644357402622147e-03,9.759627580642700195e-01
-4.380253882353818407e-01,-4.350315416275767899e-01,5.465763011350561751e-01,4.967752441392487206e-04,2.379832509133083043e-03,-4.392861421909512176e-03,9.831466674804687500e-01
-4.413843706303075543e-01,-4.431252665752409836e-01,5.527785857311212636e-01,-1.490434109003909748e-03,-5.177859214874994684e-05,-2.011955708214156324e-03,9.950439929962158203e-01
-3.884981224480881234e-01,-5.430311529565455819e-01,5.186011233002136844e-01,-5.399077593188211788e-02,8.155082714368652036e-03,1.453185630332952730e-04,9.979132413864135742e-01
-3.778950411044051938e-01,-4.631912662251881918e-01,5.488937367898978348e-01,1.191976750041714994e-02,1.888137982867010845e-02,-9.289308290250929980e-05,9.730160832405090332e-01
-3.202700618104794561e-01,-4.505047561138783019e-01,4.845523249070802230e-01,-6.861490232101963294e-02,-2.115582437188694848e-02,6.087518572521467830e-03,8.860552310943603516e-01
-4.178815508473308626e-01,-4.402976731087055451e-01,4.837989066749712741e-01,-5.542346389260598659e-03,3.905749283910036479e-02,-2.510817773982415568e-02,9.166799783706665039e-01
-4.356825094046611335e-01,-4.260808891671247212e-01,4.335504949865421898e-01,8.138826759575060882e-03,4.897809683739483971e-02,-2.446256725432195342e-02,8.697716593742370605e-01
-4.416485286055833459e-01,-4.744512902069474847e-01,5.886235109921764685e-01,-8.702725678878685256e-02,8.609856640075300854e-03,-3.329177753484786201e-02,1.059528589248657227e+00
-4.321085059681566976e-01,-4.476388998435098521e-01,5.271659537940136531e-01,9.988054656630209090e-04,-1.113325087421613213e-03,4.461099418950091253e-03,9.671674966812133789e-01
-4.460405310651008870e-01,-4.458359875589507637e-01,5.302500777294342216e-01,1.180323503768306633e-03,-4.548082366774860649e-03,1.146088137432056848e-02,9.764240980148315430e-01
-4.332283698700501451e-01,-4.493513036170282415e-01,5.295748081759035220e-01,1.064165793994208652e-03,2.128610854399926641e-03,-2.580869875761491929e-03,9.709841012954711914e-01
-5.597739490368838222e-01,-3.097465329610782914e-01,5.503880685527969829e-01,7.043760565692164244e-02,2.173468215893247305e-02,3.411343558121392693e-03,1.016729474067687988e+00
-4.417791882442347884e-01,-4.253452508513597130e-01,5.203811793203055869e-01,-1.802646387266105014e-03,1.974896318160404996e-03,-6.791286265436990641e-04,9.540615081787109375e-01
-4.314565567237561572e-01,-4.480999043677670879e-01,5.280727273477788808e-01,-7.369000518380588787e-04,3.747556836776237362e-04,4.314696789658724503e-03,9.679881930351257324e-01
-4.489729327521266855e-01,-4.320093283467207890e-01,5.182341990798635667e-01,-1.040026924386097066e-03,7.010492971540209506e-03,1.224163744989704809e-03,9.589188098907470703e-01
-4.620144984326811644e-01,-4.063170012160460809e-01,5.380129914949534076e-01,2.153961059648120888e-03,-2.885750110571422972e-03,6.571719248540283361e-04,9.733952879905700684e-01
-4.338815306318698495e-01,-4.479010037595141380e-01,5.283042971352498451e-01,2.479479296482424260e-03,-4.250924088715126717e-04,3.162481758510448868e-03,9.692968726158142090e-01
-4.407600187400864122e-01,-4.482382355247139794e-01,5.376341002046952644e-01,1.757679809525052083e-03,-1.491167410740683059e-03,2.037976150902821425e-03,9.821690320968627930e-01
-4.319125034345131509e-01,-4.503070089622854821e-01,5.263355652416351615e-01,4.385652007851205988e-04,8.134427580111355718e-04,-1.851568303278963625e-03,9.675831198692321777e-01
-4.061134819586602052e-01,-4.001770586162623489e-01,5.284776196331921749e-01,-1.580439249779537004e-03,1.095332396782107897e-03,1.546571640025824930e-03,9.316468834877014160e-01
-4.570705148578275145e-01,-4.212439025722234942e-01,5.419403620325212723e-01,-9.069550100821381199e-04,-5.363404359141369857e-03,1.621377322480044639e-02,9.820348620414733887e-01
-4.389361140087097435e-01,-4.416797595056068948e-01,5.394625740716642026e-01,-2.885771616114992007e-03,3.048974763217414050e-03,3.121060624905661225e-03,9.798153042793273926e-01
-4.651732492409526576e-01,-3.711954976416624308e-01,5.470121947783475047e-01,-4.573549920388185475e-03,1.067466030134630456e-02,-1.616259794868828842e-02,9.692350625991821289e-01
-4.299011848723084950e-01,-4.301854507729331312e-01,4.618243291755119717e-01,-9.483220068450582546e-03,-2.521322283116145258e-02,-1.932447886547880925e-02,8.937142491340637207e-01
-4.514253199796665061e-01,-3.755044378558876073e-01,4.559501117286234306e-01,9.900227536545716869e-03,-7.714286338435053306e-03,-2.748486654934450407e-02,8.734667897224426270e-01
-4.382961517418532127e-01,-4.364728082833433387e-01,5.067774059578691315e-01,-1.063151214885904756e-02,-8.341238748846593193e-03,-7.601952759212826649e-03,9.445450305938720703e-01
-4.103688654638289468e-01,-4.025530290256779109e-01,3.824884194690827410e-01,-7.856317645244871237e-03,1.963718377150323326e-04,5.252004444928868058e-04,7.890963554382324219e-01
-4.317124867201879157e-01,-4.216958933131584875e-01,4.536736726571917178e-01,-5.714989860786228067e-03,3.413759896692231469e-03,-6.449207317235836762e-03,8.805669546127319336e-01
-4.319886228831194552e-01,-4.490597966199182389e-01,5.244332246344710624e-01,-3.726335951044889975e-04,-1.076459038352957625e-03,-1.246105672258133014e-03,9.650751352310180664e-01
-4.459037273462070905e-01,-4.358317387875861870e-01,5.288153858433062293e-01,3.227750583213249112e-03,-7.714939058489118581e-03,2.685020507138462936e-03,9.698416590690612793e-01
-4.113477465762509500e-01,-4.127743500408008748e-01,5.596779862696507069e-01,6.585659198241639034e-02,-1.701145246954386195e-02,-1.302496661633692487e-02,9.791152477264404297e-01
-4.252599608814501830e-01,-4.244952596510002674e-01,4.685344139513051287e-01,1.793186032160084924e-03,-3.829782382181987077e-02,4.367150685864082740e-03,8.959087729454040527e-01
-4.501412689501988473e-01,-4.340803303278025216e-01,5.395322870401281223e-01,-3.819137189743806397e-03,3.988131882719202215e-03,1.026666981845857779e-02,9.819492101669311523e-01
-4.118178324117525158e-01,-4.384163711430221766e-01,4.665636462242648275e-01,-7.801731029154615471e-03,-9.395119906436872129e-03,-1.788573750139695702e-04,8.922290205955505371e-01
-4.605661652644942872e-01,-2.178600411333799503e-01,3.249306789237285109e-01,1.517265147028797334e-01,-5.295903229107024046e-02,-6.513541930160778037e-02,7.585982680320739746e-01
-2.767299920867335450e-01,-4.966418993745870814e-01,5.483051579206219550e-01,-5.348444481326578015e-02,-2.485389536247951253e-02,1.610283327058151942e-02,9.600479602813720703e-01
-4.349901216201851883e-01,-4.408400383543906731e-01,5.384420046301474638e-01,-3.443030194342164838e-05,-1.118844875336193374e-02,3.107186290756918171e-03,9.765773415565490723e-01
-4.439378927723643953e-01,-4.388066104717940341e-01,5.423858210746507202e-01,4.895198163147817215e-03,-1.570646662159487592e-03,-1.835805924545495099e-03,9.838135242462158203e-01
-4.331249285340373345e-01,-4.391920911484069601e-01,5.291722972880795739e-01,-2.465340472745255161e-04,4.973788300188232599e-03,-1.075059852208927946e-03,9.653854370117187500e-01
-4.141762433045533820e-01,-4.529362179930694898e-01,5.400663046716515092e-01,-1.235280875552315387e-03,1.092497944753712501e-02,-5.335545060506231667e-03,9.744309186935424805e-01
-4.488682523450820416e-01,-4.143174485168227839e-01,4.397416431745521104e-01,-1.593346807497485890e-02,6.519789716290261272e-02,8.520155254145464485e-02,8.918581604957580566e-01
-4.362379467432863644e-01,-4.406806827270187688e-01,5.491899204311703198e-01,1.145848367235369376e-03,5.355119851255299088e-03,4.512823752049792241e-03,9.877331852912902832e-01
-4.127177281365854711e-01,-3.746507613358134869e-01,5.246014563442998879e-01,4.977678135155539675e-03,-1.885262526375691694e-03,-8.960796068862659971e-04,9.189248085021972656e-01
-4.262612791756061892e-01,-3.794221914367303938e-01,5.321075736869180783e-01,1.059397657895759341e-02,-5.534820103321068906e-03,4.787631212941814013e-03,9.360945224761962891e-01
-4.345980837536926877e-01,-4.261561024622691485e-01,4.788553211716775060e-01,-7.448274072909552915e-03,-2.571030063877181079e-03,-3.189503070496504250e-03,9.093810319900512695e-01
-3.934070458764342693e-01,-4.033794743877471278e-01,5.257790780549558285e-01,7.046464861078649035e-03,-3.559920011701563601e-03,-7.343537376106333602e-04,9.243147373199462891e-01
-4.059813319349643290e-01,-3.476164872092278313e-01,5.137417718897512309e-01,2.524171066858934415e-02,-1.122258624910871206e-03,-1.312401882780074938e-04,8.930469155311584473e-01
-3.799157189722483507e-01,-3.901291474243175350e-01,5.310761583630652094e-01,3.427000636506200709e-02,-1.664070536915340098e-02,-1.184362291710180232e-02,9.187435507774353027e-01
-4.099938291295142645e-01,-4.286683783853351692e-01,5.353253885185306205e-01,1.995616232456481551e-02,8.495880753855567305e-03,3.440643205108220512e-03,9.555508494377136230e-01
-3.520447031907781854e-01,-4.456294457400742370e-01,6.536071952328547097e-01,2.268573471279020093e-01,-1.375176491345963051e-02,-1.880168649618734270e-02,1.127043962478637695e+00
-4.411759107410362923e-01,-4.431313033837064874e-01,5.513330089508995391e-01,-1.081045966688131549e-03,-2.100399595672504567e-03,2.682868588033470152e-03,9.935073256492614746e-01
-4.386832938062462661e-01,-4.449826226943492946e-01,5.425376052940868998e-01,-1.084128558552007338e-03,-3.000900809194071046e-03,-3.495573265527575054e-04,9.844014048576354980e-01
-4.419670354579005589e-01,-4.369204177236334363e-01,5.360793516513587820e-01,-2.593219469763129344e-03,-4.851697443778772928e-04,-3.785596626207849910e-03,9.755656123161315918e-01
-4.372884709460450048e-01,-4.430743114118012027e-01,5.433120229822978597e-01,3.325382402086278434e-04,2.019033988479542081e-03,1.377062770593092452e-03,9.835154414176940918e-01
-4.407418312811067773e-01,-4.359414719145536798e-01,5.305274783864584176e-01,-1.817299986238626658e-03,1.048753196285007053e-03,5.386129751163478557e-04,9.688853025436401367e-01
-4.000504296383625702e-01,-3.956962449037948470e-01,5.273467617624435499e-01,1.754673653974609879e-02,-6.505316737251072340e-05,-1.595790485605492429e-04,9.257268309593200684e-01
-3.945673418282189537e-01,-3.994381551800768593e-01,5.273847766284736061e-01,9.560136069111588308e-03,-5.534870127608783677e-03,-4.829645203971594421e-03,9.246329665184020996e-01
-4.147777166233796997e-01,-4.080004422429461264e-01,5.369900712940922638e-01,3.357641524510911885e-03,-7.323339273374692565e-03,-1.118552472456702668e-02,9.486978054046630859e-01
-4.368471248360739079e-01,-4.380371506408496929e-01,5.484863538928597126e-01,1.649943098361879691e-03,3.990468811616748254e-03,2.147914058691144292e-03,9.859644174575805664e-01
-4.438749450752041970e-01,-4.390469846340175897e-01,5.467089565456867417e-01,-2.380504493352090384e-03,2.140711580230316054e-03,2.226833960698220089e-04,9.881944060325622559e-01
-4.125328639808802933e-01,-4.246931700963355594e-01,5.411735012929883570e-01,9.174384939017267209e-04,-4.812906570706995159e-03,-3.286079783005924765e-03,9.598987102508544922e-01
-4.372765669883600936e-01,-4.328281327315560700e-01,5.020868495073174120e-01,-8.298944252133021865e-03,-4.438190731830678366e-03,-4.602764901843039991e-03,9.373227953910827637e-01
-4.402958635970425916e-01,-4.383015824936032367e-01,5.500474515648620111e-01,-1.481551474469231921e-03,-4.920028690832826609e-03,7.893246693201487127e-03,9.894821643829345703e-01
-4.262155979242378545e-01,-4.361697624416010499e-01,5.490532063594224521e-01,-5.650159982765880044e-04,1.085388224165358649e-03,-1.506930875187528643e-03,9.802895784378051758e-01
-4.107550911598502053e-01,-4.026195767916551649e-01,5.331520654650491187e-01,9.469450986555412800e-03,-6.633394605352475534e-03,-1.897022105027515275e-03,9.400848746299743652e-01
-3.998843851304199615e-01,-4.054390208618586233e-01,5.296025218675484147e-01,1.185238678937194923e-02,1.471803764653700211e-03,-5.407912925790066966e-03,9.325531721115112305e-01
-4.378083817284648127e-01,-4.346158090082858361e-01,5.496943789612174225e-01,1.495330030362492912e-03,1.401157240068080963e-03,-1.350816819407005048e-03,9.859195351600646973e-01
-4.430682378332057025e-01,-4.390428376355909323e-01,5.376420825482468580e-01,-5.312996524693133077e-03,-1.483036509414576353e-03,2.042856114327233890e-03,9.787568449974060059e-01
-4.380343372497190746e-01,-4.419564543506693255e-01,5.498174744680095483e-01,1.733802078696085265e-05,-1.992636077748563008e-04,6.254673993758998575e-04,9.898193478584289551e-01
-4.372849906226700667e-01,-4.382619053419601896e-01,5.500763623492689325e-01,1.051809682022567666e-03,2.033540028154924920e-03,-4.681837648371892958e-04,9.878584742546081543e-01
-3.809066281829836531e-01,-4.495555726839384203e-01,5.368955683772698162e-01,1.731949029394327932e-02,1.392253301402535809e-02,-6.175267963402747244e-03,9.548169970512390137e-01
-4.114333732300083923e-01,-3.852742714456874329e-01,5.376765307068912536e-01,3.815217834012370884e-02,-1.054283298049405251e-02,-1.054602308134632016e-02,9.389888048171997070e-01
-4.381564051131275339e-01,-4.967446982867788630e-01,5.283366838986632841e-01,2.651944218917165474e-02,9.270805594896296131e-02,4.727521091684976778e-02,1.014280915260314941e+00
-4.464578089766632063e-01,-4.323530274197705525e-01,5.414207398557887574e-01,-7.566568512528827183e-04,5.748444142509475914e-04,1.057375420976333635e-02,9.810745716094970703e-01
-4.303937135007628312e-01,-4.252009174504398081e-01,3.919815803276552879e-01,1.060460178503036394e-01,-4.563927052372701576e-02,3.371769444552796119e-02,8.458454012870788574e-01
-4.279522712516734551e-01,-4.364989543675132921e-01,5.474278614218289762e-01,1.948647643143189929e-03,-3.305424633344251559e-03,1.037603363312631505e-03,9.797056317329406738e-01
-4.304754293957866462e-01,-4.387898474700316909e-01,5.449675402825003845e-01,-1.788001905892889348e-03,3.541477026693263391e-03,-1.153945034567015020e-03,9.796527624130249023e-01
-4.380530018237277501e-01,-4.463989869706404545e-01,5.341862840024281800e-01,-7.912749572571597945e-03,-3.257464398904724202e-03,-1.268794859742173025e-03,9.765539765357971191e-01
-4.313286609518660608e-01,-4.318389998818397690e-01,5.013712677017604369e-01,7.932520051795250359e-04,2.710288706521167459e-03,1.883609918595779281e-02,9.335382580757141113e-01
-4.387949623478757388e-01,-3.848486057198517996e-01,3.715885727363910096e-01,9.312750543086900645e-02,-5.834556909755046761e-02,3.915976195072058685e-02,8.103985190391540527e-01
-4.384801089909940996e-01,-4.426353169355173311e-01,5.451998643362182539e-01,-1.543946224313033026e-03,6.296934171334606567e-04,1.094226778806347547e-03,9.857702255249023438e-01
-4.416709450637125722e-01,-3.734844251488642630e-01,5.358511110250021581e-01,-8.419895509254579635e-03,8.368445268086558558e-03,7.020151777641557567e-03,9.455768465995788574e-01
-2.619569816214085689e-01,-4.340784181431290856e-01,4.174394046188408813e-01,1.674406327812137940e-01,1.244393539898451528e-01,7.195078091372872353e-02,8.684694766998291016e-01
-4.345439514883212562e-01,-4.125215328304156492e-01,5.445720294563101138e-01,5.823732774413454671e-04,8.358816742283651027e-03,2.571263663931749703e-03,9.684116244316101074e-01
-4.468808039578668900e-01,-4.268853126996843272e-01,5.037420407203522243e-01,2.511758975061013054e-03,2.997677867621645342e-03,-3.837589779716051681e-04,9.408091306686401367e-01
-4.376881427954680270e-01,-4.344995273531343516e-01,5.472047683610430369e-01,2.788194426834540718e-03,3.295461724494730231e-03,3.493157303952856146e-03,9.833495020866394043e-01
-4.509005610025915156e-01,-4.323042961972240472e-01,5.268488211961106504e-01,-5.892122453869765627e-04,5.555112415472993753e-04,-8.896788956964587092e-04,9.685873985290527344e-01
-4.469906257499972613e-01,-4.365898348642244242e-01,5.357958813891914307e-01,2.236274036401238695e-03,1.136392037244704023e-03,1.388952276912675671e-03,9.776402115821838379e-01
-4.431629654746080949e-01,-4.317708870189500558e-01,5.162328777335022378e-01,2.923051691754320353e-03,-1.561372130309403652e-02,1.766286894278507307e-03,9.541525244712829590e-01
-4.453260726777537037e-01,-4.372028403026990140e-01,5.382592601189060133e-01,2.639966059712899223e-03,-2.118063496640538914e-03,9.549093028879541804e-04,9.795679450035095215e-01
-3.899728845045825620e-01,-4.448201130827303396e-01,5.089281752540526504e-01,-1.081133859211749482e-01,-3.380298316073081927e-02,-4.630623002632315750e-03,9.480987787246704102e-01
-4.354345466763781536e-01,-4.239437019833632858e-01,4.726108612481700888e-01,4.413075628446404969e-03,-1.131869580547477903e-02,1.025272630492774818e-02,9.027748703956604004e-01
-4.078636683703028565e-01,-4.562852131944629686e-01,5.405346244673066014e-01,2.731024826936713848e-04,-1.355449846902085503e-02,-8.337074501232463394e-04,9.737969040870666504e-01
-4.143658344292405205e-01,-4.604164199351813425e-01,5.357958917641090224e-01,-3.645923635047267075e-02,2.701789282947562876e-02,-3.573957904037246107e-03,9.771896004676818848e-01
-4.365686846411109823e-01,-4.401237538328638954e-01,5.465961799077652117e-01,1.801885210445041199e-03,9.734651929449705116e-03,5.703742271573176634e-03,9.851459860801696777e-01
-4.437974632525926166e-01,-4.259110791746642533e-01,5.034653481140433096e-01,2.444120796056642626e-03,7.230865882964595051e-03,3.623466832648867056e-03,9.385615587234497070e-01
-4.285871605551492269e-01,-4.456549246299378320e-01,5.066818129339543120e-01,4.787031825328029195e-04,1.160468201494864850e-03,1.220085422920762219e-02,9.441576004028320312e-01
-4.386503753810409023e-01,-4.364038233383477072e-01,5.362939180159382868e-01,-2.253323515160622278e-03,-2.613295421295001777e-03,8.485187238202681476e-03,9.739521741867065430e-01
-4.474558345824123373e-01,-4.401089235861985749e-01,5.390220878914314673e-01,4.985016475009837553e-04,7.993279681879652404e-03,-1.263718928382784757e-03,9.829254150390625000e-01
-4.440836081640306410e-01,-4.379776668836883324e-01,5.430218394762736933e-01,4.434467456960644767e-03,3.146180216402190595e-03,8.128331844847418511e-03,9.842124581336975098e-01
-4.127362856199525698e-01,-4.334863706994407928e-01,4.495021306041162568e-01,5.187909556937380859e-03,2.265758354368161646e-03,-3.972862403482000163e-03,8.728806972503662109e-01
-4.392538711318665356e-01,-4.409226362339497829e-01,5.360045326505059604e-01,1.714478408973741990e-03,4.477482314599365298e-03,-2.317160100604295260e-03,9.761374592781066895e-01
-4.526619430421056633e-01,-4.353177277894718644e-01,5.433615265295959063e-01,-2.277533415443696793e-03,2.856342941928508277e-03,8.499393019109539524e-03,9.875956177711486816e-01
-4.387090521082726013e-01,-4.248108071415258591e-01,4.675816734922626505e-01,-1.000430370952272094e-02,1.956696125496390493e-02,1.654962170712748898e-02,9.006834626197814941e-01
-4.463377632033511677e-01,-4.319352753386248023e-01,5.235215390854567330e-01,1.152576667537763338e-03,7.609096071032656408e-03,2.249456709177540415e-03,9.628390073776245117e-01
-3.969146066711445320e-01,-3.812105058333869478e-01,5.184099335413608900e-01,-1.273922017075578526e-02,-1.445845649261483787e-04,-3.519641793777813664e-04,9.078428149223327637e-01
-4.401372696926695305e-01,-4.357282782915237740e-01,5.403655866632967042e-01,-8.822719070718733521e-04,-4.536198725029336881e-03,8.784713469768451119e-03,9.784568548202514648e-01
-3.437121867775384532e-01,-4.200551063395762119e-01,8.064839791552556036e-01,2.625346634554525105e-01,9.154898442317610519e-02,2.166673765853421862e-02,1.284489870071411133e+00
-4.590903067199888499e-01,-3.952462761322714235e-01,5.486264855955719222e-01,-3.396603127376883555e-03,-3.483958765446320584e-03,1.600984352193010260e-02,9.777895808219909668e-01
-4.110641138076933099e-01,-4.469075054490747601e-01,5.338908678502943816e-01,1.777884662940848459e-03,-1.090121576306796874e-02,4.216626689914241416e-03,9.635944962501525879e-01
-4.417020629824066624e-01,-4.165728061128157189e-01,5.391908183798637122e-01,3.168727668553071065e-03,-4.889061092065870653e-03,-5.182057996003205588e-03,9.686669111251831055e-01
-3.394147118426726895e-01,-5.625201435855710086e-01,9.598941237230176338e-01,3.244483917737532308e-01,-1.159707285733361376e-02,-1.666122340618870698e-04,1.531034350395202637e+00
-4.369291680687219515e-01,-4.392525390441406885e-01,5.369733737337847312e-01,-6.925259318413829065e-05,-1.204867300968831545e-03,1.156526981075752707e-03,9.750705957412719727e-01
-4.285098572945427731e-01,-4.252841544500333137e-01,5.438901096155795978e-01,-1.111046783415198247e-03,-2.832857175742443424e-03,4.721431729423431270e-03,9.708398580551147461e-01
-3.914335499447791911e-01,-4.286955948772562808e-01,5.361491965301448115e-01,1.220291934757250160e-02,-4.714343326077789081e-03,-6.280570376525190443e-03,9.470974802970886230e-01
-4.514560197078471560e-01,-4.016658085279476431e-01,5.463630609375726976e-01,1.362541472152134763e-03,-8.873452704112229014e-03,1.221347528888888992e-02,9.742328524589538574e-01
-3.916358677088964124e-01,-3.945738243850211435e-01,5.196691277041362023e-01,1.584606775806989302e-03,7.793435567084766764e-04,2.841239199786876348e-04,9.127827882766723633e-01
-4.331785189073069087e-01,-4.476922316748605524e-01,5.290520545025795274e-01,-1.325425463284255444e-03,4.127106629351764240e-04,5.271093875592085948e-03,9.696148633956909180e-01
-4.265180008968637027e-01,-4.349588030755018875e-01,4.750206079708527707e-01,-2.829005775799946741e-03,1.406022058808087350e-03,1.759888202741917082e-02,9.063177704811096191e-01
-4.238002977659568460e-01,-4.343306983306823299e-01,4.742456666061636295e-01,-4.884330662489564170e-03,-2.645184392016898187e-03,1.934445642443077124e-02,9.040295481681823730e-01
-4.408872511287653118e-01,-4.383263141825636255e-01,5.292839680250783774e-01,-1.388680602856606858e-03,-3.451042501008203325e-03,-2.763934865875264293e-03,9.689265489578247070e-01
-2.418159888837477234e-01,-5.403633244969957561e-01,5.613093734185535810e-01,6.258765139591919088e-03,-4.249651666046913058e-03,-4.157018750467243208e-03,9.869829416275024414e-01
-4.178238506591610557e-01,-4.334280896846594566e-01,5.456905297665323173e-01,-2.705345772133454455e-03,2.349281442561064123e-03,-7.694484556825297375e-03,9.715217351913452148e-01
-4.220218965732358551e-01,-4.163492414865863078e-01,4.232244003524148201e-01,-6.711757381965137090e-03,2.897688708150288062e-02,1.883497566707024659e-02,8.446283936500549316e-01
-4.381386657436526777e-01,-4.407522160233044439e-01,5.372474097690743688e-01,-7.394480285572552734e-04,-1.822562138586891756e-03,-7.819568872573972110e-04,9.767023324966430664e-01
-4.602326044831875906e-01,-4.006863122468774518e-01,5.486562536199212081e-01,2.566656921745305250e-04,-3.927397944317625837e-03,1.230651857144060904e-02,9.807281494140625000e-01
-3.341317235017264853e-01,-3.744247689368437326e-01,1.717861550715894525e-01,1.375055401815708511e-01,-1.527140172698610021e-02,-2.488413935207751254e-02,5.807254314422607422e-01
-4.327337380603094585e-01,-4.376075760388952740e-01,5.046884103671845923e-01,-4.910644772841586334e-03,1.419240359871012545e-03,5.732283974728127549e-03,9.399626851081848145e-01
-4.338373314743922404e-01,-4.349494232107983249e-01,5.479856750441940427e-01,1.055849660015356585e-03,3.170928548239365305e-03,-1.773937879204397390e-03,9.824013710021972656e-01
-4.392843814412667469e-01,-4.354722516044682301e-01,5.426560777313811368e-01,7.958442107509277556e-04,3.863567389035649875e-04,8.330540002195258725e-03,9.801473617553710938e-01
-4.329379923984014167e-01,-4.153902364166195404e-01,5.447669323938700847e-01,4.565299098283653878e-03,-4.310719494136749930e-03,7.986279057311324731e-03,9.692099690437316895e-01
-4.450724087546810703e-01,-4.290687090948746008e-01,5.087889753886779554e-01,6.369237565088592054e-03,-4.831551350117297035e-03,3.871732744283899394e-03,9.460861682891845703e-01
-4.470526706403174511e-01,-4.127126370805262456e-01,5.396808714615577429e-01,5.317981426049887481e-03,-2.591777883711125514e-03,-4.042336990887126363e-03,9.700989127159118652e-01
-4.686261478857612350e-01,-3.564778582272867258e-01,5.517929701181378821e-01,4.160494223325118118e-02,-3.510188171860385321e-03,-6.437821680788439332e-03,9.719816446304321289e-01
-4.162781795985342481e-01,-3.818880596300679442e-01,5.280987845279497828e-01,-5.589785889485152093e-03,3.857661275899333837e-03,-6.031438844184864451e-03,9.277935028076171875e-01
-3.032772603126315247e-01,-4.449189538056705362e-01,5.201206610754681714e-01,3.867014155580660723e-02,-5.184108735402049792e-03,-4.422742275829819394e-03,9.051516056060791016e-01
-2.954361862437304143e-01,-4.857552224067945290e-01,5.428976974459627236e-01,1.676823907050906809e-02,-6.609747550101862518e-03,-1.082939241595737116e-02,9.486318230628967285e-01
-3.066150003046730355e-01,-5.224547631788606372e-01,5.596413517433528328e-01,1.450806134121052082e-01,4.491621545884959960e-04,1.228780598687087729e-02,1.023502945899963379e+00
-4.200374298675416118e-01,-4.139262224410449331e-01,5.393046540503766417e-01,-1.806942750653918114e-03,-1.334391917847853803e-03,-6.290595292343187372e-03,9.563711285591125488e-01
-3.802163768704621138e-01,-3.901133891217664629e-01,5.184538218034716595e-01,-3.755198897994160845e-02,4.426831504696463436e-03,-5.130630146729844160e-03,9.060730934143066406e-01
-3.363698586252246159e-01,-4.897628065334624359e-01,5.571753039772043836e-01,2.259850144114202222e-02,7.331157420681915990e-03,-5.542607423411072438e-03,9.802047610282897949e-01
-4.820124361114556666e-01,-2.936831596379584908e-01,5.380237787762158774e-01,-1.608454082970738053e-02,1.825926046205510623e-03,-8.237958039647297684e-03,9.406534433364868164e-01
-2.591836079611749555e-01,-5.592949468887916664e-01,5.568922493575841903e-01,5.972611338967179218e-02,1.097500121580842307e-02,-1.633139915171157724e-02,1.006391286849975586e+00
-2.972528758714897412e-01,-4.947756985936812013e-01,5.431863525059480446e-01,1.710811908988870561e-02,-1.419915097053556577e-02,-9.787495081832011876e-03,9.555781483650207520e-01
-3.355026790815567317e-01,-4.610477744713191162e-01,5.374850835211061328e-01,1.784679349304313378e-02,-8.650829492937535045e-03,-7.345920256429621167e-03,9.427674412727355957e-01
-3.704158717885334129e-01,-4.753520126936741641e-01,5.456186750245420880e-01,-2.513082366801975762e-02,-6.842588890078804206e-03,-4.362092667950157564e-03,9.738317131996154785e-01
-3.949656784357525874e-01,-4.057192127215390465e-01,5.267910384654509448e-01,-1.560695480058551902e-02,-2.598234979612555617e-03,2.263566099305962601e-03,9.275934100151062012e-01
-4.521375827780952927e-01,-4.023839746256939187e-01,5.491862753856356916e-01,-2.845225275281319712e-03,1.349551542133747882e-03,1.002216373688898272e-02,9.775665998458862305e-01
-4.044218671878110904e-01,-4.013130160126446300e-01,5.279161195335572154e-01,2.077115921316938577e-03,1.152501870132473672e-03,-1.727449173954775322e-03,9.308013319969177246e-01
-4.614599778515560136e-01,-3.525664812284885485e-01,5.277505572932128519e-01,-8.289181834944325117e-03,4.926761314304956615e-04,-1.222713527446929113e-02,9.398574829101562500e-01
-3.905679610643866817e-01,-4.150013490192183130e-01,5.292409871202919946e-01,-5.128680869962817107e-03,1.333256417007658333e-03,5.516143203500276787e-03,9.323599338531494141e-01
-4.320747080039130106e-01,-4.332570573514554213e-01,5.475748329889253974e-01,3.008179819344563698e-04,-6.974719735165791626e-04,2.167118778235468252e-03,9.802493453025817871e-01
-6.949237418888633000e-01,-4.318869758932656899e-01,3.952250761897549980e-01,2.734260171985032281e-02,-4.181073522231921330e-02,3.131512386079379762e-02,9.906021952629089355e-01
-3.617892237138896072e-01,-4.187451310804291005e-01,5.250474756044442026e-01,-1.491076341664408257e-02,4.064511743638856041e-03,1.372647794413497501e-03,9.170365929603576660e-01
-3.618122407115439976e-01,-4.227427803483221891e-01,5.275914149856923974e-01,-1.620859939232324742e-02,-1.328503247563027692e-02,1.361499865580992341e-02,9.223974347114562988e-01
-4.110728992953611161e-01,-3.882453135685206558e-01,5.284377746229713679e-01,-8.248749928415202021e-03,-6.441633210737396711e-03,6.877113521815464772e-03,9.285607933998107910e-01
-3.918763843585710838e-01,-4.262452156999032016e-01,5.351697650279243490e-01,-1.079038887784968155e-02,-4.946716713667812654e-03,3.732603321996438329e-03,9.449453949928283691e-01
-4.030058654653982941e-01,-4.177969635903828749e-01,5.343141614941487871e-01,-4.189457552731651302e-04,8.714541546334317323e-04,6.022999059702775076e-03,9.448614716529846191e-01
-5.296262009825598582e-01,-2.509566376936124277e-01,3.842255683057141935e-01,1.467874431341809061e-02,-3.366969730676032391e-02,1.292609739547218861e-01,8.439736962318420410e-01
-4.563372067602346482e-01,-3.966936721485200823e-01,5.459673849839299375e-01,-3.971038904710368772e-03,-6.452231588534503362e-03,1.960455904324408943e-02,9.745337963104248047e-01
-4.290707977601821987e-01,-4.462093629493004698e-01,5.141763760912264614e-01,1.572668754315792276e-03,7.192684813597372386e-04,1.074142178614284626e-02,9.521186947822570801e-01
-4.900677180997802251e-01,-3.395484396419825024e-01,5.426578414841705111e-01,-2.851864460961228698e-02,3.895468571202472495e-03,1.907313996944878971e-03,9.675894975662231445e-01
-4.248169305803359830e-01,-4.350168908379729582e-01,4.707896291791007215e-01,7.304330044098619225e-03,3.649834139793741057e-03,-5.097600200104700045e-03,9.009041190147399902e-01
-4.346824687558690781e-01,-4.405948298334382285e-01,5.260379175971584553e-01,3.485814581376442379e-04,-4.177929200054113180e-04,-3.298436754143987786e-03,9.637075662612915039e-01
-4.780412598145893366e-01,-3.947353536373764404e-01,5.550375447028912390e-01,-7.980741081993753113e-04,3.219610282389788122e-03,2.013977964739933901e-02,9.946758151054382324e-01
-5.180881069916656312e-01,-2.731431532547497487e-01,5.456753759376513635e-01,-8.128496285352922526e-03,3.534253591172297100e-03,7.075991969151882235e-03,9.650974869728088379e-01
-4.563405395912140117e-01,-4.093841556051388553e-01,5.371367644676341424e-01,-6.426720918200302599e-03,1.686316988989924014e-03,-8.947701019647072776e-03,9.710430502891540527e-01
-4.323790881615276471e-01,-4.377982638076833855e-01,5.001320229599709455e-01,6.246699471799958131e-03,-5.200556480857761871e-03,1.430188830055178009e-02,9.356663823127746582e-01
-3.361469693146761917e-01,-4.434943085529215456e-01,5.283906385297264530e-01,1.582935960885293800e-02,-1.288443448493789643e-03,6.840697964948072585e-03,9.233913421630859375e-01
-3.907784243694568671e-01,-4.001886504233795883e-01,5.208050376875035248e-01,5.488530627540994140e-03,2.413806784989800053e-04,-1.212404091154404380e-03,9.163766503334045410e-01
-4.328752388837385778e-01,-4.471156363578387416e-01,5.235449100938008860e-01,3.901311173085593356e-03,1.652547719035181960e-03,1.008575175151410312e-02,9.638055562973022461e-01
-4.563257639695061929e-01,-3.116942935220959887e-01,5.266006964323004524e-01,-3.499486595353358542e-02,-4.144251258172572784e-04,2.139164116315123588e-03,9.211887717247009277e-01
-5.170535223025485294e-01,-2.457776618340278829e-01,5.309906494969435231e-01,9.770113043824170396e-03,-3.444759239146094783e-03,2.311075378691009648e-03,9.423460364341735840e-01
-4.150871687788239006e-01,-3.642733623990570546e-01,5.219801999310668128e-01,1.631166991011201092e-02,-5.626531594267260988e-03,-3.965981509816045650e-03,9.132369160652160645e-01
-4.351937866621942153e-01,-4.447941262112977689e-01,5.248613514624392851e-01,6.538094764898269226e-03,-3.397274587604252188e-03,-1.987283376308007603e-03,9.649816751480102539e-01
-3.457878570487094572e-01,-4.929772842308517977e-01,5.409698254182875310e-01,-1.100031907778217626e-03,-1.554945105515210049e-02,-6.876653871535737608e-03,9.692245125770568848e-01
-4.342114586478677540e-01,-4.323496277684158451e-01,5.029895887177702196e-01,3.302153671346642200e-02,4.693016678635109074e-02,4.843971653884973638e-02,9.452630281448364258e-01
-3.087935532692941409e-01,-5.357605101920159818e-01,5.841188119732103612e-01,1.148571352030657890e-02,1.917123214333402159e-02,-4.308788660415997090e-03,1.026168704032897949e+00
-4.265835772933700976e-01,-4.236202114991049483e-01,5.434251900017772474e-01,2.630451032245646487e-03,2.358912182123580224e-04,-5.158822462026480850e-03,9.685825109481811523e-01
-1.883625475005832883e-01,-6.902631849519869078e-01,9.306698132140280855e-01,2.282954856705778079e-01,9.305675324761913947e-02,1.530164563077185749e-02,1.499606013298034668e+00
-4.238269960337486264e-01,-4.250260525564216740e-01,5.449075062646845380e-01,4.240221553728360654e-03,-9.064125266566712413e-03,3.179925467648985621e-03,9.695051908493041992e-01
-2.864529826890900299e-01,-5.086922354912566391e-01,5.612464879330171241e-01,4.053337246318652193e-02,1.067373116295536155e-02,-7.567563836709078132e-03,9.807238578796386719e-01
-4.151018534111743374e-01,-4.158062231057496061e-01,3.868068012923410182e-01,-1.181640540245165218e-02,1.362810305749255144e-02,-3.689144732086811415e-03,8.028945922851562500e-01
-3.991452123246183592e-01,-3.944462081394310426e-01,5.265068009610565092e-01,8.274853701576503906e-03,5.879438678247460651e-03,5.133462613163129740e-03,9.235216379165649414e-01
-3.982192713528024397e-01,-4.009932622795112089e-01,5.265706517701267408e-01,2.068763491101056028e-03,-4.650471417662799950e-03,-3.055625286399902673e-03,9.262371063232421875e-01
-2.851682186244907102e-01,-5.011386957746604143e-01,5.360665138873187407e-01,4.177599241576212402e-02,1.801370663475410430e-02,-8.057491353567532849e-03,9.512287378311157227e-01
-3.016606628147280311e-01,-4.810770692734487874e-01,5.363034231698906584e-01,2.006722681768481620e-02,-1.087173129482601856e-02,-5.537554238249994473e-03,9.414739608764648438e-01
-3.436958995391792837e-01,-4.824097102726453978e-01,5.488054689530676988e-01,4.528356068750252761e-03,1.451780158095642911e-02,2.471717802962366314e-03,9.696981906890869141e-01
-4.410256737694189799e-01,-4.372190520811027326e-01,5.330544204863689739e-01,5.113081161374521174e-04,-9.631457630311607114e-04,6.453677299516672426e-04,9.721848368644714355e-01
-4.406796490003793698e-01,-4.399318738696636477e-01,5.334422140842128846e-01,5.433477233025056641e-03,-2.294384969869366683e-03,8.839677071550856163e-04,9.738029837608337402e-01
-4.404580075345229107e-01,-4.372273308471195108e-01,5.256520202242130901e-01,4.137273327293789632e-03,3.619233899234060824e-03,-4.446060714768422344e-03,9.645764827728271484e-01
-4.157289115890669406e-01,-4.041747136712467992e-01,5.341094637131791334e-01,-8.600317735803086764e-04,6.176402035610675106e-03,8.182666821372889306e-04,9.441771507263183594e-01
-4.477537137262481148e-01,-4.297745900915839190e-01,5.113757563020748798e-01,4.141668383783454928e-03,-2.980538443010119064e-03,-2.844387565253485815e-03,9.503213763236999512e-01
-4.416542712083540989e-01,-4.390912968718361786e-01,5.360315495316331225e-01,-5.279902096232038777e-04,-3.067492771421119480e-03,-1.980312662909623159e-03,9.764277935028076172e-01
-4.361886242401043501e-01,-4.277700889369713821e-01,4.873328428577032856e-01,3.319455259941923257e-03,7.094599220369993131e-03,-2.072160743770398977e-03,9.194481968879699707e-01
-4.039110706492366476e-01,-4.001221970727004140e-01,5.289633060290752642e-01,-3.711227840372524275e-03,-4.512570879961383093e-04,-6.969546011278643025e-03,9.310864806175231934e-01
-4.365306138806944736e-01,-4.334196526539708660e-01,5.059352422839421548e-01,4.736230679229830494e-03,1.307642339032691337e-02,-1.579235833143469853e-02,9.416199326515197754e-01
-4.354419119025433327e-01,-4.365091037410870900e-01,5.331966573385457098e-01,1.185880927505953602e-03,6.696093134361275762e-03,-4.745460919072556731e-03,9.692790508270263672e-01
-4.282790053310655543e-01,-4.309197593269127879e-01,4.610925731380881576e-01,-2.983747457235426739e-03,4.972710235341946949e-02,-5.670311371172882288e-03,8.949183821678161621e-01
-4.458780578888487112e-01,-4.386057890829863082e-01,5.371341039565900033e-01,1.573902983791980676e-03,3.685106471370143931e-03,-2.031668893008071065e-03,9.794272184371948242e-01
-3.532267366937276720e-01,-4.687295046127526454e-01,5.349338548104967117e-01,6.699431412585281419e-05,-1.627532619382003609e-02,-1.786434481799544427e-04,9.516038298606872559e-01
-4.382426726754030111e-01,-4.410171844762916793e-01,5.456806661012137960e-01,1.560182029828803075e-03,6.023142404973264551e-03,2.104428771782434170e-03,9.853792190551757812e-01
-4.102660636611193401e-01,-4.436521303706305042e-01,5.358770505417965735e-01,-3.557781663825273707e-03,-8.146019242113349337e-03,6.989646473956320771e-03,9.634692668914794922e-01
-4.394252585119282073e-01,-4.445318010873892667e-01,5.459385431350707307e-01,3.311523247305062524e-03,3.138275895095434670e-03,1.067781088584931560e-03,9.879602789878845215e-01
-4.087906884827258169e-01,-4.452301712751919327e-01,5.318468377640002132e-01,-2.542355741556224895e-03,-7.764048635881457688e-03,6.703462763070091798e-03,9.595510363578796387e-01
-4.210617348393034809e-01,-4.101440971530006530e-01,5.380592029700016488e-01,7.794010039953270380e-03,2.246576809116663121e-03,2.127313353659884398e-03,9.538195729255676270e-01
-4.261833830702156933e-01,-3.872988612357497473e-01,5.352707469863378087e-01,-3.435462368301980297e-03,8.172854045555068628e-03,2.220522158135469944e-03,9.427465200424194336e-01
-4.281807946977827517e-01,-4.342297879628920776e-01,5.554233816464451134e-01,9.953115428884041355e-03,1.141978276993408682e-02,1.252822667419998051e-02,9.872298836708068848e-01
-4.865813331870974534e-01,-3.023259124233947381e-01,5.342805549462040782e-01,-5.184516166112884857e-03,-6.706639238509157219e-03,1.272551044210117402e-02,9.427147507667541504e-01
-4.252139277621779789e-01,-4.368614490741915546e-01,5.456321951608004150e-01,7.182709822622210163e-04,3.762678131702173676e-03,6.197399684094955299e-03,9.768034815788269043e-01
-4.817790857949919014e-01,-2.982364865046924218e-01,5.419195845400965883e-01,-1.239344587394767584e-02,-2.501910235582899093e-03,5.334970400017716510e-03,9.456846714019775391e-01
-4.206792884481534434e-01,-4.294830568644987245e-01,5.427706002088235060e-01,1.554483264342870026e-03,6.734564027021725310e-03,5.085713570750139377e-03,9.679959416389465332e-01
-2.868776746867621741e-01,-4.852196692441702042e-01,5.653219240342775009e-01,-9.316701109303944517e-02,-1.112764032819138840e-02,2.896552185207281090e-03,9.803303480148315430e-01
-5.275036613618804271e-01,-3.702795292512676140e-01,8.845118733765059416e-01,-3.013514705492282841e-01,9.856562896545840308e-03,-9.063915847227457107e-03,1.438568830490112305e+00
-4.900243406083417685e-01,-2.748538608111557036e-01,5.278262719867389263e-01,-1.044115845637791189e-02,3.202164930771137511e-05,5.294764027445091753e-03,9.293642640113830566e-01
-5.277286221246965114e-01,-2.687936503185197612e-01,5.594220366623463558e-01,1.015950829507953831e-02,2.956895880926749265e-03,5.225263333961588375e-03,9.837989211082458496e-01
-4.994411415490867534e-01,-3.308824102961908098e-01,5.504985994077709055e-01,-2.884327224702877557e-02,9.939738707491660788e-03,1.811298351720249181e-02,9.785629510879516602e-01
-4.778051894508065223e-01,-3.298154309279580088e-01,5.369985441727810338e-01,-1.020090558742209504e-02,9.851207656431978932e-03,8.118932267921270818e-03,9.499200582504272461e-01
-4.961466627703040033e-01,-3.722747693639699706e-01,5.671250716786753188e-01,-9.787049857651514834e-03,-1.286190105088708992e-03,2.185808289434434948e-02,1.007922172546386719e+00
-5.040690226144700636e-01,-2.730047420358361343e-01,5.302963120909759409e-01,-2.867197410295418882e-03,8.497301393559282892e-03,4.239137937954880024e-03,9.405278563499450684e-01
-5.010806902903566229e-01,-2.758178921320699195e-01,5.041819199528586593e-01,6.880217966642991449e-03,-7.079141007030657906e-03,-8.996026719824365761e-03,9.139929413795471191e-01
-5.623780461685304877e-01,-2.756049466876748788e-01,6.302241640269685696e-01,8.704664941933504263e-03,2.252872965857434517e-02,1.128188260157982417e-02,1.079196214675903320e+00
-5.257975176527163175e-01,-2.733592787833641347e-01,5.546469321690324916e-01,3.324799454088780276e-03,3.782520259318101000e-03,-1.911121751254264006e-02,9.795466065406799316e-01
-3.403589070915027381e-01,-4.480253455954298358e-01,5.355910167636008801e-01,1.537709935450966292e-02,3.570083320922025870e-03,-1.592479251413945161e-03,9.348507523536682129e-01
-5.027437870043114376e-01,-2.964318824470481561e-01,5.519739612400232920e-01,-2.145659842155163768e-02,6.803272863347222671e-03,-1.649342667410842039e-02,9.693964123725891113e-01
-4.117294141534988960e-01,-4.315183179046142570e-01,4.479863315600450813e-01,-3.087820746388358906e-03,4.286155665317242965e-03,3.324630502309386219e-03,8.698462247848510742e-01
-4.327228581344705893e-01,-4.513318454077125952e-01,5.310693180049326223e-01,-3.149583249347062599e-03,2.423995954206695398e-03,2.020142160409575324e-03,9.732607603073120117e-01
-4.835017422964763001e-01,-2.956287436350452102e-01,5.360292101034884737e-01,1.451910919000611380e-02,-4.167458431965895098e-03,2.824683723844733426e-03,9.401625990867614746e-01
-4.358704795459790171e-01,-3.419901558732651448e-01,5.287850567171693550e-01,2.595130109478183122e-02,-7.730192596560100243e-03,-9.847407809017900276e-03,9.226604104042053223e-01
-3.804179782563615331e-01,-3.993144256338363451e-01,5.225514547813893129e-01,9.630601873642820332e-03,-1.927913256533248052e-03,-8.445707589757938880e-04,9.127241373062133789e-01
-3.910526136770959837e-01,-3.951809667762681277e-01,5.215069780186648574e-01,4.679074414397443524e-03,-1.764299689074212555e-04,-3.887560465505267120e-03,9.146915078163146973e-01
-3.901650277622148444e-01,-4.019646372470088713e-01,5.217473168712947196e-01,6.270839197748370904e-03,-6.909846176258886480e-04,1.087324304605360656e-03,9.179360270500183105e-01
-4.160631989398644870e-01,-3.947704359269191832e-01,5.337783669132377673e-01,7.466608111260437074e-03,-1.010558230722045578e-02,1.732459700431917811e-04,9.396283030509948730e-01
-3.946323601294465799e-01,-3.842921303533436972e-01,5.316547680045520252e-01,3.053812599275725764e-02,-1.172159786347240842e-02,-9.721981896386176422e-03,9.230548143386840820e-01
-4.454968624602747562e-01,-3.710684502772810811e-01,5.357434999295733746e-01,7.246845061438179220e-03,-5.010835936501182100e-03,4.505206177578112252e-03,9.463793039321899414e-01
-5.356867777044959089e-01,-2.345523861686774070e-01,5.486138234840808314e-01,-5.333361016379403047e-03,-3.751303414162700765e-03,-1.030842762833492424e-02,9.696988463401794434e-01
-4.117229837506633516e-01,-4.493191828353062522e-01,5.379997483310775541e-01,3.426302626222715603e-03,1.005851406521370700e-02,2.809216796766461199e-03,9.692549109458923340e-01
-4.151176617816325076e-01,-3.508462353665250943e-01,5.182094547155212672e-01,1.714645889788159530e-02,4.031174957573084409e-03,1.375428824740234377e-03,9.034270644187927246e-01
-5.014906312756004514e-01,-3.297269262898293030e-01,5.529590263370828263e-01,-6.905855252763147024e-04,5.606217370091204355e-03,-1.702423895369281973e-02,9.804161787033081055e-01
-4.429218902910447841e-01,-3.718935039303576384e-01,5.389283586931602477e-01,7.965425110525902602e-03,-9.391427484445085544e-03,3.246488670183414471e-03,9.485896229743957520e-01
-5.161119596013461486e-01,-2.319575027954903779e-01,5.501894872742383313e-01,5.523465091079183403e-02,-2.129751147132285941e-04,1.982759186872248749e-03,9.612038135528564453e-01
-4.198092129160231889e-01,-3.497496940439633883e-01,5.217560530485235715e-01,1.944799839181211507e-02,-5.570082457931502251e-03,-1.038048531510973654e-03,9.092408418655395508e-01
-4.268105532622898934e-01,-3.933367821214818760e-01,5.343905226045285728e-01,4.489237712521758697e-03,-2.410029162613133626e-03,1.089925260076541301e-03,9.449520707130432129e-01
-4.629068675998010973e-01,-3.298466604077824882e-01,5.466429228814386754e-01,3.859040804230527005e-02,-2.988526045415114407e-03,-8.075447922641433227e-03,9.524993300437927246e-01
-3.831234930287920060e-01,-3.967277434792187418e-01,5.193466412021886525e-01,-1.355783033510779036e-02,9.772300866228384798e-05,3.313568402279049724e-03,9.096698760986328125e-01
-3.969439540488030049e-01,-3.830518835460282601e-01,5.193507467543295730e-01,1.090385595660843879e-02,-1.216812668579177756e-03,-4.030628710795197515e-04,9.096270203590393066e-01
-4.008697469115026224e-01,-3.996303245377642033e-01,5.270440263255359303e-01,1.178000157639459006e-03,-2.523470469616475361e-03,-3.348284269227026072e-03,9.273253679275512695e-01
-4.263657410687461957e-01,-4.398420344146897198e-01,5.057830630044483078e-01,5.290662757248906388e-04,-1.006922226478034095e-02,-3.317075731352926303e-04,9.391220808029174805e-01
-4.320163865728013919e-01,-4.164786614870721326e-01,4.497742041497342358e-01,9.549821482886062737e-04,-3.324232981529525940e-03,1.174805800637968370e-03,8.741481900215148926e-01
-4.367353421845217576e-01,-4.434573235912383504e-01,5.400587981348888844e-01,-7.190177137008160746e-04,-7.656067856035354488e-03,1.435714958722389065e-03,9.802660346031188965e-01
-3.513978369929801060e-01,-4.617049424758988829e-01,5.282908015488763098e-01,-5.302692746028514481e-03,1.314580198302185005e-02,-1.395008229293893433e-03,9.400342106819152832e-01
-4.406532558087022933e-01,-4.430251640096039001e-01,5.434413358469127875e-01,3.133804706466875034e-03,-1.564946140758043027e-03,1.145660337145981873e-03,9.853033423423767090e-01
-4.060486081785042445e-01,-4.534701670104990257e-01,5.312966811366168773e-01,-2.413015196930571368e-03,5.904469865392592519e-03,-2.843756672843699828e-03,9.620091915130615234e-01
-4.413374797581862130e-01,-4.823753240398749864e-01,4.357963824506894124e-01,-7.822751886238833371e-03,7.170555709207696027e-02,-2.115618396965629738e-03,9.070091843605041504e-01
-3.947305660089205914e-01,-3.904181212033542847e-01,5.205991441890726046e-01,-4.287583545030023910e-03,-3.248763878265051828e-03,-2.678230121770626762e-04,9.132287502288818359e-01
-3.945156618208199850e-01,-3.901342413572405632e-01,5.186449995299254878e-01,-2.355478231322536038e-03,-1.987521052509572659e-04,7.224206554138219412e-04,9.109879136085510254e-01
-4.328940379680826789e-01,-4.437930155941737231e-01,5.398715492597689902e-01,-2.661777399881589366e-03,-7.941993055001787469e-03,1.438352326015432912e-03,9.783713817596435547e-01
-4.049907891924630077e-01,-4.551129375385417619e-01,5.359371108463536482e-01,1.703278811990903028e-03,8.669872655804825717e-03,6.237132687621715042e-04,9.670854210853576660e-01
-4.406011456589169484e-01,-4.415701598674807160e-01,5.350418377455706809e-01,-2.180815228022033557e-03,2.446792251316883254e-03,1.651007742756957410e-03,9.761485457420349121e-01
-4.533561616892338719e-01,-3.020191097491007892e-01,5.216349704750603555e-01,-2.819652796164566488e-02,-3.262703867449464300e-03,-1.433033985195372121e-03,9.101547002792358398e-01
-5.391064903739135605e-01,-3.250956980573568300e-01,8.725119160146859176e-01,-3.014007985727573669e-01,-6.008562432865880570e-03,1.811606410540015158e-02,1.417739629745483398e+00
-4.118689784746247806e-01,-4.666844510426313986e-01,5.215390719033828892e-01,-2.883486420826420361e-03,-1.980321350184666845e-02,7.718677337715328102e-03,9.627048969268798828e-01
-4.432709748983015841e-01,-4.311080785563846107e-01,5.121878784927779149e-01,-1.871010651686485799e-03,-7.303091443121663764e-03,-2.084572117734291314e-03,9.495325088500976562e-01
-4.269292106678416188e-01,-4.474086230770153438e-01,5.028038618487534750e-01,-3.442326032716499975e-03,-4.122189843374655244e-02,-2.429306850754218983e-02,9.438046216964721680e-01
-4.742207761576303637e-01,-2.801765867520565334e-01,5.236431862943436988e-01,3.303011587644028024e-02,4.249706255951428251e-03,9.631503936293490248e-03,9.183470606803894043e-01
-4.851664411032313162e-01,-2.964432956933003571e-01,5.331468239916714591e-01,-1.239790723430525370e-02,6.467723854579427931e-03,5.209419723835102822e-03,9.386517405509948730e-01
-3.342463289489489009e-01,-3.544763035655980610e-01,3.993504750142431448e-01,2.191135191223535506e-01,-1.072674201772696456e-01,-6.404551759919129006e-02,8.627112507820129395e-01
-5.327430022388597308e-01,-2.330716923647836447e-01,6.065692169821185198e-01,2.272604207094192086e-02,-1.027651924471803362e-02,1.906803922242181204e-02,1.024389147758483887e+00
-2.922281953422812828e-01,-3.587061423246024616e-01,5.277894001208082164e-01,-2.271844993299107218e-01,-7.281139038278106046e-02,5.051787696315424014e-02,9.538135528564453125e-01
-3.980503289425819657e-01,-4.510978033588621816e-01,5.435458763179495945e-01,-2.346677547154349744e-03,1.262305166338525964e-02,3.965581648106020489e-04,9.694646596908569336e-01
-4.658722987179617081e-01,-2.050557362053933019e-01,5.661281310655734700e-01,-1.608223674419062832e-01,-6.813950226943815691e-02,4.775363362136439416e-02,9.809429645538330078e-01
-5.844804457718599799e-01,-2.004691501664386810e-01,5.823582485092259065e-01,5.878279068416283198e-02,2.373441514656871813e-03,-2.020759325858284550e-02,1.035618782043457031e+00
-4.909657082740210843e-01,-2.660086386398938241e-01,7.290181767622586628e-01,-1.509514365720417417e-01,-1.019518547059398428e-01,-1.436156791406426915e-02,1.168196320533752441e+00
-5.276293398203883989e-01,-2.417008658158084633e-01,5.438296026981808140e-01,2.682340370099225990e-02,-5.662112345564014430e-03,-2.645586998399862555e-02,9.632098078727722168e-01
-5.492259231471213754e-01,-2.923403437639205960e-01,6.356199727989497728e-01,8.128504098005151501e-02,1.762853270467232367e-03,2.582047694244139768e-02,1.089638233184814453e+00
-4.393291408954394517e-01,-4.399144680533236262e-01,5.342456071598827849e-01,-4.939414851189129207e-03,-4.506513928781313329e-03,-7.670491964085784931e-03,9.740270376205444336e-01
-4.451068344999741244e-01,-3.342408495951965652e-01,5.317918270057632180e-01,1.137664881983730877e-02,-5.187758542670721507e-03,-2.396939800945289425e-04,9.267073869705200195e-01
-4.405153218573931717e-01,-4.402792457090441425e-01,5.443235406798015985e-01,-4.306124719093060854e-03,1.591856651314548302e-03,1.070211864180037158e-03,9.847546815872192383e-01
-4.358716139087650543e-01,-4.305179768203859503e-01,5.133234672530283538e-01,-2.558704361594687973e-03,2.445823927772161795e-03,-5.172010152140524460e-03,9.465918540954589844e-01
-5.032993706028450198e-01,-2.667217189089406415e-01,5.414629034918974071e-01,-2.177455008993132990e-02,3.095874971836320381e-03,-7.577950344309445502e-03,9.497121572494506836e-01
-4.365429444449008267e-01,-4.491642353827752232e-01,5.351059264849503672e-01,-6.079534033260903733e-03,-4.115022614611935428e-03,-6.445904863037104152e-03,9.781669974327087402e-01
-4.382049332921755247e-01,-4.398338116572958478e-01,5.444278307789511828e-01,-7.835148769767907948e-04,1.997031765858311471e-03,-8.246973071882694999e-04,9.834562540054321289e-01
-4.368644793428664852e-01,-4.377948301506318640e-01,5.171331279378994505e-01,-5.648190633688934641e-03,3.942672062460103426e-03,-6.071916311237337237e-03,9.545956254005432129e-01
-7.913832492865632284e-01,-1.603442511088713496e-01,7.975838442777123394e-01,8.545060676346014072e-02,-1.765930481305482205e-02,-4.463829435076753505e-02,1.396117925643920898e+00
-4.015561643018319415e-01,-3.826744603465295214e-01,5.235748396930237636e-01,9.791283979570132925e-03,-1.011926202943623726e-04,-1.782936654490149299e-03,9.159983992576599121e-01
-4.378333966450717596e-01,-4.317818495092092812e-01,5.272711492849651016e-01,1.306559372828138693e-03,1.723639964186313156e-03,-1.495449193306655445e-03,9.621038436889648438e-01
-4.390793610822459336e-01,-4.381686264234158634e-01,5.419945437306888936e-01,1.388774436829104311e-03,-2.338505979814033131e-03,-5.904097518851746638e-05,9.806301593780517578e-01
-4.374539411754147511e-01,-4.438821820947070340e-01,5.395032295476782647e-01,-2.705111641029090113e-03,-1.456042148045267508e-03,1.922416629384067141e-03,9.802072048187255859e-01
-4.203424604027558020e-01,-4.264728527388562673e-01,3.595618616345904739e-01,-3.258268696258905493e-03,-6.834828738616804955e-02,1.121745709216896703e-01,8.153926730155944824e-01
-3.445502564225382258e-01,-4.176481434376086432e-01,5.243187329490613946e-01,1.958898301283724247e-02,-5.939268560065407397e-03,-1.177109130972920845e-03,9.083228111267089844e-01
-4.055283386829097725e-01,-4.819023645352926710e-01,5.716008724997488910e-01,1.699801511301769720e-03,1.783615657297957582e-02,6.282237683588601934e-03,1.017999649047851562e+00
-4.128087070179742302e-01,-3.780468851280276987e-01,5.289004458664832153e-01,9.082127742164124162e-03,-5.903646135200659069e-03,-1.599440491758200283e-03,9.250128269195556641e-01
-4.100537332022979320e-01,-4.246813103942319589e-01,5.403581562180201914e-01,6.682752226689956873e-03,-3.193088220945170322e-03,-3.171535428070716527e-03,9.579111337661743164e-01
-4.130772551996056974e-01,-4.236395615035904449e-01,5.045037220147506885e-01,2.791547803271042863e-02,1.123373661964466828e-02,5.338305535182003535e-03,9.244241714477539062e-01
-3.770046319324597550e-01,-4.133212457965415032e-01,5.262985341084355229e-01,1.069316441744376164e-02,6.831798018239833075e-04,4.874323151012086366e-03,9.222234487533569336e-01
-3.849210713668954620e-01,-3.974326433191072705e-01,5.200378083554011432e-01,1.165197782916189105e-02,-1.312646676766555335e-03,9.644992950754401658e-04,9.115068912506103516e-01
-4.375585402416215519e-01,-4.376378584127814664e-01,5.479333455862179791e-01,2.352255782524210505e-03,6.500299705928507671e-04,1.590844825528479889e-03,9.855444431304931641e-01
-4.643398648951608809e-01,-4.867367708189540010e-01,5.067040494661263494e-01,2.943327718573877580e-02,-5.224788119464948699e-02,-4.080708664456717677e-02,9.904344677925109863e-01
-5.121656779044262420e-01,-2.724487282125699350e-01,5.433650906886103860e-01,1.489008939453779091e-03,1.440147624603943998e-03,1.983982359745206647e-02,9.590487480163574219e-01
-4.271367302757930196e-01,-3.968169398014565474e-01,5.355620683149530104e-01,-6.033205545340971851e-03,-1.897765914627740341e-03,-1.651631447898811982e-03,9.479702711105346680e-01
-4.345918513566837116e-01,-4.346563191379995139e-01,5.485935128953959294e-01,-2.532263702597997669e-04,-4.905929869966124592e-04,3.953866516359439906e-03,9.832419157028198242e-01
-4.128965249854478214e-01,-4.217977479832942245e-01,5.402783819359924244e-01,-1.745974555342204261e-03,-6.561391505298651630e-03,-2.151770129324168893e-03,9.577360153198242188e-01
-4.354479964501571376e-01,-4.412887083048227521e-01,5.406441144885201222e-01,-2.270028662135469173e-03,2.157504287328776849e-03,7.056909417648558793e-05,9.790405631065368652e-01
-4.421947698883212929e-01,-4.372305631997474018e-01,5.426138368669525258e-01,-4.266722970661249105e-04,2.232272404211076058e-03,2.434327881823187406e-03,9.823528528213500977e-01
-4.901742587157366104e-01,-4.475270679360512927e-01,4.785760858494515491e-01,5.152384760478959796e-02,-7.240907968907138448e-02,-8.624205467968133754e-02,9.721049070358276367e-01
-4.362339783950937022e-01,-4.425027367296959224e-01,5.407567739979523003e-01,1.506143653576077525e-03,6.714804208524948609e-03,2.830237122332726184e-03,9.802249073982238770e-01
-4.302008546653157683e-01,-4.338416569493450670e-01,4.853777193887189867e-01,-6.966438831101066584e-03,-7.608987592324600174e-03,-3.295183827033990910e-03,9.175961613655090332e-01
-3.671761319443260230e-01,-4.351172174105015222e-01,5.321848108645373943e-01,-3.107134205952590336e-02,4.995567157135096838e-03,4.424505965437464799e-03,9.368028044700622559e-01
-4.418770548113365448e-01,-4.164319365429393627e-01,5.399997866021539750e-01,3.400945188156629002e-03,6.433721275883397608e-03,4.818122081549635304e-03,9.695226550102233887e-01
-4.370025767532190741e-01,-4.367248806684838613e-01,5.292305541334909602e-01,-1.529787948838080272e-03,2.171257209603265521e-03,1.978049060902430621e-03,9.661113619804382324e-01
-4.018848256306857825e-01,-4.503467974250577321e-01,5.210328330574298672e-01,7.298752503279701265e-02,6.866737133406523169e-03,-2.967792063280663933e-04,9.565433859825134277e-01
-4.599479495093755643e-01,-3.100336251275043198e-01,5.293451305529800477e-01,-2.424491576215268701e-02,2.625519226107122378e-03,3.820413046788096768e-03,9.244965314865112305e-01
-4.400637187279572982e-01,-4.396552044341015542e-01,5.511374354248114171e-01,8.252450927840754302e-05,-1.475740326826875150e-03,7.370403910992718959e-04,9.910010695457458496e-01
-4.868323296598542349e-01,-2.758020354401014562e-01,5.293351884948358510e-01,-1.623097247325881731e-02,-5.546778834380825321e-03,-2.083083768227774260e-03,9.292920827865600586e-01
-4.368239797171434846e-01,-4.185465512475196603e-01,5.390196804627096494e-01,3.680013772244164223e-03,5.324628354341403094e-03,5.314735236933086117e-03,9.669433236122131348e-01
-4.360350300663923262e-01,-4.483828261246990965e-01,5.293898595332988677e-01,5.010881184940915896e-03,2.757689460731383400e-03,-2.930570114780504942e-03,9.717214107513427734e-01
-5.190045245057812728e-01,-2.581545521702723334e-01,5.405879022437761749e-01,-3.399264717321531966e-03,-1.025575705462572127e-04,-7.573740608424453860e-03,9.563424587249755859e-01
-4.579246393248945224e-01,-3.768744528500474478e-01,5.464789150297527653e-01,-9.581430686502183380e-03,1.010921316948735701e-02,-1.525359932752795925e-02,9.670928120613098145e-01
-4.448833557720244802e-01,-4.019530554323722527e-01,5.189900741119299887e-01,-1.218361807442163531e-03,6.158324572675521330e-04,5.872208482629959723e-03,9.431991577148437500e-01
-4.313492111771243809e-01,-4.476818855168391287e-01,5.172224449224112064e-01,-8.077282080997126622e-04,-1.033231151853866627e-03,-3.888530248823479467e-03,9.568689465522766113e-01
-4.368509059690903196e-01,-4.444224584976598780e-01,5.266344334865300514e-01,-1.960604068864278335e-03,-1.464384643437995049e-04,-1.522490934240754244e-03,9.673029184341430664e-01
-4.443600422644486403e-01,-3.765874410855467036e-01,5.436503679915405396e-01,-9.304306831235158864e-03,-9.607507141234957262e-03,-2.885457555374721164e-03,9.562213420867919922e-01
-4.614501952626258729e-01,-4.259333062143816906e-01,5.469280408332474197e-01,2.829202160013710894e-03,-2.740375702638324883e-03,-1.531829467681400381e-02,9.914757609367370605e-01
-4.394698294456304000e-01,-4.367083956759072461e-01,5.435976248184275494e-01,-3.119700548573101055e-06,7.207225270747444693e-03,2.561169198459218102e-03,9.817790389060974121e-01
-4.535504904514268687e-01,-4.011531888963985604e-01,5.266415338082124364e-01,-1.356957894789682451e-03,-3.008967980119401416e-03,3.289046409229696467e-03,9.551060795783996582e-01
-4.553272816003025025e-01,-4.079094623721185031e-01,5.391009201933414374e-01,2.909102846908000542e-03,-1.118201008860735500e-02,-1.033381153118127956e-02,9.719583988189697266e-01
-4.308108126766345136e-01,-4.491862758149586243e-01,5.268252950296343773e-01,1.520309339584278736e-03,-6.580640139801594577e-04,-1.514370662869452054e-04,9.669591188430786133e-01
-4.822894386231148522e-01,-3.159329466917513707e-01,5.394393586056424050e-01,-1.521330278440035516e-02,-1.164745511361978646e-02,9.599158948974825800e-03,9.502688050270080566e-01
-3.328115454199454537e-01,-4.532166634787771486e-01,5.343599771411539079e-01,5.640487820296046645e-02,6.389373173662830918e-03,-4.247992359222122448e-03,9.384118914604187012e-01
-4.453810408107705121e-01,-4.267366147627946749e-01,5.093893588360743907e-01,-6.408451580049445880e-03,-6.332823139228954332e-03,-1.234887747354725812e-02,9.459566473960876465e-01
-3.181192293747123201e-01,-4.980814694805547616e-01,6.501488195750385612e-01,1.505514887667883661e-01,-3.625123290274073762e-02,1.274997793863267941e-02,1.102999806404113770e+00
-4.948685412561256158e-01,-2.912667499705647867e-01,5.426653397038676552e-01,-1.150436949165189147e-02,1.694595307320047144e-03,2.189254501146203902e-02,9.531683921813964844e-01
-4.274049762472758585e-01,-4.438550712816848320e-01,5.032068957986979285e-01,-3.307094116251152374e-03,1.505795434217235232e-04,1.574548303998163281e-03,9.389664530754089355e-01
-5.063879027377042874e-01,-2.585850552613282449e-01,5.301860624766761010e-01,-6.266269589756508045e-03,-1.607105232668378653e-03,-9.710106991258697987e-03,9.377815723419189453e-01
-7.471253894440451626e-01,-1.535657793910831792e-01,8.783124423465353825e-01,-9.999241047818538397e-02,-5.262990856090901670e-04,2.247354716489410875e-02,1.435645580291748047e+00
-4.693539751025941897e-01,-3.588872183057003062e-01,5.328209754625159444e-01,5.537448956586743347e-03,1.026532128233800800e-02,-9.501911673064954503e-03,9.521184563636779785e-01
-4.317939477115202984e-01,-4.482140533813821492e-01,5.219568161455450106e-01,-5.640175074478098044e-03,1.255956858183122351e-03,-9.588050187750650835e-03,9.622612595558166504e-01
-4.379827972391796553e-01,-4.383960721491814150e-01,5.228659322299736845e-01,-9.220203149835928119e-03,-1.115390545291758103e-03,-6.418761865934029601e-03,9.612543582916259766e-01
-3.110589838936704821e-01,-4.931359778024837492e-01,6.315285431205155398e-01,1.243853954423838198e-01,-1.501282599746004906e-02,-6.840659707256897815e-02,1.074419140815734863e+00
-4.254637549357105364e-01,-2.835233536984728686e-01,4.434185672215770202e-01,2.202309020793717653e-01,1.177266293589903368e-01,1.221903187029333149e-01,9.400261044502258301e-01
-5.622323608117451021e-01,-1.765247134239463778e-01,8.286499315113691200e-01,-1.410791464386941252e-01,2.338843526610140389e-02,8.454619833897671424e-03,1.268233180046081543e+00
-2.171187291728423063e-01,-5.268446691000165938e-01,5.661390353856990965e-01,6.214212998802101651e-02,-3.183562250092394214e-02,8.461640213697572965e-03,9.832895994186401367e-01
-4.435483773508069882e-01,-3.863728676317118582e-01,5.403206655096867150e-01,6.523188353772269368e-03,1.086077241781232758e-02,1.353978134325258681e-02,9.571027159690856934e-01
-4.050074257171222825e-01,-4.047077536525116592e-01,5.316405547790014063e-01,1.659306880135630324e-02,6.318518553529172549e-03,1.450571508350329388e-03,9.370063543319702148e-01
-4.345913617940233009e-01,-4.190147248235117083e-01,5.439977415089840562e-01,6.094539749157820360e-03,8.988011227374250844e-05,1.327624044494420856e-03,9.709545969963073730e-01
-4.132971145756224596e-01,-4.297673080883436247e-01,4.395138237926297098e-01,-3.448756449731137292e-04,3.732584505509204537e-03,6.508196986777403659e-03,8.612624406814575195e-01
-4.040487557767447613e-01,-3.994081242366575579e-01,5.285777888040388284e-01,3.085803605632011799e-03,-8.648358251245433399e-04,7.339497716892105089e-03,9.304183125495910645e-01
-4.453036084838765674e-01,-3.342560861670968997e-01,5.318638777332229672e-01,1.659524038149284494e-02,5.894703367363288496e-04,-5.482850316681172655e-03,9.271425008773803711e-01
-4.000097781971587163e-01,-4.113447930637441630e-01,5.312101855806462547e-01,3.580619648611622040e-03,-2.496304680932084127e-03,3.870349068307384413e-03,9.369933605194091797e-01
-4.210054487176027038e-01,-4.261497573756368173e-01,5.436777420608676081e-01,-2.306602134335985523e-03,-2.691351073473140579e-03,3.768257926930946612e-03,9.673070907592773438e-01
-3.953863493462886902e-01,-4.266848554888866274e-01,5.347988393169216259e-01,4.262745350936505626e-03,-2.012281379575459050e-03,2.938715814182428672e-03,9.462716579437255859e-01
-3.843999780331621152e-01,-4.446234523686595774e-01,5.352300828396192589e-01,-4.780293648820253295e-03,2.989119190073740752e-03,6.535201990687045451e-03,9.512902498245239258e-01
-4.179125785727449971e-01,-4.432548817602402491e-01,5.404073441845520520e-01,1.909838632726753660e-03,8.719408501764686764e-03,2.892859735080109424e-03,9.713750481605529785e-01
-3.831693641624258628e-01,-4.174509506093815880e-01,5.293714272328102766e-01,4.859830443846717939e-03,5.345040903819424372e-03,8.614700125307314313e-03,9.303593039512634277e-01
-4.246832692445260404e-01,-3.924307934303541412e-01,5.371827211508309885e-01,2.757350580013584029e-03,7.525201233177854221e-03,-3.469979658087882571e-03,9.462730288505554199e-01
-3.961820970313761348e-01,-4.254082858848147186e-01,5.337819725571626428e-01,6.736048280202919583e-03,-1.422398563568732762e-03,3.834983302705131068e-03,9.450147747993469238e-01
-3.970069704175583913e-01,-4.261620460205860494e-01,5.405356840613247948e-01,4.912220520655560460e-03,-3.338795955717541002e-03,8.090962033830206152e-03,9.526135325431823730e-01
-4.150043762734256236e-01,-4.321510609896426769e-01,5.441562977887862695e-01,3.681697509124749572e-03,-5.671597597873838555e-03,5.737381528028306574e-03,9.679698348045349121e-01
-3.891985428787570478e-01,-4.104419948643451277e-01,5.290485734751324554e-01,9.001125841613059203e-03,5.782996122480369913e-03,7.698590634585675621e-03,9.293314814567565918e-01
-4.408000307858479516e-01,-4.422383050255958015e-01,5.485606187617344531e-01,1.529028175331940140e-03,-1.694295203653956288e-03,1.282176903342902539e-03,9.900909662246704102e-01
-4.405060099796371809e-01,-4.411033288820206955e-01,5.521139261412457699e-01,1.129140723201185834e-03,8.259787891851486531e-04,-1.829890155840539941e-03,9.929267168045043945e-01
-4.638337106882043925e-01,-3.582284049329638731e-01,5.440969557684207647e-01,-8.479211676255239694e-03,-6.550326356755354837e-03,-1.253645225159562282e-02,9.599217772483825684e-01
-4.333968560687192495e-01,-4.314188323780387968e-01,5.464438043316980353e-01,-4.840587255487993970e-03,-1.622959750453030221e-03,-3.121581448337944903e-03,9.789080023765563965e-01
-4.388312835416631197e-01,-4.422620370279296553e-01,5.353758575630115368e-01,3.420046330268810934e-03,-2.587423669286932452e-03,2.431675111154882503e-03,9.759643673896789551e-01
-4.142594447634907473e-01,-4.041305515808143456e-01,5.321334059468592059e-01,-5.641153427171764420e-03,2.263269647108044277e-03,-6.177391383328135902e-04,9.414287209510803223e-01
-4.362135858024173696e-01,-4.276714870100010724e-01,5.407867784764514019e-01,3.881452100397240947e-03,5.988206937500397016e-03,3.918260948784436232e-03,9.728596210479736328e-01
-3.719716251286334652e-01,-4.253996766346423430e-01,5.283333943895164309e-01,6.834241993756150733e-03,2.048402658941540170e-03,5.369155537473880961e-03,9.283019304275512695e-01
-4.232083493458790313e-01,-3.658601093326598330e-01,5.332737211690993240e-01,1.358795450935300526e-02,4.512948903243732546e-03,8.882775337533841895e-03,9.295945167541503906e-01
-4.330945808410748832e-01,-3.900191302208173005e-01,5.381096356736591035e-01,8.054222378709834096e-03,1.224642866143205860e-02,1.412741602117100273e-02,9.510527849197387695e-01
-3.882909889897645517e-01,-4.178834919891208366e-01,5.341635735765862814e-01,3.160238504652274072e-02,1.272201136406355543e-02,1.165773663722397858e-02,9.396729469299316406e-01
-4.550796207303597352e-01,-4.468796520051880883e-01,6.011846694719469308e-01,9.316702377373528576e-02,-1.483948194288729761e-02,4.568671487987480996e-03,1.064830303192138672e+00
-4.118067972027361079e-01,-4.382091010579357571e-01,5.834300109052459327e-01,5.393533945861950230e-02,-3.483310173751348257e-03,1.697010882409722646e-03,1.013036012649536133e+00
-2.901134399769749739e-01,-4.974229461144615838e-01,5.489685656073904907e-01,-1.227199566667178804e-02,2.540438048073768301e-02,-9.116741499170183741e-03,9.610529541969299316e-01
-3.671669609997332273e-01,-4.611891733064411580e-01,5.674355688977502643e-01,-7.022466558894263633e-02,-1.148995929097771165e-02,3.385890062668388614e-03,9.926834702491760254e-01
-3.528909424547212459e-01,-5.467475111107368280e-01,5.920271468041129470e-01,-5.815893091547987004e-02,-1.529365728822078274e-02,1.143425794936079633e-02,1.060599088668823242e+00
-4.330439337860026439e-01,-4.470681084828077578e-01,5.312413194873364386e-01,2.381349721578866156e-03,-2.523896767122296540e-03,1.271761801311662148e-03,9.713943600654602051e-01
-3.540088567796661478e-01,-4.901662217579042524e-01,5.510613973370883656e-01,-8.849770394374496460e-03,1.610149225968701692e-02,-1.006386836720682409e-02,9.809380769729614258e-01
-4.376164420827893808e-01,-3.141408027442300632e-01,4.941789352353846976e-01,-1.816538323475954675e-01,3.098339217047117733e-02,2.840568242101601526e-02,9.342000484466552734e-01
-5.040382484838968891e-01,-2.483145585314930903e-01,5.720577759514819949e-01,1.390531049802687658e-01,8.843014404183486762e-03,4.082449939599115674e-02,1.005701661109924316e+00
-7.488389212129509254e-01,-1.127986216788999241e-01,8.357684978943910048e-01,-3.863884202151142422e-02,-3.789666860566184847e-03,-4.196559981701805664e-03,1.382833480834960938e+00
-4.269176936695558422e-01,-3.533328383271105433e-01,5.674654783758605880e-01,1.057045988381408591e-01,-9.262549704238147094e-03,5.378913204831419544e-04,9.771487712860107422e-01
-5.899610373945198827e-01,-2.125905697886227297e-01,6.234980715450684219e-01,-3.059249245204003625e-02,-8.073623765426375318e-03,9.951110471738605634e-03,1.077157497406005859e+00
-4.584497259127155444e-01,-4.049048289578278670e-01,5.488325350064884312e-01,3.671658843161800559e-05,-3.923552318606705544e-03,-1.281490396052739969e-02,9.818801283836364746e-01
-4.445024878602558127e-01,-4.165709475724140853e-01,5.497844110505327730e-01,-6.604274071908819215e-04,-5.189726515954223331e-03,-5.010655996944527076e-03,9.806997776031494141e-01
-3.982020109266337649e-01,-4.455093311885575114e-01,5.096844269945947081e-01,-6.337461971764593582e-02,-2.520658856046714691e-02,-1.334299903148762970e-02,9.401780366897583008e-01
-4.522395621683178990e-01,-3.555495060932146179e-01,5.383638398692247584e-01,3.933454135206646690e-02,-2.747116567317838508e-03,9.015737104118855261e-03,9.485624432563781738e-01
-4.710922399353399959e-01,-3.610350698716691120e-01,5.490417822030421169e-01,5.914336364127738450e-03,6.981954940478823576e-03,-1.074040359865477065e-02,9.701083302497863770e-01
-4.497965069128459503e-01,-4.080359010968628297e-01,5.373739564808169833e-01,5.319620219080808997e-04,-4.344015208006051735e-04,9.723167975564947843e-03,9.671140909194946289e-01
-4.410596586455714507e-01,-3.739667739385422185e-01,5.365058953380890117e-01,8.863804192573040280e-03,8.330186349748709002e-03,-6.591366018908185326e-03,9.461090564727783203e-01
-4.506271903707695925e-01,-4.320002984927440726e-01,5.349316348182900915e-01,-2.991475666689047234e-03,7.565945293305021899e-03,1.496799013676143944e-02,9.768244028091430664e-01
-4.617110895396734360e-01,-3.174142560106154032e-01,5.305294162844821360e-01,-1.789218539381215098e-02,-1.125974375185420998e-02,2.309521549690154996e-02,9.301217794418334961e-01
-4.653006574123726424e-01,-3.283094246855343679e-01,5.390618913504395815e-01,-4.157998310640733525e-02,-1.248370460750583555e-02,-9.426577531949170696e-03,9.464896321296691895e-01
-4.462856281854293283e-01,-3.598080426747391480e-01,5.954347968141585623e-01,-1.148125963412341272e-01,-1.877227170658540140e-02,3.143632159362702572e-02,1.022810816764831543e+00
-4.417548124910571916e-01,-4.412863989702798806e-01,5.425582388395936428e-01,-3.154781810261467895e-03,3.331452796875087989e-03,2.909146443672097800e-03,9.841238856315612793e-01
-4.572249100973014291e-01,-3.489612379997219516e-01,4.802883439099026042e-01,-5.467799903707851877e-02,1.335303080925816926e-02,-3.916970508088040565e-02,8.962478637695312500e-01
-4.168516871138279178e-01,-4.033444811615228276e-01,5.340091200153259665e-01,8.202034371035235496e-04,5.769859892446158219e-03,-9.232901041325218376e-04,9.442349672317504883e-01
-4.519296844485499176e-01,-3.813037673161560059e-01,5.368286730182638689e-01,-2.909235746494969257e-02,-1.247198553530203501e-02,-7.215607704856658033e-03,9.570585489273071289e-01
-4.299346868019949808e-01,-4.120353064819717304e-01,5.416555435115385508e-01,-1.540841535068834291e-02,1.210462844957455389e-02,-4.878593516496347073e-03,9.634004235267639160e-01
-3.381531213122271895e-01,-3.829099643093722971e-01,5.242838718288299615e-01,1.230986781639969302e-01,8.218994785487447954e-03,1.117808000405300095e-02,9.112837314605712891e-01
-4.431473743483416161e-01,-3.570018724925124731e-01,5.363960271707932659e-01,9.076443819080008690e-03,8.573487883625868083e-03,9.335549315043680657e-03,9.398255944252014160e-01
-4.346279556195714600e-01,-4.137179068172078811e-01,5.437258639135107430e-01,-1.765156208534328407e-03,9.035248434570302550e-03,-1.892467064696985290e-03,9.682050347328186035e-01
-4.270363285566456391e-01,-4.293520778739138843e-01,5.453825013403192923e-01,4.550846375857392728e-04,4.486037823030364358e-03,2.713733404063331696e-03,9.736214280128479004e-01
-4.148522133698191450e-01,-3.811379756997187451e-01,5.339089950184205957e-01,-3.983477898237856168e-02,1.057876771063748916e-02,-9.445836319435301984e-03,9.352334141731262207e-01
-4.199541861845145774e-01,-3.682736074552380168e-01,5.278238886768759075e-01,-2.753151092449793516e-02,4.014885814821288071e-04,-1.053294722105276200e-02,9.244347810745239258e-01
-4.174970176517499576e-01,-4.016574587502447224e-01,5.344275759509421464e-01,1.338112013808533552e-03,1.527852924404464550e-03,3.214352422963607896e-03,9.441274404525756836e-01
-4.293334111157947053e-01,-4.200552911597685291e-01,5.444102926739692316e-01,-4.029555895091876255e-03,2.932776299027349976e-03,-1.992570568361409517e-03,9.691825509071350098e-01
-4.401311448165776685e-01,-4.402471915034654737e-01,5.482948762036822243e-01,4.239024985359383588e-03,-1.550630578415506354e-03,3.238676886525218915e-03,9.885308742523193359e-01
-4.984475519544609989e-01,-3.160175815934854748e-01,6.117593443112752105e-01,1.398227731942277008e-01,-3.897148246762586945e-04,1.760568024631828724e-02,1.059663414955139160e+00
-5.098451278373830053e-01,-2.455433336923045218e-01,6.440249233112632643e-01,1.338714688243477224e-01,1.050850413988788090e-02,2.995224419801815162e-03,1.072578430175781250e+00
-4.447617794268944325e-01,-4.407629973549009317e-01,5.497510017810214311e-01,6.243032872867285751e-04,-2.179653005709256131e-03,2.097418463342455748e-03,9.925338625907897949e-01
-4.184896926249720983e-01,-4.163715028466101753e-01,5.394621319917060065e-01,4.071321515097012927e-03,1.732629655280377989e-03,-2.756555705279866569e-03,9.569370746612548828e-01
-5.322212126093965878e-01,-3.038636926499026503e-01,5.746730549561477330e-01,-1.670270074668550250e-02,2.478501689530630478e-02,1.273027327757575086e-02,1.013785243034362793e+00
-5.078588530029197745e-01,-2.778602527216706974e-01,6.000695356633931610e-01,6.387503204707856153e-02,2.198537744493625490e-02,1.982011678694567750e-02,1.020025134086608887e+00
-3.740694489299561387e-01,-4.136682606105016591e-01,5.250760634419662232e-01,-6.058328303946841631e-03,-3.817365398716808132e-04,-1.482642740658789019e-03,9.196482896804809570e-01
-5.077304337354459074e-01,-1.981260576910289783e-01,5.756696864525018276e-01,1.414589377880114962e-01,9.884887190817001276e-03,-2.432507243817164252e-04,9.972514510154724121e-01
-4.362890520225968238e-01,-4.442247718151982050e-01,5.308476499882583965e-01,3.171988755061268869e-04,1.938683974935781918e-03,5.108215405216606948e-03,9.711751341819763184e-01
-4.393983843122447608e-01,-4.400834748644935623e-01,5.308166393960220830e-01,5.083901304043826619e-03,-2.138846510430295923e-03,6.639529523029288850e-04,9.706054329872131348e-01
-4.390423605250692862e-01,-4.474667153180123536e-01,5.372871150671977292e-01,6.900015691247956238e-03,-4.047906857577655143e-03,5.285237696429753197e-03,9.807094335556030273e-01
-4.390722627218440755e-01,-4.010582526088480315e-01,5.417935324769561634e-01,3.886938238187271711e-04,-3.500858704508721247e-03,4.272950948619908505e-03,9.624698162078857422e-01
-4.444618251718783775e-01,-4.335600735500922953e-01,5.383030588841168917e-01,3.414335511079923395e-05,-9.847190658844185828e-04,-1.221229501030807706e-02,9.775899648666381836e-01
-4.165698989941659658e-01,-4.329938900336674501e-01,4.599793450064053602e-01,4.144737653166555898e-04,8.928683757269300844e-03,-1.993848330801273327e-02,8.856845498085021973e-01
-7.099855526284440943e-01,-1.558162031872041831e-01,2.810998271266951232e-01,-4.333714636149597899e-02,1.245826307069097805e-01,-3.790752605234890688e-02,8.925427198410034180e-01
-4.430741986794953235e-01,-4.411788313066773992e-01,5.371534572734995017e-01,1.611547388867768185e-04,-4.927008014164238874e-04,2.366678310965411071e-03,9.792903661727905273e-01
-4.854103970240329913e-01,-3.922727101701259378e-01,5.657113664282270582e-01,7.943181626421356306e-03,-5.822616010899211514e-04,-1.147079665178917310e-02,1.008076190948486328e+00
-4.338185790892887805e-01,-4.444733307372470410e-01,5.256112124405992736e-01,1.323132915543341745e-03,1.154422964620346924e-03,-6.002147116007990751e-03,9.648621082305908203e-01
-4.377754920334571698e-01,-4.390794305561268596e-01,5.337813870451595388e-01,-1.450913879385675245e-03,-4.016864449829377938e-03,2.330925049829235107e-03,9.722460508346557617e-01
-4.570267120786178361e-01,-3.980477087966603489e-01,5.459653479352117866e-01,4.879984359370421196e-04,-7.562643767194537903e-03,-1.363984808380076796e-02,9.752161502838134766e-01
-4.516484138458424780e-01,-4.267995473967452491e-01,5.364075503556020585e-01,-1.172246512848646902e-04,5.480400791483572981e-03,-1.083115368636047848e-02,9.760953187942504883e-01
-4.518602572597550937e-01,-4.056936438112349053e-01,5.474801933365616158e-01,-1.593528891582487615e-03,-7.930929497113246157e-03,-1.257279251141612056e-02,9.774186015129089355e-01
-4.342390372523181608e-01,-4.495214394950768910e-01,5.325305198509691085e-01,1.200821666353535394e-04,-2.163588765165860503e-03,1.910517796764243156e-03,9.745134711265563965e-01
-4.456704681871013762e-01,-4.006542831780389724e-01,5.146656620044629538e-01,2.774200360365302112e-02,-6.125838691971122532e-03,2.532940421762099655e-03,9.399372339248657227e-01
-4.339996493429836844e-01,-4.469286638206538820e-01,5.273977264076180616e-01,3.746939027459574457e-03,8.424325195385341022e-04,-8.528769558941481921e-03,9.680622220039367676e-01
-4.141123692012059210e-01,-4.349951818864110087e-01,4.641490944269923702e-01,1.197529662270167307e-02,1.377005640608690296e-02,-8.828203722074866658e-03,8.895800709724426270e-01
-4.171064987516437395e-01,-3.826677936550693104e-01,5.286924251129108132e-01,-4.780690952668112566e-03,-7.233714618237645569e-03,5.959852907740797318e-03,9.292371273040771484e-01
-4.343560592765455253e-01,-4.172768712095652477e-01,5.447032798350703864e-01,-7.471873154532915513e-03,4.869936342924409628e-04,-1.403408627165358795e-03,9.707221388816833496e-01
-4.244442657404562391e-01,-3.871394662399122999e-01,5.337202107453782318e-01,-1.529901890880862488e-02,3.263925063722476066e-03,-4.113483930216931504e-03,9.404847621917724609e-01
-4.357697442724199899e-01,-4.398906724796335932e-01,5.516147818185145324e-01,6.525159892784780343e-04,1.584161610827186303e-03,4.833039125445207952e-03,9.894912838935852051e-01
-4.208272326052115986e-01,-4.237204914170509262e-01,5.429989818935875290e-01,3.340732600044488826e-03,4.637564231579447728e-03,7.742223989204797402e-03,9.654200077056884766e-01
-6.990373558950653265e-01,-3.922608976168443506e-01,3.782459993068830739e-01,4.957256731705499825e-02,-4.088911959114965161e-02,9.609507407562285775e-03,9.679003953933715820e-01
-4.310425804179171538e-01,-4.505335370479913726e-01,5.299619832366048167e-01,2.643051093988160998e-03,-2.613771898691693955e-03,-3.319816723480147926e-03,9.709351658821105957e-01
-4.376435625774762750e-01,-4.467698528614891251e-01,5.400558335082338290e-01,-1.240481369217708582e-03,-1.206016673075261617e-03,-2.076057338581593827e-03,9.823054671287536621e-01
-4.411419648829644768e-01,-4.313607238959986101e-01,4.995876819627637078e-01,-6.997094834388073968e-03,-1.527841193011568802e-02,-2.747521905629894592e-03,9.363419413566589355e-01
-4.339289714446798452e-01,-4.490158976322948248e-01,5.291370709423515173e-01,1.955718181162365878e-03,-5.381901241067376046e-05,6.067338467452673603e-04,9.707038998603820801e-01
-4.367210480201595413e-01,-4.403118580935144744e-01,5.270725201755579459e-01,-2.022397185547234800e-04,-1.014752783699633893e-03,6.979035140708951621e-04,9.655963778495788574e-01
-4.461946253538508489e-01,-4.302678780625061039e-01,5.197339921324716228e-01,-2.646996927776188325e-03,-8.605733133223053208e-03,-2.595460275677979878e-02,9.592454433441162109e-01
-4.437073504313443495e-01,-4.392889296928509935e-01,5.428811604729790741e-01,-5.995626677803657378e-03,-3.228028284802096810e-03,-1.386589692631520418e-03,9.844602942466735840e-01
-4.404023752182079643e-01,-4.363783287818063794e-01,5.497103397974509864e-01,-1.144507028563339964e-03,2.077450608397641944e-03,-3.145394804110258555e-03,9.881303906440734863e-01
-4.219463358603811054e-01,-4.149194715468008110e-01,5.393482018166881886e-01,1.705061567605129684e-03,2.554081222739738258e-03,-1.716671973249160859e-03,9.578198194503784180e-01
-4.300195650119383872e-01,-4.439855988989973579e-01,5.080230627621781236e-01,9.272789444148246858e-04,-9.516636548124176448e-03,3.860096146995649520e-03,9.452717900276184082e-01
-4.071173630395815146e-01,-4.107206103196222591e-01,5.343272337507057879e-01,1.168583179723278395e-02,8.529912722992768689e-03,3.663297210390702510e-03,9.436055421829223633e-01
-4.270838201999320183e-01,-3.220029227262634630e-01,5.513049426893174010e-01,1.930578310603642822e-01,-5.589374827151960892e-03,2.695049689249176539e-02,9.897288680076599121e-01
-4.063269998648345038e-01,-3.234337814462115990e-01,6.088209592307393114e-01,2.082171406418231729e-01,5.258197374867801255e-02,8.170644736346950598e-02,1.054340243339538574e+00
-4.393129190286382824e-01,-4.396432919162286401e-01,5.523727549743197018e-01,1.712572926706128597e-04,1.944570719627423689e-03,2.396076147758892383e-03,9.918653368949890137e-01
-4.374654527296566453e-01,-4.333463823307777130e-01,5.477747423724151909e-01,6.161936115908679158e-04,-1.739378371710038809e-03,3.323166749669639528e-03,9.832091927528381348e-01
-5.366610942456743194e-01,-1.988600864207252794e-01,5.558767576847032377e-01,1.426526803712404867e-01,-2.106948570165359177e-02,-1.652519507504505297e-02,1.000943779945373535e+00
-5.422001191712964019e-01,-1.627890001194258196e-01,7.990785582029780176e-01,1.490067057743985623e-01,-1.146499493592249286e-01,-5.394064435730117069e-02,1.244530797004699707e+00
-3.901406372795575006e-01,-4.253734052288312140e-01,5.367587723704172475e-01,-2.445603501478438822e-03,2.878107400629487025e-03,7.731096661725569974e-03,9.451259970664978027e-01
-4.272152819702945692e-01,-4.362731703873888867e-01,5.459783082522222664e-01,-1.719240993290599429e-03,-3.439755348505519651e-03,-2.196772653905043008e-03,9.777840971946716309e-01
-5.181728343634958156e-01,-2.806756905479469988e-01,6.057677351141304012e-01,5.723084023090533462e-02,-2.479837855486784638e-03,2.262921725785507852e-03,1.030812621116638184e+00
-4.169800599291798027e-01,-3.743920567614811290e-01,5.395818450969557256e-01,3.519434287692771446e-02,9.503714756151436082e-04,1.410844899052553225e-02,9.382974505424499512e-01
-4.385623484229672076e-01,-4.407996549704473188e-01,5.465165463166582471e-01,4.466139191919673342e-04,5.052631519471275593e-04,-3.070919935067556450e-03,9.862144589424133301e-01
-3.977414035215114940e-01,-3.959739521696215014e-01,5.659152843602955896e-01,9.086760260801779454e-02,-3.066808494123821754e-02,-2.211458324512286314e-02,9.777492880821228027e-01
-4.409607961307833723e-01,-4.399252860837340462e-01,5.353017169163930555e-01,3.546773010606768962e-03,-3.353148170235351229e-03,3.287335855347285792e-03,9.757984280586242676e-01
-4.395102521032365206e-01,-4.354358384544703697e-01,5.526227048747012205e-01,-1.724904814288278059e-03,9.460344853043675499e-04,-2.197271195350563623e-03,9.901152253150939941e-01
-3.461591657615785689e-01,-4.141207066232606149e-01,5.154654364651691800e-01,2.148923416621783405e-02,2.678637775786556728e-03,7.698341150848538126e-04,8.983216285705566406e-01
-3.821572523127724219e-01,-3.995945926839895579e-01,5.223609472351046223e-01,1.016779833761329022e-02,2.102653292350792780e-03,-9.119364244346158353e-04,9.135401248931884766e-01
-3.733383439810034621e-01,-4.135266901451539190e-01,5.240317667781291266e-01,5.518182170623929864e-03,1.742732294005580607e-03,-1.847263153370805506e-04,9.181789755821228027e-01
-4.266701292856761030e-01,-3.142612177936565665e-01,5.507916694456654882e-01,1.557334335079423038e-01,-2.968516007985414450e-03,-2.921614373600760900e-03,9.648848176002502441e-01
-4.054753115405940744e-01,-4.088620002722568869e-01,5.339261092244820261e-01,9.272000246247838820e-03,3.138796371425814705e-03,7.625546338733999591e-03,9.413447380065917969e-01
-4.474915484774559249e-01,-3.273623632268024553e-01,5.278596358529830113e-01,-2.789195141618984811e-02,-1.983935465403985354e-03,2.038847879534476382e-03,9.224591851234436035e-01
-4.343651811639240856e-01,-4.355717597954751885e-01,5.483603426854145590e-01,-5.812244735697289812e-04,3.016594557229096678e-03,6.296619527798089783e-03,9.834042191505432129e-01
-4.217804913142905732e-01,-4.380843321528935519e-01,4.795755785720959841e-01,6.161976218035526698e-03,-2.080246459227512792e-03,-1.822193528682318833e-02,9.102346897125244141e-01
-5.533070778075280804e-01,-1.750769761992050921e-01,5.154329142601348224e-01,2.102471716976255789e-01,8.557193699361975714e-02,4.813785775394636979e-02,1.021060466766357422e+00
-4.383108170628210454e-01,-4.430267593576191487e-01,5.385242072738205543e-01,2.356503041153315374e-03,3.093480491730599830e-03,-3.453056416033876974e-03,9.792429208755493164e-01
-3.848497315385468465e-01,-4.246253547518557547e-01,5.337039444419023893e-01,9.425391921974633769e-03,-4.211138717780008728e-03,7.589095058722170051e-03,9.393356442451477051e-01
-4.327410590674848900e-01,-4.473465409484148614e-01,5.197969694533177698e-01,3.712355959646083600e-03,9.899641911000150139e-04,-4.115463155599634500e-03,9.599736332893371582e-01
-3.641935682889993475e-01,-4.666353834782978049e-01,5.427911506666354136e-01,-7.114334708441433924e-03,-1.255123184318466048e-02,7.558917564063329098e-03,9.627172946929931641e-01
-3.881944980407456280e-01,-4.903239884065751508e-01,5.646279535039877562e-01,-1.218250598109929181e-02,2.213801789357060668e-04,3.926943334610353761e-03,1.008019804954528809e+00
-4.470243266304217977e-01,-4.305540682716227918e-01,5.379724353212338439e-01,1.514138347451606708e-03,1.858150139711271884e-03,-1.051602190908187441e-02,9.770444035530090332e-01
-4.367916391842091572e-01,-4.461278395150574672e-01,5.343832262634168329e-01,1.521074199784949081e-03,1.054917325779899419e-03,-5.223998362348105176e-03,9.759236574172973633e-01
-4.608210645107507220e-01,-3.109469307049658182e-01,5.409522373391837391e-01,2.394576976137146110e-02,-5.418173810609427758e-03,4.833061931738059144e-04,9.368463158607482910e-01
-4.357663599580923752e-01,-4.377957541119545937e-01,5.440617596052031990e-01,-3.192881011081871267e-04,1.245470044639961039e-03,2.196276725751898726e-03,9.808542728424072266e-01
-4.361313780929625961e-01,-4.389526242534954603e-01,5.324735965833704565e-01,2.089851631360814095e-06,7.528576233748862645e-03,4.793061007682248003e-04,9.701066613197326660e-01
-4.410822553993667405e-01,-4.377296724694120789e-01,5.291697400399962836e-01,1.561731910284558898e-03,-2.705573889593362261e-03,-1.783795611907602625e-03,9.686000943183898926e-01
-4.402406074699525274e-01,-4.416509525886839205e-01,5.310020793789146376e-01,4.249949247043725798e-04,-3.732383231038700032e-03,-1.850596520370487510e-03,9.719756841659545898e-01
-4.456872940191798915e-01,-4.344781600729504811e-01,5.290429949144920263e-01,-2.834932421253255445e-03,3.606116165726559568e-03,-1.771864277301421573e-03,9.692117571830749512e-01
-4.355603105946393439e-01,-4.372055723489053358e-01,4.978234516487033412e-01,1.063562004849425910e-02,-3.814089402490323513e-04,-1.034744493586622557e-02,9.345611929893493652e-01
-4.242826560632948496e-01,-4.272295859691517261e-01,4.987439454572724085e-01,-6.134992597275224641e-03,1.917153635183131005e-02,-1.693544627621822174e-02,9.256256818771362305e-01
-4.390226716798572015e-01,-4.398602538496604875e-01,5.419497645437275635e-01,3.011991704029608262e-04,2.054288000592379045e-03,3.807682249430216666e-03,9.814202189445495605e-01
-4.475067470010144488e-01,-4.339410949033939424e-01,5.478742261484951248e-01,1.541984026869539295e-03,-8.574500054185660389e-04,-4.732269225807645037e-03,9.887066483497619629e-01
-4.459698276144919982e-01,-4.412659416236532905e-01,5.179041229059250240e-01,2.518496809147537010e-03,1.519695765189914977e-02,-2.465694381410365142e-03,9.619102478027343750e-01
-4.320359308066895054e-01,-4.215267273561777439e-01,5.467210636306539806e-01,4.503479238451004070e-03,-4.002131818151487448e-03,-2.797641736348568942e-03,9.736129045486450195e-01
-4.288826668399156050e-01,-4.397435524633547255e-01,4.952234866415532455e-01,-5.688395313554897928e-03,1.281406937716657486e-03,-1.314436685021145050e-03,9.296418428421020508e-01
-4.396322964571439118e-01,-4.379199889417243474e-01,5.514550231005638237e-01,-3.098959986926730207e-04,2.076689073120953789e-03,-7.866014772057847073e-04,9.902399182319641113e-01
-3.095085292119288956e-01,-5.034112425484598141e-01,5.506593125054703997e-01,1.109143378668161900e-01,2.393475709534962151e-02,-1.411520782118970418e-02,9.917147755622863770e-01
-4.308879962046747170e-01,-4.444470458472248309e-01,5.402030751725288571e-01,1.475831760958068190e-03,1.570317523930326101e-02,4.045158329071615530e-03,9.783476591110229492e-01
-4.285475428604811898e-01,-4.432625493557830199e-01,5.006476082828767993e-01,-3.720142020516519540e-03,4.782149591925947789e-03,1.777492090930387226e-03,9.367032051086425781e-01
-4.391281035443216352e-01,-4.335376917144421194e-01,5.365703732153653815e-01,-1.243915650328652589e-04,1.413867240272666205e-03,-7.343457666618010207e-03,9.730015397071838379e-01
-4.401929720854169115e-01,-4.358628731654044519e-01,5.459537489737236182e-01,-1.143476476418277266e-03,4.858020766902782818e-03,-3.151732490976382785e-03,9.840419292449951172e-01
-4.400786087683964398e-01,-4.313656724114719454e-01,5.478338744868006538e-01,-2.512621065226211189e-03,5.080842694694772538e-03,1.922347484576280175e-04,9.836339950561523438e-01
-4.415633515615258187e-01,-4.295939560517701428e-01,5.037443486241551804e-01,-5.274496488092444112e-03,2.235721859026117576e-03,-4.069857768994688749e-03,9.394590258598327637e-01
-4.376116677091594909e-01,-4.237916978752616637e-01,4.636122350861320296e-01,-5.329799116054853743e-04,2.439479841882075117e-02,-4.818540476670717717e-04,8.953923583030700684e-01
-4.646410993635942122e-01,-4.837962820627151883e-01,7.092214845319434469e-01,-2.831530059993994097e-01,6.304225995187286158e-02,-3.493890517960050041e-02,1.287213206291198730e+00
-4.397847078625413686e-01,-4.355858229466623710e-01,5.515624657424385013e-01,-1.923104571778317100e-03,4.390222797546024062e-03,-5.382176857676142581e-04,9.892897009849548340e-01
-4.409411964981270748e-01,-4.432492983577936418e-01,5.488984235687401902e-01,-5.727330429947472684e-04,2.612395985641073962e-03,3.889642964011297667e-04,9.910067319869995117e-01
-6.918914205327493239e-01,-2.394169699800860474e-01,3.167385150931802951e-01,1.586703588860442493e-01,-6.970478505023011695e-02,-3.289141280651306648e-02,9.268434643745422363e-01
-7.569203861311967207e-01,-1.421037528261579475e-01,8.483493382240945291e-01,9.027934803929714425e-02,1.959744683329985374e-02,3.253550290362490494e-02,1.413054466247558594e+00
-4.474202307368693732e-01,-4.343627164641121197e-01,5.296260246114999903e-01,-6.924423044474443956e-04,4.062946742419102329e-03,9.483327793506812937e-04,9.706110358238220215e-01
-4.469270721870229890e-01,-4.408881095876008849e-01,5.328452884896027753e-01,-1.453344799820971195e-04,4.437969735341767454e-03,-1.840935918498956287e-03,9.768023490905761719e-01
-4.415292916239186294e-01,-4.439697501655308076e-01,5.465425082583345029e-01,4.187866818286489073e-03,-2.419487760046935224e-03,2.117283503197744943e-03,9.893365502357482910e-01
-4.379805067039662103e-01,-4.474120351501680859e-01,5.418954837676885905e-01,1.102279337519523677e-03,-2.863178777946855883e-03,2.160570293982579278e-03,9.846470952033996582e-01
-4.387141258924980858e-01,-4.224389235415146326e-01,4.828407007683618302e-01,4.955140920704505930e-03,2.899915056727257745e-02,-1.520749249296653172e-02,9.153251051902770996e-01
-4.420718556060621030e-01,-4.375195509004632943e-01,5.289581384381757401e-01,6.220366356826467422e-03,-3.915161209717775599e-03,3.850650188793842271e-03,9.688684344291687012e-01
-4.353705111384207904e-01,-4.437007039895906058e-01,5.396782152037951086e-01,2.041415872837478059e-03,6.717341711757101111e-03,1.331563449445793100e-03,9.793186187744140625e-01
-5.413677557930958173e-01,-3.670056308331581252e-01,5.035878782938797427e-01,1.715594418124701068e-03,-9.974280978163342290e-03,-7.814083161429763447e-02,9.791623950004577637e-01
-4.379676080667591620e-01,-4.327771408024563837e-01,5.470378328958388492e-01,-8.890135188241638821e-04,3.134102594892441453e-03,2.985175259730246927e-03,9.824503064155578613e-01
-4.426411163143918470e-01,-4.416679549936663451e-01,5.520076986085447057e-01,1.021492863996633499e-03,1.168222845813870125e-03,1.855883824987130705e-03,9.941714406013488770e-01
-3.471895743109264520e-01,-4.852257258022385500e-01,5.466361821606301463e-01,-1.498176994570550591e-02,7.739350803180427424e-03,-2.732231844387663418e-03,9.706874489784240723e-01
-4.485874045086361006e-01,-4.366445578392706972e-01,5.312046457765567942e-01,9.644084305976163059e-04,4.569016644396695255e-03,-1.989071057331792333e-03,9.739152193069458008e-01
-4.403821196272674210e-01,-4.404491834766020020e-01,5.352727052781578454e-01,2.557211021279281711e-04,-2.010921218623779819e-03,1.489682722382864124e-04,9.756947159767150879e-01
-4.521006642040303891e-01,-4.315672117980302036e-01,5.275901638179359976e-01,-3.325095578202434308e-04,-1.819495088883121749e-03,1.143723773588475531e-03,9.695944786071777344e-01
-4.380657068654726372e-01,-4.270304806658846153e-01,4.844908592205117159e-01,-5.031144261879039702e-03,1.327078943995122634e-02,2.729196430938843777e-03,9.174303412437438965e-01
-4.286964401020243454e-01,-4.405726523713023868e-01,5.371757484634087643e-01,5.452008823501211174e-03,1.274503746407649324e-02,4.509232184770397937e-03,9.721926450729370117e-01
-4.058177002016612467e-01,-4.624479137562551578e-01,5.359187243685519242e-01,-1.115579072292730185e-03,-8.318501383770956700e-03,-4.178618496753127610e-03,9.714262485504150391e-01
-4.220444146451530210e-01,-4.410443198953456490e-01,5.439743691409787418e-01,-1.207272075930512648e-03,-4.598381777792684769e-03,5.653917154393779503e-03,9.757413864135742188e-01
-4.392330124846784978e-01,-4.284275955619253340e-01,5.344888350625347506e-01,3.965850607984808263e-03,-2.744559812608671472e-03,-1.161649048099629503e-02,9.686093926429748535e-01
-4.355531550631510651e-01,-4.093318517304591064e-01,3.071110618542519655e-01,1.758869032103562921e-02,-3.894476149298902248e-03,-5.635181931850004322e-02,7.370645999908447266e-01
-4.483301510604392748e-01,-4.362481389320285730e-01,5.338784689365626557e-01,-6.666788094569774418e-04,4.534207025780976480e-03,4.287775434060337983e-04,9.762562513351440430e-01
-4.075755227722116514e-01,-4.446008033572947382e-01,5.302958109373380191e-01,-2.380562588208773268e-04,-7.993541354135401400e-03,1.612795473523503595e-03,9.570256471633911133e-01
-2.180284395880972004e-01,-6.079759211061162016e-01,4.086228320610987286e-01,-8.709953960423050257e-02,7.095277785012044092e-02,-8.010015764021057028e-02,9.199032187461853027e-01
-4.229128802951859223e-01,-4.961476143203369382e-01,5.780210889727894763e-01,-7.051027800474191087e-02,-7.907922845805862022e-02,8.722088147371227437e-03,1.055670022964477539e+00
-4.387824339471160795e-01,-4.339992050758071929e-01,5.214683384931612098e-01,3.728156671791173736e-04,-5.871833641320824701e-04,-4.938872050383036469e-04,9.578692317008972168e-01
-3.938597363197336443e-01,-4.606721534681027519e-01,5.264218952269020813e-01,6.111690987598564044e-03,-1.693460482476921367e-02,6.015779786505296399e-03,9.560070037841796875e-01
-6.607334068518901926e-01,-2.803564400194379358e-01,3.326973704379744268e-01,1.437592207241809583e-01,3.419910714986713896e-03,1.023997258469988292e-01,9.204376935958862305e-01
-4.503234566758929081e-01,-4.339898129560773032e-01,5.281919331791439243e-01,-2.472651168608068235e-03,-2.217314600164057518e-03,1.081103413143471833e-03,9.704705476760864258e-01
-4.269242766364528818e-01,-4.276302459751288310e-01,4.639703571500286561e-01,7.289394675456870379e-03,-2.275536625336002303e-02,2.896753110411623422e-02,8.936178684234619141e-01
-4.282922306348119768e-01,-4.449064150656277805e-01,5.015653219700947352e-01,1.111288994133118914e-03,6.184878000027529618e-03,4.674793993332171729e-03,9.383730292320251465e-01
-4.408648542289791417e-01,-4.357622968201028679e-01,5.305853403273124158e-01,-1.314098964451728422e-03,-2.573974544244970845e-03,-5.518607395191229593e-04,9.689223766326904297e-01
-4.378820154884502380e-01,-4.438726887147481093e-01,5.391882030398913450e-01,-1.315846648603116818e-03,1.290399595150236185e-03,3.132490292647467818e-03,9.800994992256164551e-01
-4.156174504477780363e-01,-4.261973648041003648e-01,4.186707443939580164e-01,9.444458583012564634e-03,-2.572316251721240565e-02,7.666658020955811892e-02,8.513879179954528809e-01
-4.220474496441423140e-01,-4.146104674104471033e-01,4.235025631343676267e-01,4.907128762647253693e-03,2.376694459184165026e-02,-1.386572032522804393e-02,8.432469367980957031e-01
-4.217679016068314746e-01,-4.265911253732840858e-01,4.508896807669235951e-01,7.595496745699186619e-03,3.465728306218075587e-03,2.215609141571368845e-02,8.760395646095275879e-01
-4.310542729268883599e-01,-4.290451763766476856e-01,5.014673790356342087e-01,2.980524231883418737e-03,-2.872838655722219532e-03,1.270845209235858808e-02,9.318063259124755859e-01
-4.383457688323705304e-01,-4.390341208401036810e-01,5.373946231418845754e-01,6.705964458532972898e-04,-7.003692826409951919e-04,6.513565114539721264e-04,9.760868549346923828e-01
-4.380930326551845111e-01,-4.434621613746875801e-01,5.398281135957034849e-01,-2.409140899749652107e-03,2.359983791170819790e-03,3.816548628235932362e-03,9.806563854217529297e-01
-4.146781714567773780e-01,-4.360693675828173355e-01,5.503232478990063292e-01,1.466566731297585906e-02,-1.349605664256186069e-02,-1.416420040373799621e-02,9.767913818359375000e-01
-4.141523039360284208e-01,-4.219350508291492829e-01,4.163123728085356134e-01,5.512050115522293230e-03,-2.172948780613927558e-02,1.942584513065861301e-02,8.359636068344116211e-01
-3.774282187374043973e-01,-4.374220417455992327e-01,5.454141112173122030e-01,-3.618734049689346921e-02,1.888156034394520080e-02,-1.622665232923995240e-02,9.572826623916625977e-01
-3.861202770938369500e-01,-4.127032956600988900e-01,5.275927509764695156e-01,-8.150426702197954842e-03,6.915644706882518103e-03,-6.537197954977038220e-03,9.275442957878112793e-01
-4.479983416209705194e-01,-4.380106082208902185e-01,5.416888338383255563e-01,-3.055885779006888014e-03,-7.458520363231384807e-04,-2.720553283452508981e-03,9.847576618194580078e-01
-4.424798473535766496e-01,-4.414563298242853984e-01,5.525787265766277656e-01,-1.131065781460926026e-03,1.741317175260635904e-03,-2.265353538717399472e-04,9.945538043975830078e-01
-4.065053116877086481e-01,-4.251122293931841045e-01,5.391254156627373062e-01,-4.759001651615408016e-03,6.064799171646884264e-03,-7.869780984809162869e-03,9.552607536315917969e-01
-4.427207725512623537e-01,-4.376472512631798262e-01,5.339094262456621776e-01,-4.662093545456569635e-03,-1.164089787602939777e-03,-2.423251307641367206e-03,9.741479158401489258e-01
-4.797422409249550990e-01,-4.196777496031059429e-01,4.206789976293713318e-01,-2.827803215868521236e-01,3.398801936568066062e-02,6.496119513822776192e-02,1.008118271827697754e+00
-4.405665995445549044e-01,-4.424747353836619990e-01,5.508885471204082451e-01,-1.861965435831580175e-03,-4.993454693669786306e-05,7.771936464285244487e-04,9.924167394638061523e-01
-4.317086413962705760e-01,-4.263461714894816734e-01,4.243051794724029824e-01,1.660516229714557868e-02,-6.697108158413479784e-02,3.802590098170333111e-02,8.641866445541381836e-01
-4.418933698925101572e-01,-4.380467287869139748e-01,5.496258457289863175e-01,-3.870537221277220354e-03,-4.022065237791036443e-04,-3.593746873577561077e-03,9.896440505981445312e-01
-4.334115550905037750e-01,-4.364210604495519785e-01,5.469819015285474206e-01,1.204889827888728495e-03,-4.053882110691938226e-03,2.893419382235763379e-03,9.819417595863342285e-01
-4.456426387760178964e-01,-4.415330892314417999e-01,5.502153312901502114e-01,-2.401892595538012657e-03,-2.374603362625532770e-04,-1.532305691864206416e-03,9.938219189643859863e-01
-4.365363549197891491e-01,-4.359789762945929237e-01,5.141963672150806630e-01,-5.349512804796356137e-03,7.019640077220942048e-03,-4.886611521393777018e-03,9.506147503852844238e-01
-4.514816252539273211e-01,-4.271617558326100128e-01,5.386716505299586899e-01,3.038302236706755862e-03,1.725290176963453423e-03,-8.251128962259910576e-03,9.783431887626647949e-01
-4.391009063810052959e-01,-4.419643595743779629e-01,5.307021231774482484e-01,6.764783235859932187e-03,-3.679205719981645979e-03,3.396032123418237653e-03,9.713473320007324219e-01
-4.428892048768038880e-01,-4.356789271634827210e-01,5.205255664091540391e-01,-7.694131237175433694e-03,6.756828656482040049e-03,2.159734756365606391e-03,9.600011110305786133e-01
-4.450376897144499022e-01,-4.366122546157809592e-01,5.319713456430815723e-01,-4.384582228813481766e-03,6.514845457217153038e-03,3.521774170045701563e-03,9.729378819465637207e-01
-4.379309713455373232e-01,-4.419885658974191944e-01,5.352635778670793432e-01,-3.889870182996598477e-03,4.333899373074118905e-03,2.265022723313828319e-03,9.752897024154663086e-01
-4.278981529319184074e-01,-4.402586345494851616e-01,5.104015083365039951e-01,7.042960135731093051e-04,5.209871695872969090e-03,1.116662405214871763e-02,9.447824358940124512e-01
-4.890879130633429828e-01,-2.267101338445703940e-01,6.216990122599661550e-01,-2.079368211215933682e-01,-1.384403872657790496e-02,1.579388790597371223e-02,1.068775177001953125e+00
-4.375182955423063680e-01,-4.477923115869298920e-01,5.342767302693595122e-01,-8.200028007261621690e-03,4.241792362444397717e-03,1.370019564948598764e-02,9.773914813995361328e-01
-4.405928234303644331e-01,-4.428972303592314530e-01,5.464168441766555917e-01,1.975644524820063634e-03,-3.223431421037404286e-03,7.828663930158886140e-04,9.881865382194519043e-01
-2.386828733652160417e-01,-5.731516334257378276e-01,3.778416246544485935e-01,-1.135263729171988450e-01,-4.634391613239292884e-02,-4.554908896211479208e-02,8.657436966896057129e-01
-4.325902240153334244e-01,-4.492779449805536784e-01,5.320703415570841033e-01,-1.007956543560582785e-03,2.083200483816607766e-03,-3.120924315256661669e-03,9.731349945068359375e-01
-4.366686859219062189e-01,-4.420921285805692325e-01,5.300773979950205161e-01,3.157136015856798136e-03,2.227540234372848028e-03,-3.365725407321170683e-03,9.695097804069519043e-01
-5.293362641848242678e-01,-5.143924072902832378e-01,2.811910653886725564e-01,-2.028624513018416620e-01,5.299085895918503701e-03,6.756465049052357008e-02,8.844795823097229004e-01
-4.397010598205591259e-01,-4.379977302258630800e-01,5.420658970528983156e-01,-3.464168322723525421e-04,4.912390414571246242e-03,-1.073924015267430261e-02,9.811298251152038574e-01
-4.249073286050008558e-01,-4.466330613670400074e-01,5.101280868966110438e-01,3.501405537048304234e-03,5.815772565038211184e-04,1.925280608049544442e-03,9.461112618446350098e-01
-4.396707751116724627e-01,-4.393006324867081980e-01,5.375421071230178649e-01,-2.263823493388154862e-03,-8.382269156481595828e-04,3.078751224734600951e-03,9.770513772964477539e-01
-3.956659121371825516e-01,-4.432778203331551037e-01,5.141320238320186142e-01,-8.606352289025055030e-03,2.712494177331594043e-03,4.297478993166758444e-03,9.346743226051330566e-01
-4.119295144801627395e-01,-4.491933072159312035e-01,5.385639810563106478e-01,-3.173343480178934285e-03,8.056053531595091383e-03,-2.668180064067786263e-03,9.697895050048828125e-01
-4.406831234335403247e-01,-4.385515287141683594e-01,5.417038260562567764e-01,-5.950287462600942429e-04,8.907520779329366600e-04,9.473051414850286196e-04,9.813260436058044434e-01
-4.395865160011124817e-01,-4.421284647930397993e-01,5.328280922126273911e-01,4.451618268239187007e-03,-9.579577717143426818e-03,2.474040450250695067e-03,9.738693833351135254e-01
-3.404084457878064907e-01,-4.832121189454749999e-01,5.399025974876781042e-01,-2.630622293778383386e-02,4.964551630350574028e-03,-1.215495169816405499e-02,9.610646963119506836e-01
-4.474616873198863920e-01,-4.325400571111051029e-01,5.239348951412091671e-01,4.661709137826034431e-03,1.785001278285422086e-03,-2.631407581887486215e-03,9.640719294548034668e-01
-4.186572009044401410e-01,-4.447871884070186965e-01,5.381520563552600889e-01,4.400243328280008942e-03,1.684420857075167449e-02,-3.158212220927000304e-03,9.706221222877502441e-01
-4.362254026059855794e-01,-3.784543163854799941e-01,3.901879707563868926e-01,-2.957555454045726270e-02,5.625926333192296513e-02,-1.390851040220649759e-01,8.418474793434143066e-01
-4.291163053043349773e-01,-4.466144802014563320e-01,5.116082464053565149e-01,8.805676283317233084e-04,-6.470363068480969836e-04,1.798578003807161513e-03,9.496015310287475586e-01
-4.422377884540385495e-01,-4.371477860415213801e-01,5.284126147259080586e-01,7.256398965017479830e-03,-2.733873199537069539e-03,4.680764046195946826e-03,9.682425260543823242e-01
-4.127152888635192141e-01,-4.418578113323776146e-01,5.363556820215198417e-01,-1.341590810618284229e-03,7.581689777229632179e-03,-3.848627450822543657e-03,9.640879631042480469e-01
-4.345156615741199713e-01,-4.245414021786063641e-01,4.805659677868119317e-01,9.250530925044103681e-03,-2.899889258482969082e-03,2.624975286531717501e-03,9.103017449378967285e-01
-4.442329110860403496e-01,-4.332839730530154698e-01,5.228492576112724333e-01,4.314142538229150461e-03,-9.301961246927963403e-03,-1.706776453420273676e-03,9.618229866027832031e-01
-4.436158055886346707e-01,-4.365729355016634283e-01,5.484590859808988750e-01,3.305048989504382178e-03,1.185848577151969426e-03,2.505278282386955505e-03,9.886004924774169922e-01
-4.318964379636035522e-01,-4.418167542389300206e-01,5.380411348521704218e-01,-5.497099419753390982e-04,-1.143946519084556267e-02,6.655441642870328807e-04,9.751380681991577148e-01
-4.443435090526570153e-01,-4.381571725435154940e-01,5.427832196585250513e-01,1.386117401071512018e-03,-1.244531440146085270e-03,9.971444579165401282e-04,9.840549230575561523e-01
-4.412004003939291596e-01,-4.309477404428780911e-01,5.065010034836135988e-01,-5.132279257747745897e-03,-2.975369286292637878e-03,-3.414265552882157252e-03,9.426914453506469727e-01
-4.412505161566117051e-01,-4.264434389309563200e-01,4.921466678957396867e-01,-2.995366054705388397e-03,-3.233201714107684227e-03,-1.583541843384731352e-03,9.261179566383361816e-01
-4.377363488110060930e-01,-4.478537425842253339e-01,5.557675228421560254e-01,-7.340103178553816646e-04,-4.436573737076610763e-03,-2.406582642251099951e-03,9.986400604248046875e-01
-4.374240409885750136e-01,-4.395933043422841635e-01,5.456731683795891241e-01,1.244319207577673282e-04,-4.964376443340599854e-03,-3.991250271924491611e-03,9.842454791069030762e-01
-4.358548152263858055e-01,-4.362272656726322584e-01,5.001474230742951610e-01,7.769075484927850765e-03,-7.456799996946716219e-03,1.591791492221095866e-02,9.367800951004028320e-01
-3.703870508686090690e-01,-4.156972269574608081e-01,5.271925281347118464e-01,-9.036777532825550352e-03,-1.379893520384085090e-03,-7.191106090482250659e-04,9.212078452110290527e-01
-3.916592661120122942e-01,-3.855151874406557710e-01,3.176532194314933832e-01,3.265408976514435312e-03,4.094348006280056074e-02,1.917937815062029788e-03,7.098422646522521973e-01
-4.332266106415090245e-01,-4.350331602826992272e-01,4.559375589301037923e-01,4.982650166133559093e-03,5.671691508972787066e-02,2.749126567996677817e-02,8.967801928520202637e-01
-4.204006248563915138e-01,-4.110678985475240688e-01,4.127117890022711233e-01,-5.389997976765647202e-03,3.846271503235216410e-02,1.551799408444799744e-02,8.316465020179748535e-01
-4.311133809977449882e-01,-4.373729056283766070e-01,5.446925312010182374e-01,-1.476113867928685337e-03,3.927529782140240511e-03,-2.041902845509255011e-03,9.789840579032897949e-01
-4.127039524181848051e-01,-3.747312380045070834e-01,5.268719888298293297e-01,-1.044764270696675601e-02,6.449924659137032390e-03,-4.842505783039156939e-05,9.214222431182861328e-01
-4.094702478781166444e-01,-3.925197938456431723e-01,3.439418496568964478e-01,-6.006609806504546788e-05,2.032805945606592016e-02,-3.910143870153877377e-03,7.459437251091003418e-01
-4.376186167654535497e-01,-4.483746921374073824e-01,5.336595665826373569e-01,-2.417007341302646831e-03,3.537551398376661410e-03,5.480430346835427242e-03,9.767749309539794922e-01
-3.877355319889017604e-01,-3.990730176042392996e-01,3.344146216158573326e-01,1.680344450581995391e-03,-2.095686908730301327e-03,2.324355546749648505e-02,7.290124893188476562e-01
-4.410567780002607186e-01,-4.412951207099315987e-01,5.439307719911986583e-01,-3.126181715410810032e-03,-1.600256259562485642e-03,-1.465645416617624959e-03,9.851288199424743652e-01
-4.349150509414761445e-01,-4.217733341245560319e-01,4.328960194426759722e-01,3.769413129724529399e-03,5.205974714239097745e-02,-2.761857725438853634e-02,8.673672080039978027e-01
-4.282277001725137699e-01,-4.457867175989843056e-01,5.134830332398615527e-01,1.198333588795152602e-03,1.892647151524480802e-03,-6.518305937898342603e-03,9.506868124008178711e-01
-4.363150688346152939e-01,-4.370538216296777634e-01,4.557466169095815145e-01,-5.765374089169547807e-03,2.873426227802023530e-02,1.487885723647692018e-02,8.942452073097229004e-01
-4.302914880959353150e-01,-4.233001013482394215e-01,4.911489994929700842e-01,-2.921247152881095363e-02,-6.636036854331384821e-03,7.644807848904724978e-02,9.289157390594482422e-01
-4.435954952201481283e-01,-4.433371265688477725e-01,5.455468225377377856e-01,-5.954650268454222961e-03,-8.537541165762236890e-04,-8.401398741464385575e-04,9.890691041946411133e-01
-1.802083589058727231e-01,-5.836809729817552528e-01,7.737977062081466961e-01,1.100169461041560215e-01,-3.261487406985617149e-02,8.633954826517395431e-03,1.223747968673706055e+00
-4.403762196240775806e-01,-4.360638290989637400e-01,5.516016920786673827e-01,-6.211060812990158719e-04,-2.259414464797397572e-03,2.017787553613620711e-03,9.898432493209838867e-01
-4.422116961079855524e-01,-4.404115944090642443e-01,5.465984512795474259e-01,-2.187936699444518931e-03,-1.532820549985038040e-03,-3.475875621303739157e-03,9.879404902458190918e-01
-4.376916517648131721e-01,-4.469139595602875659e-01,5.401909712123232898e-01,-2.832421647977710448e-03,1.793636324931667113e-04,1.817395838903659074e-03,9.825435876846313477e-01
-4.223033886078966237e-01,-4.282501268570930164e-01,4.592826746335243460e-01,-6.525302523393631572e-03,-3.217513793458445619e-03,-5.830907482600548690e-03,8.847218155860900879e-01
-5.175072153494658656e-02,-6.092340020078493845e-01,5.942833094348736189e-01,-8.731424378280868218e-03,-3.000322545644114325e-02,-1.027044767534781959e-02,1.044771075248718262e+00
-3.458674777321164573e-01,-4.891052310331590047e-01,5.524286805256759525e-01,-2.229210308329417772e-02,-1.483350860985964068e-02,-8.528878735805734204e-03,9.790260791778564453e-01
-4.811780452220694726e-01,-3.792625397998873327e-01,5.472018380201739696e-01,-5.457331963041864298e-03,-6.374882760666554168e-03,-1.528918243284615314e-02,9.818638563156127930e-01
-4.783588629067213049e-01,-3.637799412873046201e-01,5.487957864560507604e-01,3.608845749396457497e-03,5.771153775666440153e-03,7.028659998671558246e-03,9.750753641128540039e-01
-4.371824299621914767e-01,-4.349715967404881312e-01,5.076909794696200517e-01,8.627024368786827963e-03,-4.804801668263538293e-03,4.938399208355130458e-03,9.439636468887329102e-01
-3.502534049109927716e-01,-4.856886033686114712e-01,5.433766350594866346e-01,-1.131880849832391824e-02,1.519333683241590877e-02,-8.484372772817706104e-03,9.691435098648071289e-01
-4.363904174209466968e-01,-4.367586220938610153e-01,5.080425994002125689e-01,8.006323463190339468e-03,-4.787531482844643860e-03,4.891623838853135717e-03,9.447933435440063477e-01
-3.930127175054745625e-01,-4.672382933063447541e-01,5.414040342280223017e-01,9.810652097864940707e-05,3.990122068166086083e-03,-7.270272136000153346e-03,9.737597703933715820e-01
-3.815247878604342557e-01,-4.496672613205094926e-01,5.515850143926539495e-01,-1.555400104891628728e-02,-1.971893829899304743e-02,9.544721683070368431e-03,9.700965285301208496e-01
-4.425030853158899435e-01,-4.383398359334230721e-01,5.373686438764113671e-01,2.004748817369473093e-03,5.189403637960614442e-03,-2.215357313086064445e-05,9.778442382812500000e-01
-4.374692207466231997e-01,-4.456165238902082271e-01,5.389454463433700493e-01,2.748895755570072551e-03,1.721088480915774609e-03,-3.164167453693638062e-03,9.805451035499572754e-01
-4.335536769664625756e-01,-4.460468812098115632e-01,5.275877527174924753e-01,2.161978865506997995e-04,-9.424409049113373002e-03,-1.262839713794213642e-02,9.678335189819335938e-01
-3.403342676737886041e-01,-4.839390099405333490e-01,5.404771390851377255e-01,-1.809440008149265384e-03,1.928452975573070188e-02,-5.237445383464870395e-03,9.613259434700012207e-01
-3.575173275156478536e-01,-4.388598437924076667e-01,3.947190332475907226e-01,-4.419117192561967944e-02,6.084680910986454971e-02,-3.071819531256287511e-02,8.083695769309997559e-01
-2.912701013707526543e-01,-4.962146424502108522e-01,5.422351476960831640e-01,-1.119354237953167595e-02,1.900922870913021590e-02,-9.440861070565242930e-03,9.535632729530334473e-01
-2.813592127350739713e-01,-5.079510258886540397e-01,5.447063230014276280e-01,-1.043842617571936419e-03,1.600735409625957811e-02,-2.977342513837039116e-04,9.600417017936706543e-01
-4.214615737402375162e-01,-5.422030638273480641e-01,7.525124565549075051e-01,3.272478652692875079e-01,-1.075189046485739430e-01,-1.011313677297357716e-01,1.386065602302551270e+00
-3.924907956527523556e-01,-3.989321994560395268e-01,5.232419848420916120e-01,-1.676921340202821437e-02,2.192403579452494554e-03,-2.864636188458527261e-03,9.194505214691162109e-01
-2.873001853905258751e-01,-5.082015745707590959e-01,5.521288525926928425e-01,7.061312456098646842e-03,1.840986352400181963e-02,7.401715529478831990e-03,9.696392416954040527e-01
-2.604767013604072368e-01,-5.105366504784363268e-01,5.359177965132553290e-01,-9.455415907178237045e-03,6.996486509567405310e-03,2.363561436497048276e-03,9.467588663101196289e-01
-4.133862385471141487e-01,-3.842987998382282888e-01,5.292647844224701581e-01,-3.712877347301721948e-02,2.948689184619242959e-04,-3.745616665361391207e-03,9.306963682174682617e-01
-4.356963113711837532e-01,-4.450397347448764029e-01,5.246255832881213665e-01,6.104589918235355482e-03,4.906721720945737310e-03,2.370065436731023500e-03,9.651315808296203613e-01
-3.845036922435278171e-01,-4.015417951820148268e-01,5.250641323501320512e-01,-9.281023010849411004e-03,4.530350262767795415e-04,1.596738607964045750e-03,9.183506369590759277e-01
-4.164883599935602088e-01,-4.507855713877141901e-01,3.985481056711711600e-01,-3.128690223117095576e-02,-9.274322264381605618e-02,4.726594421602666601e-02,8.537312150001525879e-01
-4.170623387603762389e-01,-4.189788448870229165e-01,4.303952031999129790e-01,6.925584193757003751e-03,-3.372236894172428619e-03,2.696550133918880141e-03,8.485351800918579102e-01
-3.495432740572136376e-01,-3.614635740623331484e-01,5.354861906622948586e-01,-1.388149655297049589e-01,1.118620688432626041e-02,-1.085330490393646326e-02,9.233128428459167480e-01
-4.225400387275995984e-01,-4.415160932125833937e-01,4.721024168584456726e-01,1.360567272394885840e-02,2.839308445393002450e-02,-2.969978226168576430e-02,9.073820114135742188e-01
-4.347548918044591981e-01,-3.131671019847115378e-01,5.507646495095382955e-01,-1.249974794812946655e-01,-2.150396666166428175e-03,-2.143397725440551391e-02,9.562794566154479980e-01
-3.966108278648345919e-01,-3.915901611350289246e-01,5.270262622058792257e-01,-1.364736666210477484e-02,-2.195503898750267909e-03,-8.578820554472426328e-04,9.214493036270141602e-01
-4.418251898059796234e-01,-4.379157413424375478e-01,5.312404262548379164e-01,-6.189477766874862744e-03,2.694236334121270608e-03,3.042371697479688466e-03,9.712014794349670410e-01
-4.156684347960877268e-01,-3.784934910419982534e-01,5.251939740585123140e-01,-1.263694953072891022e-02,1.262518333275014851e-02,-4.145354395575417440e-03,9.233831167221069336e-01
-4.132829772884538677e-01,-4.030941597337718840e-01,3.830749575739234025e-01,-4.610496194234405855e-03,-3.962064346272871872e-03,-2.035672454616931429e-03,7.913905978202819824e-01
-3.916177690755108243e-01,-4.016202075240350444e-01,5.272664006143320536e-01,-1.630634006223930996e-02,-2.476255948313390610e-03,1.160814480502237204e-03,9.243696928024291992e-01
-4.358621904282703463e-01,-4.450772558710494597e-01,5.322551999411192503e-01,-5.854472163938837653e-03,1.815680802112189240e-03,8.587471649981729196e-03,9.729292988777160645e-01
-4.254532700310345028e-01,-4.279338927409334636e-01,4.475108709270406715e-01,1.684679976891293590e-02,2.644186440696996016e-02,-1.201521021237269855e-03,8.758946061134338379e-01
-4.221227735913852253e-01,-4.107716024019301138e-01,4.115929784588210349e-01,-4.889957855287910271e-03,1.486596886753783348e-02,8.372819117763613192e-03,8.286689519882202148e-01
-4.377148541096577694e-01,-4.446031812493179691e-01,5.459648013720889148e-01,-3.171003705637651972e-03,2.091042330211733812e-03,-1.364874793792729760e-03,9.871665835380554199e-01
-4.320243163554386423e-01,-4.466797717963837400e-01,5.206044981723799703e-01,-1.365493810940023207e-03,2.598605839792691042e-03,9.379364993817630031e-03,9.601913690567016602e-01
-4.377157502743576623e-01,-4.405951696818980468e-01,5.291177955344529282e-01,1.306185693199577672e-03,-2.589238547086859755e-04,-2.933354659537701793e-03,9.682925343513488770e-01
-1.362857454035353855e-01,-5.869819096693654759e-01,5.949786485110418743e-01,9.825276298555549181e-02,-8.565898809808715486e-02,-2.823213113148364400e-02,1.058686494827270508e+00
-4.349410289911715966e-01,-4.339368675820726717e-01,5.016530239252297019e-01,-7.527358343437079609e-03,-4.555425731183154053e-03,-4.555141404235215144e-03,9.362496733665466309e-01
-2.517324582699439484e-01,-5.299334731196038151e-01,6.095987388170078791e-01,7.636824400850283912e-02,8.772721326667561742e-03,9.089771713818511206e-03,1.037730932235717773e+00
-3.150260547455224214e-01,-4.846137280394273716e-01,2.706749742015474025e-01,-8.187745230100813842e-02,1.149322291268297935e-01,-1.310983004657758078e-01,7.631734013557434082e-01
-4.383229624757609133e-01,-4.422310590258132779e-01,5.328077148177218225e-01,-5.490768746552963583e-03,-3.301905802416583643e-03,-2.393903123260873473e-03,9.731627106666564941e-01
-4.381233940637189184e-01,-4.161650410063414962e-01,4.133264340863089803e-01,-4.415255261825632230e-03,-5.497873111655515732e-02,8.907102926963372802e-02,8.600465059280395508e-01
-2.493948271398019889e-01,-4.778041577608269086e-01,5.918293947309001268e-01,1.919347978305838420e-01,-8.583555571011275420e-02,-3.674177846778817202e-02,1.043380260467529297e+00
-2.516148705850441702e-01,-4.405112927232850972e-01,5.839144316762344689e-01,2.124425397556572725e-01,-1.022945644557529329e-02,-5.557489068734041554e-03,1.013618111610412598e+00
-2.854792986713104996e-01,-4.930434879431938588e-01,5.925005435483218230e-01,1.408891890300982830e-01,2.117803689741658626e-02,-1.652470145341625955e-03,1.028139948844909668e+00
-3.065638684864158692e-01,-4.539995554083446905e-01,5.288408972214533321e-01,-4.994301035627814883e-02,-1.322963112134543581e-02,1.902612826163842252e-02,9.229847192764282227e-01
-4.368497363103103770e-01,-4.469787442204217198e-01,5.299720705729401571e-01,-9.956682484844246684e-05,2.528308191281543500e-03,4.674575224776140667e-03,9.719694852828979492e-01
-2.196941336434972136e-01,-5.151573945109191310e-01,5.418355571597824882e-01,-8.333212512745961920e-02,-2.918294518982815153e-03,2.310209512245757664e-03,9.555649161338806152e-01
-2.564547781879827903e-01,-4.893719472045070518e-01,5.258959227385351376e-01,-3.204203748164727306e-02,-1.507125693961719253e-04,6.208466689848072921e-03,9.228985309600830078e-01
-2.984645814651321616e-01,-4.840321152261017890e-01,5.372971473589861491e-01,-1.148452218185262719e-02,-1.561470256251988944e-02,5.558802499699288732e-03,9.429968595504760742e-01
-4.387680763562160080e-01,-4.368779695924228101e-01,5.295373130873870515e-01,1.239142488440844996e-03,-1.064343950708434826e-05,-3.217131701672764298e-04,9.673642516136169434e-01
-3.564225728388088488e-01,-4.463651487658311101e-01,5.403817201844144380e-01,-1.257159684903209028e-02,-2.640704605544830219e-02,8.353863726603514769e-03,9.464586377143859863e-01
-3.096777157805724046e-01,-4.249964750556414761e-01,5.176714510597429930e-01,-6.128768609583060828e-02,3.332576177361218882e-03,-5.214107749599596314e-04,8.969485163688659668e-01
-3.355300038351076153e-01,-4.796412756645161424e-01,5.512381142322959615e-01,-8.439358225530230878e-03,-6.498329679821862603e-03,9.862038807187556433e-03,9.672389626502990723e-01
-4.328057967573762377e-01,-4.394043853658306520e-01,5.089352356500855823e-01,-7.988033845686238338e-03,1.112298084167485761e-02,2.493338427106839283e-02,9.463410973548889160e-01
-6.152892833647161108e-01,-4.319919932211237490e-01,3.340268327465271136e-01,-1.089242884877248546e-01,4.495977090553481686e-02,4.932139894501488819e-02,8.998596072196960449e-01
-4.399343455641587242e-01,-4.427925606759192667e-01,5.473887156060294190e-01,-2.969600280998519783e-03,1.257360242395146011e-04,1.580242926201313926e-03,9.887724518775939941e-01
-4.140387191846112702e-01,-4.345058841149898599e-01,5.453585133297969012e-01,-3.822367020478494460e-03,-6.055767183562935779e-03,-3.775989428338661844e-03,9.698941707611083984e-01
-4.261164737603033159e-01,-4.264775539952674888e-01,5.455669090417557543e-01,6.822519938932661634e-03,4.853181865811598446e-03,1.423738732691963221e-03,9.719752669334411621e-01
-4.404978619847109145e-01,-4.372773394101485689e-01,5.494637759432174917e-01,-1.218139594717164865e-03,4.221334327501683956e-03,-3.130151913133485779e-03,9.883995056152343750e-01
-4.188865626516726226e-01,-4.337179908814557394e-01,5.411245986044797007e-01,-5.950648769260369168e-03,3.350020475076661598e-03,3.948749308292552824e-04,9.675846695899963379e-01
-4.597696919035734187e-01,-4.004183554791306832e-01,5.448182811590793762e-01,1.664893649992482769e-03,1.307796460780740778e-03,-1.284033863086694524e-02,9.765264987945556641e-01
-4.252008800705018854e-01,-4.369247602197133262e-01,5.468041133642489449e-01,-3.601117767291809116e-03,4.513147126636041402e-03,-5.264385485093533816e-03,9.780132770538330078e-01
-4.224335412471589835e-01,-4.057253795958607467e-01,5.354986912634293050e-01,-5.307341541210630273e-03,7.259338936132338910e-03,-5.441415129119145724e-03,9.498628377914428711e-01
-4.223721064931166835e-01,-4.328146563339512198e-01,4.675297819450772163e-01,6.215784926344203841e-03,-2.203613645799043681e-03,3.892410057343117027e-03,8.952671289443969727e-01
-4.286365527184394231e-01,-3.724665344681096779e-01,2.907802508330994407e-01,-1.616518777113089278e-02,-7.325373113165232000e-03,-5.412968049678545945e-02,7.000292539596557617e-01
-4.339016614004018724e-01,-4.314448483678083868e-01,5.406331366968688545e-01,-4.497115705450256684e-03,9.166951983657501812e-04,2.162859880206833684e-03,9.733483791351318359e-01
-4.837421457927204571e-01,-2.464269709879643999e-01,2.020630426525514278e-01,7.144044681708221212e-02,3.017833504276312695e-02,-7.792276671679677913e-02,6.325777173042297363e-01
-4.346953882849565742e-01,-4.372411729864862373e-01,5.089253828237556565e-01,-8.085066025732464898e-03,-9.953765102433023704e-03,-9.530317004022237359e-03,9.453014135360717773e-01
-4.307572390758157566e-01,-4.450518296879650282e-01,5.155369356352472732e-01,-6.045891998102564426e-03,2.321209286438135656e-03,8.254440670282530042e-04,9.535889029502868652e-01
-3.955479262361876747e-01,-4.295106175697674944e-01,5.445840025819242980e-01,-1.530901901601479896e-02,9.417364152643990446e-03,-6.963252985451778843e-03,9.581469297409057617e-01
-1.573580927681783592e-01,-8.005862139753491258e-01,7.210119301350108589e-01,3.219511434397827332e-02,1.184349912601547761e-01,9.226903500226259561e-03,1.340042591094970703e+00
-4.878443796399507537e-01,-4.125991094354682365e-01,5.283285264346846422e-01,5.796934005518364352e-02,-2.530948573774211702e-02,-1.530173085000200925e-02,9.871739745140075684e-01
-5.182602885326441644e-01,-2.229840845027926954e-01,5.105231921531060424e-01,1.310682859462269922e-01,2.369249512340367361e-02,2.206305529185201286e-02,9.468311667442321777e-01
-4.387588342407783837e-01,-4.376118809764540929e-01,5.274780056468794109e-01,4.113436056006064957e-04,-2.577764558411260558e-03,-1.227992448830777031e-03,9.656767845153808594e-01
-3.200707064697515536e-01,-4.932852810603736704e-01,5.435520716170429978e-01,-4.361926429365916430e-03,1.133213211198696828e-02,2.945029691975389365e-03,9.622411131858825684e-01
-5.102581675980917275e-01,-3.184042391709076547e-01,5.568296746496416150e-01,-4.092728067312467136e-06,-2.371916405678156994e-02,3.731333179662855992e-02,9.882429242134094238e-01
-5.374406446755881639e-01,-3.719097915458188797e-01,6.035940121780358769e-01,8.263653814299524655e-03,1.697781573379853956e-02,-4.672996555128614699e-02,1.071496486663818359e+00
-5.038307221206612674e-01,-4.248834196880410530e-01,4.817002414624976803e-01,2.552693588183681944e-02,-2.704160405139208190e-02,-6.136658970399960777e-02,9.566321969032287598e-01
-4.445124700580224686e-01,-4.356547974597636541e-01,5.252559963262576348e-01,-6.197811965531386733e-03,-2.961296770536195593e-03,2.652045429627167619e-03,9.654543399810791016e-01
-4.360652748561150704e-01,-4.370483814019921476e-01,5.163855058745155935e-01,-4.963078167235465167e-03,-4.757759896100931599e-03,6.256547554180320880e-03,9.530787467956542969e-01
-4.358466028194460384e-01,-4.351277381456213345e-01,4.936051590577933412e-01,-1.010116312405538036e-02,9.627206677181315495e-03,-4.829134551644864888e-03,9.294444918632507324e-01
-4.315456115017283212e-01,-4.267397633934213452e-01,4.642937195295099295e-01,-7.807342697175935139e-03,1.702883766010862207e-02,1.949192293366885584e-02,8.946723341941833496e-01
-4.191628560285679539e-01,-4.263286883438350827e-01,4.395955731609058059e-01,-1.476438232333871989e-02,-1.764232528052709151e-02,1.681312224538291863e-02,8.637747764587402344e-01
-4.467600060589676514e-01,-4.198045071883414470e-01,4.572360138260610496e-01,-8.070016993441260847e-03,-3.488502357062873288e-02,-1.043002629142844584e-02,8.931631445884704590e-01
-4.264725775881716974e-01,-4.223806145447968619e-01,4.448174232879014145e-01,6.215226131861534276e-02,-2.960974393234735991e-02,4.932258335620984258e-03,8.774335384368896484e-01
-4.203907326411375767e-01,-4.208906129967698306e-01,4.413335813082599479e-01,-9.898545839152552914e-03,-4.232870626667516178e-03,-3.957816599973272738e-03,8.622032999992370605e-01
-4.409467947661560028e-01,-4.363925553778110755e-01,5.417779173393042491e-01,-2.424621100098214507e-03,-1.004083536826897056e-02,3.222105169256999323e-03,9.806346297264099121e-01
-4.301127280109181550e-01,-4.161998472723937303e-01,4.389429708218083315e-01,-5.065698997980241404e-03,2.759269370206911091e-03,8.168608830292883437e-04,8.622425198554992676e-01
-4.213150216607666199e-01,-4.156157384079519068e-01,4.397998094378553491e-01,-7.094773735088833085e-03,-4.119293174665103127e-03,-5.995829356428517172e-03,8.584598302841186523e-01
-3.252398932782694652e-01,-4.674129950653643784e-01,5.195948862067374385e-01,4.800418844966137383e-02,-2.583325056720872648e-02,-1.570908593905452968e-02,9.293693304061889648e-01
-4.221072360187468342e-01,-4.347976331788515614e-01,4.697533344000487388e-01,9.161198336655646673e-03,4.301021106581709962e-03,-4.965685138634459012e-03,8.984851837158203125e-01
-4.323965931673000584e-01,-4.501882199489919412e-01,5.322839734188443694e-01,-1.402832426134712060e-03,-2.561178277038146222e-03,2.987393022069050768e-04,9.737115502357482910e-01
-4.304083691298628001e-01,-4.444572029653091061e-01,5.137688382117840957e-01,-4.252300429361557249e-03,-2.926640606238015401e-03,-2.341306308033587382e-03,9.513300657272338867e-01
-4.451582137743721468e-01,-4.266215201956423120e-01,5.087401399291907600e-01,-1.722284496068006692e-03,1.068920966390279762e-04,1.136037736615527240e-02,9.449760317802429199e-01
-4.384745771562785777e-01,-4.256769166097574275e-01,4.862558513758020728e-01,-7.124214031722659463e-03,1.430790798239198539e-02,-1.140714755305375023e-03,9.188177585601806641e-01
-4.365176887597757016e-01,-4.395088858526514097e-01,5.274085801932667517e-01,3.002142643471732240e-03,4.727931628731556722e-03,-4.409861264567481801e-03,9.655042886734008789e-01
-4.605343321416031643e-01,-3.753529338476919164e-01,5.100748884342084510e-01,5.623623800308392810e-03,6.788179175467516473e-04,4.875275055816611410e-04,9.309979677200317383e-01
-4.392937311523767985e-01,-4.371131240266641904e-01,5.492868215298928325e-01,-2.825487362320959050e-03,-1.997756305837816281e-03,4.970899493244959610e-03,9.875477552413940430e-01
-4.449746080423759853e-01,-4.267088837269698010e-01,5.181284449113755519e-01,5.138579621147029534e-04,2.503226262491750620e-02,2.266900811585288375e-02,9.558930993080139160e-01
-4.409763528641577057e-01,-4.388087223277314375e-01,5.250461819927865204e-01,-7.403254930981728946e-03,6.883676696881136162e-03,1.831446378002472841e-02,9.656205773353576660e-01
-4.203473239357630731e-01,-4.408535486461085950e-01,4.759271132547127081e-01,-2.984759524525872846e-03,8.602284865458569799e-04,-2.760030109626775835e-02,9.079768061637878418e-01
-4.486338017195674044e-01,-4.166280999120269279e-01,5.408798710818215616e-01,2.452038710517187321e-03,-6.624740873766977664e-03,-1.149761163453044167e-02,9.741857647895812988e-01
-4.230960217315379301e-01,-4.452348031017520080e-01,4.967765624296228699e-01,-2.114475134915444043e-03,1.206149518685980561e-03,6.107721881194463735e-03,9.312090277671813965e-01
-2.495072790316827382e-01,-5.150249751356946737e-01,5.704789975257299472e-01,-6.820697163927319506e-02,1.789556160351981479e-02,-1.565931278808327387e-02,9.880541563034057617e-01
-4.334240509348671888e-01,-4.440051004552373337e-01,5.168014725640245333e-01,3.109055828609036745e-03,3.718524747459715611e-03,-9.590683922465181518e-03,9.557412266731262207e-01
-4.550905404782671915e-01,-2.829122123600300576e-01,3.630695353612847232e-01,1.376295730898791925e-01,-6.930117201889407497e-03,7.670672081326371239e-02,7.954768538475036621e-01
-4.620993437468467468e-01,-4.057125703702628705e-01,5.286410496796979386e-01,6.992053922677484573e-03,5.097424018577854238e-03,-3.326035107290402013e-03,9.639186263084411621e-01
-4.400860595340377324e-01,-4.419484972732203865e-01,5.312759189935463144e-01,2.780503474049156321e-02,1.448000962129602619e-03,-9.715120239309585001e-03,9.736351966857910156e-01
-4.352371583435819535e-01,-4.311433752695928989e-01,4.952261452987261059e-01,-9.513153826422548337e-03,1.609389183254448727e-02,-5.182202426565491599e-04,9.289881587028503418e-01
-4.261791140996245564e-01,-4.428601483710524755e-01,4.970264041906276020e-01,-2.561845539864151741e-03,1.484263577396579105e-03,5.907345626101451544e-03,9.317283630371093750e-01
-4.073185063570839426e-01,-4.854158054296092151e-01,5.058112465120353507e-01,6.903297405054779901e-02,1.887895853253619693e-02,-2.680314849910615110e-02,9.637112021446228027e-01
-3.682402077274479768e-01,-4.281530309921892097e-01,5.276244870365981443e-01,2.085739557878604072e-02,-1.892554382092102166e-03,-1.543434491325687899e-02,9.283681511878967285e-01
-4.159319708599077958e-01,-4.296678903986536624e-01,4.400009868171053107e-01,2.360561306680717883e-03,-4.992982410292713192e-04,4.879942711291223797e-03,8.629344105720520020e-01
-3.709478903280070683e-01,-4.067902644310256166e-01,5.215302957712069087e-01,1.973886310800834071e-02,-1.148716812236161506e-04,-1.536419486687378788e-03,9.115736484527587891e-01
-3.774903325283740507e-01,-3.875595899615605910e-01,2.910335612092185276e-01,8.850954288135644320e-04,8.496151539397864987e-05,-2.236589181138609844e-04,6.736168265342712402e-01
-4.095482743986047502e-01,-3.980613768925706508e-01,5.332742381574830937e-01,1.165429748587955630e-02,-4.710918513162677852e-03,-1.496485618698631262e-03,9.373883605003356934e-01
-4.394291232548631077e-01,-4.278335534332058931e-01,4.938774668853909144e-01,-6.747154150757963403e-03,1.360031804839102743e-02,-2.809685390523999557e-03,9.279485940933227539e-01
-4.148679898136690136e-01,-5.040429472429795998e-01,4.889492352485926840e-01,2.218981655226242265e-03,-8.024621978315472914e-02,4.466816369005734144e-03,9.616801142692565918e-01
-4.043993597660663353e-01,-4.127878065079620407e-01,3.846008147666494237e-01,7.529513276666801062e-04,-1.514543774612886994e-03,2.403042237472375730e-03,7.932440042495727539e-01
-4.098930880882916128e-01,-4.085207635096255174e-01,5.330640446691542467e-01,8.245881755317532522e-03,-7.852314407070121747e-05,-3.593148684438379238e-03,9.424005150794982910e-01
-4.390188934904076801e-01,-4.381044205776933875e-01,5.350447197678488420e-01,-1.354016597694119228e-03,2.083199605420749112e-03,4.420846759931045152e-03,9.736463427543640137e-01
-4.185441854737366185e-01,-4.226833111093160067e-01,5.418597444237162053e-01,1.302663824897640731e-02,2.997994393207282192e-03,-2.937702357705135412e-03,9.627720713615417480e-01
-4.144296077059336780e-01,-4.315144432012582021e-01,4.395421503005986219e-01,-5.705928494433185234e-03,-2.558867001049161018e-03,-4.170886067142317265e-03,8.627393245697021484e-01
-6.408295961936126828e-01,-3.411027767337357908e-01,5.153511403492763154e-01,-1.834411826943112556e-01,-5.741575507424975799e-03,7.656540614216585106e-02,1.094846725463867188e+00
-4.454383883705124170e-01,-4.320527408181345508e-01,5.111063813835455827e-01,-2.451761087003912973e-04,-2.862985522213483403e-02,-6.557006365415786811e-03,9.512839913368225098e-01
-3.821789179200019704e-01,-4.190230971020641459e-01,5.287311924850310874e-01,5.543114218893967216e-03,-5.896871451440898262e-03,-7.648554116276257836e-03,9.300798177719116211e-01
-2.452312785992073474e-01,-5.061560913799221240e-01,5.515740187012124762e-01,7.104962638509736139e-02,-4.255811448846344609e-03,-1.466400662942755548e-02,9.626682996749877930e-01
-1.481262352901354662e-01,-6.931090104600207136e-01,7.291951168605996791e-01,2.324307024617965900e-01,-9.291750862800607358e-02,8.350992702547532787e-02,1.324280500411987305e+00
-2.398562604260793263e-01,-5.534868454207024779e-01,6.000188284487391055e-01,7.966272147281854010e-02,-3.698497749022806175e-02,-4.700405938227480984e-02,1.047346711158752441e+00
-3.475583527461542643e-01,-4.824806645795294280e-01,5.441562673188226062e-01,-1.553308139659556695e-03,2.399842530915726607e-02,4.277848776698683561e-03,9.671924114227294922e-01
-3.482520834278188815e-01,-4.321946855505266472e-01,1.213429260451652225e-01,-8.497896740694454998e-02,-4.912939018475707270e-02,-1.002578770511473732e-01,5.710036158561706543e-01
-1.387028676707548480e-01,-6.252042120062946129e-01,6.635904863130214215e-01,1.837678545588551093e-01,2.874271568878311589e-02,-4.083011573948785305e-03,1.172397255897521973e+00
-4.703113246756526200e-01,-3.970530540964888888e-01,5.035709156805917575e-01,-1.491965989198143147e-02,-3.413232542917286894e-02,5.574182664609059201e-02,9.465478062629699707e-01
-4.393036171639576604e-01,-4.381692007285727386e-01,5.331753113133983479e-01,6.388630177387753318e-04,3.748940652079339395e-03,2.925016784490560087e-03,9.719477295875549316e-01
-1.711666287638899386e-01,-5.980126488254358108e-01,6.488449748225056934e-01,1.707762793332099627e-01,5.096621108231486064e-02,7.414000246001681282e-02,1.147349834442138672e+00
-5.509954581964570108e-01,-1.693792040291093870e-01,3.533260008521086348e-01,7.664758448747063801e-02,4.985622453702613990e-03,6.911780489847532682e-02,8.064461946487426758e-01
-4.579179333339363223e-01,-2.694899821503378146e-01,4.088660328443476377e-01,1.657215401042484437e-01,6.232670194692026266e-02,1.209080081094005832e-01,8.725790381431579590e-01
-3.908998050741344654e-01,-4.054458252964348031e-01,3.566324829348423986e-01,-1.680828893541540551e-03,-2.612613646266835469e-04,-1.730254570756506374e-03,7.549220919609069824e-01
-4.463956485363885784e-01,-4.376419400691149431e-01,5.191111723652139798e-01,-1.528188832073709615e-03,1.319847236925405717e-02,-1.137417932331149075e-03,9.614373445510864258e-01
-4.471527936919405533e-01,-4.397910024517732164e-01,5.338061608859629992e-01,3.475520443025892348e-05,5.479745495144877632e-03,-1.384542559942256515e-03,9.773479104042053223e-01
-4.304164450609008763e-01,-4.502272246456734961e-01,5.242904258627761882e-01,-1.204769451728123750e-04,-7.082509784146668892e-04,-1.499709817424299801e-03,9.647691249847412109e-01
-4.376486484984680181e-01,-4.455864039492781759e-01,5.387349058433406057e-01,1.011420161488616170e-03,-1.786587300103452576e-03,1.496286320527845035e-03,9.803864359855651855e-01
-4.226591738516322083e-01,-4.484596997561886567e-01,5.048339118889572097e-01,-8.305873787685962755e-04,-1.192629175345418912e-03,-2.548661690862864121e-03,9.406724572181701660e-01
-4.212663625710821869e-01,-4.249177746142378531e-01,4.391195783302989097e-01,-3.946558322130797047e-03,-1.701520464864386337e-02,-2.932538649760996034e-03,8.627629876136779785e-01
-4.468971692813196173e-01,-4.385755477851558393e-01,5.431624036590946281e-01,3.175762942666222801e-03,5.143523744833605055e-03,2.609311826814717395e-03,9.859910607337951660e-01
-4.322305310044594617e-01,-4.367992425619813268e-01,5.243090375634190670e-01,2.882165141730738483e-04,-1.305041396102667650e-03,4.260661087837090688e-03,9.588632583618164062e-01
-4.456439907546055346e-01,-4.344317261725422763e-01,5.314571577322653173e-01,1.111918162115937796e-03,5.305403152535854159e-04,2.191177851372279849e-03,9.715533256530761719e-01
-4.066250684272565974e-01,-4.552330149627190070e-01,5.338553095249600755e-01,2.632719482103364986e-03,-6.327608768808234280e-03,-1.836968483478064029e-03,9.657804965972900391e-01
-4.382823532129632160e-01,-4.234323000694527050e-01,5.054016449639378017e-01,-1.645624271004913867e-03,-3.150848027984586366e-03,-1.459627050335598683e-02,9.367087483406066895e-01
-4.287969501495881297e-01,-4.462055255838145995e-01,5.113435976324994803e-01,3.609925223499934645e-03,-1.502541660201426764e-03,2.028650597768488252e-03,9.489952921867370605e-01
-5.169054148506736501e-01,-3.140580113896148107e-01,3.515357554940843343e-01,4.763777653707437082e-02,-2.809926669205171229e-02,-9.674831903170023201e-03,7.928642034530639648e-01
-4.314344785705471197e-01,-4.409338718136471269e-01,5.042642160980347343e-01,1.792259742382201055e-04,-4.771632649264605230e-03,-1.836690797608317265e-03,9.405261278152465820e-01
-4.357236214857397871e-01,-4.481512298203584876e-01,5.391438387414505540e-01,-2.152373170385898059e-03,3.421190895613617292e-03,-6.149142880054695587e-03,9.812231063842773438e-01
-4.091537610271087644e-01,-4.525900833040081284e-01,5.222750699029103938e-01,-3.314474548024955169e-02,1.948371114594185660e-02,-1.651664505425453483e-02,9.566384553909301758e-01
-4.379053890087568623e-01,-4.383308894346507056e-01,5.261799568653434678e-01,-4.348195702245072868e-03,-6.805944118004798177e-03,-1.035989277332015693e-02,9.645665287971496582e-01
-4.403981740018697577e-01,-4.465752735951545871e-01,4.932433361798352900e-01,-1.590736405223711070e-02,-1.562469547300856035e-02,-4.787366832166716629e-02,9.412008523941040039e-01
-4.327112425228670234e-01,-4.333345355106991703e-01,4.957690668391951938e-01,3.447631316296093096e-03,4.275650948292047948e-03,-1.308565760550201365e-02,9.291173219680786133e-01
-4.401198762464801351e-01,-4.411158330349485013e-01,5.371189831630533984e-01,2.349277045936902053e-04,5.470815825195703835e-04,-1.033978937865051313e-03,9.777393937110900879e-01
-3.849184032562593671e-01,-4.587537067020268089e-01,5.426186570258878517e-01,4.420036801244831351e-03,-1.449989489453455335e-02,-3.147616900323968805e-03,9.669439792633056641e-01
-4.167409913592250437e-01,-3.972681713852508900e-01,5.351560810039899252e-01,8.665564759860872740e-03,9.860548191154245440e-03,-7.198863081628640269e-04,9.425866603851318359e-01
-4.445086355127764732e-01,-4.081999064858065629e-01,5.326968763319249733e-01,1.615823200898440200e-05,-1.300819609329769300e-03,1.051438281639242162e-02,9.597419500350952148e-01
-3.890866185403905053e-01,-3.846634241941748744e-01,3.057256358797656448e-01,-4.552161957845256117e-03,2.218179393454303670e-03,2.462560743492737351e-03,6.926799416542053223e-01
-4.412092096610981673e-01,-4.378685394778272233e-01,5.411191568143834951e-01,4.191886087598120083e-04,1.882458539674778655e-04,-7.065315902833093839e-03,9.807389974594116211e-01
-4.388599407821817122e-01,-4.314789992752420256e-01,5.281285309319670995e-01,6.965187982638190343e-05,-9.696319569012508237e-04,-2.422013905216631457e-03,9.633297920227050781e-01
-4.422505926268936460e-01,-4.154679358193900107e-01,5.381724010710009498e-01,-2.666496262458318070e-03,-7.319268630775548415e-03,5.878339200541697618e-03,9.674574732780456543e-01
-4.290691999457956762e-01,-4.164585586118584315e-01,5.420859470984702444e-01,7.232603463314958223e-03,-2.692823656899324871e-03,-1.532684435497392358e-03,9.650078415870666504e-01
-4.379715650466408094e-01,-4.360829446811793075e-01,5.102763520774720174e-01,-9.092430876450608573e-03,4.431191117089238601e-03,4.242112109276301689e-03,9.474955201148986816e-01
-2.777879653009969751e-01,-4.004499248195100281e-01,5.058711551209447155e-01,2.331858383690808834e-01,-2.169933956494675409e-02,-1.257592173263672591e-02,9.435606598854064941e-01
-4.344136494172998186e-01,-4.436533150207386811e-01,5.306015646669551833e-01,1.746582193892533318e-03,-5.158361456928301815e-03,8.871034291157155541e-03,9.698356389999389648e-01
-4.336967339543346678e-01,-4.426474191533036340e-01,5.177598597681097869e-01,4.295472546860811675e-03,-3.181499575640101517e-03,7.336915119287369322e-03,9.560926556587219238e-01
-4.424071875836119716e-01,-4.349771980354220635e-01,5.396292234898398821e-01,2.190825433351864353e-03,9.094250259534962435e-04,7.508988943408236374e-03,9.784376621246337891e-01
-3.890796809215676388e-01,-3.905840080179970863e-01,3.161720907364016231e-01,-8.102784800073214305e-04,1.603242504105896298e-03,6.347213645464191631e-03,7.060976028442382812e-01
-4.012230809235924900e-01,-4.884819353006691900e-01,4.242774503498079053e-01,2.400801958407183107e-02,-1.761330252835592233e-02,-7.516627087606246593e-02,8.835763931274414062e-01
-4.326693246610525678e-01,-4.462649622266728899e-01,5.187432230691225721e-01,2.532005976941623451e-03,-1.698479286557876087e-03,8.646263991199174340e-03,9.584142565727233887e-01
-3.313800662151638599e-01,-4.175144755657989593e-01,5.343006624311261721e-01,2.199380397265763565e-01,4.588588104346284086e-02,-4.754144995145697522e-02,9.947876334190368652e-01
-3.297890001224513257e-01,-3.508472720212890694e-01,-1.016764542441289665e-02,1.893636487055143022e-02,6.788349772093792145e-02,-5.516040721277494160e-03,3.525953590869903564e-01
-4.365414124605778712e-01,-4.399248080129645744e-01,5.259490422383307218e-01,-1.949794689458828219e-04,1.435107384291649637e-03,-1.108511614827056412e-03,9.641917943954467773e-01
-4.400664851976570091e-01,-4.388561119505281494e-01,5.483575639004062419e-01,-2.971785896641239997e-04,3.126868562793159827e-03,1.459359514307411463e-03,9.878376126289367676e-01
-4.945184877019810354e-01,-4.648055951504530547e-01,5.173186250181023293e-01,-2.507484008192853997e-01,-4.993528594025450906e-02,1.053146556101876297e-01,1.106350302696228027e+00
-4.340401091675044620e-01,-4.448647869059813575e-01,5.302550055082178027e-01,1.010616783915030750e-03,2.074185676430750046e-03,1.501074476560286487e-03,9.697644710540771484e-01
-4.282389201211930230e-01,-4.472467061659686771e-01,5.069374021998356294e-01,-5.751650133356857455e-05,1.596648597092344742e-03,-2.747971296263010312e-03,9.448396563529968262e-01
-4.446122496283962944e-01,-4.046447347877460410e-01,5.247867106685734084e-01,-7.003753718643122264e-05,-2.728520668963646100e-03,-6.356446236657133098e-03,9.501214623451232910e-01
-4.335701618543676972e-01,-4.472062602854274260e-01,5.283840466643181522e-01,-8.148605667032969612e-04,3.645903770050157788e-04,3.271868860889282429e-03,9.688620567321777344e-01
-4.020760470096764738e-01,-2.933755273833533739e-01,4.911679367929944195e-02,1.274278691371501931e-02,6.605796015131433496e-02,3.771189037351056761e-02,4.291742444038391113e-01
-3.898666950364466643e-01,-3.997094548313229745e-01,3.322799813514623057e-01,6.535113169668502718e-03,-9.532663556919586650e-04,1.082030690029563104e-03,7.272104024887084961e-01
-3.929721384562258057e-01,-3.967768666891884899e-01,3.122462884711133535e-01,5.024697047295628195e-03,4.622833074163863656e-04,3.589893853103658106e-02,7.099107503890991211e-01
-3.175380259433766561e-01,-4.009646439560021758e-01,1.758674996556878201e-01,7.398599618108384068e-02,6.405666640702992187e-02,1.247363927565510108e-02,5.663660168647766113e-01
-4.336440573703470025e-01,-4.489516553590321424e-01,5.278368839505129806e-01,7.872476618475818732e-04,-1.176592339836074171e-03,-1.371288338064308339e-03,9.692314267158508301e-01
-4.253861637306834420e-01,-4.458258783891445032e-01,5.036471077738411406e-01,4.298154513201139781e-03,7.281910613518487261e-04,-3.241029490233085335e-03,9.394670128822326660e-01
-4.194909014444087036e-01,-4.309162456429225796e-01,4.426948493125454354e-01,1.216641950539611291e-03,-6.425183140346816743e-03,-4.591743615144360489e-03,8.680651783943176270e-01
-4.313755572971296748e-01,-4.496399908788543121e-01,5.237017427315274753e-01,-3.883362117231368830e-04,7.942757265875521628e-04,-1.655576338388010937e-03,9.643447399139404297e-01
-4.505234104761401404e-01,-4.039819270626368586e-01,5.483181306320340509e-01,2.378950092190383267e-02,4.941903105697993855e-03,-1.356925730267819624e-02,9.775921702384948730e-01
-5.006641318472883073e-01,-3.966134965128944034e-01,6.118743685595920967e-01,3.030228320546349829e-01,-4.684880874137859613e-02,-1.053930691095809544e-02,1.189619421958923340e+00
-4.279077987120601390e-01,-4.476749035315918390e-01,5.051945735894017853e-01,1.558245801845207406e-03,6.112157482583296681e-04,-3.335839189327814008e-03,9.431634545326232910e-01
-4.318152887791025796e-01,-4.486740362442447339e-01,5.283057123666201615e-01,1.781495044873446015e-03,2.975387319636429648e-03,6.154830371257227241e-03,9.687377214431762695e-01
-4.546954815774791880e-01,-3.590918398985482596e-01,5.507325789576879016e-01,7.152590894395297050e-02,-2.339515354929525785e-03,-2.696010072998329676e-02,9.702823758125305176e-01
-4.300915512370118710e-01,-4.429256529574829848e-01,5.107629539807689856e-01,6.987967657508638124e-03,3.407490209899705254e-03,-4.867019298399149346e-03,9.474699497222900391e-01
-3.811073363435144579e-01,-4.650157958587450291e-01,5.197483792529308255e-01,-6.636835836006505125e-03,1.554543213240009824e-04,2.154397811855279896e-04,9.456761479377746582e-01
-4.587322263782297460e-01,-4.304577055333539959e-01,5.455606524663935142e-01,-3.749080943934082928e-03,-3.734437301596233404e-03,-1.651467937114143442e-02,9.909136891365051270e-01
-4.366694265164124400e-01,-4.382529495261408559e-01,5.410865858659963390e-01,8.765198908399385747e-04,2.745864629066536045e-03,1.986305330638898047e-03,9.785675406455993652e-01
-4.363918168245207729e-01,-4.352348791951456408e-01,5.460233966653398330e-01,3.839516448382972852e-04,9.606912812095023610e-04,2.868235594795936257e-03,9.818514585494995117e-01
-3.391787953632828256e-01,-3.719466325915134486e-01,5.145250319671315076e-01,2.094616369634612341e-01,-5.857509826950099002e-03,-1.603457999316953292e-02,9.435861110687255859e-01
-3.824847283386101915e-01,-3.997863235849506425e-01,5.197276225651953352e-01,-1.211232275014546313e-02,-1.537640807321687640e-03,-2.372351687017821187e-04,9.112318754196166992e-01
-4.260661633944846094e-01,-3.610606070373521548e-01,5.322946501477295866e-01,-4.143388141894629312e-02,-2.078599514176944062e-03,-2.318226227613994547e-03,9.303557276725769043e-01
-3.861138186920196613e-01,-4.083317748275798187e-01,5.511352298869511834e-01,-7.458585694543803934e-02,-5.148935218025608301e-03,1.333298748929367603e-02,9.576299786567687988e-01
-4.383088124356969706e-01,-4.471907896039866714e-01,5.448522484197070304e-01,-1.890665265340183776e-03,3.561831154875576451e-03,9.954585547508889524e-04,9.876582026481628418e-01
-4.199881758026038914e-01,-3.579779280659472485e-01,5.283419176824704078e-01,-2.194777204440163942e-02,-1.017501040126464083e-03,6.490398249664992110e-04,9.196839332580566406e-01
-4.064996076125025337e-01,-3.957508870354884412e-01,3.787508371848776756e-01,-8.315202802014404811e-04,1.442403348985981911e-03,2.436948733056551204e-03,7.799484133720397949e-01
-4.186219175091846489e-01,-3.509869222576463832e-01,5.182926480898879529e-01,-1.624947801015797638e-02,-3.349350166969404519e-03,2.563314679756629588e-03,9.054616093635559082e-01
-4.382110992295911722e-01,-4.390997065622974094e-01,5.398206565629062315e-01,-5.720964785905966431e-04,9.843345548888587232e-04,-1.724119241227029323e-03,9.784829020500183105e-01
-4.059199322963963352e-01,-4.013378025024416651e-01,3.646097501028175980e-01,4.761799171213556073e-03,-1.964039487357679276e-02,8.527892676929033089e-05,7.690458893775939941e-01
-3.954401872120854033e-01,-3.936860521429594306e-01,5.219919733853271016e-01,-1.914218256238656851e-02,-2.097727185899754977e-04,-8.464598244698868200e-04,9.171570539474487305e-01
-4.433607169282803850e-01,-4.380064761475909729e-01,5.318150313113273464e-01,-7.200395862335280499e-03,2.319250076092682633e-03,2.981714071560907266e-03,9.726116657257080078e-01
-3.621303290090619464e-01,-4.189066819187209911e-01,5.229986105344511804e-01,-4.559699514899092504e-02,1.206376376607482502e-03,-2.369429452951988570e-03,9.182536005973815918e-01
-7.123910439703460273e-01,-1.581845534340650117e-01,5.302348344804846958e-01,2.682202595417291016e-02,-8.737135884781878359e-02,-4.536096141664289205e-02,1.092622995376586914e+00
-4.359909574175017122e-01,-4.356911310560607764e-01,5.094370799015881524e-01,-7.603159190703102574e-03,4.842243219560001671e-03,4.363938159343249898e-03,9.454373121261596680e-01
-4.045282638635001593e-01,-4.109188873405695830e-01,5.331911084194791428e-01,-1.053277134704360199e-02,5.834074828258065289e-03,-6.443080340713154205e-03,9.412282109260559082e-01
-4.189373146412661009e-01,-4.322009304498231619e-01,5.437891248787609655e-01,5.715088602073451103e-04,-2.097716126785958372e-03,7.525842460697703545e-03,9.695212244987487793e-01
-5.569205397824066317e-01,-3.465907595183624901e-01,8.552909181035718289e-01,2.888535448092223179e-01,-6.255588675029153528e-03,-3.983204281647123590e-02,1.413059115409851074e+00
-4.430971637142070985e-01,-4.292929286458204707e-01,5.065869622729816113e-01,-5.283978449555764081e-03,-2.873188044087646338e-03,-3.500742800492636850e-03,9.429348707199096680e-01
-4.207419562914411770e-01,-3.823737022994690982e-01,5.378160931911899478e-01,-3.601098610029584979e-02,-8.079339036808387553e-03,5.649646671378131396e-03,9.421833157539367676e-01
-3.644136677947809044e-01,-4.136255006299314196e-01,5.215067986463293170e-01,-1.894602752324234599e-02,-2.376046493451179804e-03,2.964333822660350851e-03,9.121375083923339844e-01
-4.382233632832989723e-01,-4.193040135662026158e-01,5.486444256429940936e-01,1.257284589827883658e-01,4.524799619109675514e-02,-2.438176057253934464e-03,1.004578471183776855e+00
-3.908674142975911425e-01,-3.928723568796475552e-01,3.302349667430167779e-01,4.017801062528706703e-03,-8.429465873006330556e-04,9.092980498229450391e-04,7.221436500549316406e-01
-4.327495182551336361e-01,-4.196446762726049329e-01,4.575968472436852119e-01,-7.849684110895281675e-03,2.660309935750399934e-03,3.266969795769239342e-03,8.840014934539794922e-01
-3.979632703110366210e-01,-3.973934058680914094e-01,5.271503484226109926e-01,-2.018565771900575692e-02,6.560614331898738730e-03,-4.036319164041084553e-03,9.255856275558471680e-01
-4.041011108490202286e-01,-3.909312971039702878e-01,5.247601749027468454e-01,-9.185315369995488560e-03,2.145345587759868011e-03,-3.661570459368064696e-03,9.225133657455444336e-01
-4.029644791007642723e-01,-3.971373499164232990e-01,5.264196265411663633e-01,-1.800521026089468152e-02,2.181702544043297599e-03,-2.416877579819680117e-03,9.270261526107788086e-01
-3.892873413420841477e-01,-4.009911830891834117e-01,5.204876770163491262e-01,-5.646682429504538796e-03,3.538504510082679587e-04,1.283412637320474441e-03,9.157381653785705566e-01
-3.557293217300040444e-01,-4.231332214525757029e-01,5.227231562345492355e-01,-1.601994870653561734e-02,-2.927735174100680373e-03,-1.808152492389668037e-03,9.144608378410339355e-01
-3.702070446760349909e-01,-4.428309944609008508e-01,5.394844201379772608e-01,-8.091564005597289000e-03,-3.381298196373674729e-03,-1.066081273430573816e-02,9.483932852745056152e-01
-4.165351790276078381e-01,-4.487805226906276257e-01,5.426629832495920569e-01,1.416819251015756943e-03,7.437898409882546386e-03,5.082228690451186075e-03,9.758483767509460449e-01
-4.353099617122421772e-01,-4.165064285879613859e-01,4.602585486848342899e-01,6.082095311828404280e-03,4.848169061716168897e-03,-1.929725583670679687e-03,8.864250183105468750e-01
-4.487789092813336267e-01,-4.297437720761432267e-01,5.235308503349165310e-01,1.832391531793724345e-03,1.766260277184074703e-03,-9.993036040555933024e-04,9.629449248313903809e-01
-3.901208600748705124e-01,-3.950133916862385020e-01,5.206527475409254979e-01,-4.578911850320352070e-03,-6.950441223177993846e-05,-3.386663391161818908e-03,9.132829904556274414e-01
-4.108067382889962205e-01,-4.113751468677737666e-01,3.969988131983506197e-01,7.818842923422351932e-03,2.338793100033750415e-03,-9.960156930233147034e-05,8.082135319709777832e-01
-4.368954214015715043e-01,-4.248535763648867425e-01,5.416048356206567549e-01,8.014726124941348728e-03,-8.391393398599926098e-03,-5.413570999065939714e-03,9.727880954742431641e-01
-5.011543830673488298e-01,-2.740626577550194232e-01,5.401221622006775469e-01,2.651255893638207115e-02,-8.230996404633471666e-03,1.244782133577945413e-02,9.498100280761718750e-01
-4.183230815419147208e-01,-4.359791475925033910e-01,5.462538151009749265e-01,-1.257162386493722262e-03,-2.240145890124887237e-03,-2.941054776949939518e-03,9.735485315322875977e-01
-5.332677714097822097e-01,-2.088430746075481126e-01,4.845646914804371264e-01,-8.115778731706248250e-02,1.611650088244682890e-03,3.865423049129239515e-03,9.115024209022521973e-01
-4.335879399062146922e-01,-4.457722462069695357e-01,5.284366459985042619e-01,3.061008109069686487e-03,2.127990031628223654e-03,-2.577673626664889629e-03,9.682060480117797852e-01
-2.756560628135538704e-01,-6.090822506940591907e-01,5.993299765237902754e-01,-3.026383274625539799e-01,-8.503090323688509977e-02,3.130661636793513614e-03,1.210374712944030762e+00
-5.805635545583791579e-01,-1.890181898061529253e-01,6.738653396024431030e-01,-1.237028261107927241e-01,-3.862723515168781097e-02,9.525331871388192928e-02,1.146009087562561035e+00
-4.389064202956506899e-01,-4.385583054364289857e-01,5.485206820718793175e-01,-1.029364937875435794e-03,2.234539220706955980e-03,-2.788520290538661333e-03,9.872741103172302246e-01
-4.374947360899611448e-01,-4.371550262639108397e-01,5.125074380801025731e-01,8.575675033312860768e-03,4.764107856613612572e-03,-5.177908941717676225e-03,9.500266909599304199e-01
-4.281770083775233160e-01,-4.459173600550511707e-01,5.058852244135109144e-01,-2.698639076403135627e-03,-1.195860670422802322e-03,-2.549819656903547227e-03,9.430817365646362305e-01
-4.309566309461410616e-01,-4.462868292747750321e-01,5.122577804589956152e-01,4.350154936923261370e-03,3.306719673953917478e-03,-5.157848251841029401e-03,9.510612487792968750e-01
-5.235766888120637619e-01,-3.480018556133901431e-01,6.561519037541665433e-01,-3.101548364066110119e-01,-4.044946822609719883e-02,1.060025294175187816e-01,1.242039322853088379e+00
-4.393036774376667397e-01,-4.385535865796675314e-01,5.485133503285999357e-01,-7.733043317451471351e-04,-3.123428473508010287e-04,-3.693684168525667518e-04,9.874434471130371094e-01
-4.375163108018699787e-01,-4.412761361866194831e-01,5.285120319574273529e-01,6.049405797392742000e-03,2.945332168000223700e-03,-3.042153902988938095e-03,9.679982066154479980e-01
-4.699458091485497757e-01,-3.876934871007410854e-01,5.575766863762531278e-01,-4.409196277472342620e-03,3.775130838039771064e-03,2.410111205895704156e-02,9.898967146873474121e-01
-4.287373663139967817e-01,-4.366879073330530714e-01,5.493727081112321775e-01,3.386393058825376990e-03,-2.394478424630140309e-03,3.217029588254921926e-04,9.821358919143676758e-01
-5.723951472530799389e-01,-2.938002342591088945e-01,5.681098305671047344e-01,7.649079335948749669e-02,-2.829935079763558348e-02,3.044201225312413717e-02,1.040847301483154297e+00
-6.145260230526261580e-01,-2.296307148286010347e-01,6.495579641852572417e-01,-5.075772006535963707e-03,-1.154812469914670917e-02,-1.167535927477790850e-02,1.122674942016601562e+00
-4.329186733757924843e-01,-4.354741890759927792e-01,5.490370176409310465e-01,1.866538391129973079e-03,-3.301622360351147076e-03,4.561794790884360481e-04,9.832581877708435059e-01
-4.380514429116240116e-01,-4.444189932515846819e-01,5.315412242065664650e-01,-6.254876584158695733e-03,3.445173193770552714e-03,2.420496460180801730e-03,9.728797078132629395e-01
-4.430067979921131216e-01,-4.408249128331439004e-01,5.456557060248772295e-01,-3.867451230941538077e-03,1.797731377511453416e-03,2.453415854185256404e-03,9.876101613044738770e-01
-4.362542444229972061e-01,-4.398255596578399262e-01,5.292863237526873599e-01,-2.285732161389573969e-03,3.372464797977507353e-03,2.278495008019567822e-03,9.673649668693542480e-01
-4.441057896809059713e-01,-5.744191422975745143e-01,4.621052793740189069e-01,-2.111292842106070045e-01,-2.785727766427308072e-02,-3.261279645786767378e-02,1.046679019927978516e+00
-4.270298705032241071e-01,-4.232172164644505408e-01,5.438082296728549148e-01,1.280274773175861308e-03,5.854472772683300477e-03,8.957144793519765738e-03,9.691171646118164062e-01
-4.164096206163004910e-01,-4.366858723987332991e-01,5.456493521210465936e-01,1.067543977209973668e-02,-4.953643555777697063e-03,4.694071334401419063e-03,9.726032614707946777e-01
-3.824756159746947048e-01,-4.609796999495564540e-01,5.528313575112260292e-01,-1.173233229301047162e-02,-1.888385137685133497e-02,1.297258155686873142e-04,9.776861667633056641e-01
-3.698924816783384917e-01,-5.092357919165040325e-01,5.963895986071459099e-01,-8.975402910208679641e-02,-7.851293869997152952e-03,6.233808381131357781e-03,1.054623842239379883e+00
-3.463905982236286096e-01,-4.681858226489750696e-01,5.376351977811204552e-01,-1.492579171677420047e-01,-2.863708418909777925e-02,3.747886370100261821e-02,9.886929988861083984e-01
-3.365719493379607519e-01,-4.535924822943921408e-01,5.511720393569840004e-01,-2.275759576159677722e-01,-2.572902043191902487e-03,-2.617721296559229194e-02,1.031074881553649902e+00
-4.434359488666346771e-01,-4.404226764306490294e-01,5.439897458649151085e-01,-4.052789515558694045e-03,-9.463055407213775451e-04,-1.777746970026646434e-03,9.859536886215209961e-01
-3.334122498777435939e-01,-5.297145669215602704e-01,4.510720718700799159e-01,-9.877488198707472244e-02,-3.724106792473746985e-02,8.971461389587684354e-02,9.303346872329711914e-01
-4.452394855054404021e-01,-4.365781078344463939e-01,5.269841130489818504e-01,5.911834244047271467e-03,-1.458812562019742029e-03,6.139093429654613084e-04,9.679800271987915039e-01
-4.440467840268079724e-01,-4.375382277551508325e-01,5.388028508689376439e-01,-2.118981810209500868e-03,1.894148239981975005e-04,3.287731663327338703e-03,9.796350598335266113e-01
-3.013683714630647215e-01,-4.581938188414559909e-01,3.970674862935764660e-01,-1.607771492044871575e-01,-2.458683834868872348e-02,5.160618741880526605e-02,8.421937823295593262e-01
-3.049180904679626436e-01,-4.847129814944042270e-01,5.393332037175834204e-01,-1.070203015904009486e-02,1.152399090549988646e-02,-1.397596370355812592e-02,9.477375745773315430e-01
-4.360555238511354403e-01,-4.443947674397537018e-01,5.451068858806730200e-01,1.461040835277857552e-03,-1.003055885024171576e-02,-1.633512585999180112e-04,9.855149388313293457e-01
-3.969387256803687536e-01,-4.010369986697703837e-01,3.394822025176935654e-01,-1.932779240699176657e-03,7.080913417920450998e-05,-2.865152097160995198e-02,7.401517033576965332e-01
-4.109086650722677536e-01,-3.787921240965198555e-01,5.278066178052288615e-01,8.392915846620191411e-03,7.811533867617764804e-03,3.098559029075983995e-04,9.232898950576782227e-01
-4.436312964848219687e-01,-4.378898990549886516e-01,5.397118510904086452e-01,4.568174257720906614e-03,1.529925476710757796e-03,3.220569350304362290e-03,9.805364012718200684e-01
-5.478469722769783168e-01,-3.422286191935211552e-01,6.055574833602870299e-01,6.297394488976278126e-02,-1.565663006783682767e-02,-2.119055820578790578e-02,1.072119116783142090e+00
-4.359262060293522811e-01,-4.236349177003729816e-01,4.711653658361707464e-01,6.340185685815275148e-03,5.191814775650692437e-03,-1.637939095024115027e-03,9.011250734329223633e-01
-4.388665882115930228e-01,-4.410297277601551436e-01,5.435075231229964388e-01,5.798114541778477378e-04,1.047775189327022514e-03,-3.140801650759310511e-03,9.834746718406677246e-01
-4.392766753841350069e-01,-4.400924917288278615e-01,5.387383774918265145e-01,3.787780939263478766e-03,-3.621595682387777383e-03,1.866412541398611725e-03,9.784706830978393555e-01
-4.389852423366339962e-01,-4.422717989981297948e-01,5.365839357616977168e-01,5.027796391815770108e-03,-2.282658983636306430e-03,-2.050576907800421341e-03,9.772698283195495605e-01
-4.203063343753462577e-01,-4.317896956414060683e-01,5.441001293391508620e-01,6.652443449393368076e-03,-6.668537282239246503e-04,6.090517099939261663e-04,9.702687859535217285e-01
-4.283024694579097291e-01,-4.357465751735979387e-01,5.488817889003064776e-01,-7.075898902867890647e-04,-2.847190790840954666e-03,-9.172450429200669324e-04,9.809419512748718262e-01
-4.374354627328444489e-01,-4.193650204741085075e-01,4.620215989402114420e-01,2.904951084733684713e-03,4.934389592648917751e-03,-1.830162528763513204e-03,8.906202316284179688e-01
-4.359746645821997446e-01,-4.273895483245940263e-01,5.465143585288965156e-01,9.519699985050959811e-04,-5.519349693471949786e-03,-2.297395261636630149e-03,9.782809019088745117e-01
-4.152824853631209012e-01,-4.289085253322743041e-01,5.433007597684622603e-01,1.604438469156152210e-03,5.792341742848029079e-03,-4.231962161419314250e-03,9.655523300170898438e-01
-4.344587318766808259e-01,-4.349202844029824711e-01,5.486022829063960105e-01,-3.394334072122125591e-04,-5.732121942858795123e-03,-1.291633897287903631e-03,9.833447337150573730e-01
-4.297222188177945990e-01,-4.228565124060167935e-01,5.460146368807904382e-01,3.898201406092277436e-03,2.685086277933286351e-03,1.378108443954378969e-03,9.723596572875976562e-01
-4.135320352504860963e-01,-4.245423628503035007e-01,5.417277717743440579e-01,1.386355482796460068e-03,-6.510320781497378959e-03,1.515466833551011236e-03,9.608850479125976562e-01
-4.359983538004159054e-01,-4.464489655159091797e-01,5.353711250129949972e-01,1.441396274275952814e-03,-1.462314677416741340e-03,-9.953901437671516892e-04,9.766446948051452637e-01
-3.988822181508791531e-01,-3.938634945950618138e-01,5.262322478580009344e-01,1.714650600201295116e-02,5.874602355248325150e-03,5.791076707967575225e-03,9.232037663459777832e-01
-4.410319413598784433e-01,-4.418670446544066821e-01,5.527989359299270156e-01,8.904509176403903109e-04,6.259745661991204194e-04,1.280286839684064738e-03,9.942529797554016113e-01
-4.395265977511784716e-01,-4.309883675069886011e-01,5.057007414885076324e-01,-5.885869696066054792e-03,-4.309409209625681553e-03,-4.742139892529334544e-03,9.411079287528991699e-01
-2.520601705491432032e-01,-4.946927347798626973e-01,5.407304743815347647e-01,1.097591380127709570e-01,-6.704403524183230947e-03,1.765306635942859650e-02,9.575778245925903320e-01
-4.041669248357940836e-01,-4.954536649606796628e-01,6.342624663972094012e-01,1.013058042599039033e-01,-1.615655761120516481e-02,-1.013941857523704276e-02,1.101518869400024414e+00
-4.044337762807025394e-01,-4.886069656023342977e-01,5.953723592211198623e-01,9.894478737082065822e-02,1.336913437205214730e-02,-1.453401458004249108e-02,1.058959126472473145e+00
-4.419373403797523525e-01,-4.399391290310397107e-01,5.432955722482351035e-01,-6.674814816845188979e-03,-3.524729608549999446e-04,-1.250240929660249942e-03,9.843057990074157715e-01
-3.684106405563010167e-01,-4.483829994323048074e-01,5.430328923194092106e-01,1.273108672649862598e-02,-1.220447264155635064e-02,-3.024833014960931141e-03,9.544504880905151367e-01
-4.454122706872535309e-01,-4.391461736999973109e-01,5.405274911169019036e-01,-1.520770602162838537e-03,3.689717890647072063e-03,1.523986071544139497e-03,9.828495383262634277e-01
-4.398006427912900529e-01,-4.432183234426721463e-01,5.506128964769266831e-01,-1.210708545477450762e-03,-2.720362496054338922e-05,1.058596598907130459e-03,9.921306967735290527e-01
-3.490078480596477406e-01,-4.462142061378474578e-01,5.305613824368756726e-01,1.003694447013503584e-02,1.295369102881055098e-02,1.150988334571122901e-02,9.326273798942565918e-01
-4.536670673549454968e-01,-3.706763994129886330e-01,5.373464295226557663e-01,1.441152293506644394e-02,5.401664443976858347e-03,1.224225939038677685e-02,9.528434276580810547e-01
-2.671062318506466360e-01,-6.871217712568378211e-01,4.606103114076857130e-01,1.478948961507627335e-01,1.252090502872915401e-01,3.460356485768021489e-02,1.062016725540161133e+00
-4.489629428658035160e-01,-4.383007360997968060e-01,5.410457923957802118e-01,-4.562765599387530804e-03,4.296286560165735700e-04,2.087094063163367173e-03,9.847595691680908203e-01
-3.255404932921782124e-01,-4.577610761738291068e-01,5.468497878926308342e-01,5.185685336440036541e-02,-4.849524076559807127e-03,-1.905125774230977207e-04,9.497542381286621094e-01
-4.435915845325195672e-01,-4.398679253203182093e-01,5.434298791925139538e-01,-2.558188190959900105e-03,1.369488923318642765e-03,-2.002538491859417341e-04,9.851778149604797363e-01
-3.769662672594595310e-01,-3.858184518577270072e-01,5.691066132333412186e-01,1.116176429201298503e-01,-4.144697364127392786e-02,-4.129319325955153192e-02,9.752699732780456543e-01
-4.452530298378064577e-01,-4.167671373473863516e-01,5.410384102534971928e-01,2.881517345616935351e-04,3.695317452787966889e-03,-5.686051946982423159e-03,9.724325537681579590e-01
-4.419485172723540689e-01,-4.140153329759194145e-01,5.380559521559181713e-01,-3.462829685341805609e-03,5.026049988014484778e-03,-6.172778275368171266e-03,9.664576649665832520e-01
-4.056215274650048497e-01,-3.958494039213571458e-01,5.364744245075356854e-01,-2.231287682701157613e-02,1.634241575168595209e-02,-1.551884366625034747e-02,9.388563632965087891e-01
-4.395223788584309843e-01,-4.380463928250975525e-01,5.431924327466342017e-01,2.011070747082542424e-04,3.212943203118183086e-03,-2.143005992405699195e-03,9.820004701614379883e-01
-4.362779167827216531e-01,-4.165609311944367676e-01,5.371604937555429782e-01,-4.897023732850013661e-03,6.781681751689607601e-03,-5.804375367938656612e-03,9.638925194740295410e-01
-4.342805933502140170e-01,-4.333427463235373089e-01,5.441743359443370620e-01,-3.614944564095474468e-03,8.240481423068142172e-03,-5.676319144677853014e-03,9.781599640846252441e-01
-4.460759870032982022e-01,-4.247427755011464190e-01,5.026990258311028192e-01,4.359925779778756061e-03,3.274572058105434426e-03,2.178164637338851845e-04,9.383379220962524414e-01
-4.844905055467260135e-01,-2.008987908239936448e-01,1.892081402166015391e-01,-4.028645108630901639e-02,-2.740133807368940952e-02,2.863550378645092487e-02,5.939867496490478516e-01
-4.228073353772985876e-01,-4.344210324728847716e-01,4.971179126138784987e-01,-1.492621496257075112e-03,-1.120700425739893334e-02,-2.300130897198563330e-03,9.260023832321166992e-01
-4.284285960335034171e-01,-4.338044593801413940e-01,4.896385143844730337e-01,-6.045136030735294083e-03,2.335378118138103400e-03,-1.300587897165573006e-02,9.211107492446899414e-01
-4.043060470962469566e-01,-3.705787021271759740e-01,4.638224650667902571e-01,-1.185325998466212200e-01,-1.174113653527144863e-01,4.068651303178122403e-02,9.022069573402404785e-01
-4.087828727282474817e-01,-4.337590433036935811e-01,5.428872195443306126e-01,-1.580870376804976996e-02,-2.057897868706762712e-03,-4.159416673139989043e-03,9.648228883743286133e-01
-4.479576642229926020e-01,-4.387357155964847766e-01,5.296101897812159898e-01,-2.376709844551334536e-03,-5.072894488293829083e-04,5.893700560763680263e-03,9.730523228645324707e-01
-4.386463193769777891e-01,-4.420606753573249059e-01,5.243026365325967886e-01,-8.470763810631498636e-03,4.140369668812273439e-03,4.151724303114994775e-03,9.648256897926330566e-01
-3.534319496058594412e-01,-3.726513595033931758e-01,5.469534052004747515e-01,1.396794418833777751e-01,1.689682173641416513e-02,8.085822464272859195e-03,9.423118829727172852e-01
-4.468073465804803801e-01,-4.292466577626511404e-01,5.072595431438834401e-01,-3.024637321039387074e-03,5.935388840791228082e-03,2.490884622649531827e-03,9.454891085624694824e-01
-4.147563462638905185e-01,-3.075755471423232690e-01,3.813508211401602788e-01,-1.436367124175394194e-01,-3.691266599790646308e-02,-1.033033822333773340e-02,7.913591265678405762e-01
-4.341585759463331695e-01,-4.267405787914805293e-01,4.318501295700503118e-01,-1.130424743270254037e-04,-1.272896793335928645e-02,6.548572382926684532e-02,8.700306415557861328e-01
-5.015844540448042288e-01,-3.383853792950729522e-01,5.475051792175787968e-01,-3.743105399991663397e-05,-1.119751161948688177e-03,2.176597503697155073e-02,9.784873723983764648e-01
-4.452822802805455615e-01,-4.348239686912514501e-01,5.302379775300466447e-01,3.185230950765274936e-03,-3.885126389370034510e-03,-2.306334536220750147e-04,9.703724980354309082e-01
-2.991263249400513691e-01,-4.994525640718665005e-01,5.514986070434307885e-01,1.760902027166578315e-02,-2.124948716597534551e-02,-8.986214550748633512e-03,9.677928686141967773e-01
-4.375464952608150160e-01,-4.430753447656737287e-01,5.369352673696423661e-01,3.221473380531586148e-03,-1.278806447669242124e-03,-1.095531904615005148e-03,9.772781729698181152e-01
-4.436902795069136984e-01,-4.270098766801687096e-01,5.363124630009047378e-01,1.669294878159926273e-03,-2.287855140223339330e-04,-1.531395504925206486e-02,9.721361994743347168e-01
-4.661425772891757968e-01,-3.699663804702205128e-01,5.445972968600431008e-01,2.750823680105149178e-03,-2.375937943811966789e-03,-1.890941955758943058e-03,9.662743806838989258e-01
-4.343606440177937289e-01,-4.462382059492079334e-01,5.295580019309740205e-01,2.473430799304905236e-03,-1.340623589822620258e-04,-6.028090383098979460e-03,9.699776768684387207e-01
-4.374763547312726653e-01,-4.431430675007341224e-01,5.369793113041853028e-01,-1.170227672950018737e-04,-1.271853977954119034e-03,6.767204479131734693e-04,9.773045778274536133e-01
-4.405720462390733672e-01,-4.425130889566167292e-01,5.524416356751878920e-01,8.685379610166194279e-04,4.744362154104487649e-04,1.831987435111784475e-03,9.939921498298645020e-01
-4.424260769602482712e-01,-4.422283364295360175e-01,5.523658060559352156e-01,1.896015480550920210e-04,-1.044502211639459317e-03,1.170188230407448069e-03,9.946967959403991699e-01
-4.414058498486675419e-01,-4.385528909437445000e-01,5.362470672279838757e-01,-9.207365763480711719e-04,3.388080704820583752e-03,-1.819886049582066911e-03,9.762535691261291504e-01
-4.376729921794232370e-01,-4.362313795134635241e-01,5.228079960579486984e-01,4.100410562312931106e-03,-7.382961995753599752e-03,2.973090711479733916e-03,9.598862528800964355e-01
-4.407191143445988168e-01,-4.432979452652821006e-01,5.453459878388671189e-01,1.680216639491391700e-03,1.189374004433180589e-03,4.364147541222844614e-04,9.873637557029724121e-01
-4.412681415027059351e-01,-4.428609323355698346e-01,5.481898938716668335e-01,3.381024832615712756e-03,-3.981622840588953027e-04,-2.170768860145881607e-03,9.902800917625427246e-01
-4.414740977577991665e-01,-4.373373138476575606e-01,5.438233377354770859e-01,1.307800279960703946e-03,-4.504423796708301349e-03,2.491548032690770777e-03,9.832786321640014648e-01
-4.397018912251188238e-01,-4.384638859619761631e-01,5.521118250711091191e-01,9.376158468325494918e-05,-5.017062107837913162e-03,6.920190598605313430e-04,9.912341237068176270e-01
-3.885123214966187399e-01,-3.982421334844594152e-01,5.220188384783371882e-01,-1.223032510469638894e-02,2.958239845750363067e-03,-2.451408759853434052e-03,9.157040715217590332e-01
-4.386677271284826207e-01,-4.420082299041620533e-01,5.534287906799056911e-01,1.544516169562497191e-03,-1.065675972035060167e-03,-2.979079618837568682e-04,9.937764406204223633e-01
-4.416939399341903716e-01,-4.411166169463419662e-01,5.479739581822924421e-01,2.766651786162800837e-03,1.828184475332151736e-03,9.718206243157149864e-04,9.893974661827087402e-01
-4.417324337960149561e-01,-4.409315201557580943e-01,5.537362013120463722e-01,-4.033313603897657100e-04,1.134100401087039143e-07,-1.454334841347088621e-03,9.950718283653259277e-01
-4.408836240129841433e-01,-4.431744564603909975e-01,5.445832920618652873e-01,3.660824397039320281e-03,2.689571107410029631e-03,-3.346801936803554811e-03,9.866627454757690430e-01
-4.342020313709522017e-01,-4.248672618342297369e-01,5.463810393223633710e-01,2.459360919200811731e-07,-4.062099731779477731e-04,3.767254910014294217e-03,9.759712219238281250e-01
-4.388703943543355579e-01,-4.392579340234236129e-01,5.359604132753246208e-01,9.788881824009318389e-04,-1.327365845222699958e-02,-1.194247285438307729e-02,9.755164384841918945e-01
-4.333561026686925111e-01,-4.418043543313182053e-01,5.499793049105123899e-01,3.696242315415263543e-03,5.597101191378587616e-03,2.447187906223642108e-03,9.876640439033508301e-01
-3.746943673954631349e-01,-4.483079365908549940e-01,5.410646745146776571e-01,-1.497643656901092961e-02,-1.652150126653459047e-02,3.296964292320965495e-03,9.554947614669799805e-01
-4.370471582898473595e-01,-4.290729921993300389e-01,5.495537330478892368e-01,3.669923014742747236e-03,1.109566987664285624e-03,-2.027345432006364117e-03,9.826667904853820801e-01
-5.322300156237307345e-01,-2.343063501605782140e-01,5.440768521878637243e-01,-6.076357994149100133e-02,-5.299077420690749725e-03,-5.268415607437575317e-03,9.683913588523864746e-01
-3.585645643382641135e-01,-3.791964499873710093e-01,5.173828701998024471e-01,-7.701824753631975051e-02,-2.489450985482013091e-03,4.609114545647691186e-03,8.964707255363464355e-01
-4.466065191636798826e-01,-4.352424989898499574e-01,5.329937495061437547e-01,-1.728700391311364286e-03,-2.109250996292542837e-03,-1.012741409098449072e-03,9.739810228347778320e-01
-4.438276050587818822e-01,-4.407394665461233929e-01,5.459145555282681750e-01,-1.797131009970459993e-03,1.767004947102611585e-03,2.591666377935163915e-03,9.882215261459350586e-01
-4.417860225740196656e-01,-4.401986141210327275e-01,5.450055698386251368e-01,-2.059770408106366456e-04,7.899199934197527473e-04,2.238966308528066163e-03,9.860075116157531738e-01
-4.424590145874520153e-01,-4.431080074506156818e-01,5.525630275678085068e-01,-8.377962429060437219e-04,9.065542338705604580e-04,1.240284833936050341e-03,9.953513145446777344e-01
-5.957615683305435006e-01,-1.983095596064382571e-01,5.694498019983610382e-01,-7.474220026939418227e-02,2.124683106419862286e-02,-1.278319896123947599e-02,1.034975290298461914e+00
-3.953884092704507691e-01,-3.903915082312264806e-01,5.221892411347829333e-01,4.308854316035920506e-03,4.062934348763881306e-03,3.427331848044367409e-04,9.151471257209777832e-01
-4.389304958129465750e-01,-4.387917066809133848e-01,5.489556544476454913e-01,4.787895107926702859e-04,3.351511785559565908e-03,2.223004950227214834e-03,9.878416657447814941e-01
-5.229608276949482271e-01,-2.533721293006714892e-01,5.546136816640296896e-01,-4.494671826245994622e-02,2.275708113209214990e-03,-1.300354699572103465e-03,9.743840098381042480e-01
-4.515300636914917343e-01,-4.317787587864019283e-01,5.279486268727282550e-01,-1.999024152047403600e-03,1.250695003234147343e-03,5.251059441591613298e-04,9.697629213333129883e-01
-5.628898453230657406e-01,-1.242210661647118464e-01,5.899687482295689067e-01,-1.545776440095302240e-01,1.120232051843465804e-02,-5.907299373777790373e-04,1.043000698089599609e+00
-5.047315415150761542e-01,-1.638093133607980145e-01,5.855181972379059907e-01,-1.808376262203403584e-01,-1.256925394421131922e-02,3.067228296630145068e-02,1.017145633697509766e+00
-4.496901564450621613e-01,-4.329578775142575719e-01,5.341986194783268083e-01,-1.173471158550760344e-03,1.448006699576002976e-03,2.383307942476878966e-03,9.756443500518798828e-01
-5.163063677517235606e-01,-2.267390670769292016e-01,5.875087498940627651e-01,-2.044533727516881783e-01,-6.168314017358211832e-02,5.387272718580037034e-02,1.062145471572875977e+00
-3.961172858428844701e-01,-4.505625303971244056e-01,6.306026048558671659e-01,1.313852321714495952e-01,-1.429480375642081316e-02,-1.558001643212587536e-02,1.079882144927978516e+00
-4.464127490315854541e-01,-4.361092256030145164e-01,5.384846192252298325e-01,1.657022953845494091e-03,-5.406154614215246193e-03,-3.461903425464309299e-03,9.798535108566284180e-01
-4.487175549455162948e-01,-4.323758264064914703e-01,5.271638681682866423e-01,-6.216428093506023208e-04,1.177228828133791141e-03,5.320748029386546942e-04,9.678172469139099121e-01
-3.268134695428686620e-01,-3.769787384608134229e-01,9.118538992226532525e-03,2.424233038487518324e-02,7.246969079221343701e-02,9.828823881529009932e-03,3.873337507247924805e-01
-2.483830384603645247e-01,-4.415233259940482546e-01,6.081195798880166814e-01,2.146536840510516186e-01,4.351315456051974007e-02,5.417804156193437026e-02,1.043570637702941895e+00
-1.803802672477087810e-01,-5.754415046629850483e-01,8.181206504755793585e-01,1.538526191610829486e-01,4.662827048378918871e-02,9.878842123954015980e-03,1.274901509284973145e+00
-4.318138399403053662e-01,-4.314420786498432414e-01,5.472611436896467341e-01,-9.693298744738048939e-04,-2.265471101048298439e-03,-1.618548176203632016e-03,9.789024591445922852e-01
-3.241044696320478091e-01,-4.094942277996522773e-01,6.179477033928049146e-01,2.337377054818039479e-01,1.017551746058335538e-01,2.696266887807872298e-02,1.082745790481567383e+00
-3.732980640144842877e-01,-4.621931666053171184e-01,6.337804496070624793e-01,1.385055587237241925e-01,1.280570531488878054e-03,-1.166906800020901108e-02,1.081479787826538086e+00
-4.196716281411191352e-01,-4.238665500427849508e-01,5.431784621972940430e-01,-4.058379191769627935e-03,3.093269622493788340e-03,-7.781191561683839866e-03,9.650889635086059570e-01
-4.511698297840384120e-01,-4.310387002488879071e-01,5.248349579930645659e-01,-4.606125413595222066e-04,2.196325625225171822e-03,-7.344728433167073845e-04,9.661052227020263672e-01
-4.380178071023216324e-01,-4.405718764686479827e-01,5.465059805076827315e-01,5.537704824551191278e-04,-5.969821716700066637e-03,-4.688396034221460791e-03,9.858914613723754883e-01
-4.246427134210317145e-01,-4.279016603244031880e-01,5.454558856942277600e-01,-2.365386998225357112e-03,2.396605975783334778e-03,3.447096326125230308e-04,9.717498421669006348e-01
-4.190376896942735740e-01,-4.264084688869886342e-01,5.432171661817063457e-01,1.646170834853474731e-03,-2.587555190491468149e-03,-3.627040981599110800e-03,9.659963846206665039e-01
-4.407860497102048525e-01,-4.389913022061482928e-01,5.427506383960579717e-01,-4.342125014954159503e-04,2.791155156803595740e-03,-1.235895777004943552e-03,9.826550483703613281e-01
-4.113188004009393772e-01,-4.148252566553826681e-01,5.369459531932847529e-01,-7.878145776048063945e-04,5.743023376016776621e-03,-4.791185558218008164e-03,9.501121044158935547e-01
-4.204008419509490668e-01,-4.264869956655457095e-01,5.430420933461593824e-01,-6.106272145670102978e-03,6.508397911148034592e-03,-2.348771481826073329e-03,9.666325449943542480e-01
-4.439043631448160721e-01,-4.416223054526102199e-01,5.465243386226480427e-01,-4.989345256351770605e-03,1.815369507852595426e-04,-3.148877704213828540e-04,9.893276095390319824e-01
-4.444195700596014764e-01,-4.292963931316308157e-01,5.141578841997666016e-01,7.538806200108456174e-03,3.668448867535689488e-03,-9.812473641335661603e-04,9.512184262275695801e-01
-4.394710605304643636e-01,-4.420629934644856873e-01,5.443792288939612867e-01,-1.860451154134386406e-03,-3.314822183975922425e-03,2.007485300902160218e-04,9.851709008216857910e-01
-4.342728691059565826e-01,-4.338081663612484706e-01,5.490043754055443648e-01,1.295200112256059957e-03,-2.720917214489676668e-03,-6.005001959094724041e-03,9.831138253211975098e-01
-4.414974056207244257e-01,-4.381934954185500719e-01,5.508798794541266419e-01,-1.273586571281082715e-04,-7.683389889238281638e-04,-1.893301629101265017e-04,9.907304048538208008e-01
-4.427161611841507471e-01,-4.411082942308575117e-01,5.489533281892344796e-01,-2.525982739563221394e-03,2.584098412898764175e-03,-1.775019807207806749e-03,9.908910989761352539e-01
-4.164211536969109062e-01,-4.395992763166686190e-01,5.365420679947707772e-01,6.314584250063756850e-03,-9.252968544412633334e-03,-3.363751424715867404e-03,9.649738073348999023e-01
-4.247427477464589818e-01,-4.344497914135915795e-01,5.449169457751328327e-01,1.054502963213892024e-03,-5.874645489259175228e-03,-3.740381817848139993e-03,9.746258258819580078e-01
-3.907696163473178830e-01,-3.956233886908039898e-01,5.220563024372356642e-01,1.135514463111906951e-02,3.070663506845464422e-03,3.673928451574244927e-03,9.155113101005554199e-01
-3.983714589482986179e-01,-3.822289005393120775e-01,5.190784355575126519e-01,1.318405035767714756e-02,2.761377589346586045e-03,-4.543855928058683659e-05,9.097852706909179688e-01
-3.979427405507744431e-01,-3.998782649708533810e-01,5.258005095614177726e-01,1.063781053269886954e-03,3.426764583431772190e-03,4.398642976731195406e-03,9.247648119926452637e-01
-3.964187347071454481e-01,-3.977949259038690011e-01,5.264362766785064540e-01,1.681911646438912639e-02,3.656328608200830332e-04,-9.827181141138685745e-04,9.240049719810485840e-01
-4.419149170529756976e-01,-4.386752916546680647e-01,5.511125168149033637e-01,-9.589762336202168691e-04,-9.439829849215517626e-04,-1.986041836486895397e-03,9.914202690124511719e-01
-4.454844465891071303e-01,-4.367899591637278700e-01,5.390508295367987257e-01,-2.942228108680857573e-03,-2.142038256530444645e-03,2.432549708043738734e-05,9.802372455596923828e-01
-4.398264264073963870e-01,-4.376361662761692473e-01,5.522866921316861299e-01,-8.922497489541892637e-04,2.710979282651198967e-03,-1.799995564848073243e-03,9.910370111465454102e-01
-2.959997604890624023e-01,-4.472511738032834416e-01,1.511694360374995494e-01,1.003426590710539412e-01,-6.509080494935542624e-03,-6.661705864386834042e-02,5.780301094055175781e-01
-4.880487161639107674e-01,-4.060103568350189596e-01,1.979534513919539718e-01,6.782936939136996468e-02,-7.298229215179537210e-02,-7.994648175593667416e-02,6.855704188346862793e-01
-4.405261998451965866e-01,-4.298743423587225720e-01,5.052596886157897371e-01,-3.663821880962278218e-03,3.340308572718488252e-03,3.882681220212185966e-03,9.405684471130371094e-01
-3.923850436372568473e-01,-3.861142203886356317e-01,2.450489528071274625e-01,2.441464941776287298e-02,-1.600490897626151085e-02,-3.124752390759718418e-02,6.386314034461975098e-01
-4.321713435417229854e-01,-4.399135987367511214e-01,5.419027241658155303e-01,-5.492846514219295630e-04,-4.364920333516836108e-03,4.262613491945045630e-03,9.780257344245910645e-01
-3.897281314219853132e-01,-3.797906264667456067e-01,2.626144982722108390e-01,6.695231496261251766e-04,2.409371874561991398e-03,-3.706212716647460520e-02,6.506201624870300293e-01
-3.792185879021513495e-01,-4.181438228514338662e-01,5.304935341599139598e-01,4.110340846429297312e-02,6.561240330057708028e-03,7.289372429727530162e-03,9.326623678207397461e-01
-4.359710275704635207e-01,-4.517046480353914539e-01,5.437429532744350036e-01,4.121265682104689396e-03,-9.515187195637904785e-03,2.993850216427769093e-03,9.878516793251037598e-01
-4.485548864587198814e-01,-4.343342221484481902e-01,5.342834410690747715e-01,-1.323573426046872241e-03,1.447838860289600961e-03,2.384165756164684843e-03,9.758203625679016113e-01
-4.268150617081286069e-01,-4.057485232122693408e-01,2.696335861698544445e-01,-7.995092684780272935e-03,6.424733124405689055e-02,4.089490478415302305e-02,6.988596916198730469e-01
-4.375590128930739731e-01,-4.396672807419894080e-01,5.408716263230691768e-01,2.182303936558139222e-04,-8.219995615005967066e-03,-4.732142773433674690e-03,9.796243309974670410e-01
-4.379918440671299318e-01,-4.376260791652414883e-01,5.501402942110866778e-01,2.859386938322390059e-03,-3.282302947614463423e-03,-2.168222714046008550e-03,9.879851937294006348e-01
-4.015330728622815704e-01,-3.911608208129388475e-01,5.234140009377528102e-01,1.480914219801488267e-03,-2.210888574679300070e-03,4.698917411335588792e-04,9.198167324066162109e-01
-4.414065439939195978e-01,-4.346091627229260457e-01,5.472709791055883066e-01,9.008333154070110281e-04,-1.171131113907012029e-02,-1.517724526235178159e-02,9.858569502830505371e-01
-4.082237412499887808e-01,-4.606843401932066429e-01,5.515525687630399299e-01,1.611435589370537437e-03,-8.740967953169576782e-03,8.376898521004094711e-03,9.872794151306152344e-01
-2.649628103933659440e-01,-5.005422349462600451e-01,5.377293809828058713e-01,-5.112593033146424493e-02,-1.968731872979666286e-02,-2.833659006338308875e-03,9.475962519645690918e-01
-4.457409682864532652e-01,-4.344887543476030900e-01,5.324191392644334053e-01,-7.253666161575548490e-04,7.033893540781268553e-04,1.798575942581397222e-03,9.725893735885620117e-01
-5.547696344937705915e-01,-1.350716173676621557e-01,4.573223379323183568e-01,8.273814917859120821e-02,8.168580189002631192e-03,-1.826622067682834652e-02,8.929958343505859375e-01
-4.091262909827855232e-01,-4.504610976960586877e-01,5.472466135004756538e-01,1.782374224706369378e-03,-8.698909807036516936e-03,3.738167661758246864e-03,9.778382778167724609e-01
-4.423618296942794514e-01,-4.322941808958508658e-01,5.224331569630170646e-01,-1.628614701661355553e-03,-1.059052312587561648e-02,2.162813792661191000e-03,9.599874615669250488e-01
-2.453345493010853362e-01,-4.800271916504539327e-01,5.109228883641726560e-01,-1.599416506978854347e-01,-4.493437179144336990e-02,3.761813595904409807e-02,9.442142844200134277e-01
-2.493215829551369556e-01,-6.258520087589025671e-01,6.535530535721872925e-01,-3.127834524153217943e-01,8.050343219745949297e-02,9.256079659443074148e-02,1.278891324996948242e+00
-4.460375559609134899e-01,-4.315166095504082144e-01,5.203146267188761831e-01,2.820545292403823633e-03,-1.010810324811033979e-02,3.961228172160417664e-03,9.593709111213684082e-01
-1.927586192103102058e-01,-5.287121222767814377e-01,5.634912303050949589e-01,-7.877123935410622335e-02,-1.524018511895134168e-02,1.313668897088973459e-03,9.788565039634704590e-01
-2.566417895892715295e-01,-6.901474728510104129e-01,7.292074076729656573e-01,1.752306609586569142e-01,-1.060457780182088861e-01,-3.949320333241502362e-02,1.310622215270996094e+00
-2.802721531147705503e-01,-5.686621414532023744e-01,6.286330827898929385e-01,-1.266614162254564302e-01,3.170675548481515643e-02,-6.565742401517943305e-04,1.105686783790588379e+00
-4.465113518916796198e-01,-4.317538832438505003e-01,5.143807069263440779e-01,1.970865135407437734e-04,-1.085066562526457341e-02,9.790533343611762442e-04,9.537857174873352051e-01
-2.702790991753106775e-01,-5.859656501899146441e-01,7.140869524152565484e-01,-2.970587981475237838e-01,-5.557986397827860067e-03,-4.987570970700337669e-02,1.285174250602722168e+00
-1.726184255742411189e-01,-6.050901380272323271e-01,5.883392835701488632e-01,-5.460883074910018176e-02,3.035215685579549516e-02,1.716766626214189656e-02,1.052509069442749023e+00
-4.434700631544600813e-01,-4.386698052885217858e-01,5.403625906981531779e-01,2.648619324685316020e-03,1.385541223184921398e-03,-2.911076318442320978e-03,9.814679622650146484e-01
-2.534362629303054115e-01,-5.107969051100880176e-01,5.339358822976847385e-01,2.929425519201156285e-03,-6.459446733629482448e-03,-2.319803828641295827e-03,9.428653717041015625e-01
-4.366330366017506237e-01,-4.462349209298377972e-01,5.428776953512006731e-01,2.327365981061597054e-03,-7.954402920212513134e-03,2.633701764118613012e-03,9.844620227813720703e-01
-4.401419200772888063e-01,-4.350977423757653728e-01,5.253837864225638921e-01,-1.204868964038840508e-03,4.961807529162266892e-04,-1.513477837996823026e-03,9.630197286605834961e-01
-4.488776151387631752e-01,-4.047915468580837728e-01,5.277695475460619789e-01,9.663679979849390317e-04,-1.503792458330147162e-03,2.047841679983950555e-03,9.553789496421813965e-01
-4.261319635637586534e-01,-4.435433768549529865e-01,5.069021029787669219e-01,6.840130861843697792e-04,-1.139083569162184506e-02,-6.659866975481274279e-03,9.421384930610656738e-01
-4.355059073215217791e-01,-4.437049516867345722e-01,5.297380223021241896e-01,-3.524265817684073612e-03,-9.669003997798109561e-04,-4.025234911576503448e-03,9.694151878356933594e-01
-4.488403811847073155e-01,-4.338715074580321018e-01,5.281329866075529234e-01,1.403382841573943673e-03,1.484806441801274140e-03,1.174138104457794979e-03,9.695841670036315918e-01
-4.296649574012720296e-01,-4.289161130507054276e-01,5.442777385748550634e-01,-9.104559859834934071e-03,1.845013830554945947e-03,-6.915660163740141794e-03,9.737750887870788574e-01
-4.367865758456069281e-01,-4.458701147394750208e-01,5.394352780061153485e-01,-2.326134548889334693e-03,-7.160396871056275148e-04,-2.549027434913193717e-03,9.808141589164733887e-01
-4.225893421946891326e-01,-4.162645754773873219e-01,4.064766432884027170e-01,8.368233947220310096e-03,-3.847434337872367854e-02,9.488210682283240716e-03,8.288955092430114746e-01
-4.431091095003815705e-01,-4.379378304839403047e-01,5.379702006987752139e-01,1.260636006290369792e-03,-2.594686444696127706e-03,2.293543602426150081e-03,9.785247445106506348e-01
-4.019757824382504396e-01,-3.878708369000059553e-01,3.153658754368209305e-01,3.177826204747220395e-03,5.286399249730143468e-02,2.396672416175886847e-02,7.174937129020690918e-01
-4.333533146046134599e-01,-4.477623186148754209e-01,5.185507455088350648e-01,-3.948701189377068488e-03,-2.394687904105112335e-03,-1.160622791253063807e-02,9.594337344169616699e-01
-4.440989069812295020e-01,-4.385370681434768159e-01,5.444741473266071496e-01,1.486891493580551164e-03,5.350508895759700919e-04,1.344542531880270949e-03,9.858104586601257324e-01
-4.381738607638887562e-01,-4.393165482652556797e-01,5.461388512451442745e-01,6.872297241463748386e-04,-5.843460006937708194e-03,-5.042579790735064391e-04,9.849376678466796875e-01
-4.420475816542476233e-01,-4.409220415516377778e-01,5.520298603728364117e-01,1.885418771627737217e-03,-3.854742963835517235e-04,-5.737231337883586966e-04,9.935212135314941406e-01
-4.174393089873550400e-01,-4.254958845117282618e-01,8.683557184365151560e-01,-3.409229834936545744e-01,-3.176165476935836635e-03,-1.050643146345502620e-02,1.418710589408874512e+00
-4.338639863116791062e-01,-4.476683490048318226e-01,5.301763828559300507e-01,-1.583768849140600220e-03,2.624298882719041260e-03,1.056086869893162845e-03,9.710323810577392578e-01
-4.345391435333083585e-01,-4.507505820244395167e-01,5.290903516197283940e-01,-2.533252310091369842e-03,-1.754226703633571336e-03,2.333799542089413405e-03,9.718596935272216797e-01
-4.396271859009513450e-01,-4.320735579228115464e-01,5.470239857569066944e-01,2.492231658978325600e-03,5.661538080872428359e-03,1.132876689908945403e-03,9.829564690589904785e-01
-3.737145190391051863e-01,-4.248287644453625500e-01,5.373795213917272884e-01,-3.857488553114816338e-02,7.292729925161015037e-03,-7.813779156920438312e-03,9.402561783790588379e-01
-4.343107838209672722e-01,-4.279777049285888313e-01,5.486923025808376764e-01,4.623263296237182314e-04,1.421393589385437769e-03,-2.870860837392266458e-03,9.798679351806640625e-01
-4.423094896858705827e-01,-4.393041045729277339e-01,5.445404871099516209e-01,-4.503994428878702397e-03,2.483458833376326735e-03,1.689452373189483363e-03,9.853953123092651367e-01
-4.247998849034474445e-01,-4.315224805937420416e-01,5.448044668247657984e-01,2.470622570207326243e-03,4.896093858524017302e-03,3.678217324758229975e-03,9.730502963066101074e-01
-4.304039160564609445e-01,-4.395569357520058285e-01,5.456992396373423482e-01,-3.349230017434651294e-03,-8.168906376382102652e-04,5.965751058055306262e-03,9.807842969894409180e-01
-4.366272256379652994e-01,-4.249226029208161282e-01,5.473891134875106257e-01,3.219278247843968227e-04,5.617447700267954973e-03,5.521433433827474882e-03,9.783118367195129395e-01
-4.399070475079692732e-01,-4.394229343967274715e-01,5.433337851659469919e-01,1.685587144502171081e-04,-3.291738114149789229e-03,8.787594891357718239e-04,9.830166101455688477e-01
-4.328547878365039403e-01,-4.321681476295485824e-01,5.234160870806708887e-01,1.716859367296263549e-03,-3.974609364576135381e-03,-3.331966870539096546e-04,9.559573531150817871e-01
-4.212463922409384609e-01,-4.315281253967368502e-01,4.581790934098642909e-01,-7.786897558821581113e-03,-6.834322569737278502e-03,7.437771918513410435e-03,8.848869204521179199e-01
-4.123893143437180053e-01,-4.213321469404189834e-01,5.335150980595989578e-01,2.283447208626582584e-02,-3.344629917690897236e-03,-1.013766944415543094e-03,9.512492418289184570e-01
-4.352401734146480461e-01,-4.081579368393293272e-01,4.379127286867303681e-01,-3.188230422375072214e-03,3.776308810924897466e-03,-1.009413054903308699e-03,8.599760532379150391e-01
-3.768242100485419965e-01,-4.423559043380017597e-01,5.392281956277006350e-01,8.068955804037998558e-03,-8.951299544350791240e-03,8.373503026488643766e-03,9.508537650108337402e-01
-4.431915440333932810e-01,-4.422551600685780127e-01,5.483677258603806282e-01,-4.908280693221925284e-03,2.736501686668855581e-03,1.254532548585733090e-03,9.911415576934814453e-01
-3.894336705605992432e-01,-4.784154069135148624e-01,5.078895150423407001e-01,2.181857097696962566e-02,-2.773439167125814342e-02,4.640902434530426099e-03,9.469701051712036133e-01
-4.366824245536390925e-01,-4.366286244697896723e-01,5.161055543759796027e-01,-6.319413271165175670e-03,-5.609870440264039942e-03,3.803771991276998915e-03,9.528962969779968262e-01
-4.081366728533478150e-01,-4.419121551477850907e-01,5.445958261290477775e-01,2.567648039830875209e-03,-5.747874764285378947e-03,6.501546518365635546e-03,9.701879620552062988e-01
-4.436098079643659986e-01,-4.313498284324768783e-01,5.171472574944507850e-01,-1.264137190766821640e-03,-5.304819291631153802e-03,9.986258522086484315e-04,9.547343850135803223e-01
-4.297666917213546767e-01,-4.470061570572573251e-01,5.435590062259426647e-01,1.157439604800441515e-04,-8.418904959543194524e-03,2.661418808358908487e-03,9.821780323982238770e-01
-5.866645644727711550e-01,-3.106862827710994424e-01,8.541220520263481664e-01,2.787654710040815553e-01,-9.220558152548003969e-03,1.201576582680934438e-02,1.410043597221374512e+00
-4.373860635265944263e-01,-4.450116003254912522e-01,5.374060828373251608e-01,4.319525411460886470e-03,2.284769957451773977e-03,-4.796165569662729118e-03,9.786990284919738770e-01
-4.310236842980988414e-01,-4.418432875367641621e-01,5.422021359202755519e-01,-2.858564851812315849e-04,-7.099718092771135913e-03,-2.319654508877136054e-04,9.787579178810119629e-01
-4.383672277282520402e-01,-4.382723569275367992e-01,5.281621259798704449e-01,-4.342602689741847932e-03,-1.311603393368740303e-03,-2.748070960410941774e-03,9.665255546569824219e-01
-4.090327668745907252e-01,-3.993543981257500208e-01,5.307446872882791711e-01,5.785792098627331667e-03,4.390951034484385541e-03,-2.112783063376462520e-03,9.350676536560058594e-01
-3.885981452694059479e-01,-4.587538910346546372e-01,5.243434281557436405e-01,9.842317337267096622e-02,3.134817582861994245e-02,-6.189609693490707347e-04,9.666658639907836914e-01
-4.367451788973088500e-01,-4.441947118354557245e-01,5.309728734988000687e-01,4.458210170706813046e-03,5.946771049209961628e-03,-7.173768645392038928e-03,9.716289639472961426e-01
-3.546490371953228693e-01,-4.202823956717596232e-01,5.229438142013439483e-01,1.833733933063257104e-02,-3.149594863740366041e-03,1.383682712511531774e-03,9.127544164657592773e-01
-4.765130719857321728e-01,-3.536958967528683329e-01,5.412794221179335619e-01,-1.575931147454994602e-02,6.391159248008873410e-03,3.140509760375852916e-02,9.642663598060607910e-01
-4.326366388121365980e-01,-4.356856146969414478e-01,5.451517652326917096e-01,-2.630717754075979475e-03,-4.993948230301282175e-03,1.348712926298143398e-03,9.793680310249328613e-01
-4.308228004126160582e-01,-4.522563855924482956e-01,5.414900977565771933e-01,-5.421012346269581811e-04,9.365356253283456736e-03,-3.352901573008815021e-03,9.833562970161437988e-01
-4.483512351041388788e-01,-4.295666593964970192e-01,5.088270937104873992e-01,-1.059100156805306689e-03,-3.548764039137956156e-03,3.314693092410101393e-05,9.479473233222961426e-01
-3.801365726956473789e-01,-3.973683944579593508e-01,5.232819729356178451e-01,3.591717809267633982e-02,6.530959199585656405e-03,7.256176162828274767e-03,9.144318699836730957e-01
-4.125022820161450832e-01,-3.650498166259795729e-01,5.212333037664899082e-01,2.064919771797349771e-02,1.235073846428397367e-03,3.642685058795043160e-03,9.116629958152770996e-01
-3.858518148037817785e-01,-4.344766754071473502e-01,5.451695292318481378e-01,2.915218745545429882e-02,5.277626503051059681e-03,7.697100554643707820e-03,9.577299952507019043e-01
-4.327887667928034254e-01,-4.407506725172641304e-01,5.469717000885093716e-01,-5.699102300777054465e-04,-4.869032092266934245e-03,9.543300714813130348e-04,9.838036298751831055e-01
-4.165307508534887293e-01,-3.753795461966785707e-01,5.266599200929623636e-01,4.165923230882016132e-02,4.011324946935947329e-03,3.479132685790696164e-03,9.261639714241027832e-01
-3.871172001101550464e-01,-4.862800524430043736e-01,5.570999368741808011e-01,6.268350564961763793e-03,2.047115827560025240e-03,2.549835403155509272e-03,9.975773096084594727e-01
-3.341556611190172887e-01,-5.652620725318254769e-01,6.094349389379428716e-01,-2.900451248330463555e-02,-4.123328809677381107e-02,-1.645455679494558371e-03,1.081423044204711914e+00
-4.032450568039050998e-01,-4.108473189973154138e-01,3.863376920226928579e-01,-5.147296302772031394e-03,2.506134504101683279e-03,2.756414880230762410e-03,7.934875488281250000e-01
-2.995069795932913670e-01,-4.543409809066024652e-01,5.236671992643777696e-01,-6.059642573169884971e-02,-4.267123737204243884e-04,-5.461781040791936423e-03,9.165972471237182617e-01
-4.067927835372484036e-01,-4.558726124087257303e-01,5.394120209198219884e-01,-2.670595918907151759e-03,4.842974653803201572e-03,3.255409460115149772e-04,9.717221856117248535e-01
-3.504992146552202703e-01,-4.229705519849608075e-01,5.307460228125679969e-01,1.769246323003455246e-02,5.006267304534646641e-03,9.834301320729213741e-04,9.201779365539550781e-01
-4.030710410290688217e-01,-3.817667029446948357e-01,5.241912443426194335e-01,7.770720024889166307e-03,1.453593469021564628e-03,1.732479895902565119e-03,9.169029593467712402e-01
-4.233793486408482520e-01,-4.382902569894634448e-01,5.445231739200336873e-01,-2.190099743074763760e-04,-3.663805673191315206e-03,-1.902631117116309711e-04,9.754642248153686523e-01
-3.550621134267427093e-01,-5.511501082082528313e-01,5.921126846311725034e-01,6.580706374719637319e-02,4.936934579669997880e-02,-6.963062952369133973e-03,1.068536043167114258e+00
-4.257588224382870545e-01,-4.389642653986490783e-01,5.470891082041913211e-01,2.641693682981250627e-03,3.888779765289254904e-03,-2.346033082058462862e-03,9.795596599578857422e-01
-4.387556829301934025e-01,-4.405487569279526450e-01,5.514242596931439033e-01,8.438039282092001060e-04,-4.065144479051787524e-03,-3.728593497502954296e-03,9.911248087882995605e-01
-4.459579352139379504e-01,-4.370213984276030139e-01,5.320479220049236790e-01,5.690680370736972415e-03,2.522378641067517680e-03,-3.886949195729132341e-03,9.736513495445251465e-01
-4.452670068840419160e-01,-4.361870728439316003e-01,5.266633606127879563e-01,6.139660491891436346e-03,2.305980865469896279e-03,3.479206810437071931e-03,9.675078392028808594e-01
-4.021916473745926202e-01,-4.439572290460099824e-01,5.429911214808530451e-01,-4.573454887659818280e-03,-5.757538216999415377e-03,-5.571261857174616972e-03,9.668744802474975586e-01
-4.334684214222732090e-01,-4.405638243724808167e-01,5.099437454088353583e-01,6.874481241277762521e-03,-1.144792582053652703e-02,1.590153263483520818e-02,9.476625323295593262e-01
-3.370041192112088191e-01,-4.944177697277833405e-01,5.444940016369647084e-01,1.193814837599469240e-04,1.440211959575286860e-02,-5.205704934963541718e-04,9.701551198959350586e-01
-4.393058198709469120e-01,-4.409907944373028799e-01,5.497293457756096124e-01,-8.394285205253152610e-04,2.141201922316501079e-03,-2.394430434046726421e-03,9.898954033851623535e-01
-3.751258124908957714e-01,-4.493137328411991871e-01,5.375769553609178741e-01,1.530714539194150993e-02,-1.556483373062553938e-02,-9.014527561887520496e-03,9.528458714485168457e-01
-4.328911721611464758e-01,-4.453361506897217659e-01,5.468412787998702118e-01,-8.874674949805921777e-04,1.329133030018803466e-02,7.796315860753157828e-03,9.863761663436889648e-01
-4.392887072729510511e-01,-4.344738996666491770e-01,5.411034312032761973e-01,1.449166511546712754e-03,-5.014014339471818509e-03,-3.220723799973460727e-03,9.780513048171997070e-01
-4.140421634446720400e-01,-4.220276728485596873e-01,5.398173263115103593e-01,2.914156340104447854e-03,-2.267730890320724182e-03,1.406698334401023428e-03,9.579016566276550293e-01
-4.304315149625032588e-01,-4.204279389807205058e-01,5.450007073870406504e-01,8.419753351183447646e-04,6.434373276027981897e-03,1.383938380699145957e-03,9.705371260643005371e-01
-4.362670627327195350e-01,-4.336724153086523592e-01,5.481529493980271672e-01,-6.202939714561489818e-04,-1.770480869410884488e-03,-3.668597730524865430e-03,9.831511378288269043e-01
-4.069119879652088878e-01,-4.583079248041430631e-01,5.400676885937699678e-01,1.976747646908955276e-03,-5.776743720088042128e-03,-1.366309492972851355e-03,9.737558364868164062e-01
-4.344470547559903806e-01,-4.484469601962878249e-01,5.322397982910405112e-01,2.315485663949246650e-03,-6.000894695616590261e-04,-2.169410359820498572e-03,9.737783670425415039e-01
-3.971615514473205710e-01,-4.499634215075100641e-01,5.104860629270298045e-01,-5.960886741911971404e-03,6.847235453944337108e-03,6.446487581554855364e-03,9.353660345077514648e-01
-5.020773157010288701e-01,-4.521207504391150378e-01,8.584416454375147776e-01,3.300601478516230758e-01,-7.419134739847583343e-03,1.005316341872405407e-02,1.453557014465332031e+00
-4.079850645379382024e-01,-4.440451656715151962e-01,5.457201544282971328e-01,2.619863682962143489e-03,-5.735143112299534093e-03,7.294583154044109383e-03,9.723803400993347168e-01
-4.251318879833365094e-01,-4.339474408478756762e-01,4.710771226633906350e-01,6.643190494915286910e-03,2.680668580838808240e-03,-3.819577988018661024e-03,9.007589221000671387e-01
-4.447960906807793546e-01,-4.349552444943465823e-01,5.321684215097857162e-01,-6.882553350903400542e-04,1.348830340572344496e-03,-1.776071157253999912e-03,9.720898270606994629e-01
-6.607262968195257713e-01,-2.328120422310873683e-01,8.401357662991930653e-01,1.781362129927413496e-01,8.547354318301050510e-03,-6.535415713302389741e-04,1.374363541603088379e+00
-4.236219752869790356e-01,-3.025205289233172112e-01,5.372746205976471900e-01,-1.060415026838612412e-01,1.345071027838325509e-02,-1.453742679052988027e-02,9.254906773567199707e-01
-3.752331416172185463e-01,-4.193761545808771807e-01,5.242670273741873999e-01,8.929626088434816297e-03,1.172710268310101986e-03,-3.500556028161315881e-04,9.224963784217834473e-01
-3.825948032020442535e-01,-3.984267054702838040e-01,5.198146782358020745e-01,1.011707237521798815e-02,1.633440139091092268e-03,-1.325383703650086188e-03,9.106045961380004883e-01
-3.830944923463290297e-01,-4.728002569425857060e-01,5.468180845737887763e-01,5.516182942331237377e-02,-2.432323319475519774e-02,5.538256596911887188e-03,9.834624528884887695e-01
-5.452381268336903286e-01,-2.097600749514210161e-01,5.793052835105996223e-01,-4.934251025447792052e-03,-1.211473820107784004e-02,4.964119209371814501e-02,1.003887414932250977e+00
-2.446199653928813889e-01,-5.128675212386762938e-01,5.306656976340308196e-01,4.543610441995088109e-03,-7.265551627245607534e-04,-1.361925439245917141e-03,9.386491179466247559e-01
-4.472307250390261113e-01,-4.289610915217224041e-01,5.153409226852186942e-01,-5.847259448548827038e-03,-2.040201600329511963e-03,-2.349385438224856418e-03,9.536371231079101562e-01
-3.971660785465314647e-01,-4.179334960672805299e-01,5.356872407531063640e-01,7.084794432877399017e-03,2.328978110865156893e-04,-9.195003073084880366e-03,9.436227679252624512e-01
-5.314643382031227770e-01,-2.983700101104616031e-01,5.402606163340559764e-01,-8.782813990750855393e-02,-1.442972347267726385e-02,-4.986718214391500439e-03,9.884102940559387207e-01
-4.158070184778811518e-01,-4.419691340458353213e-01,5.422772378991185249e-01,-4.623637212432998161e-03,8.627904378547098657e-03,-5.613492284323047185e-03,9.716261625289916992e-01
-5.709300057186941224e-01,-3.907379190632978005e-01,4.889204906226575220e-01,2.505921768912948155e-01,1.435648916011866283e-01,1.120362646327277834e-01,1.119220256805419922e+00
-4.350877660712054729e-01,-4.980845758290582959e-01,8.526893154370759342e-01,3.321165832978788535e-01,1.548178361186681659e-02,2.310471648856036314e-02,1.441072225570678711e+00
-5.318827500306186895e-01,-3.114466874358721160e-01,6.256953674364365003e-01,-1.103304025196451960e-01,-8.899265349470072625e-03,1.097959832952446167e-02,1.081907987594604492e+00
-3.987806280031834794e-01,-3.539918642937373017e-01,7.798148325242204582e-02,7.445802111493941312e-03,1.080206911799176522e-01,-8.279304180896190912e-02,5.135079026222229004e-01
-4.027225498046302365e-01,-4.027600493458029507e-01,2.827002332233433668e-01,-7.804371451048125116e-03,1.797551186711123655e-03,-1.065794340136759777e-01,7.100000381469726562e-01
-3.101976638225605876e-01,-5.938214022307403139e-01,8.509816174335537164e-01,2.954288952258122825e-01,-4.617102011547975782e-02,-3.267861940262516141e-02,1.424623250961303711e+00
-3.888019221884128629e-01,-3.798652409394134843e-01,3.039510106333160877e-01,-1.105403905950091015e-03,2.286179364984867578e-03,2.808204528353295051e-03,6.883593201637268066e-01
-4.022173130268997254e-01,-4.515589144912234842e-01,5.462006490586364116e-01,-1.202865816303751818e-03,-8.799528064879307693e-03,-6.818982977118241695e-03,9.742196202278137207e-01
-4.023925401035973182e-01,-4.101037442651832010e-01,3.573492698180525950e-01,1.211389930071774370e-03,-1.502628820984354061e-02,-1.714142341720892998e-02,7.646495103836059570e-01
-3.697797268352727706e-01,-3.751240943572254904e-01,1.549695438903035405e-01,3.488384486319491551e-02,1.312385704939037986e-02,-3.651972842667082020e-04,5.313779711723327637e-01
-4.273788735293834185e-01,-4.284644783255676659e-01,5.455177538466838838e-01,3.526904508660287695e-04,-5.900422392609229634e-03,-3.183135385842553351e-03,9.735093116760253906e-01
-4.338296691617642975e-01,-4.493929585393679482e-01,5.315267447297664649e-01,6.919481411656132255e-04,-2.100322127785088887e-03,1.787758166184046527e-03,9.732438325881958008e-01
-3.997393090158942730e-01,-3.877920217694644789e-01,2.269211322528189023e-01,1.068115892948282297e-01,-1.903443196201964720e-03,-1.050485212939632484e-01,6.728311181068420410e-01
-3.201903588793557631e-01,-4.866988599642329549e-01,5.430673697350054674e-01,3.623275406082684946e-02,-8.766496303774731422e-03,4.019587201995580665e-03,9.596333503723144531e-01
-3.928568531657924967e-01,-4.788173992108136212e-01,5.522752866717909326e-01,5.793638193832065242e-03,-1.527406952341864993e-02,2.816114611101899756e-03,9.913285970687866211e-01
-2.524065346296854861e-01,-5.026769535693302871e-01,5.361698938007500859e-01,2.555080123402941536e-02,9.992356156947495779e-03,4.725165575322841371e-03,9.403033852577209473e-01
-2.963246078071743450e-01,-4.853620096738873735e-01,5.471824136410706751e-01,1.357009051180771593e-02,2.211228073460988486e-02,-2.208617618998503888e-03,9.532720446586608887e-01
-2.721867878810370622e-01,-5.006034230799003559e-01,5.327726416654866570e-01,2.171950633336585529e-02,-8.436315436614808330e-03,5.928326870804960730e-04,9.410790205001831055e-01
-2.569913331510383370e-01,-5.338355514451134098e-01,6.260101808068876394e-01,1.374680012948405472e-01,1.754344463096648571e-02,6.677676092211465297e-02,1.082488536834716797e+00
-4.334234030311623909e-01,-4.463735869715440563e-01,5.303162766598974454e-01,2.815635819856455654e-03,-2.296978028971766259e-03,9.630055936836439800e-04,9.703014492988586426e-01
-3.214326649317533757e-01,-4.556683115411326312e-01,5.253171593575433063e-01,5.348516060286657992e-02,-1.008590692304164481e-03,8.934181099480282759e-03,9.260091781616210938e-01
-3.036832977730538619e-01,-4.451150978455674645e-01,5.224884651532873958e-01,3.842129112292324428e-02,-3.165417529651826101e-03,3.211791942430484211e-03,9.076889753341674805e-01
-4.352947726272692330e-01,-4.351860364962825134e-01,4.996966064160259791e-01,-5.542667011811829546e-03,-1.302982830189721580e-02,-9.796774223735787990e-03,9.354125261306762695e-01
-4.669485328903945631e-01,-4.417454478811072560e-01,4.345823229586998071e-01,4.460261048287273572e-03,5.988836060294235042e-02,5.034884121025877401e-02,8.994978070259094238e-01
-3.511154931451300198e-01,-4.761452701163438883e-01,5.497848460484414668e-01,-4.239656629501098450e-03,-6.898569047549880928e-03,-5.385262222442043119e-03,9.696272015571594238e-01
-3.164303706933003779e-01,-5.060414986391472691e-01,5.486670965404601974e-01,-2.030806647273214645e-03,-1.458058104289383303e-02,1.631772085827201766e-03,9.741849303245544434e-01
-5.088799405970587664e-01,-2.009058771579484981e-01,2.494342546973704611e-01,-2.456459263376613647e-02,5.066587174362606472e-02,6.381304445230522038e-02,6.768124103546142578e-01
-4.193983635747106642e-01,-4.245415752874671655e-01,5.422067400590880881e-01,-4.355218768737350796e-03,-2.426085927165469100e-03,-8.596206213991038764e-03,9.643406271934509277e-01
-4.711235545370588973e-01,-3.558864512424570470e-01,5.353675642938287016e-01,-6.090399320337944351e-03,5.861311686530918177e-03,-8.468399337304175628e-03,9.543313384056091309e-01
-4.244131616624521874e-01,-4.048453860918322378e-01,5.395961281221038908e-01,-4.601701876399058935e-03,7.104271653526780111e-03,-8.017586018018661373e-03,9.545894861221313477e-01
-4.329942534605090154e-01,-4.264032913445812145e-01,5.473330442502422066e-01,-2.733049141658584150e-03,5.165272154500273084e-03,-6.116596863116859420e-03,9.771583676338195801e-01
-3.998987935010258066e-01,-4.055532369422002459e-01,5.281458576200884769e-01,1.799744000689736719e-03,-1.405774747232555388e-03,1.077530402205354029e-03,9.308950304985046387e-01
-4.481068404290483587e-01,-4.328856116760200767e-01,5.365782133081359317e-01,-2.401700097715047527e-03,-3.892868811363245536e-03,1.383158004485761025e-02,9.774891138076782227e-01
-3.988623292503749584e-01,-3.921301933777356363e-01,5.257134736369811767e-01,-1.044241188664553864e-02,6.562024705883960293e-03,-4.566046269431071024e-03,9.215097427368164062e-01
-4.323098947962756844e-01,-4.440983057920739885e-01,5.208265009779684540e-01,4.476298663233133426e-03,-1.548236095815344517e-03,-1.234601115903588391e-02,9.593583941459655762e-01
-3.770209543996246304e-01,-4.459629210880413641e-01,5.443416960163379725e-01,8.676832097520887840e-03,-7.939795442943516426e-03,7.247649386293865056e-03,9.579954147338867188e-01
-3.503910326153463206e-01,-4.174227153802926304e-01,5.186592636699728365e-01,1.962152849435385565e-02,-1.205533970232204643e-03,-1.715040332126658348e-03,9.050766825675964355e-01
-4.302801537219731465e-01,-3.925273359762979641e-01,5.441042510393971909e-01,2.913493761587539199e-02,-6.271574782158622838e-03,-7.356471211761349618e-04,9.574605226516723633e-01
-4.344548141550454989e-01,-4.406754099029034366e-01,5.259863650955327596e-01,4.301846050259641838e-04,-4.386888982209913041e-04,1.379692887109581177e-03,9.635700583457946777e-01
-4.197236899035699520e-01,-4.091873547968580827e-01,5.405326291398752092e-01,2.862843913189789397e-02,1.771392106530318093e-03,2.609773838444334922e-03,9.563337564468383789e-01
-4.233506245679967139e-01,-4.397899960169203148e-01,5.495961997056851844e-01,1.418259293327056277e-03,4.177799027216032648e-03,-6.826658539597820624e-03,9.813708066940307617e-01
-4.248201330665136721e-01,-3.900001346629087817e-01,5.416457634797531284e-01,2.072755981160697564e-02,-4.744192558668672462e-03,-2.102642108083295838e-03,9.502558112144470215e-01
-4.624198102381335551e-01,-4.116042551704622299e-01,4.348985086334307137e-01,3.637511422096885438e-02,-2.658477809888890736e-02,5.618279363316311392e-02,8.818865418434143066e-01
-3.910274936241531774e-01,-3.634508750958662660e-01,5.216717564783309724e-01,1.074161333910090277e-01,4.519872986080087675e-03,1.574326657788920752e-02,9.187114834785461426e-01
-4.342418369508264098e-01,-4.388324261132625081e-01,5.470012582038114024e-01,5.031675291211846947e-04,4.494158373615340756e-03,-1.644894183474854710e-03,9.835817217826843262e-01
-4.424198724200511523e-01,-4.434942987596746100e-01,5.542523141976551937e-01,4.726625702443288573e-04,1.157800784917743060e-03,-1.098681109504430270e-03,9.972140192985534668e-01
-5.325559860452241390e-01,-1.994827908378799530e-01,8.437482833096960899e-01,1.851934176336725579e-01,6.156712413365131309e-02,-1.295875621297186142e-01,1.308197736740112305e+00
-4.025560918970345070e-01,-3.841159303054424989e-01,5.224870027825799790e-01,7.495550359000235051e-03,1.162250173740350103e-03,-1.357478193528810452e-03,9.160594940185546875e-01
-4.414502969588439685e-01,-4.419548993529521241e-01,5.543859496269053500e-01,-1.274494983121735535e-04,-7.678620946069364493e-04,1.892172010412370123e-08,9.960895776748657227e-01
-4.406302427897039187e-01,-4.433451368191137498e-01,5.514011067393833621e-01,5.998432221049382514e-04,3.129185559420629217e-04,-9.744570543582292601e-04,9.933937191963195801e-01
-5.374618986593022729e-01,-3.233683639623977646e-01,8.380663541333329691e-01,2.936104483373557228e-01,-3.833236446018815219e-02,-1.804765887722147022e-02,1.381096959114074707e+00
-2.116010342957875823e-01,-5.650090997191098419e-01,5.462351089057658760e-01,-3.690202328970801360e-02,-6.760206933340255284e-03,-1.067833825964840250e-02,9.856991171836853027e-01
-2.995416020711832439e-01,-4.865630181218194017e-01,5.396612703433196767e-01,1.330138282228046816e-02,1.360887016894790765e-03,-5.539655866056722097e-03,9.470036029815673828e-01
-3.420549401574845549e-01,-4.425584988564604805e-01,5.246334422927930730e-01,1.511936617949955451e-02,3.112415438363738858e-03,-6.323094488830905899e-04,9.214504957199096680e-01
-3.418029366354954357e-01,-4.797067619427111129e-01,5.439178714631854872e-01,1.073393177580422159e-02,-1.317995624602246243e-02,1.064501366584907731e-02,9.627407789230346680e-01
-4.654310685280347304e-01,-3.415131620561266401e-01,4.146742448867074549e-01,7.899981025302793558e-02,-2.495903088149743071e-02,-1.459847490270787043e-02,8.379208445549011230e-01
-4.500657505632720268e-01,-4.309106702852418258e-01,5.248639001814930927e-01,-7.293336504414064426e-04,-1.443751875502220262e-03,-1.074732358542492688e-03,9.655004739761352539e-01
-4.379982943485358771e-01,-4.387830334586485526e-01,5.513967926948077913e-01,-3.810023256362675393e-05,2.383519317584313624e-03,-1.016221577040714243e-04,9.897963404655456543e-01
-4.432935056116867889e-01,-4.407167974130963284e-01,5.518855227712157197e-01,1.458900193988331212e-03,7.084977124315258723e-04,-1.572092469763008526e-04,9.938971996307373047e-01
-4.921522716895937455e-01,-3.240881089306397178e-01,5.421429742452340550e-01,1.931723678441676223e-02,-2.120822124527214133e-03,7.365177277330640319e-04,9.619349241256713867e-01
-4.795209927770119895e-01,-3.622473922528282042e-01,5.570203230914729797e-01,3.384502811119119523e-03,8.059637900085932574e-03,-1.535494525036767977e-02,9.836404919624328613e-01
-2.894975717840720941e-01,-7.388221237391204843e-01,5.420508114430739877e-01,4.457106463067476987e-02,-6.630387468785325922e-02,-3.806771752471746484e-02,1.136000037193298340e+00
-5.129109234301141296e-01,-2.701689127179836558e-01,5.492880689967959418e-01,1.560108262997720110e-03,-4.312900237856048813e-03,2.446784284141355348e-02,9.649918079376220703e-01
-5.776764801605241972e-01,-2.322152088280857729e-01,5.527360813031622078e-01,1.496941804302536795e-02,1.648856496328073365e-02,-1.743151793000023708e-02,1.004520654678344727e+00
-5.687584741772555574e-01,-3.048961980361379887e-01,6.229902947589341933e-01,-4.516719561884770251e-02,1.563841943212803190e-02,1.499070346923233807e-02,1.087639212608337402e+00
-5.091109874914152567e-01,-2.451572671907000234e-01,5.400720875867411896e-01,2.436320454377131559e-02,8.890649550688703440e-03,-2.422617166293515589e-02,9.472589492797851562e-01
-3.739860891380785146e-01,-4.137278556484623171e-01,5.255773367174370048e-01,-9.402176240083024578e-03,4.672887630471603715e-05,-5.045319278301813384e-03,9.202638864517211914e-01
-4.136857732987116454e-01,-4.173512354555745096e-01,5.390660819603010356e-01,2.253758659818924995e-03,-5.972510104183494616e-03,-5.779794696897091674e-03,9.547063708305358887e-01
-4.441029355501838194e-01,-4.312164357221342503e-01,5.166834923279665093e-01,3.448315494257927962e-03,7.492541791689922084e-03,-3.164027842539990712e-03,9.545310735702514648e-01
-3.815416394913738740e-01,-4.298832513004388067e-01,5.363190496308919419e-01,7.812698046951220554e-03,6.254222289854104513e-03,-7.398216475687675875e-03,9.432076811790466309e-01
-4.150296488252522287e-01,-3.991685044872170796e-01,3.889830791080464145e-01,-1.986453680814333298e-03,3.301187250637627538e-03,2.828479479086145384e-03,7.962436676025390625e-01
-4.143905340802833126e-01,-3.751822914301106149e-01,5.275883347992574857e-01,-9.702947384979537793e-03,-5.536903663090745643e-03,4.704515255046946495e-04,9.232026934623718262e-01
-3.923879252229546810e-01,-3.931997049463213934e-01,5.246729111309172966e-01,2.319042419083427314e-02,-4.762431833930152927e-04,7.188187747544715978e-04,9.183470606803894043e-01
-4.347750026459286654e-01,-4.250289884622871495e-01,5.528876619075602239e-01,9.916441999808024363e-03,-9.491103971324578795e-03,-5.210568450485259830e-03,9.831548333168029785e-01
-3.584624529076732014e-01,-4.134189612105050315e-01,5.202154190960942559e-01,2.246044252619941797e-02,-4.937827209913358065e-03,-2.752322653326209293e-03,9.082914590835571289e-01
-4.012747542997098793e-01,-3.897094509071872825e-01,5.223633753897942711e-01,-3.193688020101375941e-03,2.110636416473565206e-03,4.457342606772598734e-04,9.179344177246093750e-01
-4.155536850559204409e-01,-3.878864497397002675e-01,5.286358021131369878e-01,-6.212859140262783422e-03,5.093035920950310901e-03,1.007919769516772918e-03,9.307700395584106445e-01
-2.201483500951389449e-01,-5.846588028019090721e-01,5.643588390902181118e-01,-7.614791527142497629e-02,-6.298438975660099540e-03,3.734359402401014015e-03,1.025591015815734863e+00
-2.531507207049831787e-01,-5.270766607351211608e-01,5.379682439767997648e-01,1.807745271656589076e-02,6.205650972711638722e-03,-8.934891432586270985e-03,9.586178064346313477e-01
-4.859746120163715433e-01,-3.313426264795157339e-01,5.477329694794060844e-01,-4.033139834486283389e-04,-2.050797150646697410e-03,-1.695863709398127278e-02,9.661749601364135742e-01
-2.903263932775526635e-01,-5.040032381902239678e-01,5.527416647717374731e-01,-1.356082778611371331e-03,-9.042503844121665274e-03,1.623831082532964896e-03,9.678968787193298340e-01
-2.880418314243375355e-01,-4.884299635792594962e-01,5.550242465163905958e-01,-2.830316030518789661e-02,-3.258780596349947906e-03,1.458670864650049928e-03,9.603633284568786621e-01
-2.466021028102522994e-01,-5.098901009227725378e-01,5.470422420032273747e-01,-5.160014262085686060e-02,1.471840641779639932e-03,4.632297547610146962e-03,9.571872949600219727e-01
-3.977554156724317225e-01,-4.162959986354722863e-01,5.352837152178819835e-01,-7.509143852753802709e-03,-1.485102113990951686e-04,-1.030592886248593749e-02,9.427049756050109863e-01
-3.830690996087193767e-01,-3.951934008827689970e-01,5.184507836861870222e-01,-1.100991652253279635e-02,1.268001921722425752e-04,-7.538437524119118811e-04,9.078440666198730469e-01
-3.954129417944252101e-01,-4.103042874097748149e-01,3.742710391165249284e-01,-3.085691783152921953e-06,1.816277603497130130e-03,-3.603240052472148763e-03,7.772680521011352539e-01
-4.253328354066925332e-01,-4.331668743856099124e-01,5.298130520030049917e-01,-1.422226451010769575e-02,-5.652151170083345201e-03,-1.325357078427665068e-03,9.594559073448181152e-01
-1.924733014522131136e-01,-5.268765993381432367e-01,5.363176142896772802e-01,-2.434245105605302786e-02,-1.076426735229037319e-02,-4.860042392820956500e-03,9.427979588508605957e-01
-3.548122892432318265e-01,-4.565057532898754711e-01,5.383857585773493826e-01,-4.541124261614101071e-02,8.050579176942853146e-03,1.055054667183126169e-02,9.516783356666564941e-01
-4.319965252781765019e-01,-4.124301612214388846e-01,4.270854954682460347e-01,5.046544194470340035e-03,1.131870383542499595e-02,-1.623923510053729494e-02,8.502044081687927246e-01
-3.456984911802764571e-01,-4.429342885290357690e-01,5.274123485636065256e-01,1.329727906037072097e-02,-5.022383074443351712e-03,6.291225806724253487e-03,9.259588718414306641e-01
-4.499400887462673415e-01,-3.854648990625226257e-01,5.493993334003574036e-01,-5.098415739827325682e-02,-5.972809647574016910e-03,-9.144156016553968772e-03,9.729130268096923828e-01
-4.510814625733745586e-01,-3.785934817699394550e-01,5.433718342593034656e-01,-1.436611178896330006e-02,-6.495927887707472065e-03,1.774426998620269591e-02,9.611431956291198730e-01
-3.939074928853498747e-01,-4.597143901045149805e-01,5.459328735269567412e-01,-5.586215296930409357e-03,-1.420819143060575093e-02,-8.327291579151316434e-04,9.747716188430786133e-01
-4.585529065379519431e-01,-3.521367101629523932e-01,5.522939450216283186e-01,-3.080914036817784113e-02,-8.696281346278277036e-03,-5.784322816992715395e-03,9.637116789817810059e-01
-3.467891268029006380e-01,-4.459326839812402521e-01,5.383040026858673111e-01,1.334440116895319571e-02,-4.479890071463619138e-03,3.592399363141753565e-04,9.389171600341796875e-01
-3.369677025581233054e-01,-5.574381371419501185e-01,5.804696145248129380e-01,-4.316935146293306158e-02,-3.639263678886055231e-02,4.949115150829148241e-03,1.049858927726745605e+00
-4.487663861776298169e-01,-4.264799813579932541e-01,5.083164235577249945e-01,-3.297547174751196651e-03,-2.452304478942845655e-03,-1.490490490916556885e-03,9.461667537689208984e-01
-1.306115210950827832e-01,-5.586387380695683191e-01,6.000666925766647841e-01,1.470743403461097776e-01,-2.581076746761720025e-02,-1.829070547757795373e-02,1.047732234001159668e+00
-5.313670325823904861e-01,-2.516251312276878149e-01,6.689790965128636913e-01,1.435897154064374737e-01,2.963236487291390914e-02,8.508747756647760951e-02,1.126724123954772949e+00
-4.111764223390437234e-01,-4.503211443449626206e-01,5.384911223449676543e-01,3.805267931491103199e-03,-8.654250807190158948e-03,-3.996483889503939582e-03,9.699954986572265625e-01
-3.498698527081437470e-01,-4.726533335494890187e-01,5.377490477394885060e-01,-1.225962365660346332e-02,5.950364718492065844e-03,-1.194741539497518089e-03,9.552431106567382812e-01
-3.928940674607924732e-01,-4.774333484826442930e-01,5.739431117732806120e-01,-1.608632941499954505e-02,-1.453509540821979959e-02,7.015951395756879830e-03,1.012528777122497559e+00
-3.293868267572701569e-01,-5.124048766537137034e-01,5.573977565253354083e-01,-1.244820371291193925e-02,-1.942125329923576060e-02,1.894179399248548459e-02,9.923975467681884766e-01
-2.815442830843535860e-01,-4.874802780330866336e-01,5.307979404609022289e-01,1.253915772117783663e-02,-9.106493155548171792e-03,4.412946232310649940e-03,9.329410195350646973e-01
-2.924465800302814555e-01,-4.837701804143872963e-01,5.376218340293638098e-01,-1.203313990147347572e-02,1.814827460730297770e-02,-5.937720458162955338e-04,9.411979317665100098e-01
-4.386135515171720178e-01,-4.356658679060780859e-01,5.086598987650127190e-01,9.800104049406704876e-03,-4.184527398449227990e-03,4.636607049026586665e-03,9.460172057151794434e-01
-4.390138917627683934e-01,-4.417935273091078696e-01,5.495500444118132100e-01,1.764782977209939600e-03,-3.766035392490989730e-04,-3.929542080878236027e-04,9.899618625640869141e-01
-4.461882489903121751e-01,-4.341764645075644746e-01,5.308563560071241083e-01,2.833480302465654719e-03,-1.251570703717135155e-03,2.057873379180195483e-03,9.711157679557800293e-01
-3.431096087988015353e-01,-4.445171445624619411e-01,5.256039114139068325e-01,-1.175619706991682702e-02,-2.238051121944095896e-03,-6.153054173190652823e-04,9.238352179527282715e-01
-4.355384248181472517e-01,-4.426957399442942309e-01,5.294775735953316520e-01,2.525427843516169467e-03,-1.474839064883510815e-03,3.657894752864819174e-03,9.686484336853027344e-01
-2.527575131513036255e-01,-5.178290818795081574e-01,5.368046127067465090e-01,1.644272216532919153e-04,-6.914797511022018409e-03,6.684187438619786830e-04,9.503192305564880371e-01
-3.494970113729709560e-01,-4.773206508857435471e-01,5.450197948193942210e-01,-8.877775099489927657e-03,1.141148295550322225e-02,1.057717830885584673e-02,9.652990698814392090e-01
-4.249902849571143282e-01,-4.370706496151123832e-01,5.575904220959967406e-01,-2.388357643795226484e-02,-3.437645162371618344e-03,-5.439949549873803955e-03,9.896040558815002441e-01
-4.371711183329591854e-01,-4.423271801299854533e-01,5.334849147492073396e-01,3.419961889261703344e-03,2.048143066053538172e-03,5.903644582929531461e-03,9.733225107192993164e-01
-4.393525518764126447e-01,-4.445900952657557137e-01,5.450041367468614339e-01,2.303782674373750297e-03,-9.924779248708329865e-04,-7.506170909958940606e-04,9.869962930679321289e-01
-4.319219249746412137e-01,-4.415004601256169448e-01,5.127817487058913271e-01,5.219900416616805698e-03,3.191061743739463490e-03,-5.154451790678729953e-03,9.496302604675292969e-01
-4.174371503931754712e-01,-3.698785517097394893e-01,5.250190262794351970e-01,-7.705182295702316456e-03,1.732656969335217949e-03,8.957157145568766122e-04,9.197027087211608887e-01
-4.434354666074048490e-01,-3.919289525488607873e-01,5.016723219377939857e-01,-7.200242558127067059e-03,-1.674985692383191007e-05,-7.005755469092037361e-04,9.205213189125061035e-01
-3.993849698987572139e-01,-3.757662527009177911e-01,5.472824279276348181e-01,-1.117160728132590986e-01,-2.206979939837684646e-02,1.500747117628293409e-02,9.560105800628662109e-01
-4.205393795652990208e-01,-4.101372617610593019e-01,5.456333474528793914e-01,-6.877331864715374721e-02,-1.137300774916058868e-02,-1.069146731494030091e-02,9.687455892562866211e-01
-2.991799158539225068e-01,-4.842254240238123009e-01,5.399273676311490133e-01,-1.246422221676561463e-02,-7.116827080953836999e-04,-4.744862869303542209e-03,9.455956220626831055e-01
-3.198409738651957213e-01,-4.818616154522764039e-01,5.383489745703416984e-01,-1.273272088134525144e-02,1.976564363967667735e-03,7.013854099957562982e-03,9.499635696411132812e-01
-4.002177316544303642e-01,-3.896409080432402527e-01,5.203522118512543537e-01,-5.268690011022623271e-03,1.111247777561980184e-03,1.406451543515850405e-04,9.153749346733093262e-01
-4.101263045550584962e-01,-4.221096528054730235e-01,4.136301272015293629e-01,6.799329306205658709e-03,-1.299224765006819216e-02,1.927677244891611713e-02,8.308727145195007324e-01
-3.679603271892961658e-01,-4.516580660176727768e-01,4.588547471545418865e-01,-9.171413343410057123e-03,-1.089795315299549663e-02,-7.265831438860583663e-03,8.721227049827575684e-01
-3.588100595985321273e-01,-4.538682893357892101e-01,5.394332011307119146e-01,-1.223778445027442867e-02,-7.848660404962005260e-03,-4.476041287709622667e-03,9.497140049934387207e-01
-4.259430731770301182e-01,-4.109443403876593681e-01,4.068180963978768050e-01,1.293885048126705746e-02,-4.550850391381376647e-02,4.950047687280334160e-03,8.294664621353149414e-01
-4.241312155821537755e-01,-4.415774176771932180e-01,5.354038620158503292e-01,5.912045196371849522e-05,8.426772480811193719e-03,-2.316184204404741608e-03,9.684943556785583496e-01
-4.174790572647966713e-01,-3.740864018617809927e-01,5.227138685279298924e-01,-8.890096911628165427e-03,5.033650989987590359e-04,-1.190130973776006192e-03,9.193966984748840332e-01
-7.079127454956973819e-01,-1.578841988331032287e-01,6.781036958526690528e-01,7.574353004460537830e-02,5.110318855828482887e-02,8.428632635637599291e-02,1.227836608886718750e+00
-4.124273214898052098e-01,-4.239503842980841264e-01,4.174925196915177938e-01,9.140343878989168336e-03,-1.652502212537661913e-02,2.456352342499858524e-02,8.374621868133544922e-01
-3.493448721783397604e-01,-4.680163756325066426e-01,6.566754635606214530e-01,1.505913871964180695e-01,-2.113762401339555619e-02,-9.607673898254545999e-03,1.102359414100646973e+00
-4.165481882420102866e-01,-3.743317087046558744e-01,5.286593013158688015e-01,6.641477257258702853e-03,-2.192965609700490027e-03,2.335401136279354091e-03,9.249103665351867676e-01
-7.229463046803225046e-01,-2.950159940754230048e-01,6.387179507645801557e-01,8.208919235852669971e-02,1.574254594557530917e-02,1.063896757613220501e-01,1.228605747222900391e+00
-4.329068209900972519e-01,-3.879904241730887660e-01,3.035416169637148442e-01,-6.813718779085705529e-03,1.873606506630179011e-02,5.845363362850004851e-02,7.230062484741210938e-01
-4.058436915481906104e-01,-4.191017326648557306e-01,3.933793380796596351e-01,9.204951656929158052e-03,-1.120968034981333593e-02,2.795893984712857078e-02,8.077781796455383301e-01
-4.704034333210983521e-01,-4.337967870018767935e-01,5.358333557588675911e-01,5.334360704617964466e-03,7.863409864126867307e-03,1.141885028730645589e-02,9.887768030166625977e-01
-3.906346019267866732e-01,-4.040469378354143437e-01,3.492341914793022362e-01,-2.699557092716743569e-03,2.085526324542007551e-02,-1.488851141710264420e-03,7.475576400756835938e-01
-3.762589246809627808e-01,-4.142472317506404322e-01,5.264966049583161833e-01,1.029435748953586895e-02,-3.051352917319798803e-05,-5.919938604195756383e-03,9.225659370422363281e-01
-4.231863656994607759e-01,-4.422223905245297182e-01,5.509349838836372637e-01,7.002672012937968121e-04,3.945258584049157226e-03,-5.998740618463537129e-03,9.838568568229675293e-01
-3.957917632026542454e-01,-4.268687994690526510e-01,5.348828617339588254e-01,4.565704276636158715e-03,1.462517477191747038e-03,-1.771803191157316718e-03,9.466372132301330566e-01
-4.048172329539840297e-01,-4.031811357887706837e-01,3.648687543680405598e-01,7.493391366433052592e-03,-2.017305062226671178e-02,2.768628014083871955e-04,7.697723507881164551e-01
-3.969647084590232633e-01,-3.932873845634647925e-01,3.146031189672806594e-01,7.377874137990641894e-03,-2.118479472237481259e-02,2.279345977672535273e-02,7.118946313858032227e-01
-4.370663843746497301e-01,-4.197642382955503737e-01,5.476146297384676398e-01,-6.572442635097563469e-03,-3.302939126969658273e-03,-3.455977992774113619e-03,9.762464165687561035e-01
-4.251276445912841040e-01,-3.606880049459549875e-01,3.058748312210205489e-01,-3.165715330960279517e-02,-4.453330678950275651e-02,8.364596340628069338e-02,7.220510244369506836e-01
-4.039507907254397123e-01,-4.261626489051825728e-01,5.380358306905267396e-01,2.523101733890459070e-03,-7.007327274985757082e-03,-5.838694387692553583e-03,9.534275531768798828e-01
-3.786698914224376766e-01,-4.399269958632864852e-01,5.403951859098651278e-01,9.210569575415331750e-03,5.003509510311495052e-03,-9.139320178573943215e-03,9.514791369438171387e-01
-2.926788579192954320e-01,-5.092870678190111189e-01,5.408047404639226841e-01,3.628512662604836854e-03,1.400779127503926774e-02,2.406312395989059112e-03,9.606242179870605469e-01
-4.174591026063652066e-01,-4.507706740886041619e-01,3.142967178366482539e-01,-7.812173579117410657e-03,-5.033152125772865151e-03,-3.826844369702127324e-02,7.520669698715209961e-01
-4.429524294187969780e-01,-4.324653024278396485e-01,5.177074777776785597e-01,7.819692193439840150e-03,-2.581541290253668887e-03,1.929168626579001126e-03,9.555718302726745605e-01
-3.825398230635870811e-01,-4.513535240783526081e-01,5.404147405361573453e-01,-5.326900412655799152e-03,7.132505343815011972e-03,-5.557513910244727719e-03,9.593866467475891113e-01
-4.368777413900553630e-01,-4.372607914793662509e-01,5.078398463816833353e-01,-9.377181869106552409e-03,-5.573542891184200126e-03,-5.273228053465103468e-03,9.451422095298767090e-01
-5.920555909944715811e-01,-1.489648131788297025e-01,6.272133538783135620e-01,2.017089750397645792e-02,-3.814915124347389996e-02,1.099440520715961045e-01,1.088369965553283691e+00
-4.484146279767032839e-01,-4.276830847636439725e-01,5.073108348166470716e-01,-3.945558996880511025e-04,-2.898335556515970607e-03,3.223551619206825093e-04,9.455438852310180664e-01
-5.604784952650606611e-01,-1.998885649200421999e-01,5.537405174477763037e-01,6.625815869090806443e-02,5.429790702912435166e-03,5.128287321620563985e-03,9.914992451667785645e-01
-2.347710456496175935e-01,-5.180370267648944926e-01,5.847077428021821843e-01,-8.712818845905538623e-02,4.196744657083213009e-03,-1.301967520783685068e-03,1.003368020057678223e+00
-2.452393557839089855e-01,-5.286196097172757291e-01,3.138124527156316290e-01,6.688355367759332704e-02,-4.262368628208922788e-02,6.363734535216783450e-02,7.630774974822998047e-01
-5.175276952473332193e-01,-2.360983516620204781e-01,5.494906889401734995e-01,5.614087734480081165e-02,-6.616251464443915695e-03,-7.126028312351418564e-03,9.629015922546386719e-01
-2.600329762069336637e-01,-5.055828921208797011e-01,5.394554514281640900e-01,-5.882375117326905586e-03,5.167221127144462980e-03,-3.045337763224495280e-03,9.465740919113159180e-01
-5.189928377926666947e-01,-2.668610916751601447e-01,5.597363616375098383e-01,1.943628755616804218e-02,-2.990973461415524347e-03,-6.280351185268023134e-03,9.780203104019165039e-01
-2.948046523534350039e-01,-4.904985895777442817e-01,5.353865269635361690e-01,-1.629031105736436719e-03,1.397940665105699282e-02,-7.389535501976182003e-03,9.437875747680664062e-01
-3.866996563928624120e-01,-4.502834265362684052e-01,5.179392702874920928e-01,-1.848488256529930845e-02,-9.978249918813736699e-03,3.530078613820362456e-03,9.387736916542053223e-01
-4.159449589665468183e-01,-3.984599219470245646e-01,5.360372587038062520e-01,-8.304042851368445555e-03,-1.078281614930408881e-02,-6.680811799768485854e-04,9.436564445495605469e-01
-5.363080195811585904e-01,-2.357655482751397913e-01,5.560059061856781337e-01,1.179274747608150854e-02,6.500809055264985484e-04,-5.232483758884911088e-03,9.775936603546142578e-01
-3.737576350863316410e-01,-4.132736359795762815e-01,5.216898450578162372e-01,-9.328707311530064217e-03,8.765860005202155431e-04,4.895415371099755275e-03,9.160280823707580566e-01
-3.209739473393438680e-01,-4.805491151935714078e-01,5.446428313682696309e-01,-1.353688710387779097e-02,5.685063881117500759e-03,1.334968395314272381e-03,9.557926654815673828e-01
-4.436906213278776767e-01,-4.385333655232186434e-01,5.402158784545717518e-01,2.531372055358832585e-03,-1.224185789765540973e-03,2.599260743522099730e-03,9.813604354858398438e-01
-3.852028295046460160e-01,-3.870464908197520093e-01,5.196405583670028472e-01,-3.027563740992075120e-02,3.060984177316049314e-04,3.131053593396909696e-03,9.072996973991394043e-01
-4.326571987457394908e-01,-4.557164328091951044e-01,5.308176080133090169e-01,-2.201210669690878419e-02,3.371323971619196586e-02,-3.808935459256559963e-02,9.799225330352783203e-01
-2.225012268691509143e-01,-5.354015677065805390e-01,5.470258441726006948e-01,-3.079708220403253819e-03,3.110850238637082738e-02,-1.172265982565121045e-02,9.665442109107971191e-01
-1.552765172485658929e-01,-5.778310115979299333e-01,5.627794907648326905e-01,-1.326835872385125903e-01,5.816001242702575902e-02,-5.722559302176623286e-02,1.034582734107971191e+00
-5.179052184729945330e-01,-2.231147746466496662e-01,4.532346595702457792e-01,1.506103581354910903e-01,1.560008945523935764e-02,7.258710122007416832e-02,9.101200699806213379e-01
-5.224842588348249661e-01,-3.331604825089573563e-01,5.664939493623115663e-01,-9.392709008443674013e-02,1.615732919511467594e-02,2.982447143226590880e-02,1.022480368614196777e+00
-5.698436484664385349e-01,-2.552736197379011363e-01,5.599012664469823486e-01,-6.026151305235765039e-03,-2.066541106211641082e-02,-1.863704086672132026e-02,1.011101484298706055e+00
-3.972547235812207700e-01,-4.020675848104149352e-01,5.263175060791615012e-01,-2.175176898230848227e-03,-4.317792604390358925e-03,3.825327360454582742e-03,9.260495901107788086e-01
-6.256709530703263855e-01,-4.916493796688881091e-02,5.826014321173225152e-01,-1.665307158991119127e-02,-9.982613603114830203e-03,3.693612079529101817e-03,1.047318935394287109e+00
-5.004266607900009767e-01,-2.485003526206697733e-01,5.302176860059396590e-01,-1.465548392604854033e-01,-2.523353799615065535e-02,-3.568219436938153272e-02,9.675810337066650391e-01
-4.114208173577477146e-01,-4.171365760400371214e-01,5.379749358649420499e-01,-9.950465735042344183e-04,-4.790333939774826452e-03,5.264234739143019808e-03,9.523478746414184570e-01
-7.346006749653438694e-01,-1.695572330649407766e-01,5.827518404119885753e-01,-1.382969013721154494e-01,-7.885982098842137314e-03,-3.236700470650816230e-02,1.170913219451904297e+00
-4.470873080831374580e-01,-3.352774631619912515e-01,5.310354928075105008e-01,1.373605024247467020e-02,-3.480676567935065552e-03,2.347919908206281842e-03,9.276210665702819824e-01
-5.754216533602912742e-01,-3.445053095590180359e-01,6.104136080634757766e-01,-8.194575617567461528e-03,-2.230666686421589259e-02,-3.257485686862311020e-02,1.091135382652282715e+00
-5.055494959224848817e-01,-2.913567796912973629e-01,5.401862779305649509e-01,2.076316925953175171e-02,7.671535653509071670e-03,2.888892216108759903e-02,9.588672518730163574e-01
-5.679981388876720327e-01,-1.269228139880450579e-01,4.892409305881444403e-01,-1.271777414549702528e-02,-1.633082799902492444e-02,-6.136362725521771200e-02,9.265860319137573242e-01
-4.936407152538193621e-01,-3.840040980549971894e-01,5.638059638452130873e-01,7.697336242640216014e-03,-2.410406247229216511e-04,-9.605734156944576579e-03,1.007339835166931152e+00
-6.381412950352237656e-01,-3.683715642815714730e-01,4.959889729702209316e-01,1.740392282889199338e-01,2.728333198303496687e-02,1.160610358422406174e-01,1.089305162429809570e+00
-4.186714338380009837e-01,-4.301240621512307793e-01,5.440381104327809414e-01,-5.360547951037217956e-03,4.278871697883240843e-04,-2.538450440520393422e-03,9.685414433479309082e-01
-4.051852645662006314e-01,-4.082984106973046590e-01,5.306268070301285444e-01,-1.031426704829020366e-02,-4.379378365381007311e-03,2.120876112762818018e-03,9.375806450843811035e-01
-5.030303322438329783e-01,-3.570099601145806933e-01,5.543404355935258598e-01,2.959358417400730773e-03,-7.347738104423268135e-03,-1.968570770729315481e-02,9.931304454803466797e-01
-2.985893775103772296e-01,-3.705552834305019805e-01,2.442475606462435334e-01,-2.001217282763310401e-01,6.861734382964908285e-02,-6.023452164812573631e-03,6.879656910896301270e-01
-3.298290767573184845e-01,-4.723117596582623867e-01,5.754555758256763021e-01,-2.203388679168012121e-01,1.083087100087892496e-01,2.870814442494565299e-02,1.073378562927246094e+00
-2.776342501611587243e-01,-4.576850571539240464e-01,5.277700520070134349e-01,-1.745047489907740057e-01,5.906640035938695273e-04,1.040005775767353577e-02,9.580132365226745605e-01
-4.528011654614714221e-01,-3.962921319183791979e-01,5.304239862292888796e-01,1.988791519058322535e-02,8.884066863864302499e-03,2.003909771533759522e-03,9.569740295410156250e-01
-4.001393033083326389e-01,-4.008665062641159627e-01,3.423276285596240642e-01,-2.028672015021897653e-04,-2.668252170323405850e-03,-2.606980608987577441e-02,7.442163825035095215e-01
-3.730483932540127889e-01,-3.982132699530953612e-01,2.479522239415562490e-01,1.193199631408316946e-02,4.965949661054921971e-02,-1.499799919797999148e-02,6.406267285346984863e-01
-4.367379608615620246e-01,-4.402703124913579513e-01,5.442792989033229389e-01,-1.115645932878747655e-04,5.644069535496455160e-03,-4.950358428285442022e-03,9.828742146492004395e-01
-4.020987612082770890e-01,-6.157907239114701614e-01,3.997262878233849293e-01,2.439374374193076234e-01,1.383941326999274524e-01,9.194628559364667608e-02,1.058899760246276855e+00
-2.648354088089281411e-01,-5.177050251538714010e-01,5.384192933523543889e-01,-9.530852556364587461e-03,-6.831035575264777712e-03,-4.324603018822059143e-03,9.553787112236022949e-01
-4.074973779469698298e-01,-4.108334189302238482e-01,5.329493289683915336e-01,6.413054401359402808e-03,-3.879843244801481177e-03,-1.895938874754098374e-03,9.422143101692199707e-01
-5.320285574933875106e-01,-2.491409305121651263e-01,5.590020802910380393e-01,-2.118010266905268751e-02,1.864047853357526582e-02,3.168578374907305567e-02,9.834299087524414062e-01
-1.377566168497059429e-01,-5.935062177111034565e-01,3.549126076995874346e-01,2.262736587047202777e-02,4.995667824308853977e-02,-5.790241976656912426e-02,8.330939412117004395e-01
-2.886337963841930643e-01,-4.772717624693724736e-01,1.894612567936218572e-01,1.198545743792025532e-02,5.326673459155460699e-02,8.882920378779059212e-02,6.220618486404418945e-01
-2.525840342785402592e-01,-6.447354719532860656e-01,3.321333981936639423e-01,-1.866448827363459684e-01,7.665444249785527409e-02,-2.080655967046376315e-02,9.210919737815856934e-01
-4.299184203619290101e-01,-4.151063612101784095e-01,4.259204028633751804e-01,5.972934034197808703e-03,9.512136419357327538e-03,-1.344653906351397227e-02,8.490722179412841797e-01
-4.461781014693253500e-01,-4.328496749008124977e-01,5.187694701960652299e-01,1.181857515703469211e-03,1.070740369821954890e-02,-1.168088537737544882e-03,9.585366249084472656e-01
-4.432952557366867108e-01,-4.744856915459731428e-01,3.906253514839520546e-01,4.909366710304763348e-02,-1.109557342930529433e-01,-6.377572191555379300e-02,8.824810981750488281e-01
-4.337917940786170656e-01,-4.243620809763416490e-01,4.637371111141902480e-01,-1.442477108021615086e-02,-2.605190505261315709e-02,-1.373698950305260111e-02,8.946564197540283203e-01
-4.017891330136935668e-01,-4.016086242925189786e-01,3.475066659052346019e-01,-5.056026914596684768e-03,-1.668188643642959726e-02,-3.201097933504701287e-02,7.518607974052429199e-01
-5.828104122808526188e-01,-2.760968683684393854e-01,5.551914180528664255e-01,-1.118702971663484112e-02,-6.359270406205536422e-03,8.849787329082740850e-02,1.031539201736450195e+00
-4.143319583399718842e-01,-3.717321972274114095e-01,5.235032331153258722e-01,-6.000597134387258141e-03,-1.578784359394212918e-03,3.051782265508496653e-04,9.173406362533569336e-01
-4.174075340753312657e-01,-4.282262540327355094e-01,4.365260662701888617e-01,-7.555742357593561373e-03,-4.402538465331136582e-03,-1.797067547283377753e-02,8.600909113883972168e-01
-4.108006717983972433e-01,-4.409740654740528787e-01,5.361153591896978821e-01,-3.439633042534951356e-03,-7.921969715854472113e-03,4.342026795408776736e-03,9.625031948089599609e-01
-3.511540273976561100e-01,-4.688205552859487368e-01,5.475953457101255806e-01,-8.932068524134237353e-03,1.143276702792769828e-02,2.189115503592004193e-03,9.633246660232543945e-01
-4.089061727203479046e-01,-4.112661710980926588e-01,3.943235932116427866e-01,-6.910880005779501331e-03,-1.942023819490019260e-02,3.096483640539843523e-03,8.052221536636352539e-01
-4.284838114380448704e-01,-4.331494959019899227e-01,4.652106566429272672e-01,2.338959614330723708e-03,-1.734341124879911628e-02,-1.512218149588245505e-02,8.969314694404602051e-01
-5.874686300248984638e-01,-2.395864897065178023e-01,6.664586926094281383e-01,1.191335402728560255e-01,3.979615309752799514e-03,2.183275363572845587e-03,1.140077590942382812e+00
-5.407718136561373568e-01,-2.309061617985483927e-01,7.665428667780809224e-01,1.506088332334987734e-01,-2.294916535744011971e-02,-4.363869447846591143e-02,1.214635133743286133e+00
-5.692978192776104729e-01,-2.484915009692392762e-01,7.929047455500317643e-01,2.319385211937244062e-01,7.735139768903454179e-03,-3.039690122280435530e-02,1.298401832580566406e+00
-3.854972316092575291e-01,-4.428395858001202279e-01,5.410614140431826424e-01,-4.689013571496076713e-03,4.351429999943146054e-03,8.840865689171483605e-03,9.567065238952636719e-01
-3.858390573350883868e-01,-4.458920833375963344e-01,5.466115559856753459e-01,-4.696754298705905530e-03,4.316962342638986337e-03,6.950820628187182743e-03,9.640197157859802246e-01
-3.973825506215166725e-01,-4.435012916474276312e-01,5.410957956429721660e-01,-2.944354234964822493e-03,1.045019532183936832e-02,5.100906069981366725e-03,9.625911116600036621e-01
-6.089633618867633658e-01,-2.342185934329231722e-01,6.667765193930753620e-01,9.575026187268211031e-02,2.098336005377991059e-02,5.338798744323135226e-02,1.152061223983764648e+00
-4.424766982718464359e-01,-4.415941297941364807e-01,5.505693591152731603e-01,-5.446654531352046556e-04,5.623794058654544214e-05,-1.149318164782448838e-03,9.926075339317321777e-01
-5.665526270759019267e-01,-2.210919349467413975e-01,6.012087334360105562e-01,8.113377933695503641e-02,2.107797371409295096e-04,-1.708108434203887537e-03,1.048499345779418945e+00
-4.162657882864867487e-01,-4.113712861396609521e-01,5.349377498250057483e-01,1.472308322425308104e-02,-5.352959105732650082e-03,2.552508609434003470e-03,9.491639733314514160e-01
-8.049095313619404335e-01,-7.724376179718392410e-02,7.068234626998096681e-01,1.204776755100566143e-01,1.386846005086566358e-01,4.981591945479067751e-02,1.350365638732910156e+00
-3.274437133805389588e-01,-5.638198393104871808e-01,6.176792070356597053e-01,2.414504466858279769e-02,1.117956322812042533e-02,9.190433833087716456e-03,1.083933949470520020e+00
-1.633769422146316153e-01,-7.360057080912064675e-01,5.566739356864289778e-01,9.186162620946250468e-02,1.396744159644220662e-01,5.968961605082714894e-02,1.163284063339233398e+00
-5.135405289003388551e-01,-2.949960089782002748e-01,5.537170891983577148e-01,-2.648854257872979706e-02,-9.153044840117974257e-03,5.585526097340272333e-02,9.824830293655395508e-01
-3.926057905256980507e-01,-5.427643246826838741e-01,5.644148883248099047e-01,6.154813148128496919e-02,-3.858613584636475663e-02,1.888821126129613601e-02,1.048352241516113281e+00
-3.556870161251101670e-01,-4.538838830675804292e-01,5.203072521478429024e-01,3.117815946837046784e-02,-1.670398018984896663e-02,-1.715010902697304551e-02,9.314849376678466797e-01
-4.362710484660858312e-01,-4.327187744690728644e-01,5.444842217535230677e-01,1.014606921094510163e-04,3.469952898067105163e-03,-2.834006923893523343e-03,9.790147542953491211e-01
-4.110428163427203851e-01,-4.334386838269166375e-01,4.537280421986195078e-01,5.396638306784020539e-03,-1.195166653005470337e-03,-3.067283225966273112e-03,8.762518763542175293e-01
-4.190565825986879434e-01,-4.598398898331637619e-01,5.882674432032504175e-01,4.675200959723532779e-02,3.325739514129483210e-02,4.621644391416752928e-02,1.036209583282470703e+00
-2.300576394764174415e-01,-5.407011748304754173e-01,5.324266027052498851e-01,3.131378701428658151e-02,6.053236370596996874e-02,-1.806754103612877435e-04,9.636787176132202148e-01
-4.005493778969738128e-01,-4.613110268036558770e-01,5.479684633674246630e-01,-2.188122611646452806e-04,8.556279183027785604e-03,-2.383946493683523817e-03,9.804327487945556641e-01
-4.255148929857606177e-01,-4.059753017698476962e-01,3.820548691488913073e-01,7.845594477064501623e-03,-1.295713031440549889e-02,6.052428866574237169e-03,7.984793782234191895e-01
-4.442311806062655966e-01,-4.327045559945468245e-01,5.220644764974040619e-01,-3.520285783539028098e-03,7.823784602628554991e-03,-1.500513355429342619e-03,9.607026576995849609e-01
-4.403434109832136678e-01,-4.444333647311064506e-01,5.463671835386746389e-01,3.814963554307185430e-03,5.693233950560545441e-04,3.487381387908258801e-03,9.888029098510742188e-01
-3.299432597763182762e-01,-5.361468707475167683e-01,5.036022408135214512e-01,1.036044668812471752e-02,8.724287913125289631e-03,6.294691286458087287e-02,9.600184559822082520e-01
-4.373977422211653421e-01,-4.395351558063582131e-01,5.345986160497023798e-01,9.526528810292661563e-04,2.550352831405369551e-03,-3.719669696582651904e-03,9.730995893478393555e-01
-4.397289665533027914e-01,-4.400606569924624956e-01,5.450474488005228046e-01,-3.087546647067775812e-04,1.712613146692454173e-03,-4.577011880336592439e-03,9.849787950515747070e-01
-4.365779812279454997e-01,-4.468798593131299013e-01,5.362446561128236810e-01,2.242353149096694941e-03,-1.797415347441559154e-03,-1.001991590919803577e-03,9.780284762382507324e-01
-4.370781847593748770e-01,-4.388206236116075076e-01,5.397651781411181293e-01,1.012459302552736178e-03,7.311605795863488494e-03,1.618004334539998278e-03,9.778033494949340820e-01
-4.450571855031548174e-01,-4.352860513760681838e-01,5.269033126580813242e-01,2.886772403051449977e-03,8.126827469586865582e-03,-2.453222148922605279e-04,9.672273993492126465e-01
-3.940217554481182938e-01,-3.960216941971367310e-01,3.253085998190955452e-01,1.784998859315070152e-03,-9.861412772344702038e-03,3.304555619379692666e-02,7.228112220764160156e-01
-3.899476209944384153e-01,-4.669802220579005736e-01,5.298764104339700465e-01,-4.758236333715568783e-02,-1.110688201951131465e-02,1.325742475788654201e-02,9.646534919738769531e-01
-4.208839257023133662e-01,-4.533215268621541005e-01,3.984572047618324397e-01,-6.625365065804917318e-03,-5.378348939714723553e-02,5.796942551398928667e-02,8.472547531127929688e-01
-3.961846558409903296e-01,-4.566225476841845876e-01,5.454194894767611101e-01,-4.279620834868489375e-04,1.364964417589148091e-02,-1.947938111963627792e-03,9.735248088836669922e-01
-4.461050068854788275e-01,-4.312380393186735494e-01,5.169501402625786834e-01,5.756183564376266644e-04,1.002052555021290016e-02,8.322088049663848609e-04,9.558675885200500488e-01
-4.297969124139587316e-01,-3.999585269817102495e-01,3.066548564140078037e-01,-3.115467810332141207e-02,2.856869174462541017e-02,3.328908888372150710e-02,7.279847860336303711e-01
-4.352631983816425132e-01,-4.297609803649085070e-01,4.930184943529135611e-01,6.757561605608254120e-03,1.106754448802911746e-02,2.986302493141666965e-03,9.258297681808471680e-01
-4.444109717160719120e-01,-4.395596182486378178e-01,5.450535645801980467e-01,-1.801488578499334334e-03,-7.000197901558726649e-04,6.361262984846769580e-04,9.870541095733642578e-01
-4.081828548096796405e-01,-3.995194280658310726e-01,3.658916308646165128e-01,-3.691967382856670837e-03,-4.651220502964112380e-03,3.859754101798467188e-03,7.698770761489868164e-01
-4.399493627325928302e-01,-4.407546101630741009e-01,5.476589584203590544e-01,-1.000966177672115136e-03,1.652430289740781043e-04,1.987580078450164843e-03,9.880187511444091797e-01
-4.253781803991191213e-01,-4.401646911614033320e-01,5.510224444788240916e-01,-3.472272916874868552e-04,-4.336575654960180340e-03,1.214233378268961619e-03,9.839082956314086914e-01
-4.407594896316046063e-01,-4.417625484939731173e-01,5.527408872668008177e-01,-5.789774979609522542e-04,2.321923070523670279e-04,1.432607296173225289e-03,9.940059781074523926e-01
-4.396649261691885635e-01,-4.375243071894483471e-01,5.510600719075424703e-01,9.120219405642329994e-04,-1.949679288046290548e-03,-2.366557891920971143e-03,9.896719455718994141e-01
-4.347837600095211807e-01,-4.228011265711000832e-01,5.437391499252270943e-01,-1.706115388213072818e-03,-5.580487899341323929e-03,6.519437346070564021e-03,9.727050065994262695e-01
-3.980286955021652417e-01,-4.697608190332727696e-01,5.673025965688024419e-01,-1.978403388815118402e-02,-5.970104016466914153e-03,4.152359601702698515e-03,1.003786921501159668e+00
-4.367333399336520428e-01,-4.351865195979062739e-01,5.091118240627148239e-01,5.229123122844177990e-03,4.990120521146299525e-03,-3.672258245224244849e-03,9.451770186424255371e-01
-4.426016625621174705e-01,-4.415412438779804383e-01,5.527299178130381518e-01,1.456855071596667396e-08,-6.210923739572892432e-04,-1.447643088155152046e-04,9.948024153709411621e-01
-4.388536418675264561e-01,-4.362680046659460631e-01,5.479410279902792169e-01,-9.113060283862346256e-04,-1.377413660163314063e-03,-4.562519820747915067e-03,9.855402112007141113e-01
-4.394112858478566030e-01,-4.419771879481834143e-01,5.538184487243043019e-01,-1.361390672527280693e-03,1.115746517900540954e-03,1.076177592454453057e-04,9.945198297500610352e-01
-5.421890573113000711e-01,-2.283607128071672987e-01,5.449284843868626993e-01,-4.229911767919676546e-02,-5.021974438071056222e-03,6.420731126051629906e-03,9.719626903533935547e-01
-5.541984540272820725e-01,-2.108414495527710653e-01,5.668576011143113824e-01,-6.964630102183927418e-02,1.060150834680706651e-02,6.597531489111687145e-03,1.002376079559326172e+00
-5.391445980370672686e-01,-2.413254788238670123e-01,5.617345383654070989e-01,-5.382605048622660787e-02,1.415675573792686895e-02,-2.717767986085617080e-03,9.910011887550354004e-01
-5.637876183584000778e-01,-2.099542528269892627e-01,5.688331755596819361e-01,-5.263543684021156771e-02,5.895017443634197312e-04,3.984706153232573517e-02,1.010121107101440430e+00
-3.416856114972955383e-01,-4.603078077787406963e-01,5.742714565380024894e-01,-8.908191979643324820e-02,-5.774875879484631450e-03,1.681934346247809884e-03,9.927822947502136230e-01
-4.424139908850996949e-01,-4.387641075385716460e-01,5.467900692394395135e-01,-8.916589840877799404e-04,2.209693722073032864e-03,3.352018640484858954e-04,9.873929619789123535e-01
-4.334572655068269498e-01,-4.276396025390541422e-01,5.458832676343617907e-01,4.281396304090323915e-04,1.357073066985832769e-03,-3.354274440140218513e-03,9.764651060104370117e-01
-4.334928274706111861e-01,-4.400074444404997731e-01,5.361426239910200842e-01,-8.621012735827781681e-04,3.933676604523252303e-03,-2.340985919078922631e-03,9.729425907135009766e-01
-4.220574612136577253e-01,-4.418572541768893136e-01,5.427231948182064114e-01,9.108016695430873506e-04,5.824736501435820446e-03,-3.557957320369131010e-03,9.749043583869934082e-01
-4.361244499924168405e-01,-4.403305994014349856e-01,5.512252402011393881e-01,1.011214791992431894e-04,3.466355544192733368e-03,-2.206531087802077098e-03,9.894850850105285645e-01
-4.192797089336927630e-01,-4.297184248041874266e-01,5.420612597906506736e-01,3.809316576211928523e-03,-9.071142937794948388e-03,-6.869218961267716320e-03,9.668260216712951660e-01
-4.375825207170215836e-01,-4.446836036825740357e-01,5.390806710939334279e-01,-2.536773005128266714e-03,1.083489316228710298e-03,2.795400437495798238e-03,9.802566170692443848e-01
-4.364888286957696595e-01,-4.353767366563952579e-01,5.479935204598234133e-01,-1.399024128081938949e-03,3.391395783252659953e-03,-2.639131141583093846e-04,9.839473962783813477e-01
-4.392098729321464723e-01,-4.417040710907108592e-01,5.523484325156662322e-01,-2.603105892423070861e-03,-1.466698335156033572e-03,5.388598345182879544e-04,9.928216934204101562e-01
-4.378478324973052449e-01,-4.429054742516399523e-01,5.408999219751201570e-01,-2.627506271654134890e-03,-1.961359136338326672e-03,1.018361750398917879e-03,9.813043475151062012e-01
-4.357877453987363259e-01,-4.396969011594233367e-01,5.416669473863816586e-01,2.154962882773034643e-03,-5.134511936234043873e-03,-2.658030769334298552e-03,9.794734120368957520e-01
-4.472239809233419794e-01,-4.380848141169070287e-01,5.416975656161029384e-01,-2.608845435357982565e-03,-6.132250821443121158e-05,-2.085779838942084484e-03,9.844008088111877441e-01
-4.335162882291711539e-01,-4.560792849365935542e-01,5.517206541073111925e-01,4.860528523278557882e-03,2.025088465999362944e-02,-8.611606546029893557e-04,9.973636269569396973e-01
-4.456497603992943257e-01,-4.377396604937512370e-01,5.348483827448955452e-01,-6.925836708850972162e-03,-2.238445102027772447e-03,-3.338336117893570681e-03,9.766656160354614258e-01
-4.458399953738420018e-01,-4.371475386253059758e-01,5.364118082797378895e-01,-4.683681856566092663e-03,4.899134801543589615e-03,-8.895981257127532661e-04,9.780062437057495117e-01
-4.475288921839001843e-01,-4.325400942708363949e-01,5.283740214984309347e-01,-2.058962100054197684e-03,5.337014621749767290e-03,-1.332613461644082406e-03,9.685489535331726074e-01
-4.354410211189053137e-01,-4.474338616600592178e-01,5.428143754450032166e-01,-2.232883756247141041e-03,7.010020476167768896e-03,1.828238928705030238e-03,9.843941926956176758e-01
-4.387361418683071723e-01,-4.376809066212134502e-01,5.350957459355223378e-01,-4.362588062275579910e-04,-1.945698931852106375e-03,-3.493558989895928155e-03,9.733296632766723633e-01
-4.457023223517551092e-01,-4.371268756056703175e-01,5.322260035785557619e-01,-1.474162445238328626e-03,4.012896590577990329e-03,3.016266949485901013e-03,9.737110733985900879e-01
-4.362220807790265775e-01,-4.197052532515496703e-01,4.618338539616071436e-01,-3.902893083218914559e-03,1.859935207260749943e-02,1.071962654547269946e-02,8.907145857810974121e-01
-4.404094351814505925e-01,-4.383923956622811091e-01,5.352653520387410380e-01,1.468962142329970164e-03,-3.444562600162815250e-03,-1.880312366802558248e-03,9.746948480606079102e-01
-4.399951143198616577e-01,-4.377935111150974556e-01,5.447914356008143333e-01,-1.472245269406364035e-03,-4.435067927674693142e-03,6.220435741820400100e-03,9.837799072265625000e-01
-4.467098206338758759e-01,-4.370038375862350666e-01,5.301568477408086233e-01,-1.708364775928594953e-04,4.177411226262192807e-03,1.818504302541081898e-03,9.720820784568786621e-01
-4.540764755273727360e-01,-4.330379005348418131e-01,5.508609283713361560e-01,6.467664429392199236e-04,-6.272866320762251384e-04,-8.246519168890093648e-03,9.946888089179992676e-01
-4.351916307442398324e-01,-4.523239521298708099e-01,5.426645006269075200e-01,-3.172075849892814006e-03,9.184586315219232452e-03,3.779369823693838268e-03,9.866991639137268066e-01
-4.469356720246501213e-01,-4.106184626834554763e-01,5.320759990319243737e-01,-3.507337919269610106e-04,-1.111484889591422050e-03,8.439052598104068714e-03,9.614809155464172363e-01
-4.470934178567322892e-01,-4.370730404197609720e-01,5.329066972081144549e-01,7.421409835504200019e-04,4.099294395660204975e-03,2.270917748156311543e-04,9.750553369522094727e-01
-4.344441638081756873e-01,-4.508407233752918519e-01,5.430638707081483219e-01,-2.532841017029527179e-03,7.598242725490445340e-03,3.710588619231167985e-03,9.859271645545959473e-01
-4.354352537818997892e-01,-4.396783582509975474e-01,5.382924254304848333e-01,5.179848049184168374e-04,8.035938112601349534e-03,-1.319942800895821181e-03,9.759584665298461914e-01
-4.371228654505502909e-01,-4.382547241560497131e-01,4.875024027285838057e-01,5.863147170123410995e-03,2.982714661185992266e-02,-1.814307551931619231e-02,9.272212982177734375e-01
-4.302496611077765709e-01,-4.385698722526781834e-01,5.087351370507573467e-01,-3.339531161233774128e-04,1.230725434907602861e-02,-1.055889862671185748e-03,9.434152245521545410e-01
-4.463740294653230634e-01,-4.373430260193038044e-01,5.392756086055676690e-01,1.647705519678341552e-03,2.965763992660472217e-03,-1.696308804431522366e-03,9.811872839927673340e-01
-4.491799152188013511e-01,-4.125658911526707273e-01,5.348757218102067057e-01,-2.804647476241952080e-03,-4.460722941154402973e-03,5.747917046064547966e-03,9.663634300231933594e-01
-4.403692220982352024e-01,-4.160464224615249562e-01,5.302951829625148772e-01,-7.976188743390115465e-03,3.168471877043606104e-03,9.486440044691422935e-03,9.589904546737670898e-01
-4.401628539198971235e-01,-4.377813099545970754e-01,5.357043769756238971e-01,5.903948576471988643e-04,2.775371042051156829e-03,-2.410403638961933909e-03,9.746999740600585938e-01
-4.370595935719627789e-01,-4.460401874325354288e-01,5.470319023676759596e-01,-8.003702183539040862e-04,5.512769213637277836e-03,1.598109634169293369e-03,9.886633157730102539e-01
-4.461774632569221466e-01,-4.369456364704085716e-01,5.362888363185069895e-01,2.030129561009135289e-03,1.023759435623287396e-03,1.486880361044650876e-03,9.778943657875061035e-01
-4.452682322694758166e-01,-4.382428824667347067e-01,5.468363779370692956e-01,1.574773844344718506e-03,-1.052800508216495095e-04,-2.769468335748333839e-03,9.886260628700256348e-01
-4.237407937603874797e-01,-4.212715656122579810e-01,5.477003210514119758e-01,-8.764831479507193338e-03,-5.827020766981817063e-03,1.546150808948047479e-03,9.703838229179382324e-01
-4.387832591836525742e-01,-4.389339347593652074e-01,5.451279735482077449e-01,1.359064283528523031e-03,4.917260995097546585e-03,4.301786773172182679e-03,9.840544462203979492e-01
-4.418394819561189957e-01,-4.382780551019935800e-01,5.420620877743085320e-01,2.304143847934642889e-03,-3.586734683799910417e-04,1.152269947779922506e-03,9.821360111236572266e-01
-4.400434102081270393e-01,-4.369497666630903221e-01,5.473835803969393510e-01,1.529938355812271249e-04,6.300401605061039644e-04,3.121180543389930583e-03,9.858992695808410645e-01
-4.441371598724166980e-01,-4.394370212288497002e-01,5.464239004593242077e-01,1.188918353851068418e-03,-4.181496544433923983e-03,-3.228124278530624530e-03,9.882639050483703613e-01
-4.433383323730112346e-01,-4.388650619710404155e-01,5.459442574542241466e-01,2.102909742305769832e-03,-1.224083902315154827e-03,7.365593381872557804e-04,9.870634078979492188e-01
-5.138441851759373291e-01,-2.913959604383520863e-01,5.423517993690050165e-01,-2.420314291256677602e-02,-1.243239845101073299e-02,1.373544640406840905e-02,9.658526182174682617e-01
-4.242330723461229525e-01,-4.344869869017231045e-01,5.593126413391078522e-01,-1.436904049767689408e-02,-7.468380134111100854e-03,8.187145293356819578e-03,9.892119765281677246e-01
-4.540725632158400527e-01,-3.663251066355151520e-01,5.435456261200126704e-01,-1.120243488138265506e-02,-1.934147272602224424e-03,-9.523541517628478226e-03,9.571118354797363281e-01
-4.420174734733591793e-01,-4.418272163738462543e-01,5.491598408130893283e-01,1.657211513869003136e-03,-1.461840578424884653e-03,1.884984065578861924e-03,9.910949468612670898e-01
-4.326150387495291683e-01,-4.338213105986357121e-01,5.484177960370584248e-01,2.994785353597815116e-04,4.698765694380004597e-03,4.516932749911516760e-04,9.816707372665405273e-01
-4.172680484753228392e-01,-4.149135496800709921e-01,5.419609967780014692e-01,5.225124057192298901e-03,1.464864143220834247e-03,-7.216960105265506293e-04,9.581009149551391602e-01
-4.353493919438330972e-01,-4.103229950444156060e-01,5.409452607773977961e-01,-7.641920962947126514e-03,-1.012386276948879470e-02,-9.280315556177235262e-03,9.644094109535217285e-01
-2.756899758332892469e-01,-4.630513830970601208e-01,1.428532288734462030e-01,-1.030018603619784617e-01,-2.605373279701492933e-02,4.950967086239477927e-02,5.743863582611083984e-01
-2.885830147415963665e-01,-4.889017287389570976e-01,5.378780704700603099e-01,-1.462487571861740936e-02,5.114704968591415922e-04,3.497461015031185817e-03,9.430801868438720703e-01
-4.073921030592148051e-01,-4.467790820007179753e-01,5.332627912144015658e-01,-1.022964531315010729e-02,-4.301621037137281361e-04,-4.082633686727117454e-03,9.611436128616333008e-01
-5.003540590635984220e-01,-2.283848634991065274e-01,7.838791462205949578e-01,-1.695324317230867406e-01,3.291905599320376491e-02,-5.861469105151763392e-03,1.209763646125793457e+00
-4.440676589439609412e-01,-3.373847360690391817e-01,5.299266795360421112e-01,-9.292880420728991467e-03,-5.334595804202963039e-03,3.963254252273219931e-04,9.254634380340576172e-01
-2.625886294205680982e-01,-5.086742112315600917e-01,5.323115802641777972e-01,8.449019275006887375e-03,-9.517234726882100801e-03,3.872609280089182697e-03,9.426392912864685059e-01
-4.412532956281817187e-01,-4.284592810310076660e-01,5.490249134951686871e-01,-7.786937750072827485e-04,1.586400030596830154e-03,2.309091562571300403e-03,9.839564561843872070e-01
-4.307333144515870238e-01,-3.136336313185970615e-01,5.209772551568364607e-01,-9.825048791642479462e-02,1.442872286029957263e-02,-8.057137192841394568e-03,9.153136610984802246e-01
-7.440660360786641725e-01,-7.664857184948062341e-02,6.161021201277881998e-01,-3.378054419827392768e-02,1.218648959142833443e-01,1.589829726554605749e-01,1.229433536529541016e+00
-6.153511257154278269e-01,-1.363141452132142772e-01,8.108251300980917620e-01,-2.562573492365474628e-03,4.447171849659086601e-02,-2.111115794250223096e-03,1.259456276893615723e+00
-3.962010466022477528e-01,-3.987108365613897809e-01,3.220723838408801054e-01,-4.550989828967741749e-03,-1.375368614375830148e-02,-4.642315396067928090e-02,7.244451045989990234e-01
-3.786133436026180021e-01,-3.775399932626215538e-01,1.386529046161525947e-01,-2.309185862040491997e-03,1.068908156819990294e-03,-5.564479664261018366e-02,5.256603360176086426e-01
-4.444575672955960455e-01,-3.562527837683502341e-01,5.301808247765357196e-01,1.291148776840749662e-02,-1.263784692259166398e-02,6.579786611234903632e-03,9.342598319053649902e-01
-4.394586223672167224e-01,-4.394407171694624248e-01,5.491861042175425478e-01,-6.309200756528827048e-04,1.818039694399821091e-03,-1.450461014303481471e-03,9.886445999145507812e-01
-3.991843252899383576e-01,-4.140650276529023177e-01,3.860416905990670111e-01,-4.592613333351207479e-03,3.889948341856049388e-03,1.735863346846641068e-03,7.928453683853149414e-01
-4.012334027084822341e-01,-4.598129723292264659e-01,5.479310465164218824e-01,8.792928068644819631e-04,-9.086724438459009567e-03,-1.831717331395583785e-03,9.799012541770935059e-01
-3.363888075640693032e-01,-6.047444542884204965e-01,8.530917199436290899e-01,2.803672074689828042e-01,-6.445468825256501361e-03,-9.816634301183891492e-03,1.429095387458801270e+00
-1.332613076105507721e-01,-5.930076921240220456e-01,5.601755271342875320e-01,1.125111398190697526e-01,1.028030723883139874e-01,-1.654889953404153902e-02,1.039966225624084473e+00
-5.445668054205764497e-01,-3.541124734441872812e-01,9.086398601839371647e-01,-2.997649546924880948e-01,-2.751314630218711782e-02,5.230317568204426171e-02,1.466754198074340820e+00
-4.745094645849923243e-01,-3.618034238151081605e-01,5.388503014341563535e-01,1.751086367745287309e-02,-1.726149549003952802e-02,-1.497166602234972776e-02,9.632627367973327637e-01
-3.816863640171813121e-01,-4.090519616597905750e-01,5.587716366219881436e-01,-9.708537697115465770e-02,1.153866792715849653e-02,-3.629357823244179146e-03,9.693616032600402832e-01
-5.139905551957621999e-01,-2.169401133991395447e-01,6.088551686332778212e-01,-1.197841430677624996e-01,2.828530628330564595e-02,1.772552510414132990e-02,1.030469417572021484e+00
-2.762234505919287653e-01,-5.964737060432255822e-01,6.372549188551339672e-01,-7.019542882598964195e-02,-1.558967529170314850e-02,-4.692742524395440880e-03,1.115850329399108887e+00
-6.235991655717056936e-01,-1.647441718698236524e-01,8.568405525487112762e-01,-2.954491194595053674e-02,-2.448885389351054473e-02,-5.008386990969997121e-02,1.317150473594665527e+00
-2.446832348108274324e-01,-5.210105449985487081e-01,5.395566617289161426e-01,6.618884833090958424e-03,1.592580639976124302e-03,-1.953282091131836214e-03,9.530196189880371094e-01
-4.628240202352444377e-01,-4.940456774424555331e-01,6.801597596056269124e-01,2.760221385037511244e-01,6.477657623868685044e-02,6.813605514678286457e-02,1.264180660247802734e+00
-4.475838375260415281e-01,-3.772784900801566255e-01,5.446429336679656785e-01,1.167880958594738269e-02,-1.020196861074916007e-02,1.024123503688706416e-02,9.595488905906677246e-01
-4.476511391334771495e-01,-3.350990936540244602e-01,5.304250018504442776e-01,1.157475781185221542e-02,5.038150638440264117e-03,-5.647016010033249333e-04,9.271976351737976074e-01
-4.341891628201005049e-01,-4.313630917058513536e-01,5.478959092496875627e-01,1.652864154120604065e-03,-9.194266068800562887e-04,3.010141742775159120e-03,9.806944131851196289e-01
-4.900824041847861023e-01,-2.354400791113194780e-01,6.068123064587026549e-01,-1.836384108505232093e-01,-1.095773445271648952e-02,1.145288069041900184e-02,1.044331312179565430e+00
-5.245691875283171601e-01,-2.561947890135349848e-01,8.512888928288391277e-01,-1.868550341695196515e-01,-2.287885219214786173e-02,-1.255856529425981513e-02,1.304819226264953613e+00
-3.953889073002551657e-01,-4.141315308776484239e-01,3.819067230076991226e-01,5.789424677921987256e-03,-2.912367435653898714e-03,2.421242673182827290e-03,7.869256138801574707e-01
-4.271567958617425997e-01,-4.374354173573501980e-01,4.825585934889269346e-01,4.883611586528363580e-03,2.718773580385421690e-02,-3.377417794104326659e-02,9.180138707160949707e-01
-4.328931485928897427e-01,-4.490723384799316098e-01,5.276784368992908369e-01,-1.446927176892969001e-03,-3.399098706835239239e-04,-3.713449000934891664e-03,9.687873125076293945e-01
-3.509054133028320921e-01,-6.315467770846431295e-01,7.733449056819939882e-01,3.011693212493816718e-01,4.782063578634797307e-02,1.132286410028666285e-02,1.391963839530944824e+00
-5.056815194771575595e-01,-2.643784803787373461e-01,5.326355168464508294e-01,2.063161174405415618e-02,2.985038402442283462e-04,-5.993056060150731695e-03,9.418945908546447754e-01
-4.293400648095846428e-01,-4.349197735403756426e-01,4.945797720073915604e-01,3.117502035202458430e-03,1.681399671930388501e-02,-5.985204666410837149e-03,9.272534251213073730e-01
-4.331915042853928810e-01,-4.498320044992796252e-01,5.305258773397036887e-01,2.164008566590574134e-04,-7.001489523256576152e-04,-2.180591391335431027e-03,9.721525907516479492e-01
-2.537086783566743220e-01,-5.095630800746420164e-01,5.344450652636499877e-01,7.377230599896361131e-04,-7.409465424640682488e-03,-3.131537404844820204e-03,9.426007270812988281e-01
-4.312927983244204122e-01,-4.516742066193862315e-01,5.263162016108003938e-01,3.004695859195165579e-04,-1.925096123152796393e-04,1.024801283577297809e-03,9.679625034332275391e-01
-4.002435789856758075e-01,-4.038262408069939191e-01,5.290174593880851983e-01,3.357909589490739709e-03,-6.925372509147698780e-03,6.824370593471011659e-04,9.311537146568298340e-01
-5.011750311942723135e-01,-2.917364965500226504e-01,5.531899130276033416e-01,-6.798340156076615459e-02,2.004972491366863261e-03,-1.558734638874155129e-02,9.743364453315734863e-01
-4.064291947979741804e-01,-4.106634808152841987e-01,2.787007978090421112e-01,4.041205026315617191e-03,7.984644611751643859e-04,-1.181811272527871493e-01,7.171285152435302734e-01
-1.653992020729250778e-01,-5.785812036617141718e-01,6.119212445702618686e-01,1.574112218554634401e-01,1.081601071204140729e-01,5.161765251708071156e-02,1.101610183715820312e+00
-4.309036948209256090e-01,-4.488836619663585381e-01,5.251905383808040950e-01,2.276734981809299535e-03,-2.044004697249457154e-04,9.763096621867848636e-04,9.652194380760192871e-01
-4.322329201311035374e-01,-4.472556718669531972e-01,5.219040394032367081e-01,-7.215425725750796186e-04,-1.540349518526829865e-03,-6.908202556237575537e-03,9.618152976036071777e-01
-4.424711353403346092e-01,-4.365667864026681055e-01,5.373155354135766837e-01,5.930744082890816553e-04,6.644081180810136210e-04,-7.451437221368220620e-03,9.769343733787536621e-01
-4.316720423404797335e-01,-4.514906703063240045e-01,5.284167101502472708e-01,-8.150634287983612785e-04,1.895534101924065910e-03,1.516955211664775286e-03,9.701600670814514160e-01
-4.387288991497078072e-01,-3.336072955369344673e-01,7.168258305593383506e-01,-2.480205770046194080e-01,7.838279153264229859e-02,-2.035076449429611134e-02,1.195449829101562500e+00
-4.741363392338571736e-01,-3.208015811277121765e-01,6.094527709272734572e-01,1.933604896456990463e-01,3.990439747457017600e-02,5.883846723514421506e-02,1.076500296592712402e+00
-4.006405453250047599e-01,-4.292372514996136701e-01,5.459688021762417742e-01,-2.584578748682933927e-02,1.682211542160429174e-02,-1.520301542342456652e-02,9.630697369575500488e-01
-2.290354328028066377e-01,-4.770892824429343593e-01,5.790583076123245743e-01,1.710405409638204866e-01,-6.412282933372709381e-02,-3.366834506605886207e-02,1.009206295013427734e+00
-4.581586278976356730e-01,-4.011306492933721102e-01,6.378750737109342150e-01,-1.548817163563586952e-01,-1.033112685227706093e-02,1.719115181462409561e-03,1.101967096328735352e+00
-2.569269590328557284e-01,-4.696427983057109845e-01,5.669288181795740789e-01,-1.231656532212301175e-01,2.733194918272373319e-02,-5.365975505163444320e-03,9.731754064559936523e-01
-4.318599119977935552e-01,-4.428689379209340138e-01,5.151546858668272222e-01,-5.370008119909463334e-03,2.347026923755378067e-03,7.621086396830843365e-04,9.526218175888061523e-01
-2.918052026609179173e-01,-4.934279454251769281e-01,5.718126094229877276e-01,1.907312500788634069e-01,2.192517190275719216e-02,6.498075512723154590e-03,1.035044193267822266e+00
-4.398041707045312054e-01,-4.359885197195072504e-01,5.448950301813172414e-01,-7.585639416617064772e-04,1.852872401430511861e-03,-4.216535500441593969e-03,9.828301668167114258e-01
-4.378770692017372457e-01,-4.259164611698875724e-01,5.017519330158787261e-01,1.699288789539526176e-03,-1.663434114669385625e-03,-1.271377784221576837e-02,9.339748620986938477e-01
-5.174917058423430527e-01,-4.166789332117105116e-01,5.511317812008301731e-01,2.596245769892766356e-02,-8.863777196675314690e-03,-2.925705362289215267e-02,1.024311542510986328e+00
-5.534610217387174735e-01,-1.785165923328435600e-01,4.720747118677502963e-01,-1.018443519544824788e-01,-2.745352831530258747e-02,2.860154893110115545e-05,9.171509742736816406e-01
-4.595883608733005166e-01,-4.614914484139120976e-01,2.612701787412579080e-01,-2.221247807345180791e-01,-7.593176622833323897e-02,7.236521455513804379e-02,8.378769755363464355e-01
-3.535302236081877547e-01,-4.842758211590709738e-01,6.659886349012577034e-01,-1.571799293714526424e-01,1.146595712334162916e-02,1.911640693919832443e-03,1.124425530433654785e+00
-3.703106748223244926e-01,-3.292581743523856352e-01,3.301198329165033751e-01,-1.926709483868146999e-01,-3.333953182092026790e-02,2.864045580271479263e-02,7.620337605476379395e-01
-4.415834412563137690e-01,-4.331210397323834727e-01,5.078298392675918427e-01,2.200304464587987425e-04,4.781586066129884550e-03,-7.117613191586770818e-03,9.453272223472595215e-01
-4.462604897673824178e-01,-3.387441438189363607e-01,5.261488562180408612e-01,-1.423436684100791265e-02,-2.080412032592290374e-05,2.590396858310784010e-03,9.236978888511657715e-01
-4.392417114144033796e-01,-4.396900145878542276e-01,5.453542356144757131e-01,3.682822867718956133e-04,3.702454332000835666e-03,-3.280994766632037984e-03,9.848576784133911133e-01
-4.437856937277821490e-01,-4.403868380763988899e-01,5.489156782976636340e-01,2.592990406568239023e-03,-3.072294518255250066e-03,-2.067532668235855502e-03,9.910372495651245117e-01
-5.861273269579488909e-01,-2.220576520908923435e-01,6.047710147801271807e-01,-9.789963269721008166e-02,-1.153284005413601765e-02,1.141089691195572992e-02,1.070868015289306641e+00
-2.268685522158312984e-01,-5.418390404673516514e-01,5.656729810776890410e-01,2.483099636637161461e-02,-4.357489374685886985e-02,-9.062321982749471996e-03,9.923447370529174805e-01
-4.386077653541010091e-01,-2.604411894832883156e-01,6.188940163645416659e-01,-2.388108751776644445e-01,5.470546551463269236e-02,-6.628024297939405507e-02,1.074658632278442383e+00
-5.151019332995560029e-01,-3.298367804681917592e-01,5.418898181400372271e-01,-8.372260201179887451e-02,1.819293038069571058e-02,1.865947412965217669e-02,9.893416762351989746e-01
-7.929446838828809740e-01,-1.116098918783258176e-01,8.198789129755807981e-01,2.894578546007749512e-02,-1.216369621308938890e-03,-4.746072441022478570e-03,1.403256893157958984e+00
-4.432914970707431124e-01,-4.369545555307515761e-01,5.490829637303862309e-01,2.413848517750411243e-03,-9.734236333013958700e-04,2.983404232115197119e-03,9.892449975013732910e-01
-3.699791475097936044e-01,-3.860299612355461707e-01,5.156332483037983083e-01,-3.913994863384390871e-02,1.514493696134283467e-03,-2.775941769508074967e-03,8.963300585746765137e-01
-5.793322403964258349e-01,-1.820247955956674490e-01,5.852782157589949685e-01,1.482256640568072048e-02,8.701769795164942395e-03,-3.051456572348248963e-02,1.027201056480407715e+00
-7.385285121044734558e-01,-1.473684492987874517e-01,8.158495575449894455e-01,6.622105050369911372e-02,1.929283151194746346e-02,-6.106727535180593580e-03,1.364206552505493164e+00
-4.333477807691977768e-01,-4.445544349919618443e-01,5.253195949822531130e-01,-3.647089831394630718e-03,-1.482644358320182962e-03,4.656216703780887214e-03,9.643774032592773438e-01
-8.081992634281071064e-01,-1.542735092907612238e-01,8.892561572416591842e-01,-1.231386484923707170e-01,9.832342167176282358e-03,4.323664284487407916e-02,1.500117182731628418e+00
-2.619519085214592757e-01,-5.214713807082805852e-01,5.415882171124960509e-01,4.600976011425707279e-03,-7.209412896522944536e-03,1.399809857314646263e-03,9.600972533226013184e-01
-4.343770779190279652e-01,-4.273585574645863416e-01,4.798782847905250781e-01,6.944544992542694278e-03,2.867972051425804903e-03,-2.827882769496734006e-03,9.108725190162658691e-01
-7.594641436025206804e-01,-1.059893317934351431e-01,7.128660479276415218e-01,-1.000072478573583445e-01,-5.374387669790597899e-02,-4.879401493188154082e-02,1.295556664466857910e+00
-4.220216351205087757e-01,-3.862244462001583889e-01,3.597086351984890573e-01,2.127081937863100139e-02,-1.352619060099736863e-02,9.180578971913092023e-02,7.820428609848022461e-01
-4.433601730423531451e-01,-3.768935041261303187e-01,5.410412679630827171e-01,-8.254047542544837648e-03,7.854888990221060505e-03,3.508759952456559986e-03,9.531319737434387207e-01
-7.682545849160186124e-01,-1.567538213543198666e-01,8.686411128071087617e-01,-1.184359212104018622e-01,-3.152198196646990858e-02,3.687431071734919436e-02,1.449668526649475098e+00
-4.547172893029819973e-01,-4.366802751328798804e-01,5.498265291167934166e-01,5.150043723820046417e-03,-2.152431741294231191e-04,7.374448062613512059e-03,9.957697987556457520e-01
-4.544276412275615740e-01,-3.950224490724933424e-01,5.186420425906838050e-01,1.846400089870480626e-02,-1.019105596291804312e-02,-2.364961372232237714e-03,9.454836249351501465e-01
-6.243688233392583609e-01,-1.163730970539921250e-01,6.011846973534396010e-01,-5.295841923759768421e-02,4.104181967300057909e-03,6.908848618299931466e-02,1.077148556709289551e+00
-4.381760656282888133e-01,-4.275938560829584123e-01,4.772695092977234932e-01,-1.166981189301676165e-02,-1.550806115350609766e-03,-2.048304017732078749e-02,9.111199378967285156e-01
-4.021211696490938903e-01,-5.151811528641914162e-01,4.537704883681570323e-01,-3.097768184912710332e-01,-4.837288939002766519e-02,1.140688637720560158e-02,1.066487431526184082e+00
-3.969828827951691896e-01,-4.252097882771464499e-01,5.343720918609438097e-01,1.602641218563383846e-02,1.129230548208114138e-02,7.828562244137015139e-03,9.464909434318542480e-01
-5.038251075479339702e-01,-2.774782497149988481e-01,5.397635967940200841e-01,-2.246962115721410150e-02,7.862902836622839104e-04,8.656558190412739356e-03,9.517555236816406250e-01
-4.309394693063834381e-01,-4.166577429451399639e-01,4.483720644502533492e-01,-4.298410083669611942e-03,2.433419588700030164e-03,2.389019588883737819e-03,8.723101615905761719e-01
-4.501007755104407537e-01,-4.323011713695134040e-01,5.288281369115336306e-01,-4.092514078202476942e-04,6.597404947783953606e-04,1.516053821835680951e-03,9.701560735702514648e-01
-1.970686966565554088e-01,-5.808149029454073853e-01,5.512235712744668614e-01,-1.551510104589038375e-01,2.045646347260560074e-03,-8.492461108007880177e-03,1.032860636711120605e+00
-4.439821820883393388e-01,-4.331048260306266662e-01,5.174118760455905797e-01,1.573865410232128462e-03,-6.258382474836975129e-03,2.328684681653649894e-03,9.560756683349609375e-01
-6.051420691325153367e-01,-4.836392422847773376e-01,3.102328823785599488e-01,-3.619257119172065995e-02,5.851301440427095213e-02,5.279469547114028216e-02,8.740803599357604980e-01
-3.990180982769377382e-01,-4.366755379104560464e-01,5.428446373071889042e-01,-3.771004738660756802e-03,4.674459880566183070e-03,-5.222398845239237600e-03,9.613437056541442871e-01
-5.819143333713823196e-01,-2.395843234527132992e-01,6.355437952490594622e-01,-9.177743203892128887e-02,-7.908104402372356789e-03,-9.106314701064526645e-03,1.099239468574523926e+00
-5.225104110857611284e-01,-1.539388131599695453e-01,5.902143005961024702e-01,-1.803754822347442832e-01,-3.124292878641698329e-02,4.524612875840311466e-02,1.034677982330322266e+00
-6.319944118308298275e-01,-2.105770899246151018e-01,6.634920166749284087e-01,-2.247967966431314163e-02,1.732285360907302729e-02,-1.030303604295805704e-02,1.145718932151794434e+00
-4.645529583130887374e-01,-3.848332320489206704e-01,6.523528464135991412e-01,-1.675217616666062337e-01,-1.761052992534567051e-03,1.574114447136005721e-02,1.117916703224182129e+00
-5.808039738120277518e-01,-5.279122815648136235e-01,2.943915988304262044e-01,-4.973300300819527564e-02,-8.574643836620278112e-03,-6.068231351906624993e-02,8.609076142311096191e-01
-4.072739158323399056e-01,-4.121840019029592850e-01,5.334824818146634007e-01,-8.398381086938813689e-03,3.705036670501814754e-03,-1.272596733113448824e-03,9.433575868606567383e-01
-4.347641656518919651e-01,-4.250295990655924006e-01,4.810537188205029624e-01,-7.952404594493242551e-03,1.997627479595474528e-03,2.004659077256715563e-03,9.111069440841674805e-01
-5.461357111533197140e-01,-2.186243010292938105e-01,6.394957573241371040e-01,-4.263240705188862945e-02,2.267376221753342885e-03,-8.514268285324720631e-03,1.063185453414916992e+00
-3.141923358664830968e-01,-5.315456627051863281e-01,6.246208038640699289e-01,8.875659498160212713e-02,3.310261962085639387e-02,1.428332980577053102e-02,1.077125549316406250e+00
-4.318531438770714104e-01,-4.363128045293094837e-01,4.989528542127716904e-01,9.682426372697453681e-03,7.163949933689605200e-04,4.970361045872332588e-04,9.331957697868347168e-01
-4.521263265671199849e-01,-4.422539188398459942e-01,5.288186678428500320e-01,5.572553596501815878e-04,-1.491728344025272310e-02,-1.507417360299133022e-02,9.767376780509948730e-01
-2.827698499013894251e-01,-4.932846138095549615e-01,5.396823120336206037e-01,5.150455050304451887e-02,2.277002216247467001e-02,-2.588197418703896188e-03,9.504820108413696289e-01
-6.129380796709203993e-01,-1.965170107988266635e-01,5.893092810628233202e-01,2.270181147473982752e-01,1.709712943694004228e-02,-8.123889750832254120e-02,1.137300252914428711e+00
-3.941013061961073372e-01,-3.830894509585118790e-01,5.173260023772957572e-01,-1.288561692698952585e-02,2.502233493295962213e-03,1.296898191312297272e-03,9.062595963478088379e-01
-3.973151293119493443e-01,-3.937024231370542249e-01,5.258399662660787621e-01,1.222160741022240010e-02,6.540614321171346612e-03,3.810419194777360692e-03,9.216904640197753906e-01
-2.974537394657834621e-01,-4.794248847176962314e-01,5.276223288174668458e-01,1.507495167300447990e-02,-6.682176052902409624e-03,2.692946900091524199e-03,9.299685359001159668e-01
-2.978293916478576553e-01,-4.848280763547743177e-01,5.358475008762073610e-01,1.388937255536585973e-02,-4.501527958964847594e-03,4.850446090126452753e-03,9.415903091430664062e-01
-4.857845953051903587e-01,-3.003927811595047959e-01,5.391414811626478176e-01,1.599851571334662964e-02,-2.226104795333565083e-03,-4.837887961392830713e-03,9.464056491851806641e-01
-3.740143425550694345e-01,-4.440874911953404669e-01,5.357736245525477337e-01,1.739868696236386569e-02,7.072347868538692017e-03,2.875087840014634260e-04,9.473302364349365234e-01
-2.735122004618323333e-01,-6.844544988725387302e-01,7.107513878996283285e-01,2.248612408580956123e-01,-1.303328304460023290e-01,-4.308855644043735333e-02,1.323004722595214844e+00
-3.485696717549036094e-01,-4.747306954857187233e-01,5.564924615233503014e-01,7.001105322094293426e-02,1.293177051417331372e-02,-8.345517444931414841e-03,9.821674823760986328e-01
-4.361016378969886365e-01,-4.383512233193749830e-01,5.326721710438889756e-01,2.130706029562487840e-06,-2.182621672848012589e-03,3.176510829868634325e-03,9.699235558509826660e-01
-4.652500117987499739e-01,-4.704136957733194291e-01,5.690005641002287007e-01,4.509127151216643647e-02,-5.678789103704828811e-02,-1.129816000920259161e-02,1.044604539871215820e+00
-4.485207255548186445e-01,-3.918014021270287972e-01,2.986957402364870395e-01,-7.261869758629856640e-03,8.383999234799505151e-02,-1.565234617031700803e-02,7.356280088424682617e-01
-2.688331267545667758e-01,-4.710729753877598847e-01,5.302912463409144017e-01,9.508513924345965429e-02,1.923281141948679149e-03,2.514908837942633410e-03,9.318096041679382324e-01
-5.081086651029411705e-01,-3.148611863917131770e-01,5.460934032903906887e-01,9.462805432569366959e-03,1.097787007988801182e-02,-1.521863718848425612e-02,9.727742075920104980e-01
-7.745171259724499269e-01,-2.036937321423152314e-01,5.214739404980213155e-01,-3.535774774848390867e-02,3.553943911856057708e-02,-3.633642033939525617e-02,1.130110979080200195e+00
-4.318164680734398186e-01,-4.194604694011208057e-01,4.563071766539725793e-01,-6.106740077912829225e-03,2.906995654963279684e-03,-1.598462219644346954e-02,8.825227618217468262e-01
-4.392446803786154708e-01,-4.412633991753732721e-01,6.265721522694319701e-01,3.615816598272027504e-01,-1.530905554107462457e-02,-4.668631418551837109e-02,1.239994764328002930e+00
-4.087469372313989879e-01,-3.971812043601835041e-01,3.664163324433329372e-01,-3.941746313499550416e-03,-4.602854310204776769e-03,-1.227610232360736844e-03,7.695201039314270020e-01
-2.557887165066449198e-01,-7.160509756440220919e-01,6.489192561956170779e-01,-1.918172976597669332e-01,-1.079419121850160035e-01,2.429299495955519750e-02,1.262476682662963867e+00
-3.699489050359505704e-01,-4.570406651533730491e-01,5.606387460554883573e-01,3.872001801776505520e-02,2.835859520610375592e-03,7.682369692581119715e-04,9.793612360954284668e-01
-2.400354426614296766e-01,-6.693568611954515690e-01,8.656259121598333106e-01,2.653368641847493326e-01,2.749100087114336732e-02,2.449705480246076872e-02,1.448021650314331055e+00
-3.938478593763606872e-01,-3.336995471463302665e-01,5.150872829573395206e-01,7.968506077577985902e-02,-1.177997834490571985e-03,-1.529306802591792313e-03,8.911623358726501465e-01
-4.210372825947661379e-01,-4.325977984348515770e-01,4.669822532055111219e-01,7.201064647823600395e-03,-1.850984958215388075e-03,3.987914778227645909e-03,8.939753174781799316e-01
-5.254278356858796961e-01,-2.860438973619807701e-01,5.782384724791701514e-01,-1.363484629038033413e-01,-1.721946944994463477e-02,1.177299807651107592e-03,1.033368468284606934e+00
-4.261650926614330426e-01,-4.067005675996387959e-01,5.425536878487098313e-01,3.501735200566051791e-03,7.037129755975506627e-04,1.368167976976155569e-03,9.591575264930725098e-01
-3.776909143842345773e-01,-4.444377062159319824e-01,5.380890599829727394e-01,8.025973755326803322e-03,6.182213899701109391e-03,-3.959624335823259088e-03,9.510985016822814941e-01
-2.471447756047172595e-01,-5.282773276257053396e-01,5.426807434020093357e-01,-5.737254973759617870e-04,2.214384238768835229e-03,1.266909050992952437e-05,9.617282748222351074e-01
-3.197000475053681789e-01,-5.004580005622892847e-01,5.477564943516808338e-01,-7.573567714431780028e-03,1.798543234839823993e-02,7.750406617189333977e-03,9.712243080139160156e-01
-3.942653896309898376e-01,-3.980748685957645194e-01,3.395398826519855362e-01,-2.788479346162830563e-04,3.899965782107736589e-02,-1.343225687271759616e-02,7.391782999038696289e-01
-3.534824696886615381e-01,-6.194357093158463501e-01,8.241040091025760850e-01,3.065021520663092636e-01,6.743689518136564143e-02,5.870505107009843515e-02,1.440984606742858887e+00
-2.479845568247698306e-01,-5.922606420813519845e-01,6.434410387243559848e-01,6.701418236649334115e-02,1.131924968330639061e-02,-5.289881992421146747e-03,1.110856890678405762e+00
-3.858008167144004741e-01,-4.538149049892601372e-01,5.653163982168226687e-01,2.595695156725879790e-02,-2.222562918167758812e-03,-8.571386942111175813e-03,9.880262017250061035e-01
-3.900401647048747367e-01,-3.966609945499346979e-01,3.213071994876989246e-01,-3.230326671003168337e-03,-2.801910004603825471e-02,-2.850903893078643447e-02,7.180483341217041016e-01
-6.450332232035115299e-01,-2.654806723268019475e-01,6.530282474404848214e-01,1.936088880902205045e-01,-5.857862815645729915e-02,-1.336082226354213531e-01,1.229895234107971191e+00
-3.970333682350297710e-01,-4.057704437930417796e-01,3.505889692087948983e-01,-7.082098413622326706e-03,-3.012382680520708095e-02,-1.684020302886410012e-02,7.545005679130554199e-01
-3.940200795510147569e-01,-3.978887344406071280e-01,3.173050479848967820e-01,3.463849227495147468e-03,2.754985664639247184e-02,2.129028538900880341e-02,7.158372998237609863e-01
-4.208684548031476069e-01,-3.818597316800153574e-01,2.784459968242277705e-01,-8.708472592723469786e-04,-1.104047134688544360e-02,2.130459549577929518e-03,6.809291839599609375e-01
-3.744375953507352861e-01,-3.910225666836613101e-01,1.518258704271374659e-01,1.510016666490903575e-02,-7.749079379515003141e-02,-6.437165054570538614e-02,5.631039142608642578e-01
-4.164005099558919509e-01,-3.653322382780874178e-01,5.318539806287110316e-01,2.011184817265436811e-02,3.572744947923443392e-04,2.577904742496483245e-04,9.244365096092224121e-01
-1.618975435541921137e-01,-7.592329087165928803e-01,8.595006713522993502e-01,8.649957874864971918e-02,-1.044799741840764240e-02,-3.704975790602746573e-03,1.425831794738769531e+00
-3.185246574430126709e-01,-4.866270171441859360e-01,5.425109918304479306e-01,-5.188676276881787819e-04,-1.448508008715751819e-02,-8.167113959111817895e-03,9.566677808761596680e-01
-3.699519753833443447e-01,-3.833607645083743631e-01,2.036489178457658866e-01,-9.704392563312394179e-03,7.094761661715418000e-02,2.363293774585007584e-02,5.949351787567138672e-01
-6.271412816463575179e-01,-1.764046427802490324e-01,5.741583018728696475e-01,-1.503161613771784736e-03,2.016161269850014551e-02,-1.288767676775545712e-02,1.051921606063842773e+00
-2.985059324901951916e-01,-4.798904169539139897e-01,5.307746214265801621e-01,-1.351422830230181865e-02,-3.697166045742744656e-03,-1.123554356639639177e-03,9.336047768592834473e-01
-5.209386057733287334e-01,-2.933901106267358116e-01,5.633097167491750712e-01,-1.268408349182092998e-02,-2.283924346866196900e-03,1.020698778347653435e-02,9.906889200210571289e-01
-2.577066482400343639e-01,-5.173233793245437528e-01,5.362255348525096776e-01,-7.517500785555671604e-03,6.321355181641220150e-03,7.831042887047804865e-03,9.509577155113220215e-01
-3.366194676017831289e-01,-4.546893818988525515e-01,5.334476275513768684e-01,1.813071787763098630e-02,-7.198060476802128210e-03,-8.881972397720308207e-03,9.354487061500549316e-01
-3.449135258787326408e-01,-4.403791569714888832e-01,5.491097291387988522e-01,6.535748265106115784e-02,-1.067356917642443576e-03,-4.812579071009138662e-03,9.521698951721191406e-01
-4.332333787057472407e-01,-4.201753015980315142e-01,4.689927126832971194e-01,1.024013805753090471e-02,4.468779910384234992e-03,-2.510479877957980978e-03,8.959879875183105469e-01
-2.950213083653991375e-01,-4.878419880975210510e-01,5.481888274760128299e-01,1.397278035560800720e-02,-8.540364164556489904e-03,6.131647565150115560e-03,9.548239707946777344e-01
-2.652760461557787663e-01,-5.312451220731138068e-01,5.594783246781575015e-01,-3.697688842225611925e-03,-1.446562950877716691e-02,-3.301672052444714657e-03,9.854034781455993652e-01
-4.348576486543693220e-01,-3.778418007794530631e-01,1.765563232943935801e-01,-8.805861574800500496e-03,5.180609331221833896e-02,-1.549217495562151548e-01,6.500031352043151855e-01
-4.064204269738533326e-01,-4.534720075302248188e-01,5.327778665452791440e-01,7.112222645408030697e-04,-6.289693329257790150e-03,5.303292229139388919e-04,9.636488556861877441e-01
-3.945096224177485622e-01,-4.714780663343730027e-01,5.493457534184001956e-01,-4.384524307252692793e-03,1.393084136794474348e-02,6.494848374973313798e-03,9.849876165390014648e-01
-4.022579666118129560e-01,-3.945482437399479014e-01,5.269531537292087009e-01,3.671275302237468445e-03,2.883372712544535893e-03,2.043928100089905525e-03,9.254224300384521484e-01
-5.136738643581444386e-01,-2.606934837349248468e-01,5.488824508850821404e-01,-3.537052585132523111e-04,5.462094020883157854e-03,-5.003816932776967985e-03,9.614489674568176270e-01
-2.729474996703566414e-01,-6.790226621903708848e-01,6.502737469378810919e-01,2.129846526075065416e-01,1.128211462140737420e-01,1.724163054581452637e-02,1.251917243003845215e+00
-4.280021220565590201e-01,-4.093991326052806579e-01,4.357600281573417167e-01,5.478832548414993425e-03,-4.464291234352349598e-03,-6.555486772201498508e-05,8.547002077102661133e-01
-5.281359373366076859e-01,-2.790378098353679670e-01,5.600148638850779292e-01,1.898633172669252772e-02,1.245295926698139662e-03,-2.330357159457078641e-04,9.880040287971496582e-01
-3.496803760030722796e-01,-4.642276508870200602e-01,5.277384750413471881e-01,4.568458611936018418e-03,-1.506510793528893083e-02,-2.158499922144561153e-03,9.403448104858398438e-01
-5.801963771950444659e-01,-2.914245960968540050e-01,6.274670062487706090e-01,4.718186780984335118e-04,5.180144208158068281e-03,-8.042710566834299774e-03,1.092417597770690918e+00
-5.318768060067388115e-01,-1.955557045229124324e-01,5.272631194273975641e-01,2.710186535615349487e-02,3.706071996199830111e-03,4.963806454943008907e-03,9.386143088340759277e-01
-3.925175731673664625e-01,-4.016212216622134235e-01,5.237521864434460106e-01,1.828478539172121798e-03,-4.723008228547855448e-04,2.730695996487677961e-03,9.208732843399047852e-01
-5.267355029774759556e-01,-5.916034249299617631e-01,3.721720086062825228e-01,1.878477795723936805e-01,-4.360086338222863428e-02,1.202618391296963497e-03,9.910200238227844238e-01
-1.096594520410146267e-01,-7.378787627192285870e-01,5.855955776728486439e-01,-3.337333405500604068e-03,6.945325731872080410e-02,-4.099418898673111433e-02,1.155144095420837402e+00
-4.005788820512571347e-01,-3.937939358456638006e-01,3.411465100073969303e-01,-4.092458730534390132e-03,2.067659207379383968e-02,-3.515326224562013123e-03,7.392833828926086426e-01
-3.652530322623107617e-01,-4.183719880671872837e-01,2.210398809873226345e-01,-3.266762028846821510e-03,6.736024168047996530e-02,2.549848035143918029e-02,6.271355748176574707e-01
-4.275750578411660618e-01,-3.896038949239886140e-01,5.366144638187768656e-01,-4.007186943093585252e-03,-8.860795523378211733e-03,-3.606202584919272064e-03,9.459463953971862793e-01
-6.051874771956451404e-01,-1.445924990202820948e-01,6.677106724379698877e-01,1.184065071419100751e-01,4.763706388805460414e-03,-1.517260034870779317e-02,1.135317564010620117e+00
-4.356061130259842318e-01,-4.496991808039573213e-01,5.404379778291897862e-01,-2.399653170132731543e-03,-3.453379112934382676e-03,5.449834128789252455e-03,9.832386970520019531e-01
-4.379436045145493339e-01,-4.322330740863999377e-01,5.350456623770624143e-01,7.269843865122300628e-04,-1.660544046069714792e-03,-2.431934546425951107e-03,9.701608419418334961e-01
-4.216835505855212607e-01,-4.383976983028222141e-01,4.738697610009524608e-01,2.754515873598482965e-03,1.880847750879104715e-03,2.157963957146985176e-02,9.048170447349548340e-01
-3.930420895734826336e-01,-3.948175705349992182e-01,5.207371591772655961e-01,1.977239080289423974e-03,-4.412606747259311193e-04,-1.520817532908792281e-04,9.146750569343566895e-01
-7.348594450489581709e-01,-1.940243288924373144e-01,6.461858578908733497e-01,-1.419148634118234109e-01,1.459683729725885868e-04,2.910501453852522985e-02,1.231191158294677734e+00
-4.431638749493299057e-01,-3.943022492125003442e-01,5.247383051965800460e-01,-1.508658196344555939e-02,6.271667716810928189e-03,-1.230750885209908399e-02,9.450841546058654785e-01
-5.131064134479235150e-01,-2.995321215426304806e-01,5.433953957513437683e-01,4.057131294466201810e-04,6.098027916175354987e-03,1.316533404723480363e-02,9.678845405578613281e-01
-3.827243189407325552e-01,-3.900611541989718600e-01,3.082818129097527615e-01,1.463056224278830439e-03,-2.490740133039179641e-02,-4.625664467079580342e-04,6.960468888282775879e-01
-5.326673619931340253e-01,-2.132079160850828825e-01,5.367979267064109106e-01,-1.061348875167248684e-01,-2.254081799548795020e-02,5.304744711336464857e-02,9.736117124557495117e-01
-4.140199538858477801e-01,-4.075227225159957500e-01,3.967741275155630687e-01,8.238458361107557637e-03,1.508308960570509290e-03,9.553169694490109762e-04,8.076970577239990234e-01
-5.653772177029690038e-01,-3.681654939704177010e-01,7.447310119213554902e-01,-2.785311143410251766e-01,-3.691220294981217842e-02,7.998442865194954621e-02,1.323981165885925293e+00
-2.574449575602831830e-01,-4.999134523945813480e-01,5.327829018233680713e-01,3.298781099386054183e-02,1.941514919627743401e-03,-3.282810850791965246e-03,9.371044039726257324e-01
-4.625636539664373936e-01,-3.986604809847123509e-01,5.487886355078460676e-01,9.882250383912382329e-04,-9.874585394359775264e-04,1.426313293686940278e-02,9.812770485877990723e-01
-4.688820266151588201e-01,-3.312802409521626301e-01,5.376888829767220157e-01,-1.210648338496603423e-02,2.630748756119519454e-03,8.984919030330586198e-03,9.456827640533447266e-01
-5.228941176170704974e-01,-2.465580292572885357e-01,5.422039094213295662e-01,9.784020863982542671e-03,-7.387483864449005677e-03,2.338616797197341519e-03,9.575686454772949219e-01
-4.995558216870899515e-01,-2.611432748222282108e-01,5.185430537399983164e-01,-3.277601769967838918e-02,7.505151018236659198e-05,3.243195184384018576e-02,9.257519245147705078e-01
-4.684427955319155901e-01,-3.365288991363506454e-01,5.946472733990171289e-01,-7.841012376670729311e-02,2.507301379906781008e-02,-2.433810287193202693e-02,1.014609694480895996e+00
-3.586691645701221565e-01,-5.967008273193410428e-01,3.988432688299169415e-01,-1.944478840432996847e-01,-1.569048268254049361e-01,7.231097843169404654e-03,9.991197586059570312e-01
-3.892664113955933147e-01,-4.662570458139138063e-01,5.467488817128883793e-01,-3.773119058095600938e-03,-2.318994902562925009e-02,1.144972393124425725e-02,9.778373837471008301e-01
-4.350399727040965003e-01,-4.369216729857637316e-01,5.481481406323930328e-01,1.060533770060724176e-03,6.906451811845945588e-03,-4.129609621866042399e-03,9.842306971549987793e-01
-4.157568184565467728e-01,-4.172703664674515811e-01,4.223966513804050527e-01,6.548892356573641875e-03,-4.143390430136092810e-03,4.068054061235983065e-03,8.390482068061828613e-01
-2.934120944694005306e-01,-4.987564642093656464e-01,5.423802121651243313e-01,1.845200979726311502e-02,1.800459592100078776e-02,1.107197653470789502e-02,9.564005732536315918e-01
-5.024023114525173472e-01,-2.877868499941425018e-01,5.444613482771660795e-01,1.561916542727150199e-02,-1.185897296750899367e-02,-1.705973769624286041e-02,9.588206410408020020e-01
-4.425563937780295776e-01,-4.154264307881315732e-01,5.399134061026940046e-01,-1.677229869989900566e-03,-4.288339939123923111e-03,-3.325386367473864326e-03,9.692395925521850586e-01
-4.848899497540856141e-01,-2.751957304279001315e-01,5.232300919748393842e-01,-1.600052906895036570e-02,-2.476681434652779588e-03,-8.914906143673625299e-04,9.217752218246459961e-01
-5.694599607669461605e-01,-3.367286226833349772e-01,8.430251935701631449e-01,-2.794400239076155756e-01,1.738862618811087314e-03,-2.938753103351778723e-02,1.399074196815490723e+00
-5.185990981447559101e-01,-2.736076188871459092e-01,5.582397181518732321e-01,2.477513386111110036e-02,-4.434833554754877456e-03,9.200837986728544263e-03,9.787444472312927246e-01
-4.991578311936210599e-01,-3.204532645116567324e-01,5.444066099500156630e-01,1.313171886240720350e-02,-9.468910831555774413e-03,1.578729957139318046e-02,9.674742221832275391e-01
-7.172255483643634744e-01,-1.989383231232333404e-01,7.038452961364025651e-01,-1.744394299620375122e-01,-4.244742326058581483e-02,1.058579899681500180e-01,1.296862244606018066e+00
-4.178948455185875765e-01,-3.470907370738696707e-01,5.270808624833765998e-01,2.377803697452711418e-02,9.166940221450672194e-03,5.818494038916782567e-03,9.127617478370666504e-01
-4.877187319358307072e-01,-4.049596969136660674e-01,4.995827070419531779e-01,5.353416608863726528e-02,4.337746716239693906e-02,6.173239061986521281e-02,9.620708227157592773e-01
-2.797067650854915266e-01,-5.166323466161839573e-01,5.145355405647901170e-01,-3.281360100609412300e-02,1.518654889336839078e-02,4.874289256601546660e-02,9.413716793060302734e-01
-4.827462509258382273e-01,-3.503110429448521024e-01,5.374537338896375749e-01,-3.577313419749202344e-03,8.218052128501457734e-03,-1.057963671021027244e-02,9.611521363258361816e-01
-3.233861750868302631e-01,-4.488704558507332076e-01,5.287292760836767025e-01,-1.624953279436444284e-02,2.990367885572793767e-03,1.984013832565489389e-03,9.217401742935180664e-01
-4.358522130363503555e-01,-4.171508801764376440e-01,5.458273254902343830e-01,-4.921974618671869561e-04,-8.591704739930422843e-03,-3.207288304943766398e-03,9.725938439369201660e-01
-3.065957256036598300e-01,-4.654860131037034110e-01,5.326865909204350213e-01,-3.105417267646802537e-02,-5.821567923852220133e-03,3.213152746702359168e-03,9.306021928787231445e-01
-3.514517185109469755e-01,-4.652278675904329419e-01,5.407689280847736146e-01,-6.743739682857321366e-03,-8.753745067464114432e-03,-6.683345332116079687e-03,9.544718265533447266e-01
-3.692481856394832507e-01,-4.456941605373290760e-01,5.356358894506036972e-01,-7.596543361006656732e-03,-4.313686777104803853e-03,-5.562811918927366463e-03,9.455980658531188965e-01
-4.458237094376328313e-01,-3.735877717096421358e-01,5.408469485998390613e-01,-8.541442941942310393e-03,7.751002047385015942e-03,6.859731527970900494e-03,9.528925418853759766e-01
-4.612640914193402164e-01,-2.534855841534050525e-01,5.235982728171502121e-01,-1.104049205728883237e-01,1.869461936308513357e-03,7.719893283597017639e-03,9.193745255470275879e-01
-3.739748366438054306e-01,-3.873303399439723682e-01,2.714279048076500001e-01,3.227094467514131371e-03,-5.923807520054702545e-04,2.271205995174281622e-02,6.533930897712707520e-01
-3.844882357252191740e-01,-3.858595586087834040e-01,2.648433558079295036e-01,8.552752515579992165e-03,-2.572911537585031386e-03,5.364782662698640986e-03,6.502687931060791016e-01
-4.191095479659449063e-01,-4.119420254976853268e-01,3.594674927598037195e-01,-1.781623550084102114e-02,2.664580255927154195e-02,1.490161940960932005e-02,7.774326801300048828e-01
-4.427859245848088654e-01,-4.596156921139856188e-01,3.450753050331751837e-01,2.181033997869132567e-03,7.361253490519376053e-02,-1.244590432434949240e-03,8.065627217292785645e-01
-4.118209682433477958e-01,-3.409621245597878603e-01,1.549307747964165372e-01,-6.710936074915857530e-02,5.463751097027264025e-02,1.805459206301423397e-02,5.563396811485290527e-01
-3.237918150564405573e-01,-4.811606705045527455e-01,5.407337587411358282e-01,-2.832285760705614309e-03,1.446770515186580897e-02,8.245956224825058342e-03,9.534541368484497070e-01
-2.470938132974697665e-01,-5.110715313019740247e-01,5.349381342987015175e-01,2.426920847226406164e-03,9.364589299963314156e-03,2.868930719153577405e-03,9.423389434814453125e-01
-5.162194021463830662e-01,-2.648119676738379114e-01,5.405704872354306634e-01,5.602392614503096287e-03,-1.155217022266364583e-03,-1.858463287223271337e-02,9.567967653274536133e-01
-3.953873217741966095e-01,-3.988461692657027657e-01,2.895958768994039145e-01,-3.257646247100466283e-03,-1.021812421334248287e-02,-5.538422202479830955e-03,6.870373487472534180e-01
-3.752541283106186620e-01,-3.808403809422283848e-01,2.280848449451499671e-01,4.431623431232658943e-03,2.683972004419245272e-02,-1.963663561370819933e-04,6.079800128936767578e-01
-3.383433399688696719e-01,-4.355770197455861581e-01,1.754280972018746332e-01,-4.852376623122325872e-02,-3.067134106847493186e-02,-6.110787151087540559e-02,5.869069099426269531e-01
-4.295554343961996424e-01,-4.368051644414712165e-01,5.497008391843648534e-01,-2.827842120053490269e-03,-2.165810379038089328e-03,-3.868939681513250840e-04,9.829207658767700195e-01
-5.134964004805153692e-01,-2.509772736703527740e-01,5.365354007616506271e-01,3.147325150630927298e-03,-2.628443587323373368e-03,-8.956658118902021196e-03,9.466365575790405273e-01
-4.083165233097549307e-01,-4.114755322653020908e-01,5.342125416657064196e-01,6.764015660757625656e-03,4.432298802183324421e-03,2.205399453013722269e-03,9.442241787910461426e-01
-4.795613576374237463e-01,-3.931453879622939795e-01,5.554953809727355418e-01,-2.497240605536888390e-03,7.031117265733372729e-03,1.611431376013221922e-02,9.951435923576354980e-01
-4.495814435440682044e-01,-4.146050141879830675e-01,5.429249850124006072e-01,-2.034465468462901341e-03,3.192432289245330200e-03,-9.027274088892768208e-03,9.756359457969665527e-01
-5.294597060755272810e-01,-2.587712469737102339e-01,5.482427034309093061e-01,-4.698578554073996015e-03,-8.647917933275444530e-03,8.567522762530263916e-03,9.713413119316101074e-01
-4.265736571838286140e-01,-4.217029479918320001e-01,4.522756582510205625e-01,-7.509854592796230341e-03,2.138814790794452830e-02,-3.384631921746893146e-03,8.773227334022521973e-01
-4.995705614743796152e-01,-3.145178035699522368e-01,5.585825110386456460e-01,2.071074051576065125e-02,-1.114054108852505220e-02,-2.864132321890792976e-02,9.809375405311584473e-01
-4.968378344403200364e-01,-2.595207971014206194e-01,5.354352567590566769e-01,2.992834915862071371e-02,2.170626153546839892e-03,2.717979712291859751e-03,9.378989934921264648e-01
-7.379558627054911835e-01,-1.533679377470527072e-01,8.427486461633351134e-01,-9.307722298861632881e-02,7.897084819372734987e-03,7.846149220301251379e-03,1.393797278404235840e+00
-4.609733601771046629e-01,-3.551903825268821757e-01,5.497916208107942460e-01,6.491314577403015096e-02,5.430870722223963762e-03,1.146395306057579160e-02,9.690397381782531738e-01
-6.412790890697263047e-01,-8.285056751075939308e-02,5.407054902619827796e-01,7.454577208849233472e-03,1.378487292636054393e-02,7.406089780543395618e-02,1.032505631446838379e+00
-6.706555567452165967e-01,-2.591835261988298389e-01,6.239566947235596350e-01,2.127604380810381446e-01,3.058638906835797061e-02,7.164794762016968299e-02,1.211049675941467285e+00
-4.970238737755767744e-01,-2.320766556051118701e-01,5.741291088248342556e-01,-1.608234907449878903e-01,2.636833461292391323e-02,-9.455491410072278113e-02,1.019934892654418945e+00
-3.926911013441804488e-01,-4.137423172669760230e-01,5.299662724489301313e-01,6.898378269186544731e-03,2.168068688690973165e-03,-6.844490888518992705e-03,9.335203766822814941e-01
-2.696653225352636518e-01,-5.399723988838691646e-01,5.601263304605935689e-01,1.448500751129357285e-02,4.166826340336582911e-03,-1.853431750053827209e-04,9.932775497436523438e-01
-4.594868657750836305e-01,-3.228424423189134029e-01,5.467213657477399957e-01,7.243970011134011344e-02,-3.395932768798407692e-03,5.326090142627810942e-03,9.536750912666320801e-01
-3.737114086483873665e-01,-4.455424506589279465e-01,5.428778930055435659e-01,7.379625663916704499e-03,7.072111871630842872e-03,-7.836859537703062470e-03,9.547947049140930176e-01
-5.284476520633196728e-01,-2.663372838684667232e-01,5.441336514849142159e-01,-5.578533295001854644e-03,-9.732398175871525420e-03,-2.088856857884359777e-02,9.693731665611267090e-01
-5.053517740620090404e-01,-2.751166127980918530e-01,5.456236465002858305e-01,-5.548964164562685507e-03,-5.714605886543978192e-03,6.109961394927096792e-03,9.570205807685852051e-01
-4.521524053390818532e-01,-3.994697127493557209e-01,5.462673490966002410e-01,9.162817458401601584e-04,-1.494460747383413160e-03,-1.683789582528230286e-02,9.735901355743408203e-01
-4.669627826804977899e-01,-3.816403382241309039e-01,5.478071280070070381e-01,-5.783418520246614257e-03,3.547357402980564831e-03,-3.438492685119939538e-03,9.750019311904907227e-01
-4.617570559998505075e-01,-3.307037091743179058e-01,5.781506903982999157e-01,7.236133393088969856e-02,-5.484628412022341665e-03,3.981709783946123238e-03,9.890126585960388184e-01
-4.738478018174999140e-01,-3.806744720474062316e-01,5.519720790074745809e-01,2.319817072881487363e-02,4.095953625969222904e-03,-1.279151370473680452e-02,9.836484789848327637e-01
-4.676397114000407917e-01,-3.592883124003207751e-01,5.522847214189882115e-01,1.215040918979802403e-01,1.565174014469636679e-02,5.626787037231888861e-03,9.932750463485717773e-01
-3.865691636089017003e-01,-4.587483565538227337e-01,5.433159788767090159e-01,-6.614725153633585139e-04,1.255692595936525394e-02,5.746546164882018574e-03,9.682912826538085938e-01
-3.485637251931080205e-01,-5.197787726204812220e-01,4.937487095669431669e-01,3.127581318014350381e-02,3.894799073555569452e-02,5.845508967493195929e-03,9.437209963798522949e-01
-4.305716600954695439e-01,-4.964538919481263912e-01,5.856852908462556462e-01,-9.086022930532419717e-02,7.314478866584721295e-02,-4.884333740098585619e-02,1.073334097862243652e+00
-2.893095764087473265e-01,-4.766554454018877562e-01,7.257129421238320832e-01,2.197377700134056921e-01,5.241299766224329082e-02,3.289649237963618994e-02,1.188221931457519531e+00
-4.763561331543900157e-01,-3.116684055053162150e-01,5.397155615470290435e-01,6.841051983596799224e-02,-1.031858821979772176e-02,-1.289586787037243221e-02,9.523904323577880859e-01
-6.850594242566017122e-01,-3.323629055917571296e-01,4.931823732364593038e-01,1.467640247570600742e-01,7.442800079036854255e-02,5.494785250789226139e-02,1.089670658111572266e+00
-5.054675600498123034e-01,-2.757370747035118863e-01,5.411437787058114290e-01,4.453989109454108836e-02,-2.257275162014157725e-03,1.434806604183124293e-02,9.561993479728698730e-01
-4.504476006169148561e-01,-4.238437170149789157e-01,5.538646347885519683e-01,2.759957567109595344e-03,6.954131258682844791e-03,1.461455411073982885e-02,9.916858673095703125e-01
-5.463434679997516419e-01,-2.376014230108556280e-01,5.826009837752881282e-01,-4.442717822468545547e-02,-1.178827733937569920e-02,-2.114274941427255958e-02,1.014378547668457031e+00
-3.950205185792588503e-01,-3.925879499118007376e-01,5.217768187838512928e-01,1.734093295594490991e-02,1.955982933594448158e-04,2.699231724329299517e-04,9.160761833190917969e-01
-3.193157542885205480e-01,-4.673092617332632037e-01,3.736125327502750615e-01,1.695826765641451350e-01,-1.920043348054673721e-02,5.822912137770525076e-02,8.379458785057067871e-01
-4.336957377249087142e-01,-4.125918078109780951e-01,4.556224017630028378e-01,-2.005980094021451304e-03,-1.325338648197884380e-03,-3.812753355545995745e-03,8.789908885955810547e-01
-6.354384850173292465e-01,-1.549760536012259049e-01,6.977780227615016928e-01,-1.368604303412888079e-01,4.792813169924699246e-02,6.169547185576294834e-02,1.200938224792480469e+00
-5.210006968959483009e-01,-2.416320104023117477e-01,5.476035304880779719e-01,-6.077065415234324773e-03,-2.990440524802464098e-03,1.103143420934723021e-02,9.601718783378601074e-01
-4.136957837409227512e-01,-3.785797614324003524e-01,5.262508390523974455e-01,4.748403752617376405e-02,-1.318308875160949375e-03,3.720330347528081282e-04,9.265502691268920898e-01
-4.215030221224463913e-01,-4.339898298784291009e-01,4.610287380341703267e-01,-9.689936480808203703e-03,-3.202231981676366759e-03,-7.197388234571571244e-03,8.891040682792663574e-01
-4.876555844951908081e-01,-3.806302989713806761e-01,5.663478220992399503e-01,-9.138063300727777838e-03,-3.334373122687050300e-02,8.168006143068231098e-03,1.006657123565673828e+00
-4.520702660451272892e-01,-3.738397420030651896e-01,5.524187293671698473e-01,3.252206352727581018e-02,-2.257341305640152632e-02,-1.788725412543679463e-02,9.706688523292541504e-01
-4.366105456057804979e-01,-4.245305548680329832e-01,4.789925327269755062e-01,-7.693781045544272577e-03,-2.492998192065187281e-03,-3.249525996375885947e-03,9.097484946250915527e-01
-4.355056306489035189e-01,-4.239338854773248566e-01,5.490482583821877371e-01,1.072260791598253537e-03,-3.283875204656959250e-03,2.993399373431135293e-03,9.788513183593750000e-01
-4.131624488117444094e-01,-4.136085469509310220e-01,5.358868835452598178e-01,8.948984665301714650e-04,-3.419204787708220172e-03,-5.147307537789487693e-03,9.493340849876403809e-01
-5.030201016201260034e-01,-2.350079201996657097e-01,5.481709182709775252e-01,-5.643621046882203729e-02,1.051878263931149693e-02,-1.234482904485564164e-02,9.515489339828491211e-01
-5.905074431732826312e-01,-1.180374221746941510e-01,5.553978010524732722e-01,-9.395983031539917318e-02,-4.368053547316046170e-02,4.814179005713498105e-02,1.016898751258850098e+00
-6.534604120749182288e-01,-1.868467676370650088e-01,5.449760240652258281e-01,5.885390447713762657e-02,-1.873455286240315043e-02,2.465926670863215209e-02,1.052634716033935547e+00
-6.309661335035753327e-01,-1.860221924177388186e-01,6.493296548379450250e-01,6.937750253879586531e-05,1.543996484736387745e-02,2.083770509323690928e-02,1.126716613769531250e+00
-8.322253049785169887e-01,-8.914021908406688510e-02,8.253260800065367331e-01,1.362667145299086280e-01,5.900950891649867081e-02,1.690030376623623543e-01,1.489895462989807129e+00
-7.273125469196209947e-01,-3.144828584632232138e-01,4.860806100177048616e-01,1.093083059590167355e-01,-2.172096976232026216e-02,5.753104070667229564e-02,1.090420246124267578e+00
-6.254010084485989163e-01,-9.597916272631379364e-02,8.636502383323352294e-01,1.275631098194884155e-02,-2.241291396696848057e-02,-1.205680251131484304e-02,1.308302760124206543e+00
-5.827350970278990516e-01,-1.242390331032258710e-01,6.316321699113011112e-01,-1.244346774853786891e-01,1.599432627580408411e-02,-8.891938850179548215e-02,1.095017433166503906e+00
-4.312120279596273198e-01,-4.161498215304425541e-01,5.509054765724102909e-01,3.127542865486881984e-02,1.487418283599219529e-02,2.207320051027649582e-02,9.772658944129943848e-01
-7.670035449261237703e-01,-9.056891186059667920e-02,6.362826458698938037e-01,-7.249191104548763365e-02,6.547291452485901053e-02,-3.662462525383162332e-02,1.228899478912353516e+00
-3.340591450913819593e-01,-6.161396328883416151e-01,7.205218162293577366e-01,-2.789816473851398637e-01,-7.218277241685315537e-02,2.545490149429446847e-02,1.319187045097351074e+00
-2.677804757725685270e-01,-5.010491693445002781e-01,5.672662984728997770e-01,-6.857742432850431891e-02,-3.340216337273887309e-02,6.258703820552352637e-03,9.818761944770812988e-01
-4.418413886655027656e-01,-4.089066726308194233e-01,5.458537767032474175e-01,-2.739030761677889968e-03,6.530882137857230846e-03,7.545331725885529375e-03,9.718118309974670410e-01
-4.282362477202437678e-01,-4.391954995191244548e-01,4.954859840562774176e-01,7.002986461730749228e-03,3.411125331634972183e-03,1.349491597758526243e-02,9.296421408653259277e-01
-4.240550310071438123e-01,-4.350064024543379149e-01,5.451212982422093400e-01,-8.207554598820581597e-04,5.382786764511207460e-03,-3.836836892273020813e-03,9.747664332389831543e-01
-3.962756195390188529e-01,-4.268340146280082403e-01,5.353419442228620762e-01,-4.571200024999094898e-03,-1.242223261549323847e-03,-2.331968911751069844e-03,9.473106265068054199e-01
-4.353024699975411305e-01,-4.395801444031494087e-01,5.125903510507605620e-01,8.431458056816417204e-03,4.518974651183755610e-03,-4.904700782186087286e-03,9.502213001251220703e-01
-4.398977593574023848e-01,-4.348031298530495303e-01,5.442978790891460639e-01,7.815081471953949643e-04,3.838620309864752833e-03,2.336443897667188525e-03,9.816900491714477539e-01
-5.237529583838336222e-01,-2.271393316962170283e-01,5.532985036173982962e-01,-5.476159551278615700e-02,8.137985642391102475e-03,-1.540358245366187095e-02,9.687405824661254883e-01
-5.334812685350299732e-01,-2.393853539460648050e-01,5.521230981063867116e-01,-2.880185606835317189e-03,-1.435509734238423494e-03,8.737816124990993930e-03,9.726343154907226562e-01
-2.528120057325835557e-01,-4.234092218186050194e-01,3.695936560738088961e-01,-1.869655222718970000e-01,-1.111876827029306403e-01,2.980432394637072546e-02,8.168807625770568848e-01
-4.470380589558443085e-01,-4.317449187497730545e-01,5.159498008640510669e-01,4.381427039947004276e-03,2.882357518208773089e-03,-1.736558083480493810e-03,9.554809927940368652e-01
-4.874338604590264246e-01,-4.565650176579179043e-01,6.422872264313117530e-01,-2.681356278583718056e-01,-6.041670213094069153e-02,7.276568744652250897e-02,1.218554377555847168e+00
-4.022930672076057146e-01,-4.012085397658687880e-01,5.284787867889381152e-01,2.438693927024682736e-03,1.201450040734107451e-03,-6.516967660428382367e-03,9.303104877471923828e-01
-7.725597490360228692e-01,-1.874413028670752490e-01,5.709555562810939566e-01,8.474786975590072047e-02,-6.611320892154919776e-03,-1.477108052058088428e-01,1.203500986099243164e+00
-4.650000229690771092e-01,-3.440460619497724970e-01,4.947814913445210960e-01,-4.589377363047081326e-02,9.884852351902744319e-03,1.622451966654685218e-02,9.094628095626831055e-01
-3.848999280322987215e-01,-3.841728493634083974e-01,5.484891611818946133e-01,-1.033112808481606026e-01,-1.347631170219945954e-02,2.109485773408568965e-02,9.510186910629272461e-01
-3.020776794752819683e-01,-4.957906405699504249e-01,5.450126346580709269e-01,-6.775574398946203336e-02,1.106891430063899201e-02,4.823333038764399637e-03,9.661206007003784180e-01
-4.358826180659268190e-01,-4.401102720159784654e-01,5.520344684639837407e-01,1.082078239280862691e-03,-1.101367246656190062e-03,-1.703105697321144300e-03,9.900456666946411133e-01
-4.563262311819137884e-01,-4.056885040224019745e-01,5.415674609598482014e-01,-4.965155191944453997e-03,-2.526039808654154378e-03,-5.077001014925572320e-03,9.736505150794982910e-01
-6.047556354915646359e-01,-2.109770665927400146e-01,5.755621934526174988e-01,-6.151139244577277787e-02,6.745102651170035643e-03,-1.932620487061277245e-02,1.046917319297790527e+00
-5.281930914620085460e-01,-2.743453794747873209e-01,5.531547489964495634e-01,-3.472336276795235949e-03,1.019265133776959664e-03,2.119295716779069985e-02,9.801228642463684082e-01
-3.319264853626853196e-01,-3.570230693994644322e-01,5.996612621797954290e-01,-2.499271268012778491e-01,-9.259470954739323911e-02,8.091446333220365938e-02,1.060480475425720215e+00
-5.705622448307414718e-01,-1.680501083152555752e-01,5.360163684201730838e-01,1.001070233672181620e-01,3.535359869668092819e-02,-2.630999322438815763e-02,9.884389042854309082e-01
-2.763064996828223374e-01,-4.448525136409392511e-01,6.062961577208397790e-01,-2.546153016934133984e-01,-2.215397085629716017e-02,4.934157494370922103e-02,1.076762437820434570e+00
-3.530398907456480662e-01,-4.754729204570135592e-01,5.504897435591084021e-01,8.837283600340327394e-03,1.999217661562616502e-02,9.439507299457564407e-03,9.714310169219970703e-01
-7.766034570162519968e-01,-1.980279167798800199e-01,5.999493468016672271e-01,-5.109490211324173997e-02,2.179600236684777620e-02,7.421889727135191905e-02,1.207886576652526855e+00
-4.339798857826097644e-01,-4.337166635115328184e-01,4.872694816741383050e-01,9.472952777245437911e-03,4.148062062885238786e-03,1.780253958881349019e-02,9.218077659606933594e-01
-2.275644258165381295e-01,-5.714903329272242871e-01,8.154905961543115200e-01,-1.698126778686736005e-01,1.876586827996388346e-02,4.189805488207420242e-02,1.287561416625976562e+00
-4.900662885865375573e-01,-3.476049346884003688e-01,5.545392768550251317e-01,-1.301415647057442386e-02,1.708788172936363293e-03,-1.342427546046694523e-02,9.817013740539550781e-01
-3.314599270618457383e-01,-4.245200840644892670e-01,7.461821462526804227e-01,-3.163077189619673546e-01,6.863921530108545166e-02,-2.898103176081111287e-02,1.259787082672119141e+00
-2.878439228089300639e-01,-6.216538213418577596e-01,8.524574487115048615e-01,-2.853445928825365518e-01,1.188393678239087897e-02,-2.258430967287463481e-02,1.427788019180297852e+00
-3.204050998038183717e-01,-3.686650902464423951e-01,4.873938257762824300e-01,-2.041697753821851147e-01,-1.879177543416179347e-02,6.490783728942045583e-03,9.055905342102050781e-01
-5.963835195068537542e-01,-4.286935895658937623e-01,4.133046493352453554e-01,-2.050220209137082195e-01,3.151680860659110406e-02,-6.054191308533377058e-02,1.009135007858276367e+00
-7.914452720022594479e-01,-1.768611983483669436e-01,6.171112238229260472e-01,-2.975127391132417060e-02,2.976586958419614320e-02,-1.277738356214052073e-01,1.245134711265563965e+00
-4.361114608572748130e-01,-4.506636161632587290e-01,5.423857536606898622e-01,3.347265376006561266e-03,-8.956062287588438184e-03,2.716989903190604287e-03,9.860041737556457520e-01
-4.227288478910541936e-01,-4.141000121823756319e-01,5.422113869701749023e-01,-2.095656014635305722e-02,4.514369554479908016e-03,8.069602046426188353e-04,9.613732099533081055e-01
-7.387036199960737015e-01,-9.132487150383131191e-02,6.240751724412315626e-01,-1.360265174300453461e-01,-5.453228470993289057e-02,-2.312293972662267990e-03,1.207674741744995117e+00
-3.812440125402625224e-01,-4.174999899552447324e-01,5.275664343482023844e-01,-4.467222367824067938e-03,6.552602210539583416e-03,-7.289164136285952028e-03,9.276577234268188477e-01
-3.289682507710834369e-01,-4.460675975367475177e-01,5.322860241921910651e-01,-1.479844298541172810e-02,3.654342705729863965e-03,4.503851389845907847e-03,9.257869124412536621e-01
-1.722410314849296409e-01,-7.640932572867391581e-01,8.832105873406933538e-01,-1.034880085474217115e-01,-1.320463221670365589e-02,-1.402113291800379186e-03,1.456570267677307129e+00
-4.084219448255311802e-01,-3.217339050142093426e-01,5.542027760973504691e-01,-2.112102825254178473e-01,9.230507270026150346e-02,-4.170266134181768725e-02,1.007631182670593262e+00
-3.088204755875592622e-01,-4.552255084317974321e-01,8.110170486408307955e-01,-2.525417810488372328e-01,-3.627801688046786155e-04,5.589409712272135067e-02,1.280673742294311523e+00
-2.796771506136921381e-01,-5.539233063522120970e-01,5.714411419542686499e-01,3.314481109819304716e-02,-1.678634277635973962e-02,-4.565182443464401579e-03,1.018446326255798340e+00
-5.181514730113389033e-01,-2.438743290590940083e-01,5.769746552118039107e-01,-5.113825915638072622e-02,-2.073120225472508890e-02,2.889289404534260003e-02,9.928747415542602539e-01
-6.138097167441403101e-01,-5.001728066270728634e-01,2.722739176862147836e-01,6.829784184803960531e-03,-2.094181586403892701e-04,8.560271749024937760e-02,8.482271432876586914e-01
-5.712799106862256338e-01,-4.981799812082061130e-01,3.354177497524978291e-01,1.045360105279130869e-01,3.067724995543435335e-02,2.165763969080172421e-02,8.934083580970764160e-01
-5.278980499589106534e-01,-5.372404429739934262e-01,3.228158492785274669e-01,-1.010208527583929400e-01,-3.546650567418015154e-02,-7.879228779818835127e-02,8.858685493469238281e-01
-4.151607869084838476e-01,-4.346564931234607188e-01,4.569483221276443574e-01,-2.258323343937925463e-03,-2.485565261193846409e-03,-2.674593548661616856e-03,8.820499181747436523e-01
-4.727310660369871131e-01,-4.439793907434356202e-01,3.391123069406331014e-01,-5.744160623299694041e-02,6.961773924550462844e-02,3.311155367522777143e-02,8.150473237037658691e-01
-3.279349744758647267e-01,-5.695760835083123474e-01,8.790246024320799156e-01,-3.095737191177212466e-01,4.851871538601126854e-02,-1.924321140660019414e-02,1.449990868568420410e+00
-3.837578325849383409e-01,-3.435696092231218524e-01,5.499103733543064809e-03,-2.644426988031163550e-02,8.848693502917026610e-02,-6.974202295033419229e-04,4.038337171077728271e-01
-3.277424506317813124e-01,-6.785073474003532334e-01,4.546555358916052336e-01,-4.209289153654318522e-02,3.591229955118514089e-02,6.860644531689722575e-03,1.009428620338439941e+00
-3.875466100344033826e-01,-4.493865028919253324e-01,5.154942668309907550e-01,-1.267264116617008649e-02,-3.441735619076811969e-03,1.749778841763001977e-04,9.357715249061584473e-01
-4.018897400269932363e-01,-4.149911254548846462e-01,3.676370703950443408e-01,7.173982250664771680e-03,1.924632627931988429e-02,-3.184134512512927506e-02,7.789302468299865723e-01
-4.100910153493164123e-01,-3.934254745056595670e-01,3.717185578487256503e-01,5.629109137029632629e-03,-2.333935662961941944e-03,2.005667008726822690e-03,7.736912369728088379e-01
-4.188973636717377436e-01,-4.168215924000518435e-01,3.404519113596655711e-01,7.014444773022515678e-03,-1.058930080416940929e-03,-2.433038975806577423e-02,7.595829367637634277e-01
-4.090745408224888413e-01,-4.224402266980505360e-01,4.262857100302449576e-01,1.224060277970896553e-02,-1.148633519543011683e-02,-4.736226311059880956e-02,8.466081619262695312e-01
-4.804859700709230852e-01,-5.455121649265095574e-01,5.543602764027848462e-01,2.818922462413164243e-01,5.229334769557857088e-02,1.393293717638757409e-02,1.178814291954040527e+00
-3.328255145627430078e-01,-6.656151375960586147e-01,4.480706287705783497e-01,1.924081031679999998e-01,6.051559930643878038e-02,7.993948818920856847e-02,1.059075951576232910e+00
-3.711192457925258648e-01,-4.142087913268431842e-01,5.208758674072199168e-01,1.005315170462759214e-02,-8.820366977334824238e-04,4.363120965572326801e-03,9.144999980926513672e-01
-3.902689184494042562e-01,-3.941913782348757667e-01,3.089856873716586572e-01,-2.032585768358001303e-03,2.419771697445976394e-02,-3.346825111848429624e-02,7.048720121383666992e-01
-3.909247401339181471e-01,-3.946642987479399567e-01,3.120723727913409240e-01,-1.834519569616063902e-03,1.981517789797007656e-02,-1.933132238968369304e-02,7.065104246139526367e-01
-2.770119776459397665e-01,-4.987421868344930620e-01,5.563183208891221421e-01,4.798577809465096738e-02,-1.319421413163926124e-02,-7.090939872810795089e-03,9.674498438835144043e-01
-5.769059539128776892e-01,-4.477370395212116327e-01,4.805215671867918426e-01,1.841322941859602214e-01,4.540296982878135046e-02,1.178723518390209501e-02,1.051934361457824707e+00
-1.388807493879555821e-01,-7.552039566008611482e-01,8.546318520617187664e-01,9.960839464036402857e-02,1.711025747405136785e-02,2.179887215304239512e-02,1.418208718299865723e+00
-4.160523920716629465e-01,-4.190698727633371257e-01,4.300717271522747076e-01,7.516895993296209173e-03,-3.417912164160063528e-03,2.694587087261224312e-03,8.477703928947448730e-01
-3.759782028652888242e-01,-3.812427422982358483e-01,2.776033994521515114e-01,1.805228037816642480e-03,-1.801242181628122635e-04,-2.263297151992054628e-04,6.562373638153076172e-01
-6.326529883746196958e-01,-3.028380102104217264e-01,1.866455633536180381e-01,1.747243513833833528e-02,-2.789544130700209040e-02,7.163187521374099823e-03,7.163904905319213867e-01
-4.046255924767027112e-01,-4.008563496783107416e-01,3.454807974246376645e-01,7.629201716957008904e-03,1.886624712764561548e-02,-3.343932694230003499e-02,7.512944936752319336e-01
-4.029781365371576940e-01,-4.512479210808600372e-01,3.341331200591083350e-01,3.665330774963973526e-02,4.827183143660448983e-02,-1.873869598384447083e-02,7.702710628509521484e-01
-4.119326188570353042e-01,-3.997948971947359320e-01,3.814376971056623322e-01,-1.547390211392272660e-03,-4.481125628403887819e-03,-3.053555682709910204e-03,7.874321937561035156e-01
-3.996198413316474629e-01,-4.111399552881430663e-01,2.958806238208304684e-01,-1.399474605052592087e-02,-8.106664112008768117e-03,-1.667527566679650065e-03,7.018966674804687500e-01
-2.139235416674878376e-01,-5.202056887528222484e-01,6.435223485143145572e-01,-1.961509972685961389e-01,9.098692138200380631e-04,-6.361604045115496278e-03,1.098722934722900391e+00
-4.156136260259226112e-01,-4.154709107572813198e-01,4.239943685068641166e-01,-7.230677440792833248e-03,1.860855965120827675e-03,2.774049811577894518e-03,8.396499752998352051e-01
-5.820694114801335806e-01,-2.274262420068466906e-01,6.183846506416831312e-01,8.064162234335758850e-03,5.797419139061960568e-03,2.698824840442868439e-02,1.069396972656250000e+00
-4.450740080523877817e-01,-6.317246095891136948e-01,3.333775215810194092e-01,4.145307910689643299e-02,-1.677624927931726725e-02,-3.134737961338135426e-02,8.916675448417663574e-01
-5.074390292543833336e-01,-2.335822414627693466e-01,5.350631390062816628e-01,6.134152903151751657e-02,-8.443274470096915132e-03,-1.060425308374703807e-02,9.424179196357727051e-01
-5.532725402039098128e-01,-2.023083393272849528e-01,5.599129863224454606e-01,6.537581024506250969e-03,7.234825404337010338e-03,-1.333022047434252733e-02,9.861480593681335449e-01
-5.338131845324131097e-01,-2.536541079131944265e-01,5.478407421911860586e-01,-7.156877213963878590e-03,-8.679477734569932337e-03,-1.294091380869459920e-02,9.727852940559387207e-01
-3.962159638693960595e-01,-4.054831719421894687e-01,3.472741260567652199e-01,4.244534348019703661e-03,3.230538791010496152e-02,-2.695228435568654962e-02,7.517431378364562988e-01
-3.746404694703514004e-01,-3.786884776058062618e-01,2.287933103547372116e-01,-1.682424349963623908e-03,2.247073500018151315e-02,-1.847025401195761043e-02,6.075674295425415039e-01
-3.951767518246036559e-01,-4.051389263904445759e-01,3.462002852810072140e-01,-1.085016461492586612e-03,1.254144829503280392e-02,-2.625619871733685107e-02,7.481099367141723633e-01
-3.916462606263556578e-01,-3.945006184019553275e-01,2.483015985245693447e-01,2.094490552422268240e-02,3.891745721471304154e-02,2.262220273836366979e-02,6.471191048622131348e-01
-1.875577995807744813e-01,-5.691678792072283333e-01,5.778942938805329277e-01,-1.659113193148685494e-01,-6.779437210791863788e-02,7.293855394884600496e-02,1.065821528434753418e+00
-3.245113125730843540e-01,-4.671443909621088020e-01,5.473352834284997970e-01,5.776010536682732455e-02,-3.297694313732784863e-03,5.342620617281728518e-03,9.565259218215942383e-01
-4.304734365907394444e-01,-4.227002256795879820e-01,3.252570254527138438e-01,-9.433144824989140448e-03,5.041909538842834909e-02,3.351957407698484548e-02,7.593275904655456543e-01
-4.120887538302475672e-01,-4.063940307710978139e-01,3.790878788090876750e-01,9.714044352409271707e-03,4.020849517690750635e-02,-6.350020730063860551e-03,7.916701436042785645e-01
-3.746502158673046257e-01,-3.699217746301443066e-01,2.028600299638697591e-01,2.006256701175119367e-03,7.806508946393462059e-03,-2.411821242918919458e-02,5.768445730209350586e-01
-3.710283673529130022e-01,-3.830084436483326416e-01,2.149285143208680693e-01,-2.058083570300843924e-03,2.669537525996755478e-02,-8.568972945695705126e-03,5.940368175506591797e-01
-4.419563923915402759e-01,-4.378742744329957581e-01,5.384505858906456499e-01,2.971267710430970221e-03,3.646536322882980470e-03,-1.929361008878562479e-03,9.784119129180908203e-01
-4.222825832564003901e-01,-3.899842591519173118e-01,3.245593679475633486e-01,-6.831371369903757509e-04,-2.971523109672329771e-02,-2.269156706133933568e-02,7.340909242630004883e-01
-4.577796191424274852e-01,-6.341260670480159956e-01,3.453570027076067195e-01,1.325490258519463060e-01,-2.250760204313913618e-02,8.489165935699190257e-02,9.453063607215881348e-01
-4.262945833687193375e-01,-4.157162984671927131e-01,4.187314539300107663e-01,8.986035586564179029e-03,-3.505744485970558461e-02,1.689405833378058649e-02,8.426313400268554688e-01
-3.761947787788373354e-01,-3.848111970744957366e-01,2.822266841160071538e-01,1.471285533306354283e-03,-2.653744567807114242e-04,8.514044030222251910e-03,6.629408001899719238e-01
-4.182392989442261233e-01,-3.665910526636484978e-01,5.385027990959972977e-01,-2.181885919180703293e-01,-3.018287652697562023e-02,-1.599989872039455155e-02,1.007436752319335938e+00
-3.864819606393561924e-01,-4.197265859226154139e-01,2.921489919810282831e-01,2.303050862532868281e-02,-4.196135453441414420e-02,1.108343774489163082e-02,7.010335326194763184e-01
-3.998285330053998887e-01,-3.973891308690746804e-01,3.453752519902099083e-01,1.172733814354336591e-03,1.885632058800545269e-02,-1.983261527725603199e-02,7.454982399940490723e-01
-3.858451393026553489e-01,-3.937318392769315056e-01,3.136229912120687136e-01,2.398621736115061787e-03,-1.068948141979468667e-03,-2.031324605163872810e-02,7.043386697769165039e-01
-4.265467844738591308e-01,-4.310136156466056190e-01,4.671719497859952996e-01,1.522907795021356120e-02,-1.643188989971611919e-02,8.980624822572336186e-03,8.969353437423706055e-01
-3.973440853211774315e-01,-3.918547656942200086e-01,3.205135665619639473e-01,-4.268981130945245783e-03,-1.409339104234401743e-02,-2.161345586515487499e-02,7.165620326995849609e-01
-3.810092365195184017e-01,-3.850895172665531052e-01,2.629413461170573285e-01,-6.500444490722933830e-03,-2.102951858942777100e-02,8.750986430341965716e-03,6.473019123077392578e-01
-3.872151413157499111e-01,-3.770728100349655665e-01,2.388844397568781752e-01,-7.304573736995191406e-03,-2.946274466771527101e-02,-1.246901536813755339e-02,6.236858963966369629e-01
-3.157023895641483113e-01,-5.433189673890556071e-01,5.333148520175245988e-01,-2.687255168233139077e-02,-1.923559166828624906e-02,-2.767954391829433730e-02,9.856292009353637695e-01
-4.400749541359156858e-01,-4.353284702917252780e-01,5.512567975608156923e-01,1.997760552481206951e-03,-4.820520391000128121e-03,-1.133588986257538355e-03,9.890102744102478027e-01
-3.279134081090744890e-01,-4.763252890827668895e-01,4.736364217563805434e-01,-1.626390624080541539e-02,-4.734118669079676045e-02,6.289184795375551626e-03,8.894400000572204590e-01
-4.458188223573303910e-01,-4.248445692179490529e-01,5.068614371376634065e-01,-8.507164333296057639e-04,-4.467065386418494523e-03,-3.711678298361423614e-03,9.424230456352233887e-01
-4.203069260598455426e-01,-4.066258115861664524e-01,3.959066472468063536e-01,1.658897076216322639e-03,-3.290645912111059973e-02,-1.672145923553657737e-02,8.119856119155883789e-01
-4.389360259441535961e-01,-4.191168542856590351e-01,4.594378140436513602e-01,-4.362455282908598783e-03,-4.638159726506778380e-02,-1.440101022323327443e-02,8.926345109939575195e-01
-4.488794109848876501e-01,-3.017111085680069804e-01,4.549948976816672319e-01,1.962993001204722254e-01,7.174903779035872453e-02,4.596689031341502640e-02,9.181549549102783203e-01
-4.607757774970530074e-01,-3.643838862166905446e-01,5.329259534742941673e-01,2.673807632182196442e-02,-9.556793526075693049e-05,-1.404243999206435112e-02,9.506240487098693848e-01
-4.375467420951144604e-01,-4.380482200740151710e-01,5.054364197323907293e-01,2.179147355626419574e-03,-1.423939430088443092e-02,-7.764046047530146627e-03,9.436597824096679688e-01
-4.104304050981643637e-01,-4.156369380023265392e-01,4.093034874936720691e-01,1.177690856481217500e-04,-2.088725946790410265e-02,2.909831516391372572e-04,8.231450915336608887e-01
-4.379944064960547001e-01,-4.200646394214033741e-01,4.686038499366614873e-01,1.694530652895681394e-03,-1.893499592351920863e-02,1.313244099698847572e-03,8.983741998672485352e-01
-5.958891344461565431e-01,-4.181669710933663131e-01,4.538495009630624244e-01,2.006335953993648724e-01,-3.988370165514888710e-02,-1.702369951621779051e-02,1.036039352416992188e+00
-4.665587532758584954e-01,-4.036011870498045773e-01,5.523902451659771229e-01,-3.248417609426130365e-02,-1.565330042662975429e-02,5.488778293701479516e-03,9.909900426864624023e-01
-5.794647461661701637e-01,-1.264235125075233168e-01,5.609461092706561347e-01,-2.443448318811685185e-02,-7.300395291205411669e-03,-1.025376420643926978e-01,1.011248230934143066e+00
-6.432530004284561231e-01,-2.955595261444993183e-01,1.360553848270896760e-01,-2.089344448069257662e-02,-1.887516825088202121e-02,2.659767387470961947e-02,6.795238256454467773e-01
-4.309374116827370815e-01,-4.083409977111479572e-01,4.003696384604830127e-01,-3.303337178191600738e-03,-6.829627927208212212e-02,-5.953480063993790879e-03,8.288121819496154785e-01
-4.415980937091355529e-01,-3.490579864683214795e-01,5.405963631386710988e-01,8.588333960397923073e-02,2.478989340134082550e-02,2.434697916924491619e-03,9.520328044891357422e-01
-3.200248942757371040e-01,-5.714843337939565782e-01,6.622971833157542676e-02,-2.992857753924741890e-02,1.812090117985444906e-02,7.833197802371408280e-02,5.758748054504394531e-01
-6.900387369497877899e-01,-1.862653672403589700e-01,4.382943224040354302e-01,2.039580060613205015e-01,-4.551471788639309402e-02,-4.021704538718621352e-02,1.046117901802062988e+00
-6.161985443202391277e-01,-5.409725739760830043e-01,2.953932811036293904e-01,-1.620913891855713801e-02,-1.964800942329960817e-02,-4.733742541336634357e-02,8.813353776931762695e-01
-3.893059176612108652e-01,-2.994850283001090352e-01,3.657742387073230628e-01,1.780952556290694155e-01,-3.121375993824799383e-02,-4.324171586826427299e-02,7.836313247680664062e-01
-5.113296501864541543e-01,-4.745190156695436867e-01,5.146156755290496321e-01,2.542391799653093143e-01,-4.215635447123631391e-02,-6.119422231826771030e-02,1.107533931732177734e+00
-5.988414210097816603e-01,-1.674812609957837539e-01,7.749719440815832083e-01,-1.127959498073623362e-01,-4.241778276479315352e-02,-3.549496498549361417e-02,1.236192822456359863e+00
-5.108928199004978410e-01,-1.642263481461871677e-01,3.442437012061975166e-01,9.158512140796497281e-02,-3.156919003209038982e-02,-3.572321805190737526e-02,7.661401629447937012e-01
-4.231726609497894476e-01,-4.343808355879597571e-01,4.770432188043173261e-01,-7.942848668626966910e-03,4.510493258525424126e-03,4.663902429211143341e-03,9.060461521148681641e-01
-5.553866435548108216e-01,-2.646100083373206235e-01,5.575515108103293871e-01,5.488248504807698852e-02,5.964571165238255479e-03,5.501426684470157001e-03,1.004390239715576172e+00
-4.794128765977465623e-01,-3.712935905755347932e-01,5.163508338056496116e-01,-1.409212306789281964e-02,1.547792216934388426e-02,1.767741585767850974e-04,9.470419287681579590e-01
-4.548912938625468971e-01,-6.042629099097480694e-01,2.971237164781866946e-01,1.239678751523953792e-01,-5.992020044827160719e-02,6.779436264839647230e-02,8.779702782630920410e-01
-5.561720369452093360e-01,-1.572942863420914994e-01,4.872743728467950897e-01,-2.645170341212323140e-02,-2.655213642274420471e-02,-1.554393973826700970e-02,9.146667718887329102e-01
-3.976110573776455159e-01,-4.146764943580548146e-01,5.332181700183258322e-01,1.982848105540252481e-03,-4.639821792224722158e-03,4.858812923040032108e-03,9.395565390586853027e-01
-2.711419556745840453e-01,-5.452877257790389454e-01,5.732198212950218030e-01,-2.114470292144561281e-01,-1.097422347049794300e-01,1.121039426240039508e-02,1.090970873832702637e+00
-1.892739816176772505e-01,-5.694048221496257334e-01,5.279423809398491318e-01,9.623109968106575984e-02,1.804029791274653141e-02,7.535983507716711993e-03,9.800320267677307129e-01
-3.026179095784131690e-01,-3.861607684293967835e-01,3.884319440054990746e-01,2.007227081942595526e-01,-1.047011976141045408e-01,-3.939632525026230681e-02,8.370624780654907227e-01
-4.834200212484002779e-01,-3.469424682739704613e-01,5.498794688894543814e-01,2.890946929882018401e-02,2.870480984513590350e-02,3.125256154441844597e-02,9.763304591178894043e-01
-7.100611528156814956e-01,-2.096005115534956831e-01,8.406247471202630273e-01,-1.726119625427791349e-01,2.274081178703128096e-04,-7.115285750243470486e-03,1.403056383132934570e+00
-2.994749374217096083e-01,-6.457479737802616082e-01,4.541186351848540692e-01,-2.119056450859728713e-01,-6.747941393236161003e-03,2.909535600794701388e-02,1.042183160781860352e+00
-4.287777903065691509e-01,-3.933370139308342561e-01,5.372737706849434192e-01,6.646329150403365409e-03,-9.709513891261232696e-03,3.536435548955352628e-03,9.490663409233093262e-01
-4.821625578715440508e-01,-3.665573024211891684e-01,6.307804561284601208e-01,1.244964933068201801e-01,1.769261727673093754e-02,2.568646999340819942e-02,1.082941055297851562e+00
-7.069116282153508068e-01,-2.667940057753598326e-01,6.836124908219055607e-01,-1.655960996293835141e-01,5.250440644079432118e-02,-1.224100277242556878e-01,1.284817337989807129e+00
-4.453752144707154859e-01,-4.285724928596059691e-01,5.086082083245225816e-01,-5.520611523980195091e-03,-7.688688903615082879e-03,-6.513157092083096678e-03,9.459034204483032227e-01
-3.912023041392847511e-01,-4.255253838769491037e-01,5.401266700504637752e-01,6.886835147296606341e-02,3.630131618185439280e-02,3.530647400882719333e-02,9.604370594024658203e-01
-3.917102477642325775e-01,-3.947998599554865540e-01,5.214699743451790548e-01,2.038030812697072536e-03,-2.792503743835144628e-04,-2.910044409700071806e-04,9.147360324859619141e-01
-4.172202122449941708e-01,-3.815107490035210547e-01,5.283228219108928592e-01,-3.914736322698419979e-02,2.571316045078088103e-03,-1.566328761322146896e-03,9.306915402412414551e-01
-3.956157379333554713e-01,-4.010319086645010023e-01,3.528132405051254139e-01,-5.760701140861800539e-03,2.482508017477486062e-03,-2.290278031994093244e-02,7.522768974304199219e-01
-4.917773239260831430e-01,-4.070425469103649552e-01,3.569641235234439769e-01,-1.865966681511007155e-02,-2.489587123967196974e-02,-3.162058699775404519e-02,8.133435249328613281e-01
-3.742041854653503918e-01,-3.682839533772059859e-01,1.324799229394273414e-01,6.683756150657846340e-03,-8.739627687785224419e-02,2.305268307737099939e-02,5.276426672935485840e-01
-3.953768254839198915e-01,-3.896832464862107215e-01,5.188708508751205262e-01,2.020164428249571729e-03,-3.965045744512789684e-04,-5.641601084389754293e-04,9.114217162132263184e-01
-4.215799424458983591e-01,-4.342126085088666154e-01,4.593175619906328944e-01,1.141992310812436266e-04,-8.706080116743640518e-03,-1.481951422932348272e-02,8.877806067466735840e-01
-4.222474303603928059e-01,-3.500148709852364259e-01,5.666120210892864328e-01,6.877940927161696472e-02,-2.735220234361211439e-03,-7.728320618531819841e-03,9.623025059700012207e-01
-6.486297576536532716e-01,-2.949373391188594429e-01,6.544789890383719833e-01,-2.647938661356983303e-01,-3.507221879571616879e-02,1.090466715203827208e-01,1.269646406173706055e+00
-8.027123716460463632e-01,-1.878376002233689279e-01,6.998208668654030129e-01,-1.122312957040054598e-01,-4.852997150629626000e-02,1.481913898022994558e-01,1.350015759468078613e+00
-4.601456606181189013e-01,-3.980603925248641373e-01,5.481396700915150966e-01,1.743348508885454425e-03,-1.132486386342661407e-04,1.319995661136474929e-02,9.789924025535583496e-01
-4.189695388642904472e-01,-4.231180521731234823e-01,5.350373629478717419e-01,-1.258558414988663297e-02,4.751857776160304386e-03,-5.273489186751970786e-03,9.564154148101806641e-01
-4.468155070114957494e-01,-4.325279146974126965e-01,5.188613888974086263e-01,4.196087402454632374e-03,1.955980311103700485e-03,-2.014175783410534354e-03,9.586528539657592773e-01
-4.514675517105400382e-01,-4.496418919883645171e-01,5.169506545659303676e-01,-1.811647084234240673e-02,9.384312639862628716e-03,1.029706161149168686e-02,9.683160781860351562e-01
-4.352869993883005106e-01,-4.362003359185971374e-01,5.244514924338407047e-01,2.379606251686982275e-03,2.989062690311215971e-03,3.900834293248178937e-03,9.602420330047607422e-01
-5.130865635295736027e-01,-2.466749692841748720e-01,7.437813318579525879e-01,-1.876526590214323276e-01,-3.077156732107220322e-02,2.978925524014171267e-02,1.194567441940307617e+00
-3.939090872074200722e-01,-3.975122930190689852e-01,3.406524938885442388e-01,-1.003498080484026365e-03,4.298969724647438984e-03,2.217077982947736683e-02,7.374100685119628906e-01
-3.208512265427392318e-01,-3.908444633039669380e-01,5.351108685269305720e-01,-1.433303684858821536e-01,-1.358726037452813798e-02,1.145435866846113149e-02,9.273941516876220703e-01
-5.410446178059973299e-01,-3.102938600528476476e-01,2.960188404182916289e-01,-1.614781501908962857e-01,-6.979560745613459100e-03,-2.660477663553592782e-03,7.994754910469055176e-01
-4.252301854326123731e-01,-3.964608775557781906e-01,5.368006600582431176e-01,-1.128202076797361203e-02,-1.134854162634326910e-02,1.192458132205635735e-02,9.486036300659179688e-01
-4.065840942452232376e-01,-3.992334181381225200e-01,5.292226435884941349e-01,9.723193572701292406e-03,4.437425033386775165e-03,-1.525277471802221436e-03,9.323406815528869629e-01
-3.824875015562242409e-01,-3.967729947461609563e-01,5.191126050862698849e-01,1.251340286161767117e-02,-6.411876579019453370e-05,1.666837182286846051e-04,9.090855121612548828e-01
-4.316690476961547174e-01,-2.673186701931100084e-01,3.468612427156899658e-01,1.685407966079149888e-01,1.249478528796957137e-02,-4.874951491613945670e-02,7.732946276664733887e-01
-4.027296790320150088e-01,-3.892015763903817205e-01,5.227767995410387281e-01,2.933219190176235367e-03,2.222336233941159082e-03,-2.856374447538157424e-04,9.188393354415893555e-01
-4.432394249426991339e-01,-4.082567477703596404e-01,5.454453589396475177e-01,-5.745573012684916832e-03,-2.878028128186432095e-04,-1.117115879039871397e-02,9.719095826148986816e-01
-2.820004693781257288e-01,-5.371755764342787121e-01,3.438633295816680979e-01,-5.913081477252635221e-02,1.655504882487443541e-01,-6.350109904400538796e-02,8.493127226829528809e-01
-7.747516464771372346e-01,-1.787250411875974110e-01,7.308495558345370346e-01,1.298894139723052454e-01,-8.990061583925068600e-03,-1.307770967292462005e-01,1.351616978645324707e+00
-4.160281956951787374e-01,-3.492421488373558258e-01,5.180319636712219511e-01,2.134407414004546935e-02,3.604122549773434644e-03,-1.067978297662255981e-03,9.033026695251464844e-01
-4.150572939463488820e-01,-3.862540170587061006e-01,5.290527347972138195e-01,5.098730982140597251e-03,4.560105192652807830e-03,5.820338273335045123e-03,9.301730394363403320e-01
-2.732620353386133183e-01,-5.210172296125425984e-01,5.439422852852765500e-01,1.528550071809279057e-02,-6.524247904682102181e-03,1.765826526543242455e-03,9.656656384468078613e-01
-3.263375285021697936e-01,-4.434477541787394395e-01,1.183616237351385325e-01,1.615364816861953809e-02,-6.261099964671393292e-02,7.036843919911954515e-02,5.393971800804138184e-01
-4.832238810528130535e-01,-3.415479033992978031e-01,5.341417540473590853e-01,-3.968539698172275729e-04,-2.430002728867400145e-03,1.687334643405646525e-02,9.549036622047424316e-01
-4.379192040391082785e-01,-4.424056232524699594e-01,5.284995205693208131e-01,6.341746088581257448e-03,3.004113343430582679e-03,-3.125328085408510259e-03,9.687610864639282227e-01
-4.283981298950906846e-01,-4.478253835533668736e-01,5.102387297917497788e-01,9.273381027192294885e-04,8.174122480383725015e-05,9.588652521247387726e-04,9.485025405883789062e-01
-7.620032723071632486e-01,-1.559829600924781956e-01,8.781172472496039383e-01,1.401916258173507845e-01,-3.531760605634150924e-02,-1.208951032759784591e-02,1.458235621452331543e+00
-5.096641822882320705e-01,-2.974539061292436615e-01,4.272830976106580803e-01,9.121770559351255470e-02,2.015141857523985308e-02,-9.197080218762020143e-02,8.806984424591064453e-01
-1.979708643828989034e-01,-5.322406488097872757e-01,5.460415051261562347e-01,2.677435313236676759e-02,-1.264259852648094012e-02,-3.120348316143448878e-03,9.574188590049743652e-01
-2.953041626315175416e-01,-5.593458528395718332e-01,6.019541027881087913e-01,1.379621009419864930e-01,-2.507144599730181528e-02,-1.385204359092442970e-04,1.081984519958496094e+00
-2.819869823588777580e-01,-5.120344441301546423e-01,5.587064760753069903e-01,4.776757721680764159e-03,-1.418564079951599791e-02,-1.134901301619787098e-03,9.766077399253845215e-01
-1.924873944540848314e-01,-5.419746264875852093e-01,5.419668748670101177e-01,-1.768071182172960276e-02,-2.001848197720282330e-02,8.219961597577235546e-03,9.594735503196716309e-01
-4.232001689802245559e-01,-4.068459539976053696e-01,4.168324038630504269e-01,1.262605003698696274e-03,1.014198601590578230e-02,3.267741334690018977e-03,8.321835994720458984e-01
-3.079051785043965817e-01,-6.074647314643910612e-01,6.047550268150234665e-01,-2.707008920806787122e-01,1.168339419255982059e-01,-9.687394711844909967e-02,1.218614697456359863e+00
-3.612062855267386685e-01,-4.496138429079187260e-01,5.396896431023029406e-01,-1.873718954673332659e-02,8.680986195390396482e-03,2.204746519502551270e-03,9.488779306411743164e-01
-2.595068521195679212e-01,-4.958357118481055426e-01,5.299327721323210394e-01,3.367394942576677069e-02,5.471561925274449727e-03,-1.087703936157368616e-03,9.322707653045654297e-01
-2.200462452474323261e-01,-5.959468225540206499e-01,5.692229783850899505e-01,2.265834533941504456e-02,2.864564613467202037e-02,2.436196008293367923e-02,1.032819628715515137e+00
-2.546304534361574223e-01,-5.236772776033051802e-01,5.506834933066483417e-01,-1.791527319248674421e-02,1.266190789687643772e-02,-7.902311685837319633e-03,9.691311120986938477e-01
-4.402463778091467717e-01,-4.405939672338412549e-01,5.477942724935416230e-01,-1.272281740979379306e-03,2.067033099864116347e-03,-1.504761834475822502e-03,9.882268905639648438e-01
-4.357444175689905719e-01,-4.221343063169880616e-01,5.469132462784269677e-01,-2.575401673175752287e-03,5.078935231769505197e-03,-4.332744351412124578e-03,9.760024547576904297e-01
-2.596652389067794497e-01,-5.269068519737886147e-01,5.607677049825449123e-01,5.103037315563789533e-02,-4.049494517026168416e-02,-2.306670883650752124e-02,9.889945387840270996e-01
-4.492632968992449349e-01,-4.464144389359888665e-01,4.850936104644962832e-01,4.855831659519503629e-02,3.947835385255712981e-03,1.679328821556684559e-02,9.371955990791320801e-01
-1.809456985189893674e-01,-7.982857298005959779e-01,5.242604487126323320e-01,-6.826413531953282043e-02,-3.160326685359169351e-03,2.970821077753164202e-02,1.153444409370422363e+00
-2.123123711031664751e-01,-5.862774155198881010e-01,5.948033903188654214e-01,1.036776153558869457e-01,7.172972750635356332e-02,3.814759737560854957e-02,1.070124864578247070e+00
-2.258799504995260832e-01,-5.139623144766956031e-01,5.479282144109820507e-01,8.314764678985836488e-02,-1.509871273425046970e-02,-1.281769923168108935e-02,9.626049995422363281e-01
-2.325310958694810637e-01,-5.231814516429142969e-01,5.467167033606576965e-01,3.697167500880206570e-02,1.292123523203171642e-02,-2.566408432891232032e-03,9.606325030326843262e-01
-4.418898580645093110e-01,-4.355105352803187446e-01,5.315930229659540096e-01,5.799776570323479825e-04,-2.631718745353158005e-03,2.116718150790436199e-03,9.703270792961120605e-01
-4.992333992595854308e-01,-2.343850116755007429e-01,6.188229279770192104e-01,-2.093306456633109713e-01,-2.846612746697974820e-03,-2.315148810642988011e-03,1.074977874755859375e+00
-4.173979725999476531e-01,-6.110757008385452327e-01,2.691240364326225043e-01,8.535539083197381249e-02,-4.755983722100769195e-02,-1.136107472286345399e-01,8.421117663383483887e-01
-4.469946401360800903e-01,-6.129416840952258694e-01,2.038962183244242832e-01,-2.514796561515844978e-02,8.572345413423693161e-02,1.182363404635395077e-01,7.906282544136047363e-01
-4.344210687927536063e-01,-4.295196028288352785e-01,5.494803008327319160e-01,1.037881123326839158e-04,3.791191570392404495e-03,9.067341353914399986e-04,9.814830422401428223e-01
-2.921273642777139079e-01,-7.021615808337687836e-01,4.852129622337715276e-01,2.868826345980610842e-02,3.986123331949537052e-02,-2.977800474759122185e-02,1.049294114112854004e+00
-5.732648380354438133e-01,-1.754664678982209292e-01,4.843221573144120828e-01,-6.564974574771666183e-02,9.560451047768517849e-04,8.135244470843516762e-03,9.322866201400756836e-01
-6.164678529679876728e-01,-3.813921814292152157e-01,5.082634322434829155e-01,-2.163576859277931141e-01,9.007248502544267302e-03,-2.515231906915325888e-02,1.094740748405456543e+00
-3.492206710346552057e-01,-3.919388669801855962e-01,7.338840325355552308e-01,-2.374740788297417804e-01,-3.150575409771483315e-02,2.658666267947841499e-02,1.181308269500732422e+00
-4.108085266536450897e-01,-4.315604815017856644e-01,4.478292592379382597e-01,5.395206399452985059e-03,-1.903919533656461046e-03,4.127640411095657644e-03,8.692854642868041992e-01
-4.861111945131503242e-01,-2.470147385606967227e-01,6.007512088042427090e-01,-1.815955145626159117e-01,4.933936816735720599e-02,-1.138516852605866436e-01,1.060043692588806152e+00
-4.130713630946172277e-01,-3.250861951608225442e-01,6.004943987596369492e-01,-1.003566704058230785e-01,-4.697335844858864518e-02,7.891861270935615971e-03,9.914125800132751465e-01
-4.634008146360864000e-01,-3.687371000794502640e-01,5.776748292574594990e-01,-1.714877918577757121e-01,4.224072979613158890e-02,-1.244090801098983456e-02,1.043210864067077637e+00
-4.015011635798520495e-01,-3.966605862408970617e-01,2.739586540822057659e-01,2.677597075965058339e-03,1.222736030911607819e-01,-1.556887498553956306e-02,7.061167955398559570e-01
-3.869244655331076643e-01,-4.033415535445460942e-01,5.340293669168012514e-01,-4.628751467326695790e-02,7.830979831724618062e-04,1.753880053750312123e-03,9.327290654182434082e-01
-1.594350345452893447e-01,-6.254788369684087801e-01,5.453070052453471428e-01,-8.513143571719020142e-02,-1.450418627435909324e-02,-3.099822640055079764e-02,1.033225417137145996e+00
-3.922581105914352828e-01,-3.854509441624650590e-01,5.209576931511166187e-01,-3.286255269835691717e-02,-6.370178887192014944e-03,3.976014386675894366e-03,9.117028117179870605e-01
-3.947482015366469699e-01,-3.903991749770592823e-01,5.206895013754079260e-01,-2.267438559413415423e-03,-3.220118129369658219e-04,-1.990130126171941278e-04,9.132796525955200195e-01
-3.900622062473340090e-01,-3.947703570740684342e-01,5.187071520438468752e-01,-2.337901439230072320e-03,8.963262356497744571e-04,-7.126771228308934265e-05,9.111428856849670410e-01
-3.896075520751446919e-01,-4.027156876307642630e-01,5.234172270558842266e-01,-3.317980347274235298e-03,5.161625796477407446e-04,2.385821182798274990e-03,9.196766018867492676e-01
-7.215935638272239494e-01,-4.067287038472794936e-01,3.887965986274202201e-01,-5.038212921616401496e-02,1.605236543995824244e-02,2.647159737332361457e-02,9.964806437492370605e-01
-3.584227859507068681e-01,-4.297607284012731066e-01,5.351199192665635485e-01,1.707316653031294013e-02,-1.483479337068180706e-02,-1.506745047569018822e-02,9.324521422386169434e-01
-4.410314651057614110e-01,-4.098104947954025468e-01,5.446157196779558562e-01,2.002044866915674362e-03,4.754359205467396238e-03,-6.131295598676922420e-03,9.705126881599426270e-01
-3.547147977389567552e-01,-4.849536001620993186e-01,6.652239902862033816e-01,1.379082109056440908e-01,2.493264711647489446e-02,1.446577692857101138e-02,1.117864727973937988e+00
-4.363111340441274133e-01,-4.422016775904548114e-01,5.298343992448576456e-01,3.286024918157525506e-03,-2.186807523542156923e-03,5.689896670145230817e-03,9.691784381866455078e-01
-4.359527095500329019e-01,-4.472032175933824405e-01,5.318062498226535650e-01,5.454706576062410585e-03,-3.526528576228459173e-03,7.113808788202273525e-03,9.735759496688842773e-01
-4.385727740278435038e-01,-4.409030594248781743e-01,5.351610707255151089e-01,-9.240536085636955142e-04,1.550998303476975801e-03,-4.644750812643537105e-03,9.749392867088317871e-01
-4.328341284518446574e-01,-4.471349904944977305e-01,5.208175796195987362e-01,2.527364457318407361e-03,-1.950626618951329869e-03,8.649240331756610778e-03,9.610146284103393555e-01
-4.427073228210788858e-01,-4.232366738541950557e-01,4.583544170873571355e-01,-1.824421826653128444e-03,-4.917790925538984004e-03,-3.653311328848719841e-02,8.937749266624450684e-01
-4.388539853621782338e-01,-4.340735859501723137e-01,5.218030756537022086e-01,6.646888806306753454e-04,-1.633819422568131424e-04,-3.828632856052308141e-04,9.582767486572265625e-01
-4.224905079658639040e-01,-5.306174021498734072e-01,6.521498013250053294e-01,2.793511782413042877e-01,-8.964777408045687679e-02,-5.948678741870659648e-02,1.245623588562011719e+00
-3.725909883312026882e-01,-5.066543100351845741e-01,4.698751436307920804e-01,-3.255568952060565457e-02,-1.120692199587536575e-01,1.224989340225244357e-04,9.388951659202575684e-01
-2.585274861980342842e-01,-7.586728242211734363e-01,5.613569349285444376e-01,1.074623142467054232e-01,-9.365262512519736959e-02,-2.877415101984562296e-02,1.181464314460754395e+00
-2.622094029133961168e-01,-6.672780487449424536e-01,8.967806949677050721e-01,2.442349664467930448e-01,-6.797985795586480862e-02,-4.345746149644230671e-02,1.474886655807495117e+00
-2.865468491980828203e-01,-5.225430613554566950e-01,5.803558608597905177e-01,-1.019814441535064620e-01,7.926018250563210757e-03,2.040254507417494159e-02,1.021977543830871582e+00
-4.265756234705993521e-01,-4.272509741646316472e-01,5.428469007894730636e-01,9.268751907737064755e-03,-4.239221177775706097e-03,-9.729504042700857103e-04,9.699224829673767090e-01
-4.448541174458077729e-01,-4.312510559680887146e-01,5.080399531536964330e-01,-5.653946744723702816e-03,-7.662424967141699336e-03,-3.209141676985677143e-03,9.463259577751159668e-01
-3.978294101840186836e-01,-4.443438460149752856e-01,6.320936235698189076e-01,-1.418527721279694287e-01,-1.042137345202577732e-02,9.662228436979735519e-04,1.082361578941345215e+00
-4.256614944021176461e-01,-4.535873357995759414e-01,3.607739546788657492e-01,7.800179123833549284e-03,-4.455773642855759969e-02,2.271715733055332948e-02,8.055490851402282715e-01
-3.898714007328143993e-01,-4.507551136950534998e-01,4.919346069431346224e-01,3.030160146777236344e-02,-4.854496675112605214e-02,-1.662675897602198735e-02,9.195814728736877441e-01
-3.301287060875573998e-01,-4.392977149680099558e-01,8.188599056710341717e-01,-2.289441373365812549e-01,-2.625809127085529382e-02,-4.245765643507129483e-02,1.273675560951232910e+00
-4.562055053139601468e-01,-3.697725195481998961e-01,5.937177357630715191e-01,-9.742451564604166780e-02,-1.890235189589397485e-02,2.333837336094327086e-02,1.024813175201416016e+00
-2.291622807486665137e-01,-6.005692781679173864e-01,5.881624843555349758e-01,7.901206446221965829e-02,-3.995177381349125645e-02,-4.810548669466124458e-04,1.064443945884704590e+00
-3.863527197046395800e-01,-3.252655225274593276e-01,5.333996127163048717e-01,-2.460905483908481794e-01,7.346992592396676958e-03,2.181428243582253512e-02,9.883127808570861816e-01
-2.677202880609944602e-01,-4.990532886669408197e-01,5.371307520650221434e-01,3.064385627616851224e-02,7.928698003699668692e-03,1.190261530140339146e-03,9.436624050140380859e-01
-4.459942285078030699e-01,-4.305409076995326823e-01,5.115796392339424514e-01,3.480593060103235031e-03,2.658761906074692209e-03,2.225430593572142856e-03,9.499796032905578613e-01
-3.410996123595249063e-01,-3.155794598582173371e-01,5.359394816491216407e-01,-2.337709445170979006e-01,-6.241652365431551996e-02,5.954294073356583561e-02,9.663005471229553223e-01
-4.397214360514340448e-01,-4.336696734032193246e-01,5.094232892320315065e-01,-2.661094583257460691e-03,-1.247104289833768712e-02,-6.819680036626290381e-03,9.464648365974426270e-01
-3.517402480774582396e-01,-5.045702123564911323e-01,5.682754075626685886e-01,-6.957085918061823616e-03,2.634219409148187002e-02,3.632010018285566390e-03,1.006309270858764648e+00
-3.241106164655551680e-01,-4.674778626074975740e-01,5.465047886023899348e-01,-5.982748337171796965e-02,1.473055189456830890e-03,-7.534255633345910558e-03,9.561683535575866699e-01
-3.541988734226758084e-01,-4.720401214152412650e-01,5.598411117043196050e-01,-4.508577516252133648e-03,-8.843978257432351647e-04,1.332885538980647933e-02,9.786028861999511719e-01
-4.397936121190845760e-01,-4.444836862887197593e-01,5.473225526773436433e-01,1.656649175856859946e-03,3.299882376525458891e-03,4.771420887087474832e-03,9.895247220993041992e-01
-3.946843179395841394e-01,-4.353431015692010853e-01,5.609040550673843883e-01,-3.989498123211444175e-02,-1.156884530370715612e-02,-4.209684650569627679e-03,9.792266488075256348e-01
-5.304747391524441413e-01,-1.933756409382040853e-01,5.485450346621414397e-01,5.021261759281549913e-02,-1.660694625701784541e-02,-1.969145652578698294e-02,9.611126184463500977e-01
-5.052249029278270687e-01,-3.021126522671217507e-01,5.518728606476241971e-01,8.516479779406883888e-02,6.628994253027695183e-03,3.850713336713491863e-02,9.850584268569946289e-01
-4.081713208183314623e-01,-4.536834241061959427e-01,5.526069316855207747e-01,1.710297929730634353e-02,7.099212522512398510e-03,-6.467423635876356700e-03,9.849098920822143555e-01
-2.393994791695241986e-01,-4.573867110218193810e-01,3.722284193006256681e-01,1.544536731171896327e-01,-7.658174024293408488e-02,-5.401615340434511026e-02,8.079910278320312500e-01
-1.370697417540069352e-01,-7.396040090492371766e-01,9.231746739086150733e-01,1.130646312299995460e-01,-3.523857165682682535e-02,-1.204156941063713390e-02,1.472586274147033691e+00
-5.133886172212658305e-01,-2.571322932975236286e-01,5.551828839929325854e-01,4.754016115810069665e-02,-2.364810331494550735e-03,2.434397136852113879e-03,9.697932004928588867e-01
-4.481296294093975452e-01,-3.155506124703316151e-01,4.900935624016754533e-01,8.821951464239308205e-02,-1.793978890920205124e-03,2.146424051730712237e-03,8.926492929458618164e-01
-3.481915432164605084e-01,-4.781958745377943298e-01,5.393701187641695149e-01,-5.458071301931479054e-03,-1.314067660229950585e-02,4.004328730660095502e-03,9.595359563827514648e-01
-3.508999659067612020e-01,-4.785226858311682485e-01,5.373445083762955488e-01,1.649093006925208757e-02,2.138826995093504740e-02,1.052831291701759701e-03,9.595924019813537598e-01
-5.158181748695618296e-01,-2.862348485789990571e-01,5.606679055357953745e-01,1.770250846558546129e-02,-1.284083303778102425e-02,-1.047651992583218186e-02,9.829301238059997559e-01
-1.415698955286127381e-01,-5.437499386478984453e-01,5.788484347897998594e-01,9.134878446747569936e-02,-8.794356293399886726e-02,-3.728057789630925128e-02,1.011382579803466797e+00
-5.019126104932559729e-01,-2.868269165793643216e-01,5.594583135176635080e-01,2.337915531515357206e-02,-4.580097210041878843e-03,-7.370078257699861843e-03,9.728052616119384766e-01
-4.007510486501753011e-01,-4.153214444124131433e-01,5.314473317305081768e-01,5.907838325168581622e-03,8.041959660829670498e-04,1.993246153033079865e-03,9.396314024925231934e-01
-4.338709872227067832e-01,-4.366233114148522776e-01,5.491485450311688332e-01,-3.547794877327928569e-03,2.448630637565476359e-03,-1.189414795385649454e-03,9.844290614128112793e-01
-4.158104708565530938e-01,-3.806707470395523929e-01,5.280475164628831708e-01,-6.257840866790709278e-03,-6.122602192435786482e-03,7.583549197449320975e-03,9.270049929618835449e-01
-1.592065575985522896e-01,-7.402478536856288427e-01,6.483729907541406767e-01,9.542773649139001113e-02,7.366728785739215524e-02,4.532564741734161629e-02,1.228329777717590332e+00
-4.065739944090095426e-01,-4.459971251268639025e-01,5.215746128266979253e-01,-6.509422928967175705e-03,8.258213290060980802e-03,-2.175102091477361648e-03,9.486571550369262695e-01
-1.355552920623973312e-01,-5.770561277038392944e-01,6.356244273858897564e-01,6.634630858849115131e-02,-3.660832923491622731e-02,-2.635003396816521654e-02,1.072113156318664551e+00
-4.293779249145028842e-01,-4.418307911884504779e-01,5.422645960198174686e-01,-7.901259983729693945e-03,4.000190366179027027e-03,-1.725469118276136155e-03,9.780532717704772949e-01
-2.843722888577381314e-01,-6.895649321968633227e-01,4.450589034468582783e-01,-1.679651967953572911e-01,8.923884460050800216e-02,2.670495697803926954e-02,1.049989581108093262e+00
-2.144589391875416085e-01,-4.959037580848080773e-01,2.286094188416577522e-01,5.909731245871118616e-02,1.242479092501249105e-01,6.070385030452515873e-02,6.841527819633483887e-01
-4.245341606071769691e-01,-4.527491072940419414e-01,5.468419461141325044e-01,-8.946779822760014822e-03,1.197828363950081965e-02,2.627355881271017154e-03,9.861370325088500977e-01
-4.390754107744006540e-01,-4.346845172404819602e-01,5.299196512131986170e-01,-1.351953081295824812e-03,-1.854974636267878348e-03,-2.894023116157049599e-03,9.668282866477966309e-01
-4.326010283629125319e-01,-4.351219843207421722e-01,5.440585321794528806e-01,1.366934839429863671e-02,1.609714452050921979e-02,1.448242677547395205e-02,9.789277315139770508e-01
-3.945866528033151188e-01,-4.457632139659591930e-01,3.555820359283807797e-01,-1.511668436638660337e-02,-3.557932771902087149e-02,-6.089004366837422189e-02,7.870001196861267090e-01
-4.650189834393977373e-01,-5.204535072514581140e-01,6.263864455007793763e-01,3.132161457814369165e-01,1.220584615231340431e-01,9.265433746946866167e-02,1.272596836090087891e+00
-3.751357694085671879e-01,-3.938543516437969516e-01,1.568975871140519951e-01,-3.885581087781097426e-03,-5.391920418739612475e-02,6.812644106513844611e-02,5.621917247772216797e-01
-4.370376165867030926e-01,-4.332161201050779287e-01,5.495675222345676181e-01,2.900688545581219750e-03,-5.322008919228116836e-04,8.832473884293268792e-04,9.847143888473510742e-01
-4.817883532688237991e-01,-1.748237584513235299e-01,5.039285737273088150e-01,-1.950292124144619443e-01,-6.214293588692167136e-02,5.634789731251695077e-02,9.478948116302490234e-01
-2.333607054704891770e-01,-4.919579646932188965e-01,4.167221645690402099e-01,1.089291276376961604e-01,8.339969105202592325e-02,-5.874520105682575800e-03,8.450778722763061523e-01
-5.560371536463475373e-01,-3.334852000788360860e-01,1.998167759622745399e-01,-7.651031502582412991e-02,-5.039398791815048045e-02,-3.616101734494368142e-02,6.940682530403137207e-01
-4.296672282991484404e-01,-4.297814850462536862e-01,5.482576611350484797e-01,-6.345636170700571501e-04,4.871260535538553260e-03,-2.285138546414874211e-03,9.780270457267761230e-01
-2.174374551119311882e-01,-7.200743223637091628e-01,6.587327597434233795e-01,-1.761868404977215141e-01,8.796201295519454066e-02,5.049308264214494649e-03,1.255837321281433105e+00
-2.840215743838025997e-01,-4.453978310706432353e-01,6.337342893973278990e-01,-2.381273917939323026e-01,-5.611923274193677744e-03,9.255698586521060589e-03,1.089443683624267578e+00
-4.246585080324337125e-01,-4.052563733305197258e-01,3.595744091872158377e-01,-9.389379528546156276e-03,-9.118721909890940835e-02,-3.050344595732062958e-02,7.925800085067749023e-01
-3.787316394138278142e-01,-3.868782848159613708e-01,2.565089722340456735e-01,2.110075278353065308e-03,-3.658583287844261595e-02,-6.784115293876494604e-03,6.426033377647399902e-01
-3.361091051597274726e-01,-4.131453322324115107e-01,1.984935708540751520e-01,7.839955993406726165e-02,-1.049318930285313423e-01,1.309445736544678600e-02,6.204066276550292969e-01
-4.500243178856706550e-01,-4.084509063715358601e-01,5.504888666846003975e-01,-1.381085405770126479e-02,-1.005045928629400530e-02,-7.708137986492422794e-03,9.809249639511108398e-01
-1.271178947523024516e-01,-7.280599762759811799e-01,9.001285162088561442e-01,1.427768127091094963e-01,-2.866152698068673982e-02,-3.745821082323328582e-02,1.449659109115600586e+00
-4.424607011839891135e-01,-4.046455748558661081e-01,4.670646848109254456e-01,4.060669110836501693e-03,-6.108160312873790743e-03,-2.862787196557801256e-02,8.926884531974792480e-01
-6.307399179981072468e-01,-2.683008865469651560e-01,2.829449588660813975e-01,-6.693175700521619698e-02,-2.989946094582714327e-03,-1.383417670733058935e-01,8.401837944984436035e-01
-4.218736321754803509e-01,-4.332749407933036978e-01,4.511247483571543260e-01,4.269930465558350458e-03,-4.031092185754058671e-02,5.262979069373441114e-03,8.816020488739013672e-01
-4.772086943410924764e-01,-3.144419417704691355e-01,5.359016634903683851e-01,9.372139442470414292e-03,1.394697239804626107e-02,1.813535206340298814e-02,9.433019757270812988e-01
-4.345000292331694380e-01,-4.387960332471096958e-01,5.217555546799466093e-01,3.021800179888727445e-03,-2.601113727051837087e-03,5.130849048023561516e-03,9.584769010543823242e-01
-3.899142373007905005e-01,-4.389087067669144027e-01,5.389576502742186026e-01,-6.318901382926173441e-03,-1.192759264629888495e-02,1.204632445025378626e-02,9.548271894454956055e-01
-3.906050686251230086e-01,-4.596110707810115437e-01,5.519299326119095905e-01,-1.003455322616976335e-02,-1.778024713175346827e-02,5.554992003954873020e-06,9.795024991035461426e-01
-4.050802853518868929e-01,-4.090822869438245912e-01,5.312741820457528297e-01,-1.011411303221409173e-02,-3.796524377952906724e-03,5.180059251218883248e-03,9.385913014411926270e-01
-4.003612241493041402e-01,-4.081307629823828220e-01,5.300771260463691403e-01,-3.061975558617270263e-03,3.126726661346689029e-03,3.188658558930020787e-03,9.343944191932678223e-01
-5.045643798196313146e-01,-2.754885367101083116e-01,5.482737911089448080e-01,-6.903535212350836447e-02,-6.260223908728314475e-03,2.058707790087863955e-03,9.665361046791076660e-01
-7.392917445225956063e-01,-2.114679164956181912e-01,8.543948335556189599e-01,-2.135350311183164818e-01,3.360667110588745968e-03,-2.197697133476139708e-02,1.454483985900878906e+00
-4.256400505834765369e-01,-4.202657850473689449e-01,4.465988703293728435e-01,8.712584690775314333e-03,2.527193544469725356e-02,3.073194119166604114e-03,8.708122968673706055e-01
-4.239932467474660238e-01,-4.142435039444357092e-01,4.322472452393161246e-01,6.031361714596980388e-03,1.369909512795259784e-02,-1.229726957065188642e-02,8.520683646202087402e-01
-4.822862605423013926e-01,-4.960065596453688275e-01,5.442006530005367715e-01,-3.031042873726891851e-01,4.312559353604637075e-02,-1.737477888413504687e-02,1.161916136741638184e+00
-4.405719260581117402e-01,-4.402496698271402553e-01,5.412007310349097322e-01,2.220915076397437377e-03,1.496321603866555827e-03,-3.372753751926171537e-03,9.816399216651916504e-01
-5.522854011025720711e-01,-5.524361255393869241e-01,3.968035091586427088e-01,-1.915668318595716568e-01,2.589085795825699782e-02,5.971722318454561473e-02,1.011788487434387207e+00
-4.462615471494421615e-01,-4.478161949060880942e-01,5.284988938705535988e-01,-5.530444612422639322e-04,-1.146819293806762650e-03,-3.311348413367570104e-02,9.772257208824157715e-01
-4.483479688830378507e-01,-3.872014077414520639e-01,5.419500910785363113e-01,-4.081549281387103142e-03,-4.811226460569994513e-03,6.156640978911411682e-03,9.613058567047119141e-01
-4.445825933556198373e-01,-4.111422715747833911e-01,5.675186301809230782e-01,-6.700696341405060208e-02,2.023199683046120190e-02,-1.465074175431381465e-02,1.003475904464721680e+00
-4.074039473955892721e-01,-4.321233962902260584e-01,4.372768068747301395e-01,-1.566089435212503515e-03,-8.130224313181006433e-04,-4.097667676777843118e-03,8.573426008224487305e-01
-7.786611342189619922e-01,-1.373962377743587759e-01,9.106407421500208876e-01,1.420131332212303810e-01,-3.427584336751501870e-02,-4.434001463875340832e-02,1.500532388687133789e+00
-4.470176753270768133e-01,-3.834255311442713587e-01,5.352734071975256969e-01,-2.148862559258676169e-02,5.038308351941660733e-03,1.274566822069397171e-02,9.531120061874389648e-01
-4.412320405497903719e-01,-4.407778285990281986e-01,5.312410170582081426e-01,-4.636998603329979107e-04,-6.990206836372965787e-04,-3.796838045725378641e-03,9.722693562507629395e-01
-6.022278579753315153e-01,-5.290034613881671177e-01,2.321826258057163583e-01,-2.105885851414809537e-02,-6.293736931331178619e-02,6.066091035220927408e-02,8.153259754180908203e-01
-4.091604434967126003e-01,-4.055588259616754176e-01,3.527702645418779870e-01,-8.181723808253812957e-03,3.546817965543565265e-02,2.846174571571712109e-02,7.643377780914306641e-01
-4.192823292264160062e-01,-4.278397538626484975e-01,4.464177497668597727e-01,1.049863591188932715e-02,3.709560009015983040e-03,2.597412253396381987e-02,8.713862299919128418e-01
-6.354119260514201617e-01,-2.878901223732506232e-01,1.882834763704314129e-01,-7.226465996007343240e-02,1.471146479855532999e-02,1.707042356369919620e-02,7.281369566917419434e-01
-4.009843716903978006e-01,-4.165877271336679843e-01,3.740548717232472509e-01,-1.370903073953548285e-03,9.768775506274191348e-03,2.514395463108005935e-02,7.843539118766784668e-01
-4.448162521850911877e-01,-4.251051056494066227e-01,3.798175508836109104e-01,-2.015696625762037134e-02,-1.856203077084503123e-03,1.089689252273599862e-01,8.372615575790405273e-01
-2.522321015171624659e-01,-6.927551330827717013e-01,2.546279103845940917e-01,8.310434024940721587e-02,-9.219197964755981856e-03,5.652734823499679095e-02,8.395302891731262207e-01
-6.406172031410924950e-01,-2.455174496615096513e-01,2.204750627598403012e-01,-1.062821819696004033e-01,3.780293023932642521e-02,7.791727027305565823e-02,7.834249138832092285e-01
-4.218904402263434217e-01,-4.332271497032701424e-01,4.635473056129812974e-01,4.015955298719321720e-03,-1.382122123462463078e-03,-6.148362613707382754e-03,8.912541866302490234e-01
-4.065209104883398261e-01,-4.206992901217414538e-01,4.038447842699932622e-01,-4.994894026253030722e-03,8.359870861892871458e-03,2.682612118776347976e-02,8.190401196479797363e-01
-3.638236348210043269e-01,-6.795854093011668429e-01,4.191704004223615332e-01,-7.033635192968690220e-02,-1.136350262824910029e-01,-4.543739183652974190e-02,1.009850859642028809e+00
-4.160427677983770667e-01,-4.026522302341486448e-01,2.668294061438797327e-01,-8.922607871052216921e-02,-1.630717221081529056e-01,-1.542781682142799204e-02,7.494829893112182617e-01
-4.139965730113743803e-01,-4.434434543970154352e-01,5.343332683661551341e-01,-2.635662404258548499e-03,6.294076559790915890e-03,-3.728591198188303292e-03,9.634850025177001953e-01
-4.387066252635621888e-01,-3.210535915586872346e-01,1.721815341631515728e-01,-3.486994764747615438e-02,6.748665517013792414e-02,9.966925720142438827e-02,6.018859744071960449e-01
-3.751453409849117016e-01,-4.988843753177410467e-01,4.001976747936762946e-01,1.905913108723693017e-01,-7.199501188414315911e-02,-4.909818715282720028e-03,9.148800969123840332e-01
-4.172541566452216411e-01,-4.166622122415409302e-01,4.249919391978901340e-01,-9.067982023748559148e-03,1.409946889174261376e-03,2.422692269017368005e-03,8.421107530593872070e-01
-4.328809494256805612e-01,-4.128190332893278969e-01,5.434804110807490707e-01,8.509302623286253611e-04,5.585115266258163826e-03,-5.528101166015995764e-03,9.665835499763488770e-01
-4.223193981459129609e-01,-4.090688501940160093e-01,5.325049458829841376e-01,2.121614696467636133e-02,-5.683072882782691949e-04,-3.016570281956404941e-03,9.489951729774475098e-01
-4.319513193120207983e-01,-4.185057963848721752e-01,4.326526702436912508e-01,2.878029803659835992e-03,-6.877346197714706566e-02,7.373318594905704793e-03,8.662984967231750488e-01
-4.466706366440023057e-01,-3.860467127857734604e-01,5.408637157149620567e-01,4.612056281507107350e-03,3.894867095722793181e-03,5.955227219210081080e-03,9.587736129760742188e-01
-3.994989351386973309e-01,-3.892101205928729102e-01,3.357201621675768299e-01,5.101202207345331002e-03,-3.056752779885466703e-02,-1.649694231834471052e-03,7.321050763130187988e-01
-4.308945639823674179e-01,-4.208665826200742588e-01,5.455483362107050871e-01,-4.643816379797847949e-03,-2.472174796203355143e-03,1.199436603028470000e-04,9.715104699134826660e-01
-4.416106700583965483e-01,-4.405336544028694568e-01,5.484500325565744294e-01,6.399405907659169550e-03,1.141793212900357214e-02,9.012423422459153038e-03,9.899054169654846191e-01
-4.215591404411512255e-01,-4.053816047694783209e-01,4.106183334598771939e-01,2.394853704336017634e-03,-2.227184055452518727e-02,-4.818863922401711705e-04,8.251208662986755371e-01
-4.650947892097515579e-01,-4.441322752377095395e-01,5.410065556511344242e-01,-5.197970594041013970e-03,3.495429196734095578e-03,-6.437273892752995094e-03,9.959071278572082520e-01
-5.730080533978748614e-01,-3.774059033612084391e-01,6.549670276660346513e-01,2.768027251188747151e-01,-5.891988265172784511e-02,-9.018594853094477615e-02,1.253260850906372070e+00
-4.312231924525717908e-01,-5.068225272088832112e-01,4.731111447793838742e-01,1.517622616216281715e-03,-6.438686198028797936e-02,-2.882518434027923210e-02,9.522812366485595703e-01
-4.293488061174189907e-01,-4.466431556641418110e-01,5.158645819052110060e-01,1.829346373207378336e-03,-4.433415308369944609e-04,-4.569720701782500373e-03,9.540165662765502930e-01
-3.396802762089625172e-01,-4.653036075741403543e-01,5.976021630190361256e-01,-1.194833877651780979e-01,8.998588693237420666e-03,-2.430438422652149086e-02,1.028040885925292969e+00
-4.239432858685138750e-01,-4.175498801196689258e-01,4.200866894042701860e-01,7.868333801600933125e-03,-3.160858068034658186e-02,8.874307019876057079e-03,8.428822755813598633e-01
-4.031668499225590785e-01,-4.031731238906049453e-01,3.574329946765391064e-01,-4.120305456865617165e-05,-2.619189685695237635e-02,2.518995247220699642e-03,7.619671821594238281e-01
-4.136079143106175526e-01,-3.999368686392959504e-01,3.822269762945917915e-01,-7.811119013119754897e-04,5.521298538660113914e-03,-9.774078190444636036e-03,7.893288731575012207e-01
-4.824386267955284580e-01,-3.238245418981188228e-01,5.422414183075354721e-01,-2.827598373794023082e-02,4.856642256231825244e-03,-1.199661051281736279e-02,9.568176865577697754e-01
-4.590685258657488110e-01,-4.127177387199260084e-01,5.622668508063238813e-01,6.909410323192871281e-03,-7.658206565222314133e-03,-1.652545812915033954e-03,9.991306066513061523e-01
-3.121802060339276541e-01,-5.551652978448865516e-01,6.242682904663854337e-01,-5.717860898131014828e-03,-9.289667059687273937e-03,-1.005911282504681932e-02,1.078972220420837402e+00
-4.010196401860099402e-01,-3.892722340929722913e-01,2.755358073272091701e-01,-2.047697735453598775e-02,-2.443007395481059177e-02,1.722187149714378765e-02,6.736881136894226074e-01
-3.580214253382452694e-01,-6.086339329669724352e-01,7.103360409009853438e-01,2.967222683000880767e-01,-1.106975975640750176e-01,-2.525812569233493871e-02,1.332195997238159180e+00
-5.238802284893366856e-01,-5.593004486261382580e-01,3.247226103592777413e-01,1.398245005172913946e-01,-3.020752226168524346e-02,1.428841566331037413e-02,9.019100069999694824e-01
-2.505462646019079864e-01,-4.776117920096252800e-01,5.700382651365202280e-01,1.546090700886120495e-01,-1.440475511645352216e-02,2.796405007020177913e-02,9.929373264312744141e-01
-3.785976157822996679e-01,-3.861838915344057432e-01,2.569434923090397893e-01,-4.023989274610875223e-03,-4.080792576715788073e-02,1.828037165190359026e-02,6.440795063972473145e-01
-3.798153248218502087e-01,-4.671524253495578094e-01,5.455066039024124569e-01,-1.703496131163460174e-03,-2.909960352388283461e-02,5.919221930016248592e-03,9.733024239540100098e-01
-4.352223785674039780e-01,-4.513977207303990768e-01,5.496766701904843844e-01,-1.031255300366814556e-03,9.275367358293254080e-03,3.021916598860764289e-03,9.932308793067932129e-01
-4.077169508480759097e-01,-4.034244060774474505e-01,3.600481599070324279e-01,3.115006962467031879e-03,-3.346081509326186837e-02,1.060543934059188578e-02,7.680569291114807129e-01
-2.361877699236535344e-01,-6.777446457833026239e-01,8.271918752170109856e-01,1.954896559846953374e-01,-8.264437504859513048e-03,-1.311843449512678506e-02,1.382266640663146973e+00
-4.283808909664423292e-01,-3.983127532651037916e-01,3.601763160897094584e-01,6.235573285311732470e-04,-8.418432907303960433e-02,-3.650188092957230845e-03,7.876028418540954590e-01
-5.001423496671899560e-01,-2.799174230519102524e-01,5.845866531018645285e-01,-1.517685209401925528e-01,-7.941691446901801010e-03,-3.132205882847087855e-03,1.027410030364990234e+00
-4.387216248651147343e-01,-3.283876632503357484e-01,5.727682074946358615e-01,-2.307105854337747064e-01,-4.940257136365666137e-03,-6.702285761790804930e-02,1.047337174415588379e+00
-4.530916874008629192e-01,-3.761930985209870903e-01,5.718702760528969753e-01,-1.720545678682109947e-01,1.642074691299282019e-02,6.116122739359114609e-03,1.033136844635009766e+00
-4.673688487810534475e-01,-6.394603453556018113e-01,3.298389394956771081e-01,4.319986658962561218e-03,-5.353442562379631675e-02,-2.555230147038813071e-02,9.016434550285339355e-01
-5.458754033929901217e-01,-3.297678135111009046e-01,6.637493990151807077e-01,-1.055769331659801580e-01,1.200899649700327282e-02,-1.233519081012065047e-02,1.132613897323608398e+00
-2.824976185118254213e-01,-5.992175136597270857e-01,3.043249651067020389e-01,-1.438815843398966732e-01,9.555388677306787815e-02,5.231133645159875140e-02,8.533682823181152344e-01
-4.393309900662162315e-01,-4.393133785572000960e-01,5.679758515948507558e-01,-1.955728260502697519e-02,9.023453747741896631e-05,5.938532676362871798e-03,1.007919907569885254e+00
-4.714820319898308520e-01,-3.866215394715308840e-01,5.647562200484739225e-01,-7.101149862542563418e-02,1.073109770024316227e-02,-1.671895791624945435e-02,1.004672765731811523e+00
-4.104218349829424350e-01,-4.022232107487903052e-01,3.760022348267419989e-01,-1.823748593527558734e-03,-5.360387819750399817e-03,3.482859711246589769e-04,7.824186682701110840e-01
-3.933068851176911851e-01,-3.902779811120548059e-01,3.213429375427552248e-01,-3.617127237945833972e-03,-2.801264524901418695e-02,-1.355286860513395253e-02,7.152016162872314453e-01
-5.072858574049764480e-01,-2.713537624466888509e-01,8.239589128502451398e-01,-2.236073338589664727e-01,-4.725157947629666372e-02,-5.535965083247258722e-02,1.296027064323425293e+00
-4.588343490871731323e-01,-3.489871514199751057e-01,7.252428190511801542e-01,-3.133816806775248098e-01,3.836812976808524900e-02,2.726309922045175652e-02,1.259090185165405273e+00
-5.047779370888303418e-01,-6.455745930754088757e-01,3.046198581784460568e-01,-3.791197559220745722e-02,2.636084023833517448e-02,-2.176163009894743067e-02,8.925952911376953125e-01
-3.759033976302112445e-01,-3.327399178617482800e-01,6.227599854629044529e-01,2.303096517686180067e-01,-3.529785466209001826e-02,-5.897337044127587413e-02,1.062725186347961426e+00
-3.626000618631525785e-01,-3.484651449474471252e-01,5.713488562457101905e-01,-2.487625120047367577e-01,4.284473374616366848e-02,-9.033638867009022300e-02,1.036772131919860840e+00
-2.184784475176965168e-01,-5.171760148356566722e-01,5.380349165300384318e-01,7.456199884992395499e-02,4.221290391547207789e-03,1.982233909208576395e-03,9.509180188179016113e-01
-2.241257127040272024e-01,-5.971682413709362702e-01,6.806661410868927176e-01,1.286909724401203436e-01,3.225609023414289372e-02,-5.834981221913330095e-03,1.161138415336608887e+00
-4.408594116048694667e-01,-4.441687696148295394e-01,5.349227137538531407e-01,4.892433892577892959e-04,-7.231034497422283004e-05,3.930404418283401161e-03,9.774650931358337402e-01
-4.175085684323810997e-01,-3.610347735095915112e-01,5.249161470022541964e-01,1.650220603258324703e-02,-1.399390165714599517e-03,2.903643519387716452e-03,9.159582257270812988e-01
-4.710476211838331428e-01,-4.397442928074042356e-01,8.932699811659844391e-01,3.314224174923541266e-01,-1.988159653856325787e-02,3.916086371186349585e-02,1.467972636222839355e+00
-4.387120418688068568e-01,-4.381235311686721978e-01,5.253718212148227318e-01,-4.835714919019593570e-03,-6.380309347105735454e-03,-8.113911542949965930e-03,9.639919400215148926e-01
-4.301452243020149613e-01,-4.386044970326696824e-01,5.430168108047387365e-01,4.937620777189833526e-03,8.449055890779356981e-03,-2.741490071783343665e-03,9.775776267051696777e-01
-4.413303198653393267e-01,-4.380990502440262890e-01,5.357862405348321477e-01,-2.496954609247929464e-03,1.098922038447275101e-03,-2.171881764944718317e-03,9.755236506462097168e-01
-4.040471862178962592e-01,-4.561355807428569276e-01,6.180141263379647087e-01,1.065844939322040802e-01,1.606733019504184845e-02,9.171008707336478910e-03,1.065677046775817871e+00
-5.187853590268680648e-01,-3.905213804097553698e-01,8.133103325039415799e-01,2.819847431139923533e-01,-2.861015746667280174e-02,-9.808083181113039228e-02,1.374747991561889648e+00
-4.380664464346411546e-01,-4.393020790614451943e-01,5.400025259856976456e-01,7.248318601846097387e-04,-6.016932359088852413e-04,-6.795528820895394744e-04,9.786894321441650391e-01
-3.791656455480524324e-01,-4.869933910904726826e-01,9.511363098001259786e-01,3.437716608769859628e-01,-6.928965068618260850e-03,1.127487946860260097e-02,1.509912490844726562e+00
-5.016886915084062259e-01,-3.421868002563895894e-01,5.460261611863775899e-01,6.027238848536878649e-03,-1.037233164606260645e-02,1.834507544130484571e-02,9.785071015357971191e-01
-4.402208027077988972e-01,-4.425122944402960501e-01,5.506043125525845738e-01,-4.000697940271835435e-04,2.625884898274941179e-04,-6.550257648215694097e-04,9.919738173484802246e-01
-4.331664624144483944e-01,-4.389304403253060927e-01,5.003263341290753452e-01,-5.437776545935399386e-03,2.970842442957994083e-03,1.332029747307648254e-02,9.367337822914123535e-01
-4.227178059564029589e-01,-4.361522234596870162e-01,4.778791409089528930e-01,8.038901278263024157e-04,-1.568952663739666895e-02,-2.169845988729352665e-02,9.085742831230163574e-01
-4.812611087298648838e-01,-2.952347229930461503e-01,5.309940039380603993e-01,1.489252598367817558e-02,-2.071096063631213714e-03,3.979393537476344153e-03,9.336411356925964355e-01
-4.327411368952641668e-01,-4.398832700720905486e-01,5.471411002714722249e-01,1.056582529276767381e-04,-2.542122865325356033e-03,-4.259058618887872835e-03,9.835103154182434082e-01
-5.812967475673279649e-01,-2.038712582716167843e-01,5.881190682754265930e-01,5.124415338794937637e-03,-1.991562386780979313e-02,5.078840689923073970e-02,1.038086295127868652e+00
-2.469662004555413237e-01,-7.021656521719287225e-01,4.857229745945954580e-01,-1.889073172045934723e-01,-3.609632610828443153e-04,-4.053315834033874993e-02,1.090663433074951172e+00
-3.147423401327283932e-01,-5.161829013358522067e-01,5.675511292875707881e-01,2.472034375079357540e-02,7.020833765096766085e-03,-2.972370754557483990e-03,9.993785023689270020e-01
-4.363175372916109906e-01,-4.450243328086851413e-01,5.263441357864979686e-01,-5.897150090172255388e-03,3.393473705281245013e-03,-2.671139602748147292e-03,9.671273231506347656e-01
-5.198674739744341133e-01,-2.635922070992854915e-01,5.537389636787268810e-01,4.829309777666544387e-03,6.839133816013412068e-03,-9.482465891680436770e-03,9.714159965515136719e-01
-4.471418176795590171e-01,-4.262378522536012238e-01,5.063138199644273696e-01,-5.533597256015501675e-03,4.985587091084498976e-03,3.122975056864953775e-03,9.432811141014099121e-01
-4.552900870727612515e-01,-3.101742004230100269e-01,5.273819900370031455e-01,2.954182752844758744e-02,1.250173363249546150e-03,-5.005409334976897509e-03,9.202172160148620605e-01
-4.406485204772401243e-01,-4.398935914436565842e-01,3.860420026876746347e-01,7.815320116576590995e-03,3.306142051458772074e-02,-1.228210071505908829e-01,8.552842140197753906e-01
-4.385256147803059390e-01,-4.295877752261267335e-01,4.104883755976986848e-01,-1.507105605689979498e-02,3.965667032739309504e-03,-3.848246777325668722e-02,8.476364612579345703e-01
-4.630746552356148071e-01,-4.037230206238894281e-01,4.952599639476173987e-01,-1.192723252810689270e-02,-1.381689356014352207e-02,-1.872820459398500184e-02,9.311825037002563477e-01
-4.093983785981815671e-01,-4.123704914441355118e-01,3.320393104033205756e-01,-6.344801871186955648e-03,-4.592400526901646574e-02,-6.890422226386637428e-02,7.567254900932312012e-01
-4.371560265617608354e-01,-4.389162903949302419e-01,5.386175399478541070e-01,6.006209526165742253e-04,-9.885367699186707602e-03,-3.041646986315505244e-03,9.768196940422058105e-01
-4.639932665008420498e-01,-3.941167647930566842e-01,5.522260905509743800e-01,-7.813272785488508884e-03,-2.029542323215261478e-03,-1.241296864660129673e-02,9.834797382354736328e-01
-4.428135755174115173e-01,-4.198452128017612917e-01,4.643216038981443639e-01,-1.092065792913712169e-02,-2.329353781180480004e-02,-3.825840206664675013e-04,8.969795703887939453e-01
-3.730335866024254154e-01,-6.384722687642450101e-01,5.193657863240385142e-01,2.426778636270679190e-01,-9.781610519490974154e-02,-4.592062978599788237e-02,1.146917343139648438e+00
-4.368966629666940493e-01,-4.387618785370279717e-01,5.387782935139946439e-01,6.691801975031860198e-04,3.205735684702442669e-03,1.825819164073751773e-03,9.766305088996887207e-01
-4.450392217224829472e-01,-4.774892890623034236e-01,4.189948262966401993e-01,1.651159394366249686e-02,3.271725568423757349e-03,4.981890987572494545e-02,8.854047656059265137e-01
-4.937962282420735316e-01,-5.070984946101264601e-01,3.466424223757343936e-01,-1.799043890502713405e-01,-6.742964510797146496e-03,-6.209269876569567526e-02,9.091168642044067383e-01
-6.450369834627793786e-01,-4.837347127590144735e-01,2.711761515062635075e-01,-7.329261665719351282e-02,-2.366463902328619709e-02,-1.224647169733122654e-01,8.834398388862609863e-01
-5.259688624400193913e-01,-4.087103952812073948e-01,2.940442701488417132e-01,4.725303978638765307e-02,-1.434196477695441896e-01,-5.418326722285576880e-02,8.168421983718872070e-01
-4.468267111307237527e-01,-4.238315532877026670e-01,4.883302610991594461e-01,1.013363017870373001e-02,5.027890721677946706e-03,-8.634146882506368859e-02,9.361045360565185547e-01
-3.811448079994725902e-01,-5.128542437618093253e-01,5.611413852901544486e-01,-7.168326448380864593e-03,2.817397572147210122e-02,2.131157561109690846e-02,1.016492366790771484e+00
-4.671916964524701621e-01,-4.207071064886552247e-01,4.026164757121228899e-01,-5.504999738472463044e-02,-3.191115348221120612e-02,-5.485135539017421680e-02,8.599225878715515137e-01
-3.712843667514884038e-01,-4.499687700637354237e-01,5.325989995122267784e-01,8.373200470776599041e-03,-1.072435200280870068e-02,-6.251558865804864376e-03,9.460393786430358887e-01
-3.307331381818429117e-01,-5.714659221888658269e-01,4.602713185607516522e-01,-1.050541040287401862e-01,8.625253834505036687e-02,-1.155355994128842434e-01,9.846491813659667969e-01
-6.363760027134721109e-02,-7.950110779167912645e-01,6.897383573108563093e-01,-7.915599158874882246e-02,-8.152749606042428154e-02,-4.381656018100341110e-02,1.303065061569213867e+00
-4.961362696251259696e-01,-2.657741420307961899e-01,5.294099449462493778e-01,-1.911908273052737375e-02,7.409657326642648742e-04,-1.936226075109314868e-02,9.331600666046142578e-01
-3.060037336028723631e-01,-6.244155900484810173e-01,7.019719265693667998e-01,2.331462479083226125e-01,9.173240539373830882e-02,3.053886941901359092e-02,1.276505470275878906e+00
-3.364361637871935429e-01,-5.451618291765356616e-01,8.519347000923456203e-01,2.898252431992477396e-01,7.198178055019753552e-02,7.177020192336275306e-02,1.409548997879028320e+00
-4.878954686507238070e-01,-3.544445089574747021e-01,5.420613737708351865e-01,-1.155626932210239606e-02,-3.554042943448002976e-04,1.619279860862357992e-02,9.707518815994262695e-01
-1.108501289389939304e-01,-8.005317877995364872e-01,8.339187458136758657e-01,-2.647377108285553851e-02,9.606335329367176462e-03,1.142038851143204435e-02,1.422184705734252930e+00
-3.842204857985065392e-01,-5.325163322535361177e-01,4.536326856150061371e-01,-3.384761711751178848e-02,3.372361740603543184e-02,3.789879687370565492e-02,9.270369410514831543e-01
-4.621235663843841768e-01,-3.663125719926098034e-01,5.388693335305890786e-01,-7.379809846553113395e-03,-1.493865869466496146e-02,2.094748945494802339e-02,9.578150510787963867e-01
-4.202271741614008738e-01,-4.281906420462163188e-01,5.458938597667152282e-01,1.436908343734498265e-02,-6.347169515644769666e-03,-8.708693146837510890e-03,9.706259369850158691e-01
-1.848373343533670221e-01,-6.337249213176253670e-01,8.344014419009311290e-01,1.552551926192672627e-01,-7.284631894320540979e-03,1.237237739618509032e-02,1.330714941024780273e+00
-4.527908301104052735e-01,-3.099508291816999717e-01,5.265220182899853496e-01,2.558921060444178594e-02,-5.584090895333113742e-04,3.421179042093206411e-03,9.173725247383117676e-01
-4.587898511816776992e-01,-4.004537378418798754e-01,5.474095934030269728e-01,-3.197058253236122194e-03,-4.589352676861960245e-03,-1.230502917930273443e-02,9.786167740821838379e-01
-4.207296695903404715e-01,-3.818893620428089886e-01,5.378749404437263015e-01,3.822713297160541118e-02,-3.803398508691827745e-03,-1.381687500778482069e-02,9.424430727958679199e-01
-4.197659351431966002e-01,-4.136644973561450778e-01,5.387442255988695861e-01,2.299610039518793295e-03,1.021287691919609778e-03,-6.454103423703371964e-03,9.555493593215942383e-01
-3.319805232488216573e-01,-5.273142485781080468e-01,9.424927036123134094e-01,2.939877989484537268e-01,-1.373650756594521974e-02,-9.872301446060369190e-03,1.473611116409301758e+00
-4.407521191260444504e-01,-4.418475911616693841e-01,5.469920547764756114e-01,-1.908096721099934723e-03,5.241067357919173978e-04,-1.510685284855220033e-03,9.883017539978027344e-01
-1.019985324461983311e-01,-7.768957606598155818e-01,9.337592032540731335e-01,9.184476440809562214e-02,-1.300743069219258488e-02,-1.742586858928338311e-02,1.501344561576843262e+00
-4.435776564730061211e-01,-4.328707969749262530e-01,5.437553946508957292e-01,-2.332818065687835771e-03,-2.438139294355984657e-03,8.757761032875467297e-03,9.821579456329345703e-01
-4.180989872292273923e-01,-4.294035218930450371e-01,5.427496060610073059e-01,4.751019396984054559e-03,8.555552884690652889e-04,2.595132385986274187e-03,9.665970802307128906e-01
-2.936371091535605604e-01,-4.909430322146974834e-01,6.108564383764971684e-01,-1.406925289833581005e-01,-6.081531510933116391e-02,4.217391044433404373e-02,1.054189085960388184e+00
-4.379252952795484877e-01,-4.381426365616306051e-01,5.506465903203275891e-01,2.571508788148928627e-04,-2.589625397914424414e-03,-1.713351304853683640e-03,9.886953234672546387e-01
-3.342485384036409934e-01,-4.499930455668940676e-01,5.273277990270857085e-01,-2.909799439977350799e-02,8.145265018277860619e-03,6.828823246952596751e-03,9.264514446258544922e-01
-1.992419650263781983e-01,-5.009282070814689014e-01,6.338358009100569790e-01,-2.297620201016148389e-01,-6.471452495268523175e-02,3.805195041858255856e-02,1.100745558738708496e+00
-2.946085780910093765e-01,-4.003772992361299687e-01,5.923412140388699676e-01,-2.464535387152871071e-01,-3.113232663272687273e-02,1.885684871327486176e-02,1.038205623626708984e+00
-2.426769990896112117e-01,-5.207875137901475382e-01,5.507084551976964004e-01,-5.876726426153941474e-02,-7.068769709905357509e-03,-1.137092541142213642e-03,9.684881567955017090e-01
-5.585585659994115604e-01,-3.299194743538093055e-01,7.805970923935169337e-01,-2.955704515456987758e-01,-1.330553564587499960e-02,6.193069646258742011e-02,1.346682310104370117e+00
-4.336017747221391772e-01,-4.178612000539827509e-01,4.558802543914011185e-01,-7.716429874835593417e-04,-7.538830098674265427e-04,2.512546018423473734e-03,8.817298412322998047e-01
-9.472533755775758291e-02,-8.163229761265682338e-01,9.105969147042720646e-01,-8.962722209605603063e-02,-1.389103642364186708e-02,9.852623878551340642e-03,1.510557293891906738e+00
-1.029729771399454097e-01,-8.237310641195368932e-01,9.609202112520622840e-01,-6.095823960428325278e-02,-3.576533950878607593e-02,-1.983398290759167196e-02,1.560235857963562012e+00
-4.849209101387533805e-01,-3.439936762084250810e-01,5.418019455162316200e-01,-4.197446155161910740e-03,-3.690586233716049158e-03,2.655570418481163070e-02,9.651613235473632812e-01
-4.333815317794879607e-01,-4.357879498339676805e-01,5.445669079055189821e-01,1.847527663034677359e-03,-3.310106758332771737e-03,-5.695022468220499370e-04,9.791764020919799805e-01
-1.224372436142124321e-01,-7.349399078907898897e-01,8.648897159374706600e-01,-1.298989197503098991e-01,3.533328109583207949e-02,-5.442508611362877405e-03,1.417451858520507812e+00
-2.796941427624532461e-01,-5.097349935530786080e-01,5.466018548911001362e-01,-7.824306317826433196e-03,-1.823981833137837405e-02,6.676398094708683659e-03,9.628505110740661621e-01
-4.329886539115838096e-01,-4.409500552000124030e-01,5.478794626859521122e-01,1.839365526470215003e-03,-2.741878267153857306e-03,-1.298953427785800750e-03,9.848921298980712891e-01
-4.258789441395026687e-01,-4.346470241027376447e-01,5.463833597874467873e-01,1.954575109779744385e-03,-4.627289712925660055e-03,-5.992800401979810933e-03,9.767697453498840332e-01
-2.520956842706175705e-01,-5.902606527825732252e-01,8.872643582569998966e-01,-2.984038385008668248e-01,8.206220837397573686e-02,-6.027076884494450559e-02,1.447764992713928223e+00
-4.325492851571736130e-01,-4.389823630182798087e-01,5.510401043104568020e-01,3.496076861438801239e-03,1.936040797158736573e-03,1.454106399219777176e-03,9.868491291999816895e-01
-3.997456679534434620e-01,-4.530443659456395156e-01,5.815231441874538776e-01,-1.061679957406814895e-01,-3.752453473093459585e-02,-3.964447382995380485e-03,1.027675032615661621e+00
-5.322288927658977986e-01,-3.670959840740886104e-01,8.508574169782643359e-01,-2.986119930999249772e-01,8.098808454128625638e-04,1.335106931407538042e-02,1.407070636749267578e+00
-2.840912415507378941e-01,-6.394319438646566267e-01,7.723940509621308736e-01,-2.692620490699946800e-01,-1.091555700600493617e-01,1.060463509273477656e-01,1.380155324935913086e+00
-4.457500582542490153e-01,-4.303696846423444300e-01,5.073453698417371704e-01,-3.713530100940772277e-03,-1.402220520555706035e-02,-4.716583507290664657e-04,9.458331465721130371e-01
-4.993975023677581504e-01,-3.132305180860565086e-01,6.084515682424265215e-01,-5.765281543022852950e-02,2.588157523591396152e-03,3.239766655132243420e-03,1.032359361648559570e+00
-2.168038520914209732e-01,-5.372200493875676219e-01,5.063260213408903310e-01,-1.104330587022362004e-01,3.438397990038144503e-02,-6.493406347160491504e-03,9.473887681961059570e-01
-2.923897021485868386e-01,-4.970663343491965036e-01,5.414718240842141261e-01,-4.627723992542095294e-02,-2.621928223771001487e-02,-1.012135289325846559e-02,9.574361443519592285e-01
-3.902481389951741875e-01,-3.827446225274891423e-01,2.803695261882582779e-01,7.775565681518422333e-03,-7.839075641734348857e-03,4.044437384079661857e-02,6.708392500877380371e-01
-4.439394507597355655e-01,-3.762954483672537598e-01,5.373949999662144261e-01,-8.015920671430703734e-03,4.615131931507024908e-03,4.728853627040774214e-03,9.494921565055847168e-01
-3.745900532788808968e-01,-4.402745949801399328e-01,5.373233893188109622e-01,-9.497107578946549847e-03,4.916232876686339390e-03,1.015357841819133737e-02,9.468112587928771973e-01
-5.239192854436782731e-01,-4.301534034320181887e-01,5.412988531724761687e-01,-3.054510328934269270e-02,-2.913024331453560600e-02,7.806345824907787168e-02,1.033066868782043457e+00
-3.269655037238237694e-01,-4.457501742570019188e-01,5.302783214019036739e-01,-1.497723270441081618e-02,-8.377344031508760988e-04,4.833133136650718392e-03,9.227942824363708496e-01
-4.377664888402460486e-01,-4.288756985017759260e-01,4.924744962635648760e-01,6.186824404686888657e-03,-1.351806305710426259e-02,-2.466339098267311073e-03,9.261954426765441895e-01
-7.645935897978994866e-01,-1.593286395226222729e-01,8.247018686112527197e-01,-7.651683858710525699e-02,3.101765734199847524e-02,-6.557142916164225566e-02,1.401288866996765137e+00
-3.156293890061228069e-01,-5.622613668917485485e-01,6.365067781075294251e-01,1.692030475813337265e-02,-1.234763312841225674e-02,-1.319150475287392613e-02,1.097294926643371582e+00
-5.051566656709076675e-01,-2.835599595382568561e-01,5.429875322499461143e-01,2.815794456544081555e-03,-3.368873669441928634e-03,-2.490913220297524128e-02,9.577918648719787598e-01
-7.659008669983434769e-01,-1.302787645238951963e-01,9.230005814496986538e-01,-6.583125418695354170e-02,1.045454483590708972e-02,9.249372406484835871e-03,1.482054710388183594e+00
-5.282692723477786512e-01,-2.374729686226187408e-01,5.351677274428924269e-01,1.267999127443979884e-02,-4.398406336856067449e-05,5.486646503635187778e-03,9.522551298141479492e-01
-5.221069910721326535e-01,-2.409578054671826508e-01,5.513427965698486366e-01,-3.820927362011396992e-03,1.893475893299123732e-04,1.626026333430379348e-02,9.645604491233825684e-01
-6.027524715381142872e-01,-3.503729481845342941e-01,7.290145218207073619e-01,-2.730225995047298460e-01,5.306969720127596712e-02,-9.814015101036907551e-02,1.327462077140808105e+00
-4.122091275444603187e-01,-4.185951529319438258e-01,4.143148239792657783e-01,1.764451697555541754e-03,2.289247933672139759e-02,3.397565128821809777e-02,8.327696919441223145e-01
-3.567872730487397503e-01,-4.921105500076607964e-01,5.572120241082170189e-01,9.974589226812826184e-03,-1.735967901511702507e-02,6.037928561609659517e-03,9.892948865890502930e-01
-4.620500909089595432e-01,-3.073614926583310147e-01,5.356426167092762647e-01,-3.429868857503271667e-02,-4.185485725439816798e-03,2.737615677799309401e-03,9.319827556610107422e-01
-3.882131714870626360e-01,-4.198301187219545816e-01,2.976264718677831267e-01,2.554565937503999740e-02,9.059278438049597065e-03,2.033800262766365455e-02,7.046308517456054688e-01
-4.888898034205348408e-01,-3.065895789357182544e-01,5.396512743735049078e-01,-7.266060056197818501e-03,2.128279913894214493e-03,-1.649193100066839376e-02,9.511123895645141602e-01
-4.202630454834229146e-01,-4.555203588345797527e-01,3.421305488086262558e-01,1.069534403258649846e-02,6.628789668682819047e-02,5.742882939371539430e-02,7.954788804054260254e-01
-4.600174520026731328e-01,-2.447462422945173022e-01,4.881067109968445505e-01,1.957169309967002890e-01,-7.399577614170984100e-03,7.129596771357632479e-03,9.254239201545715332e-01
-7.424752348611975972e-01,-1.807574473768434609e-01,9.245672847318975318e-01,1.178500566853383086e-01,1.475866576777597888e-02,-4.887997907069560610e-02,1.485811948776245117e+00
-4.265876566891642629e-01,-4.355689612571420066e-01,4.899317859267402486e-01,1.225269241974695457e-03,-3.175923835047970989e-02,-1.483336730854230290e-02,9.230442047119140625e-01
-5.102012274020382154e-01,-2.891561383104633287e-01,5.582184540705028564e-01,-2.742918236783423169e-03,-2.620949302411708544e-03,1.061715556546776601e-02,9.770332574844360352e-01
-2.638235405165118563e-01,-5.262218414216675022e-01,5.497020350374141051e-01,1.356473326260337030e-02,2.190779856160833886e-02,2.788552586036668109e-03,9.727073907852172852e-01
-1.424990038482746024e-01,-7.154755845161447914e-01,6.575209201785957580e-01,-4.453376144568351423e-03,-1.098191085714202153e-01,1.693002833845194330e-02,1.209887146949768066e+00
-3.231067108833431401e-01,-4.607733008357001170e-01,5.351056252355756993e-01,-6.156702363204578227e-02,1.113592577353308825e-04,-3.629136117598595395e-04,9.407441616058349609e-01
-1.146004063845785514e-01,-6.730359444619131715e-01,6.028272964486078855e-01,1.382170153869853764e-02,1.814895445415367833e-02,4.260152222378961462e-02,1.110943675041198730e+00
-8.076627745841730155e-01,-1.371295048197316846e-01,7.377040748110675894e-01,-5.596486693517130351e-03,7.849922430887557034e-03,-1.321989698955609860e-01,1.361712932586669922e+00
-4.750841021723495317e-01,-3.571839954528178707e-01,5.353348993656680266e-01,-1.654842401900349924e-02,6.381437972580603296e-04,-1.393738870701146174e-02,9.576659202575683594e-01
-4.760537814970455806e-01,-3.826215667120495545e-01,5.665135504995629789e-01,-1.700715839645730587e-02,6.005898155557238931e-03,-2.657218438548009359e-03,9.996319413185119629e-01
-2.972046678878780268e-01,-5.946829195988589944e-01,8.665268547071512950e-01,-2.919375912445636434e-01,2.028986969065680462e-02,-4.448000047578825472e-02,1.432411313056945801e+00
-3.919335137875406549e-01,-3.967956537203548573e-01,5.233025009920868609e-01,-1.560627457438026368e-02,-1.571668649421612430e-03,-4.897359161734762085e-04,9.180791974067687988e-01
-2.242733758394113708e-01,-5.425043458944007746e-01,5.471066625352757340e-01,-1.291311796976633494e-02,4.566300623101321107e-03,3.256350546329809820e-03,9.707573056221008301e-01
-4.017186404899313334e-01,-4.037257135649892636e-01,5.332328494381577411e-01,-1.615454900455978726e-02,2.360254170279093341e-03,-4.798288572595919843e-03,9.364206194877624512e-01
-4.465606286522940116e-01,-3.400818547030996508e-01,5.359977099050770022e-01,-1.437149151247336248e-02,7.169141299450296559e-03,-5.261880342670364986e-04,9.342973828315734863e-01
-4.014152646141435077e-01,-4.258373911066470896e-01,5.377484390453944885e-01,-5.300038806076682804e-03,7.817973254089142718e-03,-7.839924738310608682e-03,9.518473148345947266e-01
-4.609168129275492687e-01,-4.300434853724948159e-01,8.679784406095476523e-01,-3.061286898710051663e-01,2.802256177959516065e-02,-2.043504943579507738e-02,1.417970776557922363e+00
-4.976896058968185432e-01,-3.445668978038217145e-01,5.431413969453063872e-01,-1.373954386114979200e-02,1.487352178468324959e-02,-1.464661290242420116e-02,9.743071794509887695e-01
-5.960252183840261120e-01,-3.126823083290519723e-01,7.296320165702701033e-01,-2.895219089108099220e-01,6.892446198062406049e-02,-1.311048879363389263e-01,1.333911776542663574e+00
-4.376198555626478748e-01,-4.262314487564046184e-01,5.083342642231519770e-01,-3.631545298088557656e-03,1.416888139102664285e-02,-4.487464875956186962e-03,9.406849741935729980e-01
-3.871684008070397920e-01,-4.094956956404284809e-01,5.292777544924268662e-01,-8.004414846514932430e-03,9.407926862719958455e-03,-8.504334321166078653e-03,9.281748533248901367e-01
-6.858541630635172082e-01,-2.622561867746172060e-01,9.172545919075073551e-01,-2.622085307540849008e-01,-4.887468114740933615e-03,-2.647061879995121075e-02,1.509553909301757812e+00
-2.605477595991925743e-01,-5.895790383285378633e-01,6.246414499758052852e-01,6.769870471534164547e-02,3.738094183466325604e-02,6.879994586949848487e-03,1.095974326133728027e+00
-2.740744259630820689e-01,-6.815943955838441592e-01,7.439499095426812536e-01,-2.473919320943493150e-01,-8.245384217926712833e-02,5.779668101356491561e-02,1.353268980979919434e+00
-9.068247854834654564e-02,-6.743052283348525133e-01,5.775456106309559967e-01,-4.587794369315801452e-02,9.621357408851857751e-02,4.684582954692579834e-03,1.100585699081420898e+00
-2.592562092061056478e-01,-5.747825163185622532e-01,6.202908044055265302e-01,-1.896213602974581025e-01,1.332276192120246741e-02,-6.348241693741994707e-02,1.127462387084960938e+00
-2.441221829898632123e-01,-4.819536436951201153e-01,5.415235268606147789e-01,-1.135286959547289753e-01,-3.479412159475045452e-02,9.348018529198406923e-03,9.503760337829589844e-01
-1.256106976435916178e-01,-6.968487116749191301e-01,7.315850732436934845e-01,4.767298705616331705e-02,-6.554937781431634247e-02,-2.669801891021265222e-02,1.254036307334899902e+00
-3.124882936993736982e-01,-5.027947282717746269e-01,5.764268229676483557e-01,-1.791434346599951599e-02,2.183636071581812957e-02,-5.280456749206332602e-03,9.990144371986389160e-01
-1.067045836801187031e-01,-7.536406788450641381e-01,6.704124175808127140e-01,1.096187968167583182e-01,-1.290695639282709098e-02,-3.729459156047102569e-02,1.251360654830932617e+00
-2.791614824179629584e-01,-5.322988774863720574e-01,6.132622209663552981e-01,-2.388774647963391728e-01,-9.681216163436484612e-02,6.443468575326680159e-02,1.139370441436767578e+00
-3.817340474683706963e-01,-5.316449276440167182e-01,5.178992654789666972e-01,-1.555826724997809267e-02,-7.664614446977358053e-02,-1.808890286989301571e-02,9.929803013801574707e-01
-2.735796367962393671e-01,-5.067498518892917803e-01,5.419167013207503159e-01,-3.861407894032178878e-02,1.359078205374491047e-02,1.189738160981650486e-02,9.565584063529968262e-01
-4.410066470214842882e-01,-4.402001116126691427e-01,5.482727566545404496e-01,-1.155584976129760437e-03,-2.588444227364484519e-03,-2.704879043091136873e-03,9.888996481895446777e-01
-4.352334517691583415e-01,-4.352023195210597550e-01,4.942747986208352318e-01,-1.052839144556210957e-02,3.129139261331610397e-03,-1.197301013185984343e-02,9.299185872077941895e-01
-9.788788688958263706e-02,-5.994708437622948694e-01,5.574888079919219086e-01,-6.045914286165787049e-02,8.685712331541367570e-02,3.747953691359688644e-02,1.023544073104858398e+00
-3.375322748591266242e-01,-4.888576249434716803e-01,5.497919665985918636e-01,-1.204140848214971249e-02,1.200978176349151716e-02,1.478303881826541081e-03,9.723129868507385254e-01
-3.213654863594428979e-01,-4.540840543161916432e-01,5.306985520925062705e-01,6.504812802672162164e-02,-6.239409875280736359e-03,7.089874341159499438e-03,9.325628280639648438e-01
-5.135522525349526246e-01,-5.118019724248226154e-01,5.054877268695736614e-01,1.941239415151406744e-01,3.486149204314419568e-03,-3.923365432592915841e-02,1.074415445327758789e+00
-3.105976675569420697e-01,-4.931280097713804933e-01,5.801244201260805644e-01,-6.695380630509925601e-02,4.049862900996781256e-02,-1.243879490310093039e-02,1.004051804542541504e+00
-4.408639432486446408e-01,-4.279472724775292281e-01,5.330209704375614699e-01,-1.172842824269066959e-03,-2.167145053795584402e-03,-9.472368495793030002e-03,9.676397442817687988e-01
-4.194226860293586712e-01,-4.032708992074671150e-01,5.720674258717067806e-01,-8.379416420895874351e-02,2.030353108737946444e-02,-1.681481819592673191e-02,9.952127933502197266e-01
-4.267810413077497977e-01,-4.362121907988379954e-01,4.932343071051722427e-01,-6.667544651693601068e-03,1.408638781076372451e-03,-5.901364242125440012e-04,9.248428940773010254e-01
-4.438232487261893344e-01,-4.535383379958196071e-01,5.283858587111707195e-01,-6.070388787288044131e-03,9.135256894451219273e-03,-1.010295242736166353e-02,9.774441719055175781e-01
-4.410740316855690235e-01,-4.454749822741222443e-01,5.483076169952333379e-01,-2.639965427480690362e-03,-1.885670985340165678e-03,-8.798113122547748625e-04,9.916065335273742676e-01
-5.526611224690289870e-01,-4.968518946544420167e-01,3.288816642111902500e-01,1.030210223294577010e-01,-2.781876271528514744e-02,1.995999230511028705e-02,8.754376173019409180e-01
-2.804239268318950984e-01,-6.097660356414644767e-01,2.412907737469133229e-01,7.603775340421946305e-02,-8.331235418199652021e-02,-1.803247597184819834e-02,7.691674828529357910e-01
-3.384477682374166241e-01,-4.596894124461607944e-01,5.433388038638802264e-01,-2.046523188026271381e-02,-1.206639985486986089e-02,1.056044740750264159e-02,9.493072032928466797e-01
-4.081635525975124690e-01,-4.637797881048679738e-01,5.421868249414196761e-01,-5.254189460862103943e-03,-1.115791281461236267e-02,2.818781865421064476e-03,9.795887470245361328e-01
-4.440638341840026371e-01,-4.292825837527135535e-01,5.125014934832256008e-01,-1.973326590914013974e-03,1.206537596170586396e-02,-6.830625252095569571e-04,9.494979381561279297e-01
-4.240251989553829870e-01,-5.375978165000608877e-01,6.762430499152497498e-01,-3.145690101076181744e-01,-1.244836964217410358e-01,7.325164256142596697e-02,1.306865096092224121e+00
-3.233839023577362859e-01,-6.046286908278666328e-01,4.295917782576409438e-01,-2.760443873383090496e-01,-1.574277314270313699e-01,7.276345185455539849e-03,1.077474951744079590e+00
-4.514132656961964973e-01,-4.302117566008713534e-01,5.268668890927261650e-01,9.376260196004271817e-04,-1.707662021436455891e-03,1.335064785809022192e-03,9.678622484207153320e-01
-3.733779644466469483e-01,-4.109221643748478536e-01,5.248990731502389817e-01,-4.459438388074044718e-03,-2.169632241963266595e-03,1.111655230805807214e-03,9.176675677299499512e-01
-3.830255756153516100e-01,-5.040276753889023631e-01,4.758728456595615608e-01,-3.315869042511205844e-01,-1.644800509676137834e-01,1.354189965304800347e-01,1.149913907051086426e+00
-4.202223945596744725e-01,-4.240116490668395244e-01,5.431516806281944110e-01,6.413575013682475427e-04,-2.522027481434926683e-03,-2.105295097485388334e-03,9.652916789054870605e-01
-4.362797225767864884e-01,-4.331409522892347708e-01,4.973494640885433027e-01,8.225596288522976293e-03,-1.042002673814880140e-02,1.433819564381421524e-02,9.326780438423156738e-01
-3.248851492554755693e-01,-7.166990437782134737e-01,3.429250115216350148e-01,-8.035018808858382378e-02,2.609535775688217457e-02,-5.639148283787094595e-03,9.394959211349487305e-01
-4.290472243111441153e-01,-4.514245013367300663e-01,5.485029607440932153e-01,1.025829862029068590e-03,1.395802257395597698e-02,-6.824922081902844509e-03,9.892964363098144531e-01
-4.494423215900362756e-01,-4.328246834576099933e-01,5.329696349779923237e-01,1.056772939751514330e-03,4.647277452784800977e-03,2.444369498923319381e-03,9.742535948753356934e-01
-3.040101878670979363e-01,-7.515045743576247439e-01,4.872816737768600470e-01,-6.390230132673491159e-02,-1.118265855767282546e-01,-1.750640946035390139e-02,1.109584689140319824e+00
-2.008671676887063551e-01,-5.474073447376122115e-01,3.900913052086647514e-01,-4.449315878158245641e-02,3.909844101448373133e-03,4.918317087389125625e-02,8.290685415267944336e-01
-4.514244389695973303e-01,-4.335812898596310139e-01,5.309414107235598257e-01,-7.604341370284793200e-04,1.618794665917114642e-03,3.664683403408534293e-04,9.735720753669738770e-01
-5.208755340783368659e-01,-6.007264110720751393e-01,3.515698858228472057e-01,-8.958471585977151319e-02,-5.114603696396446963e-02,4.045775883699446324e-02,9.348995685577392578e-01
-4.138373256567852709e-01,-4.628267115591265801e-01,4.931044205803659652e-01,-1.649145674277161314e-02,-2.717346811465441974e-03,4.357361640966794965e-03,9.328820109367370605e-01
-3.309627513781061570e-01,-6.759256553059073136e-01,5.582732389321619637e-01,-1.546438098135453354e-01,-9.920546052197512510e-02,1.775085611360489521e-02,1.148350119590759277e+00
-4.360579567344754492e-01,-4.291974779915895821e-01,4.913750936045485629e-01,-1.194222277152781966e-02,6.435158247445170107e-03,-1.646047779308027967e-02,9.247602224349975586e-01
-4.151247041027038565e-01,-6.155496999767109401e-01,3.247608699448499836e-01,7.559427504304960799e-02,3.485316149457784451e-02,-4.321322864615633266e-03,8.699058294296264648e-01
-4.406161860753433079e-01,-4.241987744957184114e-01,4.776914087334630521e-01,-2.186941411913992037e-03,-2.678753507730571165e-02,-3.512599860611237586e-03,9.114198684692382812e-01
-4.210337748180617568e-01,-4.244334448485248545e-01,5.435719909407987771e-01,-3.830176510000342979e-04,-2.590090380842062501e-03,-2.226558361053926783e-03,9.663284420967102051e-01
-4.217537450154867917e-01,-4.286079350901660923e-01,5.018979404054070281e-01,-1.731222678997763539e-02,-3.757747235337715111e-03,-5.674758447328628365e-03,9.276574850082397461e-01
-1.513194899961231299e-01,-5.816185661198726153e-01,5.873597193432649188e-01,-1.234159751609473360e-01,-1.045025995271561814e-01,1.336140164352143597e-02,1.061908483505249023e+00
-4.129860215186986760e-01,-4.225902942097376491e-01,5.397555036758177049e-01,-2.481405288193998075e-03,6.869463181620346498e-03,8.158498299816470238e-05,9.576633572578430176e-01
-4.862369238746949152e-01,-4.011993698905614858e-01,4.469296541130404199e-01,8.222489691718146143e-02,-6.185628253663662257e-02,-1.697112087401583119e-03,9.112886786460876465e-01
-4.416555205119865324e-01,-4.426935301195137340e-01,5.521628771196089858e-01,-9.258232563791442271e-03,-1.446925491583243156e-02,9.823835676203014969e-03,9.949283599853515625e-01
-3.121050561247035171e-01,-4.586796705683830466e-01,5.314070579632829139e-01,-3.214591433401921272e-02,-4.405185690794585426e-03,2.333264530672576019e-04,9.272500872611999512e-01
-1.262724311584786929e-01,-8.150747929216658472e-01,7.430578530080371724e-01,-3.941418007966052822e-02,-6.270688104213671676e-02,1.652637280125541022e-02,1.358770370483398438e+00
-2.076502468959594561e-01,-6.820712528954107068e-01,6.658148431236829978e-01,-1.928673752289618848e-01,-7.858934350978963312e-02,-5.547873911621774637e-04,1.237953901290893555e+00
-2.918951256332513178e-01,-5.324648275603555136e-01,5.404757221052804983e-01,-4.928624337995996148e-03,7.645916862862601679e-03,-3.155727381873164872e-02,9.768285751342773438e-01
-4.230529494523712630e-01,-4.164966137042887540e-01,4.347626703473821408e-01,-5.590242443930379043e-03,-1.069549030885982334e-02,-1.233335502319170100e-02,8.550788164138793945e-01
-2.873482815465989715e-01,-4.873345917533177252e-01,4.579529747188417765e-01,-5.165912935981255977e-03,-7.344437088179295997e-03,1.801823227669854029e-03,8.630006909370422363e-01
-4.441150613618726206e-01,-4.310017444281311061e-01,5.045670094002542294e-01,-8.792454922747695856e-03,-1.433937733280363225e-02,-4.546882919740374493e-03,9.426770806312561035e-01
-4.392407985012689031e-01,-4.768058369616317016e-01,4.047105696555118870e-01,-1.200363440458725693e-02,-8.475607597169190766e-02,5.437693556590611661e-04,8.759863376617431641e-01
-5.208142720631159239e-01,-2.404000778126383353e-01,5.440739315376837970e-01,-6.161192819123124595e-03,1.947036472609635534e-03,-1.530442025910939974e-02,9.564712047576904297e-01
-7.336954797151282737e-01,-1.960255279658792982e-01,9.020134402118007433e-01,-1.314536910516362900e-01,-1.700924638329651128e-02,-4.898651701350358045e-02,1.464605212211608887e+00
-5.225128225104093138e-01,-2.503140302481700052e-01,5.415704349482209912e-01,4.844892827675377836e-03,2.282428920054476698e-04,-8.353718760547398925e-03,9.576027989387512207e-01
-4.534931195847152763e-01,-3.822245254079777443e-01,5.387309471346061196e-01,8.699840065198765141e-04,-7.631560166960249568e-04,-1.288608960162008002e-02,9.588407278060913086e-01
-4.012383236139221987e-01,-3.939841860396940953e-01,2.671220183167437590e-01,2.734344124054413107e-03,5.960941860040307183e-02,-9.490926206748134808e-02,6.925426721572875977e-01
-4.381744336775225679e-01,-4.388992877416221794e-01,5.416861107017847399e-01,2.291671904605572477e-04,2.656386904213327207e-03,1.573326252220329149e-03,9.802378416061401367e-01
-4.333403552180277729e-01,-4.313915494462666755e-01,5.465855707221158877e-01,-9.008646409228812007e-04,1.624157909353866284e-03,1.316656436595322211e-03,9.789609313011169434e-01
-4.406275418420901313e-01,-4.427310539848707260e-01,5.471834532097236137e-01,-6.752753587454570893e-04,-1.673843113073916061e-03,-7.815251736065253509e-05,9.888693690299987793e-01
-4.392781525123162223e-01,-4.374755731984599216e-01,5.433502757149069051e-01,-1.492837455108077423e-03,-4.137629813356163110e-04,7.923799085355842653e-03,9.818279743194580078e-01
-2.502018876977238349e-01,-5.548270411038503935e-01,5.895498537899322988e-01,4.580396490160672934e-02,2.744659624179254798e-02,1.491799902772582981e-02,1.031024098396301270e+00
-4.429424113470972757e-01,-4.221288160826908165e-01,4.701664985842094469e-01,8.204056566339743700e-03,3.943013271747632109e-02,1.379099643573891698e-02,9.058877825736999512e-01
-4.338975876877238513e-01,-4.371729074446518704e-01,5.005287868078887037e-01,6.380812576877109045e-03,-1.288598521435842595e-02,1.049980642386450121e-02,9.365761876106262207e-01
-4.415150893160524337e-01,-4.407811701143123373e-01,5.482366681917750784e-01,8.725642796933984766e-04,1.117111650594871872e-03,-1.196847804958565747e-03,9.893901944160461426e-01
-3.000001929344255358e-01,-5.045915185240319456e-01,5.534302661184362648e-01,5.942551808778653855e-02,1.285852574088742345e-02,-9.280347385368301061e-04,9.777005910873413086e-01
-4.414190680389341037e-01,-4.398975866101014764e-01,5.312203938726852703e-01,4.847865239527089816e-04,-2.735274161468351922e-03,5.586576298752728501e-03,9.719396829605102539e-01
-4.335637390887632225e-01,-4.372973239307388904e-01,5.496872209742622584e-01,3.750496940431185915e-03,4.040866103149014883e-04,-1.281569691316060151e-03,9.851472377777099609e-01
-2.954210579969785977e-01,-4.870792715584012500e-01,5.408273924084212592e-01,1.642758468033171659e-02,-2.814946884883505040e-03,-8.823915925788950593e-03,9.473041892051696777e-01
-3.077999642225782151e-01,-4.550377208643823779e-01,5.262590901757254747e-01,3.669438747864196132e-02,-2.870899252794281709e-03,-5.089405209898225507e-03,9.188472628593444824e-01
-4.205572606770601740e-01,-4.338767559264146700e-01,5.376041508291657944e-01,3.540704735211924747e-02,-7.409439596275241291e-03,-1.206903075511579250e-02,9.671481847763061523e-01
-2.161743998014879209e-01,-5.350038084461509191e-01,5.116283161638461863e-01,1.280211152914464412e-01,-1.510598877175911223e-02,-1.936574347916822716e-02,9.562278985977172852e-01
-2.160287890732352500e-01,-5.371316528798908418e-01,5.737537136394178505e-01,1.747837180750830277e-01,4.823660799515908093e-02,4.984546760406374788e-02,1.042375564575195312e+00
-4.349033308469105186e-01,-4.451157920229347753e-01,5.550824297758899517e-01,-1.423227712156546840e-03,-1.935128707598461530e-03,4.728180611475061787e-03,9.951736927032470703e-01
-4.052751607498075170e-01,-3.519817437621289846e-01,1.221024391847779778e-01,2.909802426251441310e-02,1.040406795869432688e-01,1.276615639106163380e-01,5.803167223930358887e-01
-4.496683504071741222e-01,-4.474245567220462849e-01,3.677325484340457917e-01,-5.554106464894667528e-03,7.038224867377937399e-02,-8.171502825931063752e-03,8.255113959312438965e-01
-3.682215311380919731e-01,-3.705469598164653489e-01,1.879600941406175396e-01,-2.929121186968901107e-03,1.413835282416464265e-02,-3.468901325957504667e-02,5.611346960067749023e-01
-3.465788992270765201e-01,-4.074215590279541832e-01,2.725961704231030236e-01,1.674427266352940605e-02,7.515255903398307402e-02,2.426914209795433264e-02,6.665610671043395996e-01
-4.157547408062441940e-01,-4.220060252378845522e-01,4.088181559605692517e-01,-5.027720338755477941e-03,2.958513183075339725e-02,3.855083643163580848e-02,8.320302367210388184e-01
-4.188973340605745554e-01,-3.997468673979320819e-01,3.857350305293414383e-01,3.413532180341791351e-03,3.583737665619437379e-02,3.150144310565466477e-04,7.976710796356201172e-01
-4.012365480865675571e-01,-4.020169181884456489e-01,3.515383922686987628e-01,-2.130766271853316417e-03,1.750479341586377163e-02,2.949266379572636904e-02,7.555133700370788574e-01
-4.281765041521997661e-01,-3.622247941494100010e-01,5.290314948662542260e-01,1.844241400532018252e-02,1.172866135591401661e-02,1.028300919165786413e-02,9.269399046897888184e-01
-4.421736028352059034e-01,-4.393722625091628919e-01,5.315400187066309234e-01,6.575985316151554926e-03,3.485062018964511094e-03,-4.419634797820595588e-03,9.724315404891967773e-01
-2.058215798556609077e-01,-5.636452236729135867e-01,6.429982424553587483e-01,-6.123149822678352477e-02,-6.957662966655646028e-03,-9.109439724871869551e-03,1.078843235969543457e+00
-2.054623143651602701e-01,-5.592109821399925407e-01,5.641865596450822418e-01,-5.076474998235479957e-02,-4.177646697438172629e-02,4.294057514977214079e-03,1.001390099525451660e+00
-1.497345940794613806e-01,-5.796604264969971165e-01,8.160882214286002689e-01,-1.584696942311520917e-01,5.000602611608004344e-02,3.803679952132221070e-02,1.272816658020019531e+00
-4.393940011972365389e-01,-4.422342750489604013e-01,5.534909259123427239e-01,1.263442923169982336e-03,1.340903234368534839e-03,1.605560666163231202e-04,9.943132400512695312e-01
-4.423089677769475037e-01,-4.343216155860445959e-01,5.430579794738731314e-01,8.246859936991565113e-04,-3.478730120518720953e-04,-3.243491358416922266e-03,9.814149737358093262e-01
-4.403728233354387012e-01,-4.353371175428611406e-01,5.484444699398777212e-01,7.824162218480749291e-04,9.651034104514082460e-04,2.331415510037574985e-03,9.863197207450866699e-01
-5.008509319162113282e-02,-6.516653524683778675e-01,6.733075390524140280e-01,8.601919684870715233e-03,5.239396664117243474e-02,1.381658925718363636e-04,1.152749657630920410e+00
-2.669892206667343060e-01,-5.457729494176689622e-01,6.566672814205528619e-01,1.496778047906896503e-01,-9.511983160285655825e-02,-2.685379367304809028e-02,1.133525133132934570e+00
-4.452176361375548841e-01,-4.305182430064018462e-01,4.595915544427792154e-01,-7.953631058933940262e-03,-3.556186567300281820e-02,-2.143087203071272154e-03,8.997738957405090332e-01
-4.371995591405119508e-01,-4.249013496831162695e-01,4.733281052892672758e-01,-6.137231306320567047e-05,2.178247870779829315e-02,5.247054675105964315e-03,9.052734375000000000e-01
-4.325113349142465369e-01,-4.536136576078605986e-01,5.497569586453348034e-01,-4.067866336351116940e-03,-1.312232598291355676e-02,6.168194787474983549e-04,9.932732582092285156e-01
-4.489002151448975853e-01,-4.315199513170572820e-01,5.196636855204799232e-01,5.435889431702571432e-03,-1.270757099980924718e-02,-3.856733176778017781e-03,9.603134393692016602e-01
-4.046673440984771553e-01,-4.550255252497852898e-01,2.283882610744033537e-01,-2.877930145374211351e-02,5.954931077630969127e-02,4.698239496273027768e-03,6.696000099182128906e-01
-2.953402183958044325e-01,-4.921120638349208432e-01,5.469950753904723184e-01,3.597402062920983939e-02,-1.999009290381179027e-02,-1.205969345449510628e-02,9.589125514030456543e-01
-4.372799332059256749e-01,-4.415072164312334180e-01,5.414278772782969984e-01,-1.880277388233838275e-04,-5.671341034499203723e-03,3.676480985144657239e-04,9.808777570724487305e-01
-4.408595314634586870e-01,-4.395272241043851058e-01,5.526228854496062493e-01,-9.184162554278110877e-04,-2.168798592080711817e-04,-1.197782320115794649e-03,9.928204417228698730e-01
-4.311132510332227330e-01,-4.349031447493511005e-01,4.553652742029525857e-01,-4.568312562325671858e-03,-4.326227535528671952e-02,5.936771595027558667e-04,8.915697932243347168e-01
-3.573431765402483862e-01,-4.231519099320495414e-01,5.284784399022133261e-01,-2.665377216199397992e-02,-1.343349489108890300e-03,-6.018827935248178846e-04,9.216524958610534668e-01
-3.589031273952841827e-01,-4.109988221516774898e-01,5.219861729900584502e-01,-2.033780243002830668e-02,2.559128012255823884e-03,1.945220338975261597e-03,9.087586998939514160e-01
-4.391317352566705412e-01,-4.420770215412562210e-01,5.535773794394442948e-01,-1.386739596214919129e-03,-1.216401733746895692e-03,-1.108118352692594047e-04,9.941901564598083496e-01
-3.493564037918172049e-01,-3.835466500002304158e-01,5.373860794994034240e-01,-1.293918496619158587e-01,2.085593027528352683e-02,-1.110737130768231148e-02,9.325775504112243652e-01
-2.645475569608271016e-01,-5.079588251065865201e-01,5.884852045196529158e-01,4.445574295973589440e-02,3.147812285966463536e-02,3.965814861727572777e-03,1.001748681068420410e+00
-4.152690670173863619e-01,-4.141944822962412842e-01,5.561736679157991414e-01,5.508857424836505201e-02,-9.114305305393472292e-03,-1.377795043100718542e-02,9.760026931762695312e-01
-4.315185897530930959e-01,-4.274388231113392944e-01,5.465968052029303026e-01,2.261212085609785177e-03,-4.814372463789774736e-03,-4.289115405281393109e-03,9.761536717414855957e-01
-4.269703474335507787e-01,-3.990853679563549639e-01,5.433192660457814016e-01,-1.218129018720634157e-02,-1.275958414551356390e-02,1.099596313728069645e-02,9.573292732238769531e-01
-3.648714484625247834e-01,-4.230045954066105618e-01,5.280527092593509941e-01,-3.766318530821434474e-02,-9.510618799952739229e-04,-4.734702861484535105e-03,9.257035255432128906e-01
-4.361361490743048130e-01,-4.448370430547260446e-01,5.292827656832658212e-01,4.699933004612757981e-03,2.673103956540650965e-03,-2.111746639719871543e-03,9.698507785797119141e-01
-4.411179340844298968e-01,-4.393076218296588786e-01,5.529511006776629545e-01,1.009044654529101231e-03,3.917530908394694115e-04,-1.089486821783756032e-03,9.931686520576477051e-01
-4.348171874365457379e-01,-4.132028908747558682e-01,5.441632155360209833e-01,-5.531394201486593276e-03,-2.697892599410112169e-03,-6.076969118059294753e-03,9.684700369834899902e-01
-4.389503291325191348e-01,-4.431142399389713660e-01,5.397429979772568887e-01,3.000034883099102472e-03,-2.162411577750270736e-03,4.849485143062081012e-03,9.808387756347656250e-01
-4.369380694854029801e-01,-4.188801539949265629e-01,5.453641822709842657e-01,7.865831401746691681e-03,-5.135212696426511188e-03,2.787989554133818090e-03,9.735468626022338867e-01
-3.054027909007707708e-01,-4.506985765568136681e-01,5.281965272708472048e-01,-6.186952063261834389e-02,-5.207846064846384689e-03,8.779120406363418241e-03,9.213649034500122070e-01
-2.298882283264782611e-01,-5.583968777595862409e-01,5.837746406056772974e-01,-9.081252602089200099e-02,-9.981785596987001463e-03,-5.723178113838362120e-03,1.030727148056030273e+00
-3.889847267292947941e-01,-4.687837671101945380e-01,5.475239978706418764e-01,-3.939518422246613902e-03,-2.247650344810636636e-02,-1.183634210870967290e-02,9.798629283905029297e-01
-3.073552408913243772e-01,-3.601507201093577248e-01,4.753782100792498522e-01,2.620493800821042107e-01,-4.290546905273509917e-03,5.945753213017637706e-02,9.345877766609191895e-01
-1.020317592207556356e-01,-6.661901206458628044e-01,5.916095281490115765e-01,6.793823804741505601e-02,4.094882452524609140e-02,-4.028887561968889225e-02,1.102035999298095703e+00
-3.188270552772357047e-01,-5.135339549792083957e-01,5.566214547809471558e-01,-3.221888590063547164e-02,-1.267136311175478397e-02,-1.548684268566992081e-02,9.894908666610717773e-01
-4.298994426999568907e-01,-4.402481024215582073e-01,5.375792541433702665e-01,1.373064435590150116e-03,-7.420208339385751459e-03,2.027561833935065741e-03,9.727884531021118164e-01
-3.806550764542127041e-01,-3.936394155794781802e-01,5.172794324853832171e-01,1.223861209254707878e-02,8.510524990613275650e-04,-5.258292544993221256e-04,9.047465920448303223e-01
-3.643573072508790589e-01,-5.144843699183646590e-01,5.307575473681753753e-01,-5.143296680928242243e-02,-4.434004274655420005e-03,9.929831597076214933e-03,9.830770492553710938e-01
-1.712839425853932562e-01,-5.201634251762342620e-01,3.380005371949400539e-01,-3.802049739394407907e-02,4.823115127542176861e-02,-3.982651868758264879e-02,7.581822872161865234e-01
-3.425746882029360174e-01,-5.018729884596806468e-01,4.649834279295953499e-01,-1.025999298446413077e-01,6.499594580449134795e-02,1.274142196335674090e-02,9.224475026130676270e-01
-1.310551192734516202e-01,-6.304513773992788117e-01,5.693375466244254834e-01,-8.974206112427302040e-03,-8.196172529574011212e-03,1.229687687457612158e-02,1.044325947761535645e+00
-1.503927263673439652e-01,-5.472442222038035320e-01,3.939211503985822205e-01,5.081994072866184708e-03,-7.509892561368088082e-02,-4.275423136352506787e-02,8.320224285125732422e-01
-3.616927304214236916e-01,-5.722790275166799168e-01,5.956661384821573257e-01,7.958117277695143585e-03,-4.341335656403098875e-02,-1.970838994891052631e-02,1.081433653831481934e+00
-4.389078171030070807e-01,-4.422427402017239384e-01,5.521892451162799809e-01,1.308065894223404925e-03,-2.219084791657920282e-03,-1.691443237784032909e-04,9.927787780761718750e-01
-4.394158804524037065e-01,-4.376347943628065562e-01,5.514962641458084347e-01,-7.963910966642782788e-04,-1.720615257826614217e-03,1.089330775587260330e-03,9.900300502777099609e-01
-2.674061049178670935e-01,-5.111336794223482194e-01,5.392379991445157561e-01,4.388627633722018417e-03,2.880746162866144183e-02,7.787610831177970566e-03,9.536291360855102539e-01
-3.533605229841954576e-01,-4.771804522652167146e-01,5.394302600095153277e-01,-3.977704331004059540e-03,1.768031412135851257e-02,6.173509836448575318e-04,9.612171649932861328e-01
-4.271309544476972198e-01,-4.337500527765915659e-01,4.845356203337179979e-01,4.407802937450746097e-03,7.512521103589147112e-03,9.179971830104697098e-03,9.152565598487854004e-01
-4.173021354314254139e-01,-4.295254127173009362e-01,4.494000271449544170e-01,6.899347986586943336e-03,-1.469132328851674571e-03,4.447443222497684916e-03,8.729974627494812012e-01
-3.682212267045974485e-01,-4.625731172730752627e-01,5.312506020827352238e-01,7.207606160459407128e-03,2.012265913865050968e-03,5.849450817163428899e-03,9.503101110458374023e-01
-3.013158712003653483e-01,-5.074939412744571277e-01,5.370740711253272348e-01,-5.611587061443270089e-03,2.336384041098227282e-02,1.872131012875194369e-03,9.591701030731201172e-01
-4.420772748676221608e-01,-4.371500303424568079e-01,5.503113758624387231e-01,-2.089943400891591113e-03,-2.929082343076599201e-03,-3.155154696098875881e-03,9.899689555168151855e-01
-4.373568811304701098e-01,-4.452307554708875292e-01,5.394038085250156822e-01,-1.913483053589884811e-03,3.487284378908191498e-03,-1.751614765907199992e-04,9.807455539703369141e-01
-7.649604710885936631e-01,-1.713256765662506953e-01,8.444462715364351446e-01,1.288578371280087453e-01,-3.247391324786527700e-02,-2.761367222071398064e-02,1.429145455360412598e+00
-4.391774573021659522e-01,-4.357146753752973445e-01,5.088767699910318187e-01,9.417753183307418785e-03,-4.041182933980893427e-03,4.665533597272992702e-03,9.465285539627075195e-01
-4.590153255732308257e-01,-3.856847408235007935e-01,5.767234525557718428e-01,-4.657795782967406872e-02,4.342196316941309558e-03,7.573188021222519630e-04,1.004364252090454102e+00
-4.853405835926979384e-01,-3.197391249745076824e-01,5.396964577983154321e-01,5.998926465375779837e-02,9.985070494979205596e-03,-1.780597377416930636e-04,9.588912725448608398e-01
-5.448018074064139293e-01,-1.531993801236461727e-01,4.953924137058933752e-01,1.124443850789161731e-01,-3.166062430089391921e-02,-3.334714458763338163e-02,9.339638352394104004e-01
-5.171220714602703383e-01,-2.430073820926833550e-01,5.526585152296425996e-01,5.017251291897445453e-02,5.563894643635171854e-03,1.598886456842797676e-02,9.668187499046325684e-01
-5.268941807554278212e-01,-2.796728772785628259e-01,5.566573437551558534e-01,1.574344589048923965e-02,-1.634924180992174646e-03,2.227372946587069871e-02,9.846650362014770508e-01
-5.918159341434798826e-01,-9.184741855061251403e-02,6.007294701444637619e-01,4.514423697318900586e-03,-4.603926644763488632e-03,-6.190206567522447967e-02,1.042841434478759766e+00
-2.872065908280940216e-01,-4.800525457414659969e-01,5.309826864532709578e-01,-3.290117295472150954e-02,-1.888920490195244647e-02,6.471424005426525475e-03,9.321219325065612793e-01
-4.384519264681548401e-01,-4.405161703338474344e-01,5.297293122678152777e-01,-1.170438497900547822e-03,-2.180577259308937119e-03,4.093145648315804110e-03,9.692504405975341797e-01
-3.514057075337859160e-01,-4.184929132648947392e-01,5.420972854939399843e-01,5.432810183077934479e-02,-2.898585558107318744e-02,-1.310121802890863371e-02,9.352438449859619141e-01
-5.362502056678920548e-01,-2.547128166860844201e-01,5.595013383959098752e-01,-2.213440293474407475e-02,-4.105198568623322046e-03,1.096721776289699864e-02,9.865702986717224121e-01
-4.900224943887082629e-01,-2.221950154439734648e-01,6.132669116066983284e-01,2.818947895409840143e-01,4.759529564930766593e-02,-1.257508801400995802e-02,1.113172173500061035e+00
-6.061221153488449698e-01,-2.061507369265783152e-01,6.835397732960402095e-01,1.151742284010689316e-01,-1.571455607114525047e-02,-3.335887953152373575e-02,1.162433505058288574e+00
-4.913497791373220291e-01,-4.186375562560832320e-01,9.091060322988058218e-01,3.372613506847974008e-01,-1.792088178365722900e-02,1.514683507906212576e-02,1.485806465148925781e+00
-4.317128997865137263e-01,-4.405031943830251540e-01,5.489392204840445322e-01,1.074287107811048333e-04,4.764986407039885005e-03,5.286346954561824477e-03,9.851538538932800293e-01
-4.107745271194730430e-01,-4.019995154974829732e-01,5.318120229245065778e-01,-3.812371723579495962e-03,-3.418737239406002652e-03,-2.610823248596158812e-03,9.382826685905456543e-01
-3.764847443510808134e-01,-4.754567190477085870e-01,5.572779766041895400e-01,-6.391430320954748050e-03,-3.000869529403485392e-02,8.408314414829424349e-03,9.885144829750061035e-01
-6.132416037187974345e-01,-1.148912141708828549e-01,6.009477968345383614e-01,1.572826047566450169e-02,-1.603314493554306797e-03,4.972550975192370493e-02,1.060983061790466309e+00
-5.472530912785740220e-01,-1.857163004658747840e-01,5.427354513263097369e-01,-1.129138584503996436e-02,-2.570989228640397500e-03,9.073941575976610563e-05,9.618291258811950684e-01
-2.985956393707461798e-01,-5.199805621560905644e-01,6.071400865460356844e-01,8.346618117829868178e-02,-1.782405090863824551e-02,-9.708230149707631693e-03,1.044997811317443848e+00
-5.583712317103899370e-01,-2.360560101364815866e-01,6.034583419394807802e-01,7.016264761522865087e-03,-2.638428974896037658e-04,-2.795251111947152922e-02,1.040072917938232422e+00
-5.589705424371131937e-01,-3.076621722841187956e-01,6.459857002844553442e-01,-7.485401804227341527e-02,7.157874196935665526e-03,-8.473750049970899326e-03,1.108800411224365234e+00
-3.476427645131999200e-01,-4.776496215889466379e-01,5.484525060259427542e-01,4.725377839599260131e-03,6.783717625563375278e-03,-5.743200384199845937e-03,9.678279757499694824e-01
-4.797619764942894216e-01,-2.928206901049037469e-01,5.484876649503056534e-01,-3.637967248436089606e-03,-9.285454407137906999e-03,-2.388160631384967508e-02,9.497533440589904785e-01
-5.620080909477421782e-01,-2.413370804176289408e-01,3.917162447185569274e-01,1.316799086459300577e-02,1.116388222855743510e-02,1.617266070028652511e-02,8.415859937667846680e-01
-4.944474091256849113e-01,-5.539067035887610402e-01,5.541165548573174782e-01,2.155529161730179166e-01,-6.493902641852962454e-02,-1.787164729186121320e-02,1.148201704025268555e+00
-3.679398239021416384e-01,-5.089342148473783300e-01,2.542732445811188846e-01,-5.904355814032651029e-02,4.182221916720409507e-03,8.827063303830644247e-02,7.270784378051757812e-01
-4.142554767099145274e-01,-3.928634405763753445e-01,5.296526192199214611e-01,5.454546614919539120e-03,5.276982766746364691e-03,-1.927133075255809541e-03,9.334944486618041992e-01
-4.090310462506760447e-01,-5.975166662650488458e-01,4.900378785722482311e-01,1.668673000628057290e-01,-4.980097491150989319e-02,-1.370820417477727066e-02,1.051119208335876465e+00
-4.352626360540016726e-01,-4.276376065847941610e-01,5.479763314963418397e-01,3.334853862550008125e-04,1.860647136848314360e-03,3.381929417444451066e-03,9.794716835021972656e-01
-4.474105479072564284e-01,-4.338929971871052227e-01,5.313388665925532495e-01,-1.564024085414992583e-03,-1.730902730285469992e-03,1.194325928524560395e-03,9.720717072486877441e-01
-4.474182884926616866e-01,-4.340180544722280764e-01,5.297367595556886632e-01,-1.259129063286931359e-03,5.733645719445464462e-04,2.554272025407634990e-03,9.705373644828796387e-01
-4.472958162378071201e-01,-3.407034519377147297e-01,5.337934800556528581e-01,-1.474256451718985658e-02,-1.082388805763830324e-03,-4.471832253235766795e-03,9.327577352523803711e-01
-4.487992668548417274e-01,-3.054904996942075512e-01,5.213757689563913722e-01,-1.427357346762026663e-02,-4.415196821955715868e-03,2.164793219021498433e-02,9.081948995590209961e-01
-4.671133593376071147e-01,-3.464307944305710651e-01,5.594441349737787617e-01,-5.560313999082153874e-02,8.876719588733643362e-03,9.642731116857022194e-03,9.768763780593872070e-01
-4.001661854505464411e-01,-3.973275137628650699e-01,5.253964727283673142e-01,-2.372275902074294680e-03,-3.581509361657952799e-03,4.123465702438647816e-03,9.242041707038879395e-01
-5.053940682258601935e-01,-2.795101455136941859e-01,5.377472650901748974e-01,2.121992440929256277e-02,7.339303044062123887e-03,2.796735716239481112e-02,9.525741338729858398e-01
-3.181761130085422051e-01,-4.829151705390657967e-01,5.394596659427508545e-01,-1.088623191095597180e-02,8.531061398998536840e-03,6.586982169628411918e-03,9.511404633522033691e-01
-3.607342971580824731e-01,-4.285420929570991633e-01,5.365505347446304363e-01,-2.170897641019901500e-02,-4.899237985922077349e-04,-5.516627979593544812e-04,9.337967634201049805e-01
-4.313335021804358682e-01,-4.379567470876635227e-01,5.021919456483899813e-01,-4.534396544555103267e-04,-4.545137952624125205e-02,2.332009996750443806e-02,9.410240054130554199e-01
-4.313238691538245351e-01,-3.574157996948799099e-01,5.302100424301560144e-01,-1.641411292130530789e-02,-1.377746709942815478e-02,1.386818606056339220e-02,9.278466701507568359e-01
-2.979682376934664201e-01,-4.899261029950786606e-01,6.067675489707736736e-01,-2.291951667330193732e-01,-7.510652602797017463e-02,1.524585722465990681e-02,1.097395777702331543e+00
-3.380083561034201156e-01,-4.452652127196367049e-01,5.238833549586424665e-01,-1.053955025153107197e-02,-2.684122018828218222e-03,-1.058128039759853242e-02,9.205954074859619141e-01
-3.729115531973736242e-01,-4.270487180856921694e-01,5.293290158523288325e-01,-3.291048871541383397e-02,-2.507364994542116404e-03,-1.012660330183891462e-02,9.324105381965637207e-01
-2.560419526688426095e-01,-5.064827170844434789e-01,5.503259272302762906e-01,-2.225048647190415452e-02,-1.258454244958064419e-02,-2.411633641213453260e-03,9.575358629226684570e-01
-4.083931033781223463e-01,-3.843552409882883825e-01,5.264384015237282277e-01,-8.082858761816752100e-03,-5.375160647895926500e-03,8.926182612248747747e-03,9.233298897743225098e-01
-3.739248872259813283e-01,-4.439481009896854569e-01,5.364002243095687961e-01,-8.505603408234281917e-03,5.602919749960920230e-03,6.678133862630679721e-03,9.475145936012268066e-01
-3.820044840060313751e-01,-4.239529778133085403e-01,5.324241044872677353e-01,-1.269912264194832975e-02,5.558016665236423064e-03,6.458003942846532106e-03,9.364826679229736328e-01
-1.334083939689943432e-01,-6.494380608183618619e-01,8.657336130138109098e-01,-1.060831077590742855e-01,-2.145732691411013533e-03,1.502823835421152748e-02,1.347074747085571289e+00
-1.890067794427354175e-01,-6.957431617711117289e-01,9.041123289150190256e-01,-1.807251644277032554e-01,-2.222432101403309240e-02,1.748518431964158834e-02,1.451205730438232422e+00
-4.267860539967966438e-01,-3.888351155710548235e-01,5.358454469236031414e-01,-1.668540706314879801e-02,4.019678238304662948e-03,4.519213446678081898e-03,9.447284340858459473e-01
-2.825837257696134919e-01,-5.098951067602646159e-01,5.503522246872608603e-01,-7.330180836548919922e-03,2.188290599750486801e-02,-5.686597822351164427e-03,9.677206873893737793e-01
-3.041275101065373798e-01,-4.630783178602838612e-01,5.285898053964511734e-01,-3.311938260431052106e-02,8.769075335617142457e-04,1.626977984837917317e-03,9.243081212043762207e-01
-9.105400279024028487e-02,-6.688144863016721731e-01,9.002820757487541847e-01,-1.285535433709477380e-03,-2.284357435171489870e-02,1.348033951311762568e-02,1.375290751457214355e+00
-7.096190941271305341e-01,-2.333403541728993336e-01,6.891158220908086829e-01,1.902460265323071276e-01,-4.981090512385574764e-02,-7.292458675410086466e-02,1.284169435501098633e+00
-4.126256190876633201e-01,-4.144932342258353941e-01,5.366630195792440050e-01,3.834508149562970768e-04,5.619339972161837247e-03,4.722600939977995155e-03,9.503090977668762207e-01
-4.457720853419665508e-01,-3.745627801983806848e-01,5.455864284063817182e-01,8.683747667036252962e-03,5.044971807041771610e-03,-7.001879891290809302e-03,9.579761028289794922e-01
-5.578409691554103711e-01,-3.692282347376573126e-01,7.131105714561266629e-01,2.657430909856112189e-01,-6.409313349901148149e-02,-1.099475657181976096e-01,1.292912364006042480e+00
-4.393406964283590455e-01,-4.421596147227455087e-01,5.525095752566002716e-01,-4.441389822385159551e-03,1.379301488205886403e-03,-1.579302893373945443e-03,9.932991862297058105e-01
-4.407165356209759577e-01,-4.419470428197168066e-01,5.459629447594157581e-01,-2.268610881263110994e-03,-1.238305803243014945e-03,2.331038838761937630e-03,9.873136878013610840e-01
-4.326189728270291579e-01,-4.324790059898098726e-01,5.480022956236715315e-01,-3.603142276394343544e-04,-9.023443569689652572e-04,-6.998641070268624359e-04,9.805535078048706055e-01
-3.061062897261849769e-01,-4.823225888225297076e-01,5.439671262770012783e-01,1.422716240771389543e-02,6.572238071915533636e-03,-2.543433143133990121e-04,9.509000182151794434e-01
-4.389190788803459253e-01,-4.390434421724267455e-01,5.458131155189321904e-01,-1.559384641253748049e-03,-4.153814941531857284e-03,2.505048494594465380e-03,9.848338961601257324e-01
-5.070486005521759876e-02,-6.614900250182832453e-01,7.027655495957643161e-01,3.332543316610304951e-02,8.081814470994594379e-02,9.971825959041199020e-03,1.193402528762817383e+00
-1.835516649709048598e-01,-7.839349740894461238e-01,6.898599698411590486e-01,8.845554903833270644e-02,-7.382196466653197231e-02,-7.448812719313841965e-03,1.299106836318969727e+00
-2.426839624549497754e-01,-5.850127506570452773e-01,6.094861908627601244e-01,5.867346888509512859e-02,2.743838392638376505e-02,-1.565264408835969224e-04,1.071303725242614746e+00
-3.203633176070476152e-01,-4.787330486451207290e-01,5.445220565151326353e-01,1.127426005272238671e-02,1.672302625070892779e-02,1.132957351629764083e-02,9.548218250274658203e-01
-4.394496585678439038e-01,-4.437271607515148042e-01,5.440636393735081011e-01,2.584774293404954165e-03,-8.945007866324830061e-04,-9.963435944039293005e-04,9.856718778610229492e-01
-4.437908250717362835e-01,-4.418007912198999576e-01,5.475813080297186053e-01,4.079039326545334625e-03,2.813408565768255477e-03,-2.478996549454120894e-03,9.904251098632812500e-01
-3.920026026995893087e-01,-4.367973301723788171e-01,5.419092483930675330e-01,3.786784974798030560e-03,1.272810480432341046e-02,9.753054594759622345e-03,9.575210809707641602e-01
-2.576844732766127022e-01,-4.011624585691451750e-01,6.442926586825936663e-01,2.536668368944473562e-01,-1.210101012275521248e-01,-6.606813049779571012e-02,1.101648092269897461e+00
-4.182257853295811567e-01,-3.928648626542730615e-01,5.522127596856442056e-01,3.659847409628122494e-02,1.142135145719531952e-02,2.054239737691975626e-02,9.609675407409667969e-01
-3.078924326561066072e-01,-4.084775904931895463e-01,5.463315651090056013e-01,1.684173416243892329e-01,3.741898905101314872e-04,-4.681245771069196884e-03,9.544095993041992188e-01
-4.402533790971087657e-01,-4.226168834080338832e-01,5.353413762162816392e-01,2.059882983560233291e-02,-1.583387568375751965e-03,6.345857859330807788e-03,9.676215052604675293e-01
-4.206205843824795676e-01,-3.875192578937531884e-01,5.311315528095323923e-01,1.715229902423028377e-02,3.240918628835238839e-03,3.691757630640130766e-03,9.361509084701538086e-01
-4.395506423730393686e-01,-4.257165069364421961e-01,5.387754981349620609e-01,-8.746582953499955349e-03,-9.693965253684485878e-04,1.023863937825954338e-03,9.716041088104248047e-01
-4.402892036676342435e-01,-4.386791652080319626e-01,5.210508068723692654e-01,8.046420785184797697e-03,1.008657659481740701e-02,-1.136524333635941138e-02,9.609975814819335938e-01
-4.137247915322581626e-01,-4.314742182744370491e-01,4.390877640351001920e-01,3.800275085966186954e-03,9.032814560500108253e-03,-2.645438478001483490e-02,8.632084727287292480e-01
-7.403895970797326198e-01,-2.486401011713805786e-01,3.622434552776693240e-01,-1.144261018386294460e-01,7.076306357383078949e-02,-1.017944868727486685e-01,1.000393152236938477e+00
-5.458445308918200567e-01,-3.756921106788606579e-01,6.079572964305086646e-01,-2.194887563659775678e-02,-1.693082741322445711e-02,-2.090860962654517499e-02,1.080511450767517090e+00
-4.793217335133218016e-01,-3.573574511090750749e-01,5.541496977560217418e-01,-5.829042564423930761e-03,-2.592041766213772774e-03,-1.126040336063879703e-02,9.784653186798095703e-01
-4.823590201531176569e-01,-2.895155536479752656e-01,5.293729668210092054e-01,4.801925660962360481e-02,7.197544876230232633e-03,-1.059152499600760772e-02,9.343948960304260254e-01
-4.111085384263901132e-01,-4.098728417299510318e-01,5.399295262477805668e-01,-2.777810859172036295e-02,-1.208425459927120124e-02,1.402437914946551983e-02,9.521778821945190430e-01
-4.400278056146194050e-01,-4.322290699295177618e-01,5.421167699562253750e-01,4.860598304198296372e-04,-6.895120594680986120e-03,-9.401022922010254801e-03,9.784772992134094238e-01
-4.332402905449160291e-01,-3.920180512365299963e-01,4.778613006686752707e-01,2.094552732801813200e-02,2.867322514086349111e-02,5.093044672266493211e-02,8.976703882217407227e-01
-4.439495001258098594e-01,-4.443531062100513629e-01,5.473596788629255805e-01,-6.514510072565138192e-03,-1.265682670279480969e-03,-1.219045414786829864e-03,9.915798902511596680e-01
-4.190410850979274238e-01,-3.921790850403509832e-01,5.269527651978285210e-01,2.238440384540628381e-02,-8.099155557756844426e-03,-1.342852346102076100e-02,9.340533018112182617e-01
-4.436388632905751694e-01,-4.244676375048500594e-01,5.469562976560465861e-01,2.716405090939979367e-03,-1.359881359251964225e-02,2.292878644058676330e-04,9.814440608024597168e-01
-4.376021238210321962e-01,-4.462483094986020582e-01,5.357010860027289212e-01,-6.714739272881733653e-03,-3.043211812531675282e-03,-1.859801923750142253e-03,9.777436852455139160e-01
-4.168138695560089091e-01,-4.962654195623037445e-01,5.547536548623245301e-01,5.691169598172095972e-02,-1.939976307017613529e-03,-4.443617740677657194e-04,1.018419027328491211e+00
-4.175017430778338312e-01,-4.034352779944980760e-01,3.458153662258588446e-01,-1.297562934291477538e-02,-1.056207951203614638e-02,-2.057718919643788252e-02,7.577755451202392578e-01
-4.407777208070156605e-01,-4.351250615845406733e-01,5.278068187010087620e-01,8.408238634690698009e-05,-4.145478403113520179e-03,9.293184055269426962e-04,9.657986760139465332e-01
-5.658434826098079906e-01,-2.299186382612249946e-01,6.049233685181805154e-01,8.096352451301336295e-02,-7.417860823757633365e-03,1.238697382352121510e-03,1.053606152534484863e+00
-3.950340255972245029e-01,-3.928512017564554926e-01,5.230864150792208234e-01,1.035751281763265357e-02,-3.898694424847201113e-03,-4.990773019168268099e-03,9.172720313072204590e-01
-4.141542690039294317e-01,-4.217345409153250291e-01,5.432669721359897341e-01,2.273392896069402827e-02,-3.591887505420806974e-03,2.209612375717658929e-03,9.620677232742309570e-01
-2.051070200107265595e-01,-6.019277582104421986e-01,6.546530936859981109e-01,1.616174987851139722e-01,-6.109980343425859550e-02,-4.957500621584275124e-02,1.155317306518554688e+00
-4.445925513770093707e-01,-3.651889693197021280e-01,4.267522103267740174e-01,7.576178153770535620e-03,-1.024790668998818181e-03,3.889245786612651606e-02,8.373004198074340820e-01
-3.715781454492332880e-01,-4.173354163882011525e-01,5.274699162580342993e-01,9.384932376153669320e-03,-2.815388705835992350e-03,1.727289550202608208e-03,9.229388236999511719e-01
-4.190571672205639642e-01,-3.693560978287886987e-01,5.379788796787418059e-01,2.026946055690541024e-02,-3.215275037111564767e-03,-1.748159879520689783e-03,9.338603615760803223e-01
-4.798796638961954075e-01,-3.899701298532223248e-01,4.804871102008764217e-01,-7.401512912057278681e-02,-9.888959903898044204e-03,2.355358712729017923e-02,9.286734461784362793e-01
-4.314620875133496347e-01,-4.475301169699410497e-01,5.177624408100314213e-01,-5.292085302196216159e-03,-3.841979242253065405e-03,-1.009041396448770618e-02,9.575861692428588867e-01
-4.839047271703114661e-01,-2.999314651790143671e-01,5.441631957746619896e-01,1.115017763147506218e-02,5.502343122936893664e-05,1.478085460687526614e-03,9.497433304786682129e-01
-4.369307628243642161e-01,-4.371769808662105405e-01,5.147719256618756845e-01,-5.472060521198056013e-03,4.019129174929717170e-03,-3.857517276273677090e-03,9.519219398498535156e-01
-4.383775828366954785e-01,-4.365567617644497966e-01,5.165008981540132327e-01,-6.377976890426874206e-03,-3.637231464004387314e-03,4.011676385314393717e-03,9.540794491767883301e-01
-2.891269381922454418e-01,-4.973501094553059443e-01,5.391330948600927542e-01,7.358004802778017606e-02,7.665837262923091283e-03,1.245968875714403151e-02,9.584981203079223633e-01
-4.418838206994873952e-01,-4.256974252507478851e-01,4.923280544838678496e-01,-6.478180640605896504e-03,-1.112120330642307059e-02,1.364344021568605165e-03,9.264959692955017090e-01
-4.034635584507726414e-01,-4.020430741191334811e-01,3.496502702995198941e-01,-6.502268823687204664e-03,-1.786257745924745705e-02,-3.535377271544422328e-02,7.556099295616149902e-01
-6.908814491141512804e-01,-3.062145758394017037e-01,5.392047027167078399e-01,1.789844929283979647e-01,-5.861704777798798505e-02,-3.965740411658775361e-02,1.139754176139831543e+00
-4.217143692957960877e-01,-4.368082544768217002e-01,5.485569220730474038e-01,-3.155116017528528452e-03,3.760532374587004234e-03,-5.758431120134608477e-03,9.779934287071228027e-01
-2.492989633817932482e-01,-4.724064275122861756e-01,5.245174655716302592e-01,7.468261127125272458e-02,2.181172756821809968e-03,3.961757779622774971e-03,9.154271483421325684e-01
-4.776390293064080028e-01,-2.666910759897541672e-01,5.193360404294661281e-01,8.550080825638568804e-02,-1.660479973294853862e-02,-1.234484647414622535e-02,9.226938486099243164e-01
-5.547254866237271154e-01,-2.876389661682149379e-01,6.564922328967665033e-01,2.749696176386501323e-01,3.972244423057302160e-02,5.949730906248112960e-02,1.207088232040405273e+00
-4.325915447867729191e-01,-4.447334799591768362e-01,5.206601086613614759e-01,-5.185039356715708848e-03,-2.233330371614950568e-03,-2.322756648515655713e-03,9.594385027885437012e-01
-4.299754290704133064e-01,-4.479716268754904696e-01,5.208808229764770870e-01,-5.572508906214664395e-03,-2.852533339795327270e-03,-1.515685182733368707e-03,9.600456953048706055e-01
-3.684291957839458953e-01,-4.205077938238269697e-01,5.255571310661713014e-01,4.143796206723129177e-02,-1.481117948441638922e-03,-2.375579393583673090e-03,9.239351153373718262e-01
-4.346566295816947090e-01,-4.221013784933864144e-01,4.611065507527927210e-01,-1.016281616338698436e-02,-3.970554985372415878e-03,-2.194610125334111629e-03,8.897608518600463867e-01
-4.056672617245985490e-01,-4.248825236724514398e-01,5.381797060711671632e-01,3.979523005562058194e-03,-6.525754090468743537e-03,-6.793370935085481233e-03,9.537642598152160645e-01
-4.143407859780219860e-01,-4.030316394822399673e-01,5.338502707677056369e-01,-4.390785532963345571e-04,-4.707654995918479114e-03,1.453776635646944742e-03,9.426262974739074707e-01
-4.373440964710054724e-01,-4.442067562848794338e-01,5.324101039129274238e-01,-5.838958919515699689e-03,-4.625374544219117492e-03,5.685655443575680056e-03,9.733390212059020996e-01
-4.316993133333120181e-01,-4.461733545527551414e-01,5.154322681162796238e-01,7.242095075263523972e-04,3.064728025467843074e-04,1.049662110686261016e-02,9.546250104904174805e-01
-3.306496507047964606e-01,-5.205563738083724967e-01,6.306572064755465723e-01,2.442705528407858040e-01,5.035837338841708810e-02,9.134379238101562881e-02,1.163777232170104980e+00
-4.327718035943021735e-01,-4.309926634209088614e-01,5.091387734854456726e-01,-2.448085568355099547e-03,-1.543706520743192215e-03,9.626433435883329642e-03,9.411833286285400391e-01
-4.215210405902394264e-01,-4.370142904754525937e-01,4.804477434028300298e-01,-6.884621633872559099e-03,-4.031649746852588451e-03,-3.536716306165672320e-03,9.099398851394653320e-01
-4.326573866996695217e-01,-4.425085316827822579e-01,5.412395043444092613e-01,3.426341146717558551e-05,1.982459177718116569e-02,1.636931406379229202e-03,9.794658422470092773e-01
-1.687074623863500100e-01,-5.259445324301217362e-01,5.807506030172039369e-01,-1.884427884544120357e-01,-2.342202559297557052e-02,1.542696944989397148e-02,1.032439708709716797e+00
-1.380672903690458031e-01,-8.109305528562856802e-01,6.406417839572510209e-01,-6.334184468749576302e-02,1.458482759584610600e-01,2.281735307006924063e-02,1.288608193397521973e+00
-3.936361145611507184e-01,-4.808947576427461401e-01,5.529532571638730021e-01,-6.004661579328142429e-03,1.354663351206467428e-02,3.539518582479144956e-03,9.934484958648681641e-01
-3.085051238687933628e-01,-4.948959376161053414e-01,4.820903158153188039e-01,5.819915842803894540e-03,-2.822059724964612326e-02,-1.277098869775894138e-02,9.000680446624755859e-01
-1.782426407406398905e-01,-7.461861484784559906e-01,8.570414916748737566e-01,-1.482443838890171173e-01,1.756124561335286813e-02,-1.106025887077896966e-02,1.431634545326232910e+00
-1.681677799726697398e-01,-7.399513376300911327e-01,8.680831623772548022e-01,1.320687602862171683e-01,5.478842851118213841e-02,2.280764558323949281e-02,1.433930277824401855e+00
-2.486669807713977609e-01,-5.214273929119476181e-01,5.485406661186964516e-01,4.597640317006850517e-03,3.284013513965354340e-03,2.948694315476108746e-03,9.630715250968933105e-01
-4.559003602293745794e-01,-4.812758796626206981e-01,4.804283694779092340e-01,4.256799200587483428e-02,7.863114847188953926e-02,7.468294292268440326e-02,9.704805612564086914e-01
-4.319488901672663972e-01,-4.233974281698975606e-01,4.614533528314740396e-01,7.449351051065848488e-03,4.619779561116924699e-03,3.644713453336344972e-03,8.893093466758728027e-01
-4.424943658098645094e-01,-4.061410869941448065e-01,5.420645715112892837e-01,-3.390995265643958600e-03,-8.654834279247352810e-03,-8.953225403334735821e-03,9.671533703804016113e-01
-4.227002840525624361e-01,-4.368627217427997755e-01,4.810270103407132680e-01,1.998686401669713501e-03,5.530832031575851591e-03,-2.054936851240190404e-02,9.116430878639221191e-01
-4.390674230261257804e-01,-4.437646461388032870e-01,5.409922876082409182e-01,2.682434042899845168e-03,-2.674048515403828607e-03,1.210758158233665466e-03,9.824408888816833496e-01
-3.954480925964803939e-01,-3.644278498878505967e-01,1.090658274025582131e-01,-8.814107094476095194e-02,1.110346658795410280e-01,6.068281537346498222e-02,5.578407049179077148e-01
-4.362684140389848086e-01,-4.404634000871573973e-01,5.480975824952474262e-01,6.801539470474275316e-04,1.465499336141910249e-04,2.904288942605994222e-03,9.864837527275085449e-01
-4.399645943037897577e-01,-4.362303024292986109e-01,5.487920147762401779e-01,7.340064356845349370e-04,-5.330135734332538955e-03,-2.960330021062133540e-03,9.869520664215087891e-01
-4.404706693524754746e-01,-4.435977525056889470e-01,5.465929002052839492e-01,3.517408348577040142e-03,-1.129137958813215348e-03,-1.255966056987030833e-03,9.886538982391357422e-01
-4.380977023980733853e-01,-4.430827263739428590e-01,5.382647323947546969e-01,1.514187654311169220e-03,-3.259802302147247338e-03,1.637998338716419380e-03,9.788883924484252930e-01
-4.377229933396624695e-01,-4.399274383259431653e-01,5.526288138035406750e-01,9.556985364687713667e-04,1.929474075959397659e-03,1.812171658050177724e-03,9.914678335189819336e-01
-3.932302014663464074e-01,-3.972544646625028042e-01,3.124874613054374750e-01,4.945350939790722072e-03,1.567464209447144707e-02,-1.272918306270414378e-02,7.086537480354309082e-01
-4.103865503281505789e-01,-4.130953145996600906e-01,3.916878585890642972e-01,7.150529077842278716e-03,2.837018220128331714e-02,2.572097381903173767e-03,8.050410747528076172e-01
-7.754897588822221577e-01,-2.173586482878396564e-01,6.019406519904623165e-01,-5.604812563655608287e-02,3.192730910647866710e-02,1.036673241805364520e-01,1.218507766723632812e+00
-4.188049535713505578e-01,-4.325476212063988357e-01,4.513148531791539853e-01,1.903134367010657444e-03,1.417531872527147841e-03,-3.948211449442037488e-03,8.771081566810607910e-01
-4.044374194458327243e-01,-4.169155932238687301e-01,3.887356595630361289e-01,6.060788609088365794e-03,1.421697530205339247e-02,-3.176204612884103717e-02,8.018227219581604004e-01
-5.044856030761981636e-01,-3.371519823684442918e-01,5.669055022745038697e-01,-5.030734718538431259e-03,7.383555431472448027e-03,-7.889013043211790324e-03,9.985118508338928223e-01
-4.618247122176175612e-01,-4.012140249935244318e-01,5.510969847066364835e-01,-2.059887463330839670e-03,7.400412071496062852e-03,9.936642294627996350e-03,9.842577576637268066e-01
-4.394071602638219831e-01,-4.331626995737801189e-01,5.379410650660133575e-01,-7.306866522109098762e-04,1.014821307005705532e-03,7.421533511045776133e-03,9.743282198905944824e-01
-4.371113396947396978e-01,-4.383072596637490048e-01,5.316119300461802366e-01,5.679771278606215047e-04,2.552092613404058612e-03,-1.224971485678672672e-03,9.693346619606018066e-01
-4.252989104535098153e-01,-4.369068566846667778e-01,4.775431615844334399e-01,7.609573413045203627e-03,-1.239241483818768683e-02,1.655082884767811874e-02,9.095025658607482910e-01
-4.328562937963132407e-01,-4.195973191872690022e-01,5.424485645189892624e-01,4.189715236281910810e-03,1.114405148855409722e-03,3.393984705655294677e-03,9.687903523445129395e-01
-4.323365012528073703e-01,-4.049301158089030350e-01,5.368314465674197677e-01,6.042279218602879948e-03,1.074933759209844956e-02,-3.410176094328847690e-03,9.560163617134094238e-01
-4.271364927140500756e-01,-3.968220908506152056e-01,5.427089423709797744e-01,1.483168409741339802e-02,3.829771539967650497e-03,1.145551598148371146e-02,9.556236267089843750e-01
-4.556586867833384846e-01,-3.979717657738148784e-01,5.638963072994279679e-01,1.340790679543307773e-01,1.347823494850812313e-02,-3.545271052475402335e-02,1.020907640457153320e+00
-8.029900303057051492e-01,-1.350594856643902442e-01,8.759770382704465952e-01,6.177721026656745468e-02,-1.481794293622483785e-02,3.411815198815165012e-02,1.469431281089782715e+00
-7.428537084620177033e-01,-1.824879961661469707e-01,8.464411083497387356e-01,-1.399169147310390937e-01,6.626149109600194820e-03,-3.324651836816073375e-02,1.418259263038635254e+00
-5.059190347729434212e-01,-2.800475493053951603e-01,5.450924620520473107e-01,6.123142885717694495e-02,5.111368500106004166e-03,2.384795908297052038e-03,9.641539454460144043e-01
-4.467243214507292115e-01,-3.240690194707008254e-01,5.269057851033742690e-01,3.168235164874352860e-02,8.353326552821926584e-03,8.977361823085139650e-03,9.203485250473022461e-01
-5.004287953880822704e-01,-2.570293041073026807e-01,5.292250579268846788e-01,3.064324150995339710e-02,-4.467287084541095819e-03,2.581000724274784639e-03,9.336541295051574707e-01
-4.283163294149174294e-01,-3.861738410899479557e-01,5.407709386062807821e-01,-3.136511748830463076e-02,1.052781417770829765e-02,-6.224884809823584900e-03,9.505085349082946777e-01
-5.168470082190086412e-01,-2.592975940773538657e-01,5.489940358086294880e-01,-3.023359903756126996e-02,3.475814348172743921e-03,-1.738992833375553951e-02,9.651568531990051270e-01
-4.590325736312333982e-01,-3.966868303001844787e-01,5.496453110969987677e-01,-3.125698406068241203e-03,-2.959700936388598175e-03,1.373889931507073225e-02,9.793125987052917480e-01
-4.666649009646421375e-01,-3.957139277427451640e-01,5.514191911732196916e-01,1.021373912752998516e-03,-6.457542237675117577e-03,1.859700205445377272e-02,9.851197600364685059e-01
-4.458796337968533585e-01,-3.950213602815599301e-01,5.285596072104730148e-01,-1.679848653758270194e-02,1.089970719569242387e-02,-7.053037638593684724e-03,9.507430195808410645e-01
-4.378849030493895400e-01,-4.281095070245842793e-01,5.112546956420068733e-01,-2.335200853176073142e-03,-1.412768818328172379e-03,8.707894699111972184e-03,9.444221258163452148e-01
-4.124376772918725842e-01,-4.134594814620227154e-01,5.372544608191336390e-01,-1.476105069187859213e-02,-1.679069432664948621e-03,-2.977280308922109365e-03,9.505658149719238281e-01
-4.309313255052492631e-01,-4.490972866939614283e-01,5.255604403491246357e-01,1.800505130140256848e-03,1.017368667867676142e-03,-1.610624884626592635e-03,9.657135605812072754e-01
-4.352101407907278396e-01,-4.413081172427787413e-01,5.260065275732669354e-01,-1.429328228618460643e-04,2.280069871147085044e-03,-1.889259712288644203e-03,9.642937779426574707e-01
-4.327283210948077996e-01,-4.474844056435661188e-01,5.286905115605371464e-01,-5.373725136127714040e-05,3.088016583924413556e-04,2.221229255551445802e-03,9.688889384269714355e-01
-3.366486652623945641e-01,-4.185991005790576369e-01,5.489190591347329340e-01,6.377460665331832756e-02,-7.481622982624716242e-03,-1.021298017175162678e-02,9.360561966896057129e-01
-4.571603474188207228e-01,-3.637637173201617169e-01,5.432331539906184448e-01,1.390430631230408012e-02,6.959438057196365782e-03,-6.338735408163334584e-03,9.575607180595397949e-01
-4.111925893720907998e-01,-3.303365396577471191e-01,7.970861321679536537e-01,2.371807144226025232e-01,3.305507811366730636e-02,-1.374071728123269637e-02,1.241526007652282715e+00
-5.061937208996615256e-01,-2.671509774806527515e-01,5.439931325702004328e-01,2.064098019889535826e-02,-2.540232898946312694e-03,-2.434324501360307733e-03,9.541014432907104492e-01
-4.791729967963546666e-01,-3.441050791692255584e-01,5.441974531369928592e-01,1.435275105342101107e-02,-1.233778779656504246e-02,1.719658114894775242e-02,9.639853239059448242e-01
-6.291666236989252869e-01,-5.366549875857104523e-02,6.167015772960782183e-01,2.261381796926163062e-02,2.115752800532730987e-02,5.894662411383097544e-02,1.086136102676391602e+00
-4.204898678716775251e-01,-4.062332902156676750e-01,5.339806283132116915e-01,2.913149610108873439e-02,-1.062238669953251800e-02,-8.786594894855467505e-03,9.490657448768615723e-01
-4.388344714607423369e-01,-3.969466922043480284e-01,5.387499302099055809e-01,5.161739178510519124e-03,-4.166270060567364188e-03,-4.047553649874465614e-03,9.574226737022399902e-01
-4.473098067607746975e-01,-3.720793865137702050e-01,5.430263253360052556e-01,1.064226907024000109e-04,-9.621044619354849128e-03,-1.097967467242182485e-03,9.550933241844177246e-01
-3.423410896262308878e-01,-4.962901528542979501e-01,5.530193279084356650e-01,3.520736772262254843e-02,1.470000105442291136e-02,-8.126050855878008336e-03,9.837558269500732422e-01
-4.348690080229357657e-01,-4.170470508556781697e-01,5.452999324629452804e-01,1.137224886659942563e-02,-2.054957327653978653e-03,4.896953074960829107e-03,9.716238379478454590e-01
-4.383180031333713256e-01,-4.329499470588906718e-01,5.465636307339410971e-01,-4.792633261810495295e-03,-1.878400073769844955e-03,3.290678964231744802e-03,9.822655916213989258e-01
-3.435969112536794157e-01,-4.679871150196310281e-01,5.442110597220012336e-01,7.815602819120040512e-03,-1.195306273543321821e-02,1.566078722105393320e-03,9.564150571823120117e-01
-4.137712514397429708e-01,-3.393176306772929807e-01,6.471773267579565836e-01,2.239173903726967840e-01,8.244302201455516732e-02,7.577033803527177813e-02,1.113640308380126953e+00
-3.587792153000168849e-01,-4.683880191882954236e-01,5.387891331011724905e-01,6.959828074341601820e-03,1.715131395899495079e-02,8.408218844860515170e-03,9.577391743659973145e-01
-3.396884259758826130e-01,-5.127806016923329713e-01,5.772627167805293169e-01,1.518254518386386032e-01,-5.240109507054414861e-02,-2.917697825689526819e-02,1.053290963172912598e+00
-4.422191362418179672e-01,-4.371542778132863627e-01,5.340934331754659814e-01,-3.248259733876844146e-03,1.715414745142128296e-03,4.914170217282869471e-03,9.738479852676391602e-01
-6.836626520789849115e-01,-3.380186479113933551e-01,4.274721910588280549e-01,1.533630931394136532e-01,5.902994667184137401e-02,-3.714480217076419899e-02,1.027222871780395508e+00
-4.360769172567687813e-01,-4.360805988364007124e-01,5.470159726957291024e-01,9.383895470797501415e-03,8.034195720343351426e-04,-5.015711547175135017e-03,9.832684397697448730e-01
-4.594315844201801724e-01,-4.085561326424097528e-01,5.112986948928425202e-01,1.641392189308585672e-02,-4.725284571473933881e-03,7.968007434332076422e-03,9.468817114830017090e-01
-4.248114823514169136e-01,-4.300747739759718802e-01,4.722170123806621600e-01,-3.223504016147386679e-03,-1.211701442211675535e-02,-1.633977627454448814e-02,9.003786444664001465e-01
-3.401759708913353886e-01,-4.266956581308237739e-01,5.492921660478812251e-01,1.192037046190413396e-01,-5.386693789210098005e-02,-1.988890307127127652e-02,9.633877277374267578e-01
-4.455618644244188076e-01,-4.453273818896201219e-01,5.282666628415304544e-01,-2.726843010507672051e-03,5.371849038572676892e-03,-3.954564558429778803e-02,9.761732220649719238e-01
-4.407616057338916704e-01,-4.105079931009760208e-01,5.391560249307100205e-01,8.033967234059719020e-03,-1.768052454399428666e-03,7.025863623258908055e-04,9.652524590492248535e-01
-4.021234132290722463e-01,-4.117383824171346185e-01,3.768021530222007698e-01,-1.787816948936190925e-03,-5.894079650927374486e-03,4.540510472082582433e-03,7.838893532752990723e-01
-4.419095265112233384e-01,-4.314645359594334595e-01,5.157434711540463956e-01,-2.733602315757042382e-03,6.550127445199890180e-03,-5.027276766455146539e-03,9.525926113128662109e-01
-4.430262531463112219e-01,-4.331896923558377632e-01,5.083253718919942266e-01,-8.561427707794624919e-03,-1.868174014276332423e-02,-8.594327082016744654e-03,9.472576975822448730e-01
-4.321478350489182385e-01,-4.283987711846248825e-01,4.741206773238040295e-01,-7.193468575294350957e-03,-1.112445078313721407e-02,-5.690935379444878560e-03,9.047445058822631836e-01
-4.347962350489563699e-01,-4.345092216525814344e-01,5.377294225917421677e-01,-1.048005145001933494e-03,1.056924806516738044e-03,3.561104164395415732e-04,9.723858237266540527e-01
-5.912242763779793631e-01,-4.865827388426871014e-01,2.463435130787242633e-01,3.851771480691156685e-02,-4.824782655716983865e-02,-1.023944743689710890e-01,8.171374201774597168e-01
-4.390419858339151271e-01,-4.431008030426771827e-01,5.381597200245284984e-01,4.739988465640639428e-03,2.839979424313026409e-03,1.630497105722893830e-03,9.792882800102233887e-01
-4.423772026421227688e-01,-4.391127700175179727e-01,5.469925224743044101e-01,1.055597700842151373e-03,-2.663385797722901509e-03,2.170228323479118666e-03,9.877611994743347168e-01
-4.393682663092972063e-01,-4.480281384079485840e-01,5.391827946119345238e-01,4.186735723005397301e-05,3.447156414997502340e-04,-5.750945775513097678e-03,9.829602837562561035e-01
-4.439263524539878714e-01,-4.388405310556154904e-01,5.461574604763725915e-01,-2.218137279858064907e-03,-3.631261563265294318e-04,-1.240934650801629453e-04,9.875584244728088379e-01
-4.460813113626128090e-01,-4.378987740568756615e-01,5.431096384827115431e-01,-1.449832663214040834e-03,4.986569721641793355e-04,3.197817384325395661e-03,9.851443171501159668e-01
-4.468008979166225303e-01,-4.374682307845986773e-01,5.360864555488047412e-01,-4.782741893259305141e-03,-8.510682700374359519e-03,-1.741851133530957114e-03,9.784051775932312012e-01
-4.439869918797245685e-01,-4.349514917473465969e-01,5.215422763614885326e-01,-5.944886367908196016e-03,2.663351177813440187e-03,-7.512828580830828787e-03,9.611976742744445801e-01
-4.405557544120239366e-01,-4.385313538582981674e-01,5.367105022022247152e-01,-7.117322309925184836e-04,2.562106538183491020e-03,2.139015370271918348e-03,9.762735366821289062e-01
-4.260758167384668949e-01,-4.346269677500949613e-01,5.451645796581394698e-01,8.258453769847836322e-04,5.105913740493518184e-03,3.502769219259628010e-03,9.756040573120117188e-01
-4.185925120768762553e-01,-4.408444998877856236e-01,5.420869399660719345e-01,3.018900761022097479e-03,7.193230295563884241e-03,4.576206704057675205e-03,9.721227288246154785e-01
-4.199985233348765279e-01,-4.026375446856601537e-01,3.639128738606269842e-01,-1.261699760791238625e-03,-1.084812768128181129e-02,-1.627462699826537351e-02,7.761194705963134766e-01
-4.367884431042666771e-01,-4.285911281599871225e-01,4.950034005631601675e-01,1.442277799845060118e-02,-6.792453320884464562e-04,-1.120364863273007848e-02,9.282602071762084961e-01
-5.022873136432749464e-01,-5.793819362588756849e-01,2.716586393387550036e-01,1.634686777908488705e-03,3.968301014668753485e-02,4.369990499057650052e-02,8.216229677200317383e-01
-6.676888197006518588e-01,-4.497465031596115659e-01,3.167231476367434739e-01,5.734300668401867002e-02,1.176636930618239242e-02,-2.235701683422802039e-02,9.021087884902954102e-01
-4.289314509267494469e-01,-3.952749181651251664e-01,2.685624861640989458e-01,-1.579461942211467240e-02,5.007291353959889002e-02,-5.529214579276515995e-02,6.939721107482910156e-01
-4.102549171618620760e-01,-4.215314671095461430e-01,3.980442577510594493e-01,3.801361517483656683e-03,3.655771526210407213e-03,-4.052405916601388436e-02,8.170676827430725098e-01
-6.523543372842833810e-01,-3.168432925529690580e-01,4.045224666275772929e-01,-4.284373101770062170e-02,-2.270270119867296224e-02,-2.198035540231482472e-03,9.391644597053527832e-01
-4.148421369402691128e-01,-4.139813056980614636e-01,4.024138907984441405e-01,-6.534172444302136298e-03,-4.732305745682791574e-03,2.424578877911568939e-02,8.180241584777832031e-01
-3.813266361971386909e-01,-3.880896486189308048e-01,2.925599776546500275e-01,-2.089634836377506685e-03,-1.119338312498078516e-03,-5.665739781134188297e-04,6.773065924644470215e-01
-4.982971978991737050e-01,-4.541512676136005289e-01,4.614851638333665740e-01,3.301032520605356319e-02,9.437800187077901443e-03,-4.649229303176799499e-02,9.438121914863586426e-01
-4.389031331172137396e-01,-4.376917371404855372e-01,5.257787780470577488e-01,-5.149938825116814022e-03,-8.243190435092303398e-03,-6.549193119044281405e-03,9.642904996871948242e-01
-4.578366462749725585e-01,-3.650512281810071036e-01,5.464831237258748198e-01,9.753680300011070489e-03,2.410954842384586874e-03,-9.148538381909763692e-03,9.615794420242309570e-01
-4.252504043753755902e-01,-4.234559242925249323e-01,5.423341288862325582e-01,4.494974259710992834e-03,1.073973422867940302e-03,-4.503730894877424826e-03,9.667531847953796387e-01
-4.454494148584142166e-01,-3.751656401702828103e-01,5.302676008338560454e-01,3.451994005892508599e-02,5.848778806805348014e-03,-8.594375420623800998e-03,9.446086883544921875e-01
-5.507428273349769254e-01,-1.810170964052934539e-01,5.543626395750124169e-01,8.308234173626104224e-02,-6.219499698150724593e-03,2.743140139210069328e-02,9.861292243003845215e-01
-4.141996975413705928e-01,-4.169682291750567704e-01,5.370007762926128914e-01,1.403990893812909722e-02,-2.809482213262941459e-03,5.341907783108294262e-03,9.529554247856140137e-01
-4.398469060376167250e-01,-4.400805653175072774e-01,5.477106787944763244e-01,-1.274226138109792530e-03,-1.275568826227861067e-04,-1.144554503739118444e-03,9.876789450645446777e-01
-4.088145533612184135e-01,-4.500881001453749253e-01,5.481071861161210812e-01,-1.047630535731178085e-03,-7.728545998164344441e-03,4.769168535904380613e-03,9.783399105072021484e-01
-3.820359538601440508e-01,-4.522892084149520153e-01,5.390045427903610298e-01,4.392795728385282331e-03,9.056557813322749229e-03,1.070865395756467192e-02,9.584389328956604004e-01
-4.422476392190453631e-01,-4.383710298731321453e-01,5.346665892260343833e-01,-4.455031960442687108e-03,-1.817709280732409793e-03,2.152612863544621589e-03,9.750244617462158203e-01
-4.350141169152096365e-01,-4.381796535918381919e-01,5.211311118940239462e-01,9.476746340053338220e-04,8.262171482811932807e-04,-1.430818559034581364e-03,9.577376246452331543e-01
-3.890363803260882269e-01,-4.889918259806738110e-01,5.505921443022940842e-01,1.302988228788721625e-03,-3.261538824248552682e-02,-2.088470702184450078e-02,9.956499338150024414e-01
-4.832332559278403883e-01,-3.641887567421627780e-01,5.841258760415777296e-01,-1.526625324004700079e-01,4.477222721368015988e-03,-1.814438493665233507e-02,1.047534823417663574e+00
-3.914287878283569388e-01,-4.619547579780282076e-01,5.577506882745422168e-01,-4.142390956207721991e-02,2.077523135854707215e-02,-1.614008761060240979e-02,9.899907112121582031e-01
-4.313145520773190023e-01,-4.232301750208590785e-01,4.654208190503805742e-01,6.032358605044451857e-03,-5.936766712196729114e-03,2.474168578178094057e-03,8.928512930870056152e-01
-6.456563397707233420e-01,-3.820192566085339747e-01,4.811413136559825610e-01,-1.978467425952070424e-01,7.449175719524514343e-03,5.082834182816414748e-02,1.080490112304687500e+00
-4.187838548802280125e-01,-4.212102106925105227e-01,4.361250945306965887e-01,7.779888425187390932e-03,3.774616482288236860e-03,-3.090521293077496453e-03,8.562724590301513672e-01
-4.375901142900366358e-01,-4.406594983288219525e-01,5.280341213503992881e-01,6.163096087777157790e-03,-5.206576171591128545e-03,1.006021553131347321e-03,9.672650694847106934e-01
-4.601747785045246508e-01,-4.211853515425358907e-01,5.433190366680475947e-01,5.604964096380745005e-04,5.805584146784400308e-04,1.160990533437087323e-02,9.847846031188964844e-01
-4.386513065937224232e-01,-4.365287658394823578e-01,5.173871406676989748e-01,7.143673970323741185e-03,-7.003044508867278112e-03,-3.120973036907089340e-03,9.551514387130737305e-01
-4.251924258611947671e-01,-3.153885743781504325e-01,6.147825873853135503e-01,-2.299609404542859725e-01,-9.118319262706359174e-02,1.477136270628171544e-01,1.108358621597290039e+00
-4.453159601810910417e-01,-4.314378147493389548e-01,5.202110357486243730e-01,-3.964241101558936900e-03,-1.062428387563061315e-02,1.219097120051262483e-03,9.588667750358581543e-01
-4.454029533475351577e-01,-4.376727787814723714e-01,5.439993624891905633e-01,-2.242011756326163507e-03,-1.266011760832361135e-03,-7.280859245119202048e-04,9.855708479881286621e-01
-4.410592279451518438e-01,-4.377366636041529757e-01,5.412354972165078770e-01,6.015116963234777136e-04,6.350118668514560631e-04,-1.570471043232154768e-03,9.806426167488098145e-01
-4.447744363596954909e-01,-4.333107048813698570e-01,5.173935364486600408e-01,-2.636393449176090316e-03,-9.588871280018940874e-03,-4.845660722384900927e-03,9.566795229911804199e-01
-4.366449653696160560e-01,-4.392758320970828745e-01,5.448526844491837773e-01,-3.685901976434045922e-04,-4.325826294184144556e-03,4.556798323683901655e-03,9.828761816024780273e-01
-4.464195294021626181e-01,-4.368787513960655788e-01,5.333466785483418349e-01,-4.630420224279309209e-03,-9.514772614868736988e-03,-5.140755877072045524e-03,9.752437472343444824e-01
-4.423319306602747081e-01,-4.389889384264937799e-01,5.354195623700965800e-01,4.343725378297388960e-04,9.535400489729492935e-04,-1.873018270691020979e-03,9.760913848876953125e-01
-3.842244731565158666e-01,-3.269337745067141254e-01,1.893318609647512973e-01,-1.110871771838478073e-01,-1.671175135085420371e-02,-1.524827085923331424e-02,5.813313126564025879e-01
-7.476128545294389305e-01,-1.144373244795902633e-01,6.412044387947387625e-01,-9.691363573399096321e-02,-7.850511220927557099e-02,9.516177383183352378e-02,1.234582066535949707e+00
-2.912048645080391740e-01,-4.029561707323164321e-01,9.329181152679383304e-02,-3.764939997515723280e-02,1.865373894272611896e-02,1.309627160664622765e-02,4.572798907756805420e-01
-4.323752891472235071e-01,-4.350255644314076076e-01,5.121650456510276062e-01,-1.293022826424379676e-03,3.198905612175035641e-03,4.711583870140525696e-03,9.459223151206970215e-01
-6.362926300578906069e-01,-6.099051448979368739e-02,4.798720131864288030e-01,-2.358505235373301728e-02,-6.643287726224461100e-04,3.955787662850548947e-02,9.700663685798645020e-01
-4.392618117244159182e-01,-4.304526729641862115e-01,5.080099832500210022e-01,-2.600109303923463407e-03,1.327747735367415614e-03,1.212855882020460151e-02,9.431456327438354492e-01
-6.379397003676339217e-01,-1.018324836529205246e-01,7.115740329223015914e-01,-2.180413012237172616e-03,-2.393350130251165053e-02,1.158179023752936299e-01,1.194607973098754883e+00
-4.333036502918054533e-01,-4.400403827999774808e-01,5.355922660852030504e-01,-7.045650268906312021e-04,-1.374133346831091923e-02,6.660675695500658600e-04,9.725745320320129395e-01
-4.115310566656041891e-01,-3.933276689347662836e-01,3.685493254654500506e-01,6.001943737939505544e-03,3.064687969946914853e-03,-1.114660968399494231e-03,7.712305784225463867e-01
-4.456446086977025045e-01,-4.270570152093635108e-01,5.034672881544915990e-01,1.392246596237688757e-03,2.877185469667870987e-03,-3.766001601849494986e-05,9.399722814559936523e-01
-3.680848669596198941e-01,-4.838357467375616894e-01,5.133009703595248219e-01,-3.140719145685029728e-03,-1.468733683817984026e-02,1.785335831945387627e-02,9.454593658447265625e-01
-4.336527358290965806e-01,-4.319284664943646712e-01,4.870986237165462196e-01,8.720190428793244894e-03,2.780857842081207575e-03,1.364848317265785274e-02,9.203307032585144043e-01
-4.326772502140223686e-01,-4.315061200706341027e-01,5.426035888465805535e-01,-3.907136678016044640e-03,5.950702854425993053e-03,-9.441270203024423532e-04,9.747751355171203613e-01
-3.984603037133611636e-01,-4.701197408559721902e-01,5.659255765005450911e-01,-3.764630806700464127e-02,-1.517195859151161327e-02,-1.107640696005214587e-02,1.004785060882568359e+00
-4.310087579403574232e-01,-4.381311049630314813e-01,5.222514641778280842e-01,-1.962295998495367302e-03,-1.080194108018531435e-03,3.432236965351463664e-03,9.568676352500915527e-01
-4.680565247162329356e-01,-3.313577248862303315e-01,5.523133157331615584e-01,5.421770357287562792e-02,9.594493113430676689e-04,3.634253153155651188e-04,9.639396667480468750e-01
-3.633281701104429939e-01,-4.647852189902198505e-01,5.378455463606128806e-01,4.066246328120097855e-03,2.023565485240902059e-02,1.098484816369729548e-02,9.568061828613281250e-01
-2.867316682814419204e-01,-4.940022462512791979e-01,5.377401551649582112e-01,-3.462429113940120040e-02,-1.888945446856534274e-02,-9.783392134194976442e-03,9.479228258132934570e-01
-2.578403309697916423e-01,-4.988269887110302059e-01,5.454350250496793340e-01,-2.107619470552407961e-02,1.236880047338630509e-02,3.035063482029521937e-03,9.480103850364685059e-01
-4.130176051511954549e-01,-4.308497304366571967e-01,4.190971294856471463e-01,-1.547053817191096803e-04,-6.796911124557955194e-03,-5.107250510774180574e-02,8.458930850028991699e-01
-2.209284704122161380e-01,-5.532854890492685529e-01,6.094027632227813074e-01,-3.573459609973080042e-02,-2.057405688467155505e-02,-1.058534259360108254e-02,1.039862751960754395e+00
-1.313056789678448966e-01,-7.979479025583884333e-01,8.305167122815880765e-01,-3.968333407417927450e-02,-1.130190965724288121e-01,-7.798270101827729783e-03,1.433154702186584473e+00
-2.559869013247714209e-01,-5.198900480246366751e-01,5.353124361848100587e-01,-7.379984355465026361e-03,-1.009647244778485997e-02,1.850359704777014731e-03,9.513702392578125000e-01
-3.232417563606517774e-01,-4.852612152401538648e-01,5.439711853448043755e-01,1.469446949186102233e-03,-1.327299101017229838e-02,-3.374555762915727557e-03,9.588446617126464844e-01
-1.711681732314308535e-01,-7.202712428561821589e-01,6.732292775915544869e-01,-1.732948312314121914e-02,-8.121764807478890069e-02,-1.686045061916850284e-03,1.224287867546081543e+00
-4.585217373585978029e-01,-4.334169326593064753e-01,5.222645605763528431e-01,9.033726316280354940e-03,-8.512437057501645241e-03,-2.748809942868221667e-02,9.698858261108398438e-01
-3.626396924816838729e-01,-4.192185945762311183e-01,4.257456793955729513e-01,1.267942595190323651e-01,-1.042721228541919898e-01,-1.639988565097945036e-02,8.666105866432189941e-01
-4.262568879411908207e-01,-3.954868255763505647e-01,5.416759888643671861e-01,2.536240368372296577e-02,1.163078795308454365e-02,1.172836539021981407e-02,9.543614387512207031e-01
-6.122120499761036783e-01,-2.197826375038225422e-01,5.395224463131824688e-01,2.521856150665719998e-01,-4.139947507820400385e-02,-4.682515774827894495e-03,1.106579899787902832e+00
-4.364754927487536351e-01,-4.340477618255060288e-01,5.261572757005553713e-01,1.240528675630505392e-03,-1.148709345771363292e-02,-6.868828204933032783e-03,9.617030620574951172e-01
-4.479312795219088095e-01,-4.176627952060400495e-01,5.255508700301324554e-01,-4.527457971416388657e-03,8.900513223678610877e-03,-1.773992499496878511e-02,9.593545198440551758e-01
-4.114701244439833983e-01,-4.122065927713429723e-01,3.981424520152619939e-01,-8.711182930245501763e-03,5.901646887058576525e-04,-1.720241612958512550e-02,8.106699585914611816e-01
-4.450292517213553789e-01,-2.962489263300490117e-01,5.026150540891460849e-01,2.510245966348742530e-01,-1.977327121594835146e-02,2.770294703391761471e-03,9.845864772796630859e-01
-4.586584053077774614e-01,-3.414057929569469518e-01,5.330026002452097345e-01,1.650337643440846422e-02,9.972689511045533875e-03,5.082513762013081415e-03,9.391793608665466309e-01
-4.583935953711368860e-01,-3.568389057901787953e-01,5.340170497918795833e-01,-1.877927733078706488e-02,-1.488539981659183289e-02,1.774911627094571953e-02,9.471409916877746582e-01
-4.244082343289760084e-01,-4.270038545927263840e-01,5.464422496867131773e-01,-3.263831532724179030e-03,-7.283686481480563038e-03,-1.281147718750929058e-03,9.722517132759094238e-01
-4.449410307109576412e-01,-4.263423180109046084e-01,5.418156924256330997e-01,6.581910406641928307e-03,2.487674029064219829e-03,-5.409581124351906488e-03,9.777109026908874512e-01
-4.549367955836376431e-01,-3.527408979086260610e-01,5.591136000198301259e-01,-6.358357759130089937e-02,-2.206942754580112215e-02,2.562731106121346469e-02,9.750233292579650879e-01
-4.368336980420030602e-01,-4.379828595752855991e-01,5.312232910625470650e-01,2.743067448258029294e-03,-4.768542697580454084e-03,-2.076424268818040202e-03,9.686856269836425781e-01
-6.011049871272821088e-01,-3.642724881780280421e-01,5.912699760498673074e-01,-2.510625814016707036e-01,7.924755018448220723e-02,-1.145470520592032360e-01,1.201147556304931641e+00
-5.395319895400936261e-01,-4.083048523181219136e-01,5.698471697167083461e-01,4.911065645923668593e-02,-1.138385438327671646e-02,2.378584282009240606e-03,1.053566932678222656e+00
-4.376810633898092218e-01,-4.435982961563534888e-01,5.371603375968410088e-01,-7.405030182081815933e-04,-1.697632126267129265e-03,-3.961211821716053780e-03,9.778428077697753906e-01
-4.051424956144393796e-01,-4.099983356679945956e-01,3.452684392291753834e-01,-6.672111640885379155e-03,3.057628821363583219e-03,7.139899067057789428e-02,7.630459070205688477e-01
-4.758897409999079398e-01,-3.600062883806371961e-01,5.699111399912126785e-01,5.223726703249367831e-02,-7.657732974084775941e-04,-2.972597641903195614e-02,9.983868598937988281e-01
-4.948975575525218495e-01,-3.674525819648815639e-01,5.561704811077687882e-01,6.237225486158159624e-03,3.845977809922533977e-03,1.851124756586198031e-02,9.940935373306274414e-01
-4.349814339615399872e-01,-4.430908766674891419e-01,5.246702945964799580e-01,-5.943858158096210383e-03,-3.264375875014656134e-03,1.679102461113800814e-03,9.638080000877380371e-01
-3.978829985507100764e-01,-4.474618127674114820e-01,5.382473059431660545e-01,9.733686269669227994e-03,1.268720936485601483e-02,-4.429649842707036010e-03,9.623077511787414551e-01
-3.780466644029353285e-01,-3.948037270782175923e-01,5.260952355949403136e-01,6.218124765983327334e-02,-2.010436515278232891e-05,-3.910007309290096638e-04,9.189690351486206055e-01
-2.830107506638099846e-01,-5.619770343873415896e-01,5.996763934191807754e-01,2.259421680159454660e-01,1.139696427093540021e-01,1.392811160352287053e-02,1.138374924659729004e+00
-1.763163916782765073e-01,-6.908977136262129948e-01,6.242045039123652606e-01,4.806226051726413678e-02,1.100054516572177288e-01,5.833290016614987861e-02,1.170898199081420898e+00
-4.324288332773692511e-01,-4.190547735204667168e-01,4.489831862348312441e-01,-6.505076197733992635e-03,2.919689219004267464e-03,6.009089080800007754e-03,8.749507665634155273e-01
-3.993517388207618590e-01,-4.050268695301127431e-01,5.271096586441527121e-01,2.266284248682830758e-03,1.567248182459513028e-03,-9.693223548053358282e-04,9.293257594108581543e-01
-2.838667948980456712e-01,-4.006532910204643194e-01,5.496978024029979260e-01,-2.487038878361048089e-01,1.009175890066019710e-01,-3.415174582760139438e-02,1.012635707855224609e+00
-4.432601630994863484e-01,-4.380796766742239279e-01,5.373881007401645205e-01,4.411376015719608613e-03,-2.152110709856824410e-03,-2.380197254061981217e-03,9.781139492988586426e-01
-3.917984501269520803e-01,-4.658474616647261812e-01,5.463132795015773757e-01,-2.538843211841197191e-03,1.530093963621196110e-02,-1.207788050491373944e-04,9.776118397712707520e-01
-4.110378233084306943e-01,-4.314822628350863387e-01,5.309165250249506807e-01,1.610999031813477311e-02,-4.786331129310798620e-03,2.121834187569786052e-03,9.527930021286010742e-01
-4.352742921833149814e-01,-4.364020721154101556e-01,5.510118348896969609e-01,-9.155041902776549960e-04,5.931513364778599057e-03,2.095584457212425200e-03,9.869119524955749512e-01
-4.210688188956693279e-01,-3.826689764375663105e-01,5.401771970681009671e-01,3.561297962322423905e-02,2.513378133014805473e-03,1.347025238583795690e-03,9.446618556976318359e-01
-3.647670053678651603e-01,-4.451920982758250100e-01,5.575072460290881882e-01,8.178044732499700764e-02,3.693444298146369986e-02,1.243485116842128757e-02,9.776770472526550293e-01
-4.328133032452770035e-01,-4.350918573771520026e-01,5.471450022755918186e-01,2.320480565268605994e-03,8.372124879679993664e-03,7.010919636500445237e-03,9.812901020050048828e-01
-3.730900450097821008e-01,-4.144889184643831825e-01,5.250605033143980194e-01,6.908276237954529865e-03,-1.514464382919944322e-03,-2.333672370893459351e-03,9.196396470069885254e-01
-5.011887254928721891e-01,-2.815371625778858022e-01,5.539460330701074797e-01,2.441714151142096792e-02,-1.268731671346122469e-02,-3.824196841868144833e-03,9.654582142829895020e-01
-4.266599110597233957e-01,-3.959137680698485706e-01,5.354901370070589417e-01,6.476081404873282321e-03,2.570006154437666328e-03,-1.461231162910950907e-03,9.472315907478332520e-01
-4.306315424456460539e-01,-4.383506023031106258e-01,5.482351960672018354e-01,1.065080125843189751e-03,1.350239736145945673e-03,5.399156321986831302e-04,9.827539920806884766e-01
-4.046960538034411470e-01,-3.971687150865833571e-01,5.278577433897974069e-01,4.913593257813679430e-04,-1.318925690242589357e-04,-1.141205171873928672e-03,9.288155436515808105e-01
-3.995348772739047982e-01,-3.945041039876830413e-01,5.264837334524183898e-01,8.820657761930836976e-03,4.278989756313166144e-03,4.631246899177192226e-03,9.237044453620910645e-01
-4.204995646271907361e-01,-4.100306050562599891e-01,5.383752428170078819e-01,-3.634804786747487630e-03,1.786058967575466453e-03,-4.560047061703730899e-03,9.537419080734252930e-01
-4.374632168109348629e-01,-4.372948686570800048e-01,5.232887518755026113e-01,3.933683982347632377e-03,-4.776484549136620836e-03,7.898456100670964500e-03,9.608249664306640625e-01
-4.374506988720509582e-01,-4.297600171504704081e-01,5.380008710670114436e-01,-3.226216957619958657e-03,7.214533842548600737e-04,-1.406833690377879559e-03,9.716489911079406738e-01
-4.542204187143584759e-01,-4.315220407842004224e-01,5.523801263038974341e-01,-6.593998415971636697e-03,-1.430470381499043169e-03,7.160299073599321260e-03,9.955913424491882324e-01
-5.565244751288054292e-01,-3.994739693212292497e-01,2.654020641537880865e-01,-1.520164979500856217e-01,-1.592371557431005169e-01,8.519640642851940282e-02,8.592531085014343262e-01
-4.118779089125601534e-01,-3.854380843612978946e-01,2.833405931800352384e-01,8.676221903948379277e-03,-7.369932888767770363e-02,2.941114562204775323e-02,6.962485313415527344e-01
-6.186378866445587654e-01,-1.886384084116019544e-01,6.281405110508389011e-01,-8.392149344881325024e-02,1.778534720106526509e-02,3.844195541959392892e-02,1.108942151069641113e+00
-4.310605199895687356e-01,-4.136777599404979910e-01,3.959975128905882658e-01,-2.076252970797497080e-04,-1.276101503734203627e-02,9.180190254548172002e-02,8.340995311737060547e-01
-2.169918550167599935e-01,-4.669550255606771949e-01,3.327302934101323828e-01,1.461371455754090776e-01,-5.683821582247702842e-02,-3.278125470118621598e-02,7.609665393829345703e-01
-1.713976778607084472e-01,-5.327578151635126158e-01,3.866620636201570926e-01,-2.811628835208488525e-02,-1.157074823756660820e-01,-2.923559395247889159e-03,8.283925652503967285e-01
-4.390448470972187489e-01,-4.388952088844371713e-01,5.168795108596920818e-01,2.035703719768597840e-03,-5.593383242190610831e-03,9.143336859420966856e-03,9.560363292694091797e-01
-4.501078587063501724e-01,-4.167207924305631472e-01,5.581682005056041174e-01,-7.308935370511823737e-02,-1.941999913787337620e-02,5.813199345888720674e-05,1.000614523887634277e+00
-3.951039577796740532e-01,-4.568138169897079659e-01,5.447865414301406028e-01,1.498353728833170151e-04,-1.542851819886151277e-02,-8.289999277660185795e-03,9.726886153221130371e-01
-3.911386767785466900e-01,-4.614214969386731258e-01,5.448727494595526633e-01,8.161597932786939305e-03,-1.170600079614650922e-02,3.557368194842033663e-04,9.733724594116210938e-01
-4.062069273081937992e-01,-4.598624769061026574e-01,5.429406099566898014e-01,2.485965502900036421e-03,5.851356670669991163e-03,3.293052351428662518e-03,9.771595597267150879e-01
-3.880573991158884350e-01,-4.659043176037805378e-01,5.238842230125805299e-01,1.869407709333033296e-03,2.360599239369227942e-02,1.979699077676888228e-02,9.547499418258666992e-01
-4.124036893939304615e-01,-4.439776466360100260e-01,5.508625288222389615e-01,1.770898471948698094e-02,-4.223441907389199022e-03,2.961729394092099850e-03,9.799558520317077637e-01
-4.352177524257747065e-01,-4.332681493112613968e-01,4.883166320152263484e-01,-1.129822041937997290e-02,1.069287308996681903e-03,-4.061259592740952030e-03,9.227973222732543945e-01
-3.562167114642778576e-01,-4.906545152877182514e-01,5.517682946402473476e-01,9.735310551536598134e-03,2.175806382048718277e-02,3.773805110092817543e-03,9.830183386802673340e-01
-3.178248486623836966e-01,-5.886125518256217770e-01,4.731571721306322420e-01,3.187605324361463266e-01,-9.693753608141750244e-02,-6.496365170249931986e-02,1.121981739997863770e+00
-3.935664539269861928e-01,-3.944318862927210234e-01,6.221274661614342172e-01,2.460202402124987697e-01,-1.337840977044229829e-01,-7.952825613316452658e-02,1.134354710578918457e+00
-3.522986952034499186e-01,-4.674270940196477708e-01,5.315197186909653704e-01,1.762326752101239791e-02,-1.874827275095575230e-02,7.686116850366041253e-03,9.477898478507995605e-01
-2.628917548883207833e-01,-4.482348702613918601e-01,1.437237626147087610e-01,5.395316031445893112e-02,-4.590687020984371425e-02,-3.680215600958853563e-03,5.386533141136169434e-01
-4.380162330800178583e-01,-4.384391010378408393e-01,5.409771755865132592e-01,2.794318799179740026e-04,2.849613294672741475e-03,1.511985214522457502e-03,9.792209863662719727e-01
-4.407296781869886604e-01,-4.420571229205157437e-01,5.462574403242661525e-01,-2.024930269409107742e-03,3.757206154712705234e-03,2.013818817605107434e-03,9.876853227615356445e-01
-4.397273600850111208e-01,-4.457865897329951754e-01,5.472256164253748167e-01,-1.575727456801360917e-03,-1.264655246170902836e-03,-1.137278669838326209e-07,9.900026917457580566e-01
-4.402989870341353362e-01,-4.425723750617165941e-01,5.391974331639181051e-01,-5.623028370776409109e-03,-3.767440322200402147e-03,2.720920600235917763e-03,9.807164669036865234e-01
-4.412756555420013216e-01,-4.346609753060536319e-01,5.261353262910514195e-01,-4.424615932148522231e-03,-5.370195462658032244e-04,7.466302823529012310e-04,9.641524553298950195e-01
-4.263758298337313457e-01,-4.327292869332504677e-01,5.441875662588310236e-01,1.031737158454909022e-02,5.892749507978793221e-04,5.040513844135277241e-03,9.739592671394348145e-01
-3.888993854773852288e-01,-3.964027537775098309e-01,3.116490778826737085e-01,-4.523228200043933906e-04,9.393215364254511868e-03,-3.889685655735036079e-02,7.077323794364929199e-01
-4.390185416636493421e-01,-4.431940657533712802e-01,5.523249194569631593e-01,-1.426755390391256902e-03,-2.376421754054154276e-03,4.445723958169346468e-05,9.934493899345397949e-01
-4.119997900913375255e-01,-3.989274704508322111e-01,5.313022038011919745e-01,5.112249023352460724e-03,-4.134848819191033580e-03,1.974028782360921341e-03,9.369096755981445312e-01
-4.228497843815332558e-01,-4.073639295307897590e-01,5.384828068005139690e-01,3.794262114332347911e-03,6.570834563131145237e-03,7.081296297882047966e-03,9.538533687591552734e-01
-4.826375171402658149e-01,-3.013742293416129536e-01,5.333962727669804282e-01,1.625889573484660955e-02,7.403114119109155400e-03,-6.241678248775446927e-03,9.391942024230957031e-01
-3.792498185906475472e-01,-3.262799672144104379e-01,6.355326637123074329e-01,2.824900277403955551e-01,-3.151780543123620937e-02,-5.996778686094125441e-04,1.105087995529174805e+00
-4.676505176729006119e-01,-3.166461694531256810e-01,5.342233301729933936e-01,3.819964956985655302e-02,6.439081496986681988e-03,-8.516932199508450187e-04,9.379608035087585449e-01
-4.915476926315650585e-01,-3.448794387580664256e-01,5.472513148956498208e-01,7.040113205080100224e-03,1.406911988195881300e-02,2.709996311951974341e-03,9.741769433021545410e-01
-4.172695543562290332e-01,-3.768224940813462154e-01,5.244693661254926642e-01,7.722708157774365624e-03,8.406017926247484531e-04,3.981476807886402593e-04,9.222792983055114746e-01
-4.855605154675978197e-01,-2.967808668843752717e-01,6.019587887349838740e-01,7.053018390390602965e-02,-4.375326897047861902e-03,3.496759156634524773e-02,1.015718340873718262e+00
-5.218935007205619536e-01,-4.911200900141564629e-01,4.928488971829935172e-01,2.115485038281028907e-01,-9.966699761274181585e-03,-3.760313074055444960e-02,1.066874146461486816e+00
-3.879994246060852747e-01,-3.997771573051493998e-01,3.347046281754968433e-01,-4.007291361614569381e-05,-2.458230432885393814e-03,-2.172490373534367858e-02,7.296476960182189941e-01
-4.391816638686479313e-01,-4.238579395798120486e-01,4.826572417046932628e-01,-4.508483857444588183e-03,1.049052072535234734e-02,-3.263922998470367956e-04,9.144874215126037598e-01
-4.132365702680809161e-01,-4.116695144058000744e-01,3.775534626630328017e-01,8.320164510349926934e-03,8.948793598500086321e-03,-4.813919001416062417e-03,7.903351187705993652e-01
-4.383766566021531919e-01,-4.164792145611204699e-01,4.443747006013916145e-01,-4.725913273203673215e-03,3.043912990774307048e-02,9.194742599294902438e-03,8.737847208976745605e-01
-2.247671048636447066e-01,-6.631435373343741446e-01,6.243387301241452025e-01,2.591507136115139276e-01,-6.148459057386007620e-02,-2.202058011054698616e-02,1.224604249000549316e+00
-4.215928592239739925e-01,-4.131081445728894685e-01,4.105962343858494679e-01,-6.402826548590351448e-03,-3.754667764998265156e-02,-8.686117074111281491e-03,8.307396769523620605e-01
-4.218701466246755349e-01,-4.048986826243385351e-01,4.037109084049459451e-01,-4.777471174886943617e-03,-3.798773894613021590e-02,1.721500673173183803e-03,8.199191093444824219e-01
-3.714285378184337683e-01,-4.649279423800670719e-01,5.035683925426474028e-01,-5.796798419117425369e-03,-1.876921948505175242e-02,6.465516221131594951e-03,9.259895086288452148e-01
-2.746753983370203156e-01,-4.997277193531661221e-01,5.474400498206498655e-01,5.584421991260135609e-02,-1.396421505247729886e-02,-1.785474080666462661e-03,9.599435329437255859e-01
-4.458384781330754776e-01,-4.279423902052795214e-01,5.041041889666814102e-01,-3.124879905784894683e-03,3.384866638032200253e-03,1.301585391363163516e-03,9.411587715148925781e-01
-4.411599780395467629e-01,-4.359466535349151295e-01,5.500033608760834802e-01,-2.998714769271068050e-04,6.930907753544976457e-03,-3.888818788593469654e-03,9.886629581451416016e-01
-3.149722936163500409e-01,-5.616027106110370593e-01,5.647480689285409028e-01,3.485875889178575993e-02,2.301349233761369045e-02,1.328128530510420263e-02,1.028330564498901367e+00
-4.125931365538672568e-01,-4.298924177206029928e-01,3.382837463957926172e-01,-1.416463062471194113e-02,1.000863707803729269e-02,-4.015658189306604148e-02,7.634429335594177246e-01
-3.569585946703044410e-01,-4.661995535776282118e-01,5.461301186403255681e-01,6.903726439762153562e-03,1.301951667896470918e-02,-3.468907431274616954e-03,9.627277255058288574e-01
-3.226265375405100166e-01,-5.268287749037700030e-01,5.695675019105164161e-01,2.250647882308430825e-01,1.531573846119946639e-02,8.896319096241439572e-02,1.093757867813110352e+00
-1.249147105839548688e-01,-6.031698358734356447e-01,6.380265698198920310e-01,1.627803042842149994e-01,2.189470091264725943e-02,1.396956648237570806e-02,1.121250987052917480e+00
-3.501956510750264262e-01,-4.728850046036359722e-01,5.286432658910079629e-01,-1.400072632953476559e-03,-1.129273255444523949e-02,3.027164683225527959e-03,9.463881850242614746e-01
-3.477244221958103454e-01,-4.473498192132562279e-01,5.378306237561315539e-01,1.191441679234003272e-02,-1.223055768257176254e-02,-1.534294156895103095e-02,9.401795268058776855e-01
-1.364973720096024912e-01,-8.223009662085921656e-01,8.984118843084343276e-01,-7.162255480830805043e-02,3.796850090011950202e-02,-1.533677010602440757e-02,1.507158994674682617e+00
-3.359963666551035733e-01,-5.158790353098869907e-01,5.643867728683490403e-01,-9.813134545684328025e-02,1.988796086367111346e-02,-2.353022751091670209e-02,1.018208146095275879e+00
-3.461204867624617654e-01,-3.685552206356472182e-01,5.405109286292625326e-01,1.313443029035592513e-01,1.419254288038040643e-02,1.491174815397428369e-02,9.271112680435180664e-01
-4.854019290867014336e-01,-3.385805466074567893e-01,5.399883236456347602e-01,-2.144110641972064336e-03,5.776236228477391217e-03,-2.106332843671855637e-02,9.611853957176208496e-01
-4.132532987377360301e-01,-4.246108867484282290e-01,5.514737775793896457e-01,2.303634420675881866e-02,1.504020006565203252e-03,5.541216397355610938e-03,9.713265299797058105e-01
-4.337712080807333281e-01,-3.951548696079871248e-01,5.381481099610808672e-01,1.613690563008401274e-02,1.351144272311242608e-02,9.116501247798372912e-03,9.540255069732666016e-01
-5.990048542174046808e-01,-2.920704877335858485e-01,6.458924264147291039e-01,1.024930269759636442e-01,-2.812526100312818383e-02,3.490893925665039532e-02,1.139920949935913086e+00
-4.722376110993338205e-01,-3.597857066648995628e-01,6.517136266529557354e-01,1.557139850496517819e-01,5.906341004448528199e-03,1.979789947547597271e-03,1.105612158775329590e+00
-4.437056332256777980e-01,-3.849251721467250031e-01,5.379936458486807016e-01,6.687351632402277479e-03,9.923239549411450727e-03,1.053151316848898941e-02,9.540682435035705566e-01
-6.950675671617937423e-01,-1.285990567209342739e-01,6.613588308315915265e-01,4.810791167511260791e-02,4.908029309916147470e-02,-8.783453686536896177e-02,1.195709347724914551e+00
-4.864374228577750814e-01,-4.472666162913446208e-01,5.715886709573354540e-01,6.766964999452668161e-02,-9.974580695164422806e-03,-2.276675208466389863e-02,1.046470642089843750e+00
-4.522136033629957086e-01,-3.724134574255366092e-01,5.372977675203326475e-01,3.020967934598756816e-02,8.420651116001726805e-03,-9.472236813536663580e-03,9.538120627403259277e-01
-6.053592534166116756e-01,-1.557452428756274654e-01,6.415348525660694579e-01,8.874431869562668385e-02,-8.219092707607124695e-03,-1.186171330864886075e-01,1.123528361320495605e+00
-3.954425527142830243e-01,-4.163185947090788375e-01,5.349421100334675883e-01,1.285908882297776869e-02,6.798725683947069373e-03,5.591106659864615407e-03,9.413834214210510254e-01
-3.228080748636196762e-01,-4.455221656306800893e-01,5.211592649524273702e-01,-1.536244286853119187e-02,5.834720879749016528e-03,5.115834349103188725e-03,9.120279550552368164e-01
-4.202271537910132193e-01,-3.601265493335319978e-01,5.216551830356458419e-01,-4.293061449243212868e-02,-4.303199457987872192e-03,-9.520404333738447574e-04,9.163700938224792480e-01
-3.428429301486888847e-01,-5.798096197348010516e-01,8.407687147584351761e-01,-3.004511368685931494e-01,-1.081330132795044197e-03,1.899005277928234731e-02,1.417555689811706543e+00
-4.138556092202166359e-01,-3.597882305390779911e-01,5.201298770416021844e-01,-2.036488627795338818e-02,2.069384966921052407e-03,-4.172685365747132863e-03,9.088802337646484375e-01
-4.467146458597917036e-01,-4.303203298753688899e-01,5.134138283511724410e-01,-3.777265637830343799e-03,-3.053681616860720420e-03,1.505938937771218820e-03,9.520779252052307129e-01
-4.089309298593992170e-01,-4.482814538878628352e-01,5.340899597889887662e-01,-1.528596678290116036e-03,-6.313369082218744932e-03,2.231041324436900536e-03,9.633725881576538086e-01
-4.427458011478949129e-01,-4.288687844227679347e-01,5.007610279779238782e-01,4.056224491266883711e-03,-8.481048077516495538e-04,7.728130979518669022e-04,9.366738796234130859e-01
-5.410017565730664835e-01,-2.171467164512904668e-01,5.614632000837300740e-01,-4.251753140592152286e-02,-3.474228781393454493e-03,2.436417934777791727e-02,9.851459264755249023e-01
-1.253700837983002803e-01,-5.373120543396772142e-01,3.363485018845514540e-01,-1.422284769336830956e-01,9.467433235666984637e-02,-8.834640490069475827e-03,8.129527568817138672e-01
-4.968796093987546958e-01,-3.742069919388808508e-01,5.610619088307661206e-01,1.048500292646382937e-04,6.995939301186486839e-03,2.154626814072938337e-02,1.003019452095031738e+00
-4.664113104723655034e-01,-4.823402185952062604e-01,5.157873475306451461e-01,-4.221898347775131927e-02,8.104354565269450417e-03,-4.634055216328229754e-02,9.962931275367736816e-01
-4.577513370925822001e-01,-3.437770522004376383e-01,5.415544251094126516e-01,6.693179422304709747e-02,-5.423053861035459673e-03,1.776328050981824426e-03,9.545911550521850586e-01
-4.109335949509093089e-01,-3.758982681400504511e-01,5.249215740283990073e-01,4.312668543237231644e-03,3.641173516965808855e-03,4.297599521304170875e-04,9.188908934593200684e-01
-4.421219302177148425e-01,-3.567176163805572120e-01,5.326799503214784126e-01,1.222006314856312857e-02,1.419907070199914745e-02,7.856134711125884601e-03,9.356913566589355469e-01
-3.491941483280707748e-01,-4.213663183569004156e-01,5.287645852919747869e-01,1.958068284847363713e-02,-6.741268801623579929e-03,-1.148629549729378307e-03,9.168833494186401367e-01
-3.027437398721763984e-01,-4.593743691713668698e-01,5.272755537216318178e-01,5.386332125000121290e-02,-6.639407725807480905e-04,-1.158666588222885888e-02,9.233523011207580566e-01
-3.625929256554768498e-01,-4.326381088678885600e-01,5.371873939251494701e-01,1.635893744878252204e-02,1.345760788106013447e-02,5.656597033370726509e-03,9.375384449958801270e-01
-4.118031482733482407e-01,-3.386385234937205890e-01,5.176947743534674462e-01,9.017687229463124121e-02,-4.364313122731619012e-03,1.162741481021704881e-02,9.089397192001342773e-01
-4.979420913141475724e-01,-2.802254837358429396e-01,5.372989907086226369e-01,-2.864405876746979954e-02,1.004114328715291667e-02,3.930880070931144950e-03,9.468609690666198730e-01
-3.720727062790555317e-01,-4.259982391204106822e-01,5.386328001316037506e-01,3.748888506409973204e-02,1.326195229122563001e-03,1.940749010382246138e-03,9.410821199417114258e-01
-4.489798776192335805e-01,-4.106390099110874270e-01,5.352568986453437594e-01,3.627875434907172798e-03,-3.296040064630843293e-03,-6.591200204058360670e-03,9.657421708106994629e-01
-5.760162840599641898e-01,-2.354394808724760146e-01,5.891291641566827053e-01,5.530398774618721508e-02,-2.664737933385373514e-02,-4.043446066330413924e-02,1.045440435409545898e+00
-4.528133517274016140e-01,-4.264323280536249650e-01,5.346282495656066169e-01,3.530644815787341295e-02,-3.625882019564939662e-02,-2.817652987753411359e-02,9.796696901321411133e-01
-4.839342214527608821e-01,-3.050451239713234952e-01,5.403412399035593117e-01,1.278545030913254450e-02,-7.878449457905150471e-03,-1.247422197142053144e-02,9.481841921806335449e-01
-4.725011855972928720e-01,-3.482530092020984513e-01,5.300827292201917285e-01,-1.919717048289273573e-02,-1.444369679227118270e-04,-1.877733052133724254e-02,9.477374553680419922e-01
-4.477091172433396160e-01,-4.039348921284847127e-01,5.476186739844824958e-01,6.064346019037351529e-03,-9.123541564480395138e-05,1.061452911607519735e-02,9.744086861610412598e-01
-4.346389269153086987e-01,-4.316645050233649528e-01,4.992844305560935059e-01,-9.716694557996135087e-03,5.061817210991759360e-03,-7.422463351621493011e-03,9.327213764190673828e-01
-4.320304169767838487e-01,-4.226071485422371876e-01,4.611315152545446550e-01,5.027768995852588060e-03,4.641077318519157627e-03,9.386596354591233635e-03,8.887155652046203613e-01
-4.078132341501635727e-01,-4.641624238887593901e-01,5.370835204314140521e-01,-2.877255758976954314e-04,6.315596040891673438e-03,5.731326886111689362e-03,9.744063615798950195e-01
-4.288351451148302851e-01,-4.190389093543449017e-01,4.490044270377553381e-01,-5.921196456838061402e-03,-2.093988206850488920e-02,3.563273246350830842e-03,8.738177418708801270e-01
-4.208751034927176171e-01,-4.105780251175720763e-01,4.005052895877845298e-01,-2.275186690251184123e-03,-3.550739784100932772e-02,-6.142348276778395073e-03,8.186727166175842285e-01
-4.393632339262581454e-01,-4.439398293759252989e-01,5.523096704296046600e-01,2.139954880411208682e-03,2.395133830651900372e-03,1.452066537734780869e-03,9.939878582954406738e-01
-7.478145367995385762e-01,-1.266973344097787335e-01,7.065326543226926326e-01,1.285203234055019017e-01,-1.584126507813993570e-02,-7.497066361076878960e-02,1.290255546569824219e+00
-2.317017142036372768e-01,-5.323492557372923040e-01,5.420313522455805222e-01,1.534022856943970982e-02,-2.077361327814805040e-03,3.208483492706240754e-04,9.604123830795288086e-01
-4.058364041277072176e-01,-3.929870754699912871e-01,5.261381861187145459e-01,6.483897181880191214e-03,1.086213169761218473e-03,3.752898008512987361e-03,9.257096648216247559e-01
-3.645280516681888017e-01,-4.182801246114470906e-01,5.264799185287794003e-01,1.870945531701166328e-02,1.274305244026624484e-02,1.186767297672899901e-02,9.201292395591735840e-01
-4.076859268252086554e-01,-3.500086833420534838e-01,5.254389351599907387e-01,1.095080637416230157e-01,-9.001312457834647392e-04,2.761076497311137044e-03,9.253269433975219727e-01
-4.153623249444032828e-01,-4.021786895058119260e-01,5.322262651163680580e-01,5.324619740745556960e-03,2.170034555274153419e-03,4.592463311949261532e-04,9.411190748214721680e-01
-3.349060453466994325e-01,-4.973167290261920614e-01,5.427338930343080792e-01,9.560639866997830416e-03,9.351294055155594948e-03,-9.226665559992545604e-03,9.695149064064025879e-01
-2.053463587632529674e-01,-5.630190117501666647e-01,5.871353631544589113e-01,4.135405509959139136e-02,5.523940032265972633e-04,-3.877397100848800106e-03,1.022048234939575195e+00
-3.821548367134933177e-01,-4.172523027707664700e-01,5.281880062083073035e-01,4.111681315702374329e-02,-4.900247612559990515e-03,2.593243377441536643e-03,9.311662912368774414e-01
-4.411935845479288409e-01,-4.422173471377495724e-01,5.457954633327303240e-01,-3.188925574826093415e-03,-1.631225518210239946e-03,6.011529097540005201e-04,9.875213503837585449e-01
-3.480687978834772212e-01,-5.327079071186245907e-01,6.116890723835072263e-01,9.497036206206233011e-02,1.353228720886378092e-02,-9.766570148315585967e-03,1.077185750007629395e+00
-4.677427746061796343e-01,-3.921895182388242529e-01,5.471732387949288512e-01,-2.504777837822316430e-03,2.366157279688322224e-03,-1.211130124367532784e-02,9.795704483985900879e-01
-4.397736178644817695e-01,-4.190845885142024940e-01,4.694083172600785892e-01,5.457011088171201353e-04,-2.105704160178197351e-02,-4.154815453166595465e-04,8.997562527656555176e-01
-4.575502309624722153e-01,-4.205783865974314084e-01,5.225804222956993428e-01,-5.870221883627462986e-03,2.841212147239616844e-03,-1.865307762181363585e-02,9.627861380577087402e-01
-4.944966367730229129e-01,-2.898074139455116827e-01,5.392449288226625059e-01,2.143831771575166120e-02,7.601877833613813334e-03,1.191695257540021508e-02,9.491584300994873047e-01
-4.989173653651902129e-01,-2.903469458573022521e-01,5.408694996127278998e-01,5.641251943167377436e-02,1.018487419792805417e-02,-2.529433165370337938e-02,9.589406847953796387e-01
-4.435853789700691108e-01,-4.318171933756054792e-01,5.194334807413690802e-01,-2.513382117283028110e-03,-7.299195730196442883e-03,-2.673143242455574414e-02,9.584014415740966797e-01
-4.243147136220503102e-01,-4.343502191322088923e-01,5.447679852645576082e-01,-1.805082405321393590e-03,5.637230308092262658e-03,-3.674943175388521374e-03,9.742139577865600586e-01
-4.349323498359187190e-01,-4.276536344829485192e-01,5.489530310453339945e-01,8.251408355590071067e-04,-1.191238027551063164e-04,-3.392382204602062065e-03,9.802849888801574707e-01
-4.388660340788836378e-01,-4.418597598560093931e-01,5.460753557204609532e-01,1.122356788635258144e-03,-6.747252128400789374e-04,1.633100917862619853e-03,9.864483475685119629e-01
-4.404319875535781525e-01,-4.426355190952216967e-01,5.468992732427162551e-01,2.831145264108342156e-03,-8.778151778892494435e-04,1.710711175069112595e-03,9.884526133537292480e-01
-4.380497190555306952e-01,-4.420652212896528099e-01,5.339618698497516913e-01,3.917605932025763210e-03,2.201663635542531333e-03,7.778384405992889647e-03,9.741498231887817383e-01
-4.389026338119625392e-01,-4.439683479528045984e-01,5.398472830478925344e-01,4.059251849136323587e-03,-6.139529282107269309e-03,-1.145842273625649480e-03,9.813773632049560547e-01
-4.668748596674474616e-01,-3.406283032727434601e-01,5.501245634569913445e-01,-5.607842865852495640e-02,6.552045992770720931e-03,-9.055747803655436745e-03,9.652162790298461914e-01
-4.530550507706586627e-01,-3.800393330604792674e-01,5.435517918945368399e-01,-1.275626879219868802e-02,3.423922051905527869e-03,-1.816598160846230256e-02,9.629651308059692383e-01
-4.328383895433523532e-01,-4.373407772182963393e-01,5.276820236077971460e-01,1.409124706802382344e-03,-4.228084485624161552e-03,-9.487332669036166108e-04,9.628118276596069336e-01
-4.582057810643707096e-01,-3.365886777656076356e-01,5.386698894721414499e-01,2.039125001153830816e-02,4.057014939639292869e-04,-8.114683334905193560e-04,9.426370263099670410e-01
-4.343709831613324357e-01,-4.323656426865655211e-01,5.016317581628577660e-01,-4.613995101216480585e-03,7.186255588990077964e-03,5.322875362433896612e-03,9.351641535758972168e-01
-4.364144810428871035e-01,-4.361877513576736254e-01,5.215874538543783245e-01,1.330082712124803536e-02,1.607855116664796621e-02,-6.519180787911742431e-04,9.585708975791931152e-01
-3.865414969349318941e-01,-4.684979086579950658e-01,5.491675851116991636e-01,3.137198718351878746e-02,-7.487041090904443530e-03,-4.429400664652251643e-03,9.808849692344665527e-01
-5.062463125814022913e-01,-2.402621430369009659e-01,5.412455347902963565e-01,7.264348257599154146e-02,-1.051242692440535875e-03,-2.191940076881617600e-02,9.521798491477966309e-01
-5.529490058684578546e-01,-2.792114315031404836e-01,5.953680337040083703e-01,2.333413254411243198e-01,6.587805311997076141e-02,8.384398925171533679e-02,1.129902839660644531e+00
-4.856052630717902496e-01,-3.458713754769534576e-01,5.368067121876290981e-01,3.258684410854770230e-02,-1.341745239857614416e-02,1.608065090404462924e-02,9.625423550605773926e-01
-4.422608626189976078e-01,-4.382038226475195586e-01,5.453340787441807169e-01,1.032014653921900504e-03,-1.677178759658621253e-03,1.189321132640208190e-03,9.855807423591613770e-01
-4.428113127612746114e-01,-4.415521220456768425e-01,5.525192964794154449e-01,1.030329362592291012e-03,-1.671454109492395788e-03,-1.860245757021828858e-03,9.947126507759094238e-01
-4.430115706232440331e-01,-4.409234968913580688e-01,5.501588840061824026e-01,1.916887363883167453e-03,1.155184799040163317e-03,-1.683282367171211324e-03,9.921399354934692383e-01
-4.358356925589671471e-01,-4.354926885550076676e-01,5.504052781034435293e-01,2.935157858034404248e-03,-1.734798447807082283e-03,-2.968853754484678323e-03,9.861006140708923340e-01
-4.437311771052757647e-01,-4.389468888820226566e-01,5.533582961282891288e-01,2.893916157328942258e-03,4.921659180214739936e-03,-7.643761073313885563e-04,9.947559833526611328e-01
-4.355577887985415675e-01,-4.279731249898949819e-01,5.476971671252255369e-01,-1.836070279018798710e-03,-1.059051667142583020e-03,-3.628422188432203939e-03,9.795116782188415527e-01
-4.321754920416202572e-01,-4.148384408304170989e-01,5.464285175749443724e-01,-1.450361105445974533e-02,1.286115355994880277e-02,-8.618638807008445826e-03,9.707473516464233398e-01
-4.436805229116064231e-01,-4.383131924773846499e-01,5.432289305357402842e-01,3.159142028967384247e-03,-2.120155363957489884e-03,-8.077407977841255873e-04,9.842598438262939453e-01
-4.609985322627673243e-01,-4.246775199770107534e-01,5.534373448320786260e-01,2.998651224798790657e-04,-6.344994574107495336e-04,-1.179797032780727228e-02,9.969819784164428711e-01
-3.239461266197916078e-01,-4.299994706915064580e-01,2.174027296782644059e-01,-1.340479637270817204e-01,5.435417129479371001e-02,6.085501474687980694e-02,6.599980592727661133e-01
-3.522227325367069395e-01,-4.936669431377996853e-01,5.287165119811311209e-01,-1.399712746268174379e-01,3.186301492862891882e-02,-5.037081852886317324e-02,9.950364232063293457e-01
-2.821222679922248400e-01,-6.389562763246314780e-01,2.989567862628836892e-01,2.147656155627585828e-01,8.290515059428747724e-02,1.234763478852498320e-01,9.365169405937194824e-01
-4.406601681735258791e-01,-4.330102835096047431e-01,5.019755023385125137e-01,7.130153887714854068e-03,2.809907658869620264e-03,-9.259669298707527349e-03,9.390649199485778809e-01
-6.870309727347990725e-01,-2.675291588828369038e-01,6.128577869640604581e-01,-1.952882240805229319e-01,6.751367599396401742e-03,-1.162685190060131213e-01,1.214697957038879395e+00
-4.214334753777641551e-01,-4.388451682507168994e-01,4.631226231459422138e-01,6.876872223553780542e-03,3.566542957543287519e-03,-3.303838428041688119e-02,8.953205943107604980e-01
-4.006513518488435954e-01,-3.977417229733026249e-01,5.258499207524517383e-01,-2.090129823020274794e-03,3.499709104530233580e-03,-4.351387192612661894e-03,9.251075387001037598e-01
-4.040633409328178716e-01,-4.261997990334656650e-01,5.386726157475354437e-01,-2.401697831260938935e-03,6.680941832785064136e-03,-6.646321698544050902e-03,9.541454911231994629e-01
-4.022421879981143977e-01,-4.154458430343047071e-01,5.322219450577762023e-01,-5.707827133586409682e-03,-2.243335143395194971e-04,2.244515720243265514e-03,9.411954879760742188e-01
-4.149724360356731867e-01,-4.130698749712129469e-01,5.375499119638588175e-01,-1.948799018778308526e-03,4.628047896971815983e-03,-5.846904437468834585e-03,9.516661167144775391e-01
-4.207672957659401858e-01,-4.406775487201673447e-01,5.393231634353397030e-01,-9.201462746408947332e-03,-5.275419386082904304e-03,6.718370383405536037e-03,9.704424738883972168e-01
-4.003213725701511572e-01,-4.124924895429896154e-01,5.318895834854256988e-01,-3.615794204222065340e-03,-1.951309894288768068e-03,-3.714590501296668491e-03,9.384047389030456543e-01
-4.243178278696878580e-01,-3.785707329028906720e-01,5.317859671565471347e-01,-9.844749296166731625e-03,4.712083137823669735e-03,5.669557258510160742e-03,9.343137145042419434e-01
-4.090733200770377831e-01,-4.305194310104779043e-01,4.378811696634485884e-01,-1.135981171809859192e-03,1.744665039294277745e-04,4.267626098990354166e-03,8.579127788543701172e-01
-4.827297991123794541e-01,-2.878294533966283542e-01,5.988997149074269943e-01,1.538894268440272883e-01,-2.788304628289557663e-02,-1.210751023858879782e-01,1.055677175521850586e+00
-4.539735362310038935e-01,-2.692226572552919306e-01,3.358737925653453305e-01,1.738193010779488512e-01,-7.537860778627099301e-02,-3.103503171366171071e-02,7.890763282775878906e-01
-3.974143659945263973e-01,-3.997974566657833129e-01,3.349663548990370332e-01,1.414817673985759852e-03,-3.154578081860753315e-03,7.377023688378733486e-04,7.336007356643676758e-01
-4.077546198922240017e-01,-4.200742672220993401e-01,4.084210642154840754e-01,2.961474204850619071e-03,3.773314699669752526e-03,3.230854694668987281e-02,8.243482708930969238e-01
-4.249006144683222796e-01,-3.941855128747300263e-01,6.174697517163941773e-01,1.582438645857629778e-01,2.018135246055873487e-03,-4.123370282055813067e-03,1.063320040702819824e+00
-3.351625861224394876e-01,-3.748608543640611357e-01,1.980938593344451770e-01,1.037541283773779494e-01,6.821607893164213787e-02,7.324088901550181163e-02,6.078284978866577148e-01
-3.872964375687955041e-01,-5.126043429099782500e-01,1.816021679471483963e-01,1.471023209834120271e-01,-3.882501068469384337e-02,5.886985835210283013e-02,7.003367543220520020e-01
-4.038105145996439549e-01,-4.038982500838703693e-01,3.502125521031739241e-01,-7.900941133191771715e-03,8.925854106721404710e-03,-1.284417057882956265e-02,7.546775341033935547e-01
-3.737426209343283623e-01,-3.532435538845379863e-01,2.434591144966458121e-02,3.295189318519760931e-03,-2.770441055666331576e-03,4.444200920306887875e-02,3.958726227283477783e-01
-5.854592534193769904e-01,-1.177397561721533203e-01,6.182320712004731877e-01,-1.253465633385059119e-01,2.624269387009021959e-02,-7.681843736716482962e-02,1.082381129264831543e+00
-4.278166944830625318e-01,-4.594549817543615577e-01,5.459186635093816742e-01,2.855168217277529678e-03,-1.141839028745899806e-02,-6.992594319838457348e-03,9.902177453041076660e-01
-4.073549961048238965e-01,-4.218527849345808933e-01,4.080956506735120559e-01,7.018059372887373859e-03,4.322079156611174922e-03,2.770298122119880385e-02,8.243169188499450684e-01
-4.068529119113958870e-01,-4.099870273549390265e-01,3.951193922231450717e-01,3.922028958652539442e-03,2.041915442219639863e-03,2.835785890025897989e-04,8.035805821418762207e-01
-3.257768235372708876e-01,-3.975049687912038943e-01,1.677466038289443517e-01,1.375764474141094318e-01,-2.531779493428623629e-02,2.376479227695055957e-02,5.869488120079040527e-01
-3.375586118423143378e-01,-6.978172807712985648e-01,4.608226992776972564e-01,1.524778260742362945e-01,-9.657512503896198419e-02,-5.782492162453703455e-02,1.078231334686279297e+00
-1.807863687246525353e-01,-5.003559027002808524e-01,3.339925829814849312e-01,9.468931372824269943e-02,-6.958653592022071011e-02,-3.530028560713610250e-03,7.570285201072692871e-01
-4.458141224685353565e-01,-4.384870527536364193e-01,5.162649574831389421e-01,6.021075201281396796e-03,-1.729580591947087881e-02,-1.778718466883816296e-02,9.594560861587524414e-01
-4.352113737576066566e-01,-4.161398848746208357e-01,4.458568295326558184e-01,2.294466698074646913e-03,5.480979924499036759e-03,1.008898198422552780e-02,8.719248175621032715e-01
-3.925436032917516416e-01,-4.019725923075765373e-01,3.401007685533825597e-01,-4.344581917606725983e-03,4.134113745765922131e-03,-3.091662442828242707e-02,7.394188046455383301e-01
-3.967903907603532176e-01,-4.128243336201670166e-01,1.271884172185599460e-01,6.032811237678531446e-02,6.780649003933690577e-02,-3.925390059134205301e-02,5.590586066246032715e-01
-5.511164441024551941e-01,-3.620333687440817627e-01,2.815266575064112597e-01,1.987475095600135799e-01,6.120876342429759642e-02,7.730184249726411438e-02,8.481015563011169434e-01
-4.793429845283090351e-01,-2.836814955692641971e-01,2.106089877109887931e-01,-7.424146447357103662e-02,-3.975275389326914099e-02,-5.019710281303429479e-03,6.329865455627441406e-01
-4.100272342454440166e-01,-3.914344770984995447e-01,3.175877092426644399e-01,5.337245402227538613e-03,4.971329424145166931e-02,4.741258161246644787e-02,7.283436059951782227e-01
-5.717120900179666343e-01,-2.273459096763057463e-01,5.979186914921499341e-01,-1.178444261583596123e-02,-1.240333150185946292e-03,-3.200106700889455286e-03,1.041294813156127930e+00
-3.666681186105156809e-01,-3.740735838749517095e-01,2.119257078043982889e-01,2.846568959806968120e-03,2.332171761819449088e-02,4.395749685570582432e-02,5.886961817741394043e-01
-5.073475732411212302e-01,-3.348254432291909999e-01,4.435802702296965938e-01,5.238338266451635777e-02,-3.458315689206361426e-02,1.120098460486352310e-01,9.052238464355468750e-01
-5.123182588867905007e-01,-2.535511596016556957e-01,8.799297079251076070e-01,2.380151059273067915e-01,-8.935234277268697123e-02,-5.330653712797840671e-02,1.359219193458557129e+00
-2.560654657164377901e-01,-4.565735302597019873e-01,1.713402815355922759e-01,-1.130315946973022567e-01,-6.086430458136699029e-02,9.967503115517932499e-02,6.227556467056274414e-01
-4.490020050759607195e-01,-4.276833114392956658e-01,5.272632134909723822e-01,-1.372349545433671240e-03,-2.348663148581227322e-02,3.386091400962219777e-02,9.684191942214965820e-01
-4.742853943723956966e-01,-3.935797902112641022e-01,5.699595527839123044e-01,-2.145576277168592325e-02,-6.117586429950404650e-03,5.402081999912269721e-03,1.007107377052307129e+00
-3.894631636626073590e-01,-4.549909161819608583e-01,5.423087921431088976e-01,4.879112446530194124e-04,1.498796456278033568e-02,7.269194805376509930e-03,9.666348695755004883e-01
-4.073897944643014024e-01,-4.487179545490582733e-01,5.336753179099489319e-01,-2.339430870467080342e-03,-8.124756508667950114e-03,4.092669881097701912e-03,9.625324606895446777e-01
-2.660314079854427249e-01,-5.027197975098196547e-01,5.351771980863698763e-01,-2.135005212083426751e-02,6.019224343360876292e-03,-2.430351866514538807e-03,9.429142475128173828e-01
-4.422451646336210129e-01,-4.366340446725127111e-01,5.454053972804338013e-01,9.631575331947099224e-04,-3.727432702674611346e-03,5.698997522432853622e-04,9.848800301551818848e-01
-4.147429283308073922e-01,-4.534703743245837027e-01,5.402206622805932890e-01,-1.059835171363618898e-02,-8.486144834927272437e-03,8.745770822896645289e-04,9.751891493797302246e-01
-4.252371547662818774e-01,-4.130735776105880497e-01,4.209204913700281825e-01,8.347917308791433233e-03,3.334114217734986119e-02,-2.345129601407217740e-02,8.432272672653198242e-01
-1.572480746675416485e-01,-5.988516384486134436e-01,6.435214731458822612e-01,1.032187254893191380e-01,9.543938265834156498e-02,3.318563708619140518e-02,1.119133830070495605e+00
-4.444073704215453779e-01,-4.325008134918383318e-01,5.180551590022818287e-01,-2.997733158213147266e-03,1.308496636506335103e-02,-2.574302506431483221e-03,9.568577408790588379e-01
-4.247506700533654755e-01,-4.163026726741939076e-01,4.206279006800034415e-01,7.455672826532692976e-03,3.544108418145913708e-02,-1.302808911150689711e-02,8.438238501548767090e-01
-3.274472312797260254e-01,-4.776922704840912970e-01,5.171730802248365455e-01,5.114190457226171216e-02,2.208596441740823951e-02,1.105293303556490261e-02,9.340949654579162598e-01
-4.331669048832879065e-01,-4.197364941602934607e-01,5.396602578615700141e-01,-6.434109176217825410e-03,-4.911594021084641386e-05,5.802275468578004490e-03,9.662985205650329590e-01
-4.863463094136180054e-01,-3.557320885560000256e-01,5.448109684943529540e-01,-2.479713320294709700e-01,-5.899305687645817198e-02,-1.076441021743713283e-02,1.068138122558593750e+00
-4.433282539622183660e-01,-3.364819050336654294e-01,5.226164478079065034e-01,-1.354453578433741437e-02,6.672918879554491645e-03,2.128452961927351436e-03,9.175811409950256348e-01
-3.150670404370820021e-01,-4.568017501757546950e-01,3.135094731339089780e-01,-6.466001319177219764e-02,-1.370450331769388908e-01,6.327404378565867904e-02,7.649744153022766113e-01
-4.188000701320674923e-01,-3.857747019964650192e-01,5.613636760218255750e-01,-7.599743956574760151e-02,1.855736670539942859e-02,-1.294724623409853129e-02,9.738091230392456055e-01
-4.282337740002379323e-01,-2.891510132651382570e-01,4.520811503609500903e-01,-1.592875798840652779e-01,-5.551570813384629210e-02,4.953325060116856027e-02,8.744060397148132324e-01
-4.535640272598012723e-01,-3.707101190015751890e-01,5.395471947373420285e-01,-6.135718655242764635e-02,-2.016744551660748161e-02,2.505487923365051772e-02,9.618986845016479492e-01
-4.693398143313190496e-01,-2.801488847049092845e-01,5.411172715170908809e-01,-9.623407827855415264e-02,2.626393560990607223e-02,-4.284722337366642098e-02,9.492141008377075195e-01
-3.995230055929668289e-01,-4.226424356993610520e-01,6.191191975852236018e-01,-1.790767526383048869e-01,2.247489481539056977e-02,-4.198439484397645943e-02,1.079224586486816406e+00
-4.215017223124285506e-01,-4.235800268791695133e-01,5.436233585331197160e-01,-5.756944029034328711e-03,-4.255112551871955383e-03,-3.558965613127730750e-03,9.662651419639587402e-01
-4.339557457309481947e-01,-4.333961991821218551e-01,4.895843491843039352e-01,-8.494287709920049501e-03,-1.167536819767726539e-02,4.767469369429126920e-03,9.236360192298889160e-01
-4.352874691060096279e-01,-4.363947194057444245e-01,5.154392003042250758e-01,3.883591460301831846e-04,5.992479183427949470e-04,1.085721711486584834e-02,9.514674544334411621e-01
-5.000335947884336774e-01,-3.235507181930696308e-01,6.061898043459963414e-01,-4.472704569545533915e-02,7.367296006477161430e-03,-4.712790749219476771e-02,1.035603404045104980e+00
-5.246921538633935178e-01,-3.304840413084307316e-01,4.417932945308343795e-01,2.567560330970035665e-01,-3.414258422747320360e-02,-7.610300342985182320e-02,1.001376390457153320e+00
-4.396616197687064354e-01,-4.423598684079538823e-01,5.349473180709156672e-01,4.949814902889836978e-03,-8.350865925373783527e-03,-5.385423460687238650e-02,9.805524945259094238e-01
-4.248001284843376801e-01,-4.389130001614811039e-01,4.815898624577001907e-01,-4.557457829887990794e-03,-2.211843279863787756e-03,-2.329082427522802604e-02,9.144605398178100586e-01
-4.480673840684587517e-01,-4.074927921505357431e-01,3.637441191556881614e-01,2.810367867689648330e-02,-1.152773651900001473e-01,-3.194408105311131313e-02,8.203917741775512695e-01
-4.197297180176500775e-01,-4.772113661461207523e-01,5.042281663771936984e-01,6.300935354659803478e-02,-4.942549187422447254e-02,-6.436951810926057338e-02,9.704547524452209473e-01
-4.237233333583421135e-01,-4.535434636966189093e-01,3.868341360321564393e-01,2.060843915406287974e-01,-7.805856203546565619e-02,2.490661214180501376e-03,9.098208546638488770e-01
-4.330366705636866098e-01,-4.433646615340617325e-01,4.754161105119911745e-01,-4.645807263552277286e-03,7.269166806986390728e-02,2.515616332262181343e-02,9.233586192131042480e-01
-3.103565502585216018e-01,-4.312995200333848977e-01,3.347047486044841813e-01,-1.674308931693457847e-01,1.489817054462237444e-01,-1.767358908910762055e-02,8.126314878463745117e-01
-4.349089520688796395e-01,-4.230559767225640644e-01,4.673287926965201677e-01,-8.325354551300397782e-03,-2.116032858425873249e-03,9.393493864364005005e-03,8.966411352157592773e-01
-4.318530902061649135e-01,-4.389084291457835962e-01,5.347369130993423481e-01,2.884518156075887869e-03,8.473748406886451312e-03,1.845574609142192849e-03,9.702660441398620605e-01
-3.835256662363560332e-01,-5.390079089517121336e-01,2.049339070025893994e-01,1.357617610873532166e-01,6.093135709231820019e-02,7.447596230900648331e-03,7.270161509513854980e-01
-2.971994444873274910e-01,-4.409054664646868127e-01,1.331566329502049673e-01,-9.983520288503392251e-03,3.366573988892880565e-02,3.981407478606148465e-02,5.255066156387329102e-01
-5.345493629650480694e-01,-2.486317914784904604e-01,5.516237458692778706e-01,-2.730499448997474737e-02,4.835830860291370423e-05,-1.500122693524440221e-02,9.766660928726196289e-01
-4.001512917300296124e-01,-4.947816480357252189e-01,4.126828915057234592e-01,-2.703048479001538551e-01,7.271805730393814116e-02,-7.217567054631594814e-02,9.986285567283630371e-01
-1.270720663481528789e-01,-6.126779053880225812e-01,3.448719639340894760e-01,-7.110613758184758382e-02,6.605177843249951386e-02,1.350405625027746026e-01,8.778881430625915527e-01
-4.409383334064801430e-01,-4.351656425980030551e-01,5.459913486874843347e-01,-1.169927468549244185e-03,1.372407669764320361e-03,-6.642490730183598507e-03,9.841282367706298828e-01
-4.355758375079382683e-01,-4.494884639358937006e-01,5.335475981476226481e-01,-3.897365851225293668e-03,2.285580854407749576e-03,-6.246659888853471621e-03,9.762454628944396973e-01
-4.061848088391343814e-01,-4.243100693674249357e-01,3.947347550792015269e-01,1.471934238981461186e-03,8.265366070203917018e-03,-4.411464082903139572e-02,8.138595223426818848e-01
-4.604836156672702518e-01,-4.034125254349676393e-01,5.171216181315300142e-01,4.143698250437038294e-02,2.518816766011176041e-03,-6.633656064608493830e-03,9.531412124633789062e-01
-4.373550632820697448e-01,-4.408318104494169942e-01,5.277461190720920126e-01,-9.298213233489495584e-04,7.828629585569799390e-04,-2.382889859628175080e-03,9.668553471565246582e-01
-4.295840620011243116e-01,-4.464961073857708351e-01,5.145335139059775686e-01,-7.626327636441820271e-04,1.243858548113985652e-03,8.954436424240864306e-03,9.528157711029052734e-01
-4.302210291611189841e-01,-4.498980629934223319e-01,5.242135125357291203e-01,-1.072937938104644899e-03,-6.705040487552697218e-04,-1.124123829785709638e-03,9.644280672073364258e-01
-4.342020418853221320e-01,-4.414124650470344080e-01,5.265746522995737866e-01,-1.073850112724106335e-04,-1.117007094523823820e-03,-3.467185331823487322e-03,9.644227623939514160e-01
-4.348046057684170074e-01,-4.463751569084422055e-01,5.315734342590200390e-01,-2.573359695807258055e-03,9.920806367451680957e-04,3.043146041535214116e-03,9.722409844398498535e-01
-4.098967535112687521e-01,-4.250186507939781588e-01,3.969722699327883353e-01,1.069572814470945519e-03,-1.188247805983208734e-02,8.074614625625857467e-03,8.149173259735107422e-01
-4.235308570524768390e-01,-4.462254794839899952e-01,5.038777333401996961e-01,3.546715868809189719e-03,-9.637578372205561020e-04,-2.870399376643092623e-03,9.389963746070861816e-01
-4.313417660999509518e-01,-4.485543037220204310e-01,5.241342221334189810e-01,-9.346401858063110206e-04,-7.941432472969233661e-04,-9.689399057282834307e-04,9.642012715339660645e-01
-4.803296806643237993e-01,-3.119898589959835267e-01,5.419657295817976728e-01,-8.709744585066384395e-03,6.967138852435177457e-03,-1.578270317827857108e-02,9.499756097793579102e-01
-4.524935838462369464e-01,-4.054542060036606110e-01,5.266384450098343661e-01,-7.058351806230404304e-04,9.930087065873603215e-04,-2.024766029935759493e-03,9.564890265464782715e-01
-4.579852407469418019e-01,-4.616426286839953042e-01,5.585906229400210421e-01,-5.230518683725964707e-02,-2.766681581051492339e-02,2.961157264368614178e-02,1.024837732315063477e+00
-4.396656489317580796e-01,-4.148822985827140819e-01,5.863114946078493706e-01,-9.283373999298567825e-02,4.353201478573157784e-02,-2.023427078156928016e-02,1.029846549034118652e+00
-4.959218995204581759e-01,-3.744512073963202070e-01,5.597409378437483429e-01,-3.432864734482768757e-03,-3.794912487252138054e-03,1.600790607649542341e-02,1.000896811485290527e+00
-4.521478868332195478e-01,-4.043168782961739649e-01,5.488417838908251634e-01,-4.059642346522025075e-03,4.339949463433718548e-03,8.972404173754664966e-03,9.781294465065002441e-01
-4.151950156729823926e-01,-3.785775270425524308e-01,5.266088440724234765e-01,3.739941426425385379e-02,5.670774158632972163e-03,1.779378770575105323e-03,9.263643622398376465e-01
-3.328290233191126268e-01,-4.442189548982587444e-01,5.312683113150121761e-01,1.313564516767433583e-02,3.430801149058965507e-03,3.916039122881586482e-03,9.251608848571777344e-01
-2.752660741974046754e-01,-4.259493084243669569e-01,5.332843542385291569e-01,2.223068219984596638e-01,4.399644217611980990e-02,8.310770880448346484e-03,9.759966731071472168e-01
-4.311682405426718878e-01,-4.368814221846494261e-01,5.243610149573584289e-01,7.162374103234327768e-04,-6.208228506727383675e-03,1.983287913544475121e-03,9.584658741950988770e-01
-3.917044078557361808e-01,-5.192929750764090358e-01,4.466717943319651329e-01,2.846111552930969402e-01,-5.594139747615829716e-02,9.457562123442730950e-03,1.038647174835205078e+00
-4.537408628193415616e-01,-4.128838482833910861e-01,5.227368270954113605e-01,3.001856400958241577e-02,-5.110678487952679573e-03,1.715656464669723658e-02,9.586170911788940430e-01
-4.228911505209183019e-01,-4.306343622669375759e-01,5.400136132283746004e-01,5.183555731654026708e-03,7.607511878325217206e-03,4.199709386532766986e-03,9.669584631919860840e-01
-4.519215136833475976e-01,-4.482021496692352169e-01,5.128675189538918211e-01,-1.665392922255360536e-02,-5.215004362811264185e-03,-3.013119314174011326e-02,9.648215770721435547e-01
-4.370495981771348459e-01,-4.502127924637047141e-01,5.336958198911748719e-01,-7.722201372116420728e-03,-2.729882178976016181e-03,-6.521717564748591434e-03,9.775617122650146484e-01
-5.191661921134722579e-01,-3.133451389486235916e-01,5.547898032763501908e-01,3.436919227400528354e-02,-1.205364611344897363e-02,-5.476993485149386255e-03,9.893283843994140625e-01
-2.980735017957326649e-01,-4.529134465462985037e-01,6.408647602070384197e-01,-2.050523295057913586e-01,1.587623730576029901e-01,-1.686153129598501887e-01,1.156725883483886719e+00
-4.275023409433080235e-01,-4.291923629257320405e-01,4.165379386652680038e-01,-7.686480160645166315e-02,1.939642551488911237e-02,-6.596493148761954639e-02,8.635627627372741699e-01
-2.100860014521092611e-01,-6.145139431490437287e-01,6.195106540243434656e-01,-6.005771106913557200e-02,8.232103144393396188e-02,-1.032642274872287366e-02,1.103981733322143555e+00
-4.150842479331366963e-01,-3.998839717140190153e-01,3.820442418304265120e-01,-5.027566270687422803e-03,-4.129038831933087329e-03,-5.467872905102608150e-02,7.953770160675048828e-01
-5.232479266391258932e-01,-2.650371514719693788e-01,5.511209482755659028e-01,-1.392191570618015600e-02,3.660887956343011548e-03,-1.745708505860413262e-02,9.721438288688659668e-01
-3.891904422960912324e-01,-4.893638377594530242e-01,5.703885680500183630e-01,4.418597475750503899e-03,7.412805978126409470e-03,-1.318537456008259199e-03,1.013498663902282715e+00
-4.397122989508092106e-01,-4.439114054132135001e-01,5.446435286776488693e-01,2.935754127343556327e-03,9.842814114750296581e-04,8.953304845625905002e-05,9.864766597747802734e-01
-4.388597805081632108e-01,-4.318081662067999593e-01,5.667247718626577946e-01,-1.188383072877245983e-01,5.981238379319715748e-02,3.077718135718182906e-03,1.028244972229003906e+00
-4.169205305024734631e-01,-4.348939433374765517e-01,5.346696930001593184e-01,-9.267271586760911228e-03,-8.482363306267030542e-03,3.390159851490176339e-03,9.609673619270324707e-01
-3.382527724017481141e-01,-4.618040542923483316e-01,5.575474711833271479e-01,-1.615807701553416686e-01,7.755606123247685887e-04,1.704835621908790816e-02,1.003792285919189453e+00
-2.002285567664175425e-01,-6.255902720034637321e-01,6.897594432329209324e-01,-7.461340098989222014e-02,-2.204066943315673155e-02,-4.706471687025006595e-03,1.170385956764221191e+00
-3.853548215198522864e-01,-4.470150358951744396e-01,5.399384743509672013e-01,-4.046082761792513943e-03,-1.601200243230495313e-03,4.030613042523138387e-03,9.576685428619384766e-01
-4.206502280077364375e-01,-4.358714531407150705e-01,5.483877924165042606e-01,-9.331301604353163179e-03,-8.710061002031902269e-03,1.175848238505960118e-02,9.772000312805175781e-01
-5.082574145692879686e-01,-2.665130394510592526e-01,5.376797687454040187e-01,-7.436799636780396655e-03,4.868349243184620125e-03,1.015481980128877214e-02,9.487475156784057617e-01
-4.469142367190567233e-01,-4.344132223043530305e-01,5.308012740515439809e-01,-1.239855933603746171e-03,-1.400621282962625450e-03,-2.360082217865916172e-03,9.715393185615539551e-01
-4.295991655296107492e-01,-4.444670251769456959e-01,5.396452356421364005e-01,1.989563219575146875e-03,2.107303877196232966e-02,3.998813910289006866e-03,9.774755239486694336e-01
-4.439322642689465526e-01,-4.376062058381467446e-01,5.394523654610298147e-01,-1.691827025955299890e-03,-4.842120719455806016e-04,-3.514851083789688989e-03,9.802605509757995605e-01
-4.509766569984684503e-01,-4.333815134899897670e-01,5.318739900594504633e-01,-3.121181551343548723e-03,-1.579177007090201874e-03,-2.335821314680378621e-03,9.741994738578796387e-01
-4.408131941985786173e-01,-4.262808262914479784e-01,5.381489423558298846e-01,6.588038059568394889e-02,-1.918879888142812403e-03,1.124622444831963573e-02,9.786534309387207031e-01
-4.255112851298439858e-01,-4.370385916135758886e-01,4.819513943857161031e-01,3.867656872589840360e-03,-1.118265907872757672e-03,-1.417775613907421017e-02,9.136375784873962402e-01
-4.375234934269187081e-01,-4.373234182839686457e-01,5.157912835084840220e-01,6.401237620484592251e-03,-4.008204064879106014e-03,-6.190826757080318543e-03,9.533647894859313965e-01
-4.433138838199923715e-01,-4.287687085840804491e-01,5.018425615473640633e-01,8.780910735794185407e-03,1.584230969055556645e-02,2.966969825545860695e-03,9.385070204734802246e-01
-4.239922210036774497e-01,-4.371594208737852316e-01,4.815332052247612848e-01,4.970944619070346779e-03,-1.631009677061274338e-03,-1.466147631249093211e-02,9.125787019729614258e-01
-4.531506847608842148e-01,-4.035882487932181961e-01,5.402631443033348857e-01,-1.552394089307967961e-02,8.577116297895030338e-04,-1.458413384005309218e-02,9.702858924865722656e-01
-4.406877431055172822e-01,-4.394255897126334021e-01,5.476912585384394738e-01,3.197266142998807931e-03,-2.435272127720868214e-03,-5.992157015369286265e-03,9.878275990486145020e-01
-2.362883222224724800e-01,-5.716285990390496119e-01,5.917065375390513360e-01,-4.608266488498917457e-02,-1.144038057902171945e-01,1.250755087589680917e-02,1.059147477149963379e+00
-4.613670020492637858e-01,-4.424896403787272336e-01,5.552629096179502177e-01,-5.384234345240949959e-02,-2.791890678591391062e-02,3.818685880493118828e-02,1.014944076538085938e+00
-4.431397705324478520e-01,-4.369220881396811973e-01,5.294938034810456884e-01,6.514872799139818232e-03,-6.924012675478369641e-03,-3.680190171389663596e-03,9.697004556655883789e-01
-4.274732778852343706e-01,-4.922629766929372264e-01,4.897757187685418678e-01,5.165048910223250279e-03,-8.229163985730365838e-02,8.709326501630710801e-03,9.620785117149353027e-01
-4.407071158727099425e-01,-4.367911962459198327e-01,4.835590966163992865e-01,-9.236076508562653760e-04,-1.016019933029906931e-02,6.869749309897742531e-03,9.225604534149169922e-01
-4.297907138860589948e-01,-4.299347183687315388e-01,4.694507372745848617e-01,9.799824669127796956e-03,-2.651685163093114167e-02,2.699000889288550448e-02,9.018578529357910156e-01
-4.294455818116999501e-01,-4.369171189102374342e-01,4.900294831305731513e-01,8.724528282709212434e-03,-2.291219296137176481e-02,-4.773480122738552045e-03,9.242465496063232422e-01
-4.420010121575070894e-01,-4.268485008614718024e-01,4.825151393751037077e-01,-3.606829653776937733e-03,-2.196093087764564716e-02,-3.156760143328157277e-03,9.178598523139953613e-01
-4.220871586294495104e-01,-4.577109484548753104e-01,5.529889152412840181e-01,7.733612337825262507e-03,-1.655428825550250838e-02,-6.128579379251510289e-04,9.938717484474182129e-01
-3.950995755273771226e-01,-4.582653215069422137e-01,5.352651602975333489e-01,5.485638479829543779e-02,-7.068216982426480874e-03,-3.057245196622247231e-03,9.682671427726745605e-01
-3.270353262227289615e-01,-4.866273637160644094e-01,5.430290709763391233e-01,2.077301321955878424e-02,1.215165204597128124e-02,-4.800497666475921250e-03,9.608036875724792480e-01
-4.385742107486015340e-01,-4.383026049369492250e-01,5.243728848973331358e-01,-5.373113255154649687e-03,-6.811420338515268222e-03,2.925292864907445920e-03,9.629418849945068359e-01
-4.356940739722340861e-01,-4.301927766198482272e-01,4.901326335310318694e-01,-7.625239110152954268e-03,5.631054966125318556e-03,-1.049726638656965118e-02,9.234133958816528320e-01
-4.275811407152154686e-01,-4.178518015655889317e-01,4.421539977469496341e-01,-9.389786486136539670e-03,-1.794071659832786880e-02,2.576433807222956816e-03,8.656338453292846680e-01
-3.034078770631504218e-01,-5.043855031487625151e-01,5.427002712510353710e-01,-1.070937296751718788e-02,1.453890223920626182e-02,3.837882170412876444e-03,9.629964828491210938e-01
-3.384708959600983280e-01,-4.703614673997097984e-01,5.284361166747159055e-01,-7.115230006838481986e-04,1.250499633200643709e-02,5.863728032259396886e-03,9.401242136955261230e-01
-3.963862811972572175e-01,-4.640877651327238729e-01,5.474297382966796244e-01,-1.308915289485425987e-03,1.174999404190338326e-02,4.176351039322143653e-03,9.796640276908874512e-01
-3.072834960267874505e-01,-5.007375196231258485e-01,5.293612549323398753e-01,7.727320558112377689e-03,3.146256983391680639e-02,-1.235612154073692862e-02,9.501883983612060547e-01
-1.590727664739742253e-01,-6.162437805811145086e-01,5.180782502263600042e-01,3.515162938776223919e-03,1.244930970267789927e-01,-6.803988132767765928e-02,1.018593907356262207e+00
-3.555660443930299675e-01,-4.454881296600985974e-01,5.326889644576100480e-01,-1.257751993255870615e-02,-1.369576954130386631e-02,1.708089671290896269e-02,9.374802708625793457e-01
-3.962009579795436887e-01,-4.660491798970229360e-01,5.522891900127798737e-01,-2.377168025452790732e-03,5.345762730938628630e-03,5.243400793284326740e-03,9.853668808937072754e-01
-7.166008677501292667e-02,-6.086719995487726020e-01,6.013402835647910782e-01,1.559076001341303842e-02,-3.306870891889589908e-02,3.109270284064494607e-04,1.052012681961059570e+00
-4.396553442510460763e-01,-4.389847017221552017e-01,5.512056158987302945e-01,1.568117122224783628e-03,2.736451284030621059e-03,-4.281530416532773088e-04,9.905411601066589355e-01
-3.183403392804821652e-01,-5.663009018478410983e-01,1.250289288541585608e-01,-1.684961508304599342e-01,6.406073375037177331e-02,1.151037594251456131e-01,7.107951045036315918e-01
-3.368533849147155590e-01,-4.860891078164240042e-01,5.567364326414037112e-01,-1.968778474477310414e-02,-1.732444150228824864e-02,6.945461051045331152e-03,9.779251217842102051e-01
-4.758395762936409867e-01,-2.238258527050375479e-01,2.829831696514568118e-01,1.123786324480302162e-01,2.238145855628610043e-02,-3.405058828963612727e-02,7.006832957267761230e-01
-4.952510403336784495e-01,-4.428088463565751920e-01,5.732592397563451847e-01,7.429506151648654355e-02,-5.195633978852726154e-03,-3.084750966860904525e-02,1.052579879760742188e+00
-4.199053800124076807e-01,-4.288245285637760640e-01,4.498526560686683107e-01,-1.194776673167656207e-03,-2.557769654231925680e-03,-1.754289488014194875e-02,8.747932910919189453e-01
-5.623573050854047128e-01,-3.286987058705562736e-01,2.447708233485131890e-01,1.829983689273718128e-01,-4.330708464425294529e-02,-3.308520358914542048e-02,7.917293310165405273e-01
-2.241076420581912809e-01,-5.266891895489858033e-01,5.620539375466243603e-01,4.003604209919958690e-02,-3.704876582006878111e-02,-2.228101223585761143e-03,9.779698252677917480e-01
-4.081411434322408383e-01,-4.307649103629775933e-01,5.405192070248606706e-01,-7.421629659706833332e-03,-5.697366608972612503e-03,-5.357646199410166961e-03,9.603537321090698242e-01
-4.099854645791763397e-01,-4.293866416057283142e-01,5.520966780531224583e-01,-4.956036201144373848e-02,-2.553716835255181311e-02,1.842213748543318486e-02,9.772344827651977539e-01
-4.011983870017608589e-01,-4.455617892005586111e-01,5.183501745145445705e-01,-8.349412132495777870e-04,2.983589555004594832e-03,1.328440796728731126e-03,9.425317049026489258e-01
-4.110126519187234373e-01,-4.361434273891759417e-01,5.617986916347911253e-01,-4.883016326149773600e-02,1.055189868235698741e-02,-1.361106452323534652e-02,9.896888136863708496e-01
-4.402541275148834088e-01,-4.454064454136537066e-01,5.369650990383894040e-01,-9.446407885373584107e-04,4.051934651702349122e-02,-7.943060229790332213e-04,9.823181629180908203e-01
-4.307630067245760142e-01,-4.405677936005191753e-01,3.312789335583191663e-01,1.243377676818138190e-02,2.800874920930575968e-02,-3.021317160384916212e-03,7.688435316085815430e-01
-3.661536205822825685e-01,-4.597692153526047321e-01,4.739007431880829513e-01,-4.618613851686906996e-02,-1.918893844166498844e-02,2.590634307464592667e-02,8.958877921104431152e-01
-4.416154672637319645e-01,-4.420709682581887567e-01,5.520976463418915126e-01,-2.291904045717553864e-03,-2.882416512219846891e-03,-7.833692369731267910e-04,9.939623475074768066e-01
-3.476806105293950844e-01,-4.736880729592201633e-01,5.560230442288242036e-01,-5.907035749317374879e-02,-3.461702524778657170e-02,-4.935323860596537750e-03,9.800854921340942383e-01
-3.147667637581407218e-01,-4.792258580011545810e-01,5.412599849889978554e-01,-9.673096434815493458e-03,1.701421659029201533e-02,-1.122967846572511114e-02,9.498091340065002441e-01
-4.218804993919376134e-01,-3.654650616758455262e-01,5.330723432653415861e-01,-3.911155005192507722e-02,2.755812577366214145e-03,-3.157054807964863700e-03,9.305295944213867188e-01
-4.540839100775168058e-01,-4.137611322472990460e-01,6.047534365961692027e-01,-3.183379882991637100e-01,4.662514928833756678e-02,-7.056580678767331027e-02,1.185556769371032715e+00
-2.694231916647470415e-01,-5.087090419897364324e-01,5.435370259096650170e-01,5.850593196799772772e-02,1.098374488004060477e-02,-1.569874729885252507e-02,9.612814188003540039e-01
-2.806870295076897559e-01,-4.964349005933831882e-01,5.380164656670897161e-01,-1.745693677151138878e-02,-1.118553746114773692e-02,6.521830403709608440e-03,9.459774494171142578e-01
-4.960420652379756712e-01,-4.030620812711463996e-01,8.120474079291617464e-01,-3.073563368799133722e-01,1.275845441476740685e-02,2.328597046652231342e-02,1.372456192970275879e+00
-1.936540299667662002e-01,-5.901651604716060540e-01,5.417582731653753925e-01,-8.815685284840880931e-02,-3.614933504039843926e-02,-2.823589141619221865e-02,1.009593248367309570e+00
-3.072901056115676655e-01,-5.521897263668975597e-01,5.808153510502629402e-01,-1.013312344758185088e-02,7.618736074058879426e-02,3.086780493409557041e-02,1.042489290237426758e+00
-4.613501586344986305e-01,-2.238280124288171413e-01,3.976571974331308823e-01,1.309759616221088108e-01,4.706897995173466021e-03,5.673202290941034565e-02,8.071327209472656250e-01
-4.353933854217926225e-01,-4.344671479265256875e-01,5.301926462248515159e-01,1.599575107104886157e-03,5.343645633648743017e-03,3.045389550562971424e-03,9.651859998703002930e-01
-4.300601818970797297e-01,-4.762883537195330419e-01,5.319880350451673401e-01,2.773147915067327718e-01,1.109772275874522096e-01,4.002560275265341916e-02,1.115621805191040039e+00
-5.982736356525234500e-01,-2.906855119777811414e-01,4.501224991727251767e-01,5.623866551133015201e-02,4.501546536627839407e-02,4.034313649688222453e-02,9.443097710609436035e-01
-4.598375004911963715e-01,-3.962623871788306107e-01,5.492121046773293935e-01,1.733422391209320929e-02,-8.353826752187131985e-03,1.119455369637348437e-02,9.795709252357482910e-01
-4.394778157782872063e-01,-3.398895990642106235e-01,5.279083307447889339e-01,2.981953489099235452e-02,6.240959741922330346e-04,3.230770986616794335e-03,9.230999946594238281e-01
-3.673197109397834392e-01,-5.308661315605059938e-01,5.767020710689191310e-01,2.577642241164422240e-02,7.652252079438566848e-03,-8.479277565334914640e-03,1.036677718162536621e+00
-4.223159555706749724e-01,-4.026917399275560805e-01,5.423500659285994674e-01,3.172199044750668995e-02,-1.530422364556684872e-02,-1.694731626708222139e-02,9.574016928672790527e-01
-3.773790436658524539e-01,-5.584418683238854264e-01,5.962111852154902136e-01,4.595941392870062786e-02,2.160140105820339274e-02,-1.864645265552054149e-02,1.079686284065246582e+00
-1.771625113918172123e-01,-5.586971643105944629e-01,3.818742086316979645e-01,1.012008363980583386e-01,4.377695585890484936e-02,4.923902328868461770e-02,8.456537127494812012e-01
-3.889006820590680813e-01,-3.868245248258203040e-01,3.049379112467245356e-01,7.316233638960962377e-04,-1.073131550425124705e-03,-3.293285539046592048e-03,6.928299665451049805e-01
-4.415099110139533711e-01,-4.407278764150920347e-01,5.327280703485207658e-01,5.622502371456276904e-03,5.364331067444814451e-03,-1.618315785972983690e-03,9.739442467689514160e-01
-4.281558848369557690e-01,-4.345950498546040652e-01,4.862969082129516840e-01,4.887147635132401205e-03,1.553061620617724251e-02,6.798909472519451200e-03,9.181980490684509277e-01
-3.988552710585483441e-01,-4.673351245673620369e-01,5.594302989589374775e-01,1.255153063910081392e-02,-6.199212551422255899e-03,1.424320835860091658e-02,9.948972463607788086e-01
-4.805830513468821175e-01,-3.745383577604264325e-01,5.035676762817027363e-01,-8.888490959864988467e-03,6.321817253897141567e-03,1.262408426201939646e-02,9.360924959182739258e-01
-3.878948260975484397e-01,-4.943252080904921297e-01,5.749107171609335598e-01,1.186579382707062327e-02,1.107350479870836471e-02,-5.734455023222704423e-03,1.020628571510314941e+00
-3.852964898152069217e-01,-3.965104401408667267e-01,3.138993475012346046e-01,8.614889192260704459e-03,-1.003421572301595004e-03,-5.637721540716769675e-02,7.117599248886108398e-01
-5.598678797720753053e-01,-1.381485554361864265e-01,4.796203915475253376e-01,-1.114475011846736696e-01,-6.652412430639243791e-03,-4.656610844172935637e-02,9.294677972793579102e-01
-4.002955142054434035e-01,-3.998856380786113274e-01,3.369265714185422089e-01,8.115191226618127807e-03,1.715565839191981676e-02,-1.485303886861306585e-02,7.381983399391174316e-01
-4.214617462763111666e-01,-4.354285319412612987e-01,4.754627199214606081e-01,7.685088887668181656e-03,1.887520227388091165e-02,-2.067065139134047561e-02,9.053858518600463867e-01
-4.160135783403017817e-01,-3.629874207943786235e-01,5.458647380752599254e-01,6.562198191452919827e-02,-8.367945296507242267e-03,-2.103445368962009870e-02,9.441785216331481934e-01
-3.400302012603768076e-01,-4.631205166016106323e-01,5.613316529274235966e-01,6.089398522188848445e-02,-1.231510955793803722e-02,-2.603568732752346154e-02,9.757900238037109375e-01
-4.562155665840629259e-01,-3.184447508914847735e-01,5.293031580196873032e-01,2.773154637161712871e-02,-8.910779435260951162e-03,-2.408081614021382200e-03,9.257510304450988770e-01
-3.244245255976260234e-01,-4.565475070906040989e-01,5.260327057794589312e-01,2.070663854317997959e-02,1.102579541674582331e-02,1.014143625348469871e-02,9.246937036514282227e-01
-4.196353472651317973e-01,-3.428078806637253617e-01,5.238037508709304513e-01,2.168351966922427154e-02,-6.626242626678666495e-03,-1.014787216026528417e-02,9.084872007369995117e-01
-4.002730561078450267e-01,-3.650491373652373084e-01,5.214385576828243218e-01,6.149351074386336796e-02,5.174950443606804278e-03,7.301208090519172023e-03,9.109947085380554199e-01
-2.444132536773305775e-01,-5.179338844971180800e-01,5.919230116074023496e-01,-7.547336956776801165e-02,3.068207493130205299e-02,1.288708319986222803e-03,1.011407375335693359e+00
-3.735734031189827387e-01,-5.013643946244559224e-01,5.620025119410403391e-01,-1.004777458520410803e-02,-3.215846651600011430e-02,-7.427197633602484680e-03,1.007353901863098145e+00
-4.301797193680885201e-01,-4.393074404722865367e-01,5.087283474827053453e-01,2.721159207472550979e-04,-3.912280162910262288e-03,-1.106657854305762370e-02,9.437241554260253906e-01
-3.951058725911302250e-01,-4.849633584886387516e-01,5.689727362441774350e-01,1.695546539501533931e-02,-1.718960604002643319e-02,-1.749770926891772854e-02,1.013320803642272949e+00
-4.216203866264217059e-01,-4.451022633500662518e-01,4.659352442114986781e-01,8.707274812691189608e-03,-3.128427652539105680e-02,-1.619814735119275151e-02,9.017198085784912109e-01
-4.288967827881100536e-01,-4.435628407057088940e-01,5.215951407641069570e-01,1.680893539971995646e-03,1.310144923949269373e-03,-4.835024688429031062e-03,9.579528570175170898e-01
-4.383361119628140790e-01,-4.403688924630154156e-01,5.403765980742648578e-01,4.278618385681880079e-04,-6.385746182598581525e-03,-2.076083188598484754e-03,9.797999858856201172e-01
-5.024351498954068296e-01,-3.288263019532480791e-01,5.437431293356730366e-01,5.474121433143423233e-03,1.574912263589727315e-02,5.617977065261253733e-02,9.763737320899963379e-01
-4.517767272709884985e-01,-4.317069849342296539e-01,5.309391252083699442e-01,-2.607873262995399750e-05,-4.796620848393918189e-03,3.383824781963677849e-04,9.728718996047973633e-01
-4.123250613139214926e-01,-4.488732153751846532e-01,5.365830278425189892e-01,-2.818654012569423231e-03,4.891769042096267249e-03,-3.960213426010639713e-03,9.677736759185791016e-01
-4.456765588240322873e-01,-4.335098305054564394e-01,5.239425515003715006e-01,3.412461469641964087e-03,-6.349887329596744234e-03,-1.632229597439179957e-03,9.636784195899963379e-01
-2.412730244765044496e-01,-5.733649176442420226e-01,6.165101809864790283e-01,-6.486126227409283462e-02,2.822520574228404300e-02,3.147254520202422742e-03,1.070504784584045410e+00
-4.204632207345066486e-01,-4.394058346099154466e-01,4.745709209539272777e-01,-2.540355619258165797e-03,-1.162565407467033808e-03,1.863320848458828449e-02,9.052426218986511230e-01
-4.269704134684204622e-01,-4.220553755862964662e-01,4.530538498554917970e-01,-1.185601556565573159e-02,2.581532729490434303e-02,-6.371492299562723019e-03,8.790246248245239258e-01
-4.229560237127221733e-01,-4.129949290566779507e-01,4.125442565784319671e-01,-1.810849172435587302e-03,4.545192699805748748e-02,1.106348714400005179e-02,8.345131278038024902e-01
-4.771723726036155022e-01,-3.318084456079000155e-01,5.433720578054788142e-01,-1.470741995700335959e-02,-1.791213392985445668e-03,1.723881892827310719e-02,9.569960236549377441e-01
-4.628946685515087922e-01,-3.556804350351059352e-01,5.376402190690873217e-01,5.836906936228971297e-03,-6.844559625247293236e-03,-2.282844316633976522e-02,9.524177312850952148e-01
-5.585912254416084410e-01,-2.936419200281440434e-01,5.367271658234419318e-01,-4.685570316763151832e-02,4.288663145574441241e-03,4.068479640003624595e-03,9.931806921958923340e-01
-4.259353448078255222e-01,-4.463143499140839743e-01,5.094713495189880925e-01,-1.780458936039848667e-03,-9.219428985097677040e-04,1.052171487350351924e-02,9.459428191184997559e-01
-4.505523656066335314e-01,-4.589032799390455053e-01,2.575715947496988179e-01,-3.583250964565090624e-02,-5.793328993574495267e-02,5.920244933216445293e-02,7.292861342430114746e-01
-4.089838661259259656e-01,-3.599399975789587813e-01,1.030421159385402907e-01,-2.230596012496527739e-02,1.019282439087167563e-01,9.088859810167432274e-02,5.448918938636779785e-01
-4.476497388220674334e-01,-4.622220561226800251e-01,4.056260699796196967e-01,-1.347654283937371050e-02,2.869461576845086515e-02,4.385521111613634171e-02,8.657430410385131836e-01
-4.113002138922470796e-01,-4.028696799451325639e-01,3.619178502292190736e-01,-1.055245408018146147e-02,6.247640833722001297e-02,-3.377159006415775266e-03,7.768505811691284180e-01
-3.868373953950111077e-01,-3.582010758743404688e-01,1.170439738070211400e-02,-3.802825539303636426e-02,-1.166500548495567058e-01,-7.231142686032511480e-03,4.399543702602386475e-01
-3.842446467985418668e-01,-5.228631137924391048e-01,3.051119180620694982e-01,1.765480934860663431e-01,-2.617221767638221175e-02,-9.427246377439170433e-02,8.439251184463500977e-01
-4.019022707413356099e-01,-3.944839735518255730e-01,3.407708519976924144e-01,1.992390742451110165e-04,-2.943681565241996340e-02,-2.475859488707332374e-03,7.407611608505249023e-01
-4.295995790790691493e-01,-4.283943145952794906e-01,4.946788741366057174e-01,6.291767040906612709e-04,-1.027208841671929315e-02,1.917105398318546660e-03,9.238543510437011719e-01
-4.274621161681252390e-01,-4.386528581063301457e-01,4.888155646493096418e-01,4.185815431005089106e-03,-6.133821033877548574e-03,-1.149453086788076138e-02,9.222286343574523926e-01
-4.140113039470826317e-01,-4.147411047839802967e-01,4.026894130304393693e-01,-4.556745887225104215e-03,3.558350504208512670e-03,-2.105914056469505163e-02,8.179409503936767578e-01
-3.834349067305567460e-01,-3.786524503718254886e-01,2.451127201196048322e-01,-1.334004989965840819e-03,-1.557171241703804790e-02,-1.531144555895861195e-02,6.273157596588134766e-01
-3.800283144457732853e-01,-3.844407544249254238e-01,2.739128294655797102e-01,9.204430045412789405e-03,2.886488614674717623e-02,2.796283192618869567e-02,6.600329279899597168e-01
-5.023460194115662025e-01,-2.566589954831175469e-01,2.306223712138959492e-01,8.040606516231399437e-02,9.316278240631117868e-02,5.607597729832164424e-02,6.873069405555725098e-01
-4.062237044805108166e-01,-2.846544992550962272e-01,3.672464852259688106e-01,-2.292153612761222981e-01,-4.196548249317837154e-02,9.648657060510398842e-02,8.425178527832031250e-01
-5.381940297717238142e-01,-4.456446970971523758e-01,4.103441640595461015e-01,-2.529795212302001772e-01,4.033973743600658551e-02,1.037003171350299735e-01,1.024520635604858398e+00
-4.366462946031383630e-01,-4.335588027864601401e-01,4.993464030403773624e-01,-6.679926898747739518e-03,1.191289793472689353e-02,4.716578185928898062e-03,9.347878694534301758e-01
-4.309467050290187173e-01,-4.466642235175364295e-01,5.134360256848574666e-01,-4.560777505198223766e-03,3.867405031073059031e-03,-2.517608956112653631e-03,9.524050951004028320e-01
-4.266884917912803776e-01,-4.393576403403189334e-01,4.801657040919685704e-01,-3.744274777838447425e-03,3.112690024879436607e-03,1.840290306777732018e-02,9.138496518135070801e-01
-3.436641486049739069e-01,-4.647510612999271595e-01,3.646609897994022020e-01,8.291240516299462626e-02,3.253462105424944489e-02,-4.256207340403852374e-02,7.945998907089233398e-01
-4.351981892622561743e-01,-4.267525481665469522e-01,5.477297444365782919e-01,1.673253449682137210e-03,-2.510375910354406461e-03,-3.131007529851847181e-03,9.787614345550537109e-01
-4.346642408617648057e-01,-4.487970172432143023e-01,5.332928199070259279e-01,-1.951523293980243941e-03,-2.532390244878249871e-03,5.674817115701726380e-03,9.751655459403991699e-01
-5.585455218010784151e-01,-1.350792861382518195e-01,5.237001961129010841e-01,-1.362881482993944515e-01,2.346288344327589898e-02,-8.192016198185149423e-02,9.847804903984069824e-01
-4.379974158457257682e-01,-4.383181680387821522e-01,5.392029246376391916e-01,7.895916620775236881e-05,-1.788398211902499525e-03,2.049431797511817865e-04,9.773657321929931641e-01
-4.390540537559045609e-01,-4.408933832379396955e-01,5.403679512666700324e-01,-1.189355995521237507e-03,-1.921032541561222984e-03,-1.955046887670071343e-03,9.803566336631774902e-01
-4.341301272883883455e-01,-4.456759710669164209e-01,5.328478747817122496e-01,-4.124101448983462197e-03,3.117511139854039511e-05,2.224391685153195505e-03,9.728361964225769043e-01
-4.453530423221601642e-01,-4.296915325716382239e-01,5.045243022704297697e-01,-2.384361262524421245e-03,-3.196949743090500735e-03,-6.155978610974092817e-03,9.422298669815063477e-01
-4.189450676281760710e-01,-4.406967681049969165e-01,5.110119765576477402e-01,4.193429501479971518e-03,2.354349716186860189e-03,-3.086843171735284986e-03,9.410735368728637695e-01
-4.434641086611463834e-01,-4.245410052734477913e-01,4.870587937566063230e-01,-6.056489118850273343e-03,2.041831127535065002e-02,1.284374333975876400e-02,9.222137928009033203e-01
-3.606349443133989308e-01,-4.207996371710922001e-01,5.219570575751929509e-01,-1.563871121854280843e-02,5.338203911647887087e-03,-6.821587430457031614e-03,9.146847128868103027e-01
-4.443117782159051177e-01,-4.381700272726897216e-01,5.365190571224975891e-01,6.708973895807835916e-04,2.879114955140839576e-03,4.321995643713018136e-03,9.778164625167846680e-01
-4.419001099516394748e-01,-4.325549529915400648e-01,5.113981806518527184e-01,-4.053142175907194222e-03,9.203965136499694943e-03,6.474888713152637462e-03,9.488863945007324219e-01
-4.487492264007372222e-01,-4.338223282659239288e-01,5.288377514296949133e-01,-9.034914911496543400e-04,-1.516217960754329434e-03,6.807630781749644680e-04,9.702152013778686523e-01
-4.363780542035783361e-01,-4.419450399758593218e-01,5.412066538086919287e-01,5.736182286210050711e-04,5.951404934927254087e-03,7.879587410899993247e-04,9.804356694221496582e-01
-4.405529516173374294e-01,-4.361126067580713972e-01,5.093129067051112013e-01,-8.736359118712445221e-03,1.324619442695382926e-02,9.484946041880463682e-03,9.481942653656005859e-01
-4.442187965828948704e-01,-4.331107811531638152e-01,5.205591018172520679e-01,-2.450395151512864064e-03,6.897132411106345409e-03,8.575712106795399005e-04,9.593570232391357422e-01
-4.469609609806096118e-01,-4.355798986317444554e-01,5.390140008753884215e-01,-1.890708681258646343e-03,5.581982770244905273e-03,-3.602943922495873037e-03,9.804069995880126953e-01
-4.467620109440537113e-01,-4.358316799045964807e-01,5.363060926276381757e-01,-1.586251412285046925e-03,-8.850236029976526510e-04,1.285825446582985641e-03,9.776563644409179688e-01
-4.024220411432098410e-01,-4.024118397317426044e-01,3.552383607684763689e-01,-2.694591294677985225e-03,-3.002013142622282030e-03,3.176659917494621677e-02,7.596826553344726562e-01
-3.417099519592601831e-01,-4.813606772210771156e-01,4.745747697085509476e-01,6.830111537274872850e-03,4.646004726254044509e-02,-1.459681060975656641e-02,8.983721733093261719e-01
-2.786419929027296738e-01,-5.212024581516285782e-01,3.562235134073902243e-01,6.244144562185038189e-02,-3.572569274074816059e-02,-1.827508901319254211e-02,7.952426075935363770e-01
-4.249182565614892937e-01,-4.220969049146124363e-01,4.474076231563565154e-01,8.239646736133528909e-03,-2.569053122518117488e-02,-3.187803545276741632e-03,8.721888661384582520e-01
-3.979537627337143002e-01,-4.119392005192771822e-01,3.757380191499040123e-01,4.585172501642561897e-03,-6.931577189543559672e-06,-1.802452015216535891e-03,7.808250784873962402e-01
-4.232823427287190632e-01,-4.187224045573453290e-01,4.298472840492296720e-01,5.626339743330240409e-03,-2.068711666675722427e-02,1.181894111640786026e-02,8.519147038459777832e-01
-4.312751944749081412e-01,-4.330356434119632114e-01,4.845766900087704609e-01,8.109736865789456822e-03,-1.650724464933904859e-02,-3.079297297158820057e-03,9.173021912574768066e-01
-4.036849280449870681e-01,-3.923669218501277256e-01,3.428976803665521045e-01,-3.893512028518182622e-04,-3.661840155707633132e-02,3.979587430466725341e-03,7.437301874160766602e-01
-4.200452948366780181e-01,-4.339058948770408985e-01,4.575287912855375838e-01,-1.201023058019048614e-03,6.855888115843004112e-04,-3.576195964256884303e-03,8.846107721328735352e-01
-4.351569313056690147e-01,-4.229787986796454402e-01,4.650507840222477540e-01,9.175916778242063782e-03,-1.801381238526177445e-02,1.715324439732660369e-02,8.953592181205749512e-01
-4.278838161218222469e-01,-4.370324006909024339e-01,4.906456829397021213e-01,5.739098803009463380e-03,1.943756243290201829e-03,1.169352319688102791e-02,9.234195947647094727e-01
-4.424823155506276695e-01,-4.169868378861009139e-01,4.793987546361164753e-01,-7.780534710475214225e-04,-6.130375351220736929e-03,2.868243435161960120e-02,9.108202457427978516e-01
-7.634411268750478374e-01,-1.303536631975531768e-01,5.952834533612354484e-01,8.770987658666055953e-02,1.656622336266881310e-02,-4.273311106070377952e-02,1.190008997917175293e+00
-4.054655181087534754e-01,-3.940290041013775890e-01,5.263625655956637450e-01,1.388634482850351591e-02,1.071696895752545509e-03,3.607768256667995797e-03,9.264979958534240723e-01
-4.332107305504341865e-01,-4.261182531507398674e-01,5.459299344945790500e-01,2.595673296218516894e-03,4.814783715379846937e-03,6.078761278751130051e-03,9.757165908813476562e-01
-2.020689808556098976e-01,-5.594192063019673977e-01,3.639329212542631309e-01,-8.689921704398900770e-02,1.431818102121618086e-02,2.878473583090358778e-02,8.222368359565734863e-01
-4.316097907988306059e-01,-4.472718570159119889e-01,5.423715804275934804e-01,2.323416996991761253e-04,1.738919110605606846e-02,-6.685989079995837900e-03,9.824362397193908691e-01
-3.330771523618178409e-01,-4.476252791019906252e-01,5.250417523099607520e-01,-8.436163914567640365e-02,-2.511480153132119794e-03,-1.857653681540824206e-02,9.328398108482360840e-01
-2.755335666446922516e-01,-4.973253195273961702e-01,3.123231505849349832e-01,-1.928728186023912980e-02,1.662692588991935838e-01,-1.038114417314897620e-02,7.807205319404602051e-01
-4.400247130616728453e-01,-4.352343679202000382e-01,5.273970103973517620e-01,-4.243524690500780940e-04,-2.879185311087468970e-03,-1.606901195528505268e-03,9.650526642799377441e-01
-3.984150119059864381e-01,-4.103945142815297875e-01,3.759542066877640254e-01,-4.714679646088832114e-04,-1.196859531314219648e-02,5.067739513563677620e-03,7.807529568672180176e-01
-4.381262358053258921e-01,-4.395806399579882950e-01,5.462061657181397356e-01,8.217856798843939077e-04,-4.533532750410399458e-03,-1.814861746076713508e-03,9.850977659225463867e-01
-3.796121881460378655e-01,-4.268246740459707977e-01,5.327914709272206784e-01,-1.211997196131115416e-02,-4.558237746805355976e-03,-5.941109728551064936e-03,9.372274279594421387e-01
-4.126274559801935138e-01,-4.457370387436681014e-01,5.423276829814412947e-01,5.238200673880296331e-03,4.786479794218860551e-03,3.242031316593582332e-03,9.720268845558166504e-01
-4.460806773799997904e-01,-4.359036780053324733e-01,5.301545172409604101e-01,-7.727147486626381734e-03,-5.573830812904004631e-03,5.022125371745977430e-03,9.713658094406127930e-01
-4.051808631649781445e-01,-4.472530280413844483e-01,5.446604730071531453e-01,5.068914998307897171e-03,-6.794488048958052459e-03,4.724552970043871536e-03,9.717062711715698242e-01
-4.363546071917628333e-01,-4.454843681030214442e-01,5.410979682771472898e-01,7.100588830242512235e-04,-2.968350308643727571e-03,-5.153709003181274062e-03,9.821040630340576172e-01
-3.422110705335739134e-01,-4.818087078352707442e-01,5.346006389857531627e-01,4.013710167300160031e-03,1.988463904508615265e-02,8.672308113440142796e-03,9.550639986991882324e-01
-3.890554480337628518e-01,-4.668728564107793022e-01,5.461444694330521710e-01,4.945625064094297946e-03,-2.246966546611587137e-02,-9.446891780566670990e-03,9.773868322372436523e-01
-4.344499240903076931e-01,-4.442805144970145004e-01,5.374749001759062672e-01,2.279489137726391917e-03,-1.137229344504102520e-02,-3.922890347047613795e-03,9.771074056625366211e-01
-4.466677594440754406e-01,-4.338668473144384197e-01,5.290916349060087454e-01,-2.463046903020588412e-03,-7.658675416337254807e-03,1.989079418414649108e-04,9.695225358009338379e-01
-4.171967784960888270e-01,-4.243488889169446110e-01,4.508781650145800013e-01,8.049081384097726832e-02,-1.790499958486137938e-02,-9.767650686816542471e-02,8.993520140647888184e-01
-4.210621487361023707e-01,-4.115886215365731071e-01,4.143183399411239920e-01,2.883561872812998288e-03,-2.262209668810655910e-02,-1.414001935450621928e-03,8.316264152526855469e-01
-3.225247070241273883e-01,-4.967626461124342030e-01,4.981744644172099168e-01,2.509087984534237939e-02,-4.399483416257807776e-03,1.654417141393104557e-02,9.217758774757385254e-01
-4.367299566029556046e-01,-4.507161435395173332e-01,4.985012306153361328e-01,-8.728333664251228252e-02,-2.398327026632897374e-02,8.744717198374106493e-02,9.671892523765563965e-01
-1.105281060597852472e-01,-5.952583411086002085e-01,5.274711618253278278e-01,6.427808987791566731e-02,-4.169253613742906345e-02,2.396914364831614214e-02,9.851890206336975098e-01
-4.019640799872631343e-01,-4.513508245864922830e-01,5.460568371257915610e-01,-7.901524651175295807e-04,-7.669334018153887989e-03,-4.221387690726568012e-03,9.737731814384460449e-01
-4.405212325681459040e-01,-4.147194453268528425e-01,5.364391014639223743e-01,-3.961391558353313108e-03,-7.473543909061951609e-03,6.135646509467122811e-03,9.644882082939147949e-01
-4.513523624363805498e-01,-4.343114719100383270e-01,5.926159546197121708e-01,-1.217447336797941315e-01,1.959017424802496007e-02,-1.436635670298676976e-02,1.057641625404357910e+00
-3.844001989139122499e-01,-4.050961325491295728e-01,5.348135981085245794e-01,-9.136437835971829291e-02,-2.605417404476342673e-03,1.134601093170918042e-02,9.433214068412780762e-01
-4.306311442966295200e-01,-4.212698806909519478e-01,5.299722501810776309e-01,-1.538263687963463758e-02,-1.184529357618539303e-03,8.254304720532188236e-04,9.563316106796264648e-01
-4.805528380052379034e-01,-4.165922333891723395e-01,5.713446837770127518e-01,-8.269310847151720156e-02,-1.790308537558057272e-02,1.405714845859303702e-02,1.032166719436645508e+00
-3.551927410118368433e-01,-4.877793449125624736e-01,7.110434440126360833e-01,3.123241744746334536e-01,6.461597494005126563e-02,5.949867751429346874e-03,1.265337347984313965e+00
-3.849839154590593004e-01,-4.259607497914070229e-01,5.343454403625237381e-01,9.614274760724208363e-03,5.981266048021724457e-03,-3.476699615431747860e-03,9.407112598419189453e-01
-3.507976855484661316e-01,-4.424479123129166913e-01,5.330823954287182698e-01,1.205112460063959348e-02,-1.185656180432314438e-02,-1.201258842280722959e-02,9.337782859802246094e-01
-3.287934224152250229e-01,-4.242334035220262090e-01,5.424969815916158566e-01,9.594425800850733821e-02,-1.391462603945205906e-02,-1.236631657105343590e-02,9.381189942359924316e-01
-2.629575117794014649e-01,-5.035258254914634080e-01,5.466852252599874173e-01,2.859341956412285793e-02,7.480188694639009969e-03,6.105527330990414246e-03,9.544115066528320312e-01
-2.814681500990083296e-01,-4.983103860243858207e-01,5.194548128187252978e-01,-3.129872712968064657e-02,-1.160296108151570582e-02,-2.894924186685094575e-03,9.303439855575561523e-01
-4.553120889916825731e-01,-3.779125677559628804e-01,5.386077115975236307e-01,1.220085206746175481e-02,8.429988164665476805e-03,-1.939619642032062996e-02,9.585023522377014160e-01
-4.563969729145736509e-01,-3.304432177625342693e-01,5.388461760890086438e-01,2.426740901782922788e-02,-9.362469435634138137e-03,-1.480832373575374089e-02,9.400565028190612793e-01
-4.247200885356527400e-01,-4.132991873845213715e-01,5.399028421105791509e-01,-9.147816016811893478e-03,1.044495651295031073e-02,-1.074917595956621265e-02,9.594456553459167480e-01
-4.509120499199172905e-01,-3.132416791127530797e-01,5.302788820686398230e-01,6.337151781548919227e-02,3.012000282989435625e-03,8.476670891206912473e-03,9.267677664756774902e-01
-4.062323374249345864e-01,-4.619096717909059180e-01,3.339178199229200228e-01,-3.921090043150773224e-03,-2.164970295184098087e-02,3.879494683817975159e-02,7.733687162399291992e-01
-6.675964700284060527e-01,-2.192013180092836078e-01,4.089032135873994500e-01,2.017753733134106109e-01,6.364241714589037591e-02,4.044687407137885493e-02,1.008172273635864258e+00
-4.319590528721228839e-01,-4.377539380000882163e-01,5.036224144901148003e-01,-4.648550721281043130e-03,1.211638363343508010e-02,1.720099717034348843e-02,9.392341375350952148e-01
-4.804284932970854238e-01,-3.525840332031895952e-01,5.728698083754213410e-01,2.939092680402659585e-01,1.207023989432924604e-01,5.773283811653039110e-02,1.141918420791625977e+00
-4.317195289056710572e-01,-4.372468254026948831e-01,5.239382001794876675e-01,-7.391338282190265630e-04,-6.311596423467437378e-03,-1.012457149427912779e-03,9.584981203079223633e-01
-4.345520080054151579e-01,-4.454046155749105673e-01,5.241114905722199513e-01,-5.531979297394112177e-03,1.999903060504971183e-03,-3.599360505833966092e-03,9.642096161842346191e-01
-4.182657965916680154e-01,-4.124546424197383376e-01,3.973640092555367209e-01,5.706630167402673834e-04,3.547170043317703775e-02,3.200422641367753687e-03,8.150781989097595215e-01
-2.919395749235633164e-01,-6.058384900867930245e-01,1.909291553682409548e-01,5.686351379824070018e-02,-4.899796519588304339e-03,-2.049969299523016208e-02,7.030646204948425293e-01
-4.348298377033497641e-01,-4.483855030955944954e-01,5.270224745531324473e-01,1.225193790513198593e-03,-3.507117765789722133e-03,1.213013650684166209e-02,9.689504504203796387e-01
-4.357425658431398063e-01,-4.328595780464691289e-01,5.347640036264303953e-01,-7.373623620099916884e-03,-1.720641937593459653e-02,-2.859397045833787353e-03,9.696232080459594727e-01
-4.177417033007176927e-01,-4.119285828530322990e-01,5.371239724133154425e-01,-1.149461731624892673e-02,5.871592957470647169e-04,-2.097523598988557548e-03,9.521880745887756348e-01
-4.400816889139756993e-01,-4.360037556692263894e-01,5.446711507919259621e-01,1.276814599234210893e-03,9.204750078191461810e-04,4.374389284264416922e-03,9.827532172203063965e-01
-3.786040270484248293e-01,-4.590921021608829200e-01,5.481828592642528086e-01,-5.491586830407090003e-03,1.074429548156795658e-02,-1.209938433453232147e-02,9.699915051460266113e-01
-3.858334813618678472e-01,-4.455803781983990741e-01,5.461011989063451200e-01,-6.725452453310377769e-03,1.092997488691805144e-02,-1.093372936980399265e-02,9.636414647102355957e-01
-5.813617846112714149e-01,-1.524163748386502815e-01,5.763754148175388448e-01,-1.021896485499573654e-01,-2.668779539945022317e-02,8.708460910567207905e-03,1.030260086059570312e+00
-4.168596146773748679e-01,-4.083271759204383233e-01,5.354999399005552219e-01,-3.766692252894038914e-03,8.790926964211767409e-04,-3.424854534145866172e-03,9.481643438339233398e-01
-4.300141336459240016e-01,-3.770593965532043623e-01,5.332673926341636728e-01,-1.147112551164274248e-02,-8.069088843234985611e-03,-4.294080875918451085e-03,9.382699728012084961e-01
-4.440665436075409978e-01,-3.840026473672938923e-01,5.437656522488250044e-01,-6.252200266148577427e-03,-9.890039068594763325e-03,1.149993850709024774e-02,9.596325159072875977e-01
-3.321480664906992786e-01,-4.440440532269589458e-01,5.289749064364701603e-01,1.337158254967017040e-02,-4.193057368701161650e-03,-3.966859551855383970e-03,9.225215911865234375e-01
-3.555111277372732803e-01,-4.506523371882512619e-01,5.552831325976075316e-01,7.443789279203699705e-02,-2.540837852727903523e-02,-1.549296676631194136e-02,9.718703627586364746e-01
-3.857177728982755238e-01,-4.146142330703672108e-01,5.294699554333369695e-01,5.353259017771601000e-03,-6.065171563522461610e-03,-3.811866289439391417e-03,9.301016926765441895e-01
-2.172626896898298132e-01,-6.147120815491741164e-01,6.627187369605289646e-01,6.490142223528294618e-02,1.124236741007719840e-03,-4.650738407812576424e-04,1.137858748435974121e+00
-3.476339597809519066e-01,-4.118713061962857580e-01,5.192502112213346344e-01,6.397116387926929382e-02,7.288066194041726426e-03,7.122669248469222503e-03,9.076835513114929199e-01
-3.359976618572106943e-01,-3.712161658484359750e-01,5.237639696410401058e-01,2.371216104447328443e-01,9.293117756314847600e-03,4.575521624698150602e-02,9.725891351699829102e-01
-4.388412252670097491e-01,-4.412760748099913699e-01,5.471692690316255492e-01,-1.153726695847963769e-03,-1.719305534946528446e-03,-1.997217349082574828e-03,9.872427582740783691e-01
-4.354137654390443091e-01,-4.368781029835309693e-01,5.422557093737717659e-01,-6.597573863044810987e-04,2.704914989726958478e-03,5.339142527076503816e-03,9.784580469131469727e-01
-4.455421618105273041e-01,-4.363289625932849081e-01,5.387790515599087948e-01,-2.436342033483102337e-03,2.039707403732800642e-03,3.853392335794962988e-04,9.797627925872802734e-01
-4.436528480101187832e-01,-4.404308359961464081e-01,5.478109286951750034e-01,-2.672524257027905810e-03,1.746985664114428759e-03,-1.510901662670328753e-04,9.898721575736999512e-01
-4.044865565464225154e-01,-4.486810728733599540e-01,5.363923775992577303e-01,8.301302519639050526e-03,-5.619139053105590663e-03,-4.923885070405383153e-03,9.639306068420410156e-01
-4.388073673810719000e-01,-4.316707254624050916e-01,5.245858965384051498e-01,8.154202529686197616e-04,-8.072550428296627716e-04,1.666734025166146955e-03,9.598512649536132812e-01
-4.475733442269070328e-01,-4.061819186925615388e-01,5.335056733078448188e-01,1.273286721311558435e-02,-1.509851230517458148e-02,-1.170806253241708263e-02,9.618744850158691406e-01
-4.697650325451754316e-01,-4.145599331306872859e-01,5.548634786141988240e-01,2.705341111932502152e-02,-2.703895655829897937e-02,-4.594365992331142165e-03,1.000399351119995117e+00
-4.313173167183058099e-01,-4.462011259640433769e-01,5.154268578626259867e-01,-4.196894018611754124e-03,-2.322003113100801729e-03,8.401369087825618850e-03,9.544202089309692383e-01
-4.437381665089809024e-01,-4.384190033188650193e-01,5.433341669338586089e-01,3.278403296939097922e-03,-3.721428648864586776e-03,3.835512304818280982e-03,9.844834208488464355e-01
-4.321781626067683901e-01,-4.440094997179950265e-01,5.184845731194913654e-01,-4.265900196530102509e-03,3.993554847370362967e-03,6.848204003241376014e-03,9.567603468894958496e-01
-3.743195433528367366e-01,-4.524051283093160625e-01,5.391306713768860837e-01,-1.002684645490866354e-02,1.372172762575673069e-02,-7.468552363245391928e-03,9.554316997528076172e-01
-4.195858569889887590e-01,-3.818705178801639066e-01,5.290553210488705416e-01,-3.608346181437287886e-02,-7.977518437042089433e-03,2.977704076291267862e-03,9.325705170631408691e-01
-4.054559198224659822e-01,-3.973179041413488211e-01,5.284137259504131379e-01,-1.302805974411784355e-02,5.389777299082884436e-03,1.183413801919101132e-03,9.301502108573913574e-01
-4.080027000812355142e-01,-4.123164261242938666e-01,5.350194539421911921e-01,-5.807605898821207105e-03,4.656892985665560605e-03,-2.509067418607009541e-03,9.452843070030212402e-01
-4.345611882281963378e-01,-4.394200656126960869e-01,5.523456679272682468e-01,-1.843593583330855549e-03,-1.058980777238521537e-03,1.661195976378159172e-03,9.893562793731689453e-01
-4.067354238522895016e-01,-4.115152814055939023e-01,5.359007718473424164e-01,-1.175156228247645554e-02,9.120686188246815082e-03,-5.221195629702526757e-03,9.454296231269836426e-01
-4.184329140109980250e-01,-4.299102093179889561e-01,5.439980397084692720e-01,-4.541966054227455571e-03,-1.287343823480890720e-03,2.412906168468431298e-03,9.682641625404357910e-01
-4.295794167247253270e-01,-4.274385201316138749e-01,5.459537293888486742e-01,-2.030178892272639993e-03,2.878686743221463198e-03,-4.207987118003339577e-03,9.745107889175415039e-01
-4.070528530578200743e-01,-4.120699622876295987e-01,5.361846006094902473e-01,-6.111993384469242493e-03,9.200372383908580337e-03,-6.916288470351932352e-03,9.460253119468688965e-01
-4.201853715657370425e-01,-4.301106352595317484e-01,5.441991833556540925e-01,-1.978907050721431631e-03,6.584109165579650133e-03,-5.372780659463146161e-03,9.695031046867370605e-01
-4.376935031257638831e-01,-4.391740711769279160e-01,5.473293977098417917e-01,7.667759546777229733e-05,3.486062070833615724e-03,2.578360315350065966e-04,9.857826232910156250e-01
-4.202605236834974223e-01,-4.110522960209134213e-01,5.386798178806598836e-01,-7.184286972581515121e-03,1.689370953955840905e-03,-2.464343102459936718e-03,9.544646739959716797e-01
-3.953094846389439976e-01,-4.251553819660170430e-01,5.379736167232639366e-01,-1.166857926308732807e-02,1.384619459926324930e-02,-9.106214658002646789e-03,9.492076635360717773e-01
-3.056508986264263039e-01,-4.592348094707929262e-01,5.289403847057935204e-01,-3.189908712165978599e-02,-1.481531006604001974e-03,-2.335364117817584936e-04,9.226970672607421875e-01
-8.023484576109415900e-02,-6.800538223713210595e-01,6.882822488768531866e-01,2.416612685883830908e-03,-9.238997090237446863e-02,3.501042506415225075e-02,1.200281143188476562e+00
-3.261682345477261991e-01,-4.496066841844429396e-01,5.276754687778202335e-01,-2.322974497979577169e-01,-4.557375077324368057e-03,1.994543799327224906e-02,1.006392240524291992e+00
-9.378471579794800395e-02,-6.991037207249515273e-01,7.035944757667024207e-01,-1.747506896873213256e-01,-3.579699604350790321e-02,-7.707487419638413273e-03,1.257191061973571777e+00
-3.437012523491391192e-01,-4.921387750425281760e-01,5.556067427774883383e-01,-1.666437728810536353e-02,-1.439965336367591414e-02,-9.065065794006016073e-03,9.828434586524963379e-01
-3.978007736617342194e-01,-3.173198805411762136e-01,6.191953583892324531e-01,-2.418459740859843499e-01,-3.263050646548118494e-02,7.965646948362589685e-02,1.075456976890563965e+00
-2.977486503579722665e-01,-4.892866885167244662e-01,5.846867673260620624e-01,-7.472207664119076553e-02,1.225272792000483071e-02,2.670787718000917389e-04,1.000799536705017090e+00
-4.295369871510019699e-01,-3.958600170897817461e-01,5.435305690894286501e-01,-2.629991472019431800e-02,-1.356612620780515283e-02,1.067129029989159240e-02,9.582241177558898926e-01
-3.605777822745765415e-01,-4.091207331232625810e-01,5.499602856749004065e-01,-6.777922207973721691e-02,7.372155921255119093e-03,-7.504592329028699285e-03,9.432657361030578613e-01
-4.032017534602311826e-01,-4.240327945155997202e-01,5.469452323293624296e-01,-1.984287150672924341e-02,-1.024520014625099340e-02,1.139731212074242966e-02,9.617128372192382812e-01
-4.363432478636778411e-01,-3.956146643795194762e-01,6.517074892725577273e-01,-1.631123281420154003e-01,1.878756776592000431e-03,-2.172367996561405321e-02,1.105640888214111328e+00
-4.404527465879090053e-01,-4.416249853090766786e-01,5.483696305688479100e-01,3.936213504360567238e-03,1.785330274634651729e-03,-3.394768737223201154e-03,9.894548058509826660e-01
-4.049142373276870543e-01,-4.600323674275869079e-01,6.405540460560460447e-01,-1.555639511345220938e-01,-1.074169576190850059e-02,1.777876208917339006e-03,1.107529759407043457e+00
-3.038198081720672183e-01,-4.496274499572865957e-01,3.483103855355781375e-01,-1.714260444921249238e-01,-4.667578195906382094e-02,-5.111867082968445802e-02,8.025927543640136719e-01
-4.118441680334588018e-01,-4.236662208942970631e-01,4.102352202809445014e-01,6.263722490332514388e-03,2.893084170012768380e-02,-2.324489751060635281e-02,8.306158185005187988e-01
-3.785100466585573642e-01,-4.556595530504131131e-01,3.888053214993639761e-01,-2.381256685343570989e-01,2.910726981518489687e-02,-4.802324019576599545e-02,9.129593968391418457e-01
-2.768171651800374611e-01,-5.217294870185972266e-01,3.833972856482144032e-01,8.891775469595196435e-02,1.067772172441722733e-01,1.163605243706160586e-01,8.695414662361145020e-01
-4.402737276182016046e-01,-4.400716858402498599e-01,5.503635460561174808e-01,-3.596250049757643481e-04,1.092586488586252123e-04,2.517220115868170228e-03,9.905461072921752930e-01
-3.965773538299365297e-01,-4.546240792434284583e-01,5.277141925785827636e-01,-4.925333816886361127e-02,9.209257060888538515e-02,-2.759474887159588802e-02,9.728009104728698730e-01
-4.256918804578032622e-01,-4.303669950976713454e-01,4.894611700765907347e-01,-1.566660266291298575e-03,1.171356656547340759e-02,-3.123992461362593009e-03,9.177438020706176758e-01
-4.340549699153677943e-01,-4.332808007705731268e-01,4.843662600465971080e-01,1.194927407641198022e-02,2.712587658078118719e-03,8.361439555722443781e-03,9.183938503265380859e-01
-6.636156670142696612e-01,-2.392037291868823745e-01,3.919296814378099292e-01,-2.268122907659316234e-01,7.830222219509491710e-02,-4.102660805860907506e-02,1.011973381042480469e+00
-4.189252174341005497e-01,-4.318082657833584581e-01,4.532884455844992111e-01,1.513466015640925824e-03,9.671458363765426600e-03,1.538062650241072207e-02,8.792932629585266113e-01
-4.661176907521528689e-01,-3.576549547784034777e-01,5.336788084562946732e-01,-4.603403190196145994e-03,-7.214609044985172137e-03,-4.715955104348650354e-03,9.503698945045471191e-01
-4.104315146858287244e-01,-4.308430595148365905e-01,4.215363969201083583e-01,-8.865871294438523037e-03,-2.269511780878843282e-02,-3.513800445220945090e-02,8.456086516380310059e-01
-4.069854567797251410e-01,-4.259253205301408163e-01,4.116287915524260432e-01,5.914049142077728270e-03,-3.515774343838222807e-03,-3.688326565172966864e-02,8.307921290397644043e-01
-4.583827586898261419e-01,-4.095554529414920375e-01,5.636133638303227888e-01,-1.174828941592119709e-02,-5.824635963877062249e-03,-4.451797399205349726e-03,9.987663030624389648e-01
-3.993286536173028534e-01,-4.425731644105130869e-01,5.352146120792251605e-01,-2.056878202965952904e-02,1.433472554628435064e-02,-1.285557605948276297e-02,9.581422209739685059e-01
-4.674977350169166046e-01,-4.579018243957938550e-01,4.648501394905839579e-01,5.051280662392305248e-02,-8.964989789472821435e-02,-6.835365998004871990e-02,9.519456624984741211e-01
-4.299902315273338993e-01,-4.275937937656763554e-01,4.633081437578229211e-01,-9.212828242159618042e-03,4.445328280844935975e-02,-4.185792913070144478e-03,8.955905437469482422e-01
-3.935315243854349276e-01,-4.015158621906139702e-01,5.278327483024120026e-01,2.582267669964806445e-02,-2.592229046317172467e-03,-7.824213124832222685e-03,9.265725016593933105e-01
-4.225323483774737765e-01,-4.330540650928099145e-01,4.569616179931701438e-01,7.741018712336228749e-03,-6.596794308532263548e-03,-4.738744781482887546e-03,8.850151300430297852e-01
-4.433083915945632558e-01,-4.339085508950119019e-01,5.408402575696779069e-01,-1.712505108203276867e-03,-4.156601989827323623e-03,8.594536596589529356e-03,9.796265959739685059e-01
-4.329084716121946452e-01,-4.278194845833955262e-01,5.392452790584997269e-01,7.313217556106861410e-03,6.752199110609620816e-03,1.114432539937084028e-02,9.699646234512329102e-01
-4.491837545953887845e-01,-2.811645838608062276e-01,1.720161166277980325e-01,7.211691947422664561e-02,2.544637357030524183e-02,1.047337874582400241e-01,6.001656651496887207e-01
-4.012113259953971611e-01,-4.231502132125642968e-01,3.948428405743826808e-01,-3.131673279789238835e-03,1.735472392731758141e-04,3.889353376398027584e-02,8.100714087486267090e-01
-4.321871410429015126e-01,-4.510667527423597445e-01,4.824584026921359126e-01,-1.822570397612212605e-03,4.097559650604182258e-02,-1.895054224753623534e-02,9.275372624397277832e-01
-4.189667591403563596e-01,-3.359432536156333748e-01,2.143740555240019607e-01,-8.388987489420539345e-02,1.068407896974884752e-01,-4.107943497778030612e-02,6.448653340339660645e-01
-4.275868964621353796e-01,-4.200623509913809506e-01,4.501378821669388408e-01,7.512064560892027856e-03,2.445463516480704882e-02,4.603766600316895607e-03,8.751456141471862793e-01
-4.367583365965077569e-01,-4.401172026199254295e-01,5.406906710833333518e-01,2.875053108793278883e-04,8.474327206175122362e-03,-4.258773204814277069e-03,9.792706966400146484e-01
-4.334200899960853892e-01,-4.556951727737516000e-01,5.495558508112408092e-01,2.791245224073315382e-03,1.089919501957862559e-02,-4.102070967211927065e-03,9.945169687271118164e-01
-4.488753117904591416e-01,-4.338259857215425175e-01,5.277280453946928684e-01,1.614295220792610506e-03,-1.529709523503134695e-03,-1.356043697998292330e-03,9.691768288612365723e-01
-4.498115039774339685e-01,-4.333714127802000826e-01,5.257054092821683566e-01,1.507687618054631305e-04,-1.878648997100224993e-03,-4.945576369895624035e-04,9.674075245857238770e-01
-4.471463846437586653e-01,-4.326591541958019205e-01,5.287738186844272992e-01,-3.595049768986299343e-04,3.132339476692821978e-03,9.106532824221910382e-06,9.687732458114624023e-01
-4.374439762999944303e-01,-4.153092611964851466e-01,4.600997814909191241e-01,3.127422025127064853e-03,2.461446943559322462e-02,1.175344299149701580e-03,8.877268433570861816e-01
-4.462182620327019289e-01,-4.293555472859578170e-01,5.154715041735851155e-01,1.200107770958262461e-03,1.068255995600474705e-02,1.101941997368387693e-03,9.535539746284484863e-01
-4.362354125212361544e-01,-4.342431698496850845e-01,5.078739060510477632e-01,-4.787959942340429265e-03,4.351044176279342778e-03,1.303812846307503357e-03,9.431840181350708008e-01
-4.242809748819361126e-01,-4.171597039987119948e-01,4.262763213205923440e-01,8.797049953426777993e-03,2.995595899184555488e-02,-1.640309428720029133e-02,8.492189645767211914e-01
-4.335064585656677738e-01,-4.363222911584075936e-01,5.519317754960295641e-01,1.724336672663726510e-03,1.249384584253598494e-04,2.487594351357966683e-03,9.868631362915039062e-01
-4.423352394542498511e-01,-4.399462755568413486e-01,5.499688955511632393e-01,2.951687968212958740e-03,3.407167302552490014e-03,6.370503383501676178e-03,9.912039637565612793e-01
-4.328680691613864817e-01,-4.368401609074474279e-01,5.284047436781180718e-01,7.833916903785886421e-04,-3.446873416117006775e-03,-5.238107343971696271e-03,9.633271694183349609e-01
-4.545252564806673834e-01,-3.412704266288291155e-01,5.219501642321812129e-01,-3.489801951120512225e-02,8.868265805129657564e-03,6.823858681048347412e-04,9.271630644798278809e-01
-4.395771438733138137e-01,-4.376801301342183592e-01,5.515625733181334089e-01,-1.054863074864308397e-03,9.592873438119982592e-04,1.407909296943857464e-03,9.901986718177795410e-01
-4.368787797839511211e-01,-4.439642089955134763e-01,5.361614627488509033e-01,3.768406714081854597e-03,2.707999854209074131e-03,1.550093723844788579e-03,9.766389727592468262e-01
-4.550506152335829224e-01,-3.368538516189182319e-01,5.311461850196188550e-01,-4.568064144028064627e-02,2.080013993890841937e-03,-1.562918367660983202e-03,9.360928535461425781e-01
-4.398130137473365009e-01,-4.399990215088289691e-01,5.507306595008529815e-01,2.711845319747642046e-04,2.436428728389792523e-03,-4.559742221292301632e-03,9.906772971153259277e-01
-4.351396502577661862e-01,-4.487279109878228311e-01,5.280110185887727514e-01,3.052393985869994073e-04,1.849461005679888144e-03,-6.527796345752808968e-03,9.700875282287597656e-01
-4.463887373104309941e-01,-4.244525111394115147e-01,5.386603073944646880e-01,-2.463719596792848712e-03,-5.850193370988348391e-04,1.328413950469468224e-02,9.745476841926574707e-01
-3.896831899992885817e-01,-4.843117462032844878e-01,4.322929740636713980e-01,1.880164349790001965e-01,9.979768971860814020e-02,1.159583244439530217e-02,9.480054974555969238e-01
-4.840117619349443290e-01,-4.445115630394997353e-01,4.571118642316925884e-01,2.828942546862025717e-02,4.411745284135761003e-02,1.081393867049981750e-01,9.452098608016967773e-01
-4.130457190144194435e-01,-2.842239608102318238e-01,4.191911271482339219e-01,2.234791452510188070e-01,1.192283531069570079e-01,1.331557928325990403e-01,9.206896424293518066e-01
-4.372895635903946143e-01,-4.444830575698529573e-01,5.357906917625185894e-01,-3.073378679962315493e-03,7.605329200325377029e-03,3.385154795565315476e-03,9.768177866935729980e-01
-3.535431289102218266e-01,-3.949390777890192661e-01,3.087331832884425697e-01,9.891844757499664020e-02,1.263959422230785945e-01,7.625572327554530627e-02,7.499775290489196777e-01
-4.831496480663182158e-01,-4.490237741119137982e-01,4.216843988045478886e-01,2.174008739036125126e-01,1.301626375430769977e-01,4.719537301127760265e-02,9.941375851631164551e-01
-5.012367488064563004e-01,-2.784038635431568265e-01,5.560067144124147820e-01,5.736698570112216955e-02,-1.372176787980863150e-02,-2.828022473861336455e-02,9.719396829605102539e-01
-4.310462081686742275e-01,-4.039767361241091148e-01,5.371879619140567108e-01,2.229635097958553372e-02,2.363624485246909428e-03,6.857160831636675488e-03,9.558503031730651855e-01
-4.380121973423889981e-01,-3.882012822060579293e-01,5.427367482895607553e-01,4.000738607543173966e-03,-7.872226833658922673e-03,-1.414702064309894883e-02,9.572523236274719238e-01
-4.169942413497857436e-01,-3.829065555910385887e-01,5.286822908106288965e-01,3.928757114006566076e-03,-6.619329649986273323e-03,-4.990320490131578031e-03,9.292376637458801270e-01
-4.134337184141597121e-01,-4.189843949647982790e-01,5.388786950742866511e-01,5.000488002289579098e-03,1.780036096852803153e-03,-1.780668738169675946e-04,9.551441669464111328e-01
-3.858572772456526634e-01,-4.719811862093379884e-01,5.701564616621809245e-01,2.367099425613239036e-02,2.182723135881261406e-02,1.117001698475797618e-02,1.003593444824218750e+00
-4.051763205392225897e-01,-4.066396932645168216e-01,5.328898654021676506e-01,3.936280005263721044e-02,7.501398452992404705e-04,-3.240981959227547636e-03,9.412887692451477051e-01
-3.292675825967963377e-01,-4.110421851974938035e-01,5.211908084190958190e-01,7.034663740293195522e-02,-6.957538496327162619e-03,-3.632911438067000162e-03,9.025204777717590332e-01
-3.944772823637273107e-01,-3.350609646753446302e-01,5.168688201281509409e-01,8.108180247738405733e-02,-1.313851898188690952e-03,-2.822371772296636532e-03,8.942511081695556641e-01
-3.973212414230020140e-01,-4.605276060500682611e-01,5.466022905985316038e-01,2.369613767700619669e-03,1.036429909543804331e-02,-3.878078646374641066e-04,9.772349596023559570e-01
-3.560839321779970534e-01,-4.196802765895186194e-01,5.217313330450322750e-01,2.029004929351441167e-02,3.781720963978761098e-03,-1.782086030278416926e-03,9.119854569435119629e-01
-3.167642762734772521e-01,-4.600478970153409342e-01,5.286198879580450427e-01,3.039218999594248474e-02,3.898728162883391413e-03,-1.197372239540932378e-03,9.269062876701354980e-01
-4.797078679150679759e-01,-3.272539607582110044e-01,6.032891676177083440e-01,8.137090353311939028e-02,-1.199489208648085031e-02,-2.007467256340751682e-02,1.025924921035766602e+00
-4.674239743515884449e-01,-2.832853481089792624e-01,5.545987377108303473e-01,9.759379637492324178e-02,-5.401486610616186568e-03,-6.581793558457909102e-03,9.586629867553710938e-01
-5.159605998069780597e-01,-2.894395226394791409e-01,5.487463782663789535e-01,1.838889991092527987e-02,-4.265949988165001865e-03,-2.143364043844626574e-02,9.727185964584350586e-01
-7.327039688400083239e-01,-1.299614342269147516e-01,7.064469855112881502e-01,-7.623153504447606650e-03,-9.080893087611858344e-03,8.633178562761228969e-02,1.260871887207031250e+00
-4.940782524429018219e-01,-2.529017658111147870e-01,8.111263205388850039e-01,1.758017798058432446e-01,-5.242017463971945790e-02,-5.520037687123618628e-03,1.244184136390686035e+00
-4.602878618933494148e-01,-3.624808244900405430e-01,5.440249521680520228e-01,-6.035709529575502587e-03,-6.613047377315498659e-03,-5.777302240037550385e-03,9.593342542648315430e-01
-5.344081453174612806e-01,-1.809193679951954514e-01,5.368814433179457390e-01,-1.941506001551651650e-01,7.036535570894768277e-02,-7.065155851092688732e-02,1.018252968788146973e+00
-5.042607602322142224e-01,-2.886067740237919232e-01,5.434755504507590151e-01,-1.749601478891829598e-02,1.267583964814392346e-02,-9.940823760955156199e-03,9.591696262359619141e-01
-4.461905592894058747e-01,-3.487493466594536740e-01,5.329496422748903894e-01,-1.057861502419903642e-02,-1.430367731998121589e-02,1.084819816570420717e-02,9.349354505538940430e-01
-4.064196777171863451e-01,-4.067837508667276891e-01,5.340996111816379566e-01,-9.996366494039340272e-03,-5.932469512028682584e-03,7.310705915336382019e-03,9.410020112991333008e-01
-4.912526775748452534e-01,-3.385258318590249615e-01,5.418437912568415671e-01,2.789602973857937748e-02,-5.072576004882840958e-04,-1.412759846459523544e-02,9.673501849174499512e-01
-5.162363493233925738e-01,-2.318764424582686057e-01,5.337926483195674088e-01,-9.254482191435849450e-03,5.666228576424528485e-03,-1.319965729341042102e-02,9.411223530769348145e-01
-6.297616244808236230e-01,-1.955482240972109542e-01,6.240587066492790935e-01,-1.766047496872024530e-02,1.729278713925669689e-02,-3.252385795831060078e-02,1.105073451995849609e+00
-5.190364806343990001e-01,-2.349128358151847396e-01,5.838510986283125259e-01,-1.059785737449224774e-01,-2.582849593647786046e-02,5.265458635462665765e-03,1.009707689285278320e+00
-3.629524296007293760e-01,-4.634812395949652886e-01,5.455426280971422681e-01,1.700044729959095113e-02,-8.947059883645767930e-03,5.553752010206408976e-03,9.633270502090454102e-01
-4.914011830969060024e-01,-3.097844150268827534e-01,5.449259499709949717e-01,3.497376997617285266e-02,-4.196692541012376522e-03,9.504699328974861375e-03,9.605922698974609375e-01
-6.147035512527947443e-01,-1.552931993504306774e-01,7.742035651633309978e-01,1.502319435240974943e-01,8.709004394783590591e-04,1.289121115746226232e-01,1.272638440132141113e+00
-5.443634010019602343e-01,-1.380039016378805383e-01,5.184608508019142858e-01,1.800032804085745508e-01,4.642145374118449019e-02,9.741739991417333600e-02,9.974836111068725586e-01
-5.204532829183923237e-01,-2.814110093434079585e-01,5.658382573467551913e-01,3.172066309587685123e-02,-1.390129595557677150e-02,1.365660385948116312e-02,9.907869696617126465e-01
-5.099559435334140023e-01,-3.230876360656964041e-01,5.635529094818676477e-01,3.445259681282000080e-02,-4.631646465617950993e-03,-3.359496044723427055e-02,9.968687891960144043e-01
-6.051197067580945665e-01,-1.566766233428243393e-01,5.478377465153068115e-01,2.723084278043352499e-02,-3.160876234190321959e-02,2.721654255218482893e-02,1.010356545448303223e+00
-5.135440998091375109e-01,-2.933498677756130046e-01,5.415264287948046151e-01,1.505929682767678628e-02,-5.975135507053253893e-03,1.027556693725470080e-02,9.645947813987731934e-01
-7.108957619903740754e-01,-2.167777619739423289e-01,8.706810180628556939e-01,2.360156860548338620e-01,6.741896217180147477e-02,6.185967726899867236e-02,1.468427062034606934e+00
-5.603631406984131980e-01,-2.805304386882115364e-01,5.518562859925150166e-01,2.810683812884099200e-02,-8.419107575369171037e-03,5.317878652731232447e-02,1.007556200027465820e+00
-5.209507989097262870e-01,-2.856491143817888601e-01,5.524662076372311992e-01,3.112384362929854556e-02,4.029098803479350815e-03,-1.134125032405296218e-02,9.789559841156005859e-01
-2.533514868306407930e-01,-6.475385345257171910e-01,7.866291605945714416e-01,2.278652336487166918e-01,7.965040814996630913e-02,3.374256381956591139e-02,1.350964903831481934e+00
-4.473457411281943630e-01,-4.372664815841618702e-01,5.388585040807979398e-01,9.710592021913697948e-04,1.751902203472925201e-03,-2.643563655486803974e-03,9.812202453613281250e-01
-4.438783286588080523e-01,-4.379677470081805857e-01,5.378819884359752335e-01,2.679570660694642701e-03,1.750311708238627088e-03,-2.642614597011193681e-03,9.788448214530944824e-01
-4.180805471555724684e-01,-4.417065296054161760e-01,5.408986885249070786e-01,-2.766258656422909256e-03,8.013166025956430100e-03,-4.930921334240417897e-03,9.711563587188720703e-01
-4.422597152078486249e-01,-4.423025506687070507e-01,5.494329158235286004e-01,1.973087087337252118e-03,1.350642370178130542e-03,-2.474144308257633998e-03,9.917319416999816895e-01
-4.451836753476791086e-01,-4.413132366084499547e-01,5.501142320530258978e-01,7.838468425367247847e-04,1.818936388703608093e-03,-2.588348284889243570e-03,9.933843612670898438e-01
-4.337017780289061930e-01,-4.440185358831830187e-01,5.478943582740996021e-01,-2.488602367297617583e-03,-1.870433867750307712e-03,-5.300642279431019063e-04,9.868101477622985840e-01
-4.344822361888739382e-01,-3.815885172648046386e-01,5.209860030233139927e-01,-5.099690429594447294e-02,7.566274361834912296e-03,-2.378332164604476939e-02,9.353340268135070801e-01
-3.531503957104127900e-01,-4.858079124433627993e-01,4.479000913474583401e-01,2.068586105456259473e-03,-5.294385341670553025e-02,2.189322563617324829e-02,8.805709481239318848e-01
-3.598659232185554835e-01,-4.936103246590645699e-01,5.396089554289770218e-01,1.645064640350487467e-02,2.320843095950592475e-02,1.831094644847549788e-02,9.750261306762695312e-01
-1.594351019258454238e-01,-5.920039890122534842e-01,8.155692304954949012e-01,1.080760562533698982e-01,7.413964893071323808e-03,-2.107343915293990316e-02,1.263346433639526367e+00
-4.416674201252966392e-01,-4.418317968733546097e-01,5.521134843550496996e-01,-2.539950365721107065e-03,-1.732940014029791739e-03,-2.598740315328842022e-03,9.938875436782836914e-01
-3.649397033908957644e-01,-4.647199392438505772e-01,5.422608166432512089e-01,5.616077978597967986e-03,-8.431576602713649476e-03,-9.251421448187783017e-03,9.612773656845092773e-01
-4.218872134851576750e-01,-4.477377613150864133e-01,5.519724640052237064e-01,-7.464608094381390037e-03,6.475814386342877704e-03,-5.962153300850328574e-03,9.872412681579589844e-01
-4.372481667720797827e-01,-4.393841747078828797e-01,5.338779982888872677e-01,2.353259240024185113e-04,-3.843885827186680273e-03,-2.138309606810688199e-03,9.722258448600769043e-01
-4.454065580849607686e-01,-4.370458665254337016e-01,5.399291373579425679e-01,-2.636170557853885661e-03,6.011143402149331239e-03,8.916644903449407779e-04,9.812491536140441895e-01
-3.755143106367062611e-01,-5.136866567082258861e-01,5.499677464578339725e-01,4.226364149983181939e-02,1.045667558041298850e-01,4.069703222567670059e-02,1.023041844367980957e+00
-2.514364869773269562e-01,-5.626749177554672965e-01,6.042322763080221204e-01,-3.679183175405357359e-02,-2.384998368567464028e-02,-3.127778514607261213e-03,1.049358010292053223e+00
-4.412104387297257624e-01,-4.301736996529376689e-01,4.956961826198124088e-01,-4.623818756004566266e-03,-3.603739268422973853e-03,5.349127771302550002e-03,9.315387010574340820e-01
-4.355952126736336583e-01,-4.316752363002100412e-01,4.905262136964873010e-01,-9.468491759538800664e-03,-3.715690411253439948e-03,7.928864201678504503e-03,9.244375824928283691e-01
-4.353717355847638859e-01,-4.355963020462056412e-01,5.125391460248899245e-01,-4.943190766113032472e-03,9.613356784264474528e-03,-3.152100098619914879e-03,9.482237696647644043e-01
-4.024559533322210614e-01,-4.456155387941619916e-01,5.094262802991427197e-01,2.574486088821801785e-02,1.541481106415676372e-02,1.430300118694152831e-03,9.356579780578613281e-01
-5.618997967172594254e-01,-5.769914598610879075e-01,2.663173773739729855e-01,-1.537142879038491672e-02,6.429916397768949653e-03,2.008598539060715664e-03,8.363704681396484375e-01
-3.874667066386973113e-01,-3.862025961101396287e-01,3.088763462319782382e-01,4.716014752242961641e-03,3.499408418143128488e-03,-1.472481715560127521e-03,6.957908868789672852e-01
-4.142892785643113029e-01,-4.151147416642400612e-01,4.092615256836473758e-01,5.127254923904976322e-03,-1.570302192607114095e-02,-5.593702730467308912e-03,8.245173692703247070e-01
-3.935351929643626234e-01,-4.002433729052027878e-01,3.415638605313607856e-01,3.705328398340125562e-03,4.257381894178355677e-03,1.514945934419969706e-02,7.390066981315612793e-01
-3.900452078029377767e-01,-4.996318068099566689e-01,6.255642732277572060e-01,7.729047222056320554e-02,4.633797294044604900e-03,-4.053999392746656348e-03,1.082960844039916992e+00
-3.375684990594636781e-01,-4.445056580385724487e-01,5.327557170795222952e-01,1.310536938275116796e-02,5.391030177146855125e-03,6.110111747478312420e-03,9.288079738616943359e-01
-2.296207186115625520e-01,-6.495685337019039274e-01,2.093750438923664969e-01,1.991072706311916487e-03,-1.367758928877479616e-02,-1.167736313220892330e-01,7.713041901588439941e-01
-4.253685446118520841e-01,-4.196202997256852640e-01,4.313910663248428090e-01,7.350888258823734880e-03,-5.734599299371870122e-03,-5.225221647375187517e-02,8.588345646858215332e-01
-4.408374557513797254e-01,-4.350775726688599909e-01,5.421961934555469265e-01,-1.421897962806272951e-03,-1.940327449483038400e-03,6.177081398417060693e-03,9.802336692810058594e-01
-3.313185214009590207e-01,-3.871944216173294762e-01,4.190470394052921987e-01,1.572386902813745768e-01,7.162582558425018009e-02,1.020829718279407938e-01,8.537701964378356934e-01
-2.445932373752437439e-01,-5.326271338697043944e-01,5.449565276414971571e-01,1.661370130135020329e-01,-2.793953577931908988e-02,4.706375811199582648e-02,1.012699723243713379e+00
-5.512927790697571551e-01,-2.812665801891799933e-01,5.833691850530737799e-01,2.332175003310693433e-03,1.087918652682931184e-02,2.946443745657741087e-02,1.028085231781005859e+00
-4.484346039797013628e-01,-3.988097394641662574e-01,5.436450142387025952e-01,1.493186328116846359e-02,-7.038432379980358658e-03,6.256605385950709045e-03,9.687041640281677246e-01
-4.434075733632503180e-01,-4.443317822829823682e-01,5.152039631257064878e-01,-1.909217413456748818e-04,3.249632129087468924e-04,1.076668122842436813e-02,9.592554569244384766e-01
-4.803476836958953111e-01,-3.139552074454439734e-01,5.414053915910742587e-01,1.006266622451097888e-02,-1.141505257604797166e-02,-1.342424909786103446e-02,9.502047896385192871e-01
-4.567692248808270516e-01,-3.933996798957392071e-01,5.240708837088816630e-01,-3.634273971999703312e-03,-5.390410201884876865e-03,2.039654358154441988e-02,9.514633417129516602e-01
-4.463455478628944872e-01,-4.347997646886392342e-01,5.469603371908201561e-01,2.089899164698649781e-03,1.235472006125330063e-02,1.584841694324198857e-02,9.882034063339233398e-01
-4.950970561574709605e-01,-3.565421363840239333e-01,5.579944339468549952e-01,1.369053420104910518e-02,-1.209888225346671337e-03,-2.051125148698001652e-02,9.920266866683959961e-01
-3.909211837306855175e-01,-4.300494371984706632e-01,5.369337157772025027e-01,8.344069007471964852e-03,-1.288781354377317029e-02,-7.536608551639427042e-03,9.484875798225402832e-01
-4.377807185643550758e-01,-4.384827000770632477e-01,5.285808053624214686e-01,-4.098147566770292058e-03,1.535165785641581099e-03,8.698000164874136481e-04,9.667435884475708008e-01
-4.617934354682454168e-01,-4.539555249712420304e-01,4.912800888359740714e-01,-3.085466625683893835e-02,2.203174439249433458e-02,-2.525204938718229875e-02,9.524524807929992676e-01
-4.560480106298155367e-01,-4.095699563924938280e-01,5.360100673967700402e-01,-1.387501306607653081e-03,-6.216505652416158198e-03,6.619772934844813869e-03,9.697853922843933105e-01
-4.420020180666751619e-01,-4.199711718283409279e-01,5.116313678216479754e-01,1.582691513907242414e-02,-2.298721994804329635e-02,-1.853396758623607199e-02,9.445950984954833984e-01
-3.454131279703295809e-01,-4.496541054741324261e-01,5.047083272356562844e-01,-6.415789222053826235e-02,-2.391547192569939626e-02,1.081960110600080696e-02,9.146616458892822266e-01
-4.307464663100178948e-01,-4.473162875878209377e-01,5.168139121310793005e-01,2.936151375602255153e-03,-2.921438601560753193e-03,3.191334329426551673e-03,9.559959173202514648e-01
-4.410866143725168942e-01,-4.417410224262376950e-01,5.486513510819113204e-01,2.070521049397051200e-03,2.347522408942892894e-03,-2.179598297491956889e-03,9.900873899459838867e-01
-3.089214614224305433e-01,-4.549859349109325879e-01,5.269111197975320238e-01,3.472016622869782132e-02,8.094931869343357372e-04,7.189350482142371768e-03,9.196792244911193848e-01
-4.420628235745465706e-01,-4.038320723414753344e-01,5.429103684933258567e-01,6.862027828049917406e-03,1.701141559757921216e-05,-1.075612739205065657e-02,9.666777253150939941e-01
-4.638468135659406522e-01,-3.755766416238668914e-01,5.516069341902798406e-01,5.051769430276829148e-03,6.933284351709912557e-03,1.837820700419911732e-02,9.749552607536315918e-01
-4.397881040933684926e-01,-4.413923214948195506e-01,5.342251880872499470e-01,-4.252664494984519593e-04,-1.684504623073353625e-03,2.747924313231060994e-03,9.748326539993286133e-01
-5.143074259743293242e-01,-2.316268896608816852e-01,5.371789369737776099e-01,-4.745002332424486796e-02,-7.213758282896359786e-03,6.760434789474084258e-03,9.462266564369201660e-01
-4.212614488889619424e-01,-3.513923320788699955e-01,5.222977030803990228e-01,1.975253129558845328e-02,7.179731040149031629e-03,-2.923972189034889898e-04,9.113645553588867188e-01
-5.381897514166457119e-01,-2.942208316213723585e-01,5.717896606741988963e-01,1.565769102088153397e-02,-3.892227275350238110e-03,1.506058240049116051e-02,1.011056900024414062e+00
-4.234241060431110926e-01,-4.104165259954054013e-01,5.439562182232644538e-01,2.096748844389284550e-02,2.587893816379958824e-03,-5.585474421984319877e-03,9.616876840591430664e-01
-4.557995718577622091e-01,-3.801681130209833004e-01,5.503440824054455227e-01,1.076132110810212525e-02,6.026328144941688926e-03,1.641766881686258783e-02,9.711920619010925293e-01
-4.065971650442416485e-01,-4.512916390982406600e-01,5.500620867029820671e-01,1.088873036674957440e-02,-6.000670510234647551e-03,1.160862389169036238e-02,9.802142381668090820e-01
-4.291104268267301181e-01,-3.919868695109968715e-01,4.055083374829683285e-01,1.502838821915877983e-02,-6.026500588168640093e-02,-8.270512930929685425e-02,8.361077904701232910e-01
-4.175924063670855557e-01,-4.005366152490443254e-01,3.850596257820962931e-01,1.981042730959148811e-03,-2.933780249716894800e-02,2.570276078060031860e-02,7.971368432044982910e-01
-4.046790748319240016e-01,-4.094075006449935938e-01,3.826840278819099161e-01,-4.208286639562065952e-03,4.079540840657046134e-03,2.353185506568787611e-03,7.898136973381042480e-01
-4.140868721150944842e-01,-4.153687886054035494e-01,4.044653389359413875e-01,6.748128629914817295e-03,4.578138317405727395e-03,2.529338326647313437e-02,8.204860687255859375e-01
-4.708848732422698524e-01,-4.447101597835511066e-01,4.224982487809890719e-01,1.365539859575784064e-03,-4.791688254247773032e-02,-4.730162544292839527e-02,8.882794976234436035e-01
-6.071487003260118698e-01,-1.601353261090036617e-01,5.708494402467575446e-01,2.010083371325820795e-02,1.558546707344355547e-02,2.503969372775877861e-02,1.031863093376159668e+00
-5.240628571637008237e-01,-2.500928547063321350e-01,5.602291277257913649e-01,7.111973129056542095e-03,3.973642172673298723e-03,2.244538034465080444e-03,9.766777157783508301e-01
-2.844892723841380144e-01,-5.064087997481088177e-01,5.459828585847531501e-01,-6.715013780448165874e-03,1.665333085179838274e-02,-2.916188568331160892e-03,9.613651633262634277e-01
-4.400017453231964693e-01,-4.383782083136039676e-01,5.199355770254979747e-01,-6.695966432902928159e-03,-8.690562235249216574e-03,-4.158241286920071056e-03,9.593418240547180176e-01
-3.499022159132638699e-01,-4.914890015104553811e-01,5.482957246698552112e-01,1.987465160581814924e-02,-1.381816066584230784e-02,5.066124692975433955e-03,9.776574969291687012e-01
-2.929392359281298708e-01,-5.197950714859815857e-01,5.527252328237560741e-01,1.299281934857643081e-02,1.512748387231670558e-02,7.633234686996749879e-04,9.796175956726074219e-01
-3.337909514919898402e-01,-4.929874374578315788e-01,5.493109614664810625e-01,9.196405524684252153e-03,-1.089376589091531518e-02,3.896325462575839574e-03,9.728589653968811035e-01
-2.995980292554401014e-01,-5.546848529937170591e-01,3.893307848569336205e-01,3.261226212135524133e-02,-8.315678152163472059e-02,-6.413661420103916599e-02,8.670093417167663574e-01
-3.988010487825998096e-01,-4.383140648398989869e-01,5.409455077575696658e-01,4.442382862643881603e-03,3.932133632796160072e-03,4.154664621869012635e-03,9.601950049400329590e-01
-3.950702067932655992e-01,-4.219159461544721990e-01,5.471827775787450054e-01,9.461748627203757367e-02,6.873410596578729929e-04,3.601194971985605120e-02,9.719085693359375000e-01
-4.660510582474853836e-01,-3.522014784853575997e-01,5.611919734207443389e-01,5.870307231798342629e-02,-1.504890752579892896e-02,-4.497385916243049758e-03,9.809775948524475098e-01
-4.195022122813824583e-01,-4.207591684615756833e-01,5.398901937995518319e-01,9.749037475252513019e-03,-4.509068401113245673e-03,3.132317512458204257e-03,9.602170586585998535e-01
-3.745865117792623877e-01,-5.634142226176805934e-01,1.671522831571567447e-01,-1.939209646039364021e-01,7.994027235201583981e-02,-1.840746679081275983e-02,7.512895464897155762e-01
-5.301036220635313434e-01,-3.912205340483134175e-01,1.665220084258088873e-01,-1.192738167935670363e-01,2.551962587673421712e-02,-9.873648027354087198e-02,6.940500140190124512e-01
-3.856731630105615927e-01,-5.572272255923294004e-01,6.058747010875354944e-01,-5.248586419693067329e-02,1.188825422805073750e-01,6.473843704927803588e-03,1.110626459121704102e+00
-3.878854485536201158e-01,-3.912770279967645037e-01,3.106776719904326134e-01,-1.219375463604591755e-03,1.549779569288319003e-02,1.802176457303549320e-02,7.014774084091186523e-01
-4.380830925324520342e-01,-4.227310408671073327e-01,4.759130923723974282e-01,5.345869488584931682e-03,2.033519675671987062e-02,-1.374944972656955535e-03,9.071521162986755371e-01
-4.802332534040672507e-01,-4.441334513463600087e-01,3.697883126500437490e-01,-2.221922873323056158e-01,-2.624891881289442494e-02,-4.934171565299775436e-02,9.222978353500366211e-01
-3.058629543435636977e-01,-4.744934516941423652e-01,5.395529454968955863e-01,-5.876794543196055265e-02,2.385717539224437717e-02,-1.500570381655388918e-02,9.478772282600402832e-01
-3.711503677360161180e-01,-4.767847051176964390e-01,3.962227345684243840e-01,2.370038011580578169e-03,3.352016674568851495e-02,5.776523475895476226e-03,8.273867368698120117e-01
-3.879970908342374458e-01,-4.424774785951515188e-01,5.396190385443997428e-01,-5.007355225859690118e-03,-1.096666826587087452e-02,1.412735041568962888e-02,9.565622806549072266e-01
-3.721530099285894067e-01,-4.842883024520316382e-01,6.161805444409208521e-01,-1.064431386227819021e-01,9.372681797956820306e-04,2.727764411726874699e-02,1.066034674644470215e+00
-3.741561943420312342e-01,-4.170477765470281262e-01,5.285101922097318328e-01,-8.476888864333034096e-03,2.857968106765473859e-03,2.577100601919183470e-03,9.249989390373229980e-01
-2.234611034952935227e-01,-5.222799574793878241e-01,5.646137331397125259e-01,-1.635900831846871240e-01,-3.586551073694031061e-02,4.437729920341084572e-02,1.017790913581848145e+00
-2.936273163074687442e-01,-4.845748852254261330e-01,5.378608602158216900e-01,-1.327956788982408501e-02,2.184211396178339839e-03,-5.586555206604458361e-03,9.419348239898681641e-01
-3.165879924261845169e-01,-4.560769922596008552e-01,5.288741973611063019e-01,-3.048513380518977703e-02,-3.727500323175744756e-03,-1.072897894068634405e-03,9.246779680252075195e-01
-3.707654944049385004e-01,-4.122213773735664000e-01,5.304372411802633636e-01,-5.382261158199183604e-02,5.999449332602625577e-03,-4.197187402926740377e-03,9.274139404296875000e-01
-4.271622246536887491e-01,-4.389842926650176502e-01,4.942217193215009408e-01,-6.252984446796109284e-03,-2.215494192072920646e-03,1.267658159653674982e-02,9.276825189590454102e-01
-4.255618954739333049e-01,-4.306526950350352823e-01,4.617575064083994096e-01,-8.793886859312042420e-03,2.556572529526431742e-02,1.014361465513185200e-02,8.912801742553710938e-01
-4.153438572306691889e-01,-4.255579123822271215e-01,4.332472428224082295e-01,-9.872091331572905790e-03,-1.563229838671809264e-03,3.029220581428673092e-02,8.555298447608947754e-01
-4.384516715657637009e-01,-4.305869973621050950e-01,5.257925133673564400e-01,-1.576635294096826812e-03,-3.076093208632112250e-03,3.780049820516634407e-03,9.603769779205322266e-01
-4.343156593063110527e-01,-4.376890477317371686e-01,5.488757417878185052e-01,-2.088975159903633813e-04,-7.859568312122127559e-03,4.784929018259989272e-03,9.850114583969116211e-01
-4.224992493999582543e-01,-4.344535426005118883e-01,4.660826403420247344e-01,-6.498696807145816316e-03,9.126599385892161104e-03,-3.920027185477605036e-03,8.948551416397094727e-01
-4.632138102237718380e-01,-3.545894741374536197e-01,5.377147739321433972e-01,1.008562076247592962e-02,-6.697178230860275153e-03,-1.857234705736975078e-02,9.520539045333862305e-01
-4.933198147917536303e-01,-3.177431008846648419e-01,3.088665799414725965e-01,1.830589506388960730e-01,1.619435130123556832e-01,1.117399216382285732e-01,8.661127090454101562e-01
-4.605705408194940564e-01,-4.132388895743622226e-01,4.571101522281452167e-01,6.129790669805537662e-02,7.880335314690510573e-02,7.756538479807813247e-02,9.213545322418212891e-01
-4.081080476343347252e-01,-4.893208068734183902e-01,2.344257652889043531e-01,6.981255627973921574e-02,-4.054202526394336259e-02,1.878429320407315473e-02,7.015967965126037598e-01
-4.249920581938321784e-01,-4.294339382450194642e-01,4.723329792918452563e-01,-3.020701170985161995e-03,-5.336175985451289440e-04,3.208674843952147304e-02,9.012849926948547363e-01
-4.238163060571919494e-01,-4.289079899143575791e-01,4.650412616531850452e-01,-8.828230601433997501e-03,-1.781436912021081443e-03,1.028110241515617536e-02,8.917286396026611328e-01
-6.372999409344470845e-01,-6.331871205890274301e-02,6.207377419830237830e-01,-1.469499597932680431e-02,1.518467952462450310e-02,7.250525191671573430e-03,1.091567873954772949e+00
-4.192606656607688609e-01,-4.188040385789897901e-01,3.859622053566513777e-01,4.223374680911487467e-04,7.334372161315494409e-02,-3.229555373811825864e-02,8.168744444847106934e-01
-4.346111417196359961e-01,-4.347125545791152845e-01,4.915059908305081660e-01,1.081465253117872699e-02,-3.397030310717292709e-03,-1.298610711853067159e-02,9.266489744186401367e-01
-3.619766966031717770e-01,-4.701670045102632201e-01,5.536459055682341202e-01,-5.449770891933473221e-02,2.596452248727480067e-02,3.516078949314410240e-03,9.798474311828613281e-01
-3.982066416893674798e-01,-4.052647303047312577e-01,3.478978506397046866e-01,7.858780500987401843e-03,3.275380474398927044e-02,-2.829867875100388480e-02,7.535210251808166504e-01
-4.615193960016907293e-01,-4.228430000105654618e-01,5.449163811135583346e-01,-4.005257241799224655e-03,-3.108342516678384588e-03,-1.892420073460138880e-02,9.882484674453735352e-01
-3.850315302030838938e-01,-4.382144146519217354e-01,5.436174161109372793e-01,1.297868477611088533e-01,-1.863195347691871256e-02,1.636434141917187529e-02,9.833535552024841309e-01
-3.183605657439793069e-01,-4.800708072617944078e-01,5.411187595144359985e-01,9.923645514156463968e-03,-1.840619432183403237e-02,-1.336165990708315654e-02,9.516769051551818848e-01
-2.814701683913048424e-01,-5.611964122869457228e-01,6.335538817187588156e-01,1.423380133321021090e-01,2.136094278222166326e-02,1.532358223055467483e-02,1.111002087593078613e+00
-3.055126900792138334e-01,-4.580609250759078988e-01,5.382663437387346095e-01,5.472316334614674843e-02,1.437769108996556078e-02,1.351107819635762302e-03,9.346445798873901367e-01
-3.555697249606691868e-01,-4.510377725201440424e-01,5.364720987974327393e-01,1.911699816248569814e-02,8.288378496521654412e-03,-5.406708375312732802e-03,9.441421627998352051e-01
-3.669807845375190336e-01,-4.646447258017507576e-01,5.401931072604149175e-01,5.909743022452476797e-03,-1.371376767127797242e-02,-8.972167775138055815e-03,9.602142572402954102e-01
-3.414575198439133152e-01,-4.689963165180148219e-01,5.448026351915130627e-01,4.043705377693792430e-02,-2.480532720895001902e-02,-5.952644042897218754e-03,9.600070118904113770e-01
-3.586498221998795644e-01,-5.213093286053439579e-01,6.234825425680279309e-01,7.701009906601508082e-02,1.446064290502166796e-02,1.050232436313173210e-03,1.081303596496582031e+00
-3.847263680886565118e-01,-4.508079307598013563e-01,5.448228527735814453e-01,2.561840355872948075e-02,6.901194991331426054e-03,-1.041400169471970102e-02,9.655525684356689453e-01
-4.579163485338611506e-01,-3.493529961483582413e-01,5.368505732594577307e-01,-2.244123647826252316e-02,7.671766903820965988e-03,7.009207959521647838e-03,9.461430907249450684e-01
-4.951538562144503497e-01,-2.942481485410161635e-01,5.342422995890606652e-01,-2.153434033903154840e-02,8.125376012155944780e-03,4.088774252748430572e-03,9.459637403488159180e-01
-5.017017664310291503e-01,-3.228658144618057335e-01,6.198657537039717891e-01,-1.528427226311392939e-01,1.877435259271289722e-02,-1.270397484204329255e-02,1.077471017837524414e+00
-4.336884178169878035e-01,-3.883583645517145189e-01,5.389081416787653289e-01,-7.688493189792438946e-03,1.090676588485627041e-02,-1.542770699351188671e-02,9.513986110687255859e-01
-4.444456802579691557e-01,-4.302552695151304341e-01,5.158669823569742574e-01,9.890522883784232111e-03,-4.283522590299491256e-03,1.046510286854636027e-02,9.536517262458801270e-01
-3.983012008737090714e-01,-4.306367424090499774e-01,5.382580180698518513e-01,-3.213691330798568082e-03,3.133879550701257170e-03,-3.132225360729820780e-03,9.531856179237365723e-01
-4.699075796815828654e-01,-3.199090429408662506e-01,5.318962454857727451e-01,-6.548309115886286058e-02,8.459064781341243955e-03,-7.219775322964794122e-04,9.428264498710632324e-01
-4.443535277227956271e-01,-3.853356838063721757e-01,5.414703638023602439e-01,-6.970914740327751290e-03,1.306006742655519900e-02,-1.467944662272042955e-02,9.583603739738464355e-01
-4.103719728283713453e-01,-4.772955956164450786e-01,6.046063859322564626e-01,-9.005695028624706444e-02,2.804798155854046349e-02,1.635326010332594686e-03,1.062678098678588867e+00
-3.200089108524830639e-01,-4.667655672686154000e-01,5.355839044883872191e-01,2.424507769359672202e-02,1.896618622384682248e-02,1.230031810956651837e-02,9.393811821937561035e-01
-4.187290524052589835e-01,-4.374185807728233621e-01,4.488221186666352391e-01,-8.503515084306408761e-03,-4.062509521710174799e-03,8.322471503384660033e-03,8.773156404495239258e-01
-4.435254729136814400e-01,-2.459128795287024161e-01,1.438161576822250542e-01,5.199059333516649339e-02,2.460966847395670148e-02,1.099750873951196584e-01,5.605036616325378418e-01
-4.835748193517447335e-01,-3.461157341369712204e-01,5.508044875935522722e-01,3.157058187760800310e-04,1.715118476705075005e-03,-2.339705172360919891e-02,9.738080501556396484e-01
-4.640001245718007872e-01,-4.059193371422912811e-01,5.335522236362282289e-01,5.617314622097590443e-03,1.409297635976223617e-03,-5.311753773073372466e-03,9.699127078056335449e-01
-5.047687867296701825e-01,-2.839804846192765519e-01,5.448175889679238715e-01,-1.396114811019820955e-02,-1.179333391077332050e-03,4.479549903986810092e-03,9.587970376014709473e-01
-4.440579185080533176e-01,-3.536853249782998532e-01,5.356108463118716134e-01,-1.102865798887267892e-02,1.157979934887708520e-02,-1.035698661341529977e-02,9.383346438407897949e-01
-4.227003433875083371e-01,-3.494530935702795382e-01,5.484416485194936186e-01,-5.997408021842259157e-02,2.109660062044060869e-02,-2.337514243315250151e-02,9.439880847930908203e-01
-5.280401669707992518e-01,-2.724008382631111780e-01,5.539358129386976470e-01,-1.202152131535475788e-01,-1.471895733580653662e-02,-7.391063509894496217e-03,1.001796841621398926e+00
-5.286393443314236773e-01,-2.603189913847272496e-01,5.607712610926383068e-01,-3.587572331700743244e-02,-3.132316740350175183e-02,1.170686067113674983e-02,9.867705106735229492e-01
-5.518971547158040281e-01,-1.994455947804940066e-01,6.055110772373906158e-01,-7.671377312308794334e-03,-2.469841983707281308e-02,-1.363633681243341805e-02,1.028810024261474609e+00
-4.782985871710610515e-01,-3.418278959415431695e-01,6.180945303747279462e-01,-1.655984725483568010e-01,3.433738878119536875e-02,-3.784938494239610540e-02,1.077580690383911133e+00
-4.380900754651859685e-01,-2.677787475406778750e-01,2.138755876187982685e-01,1.017906338868648786e-01,-5.104477190676352805e-02,-7.433642139673743432e-02,6.312736868858337402e-01
-4.210680392401006111e-01,-4.224757660806777726e-01,4.454833189172363594e-01,-6.452506391754319302e-03,1.726719365818713253e-03,-2.257513867175134359e-02,8.682141900062561035e-01
-4.268241511525466270e-01,-4.356689333654292784e-01,5.153313053393049348e-01,5.832750208406397435e-03,4.966597131269249489e-03,7.083481032167833480e-03,9.467813372611999512e-01
-4.367409361144739544e-01,-4.360239173229353282e-01,5.019158811816498700e-01,-9.257050699529010412e-03,-7.509521869842699510e-03,-1.341827874102981613e-02,9.388133287429809570e-01
-4.164043567677344626e-01,-4.209017309608062418e-01,4.209028158072845027e-01,4.048265773233748407e-03,1.762304214930110816e-02,-2.885615745772913965e-02,8.416342139244079590e-01
-3.780292036395144217e-01,-4.908115096143287892e-01,1.439332818660258861e-01,-2.030822555620453163e-01,-2.149422889457064736e-02,-1.206714570497064709e-01,7.161220908164978027e-01
-6.838313898797587775e-01,-2.555631457866308076e-01,2.246803685509158877e-01,8.971804024554616910e-03,1.169308663468475278e-02,2.584202245295148803e-02,7.889078855514526367e-01
-4.176184543694430595e-01,-3.855982495678889621e-01,5.297476358799301233e-01,4.565342724166331079e-03,4.491211230833101926e-03,6.429875035511874518e-03,9.319012761116027832e-01
-4.120800183974078768e-01,-4.234888817163103281e-01,3.964352732241080979e-01,1.554029065266733164e-03,-5.476853519679907890e-03,-4.452424370184575320e-02,8.179827928543090820e-01
-4.104151942489931426e-01,-4.268328474382532822e-01,4.088371441280034269e-01,-8.732613954287322955e-03,-5.922945221633537684e-03,-1.247454649574168857e-02,8.280670046806335449e-01
-4.801393384552153365e-01,-4.330856977170051136e-01,3.700590983121366806e-01,-1.631660107738719945e-01,3.052241591527068976e-02,-1.424207189892901515e-01,9.102537035942077637e-01
-4.966036284661730082e-01,-2.167436866114096916e-01,3.041587888119324790e-01,-9.294781620567317548e-02,4.543709723359404956e-02,-7.069589537495847564e-02,7.365771532058715820e-01
-7.250021660695913361e-01,-1.623142864113011341e-01,6.248741609985912770e-01,-1.597138060768098222e-01,7.470004446999205239e-02,-8.188352802305859379e-02,1.221722245216369629e+00
-5.751284437601635879e-01,-3.000640256942680995e-01,5.515480738909998015e-01,-7.361344271691384888e-02,-2.255779914566702349e-02,5.207952646326773072e-02,1.030083537101745605e+00
-5.783602253395293546e-01,-1.099114509657772160e-01,4.520609004667932584e-01,9.195851029847130955e-04,-3.279530010134172613e-02,2.467159721540391343e-02,8.964193463325500488e-01
-7.735801139938575099e-01,-1.641651113003476659e-01,5.677822101901006668e-01,-2.146234197071099636e-01,-9.001785999199356236e-02,7.576281397165578885e-03,1.231204509735107422e+00
-5.240584942434093341e-01,-3.281475420246056651e-01,6.501370406552329229e-01,-3.097733762783326794e-01,1.789206790892053714e-02,1.042201196708200661e-01,1.228211283683776855e+00
-4.585084176767538211e-01,-3.209055698623227149e-01,5.276418762727742573e-01,-2.739862769956041832e-02,-1.128849262341954582e-02,1.084912585724155838e-02,9.266700148582458496e-01
-4.015237204897136869e-01,-4.031633894649546135e-01,5.317213446270482313e-01,-1.461217103379989189e-02,2.663823494545212675e-04,7.897739069911676249e-04,9.344099164009094238e-01
-3.865167543290769503e-01,-3.944497323071540218e-01,6.042645660258050277e-01,-1.103079712533283629e-01,1.392323786557342347e-02,6.422823856921328414e-04,1.013240694999694824e+00
-4.944359860282349084e-01,-2.909546418344663987e-01,5.344791879526447076e-01,-2.156783729105557837e-02,-5.961811537336263178e-03,1.453138409272162340e-02,9.449030160903930664e-01
-4.622980144532414792e-01,-3.744845397095207251e-01,5.002666450954303956e-01,6.918992331911002699e-03,-5.392915304168402132e-03,7.955669371550845928e-03,9.220284819602966309e-01
-5.341413469143923010e-01,-3.179816384699090115e-01,3.348690695642201343e-01,-7.875000205337773229e-02,2.810792867030922210e-02,-8.030332521192246054e-02,8.089374303817749023e-01
-4.176679575448898341e-01,-4.283910448425760076e-01,4.433770862917313371e-01,5.954290992536470650e-03,-2.989223215769306989e-03,-1.333937849215042354e-02,8.668411374092102051e-01
-4.198697025595308219e-01,-4.350630407134263855e-01,4.679736682128200487e-01,2.394856077785293292e-03,-5.225021707265826033e-04,-2.243919944097452421e-02,8.963897228240966797e-01
-4.159906164136112916e-01,-3.928277250104644791e-01,2.239133036504181162e-01,-2.043827424564156545e-02,8.440120417250169052e-03,9.492670496769207295e-03,6.300228238105773926e-01
-4.472584868389731239e-01,-4.365474538949242200e-01,5.300615056499748956e-01,6.136863138514011455e-04,-4.881279189679626693e-03,1.692581118367507496e-03,9.720504879951477051e-01
-4.451020451773712860e-01,-4.372225322333738173e-01,5.331853080839970005e-01,4.217224179995643710e-03,-7.394644918187937704e-03,4.397757030808446474e-03,9.745128154754638672e-01
-3.472364062875610280e-01,-4.799731785702381903e-01,5.498544579686466260e-01,-4.591965281246571107e-03,-1.487763947761475483e-02,3.222647370587508088e-03,9.706835150718688965e-01
-4.411876754548991197e-01,-4.342962572690794443e-01,5.243943130503913030e-01,-7.426258646491963296e-04,1.662463378986434124e-03,5.473832070217756179e-04,9.621604084968566895e-01
-4.472280280392340601e-01,-4.337323943250282476e-01,5.290524000591487752e-01,-8.640229791301802433e-04,-2.606641675816160231e-03,-1.199769073637010821e-03,9.696169495582580566e-01
-4.469192600283909966e-01,-4.328909110705612129e-01,5.286450961184083752e-01,-1.616515052768456606e-04,-1.402473829457558628e-03,6.127809099011568867e-05,9.686294794082641602e-01
-3.901743115970959797e-01,-4.546393527274815716e-01,5.147427052497091093e-01,-8.691755298627774212e-03,-1.377349693291830129e-03,-4.062028337208679028e-03,9.389610886573791504e-01
-4.480324894832416471e-01,-4.325055267081046595e-01,5.310499675932027763e-01,1.165550070144070246e-03,-5.246289539043270424e-03,-2.296825903792936927e-03,9.714648127555847168e-01
-4.473858625912179310e-01,-4.330020445264144424e-01,5.297348185677840382e-01,3.062944087110775360e-03,-6.591632492141143856e-03,1.616452514229960689e-03,9.700945019721984863e-01
-2.677953070265083890e-01,-5.856995369849126165e-01,6.214619130275391701e-01,-7.226198465190344922e-02,2.074508433147393208e-02,8.641292674206590150e-04,1.091557979583740234e+00
-4.424470219451490660e-01,-4.367821988396674571e-01,5.314536336230841762e-01,2.665392604894610898e-03,-3.912054871651557235e-03,1.734248543015904243e-03,9.711198806762695312e-01
-4.192316870119405237e-01,-4.996021638056353797e-01,5.385129605155070109e-01,4.492129587969143772e-02,-2.055454254539886699e-02,-2.542629632027038761e-02,1.004972338676452637e+00
-2.815242686212793832e-01,-5.013554713405838914e-01,6.023152940779651354e-01,-5.203598487259611383e-02,1.794219392355198700e-02,-2.344430960824592583e-02,1.017119288444519043e+00
-4.281911426162741674e-01,-4.444391875867128028e-01,5.977027562694130491e-01,-1.059747755704267269e-01,3.138409638923875256e-02,-2.300532430866238445e-02,1.052437901496887207e+00
-3.846422586040477154e-01,-4.443539706276319334e-01,5.408884093468271370e-01,-6.022595157635912515e-03,1.477247031901789825e-02,-9.406627827869539285e-03,9.573225378990173340e-01
-3.680573513014619436e-01,-4.631544694095492964e-01,5.406556564395849085e-01,-5.791636018886368344e-03,1.309512932988613626e-02,-8.966861030133454341e-03,9.602473974227905273e-01
-3.908784154848057857e-01,-4.672873589404502592e-01,5.464580604760101989e-01,-4.605815665693992200e-03,1.395294646103273362e-02,6.930221725699800897e-03,9.781874418258666992e-01
-3.419144570084818313e-01,-4.955625965327577487e-01,5.420026692766011234e-01,-5.961001264413781295e-03,2.165886816134920609e-03,-2.079230870761807765e-03,9.699809551239013672e-01
-3.646229482758540641e-01,-4.622642736763380999e-01,5.349763662336806114e-01,5.318808966491095011e-03,-1.294167929569436243e-02,-3.819023233358567228e-03,9.525134563446044922e-01
-3.911008176456258201e-01,-4.690385889802196617e-01,5.495798661407059749e-01,2.901618610825724542e-03,1.369923448248136152e-02,-6.389456321032740277e-03,9.823338389396667480e-01
-4.293112035052623066e-01,-4.452041099436928051e-01,5.384828172857113460e-01,-5.531270400422787399e-03,8.822789331155199768e-03,-1.880967645079521799e-03,9.760096669197082520e-01
-4.284672025982470545e-01,-4.502084582796098133e-01,5.399332713550417662e-01,1.532897181099208625e-03,1.611947395885548681e-02,-1.519799994206989971e-05,9.798535704612731934e-01
-4.351816643598475642e-01,-4.471354640323562113e-01,5.417486329918327348e-01,-2.602745624614560653e-03,1.116889359384141446e-02,2.799959702480655111e-03,9.831743240356445312e-01
-3.666955696858664182e-01,-4.255691108030739689e-01,5.314441697998273373e-01,4.537985799579426216e-02,-5.992062156639380542e-03,-5.213561578259361638e-03,9.323974251747131348e-01
-3.344321496720328302e-01,-4.446927185831669460e-01,5.313899926556969744e-01,1.489640342374647791e-02,-5.150296741510057737e-03,-5.001653948220516864e-03,9.263324141502380371e-01
-4.877201116390995628e-01,-3.395266179430135867e-01,5.437598586805441059e-01,-3.876603725888473628e-02,1.547537392911828638e-02,-4.670863401123648978e-02,9.720214009284973145e-01
-4.236398086120994333e-01,-4.354618268549003690e-01,5.042676511880231915e-01,-9.168473663322580791e-03,-5.900968317291047094e-03,1.459407763397948046e-02,9.344074726104736328e-01
-4.350653958561925827e-01,-4.463098842676797573e-01,5.256207034490396612e-01,7.478065499397339340e-03,-3.399686664018358490e-05,4.572302478413736888e-03,9.664766788482666016e-01
-4.346187376736784236e-01,-4.340911340138883800e-01,5.188611466509996939e-01,1.987698790455204312e-03,-2.997037893423006721e-03,7.708929998342779755e-03,9.533300399780273438e-01
-4.469853922025160964e-01,-4.065685252221711843e-01,5.260064655184315541e-01,-1.350834150947438812e-02,-1.276422095094869799e-02,4.661911192890646517e-03,9.540035724639892578e-01
-4.275658905188853276e-01,-4.283627030377921141e-01,4.582685780142810028e-01,8.114645019097950843e-03,2.495872625065133354e-02,-4.464596742266147347e-03,8.874318599700927734e-01
-4.372046823691130846e-01,-4.327805754858218834e-01,4.969532255640228824e-01,8.856805418991732515e-03,-4.614965147639687321e-03,-1.189495298386905597e-02,9.323419332504272461e-01
-3.692778187309829763e-01,-4.933797516572216435e-01,5.443589101741240777e-01,-1.042631788116894220e-01,-6.531697276043134034e-03,2.219262812077833075e-02,9.988670349121093750e-01
-4.266493070545242516e-01,-4.030018020695281811e-01,5.384321903961731826e-01,-3.920606701175896949e-03,-7.676506454955506903e-03,7.060547917908489152e-03,9.536730051040649414e-01
-4.420022793945705963e-01,-4.430732227763986564e-01,5.530434860222465110e-01,3.097782196020202862e-08,-3.177808055135811129e-04,-6.018055910412571305e-04,9.955823421478271484e-01
-4.431928235069438893e-01,-4.432773189078670906e-01,5.535343169916595585e-01,-8.562345231732800769e-04,-3.150689492949319413e-04,-6.012966747736970662e-04,9.967712163925170898e-01
-4.422842047396939869e-01,-4.419059130826160087e-01,5.537972620583694328e-01,3.826086569574322954e-04,7.001542845792970114e-08,9.469557651639866173e-04,9.958939552307128906e-01
-4.386917549399249050e-01,-4.397842289340260225e-01,5.512244855504068175e-01,5.297666827198693361e-04,-1.542096913284951316e-03,-1.092951969023518970e-03,9.904687404632568359e-01
-4.399656430139800012e-01,-4.416282338670580176e-01,5.465077233434604276e-01,-1.752075095943803756e-03,3.388072054987927299e-04,2.037353717060617474e-03,9.873168468475341797e-01
-4.410635667939917237e-01,-4.403757543915138295e-01,5.465666225022128843e-01,-1.965954135762228508e-03,2.433001659516393494e-03,6.496435443469334282e-05,9.873013496398925781e-01
-4.339509515897298497e-01,-4.746941831142249546e-01,4.777700863113707452e-01,6.599665848192784456e-03,-3.285099308967185522e-02,-5.063110156059304201e-02,9.386695027351379395e-01
-2.083961756180612301e-01,-5.235227718303678834e-01,2.428762663176068370e-01,1.156051398290427502e-02,-1.134566103573531881e-01,4.340463571240745638e-02,6.998782753944396973e-01
-2.608884876088383153e-01,-5.345031070544958851e-01,4.202288857050484605e-01,3.124262347710153251e-02,-9.777804555787683594e-02,2.190989536831642812e-02,8.707465529441833496e-01
-2.335821557711372232e-01,-4.827014775885725140e-01,2.559322902681547829e-01,4.537238644334926768e-02,-1.033019113066233063e-01,-3.990601674187399528e-02,6.830809712409973145e-01
-4.322376417796250925e-01,-4.170576266389334763e-01,4.496757838752760694e-01,-7.566570093333958077e-04,3.065097416588065393e-03,1.095869566680918953e-03,8.744413852691650391e-01
-4.870305079043158458e-01,-6.009020631526116318e-01,2.931299961108869701e-01,3.913635521863829264e-02,3.775725814703490609e-03,-8.566660836507872245e-02,8.585506677627563477e-01
-4.074944784445194146e-01,-4.213740327372270111e-01,3.912290256219285167e-01,-2.618084083151664930e-03,-1.450967313611064777e-02,-3.237230192491594855e-02,8.081051111221313477e-01
-6.179419224993807358e-01,-3.372181507974059689e-01,2.673731479000980293e-01,1.005574214209359607e-01,-1.127116615269353195e-01,-1.134595331513847394e-01,8.491913676261901855e-01
-4.436965096615660964e-01,-3.810574941651802550e-01,3.829478103708665593e-01,1.237060950614264502e-03,6.394829721746272955e-02,-1.432912056330792605e-01,8.422316312789916992e-01
-5.333598188094743620e-01,-4.005971716631402391e-01,4.964603530662231590e-01,-2.834890880618240808e-02,2.927812700907389543e-02,-4.225588571183419573e-02,9.755886197090148926e-01
-4.046509484792480960e-01,-4.121082357170526844e-01,3.727813100652883627e-01,7.582671068738985019e-03,4.257691523864352151e-03,-2.081012361415558037e-02,7.821637392044067383e-01
-4.994912991562120430e-01,-3.458091528214642385e-01,5.542133085975221585e-01,1.257569833397249480e-03,6.899880162651510912e-03,-2.363270351904784780e-02,9.868125915527343750e-01
-5.243602967571974194e-01,-2.108480789341565798e-01,2.345603465689811706e-01,2.102376520909022758e-02,-7.418170461331026477e-02,-1.158072499753000188e-02,6.742081642150878906e-01
-5.276480245327259677e-01,-4.031332923706389959e-01,3.673911157361579027e-01,-7.552495768983824576e-02,-3.894544508684839174e-02,-1.418101817203256954e-01,8.872125744819641113e-01
-4.841045856529394564e-01,-2.090877182905310772e-01,2.365737079316780900e-01,-9.286553230508341750e-02,2.175811461857701801e-02,-2.783274372340045766e-02,6.530153751373291016e-01
-4.228783755925168419e-01,-4.819797802654582908e-01,2.766193141997765892e-01,1.980021528543543241e-01,-7.638610080048871542e-02,-5.202344513436065604e-03,8.181268572807312012e-01
-4.931914838863549755e-01,-3.821087297582321241e-01,3.685201747650850290e-01,-3.754405429474386852e-02,6.214395841549746891e-02,-7.805448840223375151e-02,8.326204419136047363e-01
-5.080445345272648350e-01,-2.859391795032479311e-01,5.086818539239368331e-01,-9.118605696440192088e-03,-1.079341387941914164e-02,-1.564597212523333863e-02,9.265938997268676758e-01
-4.492665430536151860e-01,-4.346287770773262227e-01,5.317122882383801263e-01,4.168464013718426765e-04,2.143176380851875753e-03,-2.231391165961838126e-03,9.737575054168701172e-01
-4.452157554235544601e-01,-4.372940397708208193e-01,5.317504261318243275e-01,1.298091722858209403e-03,-3.847780367054475653e-03,2.827793122412377430e-03,9.730672836303710938e-01
-4.456950879226440621e-01,-4.342071489047484856e-01,5.303008703871499030e-01,2.892174264591078174e-03,1.683958784269727008e-03,-2.332412677675629875e-03,9.703287482261657715e-01
-4.459771698129967321e-01,-4.395452206833157516e-01,5.372041181512731134e-01,1.735616900008443795e-03,-4.262372668367079079e-03,1.828840593430724408e-04,9.800136089324951172e-01
-4.466425813179716875e-01,-4.300570220000509702e-01,5.117040911315190455e-01,4.094524418274248997e-03,3.023390173652179373e-03,3.309132320464222218e-03,9.502206444740295410e-01
-4.386695983925226194e-01,-4.264476444889399587e-01,4.907051176951958693e-01,6.630807595057815369e-03,-1.052364758609197759e-02,-1.898174823011836501e-03,9.235816001892089844e-01
-4.210667810674881273e-01,-4.288689594150028039e-01,5.395838226187614772e-01,-6.143310446010919086e-03,8.714210113649353828e-03,-5.990751850843333177e-03,9.648079276084899902e-01
-4.385943154826832391e-01,-3.467839716965867014e-01,5.317975915518081687e-01,4.492911796163204935e-02,2.317791846922481400e-03,1.765682862600529909e-02,9.316678047180175781e-01
-6.915541784973805450e-01,-1.558020706183037007e-01,6.545287313032518428e-01,-6.473642170177693056e-02,-2.636292007658468800e-02,2.047682810490902144e-02,1.180558323860168457e+00
-5.327439008958968492e-01,-1.407297170530286134e-01,5.531409333518719773e-01,1.618592410597678721e-01,8.527325358331158678e-03,8.664376301772262756e-02,1.004227876663208008e+00
-4.567989781095715407e-01,-3.727431119634050938e-01,6.172361443912224299e-01,1.449065169479289983e-01,-1.522811869597761117e-02,-2.640326899291333546e-02,1.065888643264770508e+00
-4.775606748002705904e-01,-3.753893661161841200e-01,6.267041985142305371e-01,1.164643894557527010e-01,3.234610078255457846e-03,-1.876441770382627355e-02,1.076473474502563477e+00
-6.008297431091038643e-01,-2.801211138429469671e-01,6.006418910663524624e-01,2.578823122872920814e-01,-4.145793207607996467e-02,1.368444128824029826e-02,1.168885707855224609e+00
-4.677854056897789992e-01,-4.504440426344236692e-01,5.704267300499937798e-01,9.389217547037280454e-02,-1.787970463711427774e-02,6.402170678052237184e-03,1.042933583259582520e+00
-4.000354169634287582e-01,-4.169565048556058695e-01,5.327774445564287253e-01,1.079235176163719032e-03,-1.400301510260739324e-03,-6.810687854360094121e-03,9.414663314819335938e-01
-5.053451405806244079e-01,-2.518089862990157690e-01,5.425525476911315925e-01,-2.850818981845523042e-02,6.298744840450464649e-03,-1.492239638954118153e-02,9.486387372016906738e-01
-4.148187817579372383e-01,-4.007996517497646183e-01,5.308534468379590976e-01,-7.312754617564115600e-03,-2.655060445796188044e-03,5.443417812160732203e-05,9.388378858566284180e-01
-3.934164267541763738e-01,-3.917292499408492890e-01,5.211859993006594527e-01,-1.217794461250023240e-02,2.224540369985854131e-03,-2.823448353481641197e-03,9.140246510505676270e-01
-4.387638625827244288e-01,-4.382806308029822961e-01,5.505347713198127657e-01,4.426544289145835994e-04,2.109475319637843082e-03,-2.986481307830518052e-03,9.890776872634887695e-01
-4.020643648864651309e-01,-3.974212293708559995e-01,5.258750652330085318e-01,-2.312376776452450180e-03,3.323068783062477043e-03,-3.411327298492814256e-03,9.256719946861267090e-01
-3.798656305217668061e-01,-4.146375032431767749e-01,5.286321011637539202e-01,-5.364310408810665613e-03,1.040029632945323537e-02,-8.663444947688170306e-03,9.267164468765258789e-01
-4.254817698688188043e-01,-3.656351890441074115e-01,2.702476921767350548e-01,1.086220181089762316e-01,-2.515676224436632497e-02,-1.583769303769430592e-01,7.473477125167846680e-01
-4.749396410513467837e-01,-4.210693943149154128e-01,2.611594301357562653e-01,-1.101173348680284901e-02,5.127922519394238071e-02,-4.270004185535845875e-02,7.202863097190856934e-01
-2.961206787975950716e-01,-6.636549139528550301e-01,2.747654518062716544e-01,1.388653182441615050e-02,-1.247888552606756241e-01,-5.602511782673184892e-02,8.529503345489501953e-01
-4.634364481505814926e-01,-3.735048170807427903e-01,2.272801215275316311e-01,2.359000625896557832e-02,-1.645124037667847899e-02,-1.838906324951591897e-01,7.259397506713867188e-01
-4.218429179443768384e-01,-4.323575091333603515e-01,4.506378204475838256e-01,-4.356638588072529392e-04,2.888879195447295947e-03,-2.226901406642547640e-02,8.786468505859375000e-01
-4.772785999022018388e-01,-3.874390697170074227e-01,5.307946353723776989e-01,4.151118942636151943e-03,-5.110144747427448550e-04,-1.680014130080895781e-03,9.663223624229431152e-01
-4.427575305788944426e-01,-4.274219663127273861e-01,5.101398018889466979e-01,-4.185677257664732059e-03,7.803677007891374586e-05,2.260436735763575802e-02,9.461610317230224609e-01
-4.319601417062776116e-01,-4.201233977637223171e-01,4.531579679227601964e-01,4.386196250953889805e-04,-3.543765393076867866e-03,4.127606990499724585e-03,8.793103098869323730e-01
-3.896858086432886670e-01,-5.236682514596733284e-01,5.292327124310950426e-01,1.325508091265357666e-02,7.239244494651159156e-02,-9.760475745065510383e-03,1.001007676124572754e+00
-3.749774222495576015e-01,-4.220626808801508090e-01,3.326147457541107633e-01,1.496231391810381485e-02,1.220752258540566682e-01,1.617181740401114898e-02,7.631409764289855957e-01
-4.101131220608887906e-01,-4.036866533108623423e-01,3.758899419148302723e-01,-4.910655199242021634e-04,-5.485321928933908561e-03,4.663688846054026352e-03,7.829093933105468750e-01
-4.071450014223434999e-01,-4.452532004378559338e-01,4.284011114478654125e-01,4.078705935789894710e-02,3.319003344096079638e-02,5.365795717568222489e-02,8.650801777839660645e-01
-4.225634613426839659e-01,-4.432720297245485441e-01,4.388028499602597554e-01,5.128275781213403883e-02,2.274128933937097016e-02,7.150119681429850660e-02,8.860005140304565430e-01
-3.931295408123586799e-01,-4.651228845981382753e-01,5.254808558304466803e-01,7.576203500812162678e-03,-1.150888599522494407e-02,-5.241828993649877248e-03,9.569816589355468750e-01
-4.246640475295888062e-01,-4.278374574996641200e-01,4.108195057081729384e-01,1.295151273315072425e-03,-5.928908196199329794e-02,3.682417926135529707e-02,8.457617163658142090e-01
-7.236747233537625945e-01,-1.718521447922277401e-01,4.217106445649526636e-01,-3.557041222707845590e-02,1.769410270238837637e-02,1.251744656256653376e-01,1.017893552780151367e+00
-4.821880448259483476e-01,-3.608927929448089711e-01,3.620141926670671362e-01,-1.035548081286403466e-01,-5.835875369011485347e-02,3.347193396797606274e-02,8.189880251884460449e-01
-4.055174712769937795e-01,-4.074950991876825634e-01,3.541764234708463244e-01,4.373911670131284957e-03,-3.720179132960994839e-02,2.137956305795308751e-02,7.643439769744873047e-01
-4.450327524600214968e-01,-4.369829823787099721e-01,5.395641513171879344e-01,-1.365670758590383903e-03,3.388948767041841635e-03,8.762263826600617117e-03,9.807346463203430176e-01
-5.803540351952072296e-01,-3.289991922164620108e-01,1.043091900235710856e-01,-8.321679125081801742e-02,-1.113353613297588494e-02,1.255187607450331672e-02,6.176319122314453125e-01
-4.232296864904699918e-01,-4.238745079912805691e-01,2.967566819265317068e-01,-2.397792772040401033e-02,1.775899444069272554e-02,7.414464712148513548e-02,7.334904670715332031e-01
-4.996805911629432218e-01,-1.790242738037402526e-01,3.411407678781086528e-01,-1.474014060874842269e-01,-7.916595449464804146e-02,1.348350165866992190e-01,8.238392472267150879e-01
-4.260570979829382821e-01,-4.341731913535869514e-01,4.761208305927719930e-01,1.313110720295936323e-03,-1.429752906471944444e-03,1.737667824021796661e-02,9.067690968513488770e-01
-3.880319691757463385e-01,-4.024026399549971433e-01,7.668653686897844990e-01,2.927665493236293881e-01,-6.786733081962313674e-02,-1.164712147203668668e-01,1.289279818534851074e+00
-4.945809371630494056e-01,-2.401166443473681800e-01,5.545812110622837521e-01,1.739059174352598491e-01,-2.620090229557054534e-02,-1.393650855722601209e-02,9.959372282028198242e-01
-4.140925802174683645e-01,-3.477765631589476714e-01,5.883989676118476231e-01,1.957675055201338055e-01,-7.162016495766755642e-02,-9.119874800979260732e-02,1.047960162162780762e+00
-2.623355891760679182e-01,-4.095189537375854560e-01,5.476183221552173297e-01,2.456052866432721637e-01,-6.952227364512443553e-02,-1.984446110857260304e-02,9.967684745788574219e-01
-3.915688164820330663e-01,-4.433112431536805897e-01,5.439746166261374416e-01,5.636301177488350217e-03,1.277977802089932599e-02,9.870485014411140706e-03,9.629141092300415039e-01
-2.858209537655762578e-01,-5.020889859697444946e-01,6.498752401430721859e-01,1.179277442565682676e-01,-1.721816986664525401e-02,4.105165319126954059e-03,1.080426454544067383e+00
-4.177209629136819924e-01,-4.440527170675185320e-01,5.411895380908813280e-01,8.093841827206294404e-04,-4.802505249241926025e-03,-4.618972746398115892e-03,9.724133014678955078e-01
-4.136601923204989983e-01,-4.305501760970103509e-01,5.492610026144590929e-01,1.846404373609940655e-02,6.130104370055313584e-03,4.494763576200065669e-03,9.720917344093322754e-01
-4.368197241213083726e-01,-4.518569605743329998e-01,5.586805464241778596e-01,2.011840661429788527e-02,4.641992732404622360e-03,1.886272927630269509e-04,1.003740787506103516e+00
-3.830581041956505617e-01,-4.437755311145704651e-01,5.385004940810297347e-01,6.703788173317970674e-03,-1.372174816598474914e-02,-1.055469373531541140e-02,9.539105892181396484e-01
-4.098378013375630347e-01,-4.239777109251585130e-01,5.407154590288922869e-01,3.911015295847917669e-03,-8.155786522657628920e-03,-9.638643917808243158e-03,9.579750895500183105e-01
-4.260053219230662824e-01,-4.416319700941749304e-01,5.398229943492502958e-01,-6.322493269198920744e-04,8.423548032728604001e-03,1.713790562352701056e-03,9.738501310348510742e-01
-4.403128226394045219e-01,-4.392599395196076228e-01,5.436478675040763431e-01,-6.877172311783469891e-04,-4.143797941980821749e-03,-2.539046333106096624e-03,9.834713935852050781e-01
-4.116387936130100345e-01,-4.082843297223759382e-01,5.353771886165082927e-01,7.454423999746508621e-03,-3.237735296581544311e-03,-5.888715488585632984e-03,9.455030560493469238e-01
-3.952406051813717736e-01,-4.655779043622029767e-01,5.481749952382887203e-01,1.704143153633652869e-03,1.199872696811287928e-02,1.912827761944054482e-03,9.807085394859313965e-01
-4.439287388114968591e-01,-4.259229070360100455e-01,5.004290527964275759e-01,2.954825887749927722e-03,8.086158970455963393e-03,-8.494560660775644229e-03,9.357193708419799805e-01
-3.116026737429747895e-01,-5.787194194626134047e-01,6.079578802146812233e-01,-5.804556794393700425e-02,4.333448270833228227e-02,-9.852259368479764426e-03,1.085636019706726074e+00
-4.191271573719785870e-01,-4.276580890211070796e-01,5.081949876576399294e-01,-2.467547866233529841e-02,-3.236397046935455754e-03,-1.441338934782404602e-02,9.329476952552795410e-01
-4.142299066292808307e-01,-3.698976855978383105e-01,5.297385100780317435e-01,4.786773947328221146e-02,3.449845100422190740e-04,5.203605786322730922e-03,9.263633489608764648e-01
-4.286907701994203679e-01,-3.633702756909279463e-01,5.316839161391400115e-01,1.355023447315594626e-02,-9.142705033633163197e-03,-7.520292941104627857e-03,9.299598932266235352e-01
-4.442479078171929774e-01,-3.574147058253692721e-01,5.352278821708296164e-01,9.214566187792629093e-03,-1.069230348147638676e-02,-5.903726663961148848e-03,9.394488334655761719e-01
-4.523690659530687497e-01,-3.546227972358284575e-01,5.364056290946899175e-01,1.422549893525184260e-02,-3.524241928187703786e-03,8.560788741822714099e-03,9.441636204719543457e-01
-4.044388893188931022e-01,-4.245796758869159748e-01,4.066390527268338717e-01,-1.072952249141043038e-04,8.016436219379346334e-04,-2.848785872598230684e-02,8.228155970573425293e-01
-4.094161498432278834e-01,-4.236549226973939097e-01,3.957145580892781345e-01,2.882031431670384510e-03,1.005737087284406910e-02,-2.974262560153453222e-02,8.141772150993347168e-01
-4.029592119407772177e-01,-4.214609243642368219e-01,3.936308788674397485e-01,3.869531155599713074e-04,-1.160198179443297853e-02,-3.857852559825452471e-02,8.090151548385620117e-01
-4.184888071387558028e-01,-4.294489183417408151e-01,4.449216194975088579e-01,-1.081193126363509324e-02,2.176968564340864450e-03,-2.088439591035667203e-02,8.699046969413757324e-01
-4.166772089737754703e-01,-4.147766426949425767e-01,4.014723284384179580e-01,5.466707893441197230e-03,-1.265740099558831586e-02,-2.090322598016437078e-02,8.183510303497314453e-01
-6.416509521336918320e-01,-2.703873884341902456e-01,2.294896480761531299e-01,1.860581953494362117e-01,-7.999539899342471977e-03,-6.847762946184926536e-02,8.315120339393615723e-01
-4.063234020049675266e-01,-3.961602962693780428e-01,2.566318139616665661e-01,1.215768263374084144e-04,-4.496133414473120482e-02,-6.572945079170325333e-02,6.722357869148254395e-01
-4.664031368359647378e-01,-3.620084329479117957e-01,5.388710110834104006e-01,-6.159257117880325740e-03,7.606152838924164217e-03,-7.521978551969576293e-03,9.575939774513244629e-01
-4.852508065950634775e-01,-3.033990666954522464e-01,5.474018034358164586e-01,-1.553737685426028609e-02,-4.532578722485905952e-03,-8.678649903759211651e-03,9.553343057632446289e-01
-4.666173361269554953e-01,-2.798681904396611020e-01,5.280546550728140165e-01,-6.446895065146691917e-02,-5.841226525343567837e-03,-3.481704308999774948e-03,9.225513339042663574e-01
-5.570792148716774417e-01,-1.899301513821529952e-01,5.593053949561288540e-01,-7.927089504194448355e-03,-2.897836873328404807e-03,-7.068368658455411943e-03,9.856962561607360840e-01
-7.828083393593685546e-01,-1.465713236706795985e-01,7.164739713260550591e-01,-1.601154984628897493e-01,-4.937500391678811829e-03,1.171022946583983038e-01,1.347912788391113281e+00
-3.269712612837054611e-01,-4.529843816515364829e-01,5.416100465024142885e-01,1.115899993277859846e-02,2.042395569895329513e-02,-4.034805632248514642e-03,9.388499855995178223e-01
-1.508726252659637335e-01,-6.515962836234562294e-01,8.665862301516840116e-01,1.614921697404290701e-01,-5.112101659304690848e-02,-2.545021835538126276e-03,1.371681809425354004e+00
-1.909629827456197915e-01,-5.371124392155938176e-01,8.434319528010116862e-01,2.432842001153747435e-01,8.557884920521427463e-02,-1.143432977154209759e-03,1.321886658668518066e+00
-2.013138242511178788e-01,-7.032409853345390482e-01,8.594130254495018217e-01,2.136164851510467533e-01,2.933137204240993806e-02,-1.599531817017879262e-02,1.431685924530029297e+00
-2.724446345998599583e-01,-5.011052775484751143e-01,5.933834223824322462e-01,1.642408969996689005e-01,-1.124561711984161938e-01,-4.443871490991589679e-02,1.060525059700012207e+00
-4.236061701324104201e-01,-4.292941268260309640e-01,2.976473015090892460e-01,-2.649948134359535537e-02,4.657011908658940241e-02,8.903369845171395930e-03,7.302001118659973145e-01
-4.411079428097131605e-01,-4.390956792599027825e-01,5.385505785218404062e-01,-1.812599208133228341e-03,2.621021029650982045e-03,3.900151329384602197e-04,9.786697626113891602e-01
-4.340485575866246948e-01,-4.390257187033506092e-01,5.301185397305459013e-01,-7.112523628366525415e-04,-3.943023642088747116e-03,-2.248414165887164477e-03,9.666980504989624023e-01
-4.278818656533325826e-01,-4.315616834208793606e-01,5.021183477488875280e-01,-5.783984347248080594e-04,1.092081635348366754e-02,-2.718555483458921004e-03,9.320499897003173828e-01
-4.177277217925813302e-01,-4.195630108883725562e-01,4.391646021885239337e-01,-3.377430157106251461e-03,3.905721276695185706e-02,1.050021307337762645e-02,8.606868386268615723e-01
-1.973750294728238985e-01,-5.262386622582295725e-01,5.380578249604279772e-01,4.455162503491216786e-02,9.752053230228924577e-03,2.390726385970500922e-03,9.471678137779235840e-01
-4.233439214787098059e-01,-4.219112652328183000e-01,4.485681234508521742e-01,-3.397047528222077450e-03,6.962679511453132714e-03,-5.342257306035960891e-03,8.713490366935729980e-01
-1.954493219103475843e-01,-6.107036044320528489e-01,6.546430794888475901e-01,-4.385636655279621238e-02,3.232159700738604369e-02,1.746938850120257356e-03,1.121165037155151367e+00
-2.523065178638758121e-01,-6.555313206447846985e-01,4.453988900808156792e-01,2.355739612190817789e-01,3.685522893878048073e-02,7.443211366727826850e-02,1.057305932044982910e+00
-3.478589339002183811e-01,-4.749502484901596544e-01,5.371408673829857205e-01,1.238369362533996154e-02,-7.060361619370085842e-03,-1.626231457970314133e-03,9.552330374717712402e-01
-3.478546168032973229e-01,-4.849121890037274007e-01,5.385856120208958320e-01,2.798121125571405906e-03,-1.365077814653041163e-02,-5.808112783485373624e-03,9.626724123954772949e-01
-2.549016727066866772e-01,-4.992644598061653505e-01,5.340955005060270544e-01,3.359892325386920620e-02,3.204300308261754000e-04,3.932764172587781791e-03,9.372644424438476562e-01
-4.426695184459119026e-01,-4.252641591918449038e-01,4.979912008603727402e-01,-4.944637224004075696e-03,9.528070556009796827e-03,4.641989667895308515e-03,9.323000311851501465e-01
-4.128627241848482066e-01,-4.336020477187905731e-01,4.376980063483301153e-01,3.111170874452865061e-03,5.206249792741824908e-03,-8.551823558587657529e-04,8.611830472946166992e-01
-4.276335581941244079e-01,-4.477824834817987210e-01,5.156987758744943084e-01,-1.845200399687984931e-03,2.559042070614624478e-03,-9.637435030369017816e-03,9.537281990051269531e-01
-4.939299100294617384e-01,-3.138531469732075974e-01,5.495082394931960490e-01,-1.317984769831273550e-02,-6.667919874156337176e-03,3.124854099753243686e-02,9.679234027862548828e-01
-5.410181640595945751e-01,-3.348838808595824279e-01,4.910198184587671877e-01,-1.275572581118601320e-02,-2.267380957894268856e-02,-2.578270399145310681e-04,9.470406174659729004e-01
-4.193997972878098501e-01,-4.290338907968161974e-01,4.415578808321791726e-01,1.094683353119266075e-05,-6.988017254601049458e-03,6.510085181175325267e-03,8.659729361534118652e-01
-4.269570448427484899e-01,-4.261359599470084802e-01,5.353057233927066560e-01,-9.878283201079579925e-03,-5.477336133859188674e-03,3.254495506679012592e-03,9.620679616928100586e-01
-4.214301486640094074e-01,-4.362033281298135501e-01,4.760691443147153645e-01,2.834086788638767989e-03,3.016201000689790928e-04,-1.634499317002343841e-02,9.054324626922607422e-01
-4.466648299694437330e-01,-4.405371832408943589e-01,5.230477005383280531e-01,4.648446767403792944e-04,-5.598540560162131030e-03,-4.202140977101188890e-02,9.694482684135437012e-01
-4.354813086325082239e-01,-4.307011977918837609e-01,5.497948645883956598e-01,-2.688892860057303606e-03,-8.399331919383950379e-04,-2.342418720121723294e-03,9.829153418540954590e-01
-4.410550909779193396e-01,-4.427871433828070580e-01,5.489333951870656314e-01,-6.318834526251416528e-04,2.344053237689055959e-03,5.339756984258391993e-04,9.908649921417236328e-01
-4.450472038886357229e-01,-4.431878053764586878e-01,5.467540740860231674e-01,-2.798810056474882162e-03,-1.678213469146031065e-03,-7.513474541905956977e-04,9.908898472785949707e-01
-4.428290904542722672e-01,-4.474485293212924764e-01,5.512029612228273034e-01,-4.594352373779329000e-03,2.890913164634052214e-03,1.698496640532563481e-03,9.963985085487365723e-01
-4.343681504280376138e-01,-4.251591545092864854e-01,5.458226846372831176e-01,3.936447032998448628e-04,3.510572655398178435e-03,6.157702935085071147e-03,9.756964445114135742e-01
-4.379114042012476893e-01,-4.374904715882371176e-01,5.486344513824300551e-01,-1.987398496160183714e-03,3.999100526103319987e-03,-3.020428118639398567e-03,9.863796830177307129e-01
-4.389399041138904445e-01,-4.410924685887090413e-01,5.516634759186269665e-01,-9.498866978612357506e-04,1.376724135458600026e-03,-3.294902362322041996e-04,9.916858077049255371e-01
-4.269720164742591972e-01,-4.362348935452387555e-01,5.473256789243551301e-01,1.134260108786460525e-03,3.632206207078486973e-03,-1.369242284560257851e-03,9.789870381355285645e-01
-4.377405603841712511e-01,-4.375407914393400488e-01,5.453661155457903975e-01,1.723934261950475517e-03,9.762934035111576862e-04,-2.889313393598927013e-03,9.830255508422851562e-01
-4.607569983291195936e-01,-3.128754933543901884e-01,5.292168570814040907e-01,-3.004054831036188228e-02,1.208221466317013423e-03,-6.233041215642042346e-03,9.264699816703796387e-01
-3.259355708147128605e-01,-5.067818472851564060e-01,5.553346185760437148e-01,3.884579833255935154e-03,-1.400428632971644632e-02,6.165671246305878643e-03,9.846139550209045410e-01
-4.994796693131758891e-01,-2.571395801041497231e-01,5.409580084181779824e-01,-3.372746147114339538e-02,-4.838613143788085026e-03,1.115217018771708091e-02,9.449632167816162109e-01
-4.858491051081037515e-01,-3.044938295822503527e-01,5.546460679146014705e-01,-1.564763358794929796e-02,9.184464039269542301e-03,-1.215242122375311223e-04,9.632280468940734863e-01
-4.626178693175601597e-01,-3.079574560034037400e-01,5.443684623211951790e-01,-3.057347726775907007e-02,6.495702737216450112e-03,-6.473986519398332654e-03,9.408809542655944824e-01
-4.390283853593729413e-01,-2.814157626406530999e-01,5.454521612749818615e-01,-1.375200153635542377e-01,9.610944408571749087e-03,5.478405342660274714e-03,9.465619325637817383e-01
-4.596120012631585428e-01,-3.122339017119259430e-01,5.312974795767435587e-01,-2.528665191237190399e-02,5.798652355045845214e-04,5.482091674276339324e-03,9.271423816680908203e-01
-4.326423981586501322e-01,-3.606586823832555466e-01,5.376127384667264142e-01,-3.230814824104848160e-02,4.740393116959095918e-03,6.792301364184894202e-05,9.380474090576171875e-01
-3.176554200886247958e-01,-4.618994191863131649e-01,5.816834148446686781e-01,-2.139878612654541323e-01,-3.544807912038978881e-02,8.074077546387740945e-02,1.058319568634033203e+00
-2.106374555976485985e-01,-4.908587365546794867e-01,3.096627088138624861e-01,-4.871563184486592257e-02,-3.730794918893109297e-02,2.218451746596948257e-02,7.126058936119079590e-01
-2.380178246811217591e-01,-5.138416221568097297e-01,5.198624220741013824e-01,-1.349134890254949926e-01,3.812788623557956946e-02,3.413397786020140601e-02,9.601896405220031738e-01
-2.763969092826477625e-01,-5.379660774605756757e-01,5.538750819799873604e-01,-3.062423260917892034e-02,-9.975334163772385174e-03,6.002852892730740388e-03,9.890215992927551270e-01
-3.068937064234510403e-01,-5.098564564327936477e-01,5.299387051986522712e-01,6.916853184444967263e-04,7.212873948196210638e-03,2.722810945514986952e-02,9.558816552162170410e-01
-3.728570675352767538e-01,-4.601682454537309730e-01,4.908660552575772051e-01,1.358051571719227265e-06,-1.930539198927329336e-02,2.467553355545196950e-04,9.111376404762268066e-01
-3.489788100339733523e-01,-4.839510305361248710e-01,5.492461148827441075e-01,-1.097608808548646356e-03,2.046323889972394977e-02,-5.016428317826519302e-03,9.734455943107604980e-01
-4.000847756952254364e-01,-4.261486635504115883e-01,3.369940362391993238e-01,-1.903931476648808643e-02,-1.697601809828313407e-02,6.091766804228815682e-03,7.518237829208374023e-01
-2.399060860857032962e-01,-5.278170602161723624e-01,5.366402653399052758e-01,1.399418995003846519e-02,-1.275898180739323817e-02,-4.149302075332742326e-03,9.542644619941711426e-01
-2.432888889227011187e-01,-5.715940045659561042e-01,5.487690599890128196e-01,6.306063994593927302e-02,-1.596893878473206070e-04,8.948175232903287854e-03,1.003666758537292480e+00
-2.111405379003383209e-01,-6.127347915385730204e-01,5.583294714828317407e-01,-7.188920792767746100e-03,-1.674346689149137229e-02,-2.322916609064320723e-02,1.031984329223632812e+00
-2.723945799127106548e-01,-4.897847635986841697e-01,5.284855915538970716e-01,4.095177714204339264e-02,-1.035467353793597355e-02,7.541332994788376223e-03,9.318231940269470215e-01
-2.209309048950089949e-01,-6.350404846211458176e-01,6.451766363198772058e-01,1.444098509414774335e-02,2.411317462601881428e-02,-2.461538619679235970e-03,1.132554888725280762e+00
-3.109177186418125016e-01,-4.716661948382050995e-01,5.552322614401935530e-01,-8.370313000423516836e-02,3.640676416332620964e-03,2.254328379558606166e-04,9.676501154899597168e-01
-2.424949673249439663e-01,-5.482158635978531258e-01,5.664321149088111795e-01,1.017930750683885286e-03,-4.657739718511199473e-03,7.457104071206532847e-04,9.975991249084472656e-01
-4.122651764518203699e-01,-3.979950221095822638e-01,4.338984158705473382e-01,-4.703228186474178729e-02,1.876431869654614226e-02,-1.459107291759964911e-02,8.440691232681274414e-01
-2.526077843985741200e-01,-4.640049805131596372e-01,3.593103627516851528e-01,1.346747232773543024e-01,9.578703152401828180e-02,-9.346873507131446546e-03,7.941597700119018555e-01
-4.114878445086296854e-01,-4.431130902672902883e-01,3.512336965147985213e-01,5.189564837682304407e-03,-2.434293440935594161e-02,-7.035814508523502431e-02,7.896676063537597656e-01
-4.122200760170338651e-01,-4.253174438280589165e-01,4.195249336691729836e-01,-7.016913473647909578e-03,-2.006847194118003760e-02,-3.521133031399767410e-02,8.413919806480407715e-01
-4.124514646792316053e-01,-4.191844216725601480e-01,4.072127130561992159e-01,3.324720942671232499e-03,5.295540349168822818e-03,-1.934955661807253452e-02,8.238045573234558105e-01
-3.056518649565003187e-01,-4.689945261396965548e-01,4.871875469652559021e-01,6.469502379936947767e-02,-1.731893127901358923e-02,-1.299856091471194783e-02,8.937240839004516602e-01
-4.153291304785040605e-01,-4.249245153836984645e-01,4.336331788837851642e-01,4.034547167906477223e-03,-2.963657247466007071e-03,-1.425079906333951221e-02,8.542011380195617676e-01
-4.103072068175939724e-01,-4.114603294177304749e-01,3.854366898010549436e-01,6.890211894710389362e-03,3.234083528274073194e-02,4.301313997890762394e-03,7.984127998352050781e-01
-4.597473301372621002e-01,-2.853306094884346944e-01,5.323163978825861120e-01,5.893124729661251837e-02,6.495493504083858175e-05,2.520771522128979585e-03,9.230476021766662598e-01
-5.084216083951585974e-01,-2.523033186703519948e-01,5.918722492557754178e-01,6.690316365532161802e-02,-1.130454643167741122e-02,-8.687944283416574459e-03,1.004228949546813965e+00
-4.890636212931586679e-01,-2.761720606483392682e-01,5.453640527556514739e-01,9.320652984430509436e-02,-5.507370387338623996e-03,-1.233711570223494647e-02,9.600794315338134766e-01
-4.138114876528138364e-01,-4.068386832788175034e-01,6.480177765838264214e-01,1.934157753690387005e-01,2.648511527950783012e-02,5.284289495423405425e-02,1.114825844764709473e+00
-3.933793724177192530e-01,-3.982683411501679038e-01,5.528133146070260961e-01,8.874878928845721104e-02,-2.673182238235355390e-02,-7.939768806054502484e-03,9.622330069541931152e-01
-5.285722784255267870e-01,-3.499084593879913108e-01,6.847263238857685952e-01,2.012728615140759458e-01,-3.747315984385899811e-03,1.905649740760137142e-02,1.187394499778747559e+00
-4.529392255512308951e-01,-3.358098579778142634e-01,5.298436971589430833e-01,6.291082713032618290e-02,1.460593628693268586e-02,-7.052607580560971492e-03,9.365528821945190430e-01
-5.150218411643161520e-01,-2.949086785986104187e-01,7.113497889279205566e-01,2.509719330754441868e-01,-2.929666495503677193e-02,4.758478394518435989e-02,1.216891646385192871e+00
-5.282674369607076592e-01,-1.938709554045627281e-01,5.896213921963341376e-01,1.723251791994197812e-01,-6.701394280571121298e-02,-7.217954821592648118e-02,1.051602840423583984e+00
-5.380484748462260880e-01,-1.923127476839867067e-01,6.435069533940299680e-01,2.287966428531682805e-01,-8.309088153500721746e-04,5.823835845460505201e-02,1.128858447074890137e+00
-4.559812341837251037e-01,-4.255026645409059616e-01,5.423491701992743108e-01,2.374053354958957293e-03,-4.472992584639696317e-03,-1.571615174937407780e-02,9.838611483573913574e-01
-4.539465484245560067e-01,-4.099731540161210552e-01,5.353612937856547793e-01,-3.189097345455851971e-03,2.162576836418583196e-04,7.511860586827744796e-03,9.681737422943115234e-01
-4.427797022715147524e-01,-4.349840274784574357e-01,5.440486075399835197e-01,7.352736506938765395e-04,7.636404994574644278e-03,-4.150512399276679726e-03,9.830697774887084961e-01
-4.826191477989885126e-01,-3.253656763479755298e-01,6.309628736957569872e-01,-1.647896889681483845e-01,-2.554300006970361414e-02,3.656312769994488066e-02,1.084948778152465820e+00
-2.822769627458441843e-01,-5.417837771799185465e-01,6.811014404218209695e-01,1.694400065383460385e-01,2.428905654551348492e-02,5.177859940340248310e-03,1.154740214347839355e+00
-4.283636175467309126e-01,-4.273635378599959789e-01,4.995272260399770126e-01,5.105232652660118137e-03,5.186387467105053189e-03,-1.722342082131229565e-02,9.279565215110778809e-01
-4.447758117684706969e-01,-4.294975118055592844e-01,5.367993862779490977e-01,-4.670155077816602932e-04,-1.934586399542697016e-04,-8.690883964000799267e-03,9.741426110267639160e-01
-4.405563453388722239e-01,-4.476254812862184851e-01,5.347470330752488454e-01,-3.988819735835681668e-03,-2.108770775244641314e-03,-3.940927426671758139e-03,9.789120554924011230e-01
-4.590562162574985394e-01,-4.072936449737196152e-01,5.365918200678231331e-01,4.456067106274380976e-03,6.433131861417800074e-05,6.190291984158713401e-03,9.708921909332275391e-01
-4.450267057924977010e-01,-4.314855104228559890e-01,5.379203975908201096e-01,-6.405713300775175544e-04,1.213785698534949279e-03,-7.478700193052370548e-03,9.763357639312744141e-01
-4.280415997133617534e-01,-4.368538126940991195e-01,4.803325893407924818e-01,6.040605089905765231e-03,1.871473611949160416e-03,-1.768709416938897203e-02,9.133918285369873047e-01
-4.214423276365617532e-01,-4.305962838492208289e-01,5.458076603207587807e-01,2.730254756250426098e-03,-1.707350183231027304e-04,-5.962136585418351641e-03,9.719257354736328125e-01
-4.178826625239741577e-01,-4.237878695166524823e-01,5.450729527627261595e-01,-1.083341460692939170e-02,-1.722193221453136112e-03,-9.314833506608999336e-03,9.662433266639709473e-01
-4.229704154188864140e-01,-4.148877078850200517e-01,5.408042685896508051e-01,3.815950188911948829e-03,-1.914103006779177432e-04,2.354142916666669694e-03,9.597903490066528320e-01
-4.393466805289762966e-01,-4.393870894389734771e-01,5.515396929516411806e-01,-4.876449705830856584e-04,2.830592917603868153e-03,-2.086184519516758647e-03,9.909256696701049805e-01
-4.137728652478540603e-01,-4.129334248230422943e-01,5.355453211923463241e-01,-4.505138491011369912e-04,4.250479538589825232e-03,-5.874886886729201521e-03,9.489821791648864746e-01
-4.216049332840566266e-01,-4.350957735537205884e-01,5.432196029179703345e-01,-1.101184397016625842e-02,1.142880336763363140e-02,-1.062616064861781479e-02,9.722031950950622559e-01
-3.953089332099950504e-01,-4.279948943522956517e-01,5.367837128193181373e-01,-1.552699775216066953e-02,1.231329162375112071e-02,-7.039884464369943265e-03,9.495568275451660156e-01
-4.355214382417317842e-01,-4.096384459100024800e-01,5.422443736966670036e-01,7.944512068072392269e-03,5.534068281698828820e-03,4.742439663222376527e-03,9.652652740478515625e-01
-2.610883014268752800e-01,-5.338251409317525953e-01,5.461217813219871875e-01,-1.042924795280185737e-02,2.340761960099817934e-02,7.710724646717365821e-03,9.737955927848815918e-01
-2.376833062002638441e-01,-5.351053100731903989e-01,5.383068902418173263e-01,-1.307056324278315675e-02,-1.315383989416348334e-02,8.270247915297275140e-03,9.605487585067749023e-01
-3.362740892600583620e-01,-4.634447150177427033e-01,5.339462786853234055e-01,-4.822997454109612635e-03,-5.232134917356776743e-03,-9.364391699043995987e-03,9.404984116554260254e-01
-2.737998419338023015e-01,-5.006585371816267838e-01,5.357567669470475469e-01,-1.987804241335210109e-02,-6.472355277913561036e-03,-3.139159163889100948e-03,9.443740844726562500e-01
-1.919117273882463282e-01,-5.169721548669737876e-01,5.354548651116675106e-01,-8.189658271986645366e-02,-2.536785617858826336e-02,5.144147400317081523e-03,9.451432228088378906e-01
-3.560562761095037998e-01,-4.630777761894800948e-01,5.364835645094719885e-01,-9.771720257990898842e-03,1.688791329835160476e-02,-5.213669125661143586e-03,9.512231945991516113e-01
-2.373142808115098479e-01,-5.201345064428859466e-01,5.386972970649482884e-01,-9.899741547998859928e-03,1.519052365943933391e-02,-4.715157805066431257e-03,9.501084089279174805e-01
-2.913385156534092912e-01,-4.891470572442952469e-01,5.430034390400038102e-01,-1.157941032709760426e-02,2.780531443971831669e-03,-4.890290966135888567e-03,9.491005539894104004e-01
-3.066575181007764606e-01,-4.671347598145920155e-01,5.407183725009183650e-01,-2.966772659681711846e-02,1.482712604715732095e-03,-6.793578791596957892e-03,9.394513964653015137e-01
-7.779557321357294386e-02,-6.186158874132594576e-01,6.380947432711412404e-01,-3.826889412966621301e-02,-6.054747050976506950e-02,3.331400635739711902e-02,1.100397467613220215e+00
-4.294551600013014059e-01,-4.471117022534108476e-01,5.165281536993741041e-01,-1.460062646423032975e-03,-4.999413794860593872e-04,9.239491464615660898e-03,9.550718665122985840e-01
-4.676305421892219538e-01,-3.960773821465994327e-01,5.507199119931945885e-01,-1.126077349207786453e-03,5.381407031356994636e-03,1.837929671077470281e-02,9.850865006446838379e-01
-4.801048626195392743e-01,-3.528529669212900344e-01,5.452465208893235715e-01,6.134825549914279912e-03,-1.262343637993070325e-02,-1.736738879688824386e-02,9.687912464141845703e-01
-4.386993707564156297e-01,-4.313984016302860325e-01,5.122146444452180258e-01,6.598392108936263021e-04,1.093386888464444875e-04,7.995457322281815035e-03,9.473865628242492676e-01
-5.047105536531377723e-01,-3.072700695743232902e-01,5.451051768502722661e-01,1.303120390046481718e-02,4.422896386861774332e-03,1.418234790394883385e-02,9.669494628906250000e-01
-4.880126518257184021e-01,-3.741137830578061263e-01,5.194739234712072440e-01,4.872142967184367414e-04,-3.324305179776081663e-04,-1.651426974149923597e-03,9.556462764739990234e-01
-4.085526991371419836e-01,-4.550365539302784756e-01,5.381730521130392297e-01,-3.101372183494629023e-03,-1.528374899494335665e-02,1.457369818653072224e-03,9.711816906929016113e-01
-4.435696280955701565e-01,-4.331739061299433313e-01,5.229856272949644502e-01,-3.741361437826790787e-03,8.350435449621888134e-03,-2.080984302004553876e-03,9.615369439125061035e-01
-4.445067883036099010e-01,-4.379359330074111267e-01,5.376331941591606656e-01,-4.197059359212317389e-03,3.002858265782661681e-03,-2.197425577098705875e-03,9.789193272590637207e-01
-4.398853691247479047e-01,-4.424817852176604061e-01,5.369484946196285691e-01,-6.762073820238326434e-03,6.508207580856933960e-03,5.538389472559327072e-03,9.783167839050292969e-01
-4.336709154436010905e-01,-4.479594287574082956e-01,5.319858045384980860e-01,-1.155213880625869738e-03,8.776747891464549423e-04,-1.915372314218762376e-03,9.728885889053344727e-01
-4.497808658654908198e-01,-4.096632143863589426e-01,5.347573433774374108e-01,4.267662285482223990e-03,5.850274676272408658e-03,5.082254056372117502e-03,9.652265906333923340e-01
-4.417057688000790017e-01,-4.367880610580612832e-01,5.423533566997000843e-01,-8.890705364824718878e-04,-1.271940635784093608e-03,-7.545186882645615184e-03,9.817001819610595703e-01
-4.453994786059722322e-01,-3.801519844541363935e-01,4.408007236249570360e-01,-1.064255105496197777e-03,1.635995115258161853e-02,-6.502604237409173593e-02,8.632943630218505859e-01
-4.366961612176546992e-01,-4.421381457663712267e-01,5.313056009955622327e-01,-3.087146996120615494e-03,-7.432366428739177119e-04,-2.377282791270233890e-03,9.707584977149963379e-01
-4.345483821497450050e-01,-4.469368397386773717e-01,5.302205980501839555e-01,-1.400033300012867594e-03,2.686699052779353229e-03,-2.544373400891885174e-05,9.710366725921630859e-01
-4.417855548589593728e-01,-4.181826813200016923e-01,5.415058324853374572e-01,2.365490092150945769e-03,4.810188803083579635e-03,7.121171009004811578e-03,9.718276262283325195e-01
-4.390340809765302388e-01,-4.388877573535944210e-01,5.409596271427515868e-01,8.096911777847018606e-04,2.612023446297734872e-04,3.130703296226808145e-03,9.799366593360900879e-01
-4.388571498942105409e-01,-4.402048917375527282e-01,5.296928227483961305e-01,-5.830238269742893560e-03,-4.892955667610708950e-03,-3.765423691037069961e-03,9.693361520767211914e-01
-1.372393862142708976e-01,-7.722048250754571797e-01,4.779851738325164856e-01,9.392008561226791730e-02,-8.427480252973577890e-02,-1.110180022173624589e-03,1.104582309722900391e+00
-4.423323451413894714e-01,-4.326699686922164667e-01,5.389894259998584403e-01,-4.181067815929114320e-03,-4.673212898050575900e-04,1.908667359104785147e-03,9.765592217445373535e-01
-5.186499099694530379e-01,-3.742686462543147741e-01,5.444890758110402240e-01,-3.295873859660106153e-02,-2.554601305759846008e-02,1.876534402098087306e-02,1.001941204071044922e+00
-4.554475389993209999e-01,-4.023487263414349813e-01,5.291321920076846874e-01,-1.604375741603103912e-03,2.157569009867345896e-03,-6.142852303487168417e-03,9.592036604881286621e-01
-4.444953408528328209e-01,-4.053927892675395217e-01,5.256201342428523660e-01,-3.602378463385111796e-03,4.093134520332545939e-04,-7.723880161150819060e-03,9.512820243835449219e-01
-5.689701024331844659e-01,-3.672313845054371306e-01,5.868896817237547747e-01,1.557118576741271625e-02,1.123655976653469002e-02,-1.038335672464366262e-02,1.070027232170104980e+00
-5.389821572016154638e-01,-2.681538778516633914e-01,5.761859359716806628e-01,-1.812151273481240818e-02,4.055971046255956759e-03,3.456733290337334064e-02,1.009726643562316895e+00
-4.393120671909816477e-01,-4.355190738994120792e-01,5.521141837462255619e-01,1.956658916184540568e-03,1.889617820252040455e-03,1.037350418823238061e-03,9.895480275154113770e-01
-4.277928705341908500e-01,-4.314970570684388829e-01,5.465273417405549505e-01,1.573405751991685661e-03,-3.838998550398386306e-03,-1.938486063473375109e-03,9.762098193168640137e-01
-4.386366338310214164e-01,-4.387536028762500373e-01,5.507089277328452992e-01,-8.114688966389170890e-05,-9.954727059089494711e-05,-2.606325058789632932e-03,9.894143939018249512e-01
-4.430607883317805862e-01,-4.410619153182196994e-01,5.503710213313369737e-01,-6.849723169602474912e-04,-4.779952764313798955e-04,2.274505346878999391e-04,9.924350380897521973e-01
-4.445467965565502722e-01,-3.870678207203762100e-01,5.447910870834957731e-01,5.129055443331155192e-03,-9.932488237230058248e-03,-1.300491954425187641e-02,9.623457789421081543e-01
-4.282253337346643707e-01,-4.321528786221514040e-01,5.469200390264471467e-01,1.596594312786308364e-03,-4.817964195437678294e-03,-3.518349142842643572e-03,9.771736264228820801e-01
-4.393925274799955205e-01,-4.386150637973060262e-01,5.489206875506141836e-01,6.266428434500332951e-04,-2.767429653602969993e-03,-1.842691759559193787e-03,9.879420995712280273e-01
-4.385495862769397402e-01,-4.453642965542989329e-01,5.338012312174083007e-01,-3.225473522228684744e-03,3.868656205684843120e-03,4.799246092368709971e-03,9.758504033088684082e-01
-3.193792005892793218e-01,-4.912653838475362633e-01,6.649417246679106830e-01,1.156689176042247358e-01,-2.386903240444795266e-02,5.041967211283079203e-03,1.099794149398803711e+00
-3.535164215133804744e-01,-4.682378324547780135e-01,5.275060047074916492e-01,-1.303008329165969426e-02,-1.507865878598938295e-02,1.136234077100340550e-02,9.444640874862670898e-01
-3.799075986869072108e-01,-4.940608855468542338e-01,5.687020031771179429e-01,-4.632792228262808988e-03,9.432531171477126844e-03,-4.833471626691913416e-04,1.010697841644287109e+00
-3.541480185683064108e-01,-4.928604296185363776e-01,5.729357186056347473e-01,-9.984482067939236954e-03,-3.354751638889218873e-03,5.560985220317888125e-03,1.003867030143737793e+00
-1.925766417140328535e-01,-6.023010485902422495e-01,5.610945984802990782e-01,7.706448704553130191e-02,5.883215410874680432e-03,7.501200866909651238e-03,1.030912876129150391e+00
-4.376450688758126706e-01,-4.409622736989289860e-01,5.300892678049411444e-01,6.310588722814609169e-03,2.045221877449882042e-02,-5.435540304286142280e-03,9.701514840126037598e-01
-4.373646057224576666e-01,-4.331403732528865125e-01,5.281884071576076201e-01,4.255752280076849749e-04,-8.417843779555706386e-04,-2.270216996630218271e-03,9.634572267532348633e-01
-4.096596749510267310e-01,-3.922890225067154346e-01,5.315560223061736034e-01,8.050324176293562409e-03,-4.333478642701943731e-03,-5.198312054283699135e-03,9.328295588493347168e-01
-4.155401825782381042e-01,-3.845720782389965842e-01,5.311585037146391297e-01,4.124667613057825255e-03,-4.684394873438919860e-03,-3.600330764955799769e-03,9.316843748092651367e-01
-4.230032299140775165e-01,-3.735230475054073240e-01,5.288158048619000517e-01,3.125466779551547281e-02,-7.426771372979486252e-03,4.727186900946601586e-03,9.297713041305541992e-01
-4.571316463838935307e-01,-3.058515124140695485e-01,5.248878027328521823e-01,3.012732723925816772e-02,2.284258169141913531e-03,7.006180083148518326e-03,9.173732995986938477e-01
-4.040816303595261005e-01,-4.014480167223998808e-01,5.341927945777901199e-01,2.141032034330832279e-02,-1.424575244404390623e-02,-1.965600335808226004e-02,9.386361837387084961e-01
-4.648494180872121961e-01,-3.089681582803363025e-01,5.430909085125250613e-01,2.533026050667854662e-02,4.396488361970206891e-03,3.174282569374145546e-03,9.408170580863952637e-01
-3.419994017753410498e-01,-4.735058079003224285e-01,5.571346813905950768e-01,1.391517765123891359e-01,1.904794666038265097e-02,6.448995527160468824e-03,1.001639008522033691e+00
-4.553673995411157693e-01,-3.324381837839132658e-01,5.558137591116151244e-01,3.324673648268909598e-02,7.284631909480107290e-03,-1.965982427165025373e-02,9.580866098403930664e-01
-4.456114520602106333e-01,-3.792144074611696891e-01,5.314703466145341837e-01,1.121894515242683257e-02,-1.609230399859044522e-02,-1.076821849544415226e-02,9.464271664619445801e-01
-4.379935248137514225e-01,-4.441764361193265009e-01,5.408243093823684733e-01,2.520154360395329609e-03,2.642043623981524172e-03,-8.933576256153887094e-04,9.819454550743103027e-01
-4.373204269051456650e-01,-4.471843013553177815e-01,5.416476969080749049e-01,1.079733646165446925e-03,2.695808402568117788e-03,-1.330299689235175074e-03,9.839527010917663574e-01
-4.366231151865119786e-01,-4.450051399694558985e-01,5.381667697251555360e-01,2.003568180081517248e-03,-8.873696383834906495e-04,2.394162617597637554e-03,9.790239334106445312e-01
-2.563156382039611381e-01,-4.938698117347987693e-01,5.290421042607564850e-01,-3.131602132866598276e-02,2.448970735551932697e-03,-5.398381755685963297e-03,9.288871288299560547e-01
-4.488116295293405056e-01,-4.153852531731179187e-01,5.425682767370747506e-01,-2.868027258461747220e-03,2.102879916569633332e-03,-9.752303432477588824e-03,9.752622842788696289e-01
-4.361527630695901103e-01,-4.371666362565173602e-01,5.155296600221120906e-01,5.403134987604782218e-03,3.586625511955683979e-03,4.043398303413315437e-03,9.522817730903625488e-01
-4.284666575192069282e-01,-4.477403709853962632e-01,5.061777285796958958e-01,1.264022816387429292e-03,1.106272303195207163e-03,-3.576079488927880190e-03,9.444535374641418457e-01
-4.127249825805364702e-01,-4.497192817418615429e-01,5.446137276260403226e-01,-2.920639732263401005e-03,5.978382285266745956e-03,-3.488288954065021409e-03,9.764483571052551270e-01
-4.370501552943111268e-01,-4.407692210630498875e-01,5.420154786634384658e-01,-9.385205916240488299e-05,-1.107228767208361629e-02,-1.565208369165876478e-03,9.811216592788696289e-01
-4.388383628943360315e-01,-4.216162847695451577e-01,4.753389295625503053e-01,-4.887466194302273956e-03,-1.972934245040035284e-02,-1.490815271130742359e-02,9.067407846450805664e-01
-4.357729533608490358e-01,-4.424862175131612507e-01,5.534782800849663564e-01,-9.918115634656699507e-04,-4.225706536916310103e-03,-5.777499759607352021e-04,9.926538467407226562e-01
-4.492400169619834571e-01,-4.029600013379531775e-01,5.026209610853348275e-01,8.782693517653435145e-02,-4.919704940322362080e-02,-1.830650005687419618e-02,9.463277459144592285e-01
-4.386737832195214404e-01,-4.363183516321200162e-01,5.036324529255831184e-01,-1.253791633663643712e-02,-5.261913216542805395e-03,1.781350252375896344e-03,9.414303898811340332e-01
-4.229708449142280946e-01,-4.149262676887486290e-01,4.130562592341998629e-01,-4.604212846895087800e-03,-2.162989790582735966e-02,-2.339367685818192003e-02,8.339001536369323730e-01
-1.991265594698082841e-01,-4.950284496734740913e-01,3.573886084436227462e-01,1.124344994265268072e-01,-8.068690098099265406e-02,-7.504220488074106118e-03,7.871248722076416016e-01
-3.880406224018211891e-01,-4.790232263755075381e-01,5.135268407699442594e-01,1.629506799482387247e-02,-8.647536784460764514e-03,-6.420102455111046519e-03,9.509328603744506836e-01
-4.380491657016738483e-01,-4.384635535085945612e-01,4.981881179047952246e-01,-3.970576334076046307e-03,-1.471363542876443289e-02,-8.312087205111362911e-03,9.369271397590637207e-01
-4.264479525401715376e-01,-4.235006610695907225e-01,4.622196718027345996e-01,-3.473746318349949912e-03,-3.199833251183255289e-02,-2.281838621624853597e-03,8.889562487602233887e-01
-3.943931288504871624e-01,-4.557088798157064580e-01,5.090213550100540774e-01,9.976843902359691305e-03,-7.056554857896002106e-03,6.017880697532231385e-03,9.358779191970825195e-01
-4.349199029124193872e-01,-4.433156720444119681e-01,4.901731172128502845e-01,-7.466052648837590358e-03,-8.851914103767436273e-03,-2.123941241403531563e-02,9.302634596824645996e-01
-3.635265596137478017e-01,-4.011779039174990236e-01,2.732027263478489232e-01,1.029434436995766006e-01,-1.414220544537823088e-01,-8.053828974032603560e-02,7.362523078918457031e-01
-4.363541003847965505e-01,-4.308820678870376453e-01,5.478997656948602080e-01,-2.112364876854812105e-03,1.685988784607812124e-03,2.190261951731418705e-03,9.815477728843688965e-01
-4.440307202094520567e-01,-4.356498179561758555e-01,5.296303946883701430e-01,-2.586889635901948054e-03,9.639112500386634932e-03,6.674097826745108500e-03,9.697208404541015625e-01
-4.390818187310377985e-01,-4.397808745148983345e-01,5.386964626519012977e-01,-4.059204394063206829e-03,-4.336552899447127483e-03,-5.502138975560626373e-03,9.782285094261169434e-01
-4.390947349435692093e-01,-4.388035893740884208e-01,5.430595077402167181e-01,4.251627355049837739e-04,-4.152688855014049878e-03,-2.532287814449502884e-03,9.820451140403747559e-01
-4.387758640040172464e-01,-4.387243759521318731e-01,5.332007955753135242e-01,2.353826487711487784e-03,-7.084601450021500366e-03,5.190119658349198924e-03,9.720785021781921387e-01
-4.421318414853734891e-01,-4.328072419594283793e-01,5.143218996251713859e-01,-3.860628719678162180e-03,-2.495330111082428876e-03,9.957951799570348775e-03,9.520152211189270020e-01
-4.394430680009487888e-01,-4.331401041980462718e-01,5.033207746172068120e-01,-8.387191383693875721e-03,1.038646037429694600e-02,8.339318354060180558e-03,9.400236606597900391e-01
-4.360178222206774756e-01,-4.368827537712701714e-01,5.114237008294727493e-01,-6.886080883671145958e-03,-4.273388977655311234e-03,9.367055961779785153e-03,9.481170177459716797e-01
-4.311040426206427245e-01,-4.207074247702681236e-01,5.444348441288052731e-01,-1.118961309106032784e-03,6.530886028800432161e-03,-1.282696569329970808e-03,9.704527854919433594e-01
-3.654767192375352747e-01,-5.054057508151316158e-01,6.211114755918983876e-01,-8.340532092765057248e-02,-1.245785728313109075e-02,-7.400024082414264704e-05,1.073463439941406250e+00
-4.381196061296532829e-01,-4.352917618848013981e-01,5.204882430480106681e-01,1.196081466964826930e-03,-1.439812245425105752e-03,7.029701334289557152e-03,9.572799801826477051e-01
-4.081463904351501082e-01,-4.358994343913961678e-01,5.457890667957385755e-01,7.832840411950502124e-03,6.282214126667752183e-03,1.134583505268432421e-02,9.684659838676452637e-01
-4.394030336212156329e-01,-4.387883998952105680e-01,5.505795351682074568e-01,1.015112599620297297e-03,1.651277996922402309e-03,3.867368159016328251e-03,9.897037744522094727e-01
-4.266458482871998692e-01,-4.275197286869938385e-01,5.451979714683854450e-01,1.715729552078762953e-03,2.729130390831159721e-03,-3.211626774897176459e-04,9.722972512245178223e-01
-4.150393367222975916e-01,-4.223691191280834478e-01,5.399924131557397589e-01,-3.158134665459553288e-03,-2.498302760260862933e-03,-1.200328828873511999e-03,9.587453007698059082e-01
-4.295436392894135258e-01,-4.354492026443097519e-01,5.004877162869374452e-01,-7.262763527890968556e-04,-1.130882368655597957e-02,-6.093754518147773223e-04,9.332051873207092285e-01
-4.702313018917653187e-01,-4.305953648340024587e-01,5.702777036128294785e-01,2.743946006013841393e-02,-1.971758232766029559e-02,-6.728614676637829917e-02,1.029561042785644531e+00
-4.429032270639248758e-01,-4.379905897243138724e-01,5.372154223529820305e-01,7.987224954669605104e-04,3.364071510262077111e-03,1.923329714302634500e-03,9.776955842971801758e-01
-4.353927134950085764e-01,-4.430616652099472197e-01,5.438231517708650431e-01,7.504801491029352775e-04,1.328981543074081798e-02,7.116336752906692736e-03,9.834203124046325684e-01
-2.967036027619633920e-01,-4.883395336523850272e-01,4.992688013108370626e-01,2.294623511021710860e-02,-1.661293335176664411e-04,7.093232235330688626e-03,9.080550074577331543e-01
-4.449821832309249769e-01,-5.019162497263605083e-01,5.160322906404082310e-01,1.333064177292409827e-03,6.022547869532941800e-02,3.124664680726419591e-02,9.976574778556823730e-01
-2.306468323852346181e-01,-6.406687638451231681e-01,4.408145356091054401e-01,-5.604241348957815505e-02,5.673583116831150408e-02,-4.928359521058166270e-02,9.595092535018920898e-01
-4.410756461137712581e-01,-4.361076056843281035e-01,5.408189791230697541e-01,-2.408862064252015930e-03,-5.189866026109259567e-05,1.782197969709876321e-03,9.794338345527648926e-01
-4.395262326927109053e-01,-4.386389013761013422e-01,5.417548532060398880e-01,1.134634665603117008e-04,3.435973943157115493e-04,2.271414744904003309e-03,9.808458089828491211e-01
-4.481797809010313327e-01,-4.363172718260753813e-01,5.371300060511920993e-01,-1.816672054174902707e-03,1.097114215900178756e-03,-1.723301378242792555e-03,9.794438481330871582e-01
-4.400717258349919891e-01,-4.383093325365970960e-01,5.406279893453025398e-01,6.912475294695752566e-04,2.099147464591047049e-03,-9.318369613491260517e-05,9.798272252082824707e-01
-4.434127911168699310e-01,-4.365629093201905397e-01,5.337129377331759628e-01,-3.096865303061433448e-03,-4.114069535917242587e-03,3.044080809776644400e-03,9.737739562988281250e-01
-4.361958163869865124e-01,-4.327983121018729729e-01,5.294493985678563330e-01,1.764059473620328589e-05,2.261781401411302236e-03,-1.115450558365836025e-03,9.639608263969421387e-01
-4.148395319760922462e-01,-4.049440656680820538e-01,3.751019770189123470e-01,2.664533086388361487e-03,-2.758337584544184873e-02,1.237050438467038327e-02,7.867982983589172363e-01
-4.091825174355297468e-01,-4.117905296874355692e-01,3.737523591446272331e-01,5.412574101279766549e-03,-2.467410236288333780e-02,4.922620466303970210e-03,7.855079770088195801e-01
-3.803170851928784346e-01,-3.747794832839875800e-01,2.485477487272810260e-01,1.764940874905438677e-03,-8.579069914875525962e-03,2.058812822887500990e-02,6.273125410079956055e-01
-4.107422680179522723e-01,-4.080071638223489727e-01,3.769045400373971511e-01,5.558827287608435024e-03,-2.066647442899159290e-02,5.704894284580563392e-03,7.872180938720703125e-01
-2.861141785967544204e-01,-4.999306490600949338e-01,5.398509230892970523e-01,-3.469275105500431444e-02,-1.871511974604654280e-02,-1.334304648185619460e-02,9.538010358810424805e-01
-4.750285190868109853e-01,-3.424910438983136407e-01,5.579486007576018869e-01,2.549653036972801198e-02,1.347151281090431738e-02,-3.811817163967796268e-03,9.748015403747558594e-01
-4.563026590044222397e-01,-3.208620416934566122e-01,5.342578678769374090e-01,3.865461708937181773e-02,-2.494953897237173505e-04,-3.196146372124043789e-03,9.326872825622558594e-01
-4.870114396412361657e-01,-2.929948030679687121e-01,5.450170945031078684e-01,1.123632535524250221e-02,9.874225421727680051e-04,3.934519757464458381e-03,9.502224922180175781e-01
-4.770938495899271770e-01,-2.839173622149281373e-01,5.285904280874621497e-01,1.418833111424649442e-02,3.327832962829534169e-03,2.587785654661890061e-02,9.257913231849670410e-01
-5.461762583329553555e-01,-1.604638739806082126e-01,5.413378640877432035e-01,1.136108482908778500e-01,-4.352732341437792751e-02,-7.999880116921248563e-02,9.877241253852844238e-01
-4.738806040836817113e-01,-3.622631202564162711e-01,5.551838317217621110e-01,-1.367217344679776472e-03,-4.856929820638403866e-03,-1.437249294365435318e-02,9.783999919891357422e-01
-4.538593449338744201e-01,-3.231349787084151770e-01,5.305644029105064385e-01,3.410201064427093726e-02,9.838775242422173172e-04,2.910492257237988056e-03,9.279051423072814941e-01
-3.960034070657705851e-01,-4.125298926350947637e-01,5.320318975656093130e-01,-2.146459831749704741e-02,2.843978770460307143e-03,-1.137095144184792350e-02,9.373655319213867188e-01
-4.566240227491716319e-01,-3.270483666590575655e-01,5.397345996180954453e-01,-2.477616679892850893e-02,1.101346861886371743e-02,-1.593712271200194500e-02,9.398850798606872559e-01
-4.033641654967684009e-01,-3.856462263198288110e-01,5.228969750189663701e-01,-1.673417649628023210e-02,1.209450601845637498e-02,-6.639250320429645677e-03,9.182991385459899902e-01
-3.236865513638936265e-01,-5.470533900537967176e-01,8.331848014288100179e-01,-3.297858580734613909e-01,-1.518180618165945045e-02,5.584724991651056347e-02,1.408181548118591309e+00
-4.422650177510951686e-01,-3.385106760293825068e-01,5.330136052856563333e-01,-6.560025019861476236e-02,1.430808754082136028e-04,-2.230672105030897124e-03,9.347026944160461426e-01
-3.585833265801809944e-01,-4.049485458685093131e-01,5.269533999773399202e-01,-6.630891909578123800e-02,-1.007473114844553014e-02,9.409826335990443408e-03,9.171389937400817871e-01
-4.027592094536641687e-01,-3.996715463214826625e-01,5.309023717150808119e-01,-1.637001927174003280e-02,-1.666425087111309076e-03,2.354970693127234928e-03,9.325661063194274902e-01
-4.145494457395050292e-01,-3.538569957056099669e-01,5.213208967231356405e-01,-2.500441594768858591e-02,-5.726387902609429356e-04,-3.138763283648925671e-03,9.080984592437744141e-01
-4.381589816870644083e-01,-4.137190598477217263e-01,4.417615946222288592e-01,-6.667466232537012580e-03,2.709766570029821520e-02,9.824648011131623462e-03,8.694700002670288086e-01
-4.190251315262090714e-01,-4.403971665376957279e-01,4.321713481804566603e-01,7.415949139468702885e-03,1.354553374276188044e-03,2.118780056883130467e-02,8.629607558250427246e-01
-2.890208209379444559e-01,-5.181701346616162107e-01,5.532749579216525992e-01,-8.908266129915184267e-03,1.530336326461207916e-02,-4.985853649802944251e-04,9.777138829231262207e-01
-2.502539827936207661e-01,-4.229274627706463008e-01,3.285292889997468713e-01,-1.831232914623055208e-01,-8.954086180395118277e-02,9.144041546126326775e-03,7.678884863853454590e-01
-4.582243532814522791e-01,-4.774768789221344178e-01,5.482731803867759712e-01,-3.432330826876119068e-02,-2.540843974662360116e-02,2.076741990675481930e-02,1.019583463668823242e+00
-4.344297724445090880e-01,-4.415860038769416351e-01,5.366599766907117486e-01,-7.689953521111778101e-03,-8.476516781676506421e-03,1.501890322741721018e-02,9.752361178398132324e-01
-5.834568737038625663e-01,-2.274864948004641785e-01,4.581551812024368120e-01,-4.315156603480578557e-02,2.654266481348184145e-02,1.062982348517132192e-01,9.394068121910095215e-01
-4.809681580281436886e-01,-3.552732705794428014e-01,2.723564303103509499e-01,-2.855469332495618948e-02,-3.219974243514765050e-02,2.350073699300057606e-01,8.123115301132202148e-01
-3.559267942484355407e-01,-5.374930412084888420e-01,2.508315902421821564e-01,-1.855953922628809927e-01,-3.567662353728820457e-02,-7.390246536372184483e-02,7.967615723609924316e-01
-3.604767560113870672e-01,-4.763431768429112201e-01,5.119575949175469987e-01,-1.832158311062377296e-02,-1.310591670481204467e-03,-2.591433609721429786e-03,9.363145232200622559e-01
-4.174906869833912570e-01,-2.913574663554440169e-01,3.788418698182192124e-01,-1.447322890735742995e-01,-3.703819695808911738e-02,-3.118822875935977658e-03,7.852376103401184082e-01
-4.534803628359699301e-01,-3.897336162766228407e-01,5.086328194749295539e-01,-1.328133589726174409e-02,2.786406533221810842e-03,7.237152060435819712e-03,9.322571754455566406e-01
-6.119131747347027472e-01,-2.921607437526611006e-01,2.674233079902175181e-01,-1.830263836872405570e-01,6.685825186072513748e-02,2.068157232022402314e-02,8.423143625259399414e-01
-4.316300859999266937e-01,-4.404345970878441596e-01,5.120389209278362053e-01,4.507302511191732530e-03,-5.233983319594296552e-03,6.696240277463769847e-03,9.482483267784118652e-01
-5.312051539238794584e-01,-3.718495614509620961e-01,5.771586500977934353e-01,-3.347402335449568833e-02,-2.874594777371583532e-02,3.573134937745963552e-02,1.042550325393676758e+00
-2.722945374358584081e-01,-5.303956625617332055e-01,2.998665991536897391e-01,-6.928593186916544300e-02,1.692824972271194661e-01,-9.014225417471699586e-02,8.163383007049560547e-01
-2.085793422866453473e-01,-5.416679011971808899e-01,5.358909366539563734e-01,1.578085625644114753e-01,8.186407521220287128e-03,2.707690329968266002e-02,9.951229691505432129e-01
-4.080879858174745189e-01,-4.461622548531080645e-01,5.435032089780691411e-01,1.522028147851170639e-02,4.537297129265495908e-03,-6.015605483088161745e-03,9.716336131095886230e-01
-4.291648431468182423e-01,-4.499980744476023142e-01,5.387037333080001433e-01,5.058832793497186446e-03,-2.352728519648755127e-03,8.557741381368243194e-03,9.786115288734436035e-01
-4.443085936232473721e-01,-4.478255508811028185e-01,4.967311641808495049e-01,5.985478890101180588e-02,5.819897641487993545e-02,1.432188730918526956e-02,9.541500210762023926e-01
-4.453111461489232537e-01,-4.321294883127719255e-01,5.193692628227213337e-01,-6.073193400236947918e-04,-8.436943252144751826e-03,-1.830322377494030071e-03,9.582748413085937500e-01
-2.261214567371085393e-01,-6.502287222227086660e-01,5.845498260963389869e-01,2.264593000217341723e-01,4.478043552078507517e-02,-3.766183838226927483e-02,1.159736633300781250e+00
-3.050914683666046123e-01,-4.940317074839938316e-01,3.746757752576115319e-01,6.507196809139155491e-02,-1.822400967405353456e-02,-5.704643358661215524e-02,8.060270547866821289e-01
-2.107929354658349408e-01,-7.223237589100810485e-01,4.188992003660202412e-01,5.161638458152010417e-02,-9.593845913720856072e-03,-1.106589543951538163e-02,9.944441318511962891e-01
-3.915261206071679601e-01,-4.719242391386722080e-01,5.709183987186726705e-01,1.160635679894114931e-02,1.401368664330182590e-02,1.236793524947400399e-02,1.005780339241027832e+00
-4.331663467951273883e-01,-4.500151273678446029e-01,5.257014426058720380e-01,4.824490857277782580e-04,-6.883727317572481408e-04,-1.809968039135673775e-03,9.674084186553955078e-01
-4.301075884453395282e-01,-4.459751449410740975e-01,5.140549518661833295e-01,1.471454282236166590e-03,4.637164632214270399e-05,8.055804742354602879e-03,9.523011445999145508e-01
-4.177033099858812881e-01,-4.383694432054516810e-01,4.650646499607179463e-01,-1.850303440088400591e-03,-2.031017709426597199e-04,2.139934651756927181e-02,8.940547704696655273e-01
-4.402055933443469460e-01,-4.307576359091921936e-01,5.370973522420141588e-01,7.720066389769164030e-04,-3.473302563876123038e-03,2.862426714542387553e-04,9.726330637931823730e-01
-4.306945943287059375e-01,-4.464861691480681016e-01,5.120585103653805259e-01,-3.178548380224795449e-03,1.723615305042878933e-03,-3.020616810874381802e-03,9.507822990417480469e-01
-4.429964380902922105e-01,-4.353780896933011624e-01,5.374550062393241845e-01,-2.045142930917467959e-04,-1.882176728602409578e-04,6.069065906921583195e-03,9.767212271690368652e-01
-4.335983265393987818e-01,-4.484180926995773309e-01,5.284911174768210929e-01,2.386467212694749155e-03,4.363892166720461079e-04,6.203522050223635523e-03,9.696528911590576172e-01
-4.475743543574111083e-01,-3.514332866215437723e-01,4.270712369287663623e-01,-6.332573648583846547e-03,-4.255480331574455245e-04,2.556688140948737420e-02,8.320099115371704102e-01
-4.343563445630419517e-01,-4.482029150513507920e-01,5.324369821756909094e-01,-2.861536163672038406e-04,1.031388404056144065e-03,2.967854854742481459e-03,9.738057851791381836e-01
-4.333532913861714575e-01,-4.478201472038506048e-01,5.319488608332899604e-01,-1.135684433036055884e-03,-1.815104990193280345e-03,5.722675035507992364e-03,9.726738333702087402e-01
-1.980269017697501854e-01,-5.063967613845686833e-01,4.236957814608858230e-01,-1.117857009364471715e-01,3.893698911811037389e-02,-9.191172081068469703e-04,8.458076119422912598e-01
-3.539241611586863012e-01,-4.686889458544203357e-01,5.305527550739828069e-01,-5.888876595015182444e-03,-1.735105503498470675e-02,5.160384812549548110e-03,9.476625323295593262e-01
-4.205018155859075457e-01,-4.358944539224308690e-01,5.484047779327353433e-01,-9.323024503709496924e-03,-4.894621810732453435e-03,1.195947558430125908e-02,9.770837426185607910e-01
-2.881847986589030630e-01,-4.978551330480294190e-01,5.439700989346660798e-01,-1.881764173270888268e-02,-2.324293392779979220e-02,4.892252543853961577e-03,9.558642506599426270e-01
-3.007095722739600574e-01,-4.979369767238801536e-01,5.220615723935102537e-01,-8.364525254378980812e-03,-3.462486144268151628e-02,-1.159417288447458453e-03,9.391137361526489258e-01
-3.440457853108428998e-01,-4.867218158740245215e-01,5.591864134514197282e-01,-2.377454451182391126e-03,-1.317345825133653826e-03,-8.218192159526129317e-03,9.824862480163574219e-01
-2.569408460323031052e-01,-5.011480169722164479e-01,5.346352613516094365e-01,3.133884470746663153e-02,-1.327126580031469123e-03,-2.622903875091051051e-03,9.394204020500183105e-01
-3.149255307563732509e-01,-4.614101954168465802e-01,5.317596394580966779e-01,3.327338893963307370e-02,4.606041872580433211e-03,-2.685918228925673640e-05,9.304541349411010742e-01
-3.115997012131235810e-01,-4.579191907809800344e-01,5.252039364778976482e-01,2.454579808955049611e-02,-6.118409371386102427e-03,1.383977509582554315e-03,9.197912216186523438e-01
-2.411994425073085146e-01,-5.107107437153231011e-01,5.326421939821585072e-01,7.223793070433223718e-02,-7.433848092928050516e-03,-1.038492309401765510e-03,9.464936852455139160e-01
-1.980806497720685178e-01,-4.837565486179281615e-01,5.939943656422609353e-01,2.197516420619112787e-01,6.555431581949882833e-03,-5.039061763658060460e-03,1.039397835731506348e+00
-4.326928209319801932e-01,-4.444526243669663090e-01,5.191166890964217240e-01,-1.075750459137057684e-03,-4.683206750504635956e-04,5.170636077252894341e-03,9.577875733375549316e-01
-4.295343917092745434e-01,-4.461786804804176443e-01,5.145913893834211938e-01,-9.167593607643807806e-04,-3.240653365058793764e-04,1.003347797567900532e-02,9.527170062065124512e-01
-4.449520057505907955e-01,-4.059713080292060017e-01,5.209107877626331096e-01,5.640358521028649959e-04,-9.197649618773280026e-04,-3.898643898506618313e-03,9.470002651214599609e-01
-4.356291442796317859e-01,-4.388920906763777996e-01,5.276310356622160302e-01,-1.066745994769057728e-03,-5.976093698240966161e-04,-2.440239799222983230e-03,9.649073481559753418e-01
-4.346346931030610761e-01,-4.475562870084313638e-01,5.289329242088316452e-01,1.834166855596855927e-04,2.760067888133499632e-03,6.352417785098863484e-03,9.701671600341796875e-01
-4.405412876493202123e-01,-4.472306260740281925e-01,5.333145592706015625e-01,-4.994023274413499948e-04,-6.998121700011098291e-04,5.010597383917682682e-03,9.772573709487915039e-01
-4.322917450736318834e-01,-4.458392102836501447e-01,5.150166718000499522e-01,-9.843647306466856469e-05,1.102702540778264942e-03,9.633804300976576279e-03,9.543021321296691895e-01
-4.230310075065575326e-01,-4.248625061349198817e-01,4.509137388728754470e-01,2.400788131249827467e-03,1.924428775698353369e-03,-3.450863047345643225e-02,8.769175410270690918e-01
-4.328446823224680329e-01,-4.501023050633645162e-01,5.326935352269629442e-01,-5.240528112356465651e-03,1.839822975150930563e-03,-5.572124877404858317e-03,9.743769764900207520e-01
-4.743613442640982614e-01,-4.329138340807753282e-01,5.548304683221768618e-01,1.224718467152320286e-02,-3.107129166575127964e-03,-1.029905923164210757e-02,1.009501576423645020e+00
-4.378668533504269655e-01,-4.492334664556730250e-01,5.348147860622709526e-01,-3.586329896903241643e-04,-4.744397439843043955e-04,-4.773409708745721125e-03,9.784499406814575195e-01
-4.317940022654875309e-01,-4.493013254219463959e-01,5.290846750328351833e-01,-2.205196137287294793e-04,-7.372123529980530989e-04,-4.655257721445645730e-03,9.697853326797485352e-01
-4.263586674710908575e-01,-4.477586190967226543e-01,5.077377634695267039e-01,-1.257130455568951670e-03,2.277811501113575793e-03,2.025794823624505869e-03,9.449954032897949219e-01
-4.188772391258527850e-01,-4.365448312640360928e-01,4.694453505640281410e-01,-2.579843158665391222e-03,1.409716342840108610e-03,-1.730224659795216724e-02,8.978015780448913574e-01
-4.745687854534632044e-01,-4.163949897447273285e-01,6.166456318519671909e-01,-1.044736221488425099e-01,-7.351295349792957498e-03,1.898538274088032440e-02,1.079185247421264648e+00
-5.720695410873711806e-01,-2.380678973868313175e-01,5.612362300742395060e-01,-8.716515551928005756e-02,1.580448412848001541e-02,-1.209926808360383410e-01,1.041572570800781250e+00
-4.323225841820420579e-01,-4.345076963953753424e-01,5.239500004590766924e-01,9.366237502713126682e-04,-4.450858842687560601e-03,-1.222086663548652054e-03,9.574017524719238281e-01
-4.390355315926546265e-01,-4.387867283572342569e-01,5.330566446604795283e-01,-2.730915738575527552e-03,4.928476151359666331e-03,2.642002339713531243e-03,9.720275402069091797e-01
-4.404116349942287512e-01,-4.440522243462463603e-01,5.345815509109311803e-01,-1.156958729940060771e-02,1.458680254540678208e-03,-9.603045909497231157e-04,9.770287871360778809e-01
-4.324656803707814245e-01,-4.118140294865390016e-01,5.423687286699047094e-01,7.201519434466228378e-04,4.768626984683385812e-03,-6.150121538917694905e-03,9.647693634033203125e-01
-4.325394761049382586e-01,-4.389347579181719916e-01,5.494885850912261116e-01,4.687501907624712859e-04,-3.867787613588832222e-04,-5.723063176665930821e-04,9.852423071861267090e-01
-4.399330072364442956e-01,-4.403428816266414803e-01,5.482088222948801048e-01,-4.577130375426305170e-04,-2.796169437803751952e-04,-1.503603475603495501e-04,9.883472919464111328e-01
-4.208835984411648523e-01,-4.185332713106546532e-01,5.402101836496387977e-01,5.406700534639458100e-03,3.972434077422406541e-03,-2.436754252795955786e-03,9.600003957748413086e-01
-4.429952228575160245e-01,-4.383973219258937570e-01,5.371685573103887057e-01,-5.145537827101808424e-03,3.259943636526117794e-03,-1.251332949783794547e-03,9.779322743415832520e-01
-4.621762038875040224e-01,-3.767957773913404584e-01,4.997216329041201943e-01,-2.557918855492878098e-03,1.305201781079545764e-02,-9.301696783623364037e-03,9.226051568984985352e-01
-4.664669862609382989e-01,-3.483160655167807929e-01,5.324676415527908047e-01,-1.017274499248604740e-02,6.617341212194238417e-03,-1.077967702267659984e-02,9.458305239677429199e-01
-4.958220739466756566e-01,-4.621931937254550871e-01,5.926199932550740845e-01,-9.375889880197670057e-02,-2.605495859633718408e-02,2.971753967171934102e-02,1.086412549018859863e+00
-5.197531208235725009e-01,-2.521433627318488413e-01,5.552382977003892384e-01,4.959121482576120052e-03,-3.153578410381645530e-03,-9.462245988480210215e-03,9.694924354553222656e-01
-4.400277336721346577e-01,-4.189819064244169611e-01,5.391147036878991550e-01,-2.716349737726247559e-03,3.924304531421058187e-03,-5.337548677081640873e-03,9.688703417778015137e-01
-3.682252692437561481e-01,-4.291822273726949577e-01,5.392239648329421042e-01,-3.888782460123191287e-02,-5.696369869684203948e-04,-6.623180367325276745e-04,9.418249726295471191e-01
-3.185054430126967873e-01,-5.015766896403223152e-01,5.478513405839380290e-01,8.149830276632225425e-04,-1.329192247042160560e-02,-3.318599269388106641e-03,9.712153077125549316e-01
-5.171806058225025815e-01,-2.692735662290700605e-01,5.419560120927948699e-01,1.955935856454771651e-02,-2.812987513617218934e-03,7.032519566136152811e-03,9.601982235908508301e-01
-5.079671965662868605e-01,-2.801665402078143963e-01,5.482561088339802380e-01,-7.291016147365784496e-03,5.357945536140593969e-03,-8.020441778663928156e-03,9.629802703857421875e-01
-5.184545639765132385e-01,-2.699312401092986979e-01,5.422461477769406901e-01,-2.749671358877762289e-02,-6.189218114189448498e-03,-4.108403463302353134e-03,9.621199369430541992e-01
-5.003034331281299707e-01,-2.820815748878839901e-01,5.615752251157908326e-01,-4.134867331170865440e-02,-2.026422663864412606e-03,1.052642079707242183e-02,9.741436243057250977e-01
-4.982762044263677748e-01,-2.537967207773648148e-01,5.402528510497719427e-01,-3.633399950674235518e-02,3.093415050105375545e-03,-6.634839014790203798e-03,9.426213502883911133e-01
-6.916268066113737678e-01,-1.420984930306766203e-01,6.284506475151814264e-01,-1.846632762454981369e-01,2.951302679604011700e-02,1.064138880337708870e-01,1.207498311996459961e+00
-5.871128846685556013e-01,-1.164636179338920663e-01,5.979635430896536041e-01,-9.134222078116296939e-02,3.390616718089282423e-05,-2.219745470917313529e-02,1.046264767646789551e+00
-5.498659843938686898e-01,-2.815859135362678844e-01,5.758911596362513707e-01,-2.168945784558301559e-01,4.750470674320046716e-02,-1.221198952830902240e-01,1.109019756317138672e+00
-4.366475720177779296e-01,-4.418374437635059215e-01,5.180144757497902042e-01,7.154984296998636488e-04,1.275757890281555701e-02,-1.190849505732272627e-02,9.577454924583435059e-01
-4.995403587557977199e-01,-1.885837166223106598e-01,5.908186763548796128e-01,-2.128983939816695425e-01,-3.684717524691923096e-02,3.270466685239543925e-02,1.043926000595092773e+00
-4.545726739326414467e-01,-4.165562897694401467e-01,5.575738578177971139e-01,-2.159014147748794521e-02,-1.013580481309487094e-02,-1.666086674779787904e-02,9.949608445167541504e-01
-4.176211368244554523e-01,-2.648411859527939338e-01,3.333733049971573381e-01,-1.765506311819163565e-01,5.476326636030168227e-02,-8.256066358250474524e-02,7.717212438583374023e-01
-4.227437214815669697e-01,-4.206599191490492662e-01,3.989876457285137512e-01,-6.452134087540352565e-03,-4.113532908179542286e-02,-7.651696797574324138e-02,8.344460725784301758e-01
-4.540567127102987932e-01,-4.070548258109973894e-01,4.119081492456977411e-01,-6.458520981779426740e-02,6.723865812788581975e-02,-1.109935187894044717e-01,8.800215125083923340e-01
-4.801145974704819075e-01,-3.057028479921470865e-01,5.325187277332609215e-01,-1.193867695060141752e-02,-1.489937007551596013e-02,2.210953331432285660e-02,9.390370845794677734e-01
-4.113892581304319784e-01,-4.253416582343745311e-01,4.006152868485267637e-01,1.759378680254726490e-03,7.036755599605485495e-03,9.444834300459562654e-03,8.193295598030090332e-01
-4.295108999460799937e-01,-4.273432874880217502e-01,4.633177029384435430e-01,-8.392975480690441012e-03,1.549466930607867887e-02,1.881698573699342944e-02,8.928639888763427734e-01
-3.758936202164843143e-01,-4.188638724714720540e-01,2.717207862573975952e-01,4.263756404094742533e-03,1.596372342451237228e-02,6.991980013627513424e-02,6.815896034240722656e-01
-2.871814715415146324e-01,-4.901507508650037592e-01,5.359993091686102717e-01,-2.118080620904289751e-02,1.103468561627361441e-02,-4.998954593174267415e-03,9.421728253364562988e-01
-3.224152482135510533e-01,-5.697854110370416114e-01,4.241940307891637341e-01,-1.330706555639440403e-01,-1.124902990080492715e-01,5.251121053659824067e-03,9.457666873931884766e-01
-3.787195537982697147e-01,-3.856261538955129686e-01,2.525447681768531183e-01,4.906462817923078765e-04,-9.821584002015852286e-03,1.535944331730056123e-02,6.355313658714294434e-01
-4.817475750251435374e-01,-4.091641835228148061e-01,5.412676106673449672e-01,5.334187481325135954e-02,5.855008692726317021e-02,1.195549468023096862e-01,1.019448399543762207e+00
-4.462120429890232276e-01,-2.394409685062531545e-01,1.461577275024116274e-01,1.464422386443800170e-02,-4.991436288777922892e-02,3.454832127854146756e-02,5.318549871444702148e-01
-3.824071600350232858e-01,-4.848954658070669943e-01,2.144958802790997154e-01,6.085288934662582251e-04,1.634997069751303184e-02,7.144340052712009129e-03,6.549265980720520020e-01
-5.706581624056241697e-01,-3.010691200100972242e-01,2.675627427400155689e-01,2.279134554457158124e-01,6.297920579877355762e-02,8.814973037888959584e-02,8.604424595832824707e-01
-4.529568537251110749e-01,-4.068414297965814441e-01,4.769633340537731137e-01,-1.134600903057009051e-02,-5.081731963204173808e-02,5.973629137884198248e-02,9.180594682693481445e-01
-4.551504670551013154e-01,-3.782532183364383793e-01,4.511817271168083732e-01,-5.586773765741817610e-02,-2.608694330996084304e-02,7.726621528412447315e-02,8.871145248413085938e-01
-2.084441697425354900e-01,-5.550869562917190025e-01,7.831659687078795784e-01,-2.182873129912512311e-01,-5.447406436247692607e-02,-4.506586071107991642e-02,1.266937017440795898e+00
-4.399512761671162675e-01,-4.413782388505106402e-01,5.395559505363394237e-01,4.806386891125189430e-03,5.838454050463720742e-03,-8.162845151269879605e-04,9.803100228309631348e-01
-3.475625513893445540e-01,-4.057223460629907907e-01,5.309323434449091383e-01,-1.082824150071832053e-01,1.978129830910481043e-02,-1.276633215420857476e-02,9.290139675140380859e-01
-4.208580701733064533e-01,-3.799384267178830821e-01,5.317907161596998611e-01,1.261570971764556376e-02,5.291555352328989638e-03,-5.682112988142376531e-03,9.332150816917419434e-01
-3.921136112721503864e-01,-3.645599364983607149e-01,8.077034021476074965e-01,-2.438137781019890371e-01,2.274641151203480802e-02,1.725416683594918968e-02,1.260175228118896484e+00
-3.895921131815140992e-01,-4.377466796216144540e-01,5.457012832364492860e-01,-3.062716024448524157e-02,2.161301634268711705e-02,-1.447735003250744112e-02,9.627956748008728027e-01
-4.211586549971652049e-01,-4.109287341957799655e-01,5.383487106324936766e-01,3.069724576671444341e-03,2.311570692552812178e-03,4.779427699095784021e-03,9.544926285743713379e-01
-3.016381239259342539e-01,-4.596254358257701456e-01,5.335958555892882371e-01,2.898841143872579740e-02,7.978923562621578411e-03,6.276717811120820917e-03,9.259386062622070312e-01
-3.198837019122700021e-01,-4.085836387468881892e-01,5.793928116515615345e-01,-2.450295675857552535e-01,-9.412248788011659539e-02,2.643671917064704946e-02,1.051248788833618164e+00
-4.533225808924303823e-01,-4.491478761319388502e-01,4.046633301199857868e-01,-2.367531432802415237e-02,-3.634799694492973215e-02,5.187280265678988200e-02,8.638824224472045898e-01
-4.225022058487813426e-01,-4.369053764743086044e-01,4.661642717577939576e-01,1.063984285564688326e-02,-1.181464118247389436e-02,9.553792243621423569e-03,8.965307474136352539e-01
-4.868934598290066140e-01,-3.669143618262568629e-01,3.887724968350269039e-01,-1.040547342246474216e-01,-2.595076325233276748e-02,1.971884209649606493e-02,8.436784148216247559e-01
-5.058073945483960721e-01,-1.636611263473514155e-01,4.956008477678985891e-01,-2.024380767905500089e-01,-4.033336918069751337e-02,6.673002259039488571e-02,9.583511948585510254e-01
-5.498466048575726406e-01,-3.118924619741744730e-01,5.540790153056848188e-01,-3.347763579123749222e-01,-7.129645770700392127e-02,-1.739571781325072869e-02,1.168320655822753906e+00
-4.503423642584228337e-01,-4.331207664844957672e-01,5.309299257975539366e-01,-3.777850654545860352e-05,-3.326116177699617663e-03,-1.132372168216423409e-03,9.727948904037475586e-01
-4.471090970578009971e-01,-4.383702117011604171e-01,5.365540172212265313e-01,-2.286778269874003514e-03,-7.581502938713329670e-03,-1.863540696070369648e-03,9.794242978096008301e-01
-4.060136389547094882e-01,-4.428251401579094138e-01,5.243492510221879899e-01,6.909504856493349457e-04,6.461765903567418326e-03,-2.303788138719549058e-03,9.493792057037353516e-01
-4.047920584780154152e-01,-4.541610736643418300e-01,5.289750722242688719e-01,2.477873253810421693e-03,4.663255467423750578e-03,1.960678023248818222e-03,9.594543576240539551e-01
-4.415791173044446016e-01,-4.327537016175395101e-01,5.242215471515209169e-01,1.053722194636497449e-03,5.004109706770368650e-04,1.649260783863299405e-03,9.614247083663940430e-01
-4.008786669484446508e-01,-4.649782679675649733e-01,5.323297653222103243e-01,-5.388834862783842966e-04,2.599930061888935029e-04,-2.026169498549051842e-03,9.668600559234619141e-01
-4.146897007700967031e-01,-3.618930379275253628e-01,5.209800372664439294e-01,1.998746268237538634e-02,5.362737639804048516e-03,6.570270049262761855e-03,9.111966490745544434e-01
-2.685439834075121768e-01,-5.015150332615074813e-01,5.397240370256463082e-01,-1.927378739887250503e-02,7.098825478345478042e-04,-2.576161423946904047e-03,9.471069574356079102e-01
-2.527851190209252086e-01,-4.674554438092059505e-01,5.383452770554063571e-01,-1.245287486909326946e-01,3.511496013145481987e-02,-1.195699022122980251e-02,9.446973800659179688e-01
-2.374432924085494445e-01,-5.614897769420672535e-01,5.451797901939622326e-01,-6.587965074949846123e-02,2.585118907250775339e-03,1.404199769204325307e-02,9.923422932624816895e-01
-3.872566736944412225e-01,-4.770729043125101487e-01,5.627538437820828188e-01,-3.787126670706198513e-03,-1.228861900406009316e-02,-5.486494018736756684e-03,9.982482790946960449e-01
-2.549740623515868165e-01,-5.014978459467184235e-01,5.382624697582514273e-01,-3.267107672116623118e-02,1.393570536085480746e-02,-5.285492279502274765e-03,9.430898427963256836e-01
-2.814666663392884072e-01,-5.006050422690935253e-01,5.369720282196862593e-01,-1.608980427291852727e-02,9.326777462893892992e-03,-1.517671366347978640e-02,9.481263160705566406e-01
-3.701988186409037040e-01,-4.179200815661681667e-01,4.685496419602339646e-01,-8.331573046254556192e-02,-2.610658024207726524e-02,6.795073910149253271e-03,8.768181800842285156e-01
-4.008498530599222676e-01,-4.500816191820017353e-01,5.463782438891888749e-01,-1.166720317416872731e-02,-1.013727462453979482e-02,-6.176970433705479893e-03,9.732058644294738770e-01
-4.159190616727075906e-01,-4.134961222281935411e-01,5.374372413561593342e-01,1.817389097327142640e-03,4.557376084940668350e-03,5.808482581856192796e-03,9.522382020950317383e-01
-2.720203484890436063e-01,-5.080789992245251518e-01,5.406715584338807057e-01,3.001078989461075045e-03,-2.451595396742492494e-02,-2.216716192167260055e-03,9.538761377334594727e-01
-2.456715736060117172e-01,-5.204379244387680181e-01,5.506392428871071942e-01,-8.919333441082010969e-03,-1.392662152238443793e-02,2.559818017032166639e-03,9.639745950698852539e-01
-2.332860633078900348e-01,-5.330068828815447413e-01,5.508150345310962592e-01,-1.338405147359816860e-02,-1.214491473905029637e-02,3.580652169642147692e-03,9.698849916458129883e-01
-1.805973741265777532e-01,-5.405172949489039924e-01,5.382973621525575236e-01,-6.114159002465928590e-03,5.203668540110890743e-03,1.323694104970230033e-03,9.514700174331665039e-01
-2.567826598545437933e-01,-5.301856792490071690e-01,5.640686799246288352e-01,2.253387412871502710e-02,-8.992342701733669827e-03,-7.063677367413799882e-03,9.873626232147216797e-01
-1.474916325490833180e-01,-6.036946350898494407e-01,6.679893447864665434e-01,-1.326162085067179308e-01,1.305384258518734464e-01,-3.326782482610418645e-02,1.162909030914306641e+00
-2.694767403491865054e-01,-5.318212383977561908e-01,5.505476940940378094e-01,-3.492967084297636613e-03,-1.816939709775143227e-02,7.231239529372103861e-03,9.785588979721069336e-01
-1.911278609567108877e-01,-5.645982699876711530e-01,5.655997812302131500e-01,3.180092339723621098e-02,2.625810239838254762e-02,6.057994188468114952e-03,9.999723434448242188e-01
-4.356152771574022253e-01,-4.403569209459446965e-01,5.510821901444556969e-01,7.636972154949437513e-04,2.402117674999958759e-03,-9.942273720009526996e-04,9.890879392623901367e-01
-4.414409660301421567e-01,-4.381667820005998859e-01,5.491152778231163101e-01,8.931212483134780451e-04,1.023223037212377465e-03,-1.893223052316176432e-03,9.889314770698547363e-01
-4.331142234900131616e-01,-4.313909973038494994e-01,5.470491929448373369e-01,-2.140826967186522899e-03,-3.850560019868563659e-03,-4.844044578458225805e-04,9.793330430984497070e-01
-4.392524266447335735e-01,-4.353655133203587768e-01,5.507908532113761080e-01,3.403964989965425382e-03,4.733666446494045818e-03,3.178657090920357061e-04,9.881573319435119629e-01
-4.421252326294401458e-01,-4.404348354051239589e-01,5.459301212525060620e-01,1.909457501993990685e-03,-1.490495771150608965e-03,-1.692805534359805887e-03,9.872245192527770996e-01
-4.426514136056445836e-01,-4.381000090065976793e-01,5.357419583322572398e-01,3.195022160846128136e-03,-5.333815277916040438e-03,-2.665856185297248767e-03,9.761959314346313477e-01
-4.497269087179465163e-01,-3.974130762892301716e-01,5.464194564973696711e-01,1.663323521765629892e-02,-8.768357286815603446e-03,5.215030583215563356e-03,9.716348648071289062e-01
-4.810362008847128834e-01,-3.461992266920900785e-01,5.480631510787278282e-01,2.487050750962510257e-02,3.609820582529567681e-03,-1.979867720881508045e-02,9.703280329704284668e-01
-4.239745648814272072e-01,-4.416282038724208547e-01,5.395374745889212065e-01,3.281399191768553675e-03,5.969496103318583423e-04,5.294158111255356687e-03,9.725194573402404785e-01
-5.169788805257273800e-01,-4.383743527628505832e-01,4.626411238757222044e-01,-1.581936035276666763e-02,-6.014422067893123586e-03,7.309539635552782244e-02,9.516929984092712402e-01
-6.014492271907351251e-01,-1.179638995964453485e-01,4.918861421667252154e-01,-1.115770335966587146e-02,-6.994502971500646260e-02,7.390885847730056107e-03,9.569445848464965820e-01
-4.631522675149247759e-01,-3.836545223381570557e-01,5.051076245216933325e-01,2.950575531440141012e-03,1.102382117327068908e-03,9.772753181029974340e-03,9.312297701835632324e-01
-4.470999974298677238e-01,-4.376010311538710007e-01,5.255898605075763896e-01,2.460345509913312596e-03,1.294034509740168981e-02,7.104896146679180388e-03,9.683223366737365723e-01
-4.196991993908480989e-01,-4.314614066171296725e-01,4.014198176966428111e-01,1.227669314259520125e-02,-3.955926223240932051e-03,1.966586269512783994e-02,8.280653953552246094e-01
-4.739297389635087621e-01,-3.575398030838835006e-01,5.430111152587967505e-01,7.357211200832380026e-03,-9.017935974154945439e-03,-1.180606856942095599e-02,9.644574522972106934e-01
-4.642435057812861476e-01,-4.045145049249336267e-01,5.322641254806304012e-01,-3.601131735484691416e-03,2.143288030656721223e-03,-3.613699912788433978e-03,9.680736064910888672e-01
-7.046931373217545369e-01,-1.694002996058373289e-01,5.133077264683756358e-01,1.380194057124589091e-01,-4.311524932270911770e-02,3.179771465606569952e-02,1.088042020797729492e+00
-4.715229749924477742e-01,-3.823396042635780478e-01,5.477879769335337601e-01,1.526241867313171382e-03,-8.227583821293496871e-03,3.273795595475576664e-02,9.795245528221130371e-01
-4.236882972703026051e-01,-4.126333556249924261e-01,3.967315388109682317e-01,-5.708797547045626510e-03,-2.648652506404187978e-02,-1.070105739148408119e-02,8.165091276168823242e-01
-4.063379532788455317e-01,-4.050987670541013608e-01,3.620060299379432855e-01,-7.434016707434345367e-03,-3.572681682451782012e-03,-1.961821415206252417e-02,7.686095237731933594e-01
-3.908056155301355417e-01,-3.978849525549914001e-01,3.319672936105747540e-01,6.987717773742560534e-04,-5.046636971433803801e-04,3.429072356565534933e-03,7.263642549514770508e-01
-4.353611133753065854e-01,-4.822592753406120814e-01,1.816500603569239924e-01,1.354543732830406633e-01,3.826265777537622009e-02,-6.074576790133087711e-02,6.945104598999023438e-01
-4.125380245833262793e-01,-4.366830734512213152e-01,4.418231030761000655e-01,-6.472723865309907600e-03,-1.451844458914805167e-02,-3.571828101549405499e-02,8.693273067474365234e-01
-4.344099543637142125e-01,-4.307391212883187048e-01,4.689962662788772496e-01,-1.156087509733245110e-02,-2.515272973180747440e-02,-1.907610486369139269e-02,9.034548401832580566e-01
-4.388835794281074065e-01,-3.706968574993124710e-01,1.788877361141784639e-01,4.542650084899425844e-02,-1.484253439355210855e-02,6.727763417527161949e-02,6.038190722465515137e-01
-4.132485547055415043e-01,-4.828454549359271208e-01,4.699534018922383316e-01,4.207189334624074351e-02,-8.183814479260469177e-03,-3.978084401786295687e-02,9.255356192588806152e-01
-3.633914671619422609e-01,-3.570733690187434251e-01,9.440016738243145467e-02,-7.466085901014936355e-02,-1.105379293249646733e-01,2.008045882572327689e-03,5.100112557411193848e-01
-3.550177806506243372e-01,-4.015677421062417429e-01,5.552936366144537450e-01,9.013827991477332824e-02,6.602059766220047879e-03,-1.405909131982099186e-02,9.477906823158264160e-01
-3.355791605440821002e-01,-4.984446898801280779e-01,5.622757986199860003e-01,1.795936965524893431e-02,-1.666879697343944672e-02,-7.942800562758091723e-03,9.903982877731323242e-01
-2.980613576710310908e-01,-4.731882412350349454e-01,4.536636838564492846e-01,1.866508571740456424e-01,5.525586888737193947e-02,9.710124668593494990e-02,9.323992729187011719e-01
-4.199171902237738285e-01,-4.553703997173987328e-01,5.059827861767378643e-01,-5.768043171014399298e-03,1.278850888891254478e-02,2.030293114957449491e-02,9.450930356979370117e-01
-3.288124705088083521e-01,-4.619231419239899217e-01,5.424028938234731756e-01,2.862273218787577539e-02,-2.010500583806262842e-02,-1.312327555160196224e-02,9.470426440238952637e-01
-3.411856639636777766e-01,-4.835652096669720290e-01,5.286772928962388818e-01,-6.213838018735058383e-04,-9.951594680258610964e-03,6.478826774870178468e-03,9.493199586868286133e-01
-4.020835747865362242e-01,-3.975400869858845554e-01,5.263949857579132141e-01,2.212155207558866733e-03,3.135601236072529593e-03,4.697755408630363561e-03,9.262747764587402344e-01
-4.582520260266141343e-01,-4.000777291271567226e-01,5.085991762034597352e-01,-1.302060912406087165e-03,-1.705477594894606874e-02,1.857414105798010223e-02,9.401341676712036133e-01
-3.560601501011982362e-01,-5.351462112149758532e-01,6.353588868755906116e-01,1.186154997215528445e-01,2.806323547877624669e-02,1.022268025305891025e-02,1.112392902374267578e+00
-4.114215352919342594e-01,-4.497003362182329100e-01,5.392454890482760721e-01,-7.983981930846213932e-04,-1.028543617398469841e-02,-5.163065560150109125e-03,9.705785512924194336e-01
-4.107339347480702951e-01,-4.653073142556976016e-01,5.419551796111642394e-01,4.122921286401669619e-03,-1.290497912120486257e-02,-4.367535706769047447e-03,9.814245104789733887e-01
-3.724010358681811295e-01,-4.574964578724272646e-01,5.413251748459756429e-01,1.174182160528444187e-02,-8.468043716388503825e-03,-7.367198751581829907e-03,9.595218896865844727e-01
-4.308442116855357162e-01,-4.376778376059445863e-01,4.622092459591573554e-01,-1.625221297192732707e-03,5.685850804995953856e-02,-4.982712115931649949e-02,9.060070514678955078e-01
-4.393069374933095128e-01,-4.425730852933553727e-01,5.499685378201156771e-01,-3.194446788743966932e-03,1.517267210064253630e-03,-4.901838424272064905e-03,9.909678697586059570e-01
-4.416204868826316687e-01,-4.380915890971876503e-01,5.519619371428863275e-01,-4.904869585424184459e-04,-9.414236684330960260e-04,-1.854354542740460979e-03,9.918295741081237793e-01
-4.406563233746596531e-01,-4.422057779067891659e-01,5.489442818645194899e-01,-1.155516396612841921e-04,-1.792125418108308707e-03,-4.552500660207669039e-04,9.903814196586608887e-01
-4.390127948199689656e-01,-4.438129662543552900e-01,5.387135060150450849e-01,-5.024378618953326443e-03,1.700184580683980051e-03,-2.673391501366152809e-03,9.801892042160034180e-01
-4.411498862493020701e-01,-4.414855435941428263e-01,5.508457963033913662e-01,-2.438779315173301813e-03,-1.411704635215303705e-03,-8.682787462996356936e-04,9.921767115592956543e-01
-4.410532111828371904e-01,-4.354252119738801219e-01,5.456189128797724885e-01,6.478005088361381801e-04,6.851426068470476772e-04,-2.362425565103377315e-03,9.838800430297851562e-01
-4.428633929735834585e-01,-4.419012134422728444e-01,5.530755389729907767e-01,-1.256119256065380690e-03,1.166411281250960682e-03,-2.168368621561731283e-03,9.954696893692016602e-01
-4.398699519328219676e-01,-4.365221826990252629e-01,5.495739119282592178e-01,-1.113362214058194032e-03,-2.641875227224786422e-03,4.425796432057557120e-04,9.877870082855224609e-01
-4.461867139709982943e-01,-3.538166040828965020e-01,5.356520031603739795e-01,-9.982598926016378674e-03,-1.024098273304798953e-02,9.492316065779743406e-03,9.395375847816467285e-01
-4.311541220491266757e-01,-4.283091517217634259e-01,4.634763350845635399e-01,6.821242717368417854e-04,1.765615222519630045e-02,-2.894335219327723308e-02,8.951404094696044922e-01
-4.128867863872514032e-01,-3.484498368203481355e-01,5.521922959273757314e-01,-1.251028475556820174e-01,2.123368419713772895e-02,-1.958463139520707011e-02,9.606239795684814453e-01
-4.543795641995633239e-01,-3.485640358749085843e-01,5.268993943125471757e-01,-2.915844842739316600e-02,-1.146194840551755835e-02,-2.063248414591855370e-03,9.344668388366699219e-01
-5.240236533103443950e-01,-2.812572867361461948e-01,6.558674792703811374e-01,-3.326700175254372893e-01,2.837049729977011298e-02,-2.594599106433283925e-02,1.225186944007873535e+00
-2.033881691556299609e-01,-4.295405093654360851e-01,5.102830893456851147e-01,-2.249387193315113276e-01,6.818510969606147998e-02,-3.345956190535493563e-02,9.439112544059753418e-01
-4.340247595548197279e-01,-4.463554163768140293e-01,5.301650409167952827e-01,2.544514961157519784e-03,2.247711874774434206e-03,-1.231938619839790519e-03,9.704340696334838867e-01
-4.344483299840461998e-01,-4.493652557521470858e-01,5.313789867845386539e-01,4.155586265917656777e-04,2.154042782964455099e-03,-1.619190850855170560e-03,9.733829498291015625e-01
-4.344454092730103967e-01,-4.469751413564648224e-01,5.309892655152163021e-01,7.404006474054244079e-04,-1.218738647397546622e-03,2.664416986924410431e-03,9.717742204666137695e-01
-4.420103029476872836e-01,-4.197620941994386068e-01,5.402136151843880407e-01,-1.146546663608794675e-03,3.735603841604614658e-03,-5.154128865613161019e-03,9.713555574417114258e-01
-4.477312742101233756e-01,-4.125943866882244571e-01,5.333000523464022091e-01,-3.282399513003805315e-03,4.527266022537880692e-03,-3.757389269547627142e-03,9.640139341354370117e-01
-4.013449289694751010e-01,-4.046909611432036868e-01,5.281104520596707763e-01,-1.130743493941425981e-03,-1.612759807642269536e-03,-1.121419559801719755e-03,9.311411976814270020e-01
-4.414995063665863584e-01,-4.409227081934844472e-01,5.352083733747099448e-01,8.230614712312452541e-04,-1.421127717382347430e-03,-2.538986679450855842e-03,9.764336347579956055e-01
-4.422809725091793598e-01,-4.358882576295722289e-01,5.392124403142531941e-01,-3.165758946030276539e-05,8.921769937463009097e-04,7.515539236497321626e-03,9.784005284309387207e-01
-4.322548542576184483e-01,-4.106615495985653785e-01,5.431876802950340588e-01,-1.949873045961746532e-03,4.229786790970455068e-03,6.688540118104763579e-03,9.649304151535034180e-01
-4.343252927272481245e-01,-3.904675889007278577e-01,5.597608830007507752e-01,-5.650304448058836304e-02,-3.314806496213467887e-03,-3.203039505282560991e-03,9.778414964675903320e-01
-4.203699908422030562e-01,-4.177982524889009008e-01,5.406807661653725283e-01,-6.184057368568689206e-03,3.705281414670870063e-03,2.616762126975717175e-03,9.598593711853027344e-01
-4.233807436739696062e-01,-4.365697908539517558e-01,5.454219783858386128e-01,-6.642480299686260919e-04,4.081662551842129075e-03,-6.444543540033636358e-03,9.755542874336242676e-01
-4.348133732902470516e-01,-4.268787200289664296e-01,5.490097134068586682e-01,-4.545378485086069929e-04,1.746644355187014670e-03,-4.767109930688553465e-05,9.798848628997802734e-01
-4.486141930227638408e-01,-4.403116673489786415e-01,4.635202698511979857e-01,-3.059843675141196012e-02,-1.063657709143221164e-01,-5.818843912030496890e-03,9.280822277069091797e-01
-4.363540657456174698e-01,-4.421413119547283332e-01,5.488296202717402039e-01,3.831104663249858787e-03,3.320802002943590119e-03,-4.164309777853413778e-04,9.881293177604675293e-01
-4.329220077489948082e-01,-4.430108978806151510e-01,5.213343588137928641e-01,2.929711041167318460e-03,2.192133402023838454e-03,5.901002965835527685e-03,9.594159722328186035e-01
-4.371390997837708570e-01,-4.412378372082689792e-01,5.492272828886981539e-01,-1.284246388926992184e-04,1.260594619920921752e-03,-2.532359373957692589e-03,9.884343147277832031e-01
-4.335742559770605631e-01,-4.348219207981810497e-01,5.483499106526239508e-01,2.483477300104914003e-04,2.444967517733475596e-03,-6.791211891144790028e-03,9.826282262802124023e-01
-5.044143980233637414e-01,-3.770674195907043336e-01,5.753730472544262842e-01,-2.317609838067547640e-03,8.781504019676238809e-03,-2.839025694103473885e-02,1.023384571075439453e+00
-4.730757800576274041e-01,-3.522039040631704254e-01,5.356700627492553268e-01,1.372312832300520181e-02,-1.804192851368013016e-03,1.511247826284740914e-02,9.547298550605773926e-01
-4.788952692665872091e-01,-3.891842952789072441e-01,5.213470951230527728e-01,-1.829772397369611864e-02,4.761442927450514236e-03,2.326163850751396603e-02,9.599457383155822754e-01
-4.647753593859381693e-01,-4.057465125496623193e-01,5.390095923287975266e-01,-2.962050342376976089e-03,2.845816512990458850e-03,1.054747172996450995e-02,9.758077263832092285e-01
-4.643860916725655597e-01,-3.982889959916540712e-01,5.500435588807850440e-01,4.454931136800199289e-03,7.788154224748544685e-03,-1.705923310579808214e-02,9.836158156394958496e-01
-5.056403282986656755e-01,-2.816956415309996298e-01,5.453390288714506928e-01,-6.720946426293736634e-03,-7.224979598975438339e-04,1.627506796868467831e-02,9.593119025230407715e-01
-4.177818789965492274e-01,-4.162361248662518887e-01,4.078585993085316330e-01,7.599929919331323801e-03,3.473188178777471269e-02,-1.114353940016130952e-02,8.273892998695373535e-01
-4.269738195988885820e-01,-4.339389087101089837e-01,5.421591940151547773e-01,-9.002433894603881215e-03,1.214405834235970927e-02,8.474093726060095977e-03,9.730973243713378906e-01
-4.287709516214891492e-01,-4.604247074228351444e-01,5.457170989055643018e-01,6.203117597965917412e-03,1.500393563419882836e-02,-3.471205153854107182e-03,9.911115169525146484e-01
-4.236452944706906032e-01,-4.132411627312965186e-01,4.153809972779537452e-01,6.677825824133061354e-03,-5.650054147083497132e-03,1.926775499455045393e-02,8.346779942512512207e-01
-4.352994177418583188e-01,-4.255093883303528446e-01,4.897004801454299949e-01,8.106873603234936512e-03,3.415945179786663427e-02,-9.346537023787373361e-03,9.222931861877441406e-01
-3.524002693778309769e-01,-4.829142223614442675e-01,5.493298641229291679e-01,-9.782566288050688688e-03,-6.092212844266498353e-03,1.171785056333184312e-02,9.739865660667419434e-01
-4.363148951700983047e-01,-4.649580824488773190e-01,3.894791970375284240e-01,1.327554376310991456e-02,1.156765436670920966e-01,-2.585039071935332604e-03,8.643504381179809570e-01
-4.055475279899451446e-01,-4.481386705929452652e-01,5.471320128783029313e-01,-4.155033018994881006e-03,-1.055290080016474397e-02,-8.280291889643106532e-04,9.748722910881042480e-01
-3.599848873709728392e-01,-4.775861759649565608e-01,5.579413967371523730e-01,5.651309459556760895e-03,1.905913189145952771e-02,6.788470217067240492e-03,9.826962351799011230e-01
-3.883624229754841228e-01,-4.694024720746304835e-01,5.467823006199784563e-01,-4.262257914019827580e-04,-2.335182396087217768e-02,1.058653150012878186e-02,9.791935682296752930e-01
-4.342542405132056582e-01,-4.430644921060060137e-01,5.437472481903358190e-01,3.032918901680428138e-03,-5.865010195908585723e-03,-9.146556303443334826e-04,9.825040698051452637e-01
-3.456628750787504867e-01,-4.596031527129933458e-01,5.756139005815475995e-01,-1.620543713701604882e-01,1.431243656423532642e-02,6.780318879453788028e-03,1.022859334945678711e+00
-4.304973289433328687e-01,-4.365491599247832144e-01,4.873140319677762289e-01,1.102158137375829246e-02,-1.189008688904988863e-02,1.914224520781377878e-02,9.218766689300537109e-01
-3.833654098359785545e-01,-4.348980356977441009e-01,7.915507385901533466e-01,3.630360489287717263e-01,4.145938571599326605e-02,2.968458536374737888e-02,1.358976006507873535e+00
-4.386314509494103620e-01,-4.065051657364172066e-01,6.555772356854675520e-01,2.129246505816134727e-01,4.922422230634106166e-02,2.348526001497625026e-02,1.143724799156188965e+00
-5.840122862369020451e-01,-3.583293985193839459e-01,7.123985696856132144e-01,3.105058192088143154e-01,2.101292989869878169e-02,5.344373911542374400e-02,1.318397164344787598e+00
-4.815188095562702442e-01,-2.815322742754147733e-01,8.069748850125257889e-01,2.871032565756277410e-01,-8.454848175351734052e-03,-1.090560750669459233e-01,1.313662171363830566e+00
-3.967968430423756687e-01,-3.000498577940901024e-01,6.382959279391113849e-01,3.010929461186759304e-01,-1.797351948365847468e-02,-4.605548550545575381e-02,1.122469663619995117e+00
-1.841333849308784965e-01,-4.721220377186683415e-01,6.359581585431529627e-01,2.528387168686064834e-01,5.848526187859626191e-02,2.962325257097968983e-02,1.093773841857910156e+00
-4.399379514340028829e-01,-3.259149451833511235e-01,6.363575928723671504e-01,1.515054997297676231e-01,-4.866928881682519061e-03,1.428631901825530223e-02,1.057466745376586914e+00
-3.823159755224367351e-01,-4.690152156851676302e-01,5.507728398194897679e-01,-5.695391633975810386e-03,1.412715620558753146e-02,5.934322196052432656e-03,9.797301888465881348e-01
-3.121253918378284475e-01,-4.700986763768249532e-01,5.289576891219578414e-01,-5.635620718582622785e-02,-2.127163319098640190e-02,1.807227142310848661e-02,9.365416765213012695e-01
-4.426731633945227840e-01,-4.240809942086340989e-01,4.886547357519697155e-01,-6.738134949541619602e-03,-1.637769953560162112e-02,2.502317420520747127e-03,9.226925969123840332e-01
-4.483253325214688334e-01,-4.300394890948404658e-01,5.067115722700514802e-01,-4.741080590242051362e-03,3.876866945712094219e-03,7.466542065841472739e-04,9.460868835449218750e-01
-4.414300951165287534e-01,-4.344544209175560390e-01,5.157026042086846340e-01,-7.739516543356265467e-03,7.401859508879926261e-03,-6.576303841950065145e-04,9.538450241088867188e-01
-4.967617236672355885e-01,-2.759953306032547071e-01,6.022480145652739925e-01,1.631736371196933766e-01,1.578981052415807940e-03,1.208706475406915153e-03,1.045860648155212402e+00
-5.496666988673279963e-01,-1.811476925786299486e-01,5.408910060686360488e-01,2.971924080517973979e-02,-5.613482651583305907e-03,2.037654131953373429e-03,9.622825980186462402e-01
-5.717407941982393105e-01,-2.109752949880389639e-01,6.399581945509239533e-01,8.208873325737331417e-03,-2.539772468031209832e-02,-8.345364426254177001e-03,1.078690528869628906e+00
-5.313719916463167658e-01,-1.819020711171290827e-01,5.852953981847082154e-01,1.975507535020361027e-01,6.431892264276822813e-02,6.216177653467366837e-02,1.058260679244995117e+00
-5.145076470469145402e-01,-2.984029462943063038e-01,5.533056420560500399e-01,3.045552202436314221e-02,-2.106333998908245780e-03,1.404217163939624341e-02,9.795684814453125000e-01
-5.339454298572788860e-01,-3.123906029806859941e-01,6.227984094829852602e-01,3.003301074641501547e-02,5.006906715505122368e-03,3.790334964134567386e-02,1.066748261451721191e+00
-4.298880810921079654e-01,-4.187774521173185382e-01,4.472212740612784287e-01,7.022656233529132180e-04,4.599365071801735788e-02,-1.765717692453465729e-02,8.757751584053039551e-01
-7.522629282717429033e-01,-9.142244587732062389e-02,6.595788136929675582e-01,1.144170271729728211e-01,6.134618706621874917e-02,2.972959728581237721e-02,1.245078444480895996e+00
-5.181840736903496891e-01,-1.810114131817847638e-01,5.347264794603412419e-01,1.205093076005857161e-01,-3.477693029998935731e-02,-9.245607888355376544e-03,9.564233422279357910e-01
-2.996738648320642628e-01,-3.755635664066873658e-01,3.063632288130807568e-01,-2.135935448977463180e-01,1.115627434461000655e-01,-3.328700262884645711e-02,7.723739743232727051e-01
-1.474911184428292499e-01,-6.228461294441565155e-01,5.792105776600274814e-01,-1.263032060346367946e-01,1.405513449067459508e-01,1.589867430194807571e-02,1.098807930946350098e+00
-4.012083427981681383e-01,-4.468735669415397904e-01,5.383404160624929435e-01,-4.588510456379024660e-02,-2.908116699268426669e-03,-1.878322606906590499e-03,9.664855003356933594e-01
-3.689992587368910448e-01,-4.131318940321115907e-01,5.298649437558229369e-01,-4.709925720593956255e-02,6.593415612311226068e-03,1.183922871687098383e-03,9.253990650177001953e-01
-3.819085781596997520e-01,-4.745054229187543604e-01,6.202703534472938651e-01,-1.273652761245792631e-01,-1.597992903084165077e-03,1.341787470402704087e-03,1.074436664581298828e+00
-4.233000928054071466e-01,-4.441093861122013542e-01,5.586883303918136479e-01,-8.503449241342130038e-03,-3.262933862798531384e-03,4.987347792586212421e-03,9.927196502685546875e-01
-2.811172007920249016e-01,-5.863342439379031212e-01,6.469905162024078837e-01,-7.106526007547769863e-02,-1.044370341399254894e-02,1.614555445936231848e-02,1.119855284690856934e+00
-4.408684181736101104e-01,-4.423178999370713793e-01,5.498937397622609691e-01,-2.237073751984206688e-03,-3.506548234518738587e-03,-6.063314637325705652e-04,9.915144443511962891e-01
-4.389601432889079224e-01,-4.492142830417227839e-01,5.441304005774698638e-01,-3.868744953614900502e-03,-2.945482547497459396e-03,-3.666880174865709460e-06,9.882934093475341797e-01
-4.392715311679464829e-01,-4.447012231718122099e-01,5.462019458624199908e-01,-1.301986452215341331e-03,-3.176147156712586309e-03,3.263546783202016244e-03,9.882335662841796875e-01
-4.387883296488254148e-01,-4.433278595052743687e-01,5.455498585822090574e-01,-2.444751567500330364e-03,-4.529780714452175117e-04,5.411925582228259467e-04,9.866256117820739746e-01
-4.386643869917976613e-01,-4.434475417483499382e-01,5.362934843296603971e-01,-4.170594783530020069e-03,-2.656773220668286022e-03,1.840438969835865492e-03,9.774009585380554199e-01
-4.383200639978850344e-01,-4.427896541230367244e-01,5.365138471790890096e-01,-4.739500856195263782e-03,2.151450588937390673e-03,-2.026195225248085107e-03,9.771242737770080566e-01
-4.335796158394035760e-01,-4.494672143070378989e-01,5.287219870068583516e-01,-9.099295174569309232e-05,1.214533406170881062e-03,-9.818079094054256526e-04,9.703467488288879395e-01
-4.384165975921748282e-01,-4.443404434831211836e-01,5.348015215116715959e-01,-2.548494070793379512e-03,2.416823627956999135e-03,3.499884614223689253e-03,9.762312769889831543e-01
-4.453413774423921057e-01,-4.117702401722528882e-01,5.383820618440283701e-01,5.106409582446826134e-03,-6.774547005305019565e-04,-4.703442845655667406e-03,9.674503207206726074e-01
-4.415845175001507639e-01,-4.164698230651724398e-01,5.399640494288546755e-01,3.366795117151047661e-03,-5.337097969414017658e-03,-7.115179505940179630e-03,9.693752527236938477e-01
-4.392317261190063493e-01,-4.427080466021083849e-01,5.465160222998499684e-01,-2.285910395191925563e-03,6.634328477219429221e-04,1.319762313389274532e-03,9.875017404556274414e-01
-4.358446635699818605e-01,-4.444385096406576752e-01,5.290930781821336915e-01,-3.222592931018192913e-03,1.371233306018702263e-03,5.987817589842714047e-03,9.693377017974853516e-01
-4.452810483360361560e-01,-4.381488321014512799e-01,5.312493434590493946e-01,-7.806157697452725981e-03,1.260757355278343747e-02,6.221853223228763011e-03,9.733824729919433594e-01
-3.511037098783743593e-01,-4.553561716898483769e-01,4.689728530540989704e-01,5.296756607810016587e-02,1.867119573796353557e-02,-9.723934241835539491e-03,8.824031352996826172e-01
-4.356231755341175016e-01,-4.187684872522354773e-01,5.389332962919417547e-01,3.454783483795396872e-03,-7.176943135181142186e-03,-7.726123729715001637e-03,9.664305448532104492e-01
-4.377385928877152166e-01,-4.441791205080011240e-01,5.409885980486723867e-01,-6.233107885419955554e-04,-2.513250078499524448e-03,-4.529763137741049054e-04,9.819738268852233887e-01
-3.905631539845985101e-01,-3.886141696780086030e-01,3.094412220789730661e-01,-2.671887746839438776e-03,1.115437456148761323e-02,1.226843926408350237e-02,6.996369361877441406e-01
-4.239369652158555546e-01,-4.095725665405719473e-01,4.008319155620508889e-01,1.682044555264799362e-03,7.852558016704019872e-02,9.348888337021236516e-04,8.289225697517395020e-01
-4.024612065073560063e-01,-4.004696779556690678e-01,3.380787030951701855e-01,6.176972943969981367e-03,1.297225189752681043e-02,-1.978226289497394402e-02,7.407575845718383789e-01
-3.910884655740849980e-01,-3.837412026544489985e-01,3.046721677739303580e-01,-5.634270994908463590e-04,1.345893582379965522e-02,-2.216454971821854841e-03,6.925200819969177246e-01
-3.989317006892323936e-01,-3.910775487154026786e-01,3.097892669980409908e-01,2.252202315593381313e-03,6.298154459662437532e-02,-2.229522277399963517e-03,7.132396697998046875e-01
-3.987416966410535779e-01,-3.947824976846409095e-01,3.069496649867098359e-01,7.674544409490831158e-04,-5.632616056970948804e-03,-3.474259641002341165e-02,7.063569426536560059e-01
-2.897123343198051426e-01,-5.088102046449028970e-01,5.830824620225495414e-01,-4.659630738069867051e-02,1.315771063543683464e-02,-5.241488014731129387e-03,1.004050612449645996e+00
-4.444836940414510496e-01,-4.368562006627501604e-01,5.278609866250556504e-01,-8.942255383312864604e-04,-4.177613642811687719e-03,-1.362986146258229328e-03,9.685845971107482910e-01
-4.417767202181260289e-01,-4.430443575272796641e-01,5.505061258226984222e-01,1.641466741746223316e-03,2.346631466159213291e-03,-1.532696088527605877e-03,9.929332137107849121e-01
-4.407928366925122354e-01,-4.411520335233174439e-01,5.466066453944233849e-01,1.940720250761325278e-03,3.666326660961939828e-03,-2.036302337888449675e-03,9.876115918159484863e-01
-4.399179278351293410e-01,-4.435210129684650227e-01,5.471380901815768860e-01,2.979967943030947201e-03,-3.975105416834798710e-04,1.741908041070900932e-03,9.888808131217956543e-01
-4.379049455304596106e-01,-4.378098695003613261e-01,5.510271080893637263e-01,-6.919398781942664696e-04,7.075803341970627897e-04,1.574493468792997636e-03,9.888897538185119629e-01
-4.511527229601874356e-01,-4.367418728276645790e-01,5.276240356164683121e-01,-4.482558174401929732e-03,2.558419773141241277e-03,5.631028379755505416e-03,9.717415571212768555e-01
-4.415856910886008513e-01,-4.382637169818571765e-01,5.505417509076957483e-01,1.360785558976403782e-03,1.533057955235925512e-03,-8.171896008229728205e-04,9.904779791831970215e-01
-4.967583994791293645e-01,-3.818699914151254537e-01,3.419394359962764085e-01,-1.324256204808185733e-02,2.356590236923254353e-02,5.572744388949224525e-02,7.948368191719055176e-01
-4.134838548761775034e-01,-4.110669061297373417e-01,3.200934659240717295e-01,3.914381546861056549e-02,4.879793719151888365e-02,2.225450890566374115e-02,7.413465380668640137e-01
-4.112845027839441836e-01,-4.218781390439923507e-01,4.012556876871193889e-01,1.554001988361450358e-03,-1.016406924983783051e-02,3.706365456933438662e-02,8.205972313880920410e-01
-4.362617926652475053e-01,-4.453915727503888755e-01,4.850673236600232530e-01,4.665846160841915710e-03,2.735186428755179144e-02,4.437758818195349647e-02,9.303547739982604980e-01
-4.270732870131465631e-01,-4.098567283694015129e-01,4.149372216332258834e-01,-8.316764801074856550e-03,2.899361439445594796e-02,6.572909064410993943e-03,8.352488279342651367e-01
-6.159654783005537038e-01,-2.119349416054087110e-01,4.084795291108466175e-01,-6.815816675455263485e-02,-7.622344356418320199e-02,8.939649697055900013e-02,9.242094159126281738e-01
-4.197216702006608680e-01,-3.046716321295351859e-01,1.144223177793010082e-01,3.167278272801626882e-02,-3.247686073277070845e-02,-2.517322342456341285e-03,4.932400882244110107e-01
-4.287822518363207935e-01,-4.454216848366400194e-01,5.400005635086467803e-01,-1.362111657245124261e-03,5.106260643938661560e-03,8.649672229222953729e-03,9.773665070533752441e-01
-4.463408148047509072e-01,-4.282380638778051640e-01,5.092818723087888522e-01,4.583252286679183004e-04,-1.810687463871367160e-03,1.974748325542516249e-03,9.467128515243530273e-01
-4.264474407978626758e-01,-4.381830924239026870e-01,5.063560416755099602e-01,-9.782333263944325424e-04,1.330227162137482752e-02,-8.725706538836640411e-04,9.390117526054382324e-01
-3.554095408465171579e-01,-4.867455349873355819e-01,5.466280501261555624e-01,-8.517871316017739530e-03,-1.488690252871145703e-02,3.974008489241580636e-03,9.748440384864807129e-01
-3.607911899543237433e-01,-4.088565405588728274e-01,5.218506713308794787e-01,-1.587282310124087104e-02,3.713482050288061630e-03,-3.679218869926274837e-03,9.080910086631774902e-01
-3.400974122293014545e-01,-4.422643391275661306e-01,5.331524029224939953e-01,-2.682805748571020360e-02,-1.318675058888351889e-02,5.948078204309858834e-03,9.300578832626342773e-01
-4.027098023556887063e-01,-4.080766960425282197e-01,5.337052644251614186e-01,-1.124214887095161680e-02,-3.564210136078326506e-03,5.528772094814852524e-03,9.393809437751770020e-01
-3.917704955530035282e-01,-3.951341608424772667e-01,5.219636377378578107e-01,-3.694575674994389665e-03,4.478962652910466538e-04,2.760003961783275440e-03,9.154557585716247559e-01
-4.250419937109425339e-01,-3.778546726718564619e-01,5.407677358762529307e-01,-3.985266234681591330e-02,-2.379465731400319962e-03,-8.068225234621505867e-04,9.456345438957214355e-01
-4.196327317633266052e-01,-3.515753055867019694e-01,5.216422943912812915e-01,-2.021337562587397288e-02,2.592954518722634903e-03,3.809289963696642876e-03,9.098676443099975586e-01
-4.535381859640755242e-01,-4.062532696970975743e-01,5.316249785349911328e-01,3.029946453485882684e-04,-3.028095448140778138e-03,1.141389287662933003e-02,9.626097679138183594e-01
-4.662407684304183397e-01,-3.932109321929880275e-01,5.563625841203881928e-01,2.404548603339429040e-03,4.958792804957477471e-03,-1.509578622306078505e-02,9.885065555572509766e-01
-4.724149072069856459e-01,-3.433128462085101029e-01,5.292286140876011347e-01,-7.681830090244476123e-04,-9.501544014670481198e-04,1.848132958902802894e-02,9.442838430404663086e-01
-4.674304469503165471e-01,-3.498637523824457696e-01,5.268597016631001440e-01,8.703806988255406024e-03,1.124868005751998752e-02,1.285503551335339528e-02,9.416167140007019043e-01
-2.021752870289859338e-01,-5.217569219578981343e-01,5.384308394201779979e-01,9.233897748830302565e-02,4.466961059514364119e-03,3.926678651323271645e-03,9.555100798606872559e-01
-3.020102239711964787e-01,-4.635342393966169205e-01,5.366981819994794956e-01,3.644344834044833253e-02,-9.688162847434369368e-03,-4.237326352180180444e-03,9.323696494102478027e-01
-4.021797013044382529e-01,-4.321737469216172522e-01,5.990272831505434326e-01,1.059998043425309094e-01,-3.672973083865038735e-02,2.159258519579018015e-02,1.035615324974060059e+00
-2.801235428949551687e-01,-4.017288791214126964e-01,6.326053773889754872e-01,3.046417680724818888e-01,2.419451804788597116e-02,2.332858773403127806e-02,1.113850593566894531e+00
-5.017051411538439032e-01,-3.576891346356961821e-01,7.424497927519824181e-01,3.306883413149626638e-01,3.813386059878770551e-02,8.852424698890198895e-02,1.321143627166748047e+00
-6.719578256369573843e-01,-1.863195194386090825e-01,6.842560925436458330e-01,2.747839243494734629e-01,-1.220059368210273110e-02,6.295313654687789695e-02,1.286617994308471680e+00
-4.106489579660702605e-01,-4.138630840464314065e-01,5.415812297844702083e-01,6.222532294170133454e-02,-5.045898323441357948e-03,-2.824580887949275018e-03,9.599633216857910156e-01
-3.406825116087815464e-01,-3.627945299873563956e-01,6.636536289745882389e-01,2.606187282229314173e-01,5.429671414770569082e-02,1.094838000900360819e-01,1.131352663040161133e+00
-3.967125767305435535e-01,-4.141493098826719566e-01,5.567458303872395708e-01,-8.649635729881398338e-02,-2.348192393416334220e-02,1.769089832923504899e-02,9.752179980278015137e-01
-2.611412326804822270e-01,-4.625789190727256361e-01,5.719994946200326336e-01,-2.476079954147516193e-01,7.682122488861393983e-02,-6.466435131674889286e-03,1.050849914550781250e+00
-2.164359209980495913e-01,-5.842269878723548304e-01,5.843299133950353719e-01,-1.146952474844619048e-02,-1.662713997949041150e-02,-2.998295929306548160e-03,1.035500764846801758e+00
-2.491105793146152214e-01,-5.321702416697258187e-01,5.423804482295545570e-01,-8.427312847746899760e-03,7.728413767322941247e-03,-1.381589863178242549e-03,9.648927450180053711e-01
-2.798824665399286538e-01,-5.070007989466103204e-01,5.251765408513764388e-01,2.759354042177021311e-03,-1.875310740831606995e-02,3.681036942503798474e-03,9.400345087051391602e-01
-2.849572774579124945e-01,-4.697574187433489201e-01,5.450700084896074049e-01,-7.274157900691528844e-02,-1.661138638011829330e-02,5.551765939401567991e-03,9.451348185539245605e-01
-2.823051289079431814e-01,-4.973378628509529942e-01,5.422071505575729589e-01,-2.722469420155404496e-02,-1.013123890106697525e-02,3.946674358093612764e-03,9.518061280250549316e-01
-3.137159448684867513e-01,-4.843230314254998170e-01,5.481731132674679818e-01,-1.059457525484843420e-02,-7.608244035581862227e-03,5.238580512662803328e-03,9.589560031890869141e-01
-3.533863576088129843e-01,-4.915739207552129453e-01,5.639853109114634222e-01,3.181694724475103708e-02,6.230398730041384822e-03,-5.895844517510294945e-03,9.953359365463256836e-01
-3.388376678917457419e-01,-4.837850202487629647e-01,5.903963286087001716e-01,5.062330650121577708e-02,-1.730768612381116452e-03,-1.354565359754193732e-03,1.013350009918212891e+00
-3.648526790242639928e-01,-4.592866657802623376e-01,5.445730057348979747e-01,1.189628056592188093e-02,9.550682604327375910e-03,-3.159519473109351564e-03,9.605111479759216309e-01
-2.824052286979910620e-01,-5.274968354318406716e-01,5.528191083112443671e-01,1.631310315866939253e-02,-2.199886495779355272e-02,-3.142321937363625091e-03,9.821689724922180176e-01
-2.909808918792231580e-01,-4.986380614765027475e-01,5.440098832578691423e-01,2.501036407392381866e-02,-2.888939566242913759e-02,-7.516413042393574329e-03,9.582654833793640137e-01
-3.171335717321017156e-01,-5.361538180298629497e-01,5.673550744346023134e-01,-2.620454693845441965e-03,-8.591292653057976125e-03,2.021077817328923321e-03,1.012059926986694336e+00
-3.039224803274633291e-01,-4.810345046262530233e-01,5.407024819547129324e-01,9.585795679070384379e-02,-1.159260153340796635e-02,7.871859191107125064e-03,9.604730606079101562e-01
-5.100572559600576872e-01,-3.858843942562109608e-01,6.082916092884946835e-01,1.026063453555781102e-01,9.435755798118238696e-04,-3.014161417636294048e-03,1.076507568359375000e+00
-5.985603086299746689e-01,-1.734415476286818303e-01,5.498332659552667145e-01,-7.481089859544245990e-02,1.878375169254876964e-02,-9.259749734060176984e-02,1.027083992958068848e+00
-5.855175109963002278e-01,-1.505943033391261565e-01,5.714617024437959047e-01,-1.019536198098099089e-02,-1.461066130532484575e-03,1.522354033527315367e-02,1.012706995010375977e+00
-4.889476987784019402e-01,-3.357960294471121765e-01,5.376391744011439489e-01,1.470146997530644671e-02,-3.208123446804216680e-03,2.213261460882054443e-02,9.603444337844848633e-01
-5.074748203061132390e-01,-2.823982101528803579e-01,4.995806216234672803e-01,-1.706277706745351966e-02,1.416470221840914964e-02,1.185937596370747506e-02,9.165439605712890625e-01
-7.236202240595241975e-01,-1.489763037370824827e-01,6.407925322221860176e-01,-5.764798700629451128e-02,-5.052978259640417136e-02,-1.156988158170057027e-02,1.194076061248779297e+00
-5.043081835457872142e-01,-3.635549548897253902e-01,5.553236907487704155e-01,5.475353465221572714e-03,-9.451047563745899535e-03,-2.392333463177032798e-02,9.977772831916809082e-01
-2.742668516051173788e-01,-6.209132473535965424e-01,2.649236194398252309e-01,-8.096813544133892038e-02,3.478150346052542863e-02,-5.827984074195624586e-02,7.945343852043151855e-01
-4.228190610038930486e-01,-4.451993629157432464e-01,5.050485215758372393e-01,-1.068911246654860136e-04,1.942487383746377763e-02,-4.852139532010533822e-03,9.398977160453796387e-01
-3.835494363698013220e-01,-4.399034757656549721e-01,4.002929356875220002e-01,4.696195030220880196e-02,3.030092265391703954e-02,9.685049771939439889e-02,8.362225294113159180e-01
-3.506613974702282865e-01,-4.553276164508451296e-01,2.935747581363217229e-01,1.200023324486686332e-01,1.265553948272678808e-01,5.650925323555447410e-03,7.647033929824829102e-01
-4.198461278882725245e-01,-4.812878631650188144e-01,4.112860799409419066e-01,5.444226977424644620e-02,8.924752177578891554e-02,5.104445135204002670e-02,8.866937756538391113e-01
-3.955508722327921167e-01,-3.915941900925519192e-01,5.221787937292874382e-01,4.342748719308630462e-03,-3.468541919308701545e-03,2.155898079116870666e-04,9.158083796501159668e-01
-3.978771485581870104e-01,-4.025086109527729050e-01,5.269680347013218080e-01,1.357593763345422110e-02,-3.431252656762469148e-03,-7.193627021420283046e-04,9.274876117706298828e-01
-4.273973370127599480e-01,-3.932142439927942545e-01,5.419998513387042083e-01,2.392384391367310958e-02,-8.992784569639209261e-03,-1.639575149744127575e-03,9.537977576255798340e-01
-3.949768381674259587e-01,-4.297850830769363584e-01,5.480537170580117579e-01,3.040466355784650701e-02,-1.128337727736520441e-02,-1.524337748656871133e-02,9.629101157188415527e-01
-3.516034390775940599e-01,-4.157485284675973558e-01,5.198967281426355447e-01,1.930425144880675362e-02,3.009505578337452573e-03,-1.512517674778994081e-03,9.059147834777832031e-01
-3.497653529344348922e-01,-4.200965842963189645e-01,5.196916459584203229e-01,2.300251702889783909e-02,-3.227740716300407653e-03,9.715365897887146690e-04,9.075645208358764648e-01
-4.010286837724262310e-01,-3.907604036780288337e-01,5.214973481472606753e-01,5.086572121186914812e-03,1.218014412850721827e-03,-1.619532594035409646e-04,9.174797534942626953e-01
-4.254823951554769779e-01,-4.241278018002352379e-01,5.456707153660296239e-01,-2.593938772893525282e-03,-3.330068791085926197e-03,3.018127747094512345e-03,9.705181121826171875e-01
-3.824607517409030488e-01,-3.983710662904136890e-01,5.196408917773719383e-01,1.453646950904590937e-02,3.384816353387635335e-05,-2.861045095476465270e-03,9.105227589607238770e-01
-4.826209337994120663e-01,-3.112755396388161566e-01,5.433072458871608390e-01,-1.090366974979471715e-02,1.234664577619058214e-02,-1.391292780441353780e-02,9.526250362396240234e-01
-4.334115964348158045e-01,-4.210937668717504856e-01,5.376575278280596448e-01,-2.905080911410898997e-03,5.508673653683616306e-03,-4.799277148945186276e-03,9.650652408599853516e-01
-4.595029686605394681e-01,-3.468437051601026555e-01,5.689336771258667325e-01,-3.499993369806375654e-02,1.224021124789990457e-02,1.499614021216229970e-02,9.794438481330871582e-01
-4.455300262569823477e-01,-3.513765433813213490e-01,5.331097951854303352e-01,-9.933748748574616413e-03,9.546551483833464954e-03,-1.122203619775067988e-02,9.356311559677124023e-01
-5.422304336028251903e-01,-2.774929267637261110e-01,5.554630364768392559e-01,-8.125902269095798547e-03,-5.564552240413511534e-03,-2.511097475826882391e-02,9.932768940925598145e-01
-4.948773816593844410e-01,-3.720394374212284139e-01,6.632956435224286462e-01,-1.524380892059279125e-01,1.104564098094196894e-02,-2.942099940705215216e-02,1.134399056434631348e+00
-4.424865997086793734e-01,-3.886751905029498522e-01,5.390337646736256261e-01,-5.526963246975448094e-03,1.093157546325125573e-02,-1.288457344837665858e-02,9.562473893165588379e-01
-6.124326192309419437e-01,-1.626441782557515592e-01,7.880954528395955894e-01,-1.710481267930949456e-01,1.669315192893120608e-02,1.583667552938480133e-02,1.274051785469055176e+00
-5.891319910921792857e-01,-2.992394300617352565e-01,6.032384300834529034e-01,-5.146536533322181722e-02,-2.307659731668749298e-02,5.625033893105944871e-02,1.085892081260681152e+00
-4.418255942413210624e-01,-4.410186018111620920e-01,5.534849077873943424e-01,5.991471899318418079e-04,-1.629892761250663468e-07,-1.407266101038806127e-03,9.949107766151428223e-01
-4.413514745917684889e-01,-4.428511216951431240e-01,5.520831099142469167e-01,1.087660358886542973e-07,5.905875627459834408e-04,1.136778429629205439e-03,9.941877126693725586e-01
-4.377635092929436644e-01,-4.411029742723546199e-01,5.499323869975654144e-01,-4.323022083727492536e-04,3.891883582141844990e-04,-5.958492566069599310e-04,9.893708825111389160e-01
-4.424434910636776963e-01,-4.401246575335905908e-01,5.494172661403490254e-01,-5.023333605236891255e-04,1.056724308445819221e-03,-1.541473430256854252e-03,9.907090663909912109e-01
-4.410142325270881569e-01,-4.405946325958048915e-01,5.514685206509224447e-01,-8.771012610752308009e-04,-1.623778697621044466e-03,-9.592352397337665978e-04,9.922795891761779785e-01
-4.368635173402798944e-01,-4.409395115206495297e-01,5.508264318910705004e-01,-1.947038170973187541e-03,-9.700739783914879514e-04,3.898336136929027220e-04,9.897416234016418457e-01
-4.436275653717515199e-01,-4.368362191087794000e-01,5.344112493159236532e-01,3.250100820385722587e-03,-2.887789297660512972e-03,2.334111929183935782e-03,9.746983647346496582e-01
-3.011900909835291684e-01,-4.932073834885764563e-01,4.894244327025218944e-01,-1.776007601711099282e-02,1.243876366578660145e-02,8.486781788450182412e-03,9.029840230941772461e-01
-4.425353165462402316e-01,-4.358350260429453282e-01,5.283230031720637099e-01,2.463017598671531257e-03,7.688508176132823752e-03,-8.624568892620193897e-03,9.677419066429138184e-01
-4.367144204093649784e-01,-4.361882864528053849e-01,5.014053143428304216e-01,8.701419647574192354e-03,7.515719274806735226e-03,-1.346740913145543644e-02,9.383581876754760742e-01
-4.385165038764668455e-01,-4.359358976751847581e-01,5.151374471503478158e-01,6.365601718122299718e-03,4.281116205106103717e-03,3.727394125294317649e-03,9.524808526039123535e-01
-4.372858623146644308e-01,-4.372933856818957410e-01,5.204455305900179685e-01,4.357063984844520600e-03,1.727386226497415467e-03,-8.758119202089567276e-03,9.578896760940551758e-01
-4.340219792074627159e-01,-4.176229703740402810e-01,4.798168638385771345e-01,-8.967715783395658474e-03,-4.061219742712374701e-03,-3.214518519017829125e-03,9.059282541275024414e-01
-4.415045099967820352e-01,-4.386497639486204303e-01,5.361084001010463229e-01,1.259338441960474331e-03,4.424945963785367059e-03,-2.944514836818997849e-03,9.762344956398010254e-01
-3.266750568937620836e-01,-4.458729849166653270e-01,5.284459194597428411e-01,-1.761774105127736009e-02,9.656960265873575783e-03,-1.258694573753433091e-02,9.214417338371276855e-01
-2.712065348758756489e-01,-5.217746175296995581e-01,6.068271597387171479e-01,-1.412229151411143191e-01,9.394384040537830452e-03,-2.154554591854936779e-02,1.056041598320007324e+00
-3.089960452898254384e-01,-4.685608490973058315e-01,5.662195239599081553e-01,-6.081162349370539816e-02,-6.158474982730985717e-03,-1.097830167742971149e-03,9.707360267639160156e-01
-4.585455237121529026e-01,-3.336725145820203520e-01,5.334429433411528310e-01,-6.665077061094940025e-02,-3.947837483451397886e-03,-6.590801606105711058e-03,9.430089592933654785e-01
-3.290854924107901036e-01,-4.683306744891983509e-01,5.077577431924407136e-01,-4.626493936431994719e-02,3.785454820679213378e-02,-1.428154182885256127e-02,9.206271171569824219e-01
-3.792503273974359712e-01,-4.480862406184790703e-01,5.393416936286016261e-01,-2.464513434547376675e-02,-6.694636041990338626e-03,-4.559457823801621804e-03,9.559292793273925781e-01
-4.293703997617248636e-01,-4.387829631197447400e-01,5.121970618418647536e-01,-3.399786538907381521e-03,-4.032392808032019861e-03,1.018969216165382594e-02,9.465175271034240723e-01
-6.233919983332421033e-01,-2.568174569978491362e-01,4.352530952787907470e-01,-2.765534521981680149e-01,-2.939493892405388442e-02,1.045858550860878089e-01,1.063901424407958984e+00
-5.797363729525694120e-01,-1.408980801068533684e-01,4.562562747576952571e-01,2.049594133600828039e-02,-2.757744638745458082e-02,-6.583027099561955444e-04,9.026459455490112305e-01
-3.593991299791503002e-01,-5.112393670858577099e-01,5.118425187944913857e-01,1.872064259597135821e-02,-1.286217361815943094e-02,1.566653800015240655e-02,9.574398398399353027e-01
-1.960844944496112907e-01,-5.344539451940546471e-01,3.641364053921244404e-01,-3.701908474540676480e-02,-9.971977551879115248e-03,-1.911380798629148253e-02,7.895622253417968750e-01
-4.107308659246976523e-01,-4.286268996967665390e-01,3.312463340907095821e-01,-1.253946954985650161e-03,-7.530629842689910702e-02,8.329015382393570310e-02,7.758598327636718750e-01
-2.342318263128045641e-01,-5.125126309435198424e-01,3.987494086828394790e-01,-1.377010169237941062e-01,-4.992955443257107717e-02,-7.313948504219824551e-03,8.478066325187683105e-01
-3.153535415799931241e-01,-5.736851019593736112e-01,6.209532723995091485e-01,4.663540292772029583e-02,-8.176037423769457607e-03,-3.181581311701360201e-03,1.091805219650268555e+00
-2.978947864222371011e-01,-5.297771170730286583e-01,6.112031117204080877e-01,-1.422590429782482624e-01,2.245610655904076505e-02,-1.816749721095367327e-03,1.073903083801269531e+00
-2.860215492398406334e-01,-5.124448278026384473e-01,5.540324283327329180e-01,-3.925992229451092459e-04,-9.271774783659361349e-03,4.674932297188286266e-04,9.733575582504272461e-01
-2.626009563284354975e-01,-5.027227197113084411e-01,5.223104452743717596e-01,-3.929356307839357298e-02,3.996282452242797337e-03,-7.251422483059523361e-03,9.311586022377014160e-01
-3.296347267567275030e-01,-4.561198482540644306e-01,5.613562676610003299e-01,-8.023829885597844047e-02,2.146159987593167229e-02,-1.980554974784343517e-02,9.718197584152221680e-01
-1.936374984407147892e-01,-4.738508443924511204e-01,5.354902753316687081e-01,-2.248871924499365460e-01,8.152929267202790875e-02,-3.689725909815644300e-02,9.950910806655883789e-01
-1.141088804026026970e-01,-6.430966816386457507e-01,7.464504628240512529e-01,-5.616727911502162468e-02,8.640573407315069177e-02,3.425364130881248387e-02,1.229226589202880859e+00
-1.643038872951681495e-01,-6.884450244799785734e-01,5.915452304721116050e-01,-2.278199917485046189e-01,8.238584603998483358e-02,-4.087294083370714842e-03,1.190933108329772949e+00
-3.924256927630876968e-01,-4.019835180672514108e-01,2.946539433251890161e-01,3.966408405430050903e-03,2.512076963202633170e-02,-6.732379794972623288e-02,7.030466794967651367e-01
-4.730044268516349071e-01,-4.399428671009285030e-01,3.890190124167399732e-01,-8.768171875097929835e-03,6.985941125291103559e-02,-5.572569431626249459e-02,8.601542711257934570e-01
-4.071097185755468972e-01,-4.092075400584718192e-01,3.786124828478673043e-01,-4.984838466339131002e-05,-1.041979182633649172e-02,5.080629678914416573e-03,7.870293855667114258e-01
-4.066087422873341795e-01,-4.214080492185219295e-01,4.142256300438209582e-01,6.021594291399421858e-03,-1.612419308632312767e-03,-3.574580351345282847e-02,8.307139873504638672e-01
-4.062124752862059651e-01,-4.248931406171023717e-01,4.108861672859205338e-01,-5.037181419494959553e-03,3.101510679960139440e-03,-3.589386772580550888e-02,8.289952874183654785e-01
-4.487259129565547289e-01,-4.360388511271635625e-01,5.371582448538625432e-01,-2.307519119141474527e-03,1.928838889684497074e-03,-5.968578398013539002e-04,9.796166419982910156e-01
-4.432377043300967934e-01,-4.376632896733488320e-01,5.387989623499482850e-01,-6.274415218773252752e-04,-4.327097524512446298e-04,1.898077620280659485e-03,9.792677760124206543e-01
-4.450735776871497795e-01,-4.387600511095853251e-01,5.469961702750729682e-01,-2.119339969901523277e-03,-8.159470967003275949e-05,-2.222273120175326591e-03,9.889423847198486328e-01
-4.087865545147418289e-01,-4.467722916077283557e-01,5.337007387325559682e-01,1.744797881597491595e-03,1.048091526894012228e-02,9.503253380654134649e-04,9.622201919555664062e-01
-4.417998346179909941e-01,-4.402567094718197183e-01,5.404191231795461015e-01,-3.058948731190361866e-03,-5.049082527153158674e-03,-3.156276813566651941e-03,9.815167784690856934e-01
-4.375893638108763750e-01,-4.379961891395375839e-01,5.325812748237975791e-01,-1.476538110971670767e-03,2.889800569772407301e-03,4.572355753899398807e-03,9.704226851463317871e-01
-4.195989631936681841e-01,-4.422507873884826135e-01,5.444940160251922068e-01,2.601199334680209547e-03,1.140858061264523465e-02,7.546456913261721453e-03,9.759141802787780762e-01
-3.881681495186938280e-01,-3.971638814404163664e-01,5.214641817397812629e-01,-9.695749279516560973e-03,-3.191704855637494953e-03,2.940484857763067325e-03,9.143485426902770996e-01
-3.833084420073505916e-01,-4.159243434492196356e-01,5.298740677994614456e-01,-4.393203392943610848e-03,-6.256001153310509003e-03,6.385446308940515014e-03,9.300795793533325195e-01
-5.037752149566541160e-01,-2.501216528615365919e-01,6.103496582998517717e-01,-1.975784668180225467e-01,-3.921904672464959080e-02,4.811649451119812126e-02,1.073165535926818848e+00
-4.083458801568468632e-01,-4.202668143760359132e-01,5.368904268006796654e-01,-4.260633149316149504e-03,-6.885302535850509192e-03,7.860586192002182518e-03,9.514535665512084961e-01
-4.301131058938503782e-01,-4.430011263638569674e-01,5.477177014088618900e-01,-1.884730902747514154e-03,-1.373169177897679699e-03,-4.159095556306076531e-03,9.843727350234985352e-01
-3.960281701429219092e-01,-3.999110473675311361e-01,5.248853106989295192e-01,-1.108798642488027873e-03,-4.080581836255644385e-03,3.575640619260251306e-03,9.229108691215515137e-01
-4.111806125752565100e-01,-4.034502561677913990e-01,5.359328040438930962e-01,-2.639745102485943629e-02,-5.298094403583517888e-03,2.478676055158996264e-03,9.444338083267211914e-01
-3.315376889116786185e-01,-4.603847549680293305e-01,5.461075091019722549e-01,-3.206047334834444262e-02,-6.652850308441605673e-03,7.302297686887742126e-03,9.504320025444030762e-01
-4.245915526969487042e-01,-3.772439986534016909e-01,5.493636530990195777e-01,-4.071082866302103836e-02,-1.594292327041435878e-02,2.428683966240537118e-02,9.551022648811340332e-01
-4.204199920488420061e-01,-3.565845459130497219e-01,5.235259069161146694e-01,-1.811563126861884254e-02,-1.500753085952480229e-03,-3.308260466503842867e-03,9.142624139785766602e-01
-4.175351146040454098e-01,-3.629458425677944966e-01,5.223340111612003733e-01,-1.801437779307388243e-02,-6.968984672167142375e-03,7.282220320261342458e-03,9.144974350929260254e-01
-3.402191120745416963e-01,-4.249245117889457468e-01,5.262460579534832261e-01,-2.197971585128361688e-02,1.188146609801229991e-02,-7.784460528189042841e-03,9.128996729850769043e-01
-4.253835433615271167e-01,-3.608936036656888446e-01,5.318821787306081683e-01,-1.501921090498384466e-02,8.660598159535241175e-03,-1.131266321977464871e-02,9.273986816406250000e-01
-3.364712610747738752e-01,-4.568448700277321084e-01,5.564375223731947706e-01,-4.945724108891453447e-02,3.398600478149407800e-02,-1.563441436191770340e-02,9.647772312164306641e-01
-4.597952157140410279e-01,-3.316869083265359119e-01,5.332964570210173560e-01,-1.959154480085811834e-02,8.021937914533141742e-03,-9.070879558814432669e-03,9.364886283874511719e-01
-6.028621289844391384e-01,-2.196572920929832917e-01,6.309275634165127933e-01,-6.526360567557820680e-02,1.585644698730120580e-02,-4.918336478702250297e-03,1.099951624870300293e+00
-4.432396716075735488e-01,-4.359353830649908002e-01,5.302739470961337354e-01,-2.641446624039334081e-03,-2.685915764083874821e-03,-5.755733059569948873e-04,9.699045419692993164e-01
-6.292057181691452783e-01,-1.600806369059026291e-01,7.879537589360386951e-01,-4.296667657376294219e-02,4.709303406809717957e-02,-3.769550438735060072e-02,1.256999969482421875e+00
-4.435687754725577969e-01,-4.373908181855353794e-01,5.294221120909264888e-01,-9.169031790126663112e-03,-4.982201346654504051e-04,-2.698276591652726264e-03,9.700583219528198242e-01
-4.443187524709585334e-01,-4.372307437818978015e-01,5.377988289690969204e-01,-2.908421861658130273e-03,-1.116463552029321391e-03,3.012145765323834181e-03,9.786216020584106445e-01
-3.395291127729559988e-01,-2.888216737961087910e-01,6.030550821989040244e-01,-2.743946343351942319e-01,1.374807375344915678e-02,-2.746140215627425329e-02,1.035348653793334961e+00
-4.432255300449859936e-01,-3.872415015660186088e-01,5.397614604303729857e-01,-6.771201023525178463e-03,-1.130797462083770952e-02,1.194128379058354873e-02,9.567209482192993164e-01
-4.322477216451158233e-01,-4.502394773804124228e-01,5.295765768772899840e-01,-1.458003918625656262e-03,1.193327808927178817e-03,-3.667910654338048942e-03,9.709714651107788086e-01
-4.872129213421295124e-01,-2.834486649001943248e-01,5.407799380592374083e-01,-1.253625455349436334e-02,6.724281202321911316e-03,-1.211498502658925683e-02,9.433283805847167969e-01
-5.142190195831650712e-01,-2.643534292099812277e-01,5.345772590784791944e-01,-1.656544049443545857e-02,3.636231063352386023e-03,-7.356965554773666274e-03,9.494069814682006836e-01
-4.933268670055777627e-01,-3.960172296403252634e-01,5.653170547869237339e-01,-9.471111649708549574e-02,3.690056937893860384e-02,-1.107557017534187629e-02,1.028855443000793457e+00
-4.497213290800709529e-01,-3.431137324087372154e-01,5.346547977397554385e-01,-1.612855915885424291e-02,-2.902670526863400120e-03,3.645693845610665888e-03,9.360903501510620117e-01
-3.042133013411830178e-01,-4.660958697653565519e-01,5.360928735720106308e-01,-6.012795403584561549e-02,8.531004127434087606e-03,-2.545925114087428404e-03,9.377821087837219238e-01
-3.174579767357917914e-01,-5.170402611924982406e-01,6.707143106175900149e-01,-1.422423238103261989e-01,-2.391424848223583366e-02,2.105597145646761863e-03,1.129587054252624512e+00
-3.266787784717389287e-01,-5.353779115095097518e-01,6.587207368886732750e-01,-1.306849476802021681e-01,-1.297065506641871882e-02,1.627760013098833100e-02,1.128164410591125488e+00
-2.867336749000317653e-01,-5.164649748597224255e-01,6.276032536780042914e-01,-8.350845687350014201e-02,-8.085673849324881077e-03,-2.496385352329541464e-04,1.058280467987060547e+00
-2.341363667189875764e-01,-6.698147003404696376e-01,8.558018086201888419e-01,-2.717154152175389470e-01,-4.495558360424675715e-02,1.567416503482636086e-02,1.442543268203735352e+00
-2.160490678443504065e-01,-5.246589714730887088e-01,7.777433900490851038e-01,-1.797162540644208772e-01,-2.059954311960956672e-02,-1.543171910129024008e-02,1.220016002655029297e+00
-4.670520612038065456e-01,-2.806352636066842265e-01,5.805953306003026615e-01,-1.238356290440637830e-01,-8.830787536386107070e-03,2.105539743159087415e-02,9.922635555267333984e-01
-2.507969510209780428e-01,-5.607941827014049085e-01,7.236351225143355936e-01,-2.714232790924265282e-01,-1.010208322114082846e-01,-1.325436978930001619e-02,1.264848589897155762e+00
-4.405089246215077026e-01,-4.431806036519602698e-01,5.501356414175856413e-01,-1.047115960359906554e-03,7.509465085948341650e-04,-4.417415625898822844e-04,9.919859170913696289e-01
-4.351713397165347663e-01,-4.363199594790939106e-01,5.498754451190629444e-01,-2.359952076280804820e-03,-2.312854985637783235e-03,2.045436003802596995e-03,9.856445789337158203e-01
-4.424819104441745643e-01,-4.273213090920960910e-01,4.899145646462795822e-01,4.153051179443496138e-03,-6.131265025595125304e-03,2.129907951051486156e-02,9.257336854934692383e-01
-4.297064861220015741e-01,-4.234114035464009995e-01,5.444141438733378635e-01,-1.134311559806376184e-04,-3.929437133705449524e-03,-5.257586240189809738e-03,9.710549712181091309e-01
-4.781222397472767449e-01,-3.475442581441046674e-01,5.393501029650602518e-01,1.230940582677028314e-02,-4.780809382837642244e-03,-1.402315401728724403e-02,9.594551324844360352e-01
-4.421355625501551811e-01,-4.373445601405220318e-01,5.484791385321218238e-01,-6.226634333945247745e-04,-3.060919202257832497e-03,-2.140512493018751922e-03,9.882496595382690430e-01
-4.371853803931867732e-01,-4.399226200036623347e-01,5.507631062040618808e-01,1.369007414512976887e-03,1.524788325346287899e-03,1.962788688661793856e-03,9.893321394920349121e-01
-4.602081842146392709e-01,-3.784505625730157363e-01,5.435635542481093152e-01,-1.329628618195689664e-02,1.115044741705345337e-02,-1.594452910902295628e-02,9.663550257682800293e-01
-4.554273244665563158e-01,-4.066298594371816066e-01,5.361851961388430787e-01,-1.912519141012624648e-03,4.951387610206073840e-03,-7.392704786825583796e-03,9.682648777961730957e-01
-4.458000145429291128e-01,-3.584145494839324764e-01,5.433410415404050786e-01,1.314198206081256155e-02,-4.018446611063449143e-03,-3.659911991744036787e-03,9.487920999526977539e-01
-4.366966889019773812e-01,-4.388450678762270130e-01,5.300840007552721778e-01,3.713804996818718517e-03,-8.828956465305468418e-03,1.127801012311218688e-02,9.681959152221679688e-01
-5.120938120485065692e-01,-2.732767475159695869e-01,5.436443763799851947e-01,6.465826297800011252e-03,-3.688084748481628350e-04,-1.950331111949813248e-02,9.595599770545959473e-01
-4.682416247180808400e-01,-3.969111771547202960e-01,5.512377617579500289e-01,1.937417899411285989e-03,-9.925940074557278170e-03,2.094666571765065044e-02,9.865745902061462402e-01
-4.600188057505828487e-01,-4.002414396530921126e-01,5.484786355783977108e-01,-5.695211898708370246e-03,4.341745693799735697e-03,7.512326083733691581e-03,9.801419377326965332e-01
-4.505096235900905577e-01,-4.044490046444051967e-01,5.452919185092212073e-01,-1.650217741576502292e-03,8.064690158194488118e-03,1.335020293049883275e-02,9.739676713943481445e-01
-4.463600361856537857e-01,-4.146434572713171285e-01,4.801832859401964360e-01,2.667624370500506418e-04,-8.152985294426550594e-03,3.104614606224319340e-02,9.127939939498901367e-01
-4.747612947671734918e-01,-3.501141772625280257e-01,5.452536299706435274e-01,2.201496000595616707e-03,-4.486246250935752369e-03,-1.979442079115857969e-02,9.644044041633605957e-01
-4.561393433836945510e-01,-4.531908403802506480e-01,6.271651513459055582e-01,-1.413617457352361884e-01,-1.758234773460135361e-02,3.697336790684160879e-02,1.111459016799926758e+00
-5.228976939467181451e-01,-3.481584124693749560e-01,6.342371153626188418e-01,-8.595322974478918077e-02,3.391746329003687745e-03,2.032653774892027865e-02,1.091208338737487793e+00
-4.858859184223142114e-01,-3.374923507429437031e-01,5.299964508466523672e-01,-3.639115464608304318e-02,2.001800143197831131e-02,5.071795232166409831e-04,9.531332850456237793e-01
-4.395145174547965272e-01,-4.239589163853371701e-01,5.485638127986465218e-01,-4.051654584506267191e-03,5.862857618662318387e-03,-4.026648021713227429e-03,9.804955720901489258e-01
-4.953977338953117204e-01,-3.409163613985004004e-01,5.661698494121151226e-01,-4.287285059260741854e-02,-1.482846267900884280e-02,9.638845710150180032e-03,9.966195225715637207e-01
-4.410436512524539276e-01,-4.384062916961036782e-01,5.284178802273804543e-01,9.286770972973076854e-03,-3.731813855629801877e-03,9.030264278778768819e-03,9.684270620346069336e-01
-3.574939437550538890e-01,-4.251570736967466568e-01,5.534409440399926661e-01,5.337869826734389228e-02,1.641487359364425525e-02,8.713932590655329088e-03,9.516308903694152832e-01
-3.843840747964657467e-01,-2.979671917741304465e-01,5.147628648038549137e-01,-2.342729182186462367e-01,1.191132075635921092e-02,2.496644827370137973e-02,9.514087438583374023e-01
-5.370131177305326187e-01,-1.699981789956891420e-01,3.366902948781210769e-01,-1.435222145236961511e-01,-4.623747369792036155e-02,1.340707626498965355e-01,8.363790512084960938e-01
-2.979246193644515817e-01,-5.013987652489872993e-01,5.471699631523170293e-01,1.542998865006457720e-02,-1.605292987155795478e-02,-4.690939527766944603e-03,9.638956785202026367e-01
-3.048835455489372626e-01,-4.619117561585294185e-01,5.333921243310946192e-01,3.390509502782338563e-02,-9.005335093866907031e-03,-5.032602752599109504e-03,9.288513660430908203e-01
-3.210425092277462422e-01,-4.568553737755681188e-01,5.335609335121701546e-01,2.667640859638929426e-02,-7.062482489898642621e-03,-2.805740782483770197e-03,9.312177300453186035e-01
-3.083387936248808137e-01,-4.889771413858853832e-01,5.517787465381684964e-01,3.623228663015649886e-02,7.198687719065862897e-03,4.227955077420146070e-03,9.653756022453308105e-01
-2.422270872574722733e-01,-5.112829606902198343e-01,5.464557407846841741e-01,6.156573666896524022e-02,-1.114822553420782153e-02,2.354565013221513164e-03,9.583172202110290527e-01
-3.314106562418428492e-01,-4.619289064287918078e-01,5.398322696767516859e-01,2.410231900273769254e-02,-1.586467616544636264e-02,-1.000490865669514430e-02,9.447806477546691895e-01
-3.419209477692535804e-01,-4.723667620394308431e-01,5.576194313872926411e-01,7.033281788369452614e-02,-9.935325384723039943e-03,4.464502296546607116e-03,9.791457056999206543e-01
-2.857841582799746094e-01,-4.825899978880738295e-01,5.266509697658862121e-01,3.718028491475279529e-02,1.825144415383713609e-02,-8.428357107963557401e-03,9.295347929000854492e-01
-1.382814510920709894e-01,-5.627337449008187331e-01,6.003390509611827852e-01,1.820213344014376677e-01,-4.049669961611846586e-02,-1.177929227259671974e-02,1.069561004638671875e+00
-2.422116045310730437e-01,-6.077609247879661725e-01,6.512237333549141249e-01,2.739837916198570866e-01,-5.799189765198564661e-02,6.735881493434983658e-02,1.227741718292236328e+00
-2.573406529928077835e-01,-5.670381706333740279e-01,5.946451179295639822e-01,3.837084215382091656e-02,-4.765092337627489794e-02,1.111010229556105670e-02,1.047496676445007324e+00
-1.934104806719131875e-01,-6.850786263667001386e-01,6.373719569042337607e-01,1.950804922024252930e-01,-5.329000745853539056e-02,-6.712021563932485391e-02,1.215158581733703613e+00
-3.191738999197204496e-01,-4.764696221818368049e-01,5.425023969030380311e-01,-6.689713197918908949e-02,-1.154059994098533687e-02,1.585334137685697267e-02,9.577813744544982910e-01
-2.461762321477939941e-01,-5.007821637281951732e-01,5.307615784247425861e-01,-6.216038891866829119e-02,-9.048805755802791922e-03,-9.404839947199759723e-04,9.370750188827514648e-01
-3.033358013316899138e-01,-4.659972302650830511e-01,5.344146993063536577e-01,-3.242944795600846697e-02,6.781019312574070035e-03,-5.449599247018567343e-03,9.316310286521911621e-01
-3.308170227701802135e-01,-4.579834978290557856e-01,5.395040687962849857e-01,-2.422336466329112412e-02,1.766057991178681535e-02,-1.079746425871833289e-02,9.419933557510375977e-01
-3.788772629392203606e-01,-4.488267225660280690e-01,5.390666816746596535e-01,-2.549989221116154975e-02,-7.700879533381685058e-03,-5.291240317673521175e-03,9.560001492500305176e-01
-3.501093453808869493e-01,-4.445656318430951659e-01,5.335922674496617057e-01,-9.030426965577879189e-03,1.060192786345242298e-02,-1.174243020218406972e-02,9.350492954254150391e-01
-3.496556157135818910e-01,-4.530260034881023468e-01,5.444562986120400350e-01,-4.955617626748277244e-02,4.664054065543144639e-03,-9.278786426118946357e-03,9.540635347366333008e-01
-4.000907879512604071e-01,-4.638493074420305118e-01,5.333336806304085354e-01,5.791105717106131805e-04,-1.779800651756239583e-04,-1.320970539792062221e-02,9.671528935432434082e-01
-3.970466072571424143e-01,-4.581011967971665433e-01,5.459235615283856147e-01,-2.867191713810363952e-03,-1.148273504851422995e-02,8.126438616688732349e-04,9.751488566398620605e-01
-4.418209303632966711e-01,-4.337912852796158014e-01,5.186452262802269120e-01,-7.318053823089486903e-04,-8.521655124802457806e-03,-2.780906554183421031e-03,9.566034674644470215e-01
-4.113791488487406611e-01,-3.682429658061048272e-01,5.232737453290188245e-01,1.859771875467352079e-02,-1.838474500152333709e-03,-3.861254520909063008e-03,9.144462347030639648e-01
-4.387868813865142825e-01,-4.208957623387409308e-01,4.722643102763395273e-01,2.251088863978892383e-03,-1.801386863892814882e-02,-1.626793959262168472e-03,9.027908444404602051e-01
-3.968769316491218557e-01,-4.745679153581467968e-01,5.659331198778767558e-01,-5.942717680025771075e-03,-8.670285001249378870e-03,-4.444795211656786364e-03,1.004107356071472168e+00
-4.420251359243962952e-01,-4.374633092290809433e-01,5.307101324034835255e-01,-1.149182561769611626e-03,2.446047576550659450e-03,-2.071691414050902142e-03,9.704803228378295898e-01
-4.412602301261555060e-01,-4.400935997868184457e-01,5.360160984812814000e-01,-7.010904363495513514e-05,1.996370193502631802e-03,1.210313273330641240e-04,9.766997098922729492e-01
-4.384921112997207659e-01,-4.255759818939748862e-01,4.758987397587758350e-01,3.634435362605123974e-03,-2.029152486278700332e-02,9.694281483307077858e-04,9.087049961090087891e-01
-4.615886583539134391e-01,-3.177774594543836817e-01,5.297978662445742559e-01,-3.006159158627222036e-02,-8.673952803519226380e-04,-5.064469863555078402e-03,9.293797612190246582e-01
-4.444948913233688903e-01,-3.491280947939826573e-01,5.342169394327328513e-01,-1.513136703594712695e-02,-1.607054334561527908e-03,-2.347248527971782742e-03,9.350647926330566406e-01
-4.184134721829771975e-01,-3.703251534850847126e-01,6.322767634712241902e-01,-1.913349913599730334e-01,-3.411332936324545928e-02,2.386724953369508823e-02,1.082018375396728516e+00
-4.794437265419717598e-01,-3.586550908603183818e-01,5.787872363876347404e-01,-1.417277089666367784e-01,2.260547959270289842e-03,4.633205074093316167e-03,1.032937765121459961e+00
-3.073378169229063483e-01,-3.880726152504435089e-01,5.375102105263912522e-01,-1.530923104349394270e-01,1.317569956139437795e-02,-1.014298584267038679e-02,9.271656274795532227e-01
-4.201749645443385583e-01,-3.493184718627493357e-01,5.192577032336650467e-01,-1.847125513280577919e-02,2.604675609438604489e-03,3.623576145637926783e-05,9.066605567932128906e-01
-4.217131444396353124e-01,-3.517886172628222341e-01,5.287071923223756187e-01,-1.550784051071552733e-02,1.152286168136241020e-03,4.201676707940013578e-03,9.178828597068786621e-01
-3.461947615833323999e-01,-4.215143666231215280e-01,5.279171791977063100e-01,-1.835437046776550868e-02,-1.012576848384252187e-02,2.865545388654110789e-03,9.148362278938293457e-01
-4.697050039727875270e-01,-4.069523119307765779e-01,5.642144194246864197e-01,-2.346115204169401183e-02,5.029354609759449299e-03,4.334941214826634921e-03,1.004902720451354980e+00
-4.664730455625425987e-01,-3.404334139064528753e-01,5.578456319686376785e-01,-5.953899349938229085e-02,-5.510154728362963439e-03,2.398395192287671243e-03,9.730123281478881836e-01
-5.434825333193590291e-01,-2.801327225187468239e-01,5.567454814030555754e-01,8.365590543587571315e-02,3.600728081603502689e-03,1.974398763216789893e-02,1.006137847900390625e+00
-4.421812660692119312e-01,-3.279048965872488064e-01,5.277810395559718870e-01,6.516124369752418488e-02,6.345614894478978155e-03,2.259371043794954461e-04,9.251492619514465332e-01
-4.286443612165242167e-01,-4.105160854993966657e-01,6.016699585613817236e-01,1.435782675991711943e-01,-3.226669244623501381e-02,-5.231330924873646426e-02,1.056586980819702148e+00
-4.521337762793991022e-01,-3.343379451466602648e-01,5.317781416802518368e-01,4.842096608060555279e-02,3.537011096966208995e-03,-1.257428876498262876e-02,9.346675276756286621e-01
-4.711581637995380101e-01,-2.818446289062347399e-01,5.576407657801848439e-01,1.650950839442338058e-01,-3.182625942445829401e-03,2.383781129876542948e-02,9.914663434028625488e-01
-4.611220103790489855e-01,-3.307623645218866759e-01,5.359632529586160210e-01,2.506858252970309286e-02,1.253339999187608883e-02,1.846801256671502800e-02,9.405172467231750488e-01
-3.327594160098441556e-01,-4.174676872304284858e-01,7.769313631502794415e-01,2.205073821626880870e-01,-1.145583389132818868e-02,2.919552853749259741e-02,1.217132091522216797e+00
-4.694184341845896169e-01,-3.663679175442647318e-01,5.499058916363023242e-01,8.318667950240714315e-03,-1.620208026885565106e-03,1.131988001087017720e-02,9.722136855125427246e-01
-4.162788883270892581e-01,-4.333714108941674192e-01,4.483948128281879386e-01,-4.086756940306671484e-03,-4.524514038239350368e-03,-1.261239952597767444e-02,8.736824393272399902e-01
-4.465558745563584231e-01,-4.418333935109671207e-01,4.574800010796691296e-01,-3.380243488529228145e-03,-6.389591461053903410e-02,-1.056013940197831659e-02,9.086532592773437500e-01
-4.440234280811802270e-01,-4.394272460833185123e-01,4.744757022817718273e-01,-2.093277134888252636e-03,-4.098142684880538150e-02,-1.466743465969549791e-03,9.189658164978027344e-01
-3.443145257897016753e-01,-4.618843920689195692e-01,1.797749233254428147e-01,8.854592139613119348e-03,-1.693931356781372688e-01,3.904677643860753750e-02,6.640789508819580078e-01
-4.441969559593668126e-01,-4.411942772381405864e-01,4.268730689497198805e-01,2.096603303026118442e-02,-7.807960368565913800e-02,-3.154098181881636459e-02,8.824675679206848145e-01
-3.821886294949558560e-01,-3.832942620888072360e-01,2.546286673996887018e-01,3.138848181608632718e-03,-3.046503023759013912e-02,-1.310916425864484119e-02,6.399773955345153809e-01
-4.548254498816874380e-01,-3.096525127628265150e-01,5.246088980906897792e-01,2.652004536234553109e-02,-2.804547786701981128e-04,-4.849445110161155342e-03,9.167116284370422363e-01
-3.976343024639843460e-01,-3.967930126278426672e-01,3.203204567039030781e-01,1.800157951611843941e-03,-1.294286743940159523e-02,-3.446896696989476538e-02,7.203695774078369141e-01
-5.965241315557553436e-01,-2.534929443972018248e-01,6.246554039894686161e-01,1.132255749733582506e-01,1.870968914903261421e-02,-8.994420263517276942e-03,1.108963489532470703e+00
-5.147327670397368049e-01,-2.870654221097160286e-01,5.480110238648122634e-01,1.952212663891481070e-02,-2.973386352159499216e-03,-2.107679345786231048e-02,9.704675674438476562e-01
-4.497261089164479864e-01,-2.287859111859988914e-01,5.958839398189406111e-01,2.568958570714873768e-01,2.590473518778051154e-02,1.864694031697544663e-02,1.054580688476562500e+00
-5.436666203395730257e-01,-2.403396910029598210e-01,5.588604786743408548e-01,2.375222058362813898e-03,-3.155873413619171477e-03,-8.528447911779325416e-03,9.866164922714233398e-01
-5.433833844205303576e-01,-1.914956131266276618e-01,5.499965175832736142e-01,-1.092941176178693734e-02,-3.836100240961448984e-03,-2.413072606085703981e-02,9.678362607955932617e-01
-5.266763504690730180e-01,-2.070367299277024453e-01,5.892031790277484360e-01,1.677163931370516947e-01,4.407218522367591963e-03,2.041835420900709255e-02,1.037483811378479004e+00
-5.174024151005063299e-01,-2.610663502397501112e-01,5.504415586706443708e-01,3.991709345726726296e-03,-1.073977731499244602e-02,1.140653313505420562e-03,9.657483100891113281e-01
-5.365496469371012767e-01,-2.580548774126975031e-01,5.503521480333014582e-01,-5.677289228260436020e-03,3.125447529810877409e-03,1.047719247540132050e-02,9.780969619750976562e-01
-4.635212238709361388e-01,-3.331892065068962072e-01,5.590505039193021108e-01,-6.511884813313389975e-02,-7.074193846398731805e-03,7.872657243753701170e-03,9.707847237586975098e-01
-6.163323371229545433e-01,-1.758717440564988577e-01,6.171890647627047422e-01,-3.537358163075598159e-03,-1.302136717868826107e-02,-1.597230023753371669e-02,1.083316445350646973e+00
-4.680473825224150675e-01,-3.455815915468666288e-01,5.745479126308929985e-01,6.365766867219849190e-02,-7.885175270772138562e-03,-9.475279277786607598e-03,9.934451580047607422e-01
-4.046532681856000457e-01,-3.666823821190214883e-01,2.200492222558118605e-01,3.123159706021688947e-03,-3.545215492795650292e-02,-2.101563458340713342e-02,6.108185052871704102e-01
-4.128567753269837826e-01,-3.935183574298888876e-01,5.321050267267831702e-01,3.052959758581075614e-02,-3.154089183887355541e-03,1.365499013691839816e-03,9.369547963142395020e-01
-4.115002333104907373e-01,-4.061706373780050172e-01,3.954099241760843375e-01,3.378775183167696382e-03,3.796799971542049942e-03,-1.068462012978865653e-03,8.043088912963867188e-01
-3.893582254581577362e-01,-3.759312529701832606e-01,2.860732348140438974e-01,-3.469861939649920672e-03,-1.611387024754825162e-02,1.045715483557831376e-03,6.694306135177612305e-01
-5.292514220036514949e-01,-2.508109197142544544e-01,5.415726282687374216e-01,-2.781879798571179792e-03,6.061825624625639692e-04,-8.216425214234965996e-03,9.624236822128295898e-01
-5.204428398929960009e-01,-2.531698797265868883e-01,5.509778305731446446e-01,-2.138195677096004985e-02,-8.946593712874050235e-04,1.244707072509419060e-02,9.668785333633422852e-01
-4.933069880952665742e-01,-2.668571446480003106e-01,5.364599267249214876e-01,-4.464102112833277791e-02,-6.329404798053653823e-04,1.458963528098584234e-02,9.408119320869445801e-01
-4.427808086181803104e-01,-3.571062806574968884e-01,5.379936158617985020e-01,1.253584030317475041e-02,1.849295119014443631e-03,2.393615576663997348e-03,9.411323666572570801e-01
-5.432112746037973672e-01,-2.444909639433123782e-01,5.667760443021947481e-01,4.387999603732754828e-03,2.057769016323520209e-04,5.895771763932623061e-03,9.949331879615783691e-01
-5.466267125882591227e-01,-1.975056112494310290e-01,5.533645613194959623e-01,-9.775064933210319759e-03,2.067999550785636499e-04,1.391936888860533655e-02,9.740144610404968262e-01
-4.668684069790785540e-01,-2.805615369975389406e-01,5.366836338052433097e-01,-9.539627234670661204e-02,-7.981211153294288929e-03,1.978900233938422470e-03,9.393415451049804688e-01
-4.629918998064611046e-01,-3.036173733128934016e-01,5.399847752265241052e-01,-2.452132323714438858e-02,2.068619908544519406e-03,-8.489229039774755584e-03,9.346370697021484375e-01
-6.101420133800038448e-01,-2.172969760533895456e-01,6.254670190612402481e-01,-5.713852924183677323e-02,5.957037591473058127e-03,6.915944197294308102e-04,1.097978353500366211e+00
-6.736858235670128980e-01,-6.057703779741202554e-02,6.423783549840859086e-01,2.456974150852565125e-02,1.606814009621865616e-02,2.215195861765377472e-02,1.142407298088073730e+00
-4.465013345199981276e-01,-4.385081326159196990e-01,5.465799403349123065e-01,-2.307372333646256699e-03,1.082161551832672109e-03,-1.216221536546261274e-04,9.891187548637390137e-01
-4.437506732548976984e-01,-4.437595783413443851e-01,5.454699952697910081e-01,-3.294393081701218334e-03,-1.678294124818282759e-03,-1.828546911403106101e-03,9.892508983612060547e-01
-4.424564061190938147e-01,-4.406385510606227185e-01,5.521759601790335870e-01,-1.891209601551843960e-03,-3.324099975244689323e-04,3.579929908134389010e-04,9.937304258346557617e-01
-4.440068678635393784e-01,-4.412917268301586038e-01,5.512799648600165137e-01,-8.931101655208975717e-04,5.873933452079772941e-04,1.775005366922148553e-03,9.939385056495666504e-01
-5.560970092543058296e-01,-3.566697496372678300e-01,5.785979094159999780e-01,-4.859201522715160537e-02,6.001549586129978006e-03,-5.265435381493779876e-02,1.056656837463378906e+00
-5.136415839415473528e-01,-1.387979829985819258e-01,3.011334911036989692e-01,-3.476814646450197138e-02,1.160658685406805272e-02,-8.877181013548965383e-02,7.256892323493957520e-01
-5.213273686483776981e-01,-3.770244172818652539e-01,5.650718160998500217e-01,3.269075589537013583e-03,1.647659561960579735e-02,-1.718720727326710981e-02,1.022765159606933594e+00
-4.609497469270364411e-01,-2.650047521029139652e-01,1.512119802967196724e-01,2.908339344828058878e-02,-7.073100705354228024e-02,-6.038256565258122432e-02,5.671602487564086914e-01
-4.120889345549408889e-01,-4.437870377937173649e-01,3.902983603406020574e-01,2.699246954096463577e-02,4.621869275631801909e-03,-1.332713702038237080e-01,8.519377708435058594e-01
-1.227675249520340794e-01,-7.544473745894071381e-01,6.607735720348054675e-01,-1.369414744984893684e-01,1.263171268697380750e-02,5.352358304615945778e-02,1.254286646842956543e+00
-4.604864041092435190e-01,-4.880925125526873742e-01,4.382326389123651911e-01,-1.174549815923350317e-02,8.857219096669369240e-02,-1.172545428173524772e-02,9.260829091072082520e-01
-2.234989804946408976e-01,-6.058148119775661478e-01,6.416467401284678962e-01,-1.194132066442327861e-03,-2.199886376861569150e-03,-1.160574157044907961e-02,1.107169508934020996e+00
-3.086021107633582505e-01,-4.996799600138599473e-01,5.107909111472731523e-01,2.193056517990181822e-02,1.706050964867796005e-02,-1.123938989388409068e-02,9.312242269515991211e-01
-5.475529711476487815e-01,-4.606691562042568577e-01,4.625954880102431943e-01,2.149524971735828488e-02,3.366233434046772555e-02,3.889586731173728246e-02,9.744266867637634277e-01
-2.616930223142733269e-01,-5.663666499225287199e-01,5.794914476264863001e-01,-4.590134709946946251e-02,5.439139812978702540e-03,-6.335293955579238655e-03,1.031132340431213379e+00
-1.545779114698452306e-01,-6.983757982489732230e-01,5.323491024924768000e-01,-9.035134262947226713e-03,2.840874277422358180e-02,6.728145997337575679e-02,1.075816273689270020e+00
-2.610504698959907333e-01,-5.309109582580290310e-01,5.593253702779279468e-01,1.305937113236186643e-02,1.269145128614741075e-02,2.062453024330980923e-03,9.839897751808166504e-01
-5.993531618381987558e-01,-1.982566373674424787e-01,8.249709932875872731e-01,1.210708654496386455e-01,4.306701006395527442e-02,-3.058136612344340699e-02,1.292528748512268066e+00
-6.039026554600792629e-01,-1.495870803485162270e-01,6.339176884548297641e-01,1.249984968268695595e-01,7.870491783866886623e-03,7.101629358001839473e-05,1.106029152870178223e+00
-4.468189736007119328e-01,-3.409353174364926908e-01,5.338944175696619387e-01,5.441964560960778352e-02,8.649437202888314927e-03,-1.289265282261340328e-03,9.371672868728637695e-01
-4.667582315108845803e-01,-2.275564082254643017e-01,5.677749288902893543e-01,2.125473793925955757e-01,-5.001560333227811350e-02,-8.750123087146041700e-02,1.022749900817871094e+00
-4.213274234660119300e-01,-4.173816821040123304e-01,4.233811682282959676e-01,-6.538213209209601216e-03,3.024389191875544169e-02,1.753440526057417972e-02,8.449910283088684082e-01
-4.595206984922146631e-01,-3.275499144918949113e-01,5.400440732205238348e-01,1.967549891229651918e-02,7.204566943885116689e-03,1.676441537889346647e-02,9.416968226432800293e-01
-5.048949380819292010e-01,-3.255888738778207614e-01,5.527234410418123689e-01,-1.162737414881434041e-02,-6.087868394086733484e-03,-1.482126755663245449e-02,9.809412360191345215e-01
-4.791614633872793294e-01,-3.208756312979152425e-01,5.444878453330634915e-01,9.830922183456575203e-03,1.226120583669634140e-02,1.539605420582707690e-02,9.551624059677124023e-01
-5.063374328902681132e-01,-2.858896106087042699e-01,5.477361720456574989e-01,1.349024230817656364e-02,-4.960113783036373958e-03,-1.085749443202008169e-02,9.634695649147033691e-01
-3.807874231900350570e-01,-4.055245264907247904e-01,5.217146440658960715e-01,-8.863074244537369473e-02,-8.529226398363738693e-03,4.901075718736133940e-04,9.280260801315307617e-01
-4.254915283694752359e-01,-4.275114420734914544e-01,5.537246482063242770e-01,-8.472502240407103757e-03,-2.966594943265493407e-03,6.487902801208677780e-03,9.804154038429260254e-01
-4.174256971063464716e-01,-3.890963211793042609e-01,4.451196998499711288e-01,-5.663607865690015175e-02,2.098797419285228574e-02,-3.832756956991204694e-02,8.577314019203186035e-01
-4.367938294316270897e-01,-3.837217467969732398e-01,5.243271677575426226e-01,-2.435283078463314488e-01,2.703427991997204433e-02,-1.222386283300949672e-01,1.049046754837036133e+00
-2.854515535705540175e-01,-4.080360136574170959e-01,5.391237813146578794e-01,-2.276607071980159824e-01,4.380007566410527853e-02,-5.460360399635387496e-02,9.829647541046142578e-01
-2.562887117483961807e-01,-5.898496378975653931e-01,5.546117533143379852e-01,-2.254755749547355803e-01,4.364957969124571430e-03,-1.219806660601307213e-01,1.111989140510559082e+00
-3.189355572047936627e-01,-4.824566700993689339e-01,2.981931472921413029e-01,-5.333309165863598517e-02,8.651832674927691091e-02,-1.166015061789386908e-01,7.617596983909606934e-01
-4.086864242877114584e-01,-4.264235764575918242e-01,4.064143823904589059e-01,-8.796850147677597737e-03,7.132663365873695080e-03,2.891700888372762679e-02,8.258661031723022461e-01
-3.130360469310744520e-01,-3.311499312706317477e-01,1.355470556014412020e-01,1.571740365462377942e-01,5.014117139482650309e-02,6.141338677108623689e-02,5.501351952552795410e-01
-4.252260846389018800e-01,-4.123711409392629146e-01,3.933217600070064712e-01,-6.492893335481884909e-03,6.398354291854425370e-03,2.556961017884287757e-02,8.135564923286437988e-01
-4.179724337107925125e-01,-4.491541322553639359e-01,4.377012776600087696e-01,-5.275560562282323451e-04,9.469525823578449353e-02,6.680667687786728814e-02,8.944959044456481934e-01
-3.284629134214157031e-01,-4.599914013096608190e-01,5.390709278128441584e-01,-2.538910752048098574e-02,-3.629405620894596632e-03,6.920633565600187382e-04,9.412730336189270020e-01
-2.878166833990786766e-01,-4.982031013695909505e-01,5.450487883437179493e-01,-7.020549668795156295e-02,-1.224946168929778520e-02,1.437500391839086067e-02,9.638503193855285645e-01
-2.469942109066584068e-01,-5.162768359482586833e-01,5.462673191072104917e-01,-5.686914664502655536e-02,-2.882006487173992878e-03,-3.314784211119244789e-03,9.618465304374694824e-01
-4.340716331822312979e-01,-3.950709870607735374e-01,3.145811359299374166e-01,-2.261918578587330045e-02,-3.639806539813422726e-02,2.567142839399137733e-02,7.350445389747619629e-01
-4.379075458417072686e-01,-4.293427761288043931e-01,3.108515389801874695e-01,6.258248032288887819e-03,-6.219356087431286706e-02,6.403589615642651944e-02,7.604761719703674316e-01
-4.405548753263886508e-01,-4.197015849899076723e-01,4.694509297570015338e-01,-1.541082700063007823e-03,-2.025218470691802705e-02,-1.797800410533410224e-03,9.004532694816589355e-01
-4.098291433617806678e-01,-5.262386304044206486e-01,5.428036874313088012e-01,-3.462787459910447729e-02,-3.983361350611868551e-02,-4.558092017122059546e-03,1.019988059997558594e+00
-4.268602282186951813e-01,-4.319864448385073996e-01,4.695447972119338731e-01,9.074094385269265706e-03,-1.667340678086625186e-02,1.692663162025924775e-02,9.000577330589294434e-01
-2.879633691068325674e-01,-5.824706315929484290e-01,3.754229648903797401e-01,6.756701194719848258e-02,-3.164408063089534096e-02,2.628023850768047842e-02,8.607903122901916504e-01
-2.781929541816920981e-01,-6.202039846457663153e-01,2.384566000945442799e-01,-1.415476082352237208e-01,-5.976821313570235272e-02,-3.135275863554458364e-02,7.964740991592407227e-01
-2.136264834496887921e-01,-5.627491683486521845e-01,3.738892656648791224e-01,-7.256054013635626632e-02,-2.780475784174913506e-02,8.068201712870247400e-02,8.425079584121704102e-01
-3.425459085282621663e-01,-4.230901280851474544e-01,1.846093095047985910e-01,-8.190642342484857896e-02,6.171431846418726566e-04,1.118434670134606512e-01,6.200752258300781250e-01
-4.404990358333769618e-01,-4.300851517858143569e-01,5.235977115621431865e-01,2.623182133043630961e-04,2.431139536663338464e-03,-7.776129670785421680e-03,9.590361714363098145e-01
-4.353308609083810787e-01,-4.146710612607961144e-01,5.409009343894319866e-01,9.254008859840290313e-03,9.096066151389385276e-03,7.616878484897341567e-03,9.664190411567687988e-01
-4.360720623938599272e-01,-4.368001755904669103e-01,5.506842373975432414e-01,-3.310001430776448716e-03,2.838270541813381863e-03,-1.862609817071546586e-03,9.871547222137451172e-01
-4.155988459952481007e-01,-4.369360045924795544e-01,5.461833617895086590e-01,6.696924872458977392e-03,-3.213156305074517730e-03,4.831893752532914754e-03,9.727474451065063477e-01
-4.382027970234713132e-01,-4.397073733391435590e-01,5.511820779953354732e-01,4.602848691074243066e-04,2.437336350356367198e-03,1.580037472223491928e-03,9.901511073112487793e-01
-4.371631768146379549e-01,-4.396096141094897325e-01,5.505873700435299778e-01,-3.981100543522180066e-04,-8.981557333439589997e-04,1.554646365850741001e-03,9.889811873435974121e-01
-4.251207508844607741e-01,-4.373930237209613381e-01,5.477212582446028266e-01,6.125103054146035218e-05,3.988901340568752445e-03,1.723820098620185842e-03,9.790647625923156738e-01
-3.819076021383462916e-01,-4.441358976684989246e-01,5.352185336424953865e-01,7.727024179204149655e-03,1.048521516781659654e-02,1.245442195726879572e-02,9.502832293510437012e-01
-3.157585682096476498e-01,-4.952745422128073116e-01,5.488790863222022809e-01,2.401888092202807481e-02,1.484726578389244586e-02,9.774261125677211060e-03,9.683589935302734375e-01
-4.262439125633423753e-01,-3.936060071417250561e-01,5.389551323805228389e-01,2.538752554310620344e-02,1.106237902730293488e-02,1.224696365733809675e-02,9.507486820220947266e-01
-3.473165347357770050e-01,-3.099947048237167713e-01,6.019314930831681787e-01,2.757876868375997992e-01,-1.461959795409259119e-02,-1.322091781418522488e-02,1.047081232070922852e+00
-3.071332058745187554e-01,-4.922348608121204228e-01,6.912210648704403271e-01,3.079576679794584493e-01,-1.450693558972000578e-02,4.144199465085180584e-02,1.227219820022583008e+00
-4.388461545885043447e-01,-4.340142854903635272e-01,5.422148539027691339e-01,-2.997811337780772502e-03,8.885203964289764349e-05,7.218889128212457179e-03,9.787476658821105957e-01
-4.386692537709956374e-01,-4.453490612278647731e-01,5.453228706575283802e-01,2.486557441193733373e-03,-1.645786724053915993e-03,2.375791231029374811e-03,9.873710870742797852e-01
-4.393842787524372406e-01,-4.402799785218487472e-01,5.438019763442136778e-01,-1.366954536821991134e-04,-1.783223126248967023e-03,-1.467777983744098956e-03,9.836425781250000000e-01
-4.397852687380562342e-01,-4.432803387940038031e-01,5.424829282478553782e-01,3.206653658638135198e-03,-4.537646608486705681e-03,6.916653783910913650e-03,9.841403961181640625e-01
-4.364813116145686567e-01,-4.391753454310177163e-01,5.159618201425191231e-01,6.369943357716396741e-03,2.993564524058607915e-03,5.831467152192008896e-03,9.539243578910827637e-01
-4.368022092056374484e-01,-4.390607212703092066e-01,5.209591147814440770e-01,4.435580704120966125e-03,-2.868101523689553164e-03,8.546718975894039214e-03,9.590504765510559082e-01
-4.357170251567862307e-01,-4.479685189298696635e-01,5.367619776640895068e-01,5.040962334352536503e-03,1.783305542990741999e-03,3.364711549504542827e-03,9.787234663963317871e-01
-4.223657843046945692e-01,-4.341025510902404849e-01,4.735586773372703062e-01,2.517511025311429222e-03,-1.175306153121074768e-02,1.310761954801031165e-02,9.023760557174682617e-01
-4.371752456876192849e-01,-4.208269500050899059e-01,5.487344347671715417e-01,-3.027934043092831741e-03,-3.113113876313318602e-03,-4.059849694941572093e-03,9.778922200202941895e-01
-4.441454288023687358e-01,-4.375854535487801455e-01,5.385663047772778489e-01,1.622408792564053329e-03,-1.150095719905144896e-03,3.247274271582350873e-03,9.794704318046569824e-01
-4.290428681031282498e-01,-3.616923860733401996e-01,5.322823938545451217e-01,-1.481347946315460240e-02,-6.637866579612253237e-03,1.158766406196410498e-02,9.301236271858215332e-01
-4.889812722638902098e-01,-3.585105178417337113e-01,5.553120632038330839e-01,-1.287165036808527764e-02,1.663296767169050597e-04,-2.944902327182438717e-02,9.871273040771484375e-01
-3.073335141972343698e-01,-4.769655982313227294e-01,5.619629066236184745e-01,-7.351227917905164833e-02,1.422866724945677161e-02,3.554566063854849682e-03,9.740478992462158203e-01
-4.225684093885497816e-01,-4.109948571704567510e-01,5.398486799713481110e-01,-9.373049589574838220e-03,-9.183673285685579196e-03,6.493851634443999210e-03,9.570188522338867188e-01
-4.041698146686112381e-01,-4.238261402907387843e-01,5.379635186875826314e-01,-9.754166113609035252e-03,-3.522189774733214219e-04,4.452799539325052840e-03,9.522950053215026855e-01
-3.918952035506397258e-01,-4.064034593645897142e-01,5.260037195682203404e-01,-7.138656969450931158e-03,-3.528297921912899003e-03,2.266233364047048025e-03,9.253494739532470703e-01
-4.262959935925758059e-01,-3.852638421662701318e-01,5.351336993079152116e-01,-1.392019496594238195e-02,-5.179134029250307206e-03,-4.802595392415324842e-03,9.419724941253662109e-01
-4.020132746059718043e-01,-3.964668427507416215e-01,3.367852056949413031e-01,-4.953724705121929223e-03,-2.520580857516788176e-03,-2.642316816924843853e-02,7.375252246856689453e-01
-3.792697065107263343e-01,-4.144024585111618642e-01,2.674452749405914487e-01,3.609644494124237581e-03,1.210853258956409544e-02,-1.174202688279947226e-01,6.957276463508605957e-01
-3.982030031526898051e-01,-3.983709416667959857e-01,3.184172816521951832e-01,-2.428062467658117455e-03,3.328221140898600210e-03,-5.285626622457825774e-02,7.225629687309265137e-01
-4.079242136332768554e-01,-4.111164210652605844e-01,3.794749461080598740e-01,-1.407956750241934037e-03,5.444392610014115765e-03,4.569410939422266851e-03,7.890999317169189453e-01
-3.992044430801223731e-01,-4.015462032555081606e-01,3.464534379424619726e-01,2.673828056497110431e-03,1.895741567274558670e-02,-3.317440531508985407e-02,7.497723102569580078e-01
-4.079503099570013780e-01,-3.992976946702732621e-01,3.528008469432454275e-01,-7.605803705733258898e-04,2.018993814074985377e-02,-2.268459888187914289e-03,7.572811841964721680e-01
-4.424167509464491110e-01,-4.214124273172595303e-01,4.756756133150047416e-01,-8.996774188281979334e-03,7.248225156543489089e-02,1.113332384882155697e-02,9.167478084564208984e-01
-4.405885193146504841e-01,-4.348954059541073058e-01,3.394315187271728096e-01,7.259193427523940451e-03,8.618227552593885066e-02,5.055526705027494488e-02,7.963232398033142090e-01
-4.202975025082140159e-01,-4.063095468755309470e-01,4.071800219757625294e-01,-4.214841017629241370e-03,3.036530239082180227e-02,-1.871836494247578614e-03,8.222955465316772461e-01
