sxx,syy,szz,sxy,sxz,syz,smises
2.904227850608591399e-02,2.904227850608591399e-02,1.819154429878288015e-01,-5.550950053803049812e-37,-2.886494027977705659e-37,-2.886494027977466780e-37,1.528731584548950195e-01
