sxx,syy,szz,sxy,sxz,syz,smises
6.997109043225840930e-03,6.997109043225840930e-03,-7.400221808644993904e-02,-1.809015543269057086e-36,-8.954699481672782610e-37,-8.954699481674606772e-37,8.099932968616485596e-02
