sxx,syy,szz,sxy,sxz,syz,smises
-1.766908927253245387e-02,-1.766908927253245387e-02,2.155541785450642012e-01,3.170284540944338322e-52,1.632359286411041873e-52,1.632359286411006079e-52,2.332232743501663208e-01
