sxx,syy,szz,sxy,sxz,syz,smises
6.687287564270695539e-02,-1.961329489610247057e-01,2.449232464979541335e-01,-1.582474297998385376e-02,-5.857453162060187457e-02,-4.916924084112212455e-03,3.985210359096527100e-01
6.265501952004415287e-02,-1.351465164594495283e-01,3.073169559852926835e-01,3.575387930342006741e-03,-2.568193759693016345e-02,5.471479595382444314e-03,3.866345286369323730e-01
1.011716286319132435e-01,-1.311608098993064242e-01,2.764832334007019110e-01,-4.975274535537947771e-04,-3.754790207971426402e-02,6.111024446136706194e-03,3.602574169635772705e-01
6.250795872643555295e-02,-2.351663994722469064e-01,2.889543615592572445e-01,-2.535030014228886915e-03,-4.203527495459198626e-02,-2.045776266726303041e-02,4.624619185924530029e-01
1.303366480082273626e-01,-1.516234081949655865e-01,2.336627377573339548e-01,3.302209454762267300e-03,-1.076582873257765222e-01,9.725739877239632236e-03,3.929363787174224854e-01
9.997802538864214439e-02,-2.609576947056904683e-01,2.201488397275297715e-01,-1.398483901017860166e-02,-1.090038763523689946e-01,1.835960428690325275e-02,4.746925830841064453e-01
2.455948048242674320e-01,-1.250392753856403583e-01,2.477358260714259131e-01,8.136168341779284607e-03,3.222400705087997367e-03,1.144022692848450234e-02,3.725454509258270264e-01
2.382856060023781364e-01,-1.174878000536656864e-01,2.453435071586600458e-01,4.904105651830802624e-03,7.440220434369384205e-03,1.264341436340980090e-02,3.603516817092895508e-01
2.358255956790040742e-01,-1.097627119163018805e-01,2.554065093130685193e-01,1.722681426215676029e-03,8.735884499414342530e-03,6.127700465369418162e-03,3.562753498554229736e-01
2.490323365093312924e-01,-1.124075059642929419e-01,2.550696429125692832e-01,-2.265686101614285391e-03,6.502773693402874935e-03,-6.024109963302914364e-04,3.646925687789916992e-01
2.447443034838382991e-01,-1.165153645810531324e-01,2.502684734997010496e-01,-7.929184774747827236e-03,3.900897381164764206e-03,-4.462296243300026971e-03,3.644567430019378662e-01
2.445174048954688595e-01,-1.290804792111668320e-01,2.462699674726723797e-01,1.858776057471666016e-03,6.450766355985132136e-03,1.789727394558640822e-03,3.746705353260040283e-01
2.414737682394627605e-01,-1.082894864632298337e-01,2.510875808424554156e-01,-1.257590334666935927e-03,3.382458863474483400e-03,1.401960799303440548e-03,3.547312915325164795e-01
2.450941493890095302e-01,-1.190540284874782445e-01,2.431664575342601942e-01,-3.135514931205502328e-05,-5.063377023065704710e-03,-3.260906734531526362e-03,3.633379340171813965e-01
2.187767498264297505e-01,-1.188658948205544574e-01,2.069380384860954325e-01,4.480078390530883858e-03,-1.194163248630763195e-02,4.999964040237765348e-03,3.327288329601287842e-01
2.372476226359376272e-01,-1.175199665129391530e-01,2.358798099516281610e-01,1.617282342653653549e-03,6.085726365389140455e-03,-5.260915735874891960e-03,3.543707728385925293e-01
2.439485061706018199e-01,-1.029293145968672996e-01,2.503993998328720716e-01,4.318847833056563626e-03,-2.402210044096470942e-03,-1.264298809054734303e-02,3.509363234043121338e-01
2.249990721521281656e-01,-1.349402308909268822e-01,2.350654730840140982e-01,-6.687050664356928784e-03,5.402108154087499788e-03,-4.225379375207661409e-03,3.654533922672271729e-01
2.404194435200587288e-01,-1.182572880002221993e-01,2.424836185507834863e-01,-2.958624819070889824e-05,-2.360995612608364491e-03,-5.105019021876190666e-03,3.598451614379882812e-01
2.589452193660609636e-01,-1.111856094439236942e-01,2.511049131655276323e-01,7.645894205197749718e-03,9.026410552600958384e-03,-3.529227635150232120e-04,3.668467700481414795e-01
2.407905702019959848e-01,-1.409323097690603765e-01,2.371366092503094103e-01,3.377267299779290678e-04,-8.696160739157602617e-04,-1.707581990031692594e-03,3.799240291118621826e-01
2.391100109508353388e-01,-1.197362136388914200e-01,2.485096021536579158e-01,1.299516310840525104e-03,4.752138514394914186e-03,-8.432433078058302472e-03,3.640303611755371094e-01
2.046825335857112016e-01,-1.441293169480605818e-01,2.236817677248826852e-01,-8.366545951491406036e-03,2.768846240831489974e-02,6.631344929321541549e-03,3.623530268669128418e-01
2.368725803741144609e-01,-1.271397319701305095e-01,2.399731934650561338e-01,8.303670020271702477e-04,-5.425741654748084293e-03,-2.668712164202452150e-03,3.657252788543701172e-01
2.447569895819819985e-01,-1.262562774946320854e-01,2.450834059513684604e-01,1.750735589168474216e-03,-3.112921849026539008e-03,-3.019553559608653161e-03,3.712649643421173096e-01
2.405282991367369838e-01,-1.111093201265087871e-01,2.467144238525783573e-01,-2.724175560526313419e-03,-7.240739139116092286e-03,4.587927141999790723e-03,3.551129996776580811e-01
2.369002507544900049e-01,-1.286600389217845142e-01,2.373039314039991077e-01,8.810029627220944057e-04,-5.828258091892003778e-04,1.537107275315970122e-03,3.657765686511993408e-01
2.479310915820034378e-01,-1.136782742124506917e-01,2.455313560775985171e-01,-2.168687460184605571e-03,-2.677388964056425565e-03,4.639722951998592575e-03,3.605544567108154297e-01
2.504774954297442902e-01,-1.095512119076422763e-01,2.499876073509593177e-01,-3.169910066890032751e-03,-1.011631826300995107e-03,1.178686531467746084e-03,3.598359525203704834e-01
2.131137410872615545e-01,-1.189494015336719362e-01,1.941653583068553290e-01,-2.695648959873575730e-03,4.345016349966715485e-02,4.225801533634646404e-03,3.317710459232330322e-01
1.779671775201282780e-01,-1.440454548286485559e-01,1.584666673097943068e-01,6.001415193578225893e-04,6.840906051765296980e-02,1.654439447144159759e-03,3.344273865222930908e-01
1.757301263947465275e-01,-1.266244465576465694e-01,2.185357059511512934e-01,-3.343130752867653349e-03,4.438981141652241502e-02,3.320646390366765836e-03,3.349194526672363281e-01
2.158424736291496560e-01,-1.297754955460712067e-01,2.511411847903582406e-01,-4.812193347035228336e-04,-5.296052714722279935e-04,4.531042178636618400e-03,3.646378815174102783e-01
1.783636469240214573e-01,-1.131147933084990925e-01,2.394020430197705829e-01,1.156819793614334959e-03,1.747901247426507376e-02,3.545588010979056331e-03,3.277728259563446045e-01
1.654031200682154201e-01,-1.317977536325161958e-01,2.200360376151604402e-01,-7.640466136320558412e-03,6.342036328453393157e-02,6.911944728209605190e-03,3.463162481784820557e-01
2.044684281015274885e-01,-1.365960275313298500e-01,1.656271501777813182e-01,6.777248833992268948e-03,6.190513062330339766e-02,-6.577145129836957545e-03,3.411019444465637207e-01
1.518920778276624250e-01,-1.352110348515844773e-01,2.236862935354688442e-01,-2.465604040430984661e-03,3.758977099242186148e-02,-4.855817481904375031e-03,3.354443311691284180e-01
1.968289928799826505e-01,-1.312923675916432831e-01,1.912127647656308715e-01,6.857769610233241213e-03,8.698929635098584523e-02,-7.638917110158079983e-03,3.589845597743988037e-01
2.406383322785174694e-01,-1.238676489105575429e-01,2.474456278222311734e-01,9.748608675842582606e-04,3.029786776510911639e-05,-2.117782518566971826e-03,3.679790198802947998e-01
2.378054711533607035e-01,-1.342976721969862119e-01,2.507369637910896731e-01,8.793141922605576984e-04,9.494415162969350606e-05,1.299094093847472531e-03,3.787442743778228760e-01
2.356630907897549476e-01,-1.403549828215945594e-01,2.274895689972220025e-01,2.360786613527836308e-03,1.116793732882967244e-03,6.601273673682670796e-03,3.722018301486968994e-01
1.922205130899057035e-01,-1.340242248239690570e-01,2.602016374545843558e-01,-2.424673174468599743e-02,-1.727752507694627071e-02,-3.064225766122307369e-03,3.686773180961608887e-01
2.466458500421881972e-01,-1.339935065447417917e-01,1.074342024161374920e-01,-4.507890857994923881e-03,2.093588020952190029e-02,8.317590436712691757e-03,3.359467387199401855e-01
2.324234088109571605e-01,-1.310739350786835344e-01,2.840136881434888738e-01,-1.136027834405585642e-02,1.026072675798942683e-03,-7.212905083732293159e-03,3.925445377826690674e-01
2.181090491510181972e-01,-1.363114755145231061e-01,2.199415249079715862e-01,1.369675310821011826e-03,4.726918270847182773e-04,-3.499606117180739228e-03,3.554008603096008301e-01
1.354501226408684200e-01,-1.054503691305613833e-01,3.389887432690025237e-01,-1.900755032416331231e-02,-4.190647099052712682e-02,-5.626641791151168817e-03,3.936252892017364502e-01
1.646380273747277134e-01,-1.254050419440027042e-01,2.676309005459018842e-01,-1.755278947396868988e-02,-3.026845665182199482e-02,-1.968755624487622535e-02,3.597784340381622314e-01
2.589659611272070450e-01,-4.595379373968538905e-02,2.629384016667184465e-01,-3.469570499436155572e-03,2.703432346572297307e-03,1.826846486216811977e-02,3.086460232734680176e-01
2.350030254918577810e-01,-9.213467637131239618e-02,2.500189194389175196e-01,1.111309836078562280e-03,-4.855915157480356591e-03,1.914153081814292529e-02,3.366459012031555176e-01
2.472286155090770432e-01,-1.076800408806017351e-01,2.551089692619716298e-01,-8.512850212523730142e-03,-2.334791410236768724e-03,1.059519560037399180e-02,3.597076535224914551e-01
2.514723238520932269e-01,-6.970660466252498466e-02,2.524658274198253727e-01,6.795394817664904708e-04,1.320727275149910940e-03,1.042961142395892882e-02,3.221939504146575928e-01
2.518263128639639525e-01,-8.236246682899273086e-02,2.548212407384118916e-01,-9.496356373570545226e-03,-4.721448878144665108e-03,1.235323151641678358e-02,3.368786275386810303e-01
2.499237646660416035e-01,-8.469916417112580143e-02,2.558841162540742009e-01,-1.203619624735812951e-02,-9.382757677294611270e-03,1.131542401197712516e-02,3.392423093318939209e-01
2.440778193315215061e-01,-9.651514259768334547e-02,2.512113851858494007e-01,2.422783679100602543e-03,-2.139245378438963882e-03,1.791119169234087205e-02,3.456557095050811768e-01
2.334092492286992115e-01,-1.405429530262581328e-01,2.116040609162244124e-01,4.333720761740471154e-03,9.374668209642850886e-03,1.254420507131831768e-03,3.639867305755615234e-01
2.481410091230951687e-01,-1.330714141366065029e-01,2.204451465478107219e-01,5.148288258202335377e-03,8.996146665202806036e-03,-3.313428550903667943e-03,3.686288297176361084e-01
2.515578796221367153e-01,-1.286472391404155369e-01,2.353759018316992080e-01,5.852474386423448666e-03,9.546228191482965253e-03,-1.541169310823738842e-02,3.738369047641754150e-01
2.415292353969460404e-01,-1.478371376800343973e-01,1.711984948872322942e-01,4.274330422484538469e-03,1.305599214563658329e-02,-2.592580975931465734e-02,3.629749119281768799e-01
2.434403857585318853e-01,-3.400811236867121168e-02,2.518324373295465213e-01,-7.206432544377756877e-03,6.535525541960361499e-03,-9.347446618649451686e-04,2.822463810443878174e-01
2.377078777080795235e-01,-1.307422822573360011e-01,2.269492364818403163e-01,6.671015265742591752e-03,9.119848258776860894e-03,-1.094671058422958324e-02,3.642111420631408691e-01
2.235384122835289422e-01,-1.587203688333884977e-01,1.609686120591175551e-01,1.296000329111603178e-02,3.303131423995592231e-02,-2.662828978349754058e-02,3.633499443531036377e-01
2.217488003088789184e-01,-1.218577926945161455e-01,2.329622352824016751e-01,-7.488459332719927392e-03,1.770070620045707116e-02,9.766261494563905493e-03,3.513382375240325928e-01
2.449194073074979494e-01,-8.086894368393640620e-02,2.563745273412496584e-01,-4.750679235893417486e-03,4.376590481592932715e-03,-7.500943993169866160e-03,3.321071863174438477e-01
2.313714379219675432e-01,-1.225927857128208537e-01,2.222641057758515948e-01,-1.004791560565239730e-02,1.460443657367994919e-02,7.317008353928496599e-03,3.510745167732238770e-01
2.075247339426860571e-01,-1.333923980940785736e-01,1.990881283609730046e-01,-5.480650744480492984e-03,3.154223902367473548e-02,9.430490199041269284e-03,3.417032957077026367e-01
2.479848546147926935e-01,-1.218352015172464303e-01,2.438910338485154039e-01,1.308633328373075061e-03,5.252092209295889519e-03,-9.918758823471347276e-04,3.679137229919433594e-01
2.359160668899660251e-01,-1.306073913995476343e-01,2.410480142339016807e-01,-1.290835262375918894e-03,7.801581801747958095e-03,6.958160750060546351e-03,3.695667684078216553e-01
2.283646454000368420e-01,-1.381992457047015455e-01,2.223407215120593861e-01,-1.455121691867652944e-02,1.299555332985359753e-02,1.146569386829533223e-02,3.656958639621734619e-01
2.173105518315443241e-01,-1.461114550206537022e-01,2.151853733572972605e-01,-1.392583374993520105e-02,2.023571450195231838e-02,1.789908642801766800e-02,3.661681413650512695e-01
2.031022277528516107e-01,-1.175227068291253008e-01,2.875740075915862448e-01,1.461805342036397518e-02,2.516733963176494889e-04,-5.449245947191435225e-04,3.710279464721679688e-01
2.369680312962603730e-01,-1.198806650692066655e-01,2.566248495360681225e-01,1.180515687119730421e-02,-1.218199957299931878e-02,3.520331740523639178e-03,3.682965636253356934e-01
2.397216875771382705e-01,-1.367076380859344187e-01,2.485480820357669207e-01,-1.250950184247003093e-03,-1.110210433808087906e-03,1.021884431364785285e-03,3.809343576431274414e-01
2.624887407505448467e-01,-1.118340014105939362e-01,2.461462422591862431e-01,-7.537346619106496427e-03,5.714292801279539404e-03,3.677893688349452095e-04,3.667915165424346924e-01
2.530197807177892999e-01,-1.214205786559668099e-01,2.386376481712859932e-01,-3.970496803154500813e-03,-2.230870118718641828e-04,5.167467550102922656e-03,3.676339685916900635e-01
2.299018106162256658e-01,-1.181290412032930531e-01,2.406756001220945740e-01,-1.778357677615034120e-03,-4.174561881831189043e-04,4.686044438329533689e-04,3.535559773445129395e-01
2.333713198933925481e-01,-1.107613064801611091e-01,2.526589816334525729e-01,-2.494699621982803331e-03,-1.171503107198910943e-03,4.251612468033812327e-03,3.542792797088623047e-01
2.186424747652148948e-01,-1.488110764447658219e-01,2.414142410853975518e-01,1.375338904954711769e-02,6.193367050477532334e-05,2.282567424102521433e-03,3.801201581954956055e-01
2.274889594502417789e-01,-1.226435459508959241e-01,2.564674371240913686e-01,3.053276652800591094e-03,2.780715257135576296e-03,-7.217661609533986868e-03,3.657680749893188477e-01
2.406198766840546843e-01,-1.487389817437556050e-01,1.994736885793412240e-01,-8.062952505765857980e-03,9.717528430173684451e-03,2.139258996972783974e-02,3.729932308197021484e-01
2.353344886025169613e-01,-1.354511645521785934e-01,2.268990400317899836e-01,-2.480547789005460840e-03,2.219111798521521215e-03,3.420780776676120988e-03,3.667339086532592773e-01
2.421489872780233643e-01,-1.252459220171184828e-01,2.309589539544243397e-01,-6.308264910120666390e-03,9.766242708925778390e-04,4.858404842741258917e-03,3.621962666511535645e-01
2.503815115193688268e-01,-1.080055920885810150e-01,2.368392778202224047e-01,5.238206719063980693e-03,8.299890345311701847e-03,1.149031895017095517e-02,3.527837991714477539e-01
2.466115140869012956e-01,-1.307933116567062681e-01,2.230438876195983966e-01,-7.801848128907454272e-03,4.112841848634809019e-03,9.293405234712455443e-03,3.668620288372039795e-01
2.409189329182260253e-01,-1.291363089279296827e-01,2.482508710239252347e-01,-2.193013120634157345e-03,-6.715717423579066307e-03,-9.673338232336453320e-04,3.739791512489318848e-01
2.197321944206379607e-01,-1.255110136112101149e-01,2.155678130653996272e-01,1.634354026108517663e-03,2.023915610163863274e-03,-3.102478567471203368e-03,3.432516157627105713e-01
2.444792501774006588e-01,-1.137264781357116283e-01,2.515814538181018745e-01,4.171035290311335755e-03,-6.070614001628309685e-03,-9.043475983219147196e-03,3.623726367950439453e-01
2.415605402581780803e-01,-1.194791937117508779e-01,1.507139847261558530e-01,-1.006004424054665527e-03,-4.108970906366388870e-02,6.260688623458681313e-04,3.329757750034332275e-01
2.330265060359274498e-01,-1.488296645897550508e-01,1.380105454004298404e-01,1.259010135004621014e-02,-3.560425672633219657e-02,3.026587756467651047e-02,3.543816208839416504e-01
2.531649901356325394e-01,-1.252709393862102005e-01,1.772735610659502414e-01,1.160832317281209301e-02,-3.550174410483461496e-02,1.377963117393878403e-02,3.535650372505187988e-01
2.398961178054924426e-01,-1.399188577948577705e-01,2.403679632011333223e-01,-8.993986679122999411e-04,-1.852920790659455530e-03,8.318874535801172717e-04,3.800705969333648682e-01
2.254673081347383090e-01,-1.367929052118413979e-01,1.699290015778639751e-01,9.824964569379293980e-03,-3.531045358394098443e-02,1.380043538731685199e-02,3.446724116802215576e-01
2.223226349785475675e-01,-1.294908034604685954e-01,1.661491267243681569e-01,9.844701183506622197e-03,-3.098947027479062935e-02,1.604143854166155403e-02,3.333306908607482910e-01
2.312975754976491216e-01,-1.392904703698203961e-01,1.186663422270297641e-01,5.639130046853897509e-03,-4.077490574817882463e-02,1.973761320889528409e-02,3.384278416633605957e-01
2.107699319762327828e-01,-1.394611880032582407e-01,1.421243877412289025e-01,8.728974747413334803e-03,5.469661714609238418e-02,-1.596455663066109060e-02,3.366015255451202393e-01
1.733839023308680616e-01,-1.417617878178456525e-01,1.613288352773488143e-01,9.324477922723692011e-03,6.831571584294859889e-02,-1.036623312267771248e-02,3.320351541042327881e-01
2.211089614485604038e-01,-1.338101450983232854e-01,2.290633791625776294e-01,1.231210412393257334e-02,2.358497241498597533e-02,-1.546342920306282079e-02,3.628979027271270752e-01
2.409009261883035269e-01,-1.160742031954828113e-01,1.952274483245098058e-01,1.033640625647102088e-02,3.001629432723996668e-02,-1.533532255760090834e-02,3.419678211212158203e-01
2.202562466063180402e-01,-1.086317679429211897e-01,2.158027459370779333e-01,3.177667774708166012e-03,3.717096679095858308e-02,-2.737467224049587415e-03,3.330469429492950439e-01
2.442497019548952042e-01,-1.291608117870732542e-01,2.341212516207659688e-01,-8.200910264266045302e-03,-2.306233036553205322e-03,5.847545733910853097e-03,3.688851296901702881e-01
2.302384457067924717e-01,-1.324649192788840968e-01,2.391280267181781216e-01,-6.977675566392636808e-03,-1.062250276429561793e-03,5.798114772557102538e-03,3.675695061683654785e-01
2.257376295823549373e-01,-1.384841923311467826e-01,2.254248437909086022e-01,-7.170983498912331285e-03,3.341180007158332538e-03,8.919191211972070030e-03,3.646506965160369873e-01
2.205514481022905482e-01,-1.308483599861702262e-01,2.207532655908446828e-01,-5.019279415754243287e-03,8.892117852629208286e-03,3.287110228034556721e-03,3.519914746284484863e-01
2.504518888883506822e-01,-6.211999550413810356e-02,2.578283884847946128e-01,-1.282325338860590587e-02,-2.846508912765683113e-03,-1.770823380426575847e-02,3.186214566230773926e-01
2.155673485265646727e-01,-1.308955958305126344e-01,2.018045677858140985e-01,-1.044749147077212760e-02,2.716071122707655952e-02,1.537423925159442199e-02,3.445393443107604980e-01
2.476008035298745136e-01,-1.345561061026396832e-01,1.926261035215486861e-01,3.242378660884484478e-03,1.459771590067726263e-02,-1.203019423768120905e-02,3.593913614749908447e-01
2.428882474870112940e-01,-1.341587225647590254e-01,2.230193146702585949e-01,5.204516071533162383e-03,2.562839655572134688e-03,-1.216761243053875001e-03,3.676589131355285645e-01
2.466876621134173053e-01,-1.363885186901173663e-01,2.245564143302149485e-01,5.130131602415519826e-03,6.169262839413602005e-03,-3.720454296863867031e-03,3.728187978267669678e-01
2.443030225568329772e-01,-1.334064476958483625e-01,2.269258252900614170e-01,5.369392146522382076e-04,3.667108922889499283e-03,-7.422305032754077797e-03,3.696070313453674316e-01
2.387639229576136723e-01,-1.325673547220227733e-01,1.959554455976933174e-01,-1.538098345382080470e-02,-4.910743072722296293e-02,-1.400047043523350299e-02,3.638072907924652100e-01
2.369494149161771313e-01,-1.283890395687041774e-01,2.173321712957938523e-01,8.701326993226628226e-03,1.066180347855186922e-02,-6.019117768468586552e-03,3.568850457668304443e-01
2.320968816798534562e-01,-1.374073081924953310e-01,2.109123189532301490e-01,8.657843384353137994e-03,1.133140769532670067e-02,-1.200000493422036935e-02,3.608274161815643311e-01
2.407850437273939548e-01,-1.348620098164819148e-01,2.234794733457463045e-01,7.860930546060664048e-03,5.438939474657612100e-03,-1.044878747733486712e-02,3.681182861328125000e-01
2.506062210958068248e-01,-1.369500702349610854e-01,2.377900854493822380e-01,3.728121830517518512e-04,-1.374259286947653860e-03,9.760368143406248850e-04,3.813215196132659912e-01
2.254675168635698612e-01,-1.058480619274852902e-01,2.432585673006095461e-01,-1.838945854330913772e-03,5.701875905641484027e-03,-1.620444671241864790e-03,3.407294154167175293e-01
2.540746929464446358e-01,-9.019431308115816170e-02,2.504199788198215315e-01,-1.116705837437620072e-02,5.313196696584638126e-04,-3.539242103238900670e-03,3.430580794811248779e-01
2.526917585956067747e-01,-1.205860066397699687e-01,2.415903312611075993e-01,3.540528006323016581e-04,1.739258908567927961e-03,3.895648088048153982e-04,3.678661882877349854e-01
2.566447433557664803e-01,-9.351415237374299805e-02,2.484484625902735333e-01,-1.124711243970771303e-02,4.859747454971813678e-04,3.271176382145241437e-03,3.467286229133605957e-01
2.518479043672275375e-01,-9.756530006713040604e-02,2.375108683518100117e-01,-1.156173731481669950e-02,2.378164199177067954e-03,2.221474709102642736e-04,3.430797755718231201e-01
2.436740955804360120e-01,-1.252963128799867987e-01,2.373509316871643959e-01,-2.880939605119114434e-04,-1.302961250837830808e-04,-7.519857935896062922e-04,3.658525347709655762e-01
2.459778178189239162e-01,-1.240504033952010143e-01,1.942206542786861778e-01,-6.376456850815385123e-03,-9.797787098264782238e-03,-6.191589351429781923e-03,3.478118181228637695e-01
2.381337494015357270e-01,-7.806565573232196464e-02,2.368805599119566951e-01,-1.816029643380225218e-03,-7.416176598298152359e-03,2.054415386427521032e-03,3.158717155456542969e-01
2.476988503731743230e-01,-1.485927483055532461e-01,1.977847607187361578e-01,-3.578340185033498239e-03,-7.956812752168388944e-03,-5.392383417533378256e-03,3.742639422416687012e-01
2.405755915150692426e-01,-1.259269057203352693e-01,2.303296418587548744e-01,3.638490183715412541e-03,2.089791029126594930e-03,4.356701868004683037e-03,3.616402149200439453e-01
2.487745000559384856e-01,-1.291054012218703084e-01,2.476031450037276815e-01,5.382172148491252452e-03,3.981155861285859583e-03,7.884256158947364895e-03,3.777206540107727051e-01
2.492216957665052135e-01,-1.230262727724789340e-01,2.276396143661249538e-01,-2.440024936299791010e-03,3.206068920535778966e-04,5.831212773243102040e-03,3.621058166027069092e-01
2.430595101214795273e-01,-1.393599808040802412e-01,2.277050948776673245e-01,5.093586140331394715e-03,1.934558868540502607e-03,4.102515649753951318e-03,3.751641511917114258e-01
2.300617263202096585e-01,-1.321384274693110095e-01,2.289816248964877676e-01,-1.247891584608830720e-02,-6.097381383287443259e-03,-1.305488455474207443e-02,3.631651103496551514e-01
2.189476541340268367e-01,-1.525706526681747666e-01,1.140902407839823468e-01,3.139070085178964891e-03,-8.099278824297506674e-02,-3.547674776861192789e-03,3.602933585643768311e-01
2.383260195423684835e-01,-1.171272738952777587e-01,2.329349250682054839e-01,5.432082472512404173e-04,-8.766353604459197054e-04,-1.227831657481006158e-02,3.534335792064666748e-01
2.132405346941002311e-01,-1.210204421281608211e-01,2.291315999466367326e-01,-7.602744410028609845e-03,-1.080441358907678444e-02,-5.231594906674867998e-03,3.433662950992584229e-01
2.156141013559008668e-01,-1.339773391079026044e-01,2.351227570769413855e-01,-6.999911844006594802e-03,-5.169921185069235176e-03,-8.607236990594478721e-03,3.603668212890625000e-01
3.014442370304685204e-01,1.076386270467918904e-02,3.800541767639618596e-01,-9.633534502860202284e-03,6.985937063293697069e-02,-4.640220053670351605e-03,3.584814965724945068e-01
2.422380317829429808e-01,-1.337551197403871461e-01,2.420514527629041568e-01,3.388513182942245235e-03,-4.503944763826856976e-03,-2.780610917989184867e-03,3.760574758052825928e-01
2.340562511960104231e-01,-1.415280967650959232e-01,2.360828348150129652e-01,1.362306557469051150e-04,-1.221968021310683179e-03,-2.728286263332987266e-03,3.766373991966247559e-01
2.377885134053635552e-01,-1.367126020621062810e-01,2.371965548730813333e-01,5.811720983440864588e-03,-1.864676994923736503e-03,-5.678442994379542808e-03,3.744839727878570557e-01
3.294481281524493932e-01,-2.723777077721195594e-02,1.860076947524719748e-01,2.832370021072191588e-02,1.846443890741444188e-02,-1.886315085697325145e-02,3.180153667926788330e-01
2.429388566687429585e-01,-1.310190979722615501e-01,2.406959976690034309e-01,4.804308987370225700e-03,-5.559730598722445460e-03,-2.805479990830662355e-03,3.730903863906860352e-01
2.390237524375865008e-01,-1.363134774344012534e-01,2.375796531872679807e-01,3.146756725407339784e-03,-2.460229224079347066e-03,-1.631603525474293118e-03,3.746918141841888428e-01
2.171656829025781499e-01,-1.251635925982274022e-01,2.203951669016564474e-01,-1.652023750669642215e-06,-1.594695676391228107e-03,-2.274169591781925910e-03,3.439890444278717041e-01
2.407379332156371066e-01,-1.346751613950583626e-01,2.402162315085262789e-01,6.083969082925324429e-03,-4.347316457888865220e-03,-5.478455072051508987e-03,3.754959404468536377e-01
2.396251239000408706e-01,-1.339668170550197823e-01,2.410539409141498890e-01,5.515026403209688857e-03,-3.851747722497606431e-03,-3.299268526103606592e-03,3.745332956314086914e-01
2.401522925043847734e-01,-1.318494391848544223e-01,2.421791537770995872e-01,5.718389233586718481e-03,-4.186449887363268008e-03,-4.136273817254796162e-03,3.732899725437164307e-01
2.309270979447236583e-01,-1.392877926196397498e-01,2.281329015887898493e-01,6.430959790730749089e-03,2.553279244855720213e-03,-5.382456625117599050e-03,3.691381216049194336e-01
2.382460040041431415e-01,-1.324543443369423368e-01,2.376783496833614340e-01,4.316563336648172704e-03,-1.971779579634819635e-03,-2.471499683404571046e-03,3.705327510833740234e-01
2.394455960126797844e-01,-1.394738136797855077e-01,2.388186574682739094e-01,1.323731195389095611e-03,-1.763834296813766855e-03,-7.984601342184138037e-04,3.786281347274780273e-01
2.361502580610564950e-01,-1.388564291837141029e-01,2.393548480820368862e-01,1.948779796163444510e-03,-2.478299381455880118e-03,-1.029772006889420870e-03,3.766630291938781738e-01
2.409432806110082814e-01,-1.375966733175626455e-01,2.394037054689606703e-01,2.707239646562283920e-03,-4.331187340523132492e-03,-3.034996575375310639e-03,3.779126405715942383e-01
2.619679658806147726e-01,-1.233526715876162860e-01,2.537082594525182921e-01,-3.113953965586769429e-03,4.904719940068862256e-03,1.106185003417605155e-03,3.813954889774322510e-01
2.495130681039440801e-01,-8.754348341034795533e-02,2.537217386408475717e-01,2.381776941727959014e-03,-1.446850756728692254e-02,-5.160928119039318723e-03,3.402474522590637207e-01
2.426799891035215095e-01,-1.174739936723507433e-01,2.391825683867014329e-01,2.140194010997966637e-03,-4.136664881797296389e-04,8.381374239678088603e-04,3.584409058094024658e-01
2.433172480109391800e-01,-1.337321674098420066e-01,2.399261297964748740e-01,2.522854573495621373e-03,1.554502449058773272e-04,-1.016010287112254027e-03,3.753949999809265137e-01
2.466024662600516670e-01,-1.297360416848933329e-01,2.524909709846253625e-01,-1.482571290838230037e-03,4.381069612573097738e-03,-5.779795859528992150e-04,3.794029355049133301e-01
2.279372893105969244e-01,-9.887541799911557516e-02,2.421733918361230753e-01,-2.550771028184324087e-03,-1.993032566693095278e-03,2.823713291424174120e-03,3.342410922050476074e-01
2.461398110206642897e-01,-1.309538779899017125e-01,2.421330445142187981e-01,-3.402846420511168590e-03,1.024072184058795552e-03,2.608524835613788319e-03,3.751840591430664062e-01
2.513182045062921643e-01,-1.123936988208905086e-01,2.452219360208111598e-01,-6.974993130030950061e-03,-1.094820030769193655e-03,4.748840336214733837e-03,3.610033690929412842e-01
2.478867648870358431e-01,-1.284065721532929860e-01,2.434850101896914032e-01,7.191276440536861032e-04,-2.475005671636019110e-03,-2.106030225093721061e-03,3.741562962532043457e-01
1.824797619046873431e-01,-1.359362443240344498e-01,2.401176308030664730e-01,-7.342731072184460576e-03,1.803217282494268617e-02,1.345333138278398920e-03,3.524292111396789551e-01
2.496375563222773541e-01,-1.198978699001466419e-01,2.454035341187854602e-01,-4.172305259444092146e-05,-5.798701392640269979e-03,4.658526632791358014e-03,3.676625192165374756e-01
2.180916057208699410e-01,-1.472181278264259596e-01,2.431406169149440410e-01,-9.113854501836826660e-03,1.803941412159645050e-03,-9.946189690787693785e-03,3.791899681091308594e-01
2.413334146110211742e-01,-1.259258558836639785e-01,2.525621759881075956e-01,-5.864657271460138772e-03,9.403658818723783716e-03,1.532558271591325872e-03,3.735034763813018799e-01
2.532874599369729363e-01,-4.230129073640950810e-02,2.376509248200640578e-01,1.063560008183692639e-02,3.574217355242715471e-02,1.327355225793691584e-02,2.961345016956329346e-01
2.202773260169438863e-01,-1.006871071493312397e-01,2.556156168688371588e-01,-2.528238046276710255e-03,8.118171418388147459e-03,-1.636091059442968450e-04,3.403325974941253662e-01
2.760409536307217304e-01,-1.197337682407520337e-01,2.135862883140620672e-01,-6.923810912189206843e-03,-3.748385027742165681e-03,-3.725140273040153903e-03,3.688466250896453857e-01
2.782793122204979541e-01,-1.458785819246043169e-01,2.192864287686350500e-01,-1.832432780999059636e-03,4.072914440132437836e-03,6.600094238079521301e-03,3.981938064098358154e-01
2.469416212372647634e-01,-1.334627421682695325e-01,2.218795335358943466e-01,-1.324352011606232354e-04,6.197000074279021987e-04,-1.021443342821125311e-02,3.689391016960144043e-01
2.445114105700150753e-01,-1.257027088145872273e-01,1.957090993227487696e-01,-2.338886184617145446e-03,2.240481868070214998e-03,-1.128148203852331541e-02,3.489786982536315918e-01
2.655527606090662962e-01,-1.287212792336200062e-01,1.975061545510514993e-01,-2.262093246002699724e-03,4.053357154387197091e-03,-1.436209784432391189e-02,3.659737706184387207e-01
2.460200322042738752e-01,-1.359572306672161002e-01,2.143779775181170466e-01,-2.409531028430330485e-03,-2.458509760095899631e-03,8.488674925266280133e-03,3.675228357315063477e-01
2.653261242516584684e-01,-1.256477125910581416e-01,1.978970839568363616e-01,6.239801272657037254e-03,1.660010907633746331e-03,-1.514954523191865826e-02,3.631223142147064209e-01
2.602323976527122773e-01,-1.549431212175585992e-01,2.052311578108372003e-01,2.145188112741063576e-03,1.252188321580418543e-03,1.020973121204273894e-02,3.910139501094818115e-01
2.391022637758135894e-01,-1.312456428436421518e-01,2.401984040889220684e-01,-3.241591187517332655e-03,-2.889685817910612846e-03,4.827650941030840119e-04,3.709743916988372803e-01
2.449405438345751695e-01,-1.165099067813184508e-01,2.499566761499764089e-01,-5.251944825313973123e-04,1.126501630108277426e-03,7.275362168929043992e-03,3.642088770866394043e-01
2.389831446610202192e-01,-1.334326170698264535e-01,2.323157740010813876e-01,-6.116515180944500155e-03,-1.029982393016733774e-03,5.184904677935168668e-03,3.693927228450775146e-01
2.445853383987992846e-01,-1.350148085513951657e-01,2.410912776401217261e-01,2.191403983006809766e-04,6.922804009953574707e-03,3.810662764634170467e-03,3.781132400035858154e-01
2.397729778195914485e-01,-1.331064686268777497e-01,2.360483108944234076e-01,-6.826832765614261785e-03,-2.104705971146583841e-03,5.630410416107168442e-03,3.713654577732086182e-01
2.315428581537275488e-01,-1.387476765279243018e-01,2.389813832449316777e-01,-8.711575270634638879e-03,1.552220539628865453e-03,4.821385035314318390e-03,3.744722604751586914e-01
2.159551449903545917e-01,-1.258238087972865515e-01,2.184173956830933183e-01,1.477379488015496956e-03,4.759497116560328783e-03,-2.790324885044343211e-03,3.431593179702758789e-01
2.211831132812963618e-01,-1.284700187012511041e-01,2.221163207624537450e-01,1.768579643980555238e-03,-1.971248744310300719e-04,3.031171522180121231e-03,3.501735925674438477e-01
2.464975187898572062e-01,-1.271232417907549039e-01,2.374229649272394937e-01,-6.398671923017600592e-03,4.123457166939429805e-03,1.482186663854013564e-03,3.694114387035369873e-01
2.361748073783921931e-01,-1.355584089097006673e-01,2.389136145121516508e-01,1.259466060795220999e-02,-1.111217907875595642e-02,1.468869517233663095e-02,3.751063644886016846e-01
2.124973111188334096e-01,-1.385339055534500208e-01,2.019042794796273854e-01,9.316145819291306307e-03,-2.375137847664390151e-02,1.192554471064306669e-02,3.492793440818786621e-01
2.262687314662608640e-01,-1.356016032305393249e-01,2.059871524376079011e-01,1.481163368553761392e-02,-2.691039897595973174e-02,1.083499886751614939e-02,3.566581606864929199e-01
2.317567509124910941e-01,-1.288130190206499270e-01,2.126388626269742899e-01,8.605252297813024975e-03,-1.368381374830137873e-02,1.229821234286615494e-02,3.531576693058013916e-01
2.345278216887706213e-01,-1.324972612848575870e-01,2.241356656112943879e-01,8.689215392479569811e-03,-8.663098430416340742e-03,5.454639717751427579e-03,3.626873791217803955e-01
1.899198281938964394e-01,-1.198672690698731891e-01,2.323778556535525397e-01,-1.111232654114634004e-02,-3.492787452404029491e-02,-7.484890000769564219e-03,3.392964303493499756e-01
1.842710194435373539e-01,-1.222968469102455602e-01,2.371693935291183386e-01,-5.930284384801143283e-03,-2.426528601720063377e-02,-8.245462330244347771e-03,3.392269313335418701e-01
1.970611543511767982e-01,-1.654639813573802465e-01,1.728434137400253756e-01,-1.708993780229499729e-02,-5.011490312490408244e-02,-2.851508509248759995e-02,3.661713600158691406e-01
1.564810712352765476e-01,-1.604889116347046896e-01,2.002221833064244949e-01,5.983591074203224421e-04,-6.215078901519111715e-02,3.309518269988636924e-03,3.575890958309173584e-01
1.407268888628667725e-01,-1.424048259908576308e-01,2.128031759424416636e-01,-1.447936754632884494e-02,-5.127564643443923570e-02,-8.504439042980734345e-03,3.383772373199462891e-01
2.275135184603773175e-01,-1.077505090997738224e-01,2.143199956445804022e-01,-7.595678257215624472e-03,-3.281099537642005737e-02,-5.627057930318431211e-03,3.341414034366607666e-01
1.999508537143384057e-01,-1.443316632946654021e-01,1.722895568645283482e-01,-8.291219467606192328e-03,-7.049566366602699752e-02,-9.787411112626574067e-03,3.538005352020263672e-01
2.238016330822871214e-01,-1.129951257358205868e-01,2.114956665141157766e-01,-5.508439542477397595e-03,-3.172745163279833136e-02,-7.070354092750774123e-03,3.357078731060028076e-01
2.487901706155702386e-01,-1.502232852970720178e-01,1.182975471318293281e-01,6.566364308289940332e-03,1.761001133788289014e-02,-3.137777299351192373e-02,3.580295145511627197e-01
2.462128079474190101e-01,-1.174077202760954453e-01,2.469968315890940236e-01,-1.135473655620451369e-02,3.297998963244145373e-03,-1.301187446215215128e-02,3.652847409248352051e-01
2.425512178447825351e-01,-1.333057333681800793e-01,2.340283519456723971e-01,-7.918072658105762551e-03,-2.351054914635935123e-03,-5.417145961277318109e-03,3.720623850822448730e-01
2.364968431788303516e-01,-1.263371658447350332e-01,2.214559552959934341e-01,-6.267414501488484217e-03,-6.011100282319307812e-03,-6.527505690974228642e-03,3.560498058795928955e-01
2.386988999427505087e-01,-1.336784462345128877e-01,2.311143514985939118e-01,-1.447200331421727437e-02,-6.969744705769550380e-03,-1.108354850145144843e-02,3.701900541782379150e-01
2.334924816769900491e-01,-1.385772699908632277e-01,2.190262261285940426e-01,-6.781892626455709658e-03,-5.734526917190702067e-03,-6.563775717211397902e-03,3.655524551868438721e-01
2.772693692629976114e-01,-3.630191413881525553e-02,2.789580985995712137e-01,-1.040519403221796049e-02,8.746865295180847148e-04,2.180644747917500747e-03,3.149614334106445312e-01
2.489489896344235786e-01,-1.057897450464401479e-01,2.522440131364512839e-01,-4.112572137275107183e-03,-5.988580635330207139e-04,1.168458962891748797e-02,3.570443987846374512e-01
2.577668445256768859e-01,-6.540847455680193212e-02,2.423337293093691669e-01,9.042087004257261945e-03,-5.314274616157617023e-03,-4.066923002233325569e-03,3.163423538208007812e-01
2.449545942848376789e-01,-1.177587546809263919e-01,2.575065461613011975e-01,-1.520828147132780896e-03,-1.802218154626350206e-04,2.071192446691602455e-03,3.691763579845428467e-01
2.446332601239502580e-01,-6.482774401764215821e-02,2.588976223828723944e-01,2.854162806964621359e-03,4.311534058653476720e-03,4.059585744065152477e-03,3.170386254787445068e-01
2.534225705673804341e-01,-6.247450415597430307e-02,2.601063071487140776e-01,-4.425202470603439506e-03,6.325640339133502092e-03,5.509657044430217587e-03,3.197137117385864258e-01
2.360414379102287463e-01,-1.237332571689969685e-01,2.350275464465741981e-01,5.958867451814117006e-04,7.941446751630734657e-03,-2.724894595969921257e-03,3.595644831657409668e-01
2.514351313597305015e-01,-1.031976456495801997e-01,2.302895473694098194e-01,6.002969164036503491e-03,-1.573270967839752229e-03,-4.418554891176448493e-03,3.447995483875274658e-01
2.533996536040433178e-01,-1.114733977378206675e-01,2.506720104307698094e-01,8.307372341892627424e-03,2.198960868284838797e-04,9.906706901595077608e-03,3.642061948776245117e-01
2.451593421345806545e-01,-1.148746227823104482e-01,2.514320851399883816e-01,2.406901783331865004e-03,1.773387832065870381e-03,-5.972650341519013945e-03,3.633951544761657715e-01
2.579998918678308439e-01,-8.815752181416297573e-02,2.457973166765375639e-01,6.395711056630094815e-03,8.228807429717727856e-03,8.976933513812741469e-05,3.406988680362701416e-01
2.523455442042606967e-01,-6.994024298758599878e-02,2.571793131749761652e-01,9.582032918449119585e-03,-3.600042554357726085e-04,6.995041527134338369e-03,3.253797292709350586e-01
2.571970344707600331e-01,-1.152456874299065681e-01,2.516400735699883540e-01,-3.868730779396328204e-03,-2.146505476682963875e-03,1.288864618937164523e-02,3.704482316970825195e-01
2.500768733733523264e-01,-1.337956509310311015e-01,2.524892715918460873e-01,-4.157671451577476304e-04,3.319735478221160028e-03,-2.402764811133351400e-03,3.851504623889923096e-01
2.455595620727646644e-01,-1.000313506933991348e-01,2.550171996136501029e-01,7.581154924552630306e-03,-3.583390986379948306e-03,1.577957734609765697e-02,3.517796695232391357e-01
2.432365884775438691e-01,-1.119022205670891501e-01,2.168862192030348024e-01,9.814224369763819688e-04,2.414574569401740554e-04,-1.654695326842954908e-03,3.427406549453735352e-01
2.792847898495061099e-01,-7.323214366251437624e-02,2.688049718025344315e-01,1.137713824391249455e-02,-5.045168489906346442e-03,1.278858712272316032e-02,3.487678766250610352e-01
2.676584757047901775e-01,-8.923993961584100743e-02,2.551147365652414178e-01,5.077036512632773085e-03,-1.209751925601979319e-02,-2.576843711992874483e-03,3.515583574771881104e-01
2.346299896152714282e-01,-1.327160913620329397e-01,2.199060040335595323e-01,-1.107457033812088605e-02,1.440465943612967772e-02,9.174638044690805461e-03,3.619310557842254639e-01
2.187115880202952500e-01,-1.400310110965337917e-01,2.192542350369899307e-01,-8.869229355354894123e-03,2.151501246450921931e-02,1.434317182328516752e-02,3.621230125427246094e-01
2.473323013652822255e-01,-1.234771353654216947e-01,2.353395692613409751e-01,1.097647836453750220e-03,3.264390557737479291e-03,7.565279705942953674e-04,3.650119900703430176e-01
2.512960197840417020e-01,-1.183956200011889726e-01,2.470732696803294992e-01,2.196002903633673814e-03,-7.049866212320260450e-03,-2.974806776689270602e-03,3.678569495677947998e-01
2.383317017892760958e-01,-1.351487786222577703e-01,2.371849494538906811e-01,-2.929531662783097911e-03,-1.790270617678196841e-03,4.042981492087744863e-03,3.730215728282928467e-01
2.368631964293069769e-01,-1.353851335379735177e-01,2.347657902938907193e-01,-3.413804548100642447e-03,-3.789437183874360283e-03,3.129148263608230729e-03,3.713487386703491211e-01
2.728878759768635365e-01,-3.598705381448535912e-02,2.608910944327069159e-01,1.093402495484871451e-02,4.684265473641155766e-03,1.159519271079069045e-03,3.037608563899993896e-01
2.324592817810328671e-01,-1.359334713631916713e-01,2.241642342095152562e-01,-1.000481898946790210e-02,4.244155038356949017e-03,6.771973689354447365e-03,3.649905622005462646e-01
2.169016317615587719e-01,-1.214977557600206426e-01,2.142522058892442349e-01,1.925272982620069954e-03,1.399482231308640931e-03,-9.427088296680047634e-04,3.371116518974304199e-01
2.358694998259882880e-01,-1.188140929193575585e-01,2.194686814616772230e-01,5.008886474929072352e-03,3.531604730660345415e-02,9.971378051764869660e-03,3.526578545570373535e-01
2.318634708371159758e-01,-1.405460447247014188e-01,2.185769064861398103e-01,-5.149835200073945435e-03,2.849947696187985977e-04,1.257966192762051058e-02,3.667040765285491943e-01
2.282154343074244973e-01,-1.400230633945412917e-01,1.911589889652249852e-01,-9.327072984631947644e-03,1.835104939572096416e-02,2.237977936157748218e-02,3.551070094108581543e-01
2.491732100345314393e-01,-1.331457911184233123e-01,2.252138004553451700e-01,-2.209794206476503597e-03,-2.596801370628369719e-04,6.057922386975991488e-03,3.710885047912597656e-01
2.381044244607797289e-01,-1.423066079818079421e-01,1.787666280162586163e-01,-1.073214017429353385e-02,1.094397798923496187e-02,1.890006187346848082e-02,3.569835722446441650e-01
2.415306226742348350e-01,-1.362032928983278046e-01,1.935522526635942153e-01,-6.291972358642091562e-03,1.631025426700525444e-02,1.177832940838987111e-02,3.580430150032043457e-01
1.546301442367111756e-01,-1.107692130066674080e-01,2.647803749147842334e-01,6.161830082575318196e-03,-3.862535017177327196e-02,-4.890356968550458802e-03,3.412698209285736084e-01
1.302976657905446922e-01,-1.311139044809922771e-01,2.436573017198688795e-01,-1.146498631004636698e-02,-1.893623338052139241e-02,-2.441084743987888273e-03,3.351236879825592041e-01
1.159303088564263007e-01,-1.275083424847217040e-01,2.623218339063702609e-01,3.628079097217710644e-03,-2.356371879691855631e-02,5.987453309122990446e-03,3.437193632125854492e-01
8.790675099449926644e-02,-1.555214648026080337e-01,2.307048479765465843e-01,1.459064242009676556e-02,-7.515702712871115410e-02,-3.654824982248509185e-03,3.633650243282318115e-01
8.313170511523415573e-02,-1.464716453654223427e-01,2.309965194115216891e-01,-3.576304156673311245e-03,-7.210996358262211636e-02,3.905457856145445102e-03,3.524423837661743164e-01
1.138535841013786215e-01,-1.302647365496272247e-01,2.649379974186074072e-01,-8.718903006379240955e-03,-2.289130127808363876e-02,2.090060482819661235e-04,3.479984998703002930e-01
2.327455161978937981e-01,-1.284112158665591807e-01,2.369200310500618745e-01,-4.668346008105620643e-03,1.404798564453034731e-03,7.576871971969754462e-03,3.635970354080200195e-01
2.318877013347365179e-01,-1.486017420287258362e-01,2.409881952025677287e-01,-8.973312653127167582e-03,6.957049007949097849e-03,1.350688234503424554e-02,3.863311409950256348e-01
2.231952486710696570e-01,-1.263754434596056353e-01,2.381258377807284610e-01,-6.390517001225417409e-03,1.847558581044682693e-02,9.948115049134356735e-03,3.592844903469085693e-01
2.722195968942565103e-01,-1.260028213903119365e-01,2.269234996674504012e-01,-7.975006256685438291e-03,1.512656213892145385e-02,-2.132619753791883607e-03,3.787951767444610596e-01
2.708246008891639356e-01,-1.303868844031258745e-01,2.320893196413367221e-01,4.179944822217110910e-03,9.690158589789481941e-03,-1.394276688144113156e-03,3.837577104568481445e-01
2.678776523500659978e-01,-1.391457835515784447e-01,1.887736589479365734e-01,7.338915493934399133e-03,1.856463390410916653e-02,-2.253427581255212572e-02,3.774218261241912842e-01
2.139726843693484371e-01,-1.255864329914297417e-01,2.155990682722752627e-01,-2.907222787309172822e-03,1.677979622760673991e-03,1.034488415916588787e-03,3.404296040534973145e-01
2.912283414988147134e-01,-1.180590782842297626e-01,1.206941089013969792e-01,-9.652871400381377726e-03,3.811728948770830294e-02,-2.280370903559141363e-02,3.646902143955230713e-01
2.515403112147160392e-01,-7.017216772123580082e-04,2.468903363332439760e-01,6.115945877054951470e-03,2.507266379632438948e-03,6.331243149765020117e-03,2.504517436027526855e-01
1.892039375902234977e-01,-1.310035365888705949e-01,2.068265065179749895e-01,1.418090360133295036e-02,3.062702522055135365e-02,-9.818777145384016344e-03,3.349519670009613037e-01
2.174737248972446191e-01,-1.219308088240539656e-01,2.184868207930519279e-01,4.863473332293088112e-03,9.596214841499618731e-03,-3.647977714126220562e-03,3.404812216758728027e-01
2.106492424208538383e-01,-1.332777037338163661e-01,2.194788191845247205e-01,1.746670696842783296e-02,1.597254608812172239e-02,-1.197687068465528096e-02,3.514418900012969971e-01
2.192517385200106472e-01,-1.322336503281539288e-01,2.309183558522007740e-01,6.092110769261417993e-03,7.830634687785944029e-03,-5.366007516128302318e-03,3.579950034618377686e-01
2.224305718273290600e-01,-1.359521456989742916e-01,2.073707421621265312e-01,1.019743408298687953e-02,2.107174032174631215e-02,-1.739787220901600068e-02,3.547109663486480713e-01
2.406410714683782648e-01,-1.380647927671899700e-01,2.432721572254518128e-01,-3.011429597312499304e-03,6.006979285697548049e-03,-2.142196238356493200e-04,3.802065849304199219e-01
2.239913367465512228e-01,-1.300356690130096693e-01,2.276740062148652211e-01,9.162742168651524799e-03,6.652805882751344595e-03,-8.396782102010523496e-03,3.567192256450653076e-01
2.276285824806987823e-01,-1.312199847764799199e-01,2.159965156917386109e-01,8.746689306830486565e-03,1.307838478228629496e-02,-7.940061073703534589e-03,3.544929027557373047e-01
2.438539775811046084e-01,-1.313460858128081554e-01,2.455015187192555737e-01,-3.486144264063210148e-03,-6.446666115567419551e-03,6.637051162100075265e-03,3.764163255691528320e-01
2.528809408423546845e-01,-1.354103475919555266e-01,2.359231621253350952e-01,-4.054452118240159473e-04,-5.405069553941117561e-04,-9.447017229864500525e-04,3.801015317440032959e-01
2.323943854284228339e-01,-1.402322469975946784e-01,2.188268956839249102e-01,-1.010154718896573434e-02,3.047153295092795613e-03,1.094605263000173086e-02,3.669775128364562988e-01
2.346031448854397905e-01,-1.335508507197178396e-01,2.361909360167678551e-01,-1.046933602765177593e-02,1.599656238345236641e-03,1.139857349739901646e-02,3.699333965778350830e-01
2.402644875615710940e-01,-1.301566040784556122e-01,2.406901393554961022e-01,3.293311259823483630e-03,-3.328069435855598047e-03,-2.287970634104686575e-03,3.707439899444580078e-01
2.549810914796463157e-01,-1.280426063488208643e-01,2.355935618476540094e-01,-3.200329732945075747e-03,-2.177748370396056891e-03,-4.708652083645799291e-04,3.737683296203613281e-01
2.540905586453286458e-01,-1.236061569418083206e-01,2.429437412791049800e-01,-2.934248709165643287e-03,-4.194880869582737204e-03,2.619555458178087458e-03,3.723817169666290283e-01
2.611483586084679676e-01,-9.662945884462631474e-02,2.443371090966683368e-01,-4.445622094905095703e-03,-1.497420042998122165e-03,7.359351688671156647e-04,3.497721254825592041e-01
2.586924473777261757e-01,-9.960067968251151704e-02,2.449430139436177822e-01,-6.834774065991113673e-03,-4.207548005289921469e-03,5.574065665171878525e-04,3.518961071968078613e-01
2.403555214887300451e-01,-1.297967744649549671e-01,2.402994974435602726e-01,1.748953162769408334e-03,5.500360781425591046e-04,-1.330780900585298333e-03,3.701450824737548828e-01
2.430435052586678024e-01,-1.260725199692243059e-01,2.595389810706695832e-01,1.580101489824471120e-03,7.602491751769141146e-03,-3.059349947826505160e-04,3.778738677501678467e-01
2.402312983372463795e-01,-1.169775958864778670e-01,2.434232953091570173e-01,1.688638202790952985e-04,1.510017712378772074e-03,4.770317683849226859e-03,3.589203059673309326e-01
2.297691135006666718e-01,-1.328847875994011440e-01,2.355204990800003340e-01,8.054354635912447380e-03,-6.711683799937305170e-03,7.685687515610237740e-03,3.662562668323516846e-01
2.369094820629007725e-01,-1.306153098478421148e-01,2.239245117088892179e-01,1.024069357441734218e-02,-1.048260837608469900e-02,3.026493936446737320e-03,3.621360659599304199e-01
2.374757851051319535e-01,-1.362261770439229802e-01,2.368403767696689033e-01,8.273599098319789347e-03,1.147736178305455582e-03,3.469093739402435896e-03,3.737131655216217041e-01
2.441904660417483774e-01,-1.276448832102232700e-01,2.408037249199522778e-01,-3.710097101554009867e-03,3.084155152572229473e-03,5.981374015651436549e-04,3.702493607997894287e-01
2.372229158592434883e-01,-1.344382815117753094e-01,2.438258168503597278e-01,-3.103234915348352524e-03,4.350300676146799661e-03,-2.075491514817973029e-03,3.751376867294311523e-01
2.388005460187776208e-01,-1.331459092327043903e-01,2.358173520994013561e-01,-4.567103384575187108e-03,1.011948622335315153e-03,-6.121244738249135946e-03,3.707041144371032715e-01
2.388703127391725856e-01,-1.345001707531665591e-01,2.295191136567280021e-01,-7.667417812522245822e-03,5.046836233461009930e-04,-6.463164365019141190e-03,3.691936433315277100e-01
2.490755950937639795e-01,-1.235585104233322684e-01,2.416011296708634182e-01,5.634766772064504596e-04,5.971566205379614557e-04,-1.123996608111115219e-03,3.689615428447723389e-01
2.385523607602439977e-01,-1.388839787458092667e-01,2.389088655624516111e-01,-1.986945346881075457e-03,3.084616700906954966e-03,-1.795954277887912114e-03,3.776810169219970703e-01
2.445065086773920426e-01,-1.343463948019345544e-01,2.403191590866742278e-01,-1.465446535372637738e-03,5.288468336743028589e-03,-1.967236175443239608e-03,3.769119679927825928e-01
2.389233651837429639e-01,-1.327853482872453639e-01,2.356656306255369149e-01,-4.364784144568303534e-03,1.153102541645385044e-03,-5.101291765171447889e-03,3.702786266803741455e-01
2.528694574702236020e-01,-5.358861961487740300e-02,2.484680423210215705e-01,2.647918860386232545e-02,3.763353141660119388e-04,-7.397037991572176334e-03,3.079855442047119141e-01
2.549959188693434742e-01,-4.522849295069042430e-02,2.519702078027068470e-01,2.486181646914913113e-02,-7.932405778076111798e-04,-7.247885105455281578e-03,3.020749390125274658e-01
2.682264280874835927e-01,1.749163706254683315e-02,2.620516813769307451e-01,1.712410746577198301e-02,1.248533760768417034e-03,-1.034132689461121982e-02,2.501260638236999512e-01
2.655791742829280433e-01,-1.789552010865730347e-02,2.546234579387043340e-01,1.914402449493415523e-02,-1.683379012462152659e-03,-1.335259554368296159e-02,2.810962796211242676e-01
2.596608985504724743e-01,-1.299296409396486496e-01,1.350454678796653152e-01,-4.723066484278437387e-03,4.727256546499950668e-02,-4.812888650639899138e-03,3.544027507305145264e-01
2.214418321516744004e-01,-1.282408238324236338e-01,1.650519786766682095e-01,-2.262466156939417494e-03,5.963348405060821950e-02,3.628461484550164675e-03,3.412660658359527588e-01
2.273991665955917563e-01,-1.509175998403601560e-01,1.481884825986437004e-01,-1.661407091360233429e-02,5.867886406279904793e-02,-1.313282773489341144e-02,3.620860278606414795e-01
2.479997504789187568e-01,-1.275650053359073666e-01,1.623199094684552590e-01,2.738746934536699998e-03,3.079358001648329832e-02,-8.954661123805151939e-04,3.450814783573150635e-01
2.277135417502086367e-01,-1.325212686641961124e-01,1.664454166810394042e-01,2.083966696377145648e-03,4.071862934395334421e-02,-3.410326066668387373e-03,3.412827849388122559e-01
2.156345780879699858e-01,-1.567614781411418301e-01,1.090839838299831194e-01,-5.343873521868336592e-03,4.798019806353622657e-02,1.574119998835402795e-02,3.436395823955535889e-01
2.248714209867534730e-01,-1.191226740434393888e-01,2.435462682500971199e-01,1.617329945072053243e-02,-3.431936138576109629e-02,8.510986972450954730e-03,3.600558638572692871e-01
2.144477339129536309e-01,-1.241188143435712626e-01,2.028740323308346749e-01,6.758221842243789489e-03,-1.875096216942301330e-02,4.489413584135757383e-03,3.348060250282287598e-01
2.134383635445408767e-01,-1.258505637867308735e-01,1.977195727459499786e-01,8.853835234346817129e-03,-1.993215667129695848e-02,7.498166404617077375e-03,3.341056108474731445e-01
2.097585521062071967e-01,-1.350960910579256935e-01,1.960559722375879999e-01,1.176089966606573903e-02,-2.035898064691298720e-02,9.571881811673215584e-03,3.410577178001403809e-01
2.237129909334207023e-01,-1.365703600036763110e-01,1.839072037014221894e-01,1.108960177614779115e-02,-2.681544326778098966e-02,9.839608399561747959e-03,3.462135493755340576e-01
2.250454721608404207e-01,-1.198905495934388388e-01,2.229699480951854440e-01,3.136343599108298765e-03,1.023604562119666793e-03,-1.611551305342682691e-03,3.439617455005645752e-01
2.242989590926187382e-01,-1.444227931965595957e-01,1.472080160166927276e-01,1.745153075827322875e-02,-4.738554119502810108e-02,2.533644704886182236e-02,3.507837951183319092e-01
2.042269426844769420e-01,-1.193353705624757427e-01,2.011101760615313927e-01,-2.347440878392494275e-03,-1.436437072532081166e-02,-1.632797925627345022e-03,3.230129182338714600e-01
2.107084142552812234e-01,-1.108143071540402258e-01,2.207508834262263409e-01,-2.213712598849845205e-03,-1.781591376736332832e-02,-2.070759593432036725e-03,3.281560242176055908e-01
2.074749196919105088e-01,-1.311245090546304115e-01,1.772094645664755719e-01,-3.709348950521934064e-03,-2.726213626442495694e-02,-4.162519786381485912e-03,3.280863165855407715e-01
4.395749005822345845e-01,6.748102672299077787e-02,3.501038503313640415e-01,-5.145921552859283876e-03,1.569326082896056046e-02,3.868797457333142398e-02,3.442032039165496826e-01
2.114748917162713737e-01,-1.389311102536493758e-01,1.771734157335477233e-01,-7.365507992747840835e-03,-2.382837945788641304e-02,-6.853009042320444208e-03,3.375626206398010254e-01
2.124170290441811937e-01,-1.274638498924964836e-01,2.171776844478363888e-01,-9.046238822408379093e-03,-1.191711090693251332e-02,-9.326224826787415587e-03,3.436454832553863525e-01
2.036202444260881705e-01,-1.232249936852731070e-01,2.196694364569942159e-01,-4.514709469598160267e-03,-1.023133965817313307e-02,-4.199625392242559846e-03,3.357962071895599365e-01
2.519790140738577544e-01,-1.291545997542339341e-01,2.075507368150844578e-01,1.210415241550170939e-02,4.340688557913205750e-03,-1.489429963994349723e-02,3.625812530517578125e-01
2.559094334995552500e-01,-1.322948098369047809e-01,1.825420950508049311e-01,4.428421013415641955e-03,8.323310673976690860e-03,-8.217039014252636164e-03,3.578729033470153809e-01
2.489673300998146988e-01,-1.268879539280348689e-01,2.476351005781147752e-01,5.034392745413989595e-03,3.676534061194094895e-03,-4.380600158051431436e-03,3.754229545593261719e-01
2.379492598884352939e-01,-1.264539054867758749e-01,2.233971739111894617e-01,7.698134186570019556e-03,7.782127787673119232e-03,-5.751640201632811714e-03,3.579906523227691650e-01
2.396496596271437962e-01,-1.311696958664496648e-01,2.227448860169607414e-01,8.705801010050778777e-03,5.290090204130014004e-03,-9.896220580192535352e-03,3.634959161281585693e-01
2.597203598841932859e-01,-6.750762317307676397e-02,2.532671930971541197e-01,2.656436382585014317e-03,-2.556037595116090674e-03,-1.605283170717343097e-02,3.253029286861419678e-01
2.454802206760221817e-01,-1.302728028023430740e-01,2.288862770950420567e-01,1.060664309463671059e-02,1.619791118029853538e-02,-1.229143339753762353e-02,3.698760867118835449e-01
2.581243067857415530e-01,-4.263757430090384104e-02,2.624892118124567686e-01,-1.772939831363468458e-02,3.991705598476019516e-03,-1.299775508201084576e-02,3.054294884204864502e-01
2.644738746905557769e-01,-4.590808925118516903e-02,2.611362166666101325e-01,-2.348347795993039472e-02,-6.056893178324901112e-04,-1.211481033499268393e-03,3.114033937454223633e-01
2.491275080477111659e-01,-1.086367740961715345e-01,2.475199862996044220e-01,-6.646415686627045287e-03,5.852605458677270084e-03,-5.672571019902818493e-03,3.574277162551879883e-01
2.417538491190390770e-01,-9.329530360152005208e-02,2.458310096958866708e-01,-2.624886963166363912e-02,1.441171480072805065e-03,-7.006580831216660706e-03,3.403837978839874268e-01
2.638274065404592195e-01,-8.666484214629455174e-02,2.505023687107688080e-01,-5.934455753313687409e-03,-6.182989162644378931e-04,3.308202574832402702e-03,3.442262113094329834e-01
2.475667223917563109e-01,-1.349819290848565667e-01,2.385619466903057539e-01,-4.149437791980738546e-03,1.896646188097613969e-03,6.274742413094369295e-03,3.783653676509857178e-01
2.555547576585372460e-01,-9.421792791989411220e-02,2.477922925536842347e-01,-1.191137060946407741e-02,-1.685729680577583833e-04,2.146394481427757288e-03,3.465914428234100342e-01
2.688376448742260116e-01,-1.156209887632655142e-01,2.502963350156522382e-01,1.277755280915235381e-02,3.627268460224664700e-03,6.790495897482292167e-03,3.764192461967468262e-01
2.460268576915547456e-01,-1.333327786591758657e-01,2.128981516126896012e-01,-1.558434414360908033e-03,-1.150597330697753634e-02,-2.382440959452773038e-02,3.668116629123687744e-01
2.211714310209370038e-01,-1.117123969859949301e-01,2.431102234759184855e-01,-1.892550875435514146e-02,-1.381580430490872771e-02,-3.846503700321335134e-04,3.467616140842437744e-01
2.533529325090961848e-01,-1.169226897668488030e-01,2.372976898799084300e-01,-2.235352656387010629e-03,-6.552014387076142941e-03,-1.607793928072008939e-03,3.627236783504486084e-01
2.468141727770153948e-01,-1.107027852804035317e-01,2.440835391696650758e-01,5.598561878170522574e-03,9.209634070391731903e-03,3.189561007697733989e-03,3.566911518573760986e-01
2.487258445630111947e-01,-1.112934339853274002e-01,2.498562436867470815e-01,2.400914187658289168e-03,4.716085888439067175e-03,3.548419754487006431e-03,3.607546389102935791e-01
2.473192592879032981e-01,-9.508513785454186795e-02,2.520623898120396000e-01,-3.880799246725033947e-03,1.772151476985222825e-03,-7.690545510291593940e-04,3.448821902275085449e-01
2.402741324783999599e-01,-1.162379772734511846e-01,2.431241818975128366e-01,-7.872356998749767409e-03,3.919819444755414523e-03,-1.027988762467249052e-02,3.587117493152618408e-01
2.419679512847985325e-01,-1.138203635753850113e-01,2.448294374546301500e-01,-5.886682846755654161e-03,2.819547855505878317e-03,-1.544689955694806410e-02,3.584065139293670654e-01
2.514319365732755052e-01,-1.230775286516686134e-01,2.416560529067915963e-01,-2.750972066286043460e-03,-1.979001966106895202e-03,-2.053446943893925752e-04,3.697652220726013184e-01
2.564115806441239487e-01,-7.093228112903221527e-02,2.435015180426161330e-01,-2.106193152087617454e-02,-2.222064524595308323e-03,-1.715775173218921784e-02,3.245357275009155273e-01
2.502727349644437993e-01,-1.338989253863649975e-01,2.398044910129899510e-01,5.673616788426925125e-04,2.951412830698886677e-04,-3.161906131447659533e-03,3.790871500968933105e-01
2.515676744713193358e-01,-1.226446325714594943e-01,2.471484905582292946e-01,5.357451452942716373e-04,-2.765531580630299375e-03,-1.261817869620060354e-04,3.720544576644897461e-01
2.318741079289357576e-01,-1.197785296129920962e-01,2.775214356484474454e-01,2.381060132769390048e-03,3.162100840556937575e-02,-5.192965387260939369e-03,3.806478977203369141e-01
1.876217734641145718e-01,-1.368458887045709838e-01,2.689366326218145531e-01,2.035828225264597890e-02,1.261056350844670486e-02,-5.313352747048875370e-03,3.742733895778656006e-01
2.227468512340407547e-01,-1.316787064225501402e-01,2.491350172389493467e-01,1.872792302637747708e-02,5.230658069512650853e-03,-9.548482431406832630e-03,3.702354133129119873e-01
2.196790217537390455e-01,-1.181976558998578258e-01,1.933511980239320804e-01,-5.970447399289922344e-04,1.843549348428060591e-02,1.594456092057748966e-03,3.270879685878753662e-01
2.360372691459353134e-01,-1.319202071437954871e-01,2.704871161076638497e-01,2.279726267384437483e-02,1.158437350379488799e-02,7.934672571058794038e-04,3.888691365718841553e-01
2.200833586862471769e-01,-1.319628232740472362e-01,2.509024317684031558e-01,1.267213166523449390e-02,-5.204864063758331966e-03,-4.668423767225862372e-03,3.692755997180938721e-01
2.412240897791388394e-01,-1.289519988655223881e-01,2.482996308685061493e-01,4.281920446791374880e-04,3.304138776334062874e-03,-8.730134242149530099e-03,3.741143345832824707e-01
2.486097984981935349e-01,-1.256039522042313172e-01,2.134806755986873861e-01,8.723672284795810222e-03,-7.416134380903841895e-03,2.157808552792094426e-03,3.585128486156463623e-01
2.409082069000585968e-01,-1.476699096440095560e-01,1.794050998022059806e-01,1.215521006581813182e-02,-4.038299980596794791e-02,2.265177160782572141e-02,3.711492121219635010e-01
2.050934232437731652e-01,-1.582639200603710994e-01,1.489735113566688640e-01,-6.695510634688557790e-03,5.719923924022731615e-02,-6.678524059525176373e-03,3.533694744110107422e-01
2.464219690242255290e-01,-1.466413668521745484e-01,2.223773035019625532e-01,-1.089917137576982067e-02,-5.003674589145408295e-03,1.261972261950392721e-02,3.827990591526031494e-01
2.629602167086460551e-01,-1.214063237203052981e-01,2.488247418757185137e-01,-8.928925718173529643e-04,-3.032465271805863654e-03,-6.689426629531268313e-03,3.777148127555847168e-01
2.487718961571290244e-01,-1.337909326113831399e-01,2.367420669477220130e-01,1.847267687583456193e-03,-1.995759057386771603e-04,2.043149787868079551e-03,3.767223656177520752e-01
2.569289431411851954e-01,-1.282066391886088064e-01,2.389978747369160827e-01,2.575632817733238336e-03,-2.584085674075057345e-03,3.564134932087801634e-04,3.765439689159393311e-01
2.519991488494076615e-01,-8.871649987491833644e-02,2.436196453905691839e-01,-8.468932025921738910e-03,-3.342994461340129033e-03,-7.186848492614189262e-04,3.369756340980529785e-01
2.569932963988277308e-01,-1.211322909885334809e-01,2.403075053485656531e-01,-1.274443936706609083e-03,4.893483953348343532e-03,-1.430590589504484970e-03,3.701768517494201660e-01
2.192723148089171237e-01,-1.143675895735482284e-01,2.040844155367189106e-01,4.006855941327871692e-03,3.321714554898464768e-03,-2.299109554866090276e-03,3.264599442481994629e-01
2.594120773789380108e-01,-8.407561539422062080e-02,2.496265969734422496e-01,-1.140810980215549615e-02,4.898072876022118403e-03,-1.540069367375054886e-03,3.393934071063995361e-01
2.448442671038239260e-01,-1.109260055703787939e-01,2.471406494473826765e-01,-3.346429378670827924e-03,5.718246510726636943e-03,-4.110673275015394590e-03,3.571794033050537109e-01
2.372585029921369104e-01,-1.308792645884949701e-01,2.085722066688931453e-01,-4.488774979640838998e-03,-1.702608262975951331e-02,-6.320441243070538083e-03,3.561429083347320557e-01
2.228295963977969252e-01,-1.183001748945579634e-01,1.898539860882164365e-01,-7.574741231462735116e-04,9.159293072426459570e-03,1.362765546866116133e-03,3.262926936149597168e-01
2.268781758972146512e-01,-1.381469285475503406e-01,1.895329025035393800e-01,-1.157141029134992061e-02,-2.882934186935319498e-02,-1.384748651376705580e-02,3.528121113777160645e-01
2.477962921302779842e-01,-1.335447503190054785e-01,2.193114557907655526e-01,-7.475370438255335079e-03,3.418553974119004600e-03,-1.066316712687965032e-02,3.686648309230804443e-01
2.469708414198458213e-01,-1.307447245964079297e-01,1.681983684522595501e-01,-7.179255100108411849e-03,-2.355744875478910441e-02,-4.190787203684435275e-03,3.478401005268096924e-01
2.235964372939432954e-01,-1.181478858349499506e-01,1.927068051995031173e-01,-1.911292491395750462e-03,1.045694618855448448e-02,6.293612974549221781e-04,3.279133737087249756e-01
2.333688728657263289e-01,-9.666422430416551914e-02,2.535486646576695646e-01,-8.054616761416387091e-04,-5.478083746118294663e-03,1.397699283599447388e-03,3.407152891159057617e-01
2.762126035694746906e-01,-1.364393936596985379e-01,1.553589306915872104e-01,-9.268133855023875933e-03,-2.925245760750990950e-02,-1.950632698850258973e-02,3.728043437004089355e-01
2.617955504776490194e-01,-1.269104293440465048e-01,2.178053814557435186e-01,-2.427557845870478587e-03,1.181410193027560528e-02,-4.019354605156896104e-03,3.693414330482482910e-01
2.078458520195581860e-01,-1.166595895296972940e-01,2.052217026940441058e-01,-3.971247575120609788e-03,-4.255517946353540998e-02,-5.364716935336749301e-03,3.317010700702667236e-01
2.344769450309142633e-01,-1.414849572650012099e-01,2.338165271035693715e-01,9.388954462565544164e-04,-4.151723467239319568e-04,-8.209297266464229102e-04,3.756390213966369629e-01
1.859413018362592596e-01,-1.202261267461438854e-01,2.266054123988875679e-01,8.820853889680434386e-04,-5.445631776389433035e-03,2.261797960951858304e-03,3.285555243492126465e-01
2.213855267332492660e-01,-1.128912165450151744e-01,2.156517306412741308e-01,-9.383997853718156756e-03,-3.478951982410440069e-02,-1.046115516865506537e-02,3.377581536769866943e-01
1.633428934622337403e-01,-1.498316077919859546e-01,1.648038707956128723e-01,-3.590535735152593482e-03,-6.830373890602872700e-02,-5.258810792537017831e-03,3.356423377990722656e-01
2.163571625741157189e-01,-1.099405178493996771e-01,2.608288181170169695e-01,-9.098987926741061716e-03,-9.202335136857486136e-03,-1.283443683739070784e-03,3.513776659965515137e-01
2.057382099454046487e-01,-1.286549276184766888e-01,2.286858907550203268e-01,-1.446095809780232992e-02,-1.265747852126133249e-02,-1.569039945350574061e-02,3.490923643112182617e-01
3.471883869532576550e-01,-1.607789544052272146e-01,1.253213468016522725e-01,5.011063534104831171e-03,3.263929619941557253e-02,-7.938734862807973747e-03,4.449887275695800781e-01
2.330904638188972533e-01,-1.219712647620099510e-01,2.338797859872249196e-01,-1.315935554960286080e-02,-1.395578282575010536e-02,-1.353197903089972849e-02,3.577748537063598633e-01
2.037311838612579085e-01,-1.346597764283454790e-01,2.265293710215640632e-01,-1.157357624218330674e-02,-1.314916710523563598e-02,-1.379300261180775415e-02,3.524686992168426514e-01
1.765091802843801738e-01,-1.274237024001956264e-01,2.394543768677414031e-01,-7.473239274592273843e-03,-6.322622782746786796e-02,-3.756692352583765413e-03,3.573107421398162842e-01
1.969032569921389531e-01,-1.504273461513109256e-01,1.839785788857217219e-01,-1.259193606386189643e-02,-4.433227321475752269e-02,-1.506478469407218981e-02,3.512392640113830566e-01
2.450115935799961897e-01,-1.390516610013784460e-01,2.349951747375241262e-01,1.151058045062862238e-03,-1.138466017840207697e-03,7.102739764322491640e-04,3.791666626930236816e-01
2.468506220270875740e-01,-1.252074902528854117e-01,2.385461813508908957e-01,1.667725495817040746e-03,-9.466096112601411934e-04,-1.156373899810328633e-04,3.679912090301513672e-01
2.424135242789786926e-01,-1.268514019767553180e-01,2.401901576458743137e-01,7.790540500628581003e-04,1.652796829470775048e-03,-1.228527306609746798e-03,3.681780397891998291e-01
1.731807629627705181e-01,-1.383132937445222810e-01,1.826824002242254663e-01,1.022704928977155765e-02,-5.420789182085618968e-02,1.207648807879214622e-02,3.311273455619812012e-01
2.338084927649440314e-01,-1.321480415908098949e-01,2.063752854315968055e-01,1.292474771076972985e-02,-1.682522923331685599e-02,1.844903103833198110e-02,3.563831150531768799e-01
2.282696545473947292e-01,-1.366486921666185683e-01,2.050161146423828962e-01,1.565681379792148789e-02,-1.024088724812140770e-02,1.586266379705673565e-02,3.564062118530273438e-01
2.282376577765652115e-01,-1.228613740521009856e-01,1.998187732392153748e-01,8.901346365314255493e-03,-3.139041091463881661e-02,1.203467148192409290e-02,3.431160151958465576e-01
1.871642270475424308e-01,-1.302484120547175994e-01,2.104952859646056496e-01,5.813396140760285560e-03,-2.383864353743995676e-02,6.332063797920443882e-03,3.326067030429840088e-01
2.118515813119933311e-01,-1.246881770444496218e-01,2.015872384857188560e-01,8.372169754807822634e-03,-1.990337911991569425e-02,5.831529633384478772e-03,3.337824642658233643e-01
2.009945829196012890e-01,-1.304965406530388117e-01,1.958134776704178182e-01,6.402534389772412786e-03,-1.561225395999486613e-02,6.743470351291401023e-03,3.304335772991180420e-01
2.040462002777362338e-01,-1.218917870416460214e-01,2.190604956084885868e-01,6.651966138873064566e-03,-1.459401332745208051e-02,6.278483088242602962e-03,3.350293934345245361e-01
2.529124645392969439e-01,-1.273637927359599353e-01,2.333202773293963084e-01,1.179428612270958052e-03,-1.062059129685148868e-03,1.473855262891478682e-02,3.717561960220336914e-01
2.441376172873548911e-01,-1.383517911747400575e-01,2.274626856512753093e-01,2.726422530464551672e-03,-2.868193677093348296e-04,4.026029517522613718e-03,3.745255470275878906e-01
2.425857585745647693e-01,-1.378260946309635138e-01,1.997024953000487435e-01,2.718443842551637474e-03,-2.508987660128688540e-03,4.076681558306448350e-03,3.610121309757232666e-01
1.957128936881764036e-01,-1.278145853390607045e-01,2.175252068833872232e-01,-3.174504847895598218e-03,7.645564653649036466e-03,6.019922190882523796e-03,3.354355394840240479e-01
2.374434477683740330e-01,-1.367372106659563991e-01,2.500358901194847383e-01,1.406255324632323545e-03,-1.227419099113603385e-03,-4.297477526247645029e-04,3.806475996971130371e-01
2.372597178420580710e-01,-1.452519131581807010e-01,1.936718696635125192e-01,7.684761924611096043e-03,-5.825995377584753873e-03,1.471283355099365329e-02,3.639650940895080566e-01
2.357025884834508811e-01,-1.441385894882538654e-01,1.940617685247122415e-01,3.898613318023144269e-03,-1.297578288938549271e-03,1.395312220067830566e-02,3.617058098316192627e-01
2.473289467920040119e-01,-1.371261546910072515e-01,1.967214369230559090e-01,-7.112183049039337047e-03,-9.949735474274011907e-03,-7.970606942326746019e-03,3.626980185508728027e-01
2.386585324282666787e-01,-1.425507263055874052e-01,1.950744130484582117e-01,-5.096571485061979559e-03,-2.455172246193965645e-03,-1.216325963493079115e-02,3.621398210525512695e-01
2.489754977364198041e-01,-2.836088845375200895e-02,2.811516559294687800e-01,6.376741570810551610e-03,-1.693582534150635255e-02,-1.318614274751511196e-02,2.972851693630218506e-01
2.467074686273613704e-01,-1.371445418887626277e-01,2.341571641317786723e-01,-4.802673308056826934e-03,-4.368053512107235303e-03,-3.542790696996036496e-03,3.779504001140594482e-01
2.373618578735542384e-01,-1.332287840934888168e-01,2.293061335836379944e-01,-2.559348981880639213e-03,3.489767787561795682e-03,-5.422921530707015478e-03,3.668260574340820312e-01
2.385399173003541207e-01,-1.335980111752230748e-01,2.376797611052992032e-01,-5.689699384153626763e-03,2.518198768076509216e-03,3.088939129142143775e-03,3.719032704830169678e-01
2.415135451882175766e-01,-1.338366636877457161e-01,2.455595516649849985e-01,-1.876456610230037379e-03,-1.683344377869578756e-03,-3.877650997691397660e-04,3.774153292179107666e-01
2.433100637183110981e-01,-1.092049981428215577e-01,2.500153590837176920e-01,1.570236140144607101e-03,5.798273638598159651e-04,-7.178369471963468723e-03,3.561439812183380127e-01
2.425992733925727007e-01,-1.287258799291615130e-01,2.498561825250218971e-01,-2.414998004558605894e-03,1.001087015839684062e-03,-5.641411755552891774e-03,3.751608729362487793e-01
2.485359875945677699e-01,-1.069303967754923201e-01,2.532080758159254152e-01,-5.006229467459163453e-03,-2.205947173351436273e-03,2.457764719808660896e-03,3.579760491847991943e-01
2.413684124803747721e-01,-1.275880406902891451e-01,2.404377455663971319e-01,4.784630610112241764e-03,-1.262391238755295776e-03,-2.674962848648733665e-03,3.686207830905914307e-01
2.359750616320423211e-01,-1.322874982434643076e-01,2.320419482622887164e-01,4.751166595916686899e-03,3.491028472537553978e-03,-6.539040970688169904e-03,3.666291236877441406e-01
2.391585790481463580e-01,-1.350367002617103296e-01,2.097960808712436287e-01,1.078315346865124993e-02,7.373205603129844542e-03,-1.295490465913958118e-02,3.618181347846984863e-01
2.495976369222099034e-01,-1.162313454645318989e-01,2.441219825991153280e-01,-3.178982524906851827e-03,-2.510665043781779016e-03,2.353399050696511167e-03,3.632127642631530762e-01
1.849523287159103302e-01,-1.278602495215281076e-01,2.545228392946343732e-01,-1.057527080501493438e-03,-3.933037057127672723e-03,3.058171280881303179e-03,3.528910875320434570e-01
1.750556921511025599e-01,-1.242724434564466823e-01,2.843356749269209671e-01,-3.513741586821346463e-02,2.161051536660182210e-03,-4.580465362470000773e-03,3.715250790119171143e-01
2.077819828426347160e-01,-1.233386103452257521e-01,2.176880881711719118e-01,-2.681017568644802635e-03,4.389439658574928287e-03,4.284360478858787770e-03,3.363830149173736572e-01
2.225305197667805379e-01,-1.262983144913324141e-01,2.449465507147612908e-01,-3.826851713956874561e-03,2.449737200577754934e-03,5.940921595473540318e-03,3.607924878597259521e-01
1.892584301766517263e-01,-1.438015849622636400e-01,2.495673184143222256e-01,-1.951870751497722031e-02,4.819369105684805955e-03,2.096090332268812396e-03,3.686169087886810303e-01
1.917746030090697329e-01,-1.421318207517786592e-01,2.688295139303921166e-01,-2.219881748223001550e-02,9.167484324634099166e-03,2.984453590297757482e-03,3.806800544261932373e-01
2.389320897175876146e-01,-1.243605699262148034e-01,2.513449439492688731e-01,2.341116168806566672e-03,6.785516083371630897e-03,1.386854340810406074e-04,3.698645234107971191e-01
3.439367290356715179e-01,3.503727660357125462e-02,4.181977838285115823e-01,-3.310064336864659840e-02,4.983379146364884382e-02,1.720295050568089804e-02,3.681002259254455566e-01
2.389489434428315184e-01,-1.221714692122497364e-01,2.496019621646416442e-01,3.506964591566709248e-03,6.238028046334951129e-03,3.337646435369275889e-03,3.668181002140045166e-01
2.502032294393214951e-01,-1.139526388801251067e-01,2.500487657432385324e-01,6.039116143576054446e-03,6.831811097962584359e-03,-9.039990601744044701e-03,3.647572696208953857e-01
2.370068040574895840e-01,-1.421141770489619538e-01,2.399792508094456545e-01,-3.828242656636610900e-03,3.475445002666670453e-03,-3.254585781489494154e-03,3.807629942893981934e-01
1.980006387217634611e-01,-1.180932178484844913e-01,2.155595286714709347e-01,-5.551212201105560633e-06,1.688844223892559766e-03,1.651286326828997749e-03,3.252547085285186768e-01
2.522620211762743869e-01,-8.964254001232113689e-02,2.584891612188365828e-01,-1.739771600857811622e-03,7.266925484445792760e-04,1.000384514168413917e-02,3.455104827880859375e-01
2.448451699438844720e-01,-9.792968756612466241e-02,2.498856363208461218e-01,1.362706227847794221e-03,5.485094053158636601e-03,6.871126754882011904e-03,3.456663489341735840e-01
2.444788032381103038e-01,-7.843004002205902769e-02,2.458103300008756542e-01,4.370081261847964804e-03,-5.947682674108311848e-04,-4.085625764834526288e-03,3.237441778182983398e-01
2.232392894048304544e-01,-1.408903896954550039e-01,2.266913312178767126e-01,-9.167310368366863183e-04,7.774590471903584411e-03,6.303956571302637892e-04,3.661207258701324463e-01
2.547539555538567702e-01,-9.368445078833143036e-02,2.522063798745249885e-01,9.024848414807952121e-03,-2.624049894771026195e-03,-4.179048991598731388e-03,3.476284444332122803e-01
2.440389531469460138e-01,-1.094935287075186614e-01,2.449636664632411365e-01,-3.082178130813725825e-03,-2.208506132175463987e-03,-4.128773357014468848e-03,3.541288673877716064e-01
2.578850517344213333e-01,-1.187885619144605498e-01,2.377989276612413327e-01,2.035041168098855439e-05,5.163375005659347986e-04,-5.312926109774774273e-04,3.670452237129211426e-01
2.667063164936983588e-01,-9.509506239173651232e-02,2.575380886931720736e-01,7.097112481991643684e-03,4.252712920684160493e-03,-6.193544697895124115e-03,3.577536344528198242e-01
2.659083424427897135e-01,-9.155634362913431246e-02,2.405933063643841407e-01,1.029023845137094773e-02,1.052702875996800076e-02,1.325336938303676992e-02,3.472026884555816650e-01
2.399160043083958527e-01,-1.158036816304843369e-01,2.363789333452682162e-01,4.058599219782988224e-03,-9.775310359276135480e-04,-1.259983667917738068e-02,3.547102212905883789e-01
2.365633960059332352e-01,-1.514433585747721467e-01,1.642756202592038917e-01,1.897295330547233219e-02,3.123230189459949915e-02,-2.612001696846011009e-02,3.657590448856353760e-01
2.553024814652988805e-01,-1.509649309358553348e-01,1.714765308604011274e-01,1.084996831050676069e-02,2.081756143548257193e-02,-1.428974938570501049e-02,3.745532333850860596e-01
2.347475019793578976e-01,-1.414029029345475474e-01,1.283702305373566888e-01,4.472690270777335969e-03,5.166808958440496924e-02,-1.283200877188360456e-02,3.483592569828033447e-01
2.315385397456288519e-01,-1.192054918765891730e-01,2.179693498661156581e-01,-8.540041015781034417e-03,7.316490956295919335e-03,4.583796420206829626e-03,3.448022902011871338e-01
2.269082390132952376e-01,-1.323447470950533389e-01,1.727808417364303795e-01,7.423556739401536951e-03,1.442727069719668999e-02,-5.632530008407805877e-03,3.367966711521148682e-01
2.076530927595886256e-01,-1.485686225431162022e-01,1.311081125698612682e-01,1.231389931062724236e-02,5.130340246401364490e-02,-1.746491095666496962e-02,3.387508690357208252e-01
2.292770650517190478e-01,-1.363963201840530381e-01,1.937372339752657935e-01,1.033377717363648599e-02,1.305990255897289572e-02,-1.745874525658688836e-02,3.517536222934722900e-01
2.460659840219184824e-01,-1.216007616503598926e-01,1.740754562966821961e-01,4.421818982867384805e-03,2.268407110387404488e-02,-1.129525193570079383e-02,3.404086530208587646e-01
2.588151942381567983e-01,-1.206482830191138167e-01,1.785296780448192566e-01,1.339027150829652599e-03,1.156007166649509511e-02,-1.466460988390115225e-02,3.478854894638061523e-01
2.283033934680330779e-01,-1.419131172783167361e-01,1.913352626659672873e-01,1.111223487816973519e-02,1.614088069676774054e-02,-1.503509903673848520e-02,3.557680249214172363e-01
2.378676667267893841e-01,-1.426429401877633563e-01,2.048438641665635829e-01,8.175671185637228486e-03,-3.161156391140142186e-02,2.070437902713552492e-02,3.712107241153717041e-01
2.442832863304366109e-01,-7.405926570162388312e-02,2.425203763534070078e-01,-1.078130669870610648e-03,-1.054858697691069339e-02,1.424883930800604831e-03,3.180051445960998535e-01
2.424228994470087883e-01,-7.290909342914531077e-02,2.431401575153813721e-01,9.036380838076769548e-04,8.043857277049416138e-03,1.042233116857156378e-03,3.160075545310974121e-01
2.314128789997705327e-01,-1.426274476726054341e-01,2.236735448755967637e-01,1.294015591632676106e-02,-8.334791429053096251e-03,1.366759711729687195e-02,3.719440698623657227e-01
2.239189176549201410e-01,-1.416962571543858296e-01,2.378823516715204978e-01,9.124611412964035717e-03,-1.236015764841050940e-02,1.350606605589034503e-02,3.744729757308959961e-01
2.518352369398127455e-01,-1.193979393274614137e-01,2.286391593759820595e-01,1.863214561282675692e-03,-4.277647272911150322e-02,7.433200767254464006e-03,3.679763972759246826e-01
2.437943632388471227e-01,-1.283046708923502588e-01,2.453437967522776875e-01,1.042412185976096355e-02,4.768859638021396424e-03,9.963772289897605133e-03,3.738029897212982178e-01
2.307649594057860076e-01,-1.339210402616801132e-01,2.277595059700784907e-01,3.802788424173157624e-03,-4.869631904816843111e-03,3.726441853469606661e-03,3.634075522422790527e-01
2.489579982381006917e-01,-1.258732192258305849e-01,2.500718994981944165e-01,6.412010764622055013e-03,-1.589745990107004070e-02,2.456991128808751809e-03,3.765857815742492676e-01
2.380581847755888214e-01,-1.474729339586556831e-01,2.358665092377830730e-01,4.780472987831444268e-03,-9.330867411987341445e-03,5.518433436158935029e-03,3.849872648715972900e-01
2.462144534780655869e-01,-1.245365196671681246e-01,2.335332496096769184e-01,1.236504568201920225e-03,-1.276545119721743176e-03,1.287387897547730121e-04,3.645888864994049072e-01
2.557750754721205833e-01,-8.863710402330715610e-02,2.489638551194421345e-01,1.073611531481986556e-02,-1.075061051974692764e-03,-2.010479995113963799e-03,3.415869772434234619e-01
2.484754773820316842e-01,-1.099626053349839760e-01,2.401508929714435969e-01,-4.210314619102794795e-03,1.660475851967217059e-03,7.851643160138843322e-03,3.546966314315795898e-01
2.476486659274179658e-01,-1.300621909275702648e-01,2.405410667789077972e-01,7.698360433653827703e-04,-1.434536460812071154e-03,-1.323890788346623046e-04,3.742183744907379150e-01
2.409617253805838577e-01,-1.265676400637297250e-01,2.524803462305851287e-01,-9.261536465082267086e-04,5.234246839337236556e-03,1.697205818121354107e-03,3.735469877719879150e-01
2.364883474019661980e-01,-1.369197955796496446e-01,2.340034565110151732e-01,-5.993366922917742201e-03,-3.369359680725603646e-03,-1.132981824353437644e-03,3.723675608634948730e-01
2.403146366303945403e-01,-1.330277527636219148e-01,2.190871605781559150e-01,-2.117814423722119439e-03,-5.551075204002956821e-03,-4.265821541444082322e-04,3.633407056331634521e-01
2.402773760244523160e-01,-1.457634196580855912e-01,2.310375978088696214e-01,4.754310140906573608e-04,-7.622542833153762507e-03,-8.265901118950027757e-03,3.820025026798248291e-01
2.418252743901557755e-01,-1.324096724879644249e-01,2.001441320369825028e-01,-6.832886531542266620e-03,-2.037501353849030528e-03,-8.843996447907849501e-03,3.557776510715484619e-01
2.314619981290643724e-01,-1.363611592892072788e-01,2.003120460520440016e-01,-8.857180561595703189e-03,-4.976545898015340662e-03,-9.508031713818070746e-03,3.541007936000823975e-01
2.362983466133728450e-01,-1.309898312315225244e-01,2.501945126999077229e-01,9.838569716742800661e-04,7.376952060809947344e-03,1.891203588983476078e-03,3.746658563613891602e-01
2.178386966064985164e-01,-1.133426208399850449e-01,2.058696219933000005e-01,-2.518868330262712639e-03,-1.719675829525989935e-02,-1.536613491936712761e-03,3.267624378204345703e-01
2.461782146031403218e-01,-1.288478697102046211e-01,1.936638264596548531e-01,-7.803339472442925341e-03,-2.369534626081408815e-02,-1.854195566033518122e-02,3.558181524276733398e-01
2.316018795261521324e-01,-1.439902230892171342e-01,1.996186298700287354e-01,-1.475606150640408794e-02,-1.207610679623605243e-02,-1.666768808897444581e-02,3.633233606815338135e-01
2.170301803322055023e-01,-1.178651371617158439e-01,1.932939970409805197e-01,-9.038832362913228448e-04,1.955075050349918894e-02,8.724902035862107863e-04,3.254544138908386230e-01
2.197825701106940199e-01,-1.399423222065367400e-01,2.061162047862050151e-01,-7.788050276190105863e-03,-1.633976137059811595e-02,-8.071081624650231628e-03,3.547548353672027588e-01
2.259415639997233993e-01,-1.217728315184902765e-01,2.205342283937067882e-01,-9.766491180434877517e-03,-1.039243971231037719e-02,-9.225071678413198500e-03,3.462943732738494873e-01
2.322827073180489255e-01,-1.414950526817333187e-01,1.986214755632791373e-01,-1.293169675194789578e-02,-1.096611459373354400e-02,-1.708605887685235927e-02,3.605541884899139404e-01
2.258136906574325642e-01,-1.312395248058730590e-01,2.270883335656745661e-01,-8.957796168962743610e-03,-1.245493430944254881e-02,-1.063078114193631747e-02,3.591502308845520020e-01
1.869293701430285726e-01,-1.214686839581295696e-01,2.263104637655842521e-01,6.104568849282081613e-03,6.528295003144979347e-02,-2.180829930984905934e-02,3.508980870246887207e-01
1.891780162922421793e-01,-1.370437196032471827e-01,2.120399191699327557e-01,1.229069833897883206e-02,2.300013668882936943e-02,-1.116749863257045228e-02,3.417830765247344971e-01
1.966199076933352052e-01,-1.242158287049652671e-01,2.368636344808618399e-01,1.212369090818137853e-02,1.827437891037632031e-02,-8.936692675520061316e-03,3.451798856258392334e-01
1.639131071261827888e-01,-1.448454104957951072e-01,2.318479898902903735e-01,1.596057774574273502e-02,2.548556192226914680e-02,-1.261175993963402873e-02,3.522958755493164062e-01
2.210749578477402832e-01,-1.201082667844607654e-01,2.474574648265749910e-01,1.768538652070574327e-02,8.442450388285890200e-03,-1.374742375867227598e-02,3.575226068496704102e-01
1.944666595716290358e-01,-1.258474612635994139e-01,2.439885538693475076e-01,1.476808826321433614e-02,4.024690994090644042e-02,-1.723980692083316654e-02,3.568213582038879395e-01
1.450209602760089700e-01,-1.465317054795299279e-01,1.981811313707994016e-01,1.521079132214515212e-02,4.885338242825486288e-02,-1.130717271758767233e-02,3.340143263339996338e-01
2.050878325873438657e-01,-1.315801299778195377e-01,2.478603619472877773e-01,-2.755686098601615661e-02,-1.576842082450738425e-02,-7.873300253964658074e-03,3.643967509269714355e-01
2.452878908216437615e-01,-1.197317910801806995e-01,2.530582212655531071e-01,1.582445410111313214e-03,-1.571020180256819953e-04,5.195396584502008988e-03,3.690862059593200684e-01
2.246699430761610605e-01,-9.836442485476626363e-02,2.694293849501324667e-01,-2.273041130138431926e-02,-9.934511288986976746e-03,5.125849611448461338e-03,3.503403663635253906e-01
1.509694622416879461e-01,-1.541074812724253507e-01,2.340990400313178177e-01,-8.405064016853373149e-03,-2.263503597212050342e-02,-2.535104478755329047e-03,3.565271794795989990e-01
1.892215181790505296e-01,-1.883661356880575455e-01,9.379131434207160778e-02,1.047613777040806889e-02,-1.017761676491331507e-01,1.122612230975973333e-02,3.839643001556396484e-01
2.828816247205391265e-01,-1.423979205839089324e-01,4.415613746276131346e-02,8.301741839657317268e-03,-4.855467985343552700e-02,2.837402206848317274e-03,3.789868950843811035e-01
2.393065056453946016e-01,-1.301740457707124543e-01,1.192912640844925737e-01,5.340207013116776355e-04,-2.930834598839265198e-02,-9.938283075650153255e-05,3.303847312927246094e-01
2.445571385723197544e-01,-1.360154266461570116e-01,1.685166399926225633e-01,1.046645111359540900e-02,-1.971965271136066553e-02,1.190759474385551936e-02,3.515669405460357666e-01
2.420566766136574288e-01,-1.454374016368274458e-01,1.395694531986734765e-01,1.336221203992233285e-02,-4.492903688215411223e-02,2.868083113470769677e-02,3.605570197105407715e-01
2.516838361663449875e-01,-1.522829323686342717e-01,1.643091932831330926e-01,5.306010411757725032e-03,-5.563431951852486346e-02,2.486635207009942235e-03,3.806777894496917725e-01
2.354803129403510997e-01,-7.234839384371555271e-02,2.563919956510086196e-01,-3.516828617554843689e-03,-2.294116149215713694e-03,1.089604857874687180e-02,3.194402754306793213e-01
2.531386653261263886e-01,-7.762261733043362977e-02,2.538284099694004814e-01,-2.349472770884494278e-03,1.713212656606097166e-03,-4.971128536823915620e-04,3.311461210250854492e-01
2.384869463383998966e-01,-7.715137051534698420e-02,2.525813869546507107e-01,-4.768924259894471301e-03,-1.903828775794163489e-03,7.631800666004573755e-03,3.233091235160827637e-01
2.451661322565042433e-01,-1.319881371528319192e-01,2.391056934864503047e-01,-2.840200416718941662e-03,2.521632236808207805e-03,-2.577268754898308107e-03,3.742453157901763916e-01
2.533836244452441488e-01,-6.599283716807491373e-02,2.506555137051453275e-01,1.422184948818566198e-03,-2.203257879882896710e-03,1.224624328052905178e-02,3.187601268291473389e-01
2.454581298333700090e-01,-1.174384290426015998e-01,2.525085670863520537e-01,-2.198339460352102467e-03,-6.379595140410690944e-03,-5.955174956712923654e-04,3.666604161262512207e-01
2.797714813070377726e-01,-9.668591300116685661e-02,2.282838161408686228e-01,4.560968523155199380e-04,2.140503320247566510e-02,1.704361224460707340e-03,3.554885387420654297e-01
1.166922139221917842e-01,-1.398048499198110139e-01,2.897605801184282015e-01,-1.958812047322896349e-02,1.192512656513642667e-02,3.350789608537048294e-03,3.764921426773071289e-01
1.504614147990152861e-01,-1.153042038234527999e-01,2.620568773872780088e-01,2.823948858576010371e-03,8.155280039949121262e-03,-5.445898774151603297e-04,3.361063599586486816e-01
1.001967303735774584e-01,-1.371718162555981280e-01,2.538186891851360594e-01,-9.455796790214354708e-03,-6.300906608150323718e-03,-2.915297220373917319e-03,3.417914509773254395e-01
1.325936662346813566e-01,-1.163745324263892739e-01,2.918213650218370314e-01,-7.695729616174285317e-03,1.441329536788809630e-02,2.150839804231641228e-03,3.574857115745544434e-01
2.284193694605494984e-01,-1.401597306097328022e-01,1.836492972367159138e-01,8.256445531521883208e-03,3.387698180853724456e-02,-1.901901060997638476e-02,3.550862073898315430e-01
2.325568623993375938e-01,-1.235969390845497035e-01,2.115068469474810087e-01,2.070469416353993425e-02,2.359257818647682997e-02,-1.704318503930026679e-02,3.515947759151458740e-01
2.363364410847134667e-01,-1.322707657190438368e-01,1.995347154503731568e-01,1.486634497520565416e-02,1.009773689665659398e-02,-2.011474595140901739e-02,3.547435402870178223e-01
2.377510903899179573e-01,-1.638552197615937567e-01,1.399544648948163883e-01,1.141538283923222014e-02,4.451134402569867365e-02,-3.051388851046278085e-03,3.714010119438171387e-01
2.179579595836471095e-01,-1.507707682201692156e-01,1.572743032897047644e-01,1.468554343247072992e-02,6.383046662543077898e-02,-6.788099956383566655e-03,3.609373867511749268e-01
2.025596379012564729e-01,-1.232470251222892443e-01,2.158951777289287444e-01,1.643677853761477820e-02,3.908965335590893625e-02,-1.133867764563451994e-02,3.412518501281738281e-01
2.093274854832172238e-01,-1.248442135231490197e-01,1.857992261431452019e-01,3.658851830755073965e-03,2.875449657941192561e-02,-3.669525814085395320e-03,3.269906044006347656e-01
2.885539460545060164e-01,-1.200331650588359889e-03,2.790028434507960120e-01,1.842132837688102709e-03,5.623789345398606809e-02,3.024220848678694715e-02,3.058158755302429199e-01
2.749126641033795004e-01,-5.602961192240199506e-02,1.701091998677325134e-01,-1.596274453704126656e-02,1.671287157622471792e-02,6.015419404823784885e-03,2.958607971668243408e-01
2.815569738731656946e-01,-3.445773363964665936e-02,2.444911015811301880e-01,1.932991912243252342e-02,-1.376104519253446359e-02,-1.099653168523293152e-02,3.026179373264312744e-01
2.912884239533191644e-01,-6.180953794988111594e-02,1.690588562847585852e-01,9.330292001077407707e-03,6.771406178701009498e-03,4.178957188491053132e-03,3.113042414188385010e-01
2.620673732876336870e-01,-4.012407066990952842e-02,2.597724883406277718e-01,-4.553783261383133503e-03,-3.457290513805760107e-03,-1.324439708533701153e-02,3.020856678485870361e-01
2.702588455102512555e-01,-7.823530124950739406e-02,2.520958387916555354e-01,2.163252546512000642e-03,-4.076190686091650766e-04,-8.551830698359118646e-03,3.401210010051727295e-01
2.928894287158899656e-01,-7.118424692381922214e-02,2.697896507019405532e-01,-1.605970962462262199e-03,4.175479331441540751e-05,-2.305677998189927663e-02,3.553530871868133545e-01
2.370399182417389505e-01,-1.284008989028447567e-01,2.401482289519925872e-01,-6.015558480100152185e-04,1.500763616570933209e-03,-5.017342256580506130e-03,3.671183884143829346e-01
2.367635355151684884e-01,-1.340557743911352517e-01,2.425745437555649198e-01,-2.342015107875084975e-03,3.574987209514460425e-03,-5.243671765057809735e-03,3.739423155784606934e-01
2.498721340829452575e-01,-1.345591501948440738e-01,2.425107821996526081e-01,7.623940407800509998e-04,6.073782691422723555e-03,-2.438005586664222010e-03,3.809749484062194824e-01
2.455084830425478259e-01,-1.254809781264626944e-01,2.437167402051289844e-01,-7.979213853687341929e-03,4.584178653171504247e-03,-1.062478980609474905e-02,3.708967268466949463e-01
2.398119803933818350e-01,-1.347855112422465251e-01,2.395981971707600300e-01,-2.592182620019843793e-03,3.017248514322730824e-03,-2.703124115532468032e-03,3.745832741260528564e-01
2.193910072822045643e-01,-1.233784075312118755e-01,2.214883307034740123e-01,1.091967238931863815e-02,-2.663051201353547684e-02,1.111735593947685979e-02,3.479514718055725098e-01
2.370436031009003353e-01,-1.423714634397693080e-01,2.419204203722250257e-01,1.796890663338753273e-03,1.779951650527575053e-04,4.488156073470793775e-03,3.819687366485595703e-01
2.315929277120666319e-01,-1.192162164069620195e-01,2.360598234557598762e-01,1.622563893513240957e-02,-1.632567830596435426e-02,1.283008131164660275e-02,3.560017943382263184e-01
2.378492740826393115e-01,-1.396319393243023177e-01,2.398591440016767662e-01,7.822459082769125244e-03,2.699992886630231056e-03,2.251014399079210183e-03,3.787815272808074951e-01
2.523998245057393341e-01,-9.417300038914996896e-02,2.480786391404186109e-01,3.607068294155519987e-03,-9.305608236317814211e-03,-1.014085884181203587e-02,3.453130722045898438e-01
2.336092875065939045e-01,-1.630310477262761071e-01,2.106068590793452322e-01,1.344952928326990059e-02,-9.191565498152472896e-03,9.132293293072715496e-04,3.866879940032958984e-01
2.595317743608406280e-01,-1.213955817028598561e-01,2.275453942224933135e-01,-1.046902236534017275e-02,-7.148486531096022098e-03,7.429073844107087626e-03,3.668677806854248047e-01
1.928439894888701600e-01,-1.338542509553302118e-01,2.448709189475412606e-01,-1.234513613025046974e-02,1.721667313185103881e-02,8.607522620687022008e-03,3.577769696712493896e-01
1.916333828655483740e-01,-1.219917131283950740e-01,2.786253025178732079e-01,-1.384331447137731631e-02,-2.058630482093604282e-03,2.080951524924106941e-03,3.658029139041900635e-01
1.718018137885564123e-01,-1.214470926700572523e-01,2.691871188920561542e-01,-9.304372295569561871e-03,9.105950620663218545e-03,8.364151590590257913e-04,3.529129028320312500e-01
1.913186187264477867e-01,-1.255216460440727877e-01,2.780084378065683093e-01,-8.602081444997609211e-03,1.929546206167631617e-02,7.007956194786582778e-03,3.699404895305633545e-01
1.675185782935263434e-01,-1.431049615695747512e-01,2.441639456825336341e-01,-1.350654511719005021e-03,9.558611239860104929e-04,5.840985298933270425e-03,3.553588688373565674e-01
2.543991395175965731e-01,-1.206265358968533208e-01,2.385387370056795686e-01,2.263905892794441758e-03,4.098986706823667947e-03,-3.462728442995199538e-04,3.674423694610595703e-01
1.913216293783974176e-01,-1.342308903932155351e-01,2.498724260691984889e-01,-1.784779500535602775e-02,2.375612232977614667e-03,3.686615255511054880e-03,3.598434925079345703e-01
2.123961850873818391e-01,-1.365512689411692016e-01,2.394037904008087525e-01,8.376309621616463350e-03,-4.309982990034075083e-03,2.544823241517262663e-03,3.635981380939483643e-01
1.333028697892398307e-01,-2.487518822823055753e-01,2.613807849610743639e-01,-3.666521135830310384e-03,-1.188496349292427062e-01,3.628799495525225280e-03,5.037440657615661621e-01
2.227028941483484292e-01,-1.335988773757550430e-01,2.337734588769823652e-01,3.403125401730147746e-04,-1.033191105240096079e-03,7.449891818431051381e-03,3.621988594532012939e-01
2.453215086367824260e-01,-1.251632582380897696e-01,2.475725706799365433e-01,-7.497271630899264919e-04,-1.779458302078811222e-03,2.941551672114013465e-03,3.716653883457183838e-01
2.408248781855343856e-01,-1.348086242462160633e-01,2.394668623991824397e-01,-9.603254630880377757e-03,-5.155526056487364818e-03,-3.425730408608196852e-03,3.754781782627105713e-01
2.538354459488927350e-01,-1.339855554867325771e-01,2.337376586391446687e-01,-1.545284277909506673e-03,-1.472572189582861679e-03,-2.053085557783306155e-03,3.782076537609100342e-01
2.499047650284298427e-01,-1.236206851023624598e-01,2.352936834055125159e-01,-1.950714469569510756e-03,-6.363403789231186812e-04,-2.167401787548527917e-03,3.664748966693878174e-01
2.603100381640027217e-01,-1.225658540045785894e-01,2.377845832496270906e-01,2.275594682611263228e-03,-9.576646091416515056e-04,-9.167439089101144098e-04,3.721527755260467529e-01
2.523965586657841986e-01,-1.231401958595157026e-01,2.427373329098035382e-01,-2.233408145659362271e-03,-3.970165940446987105e-03,2.686795745633189375e-03,3.709146380424499512e-01
2.519019617468538641e-01,-1.315382559939113627e-01,2.409472097928306022e-01,-2.947257093704558437e-04,-4.537449580980764188e-03,1.879747473114212492e-03,3.781779110431671143e-01
2.164101081494597678e-01,-1.344973534219112699e-01,2.189118736511743712e-01,4.897032732935792734e-03,2.747599102473438030e-03,-5.205719957365486511e-03,3.524146378040313721e-01
2.312466748804027916e-01,-1.576448020623456014e-01,1.493806608571026096e-01,-4.482208986174962551e-03,-6.827633278068928613e-02,-4.383919182873979858e-03,3.744389414787292480e-01
2.553971657965043440e-01,-1.482096254278842951e-01,1.790014686361549034e-01,-1.876692616388699964e-03,1.855774823135617098e-03,1.465478368242209561e-02,3.722446858882904053e-01
2.566226760260371109e-01,-1.368580667634401449e-01,1.995701517401130554e-01,1.008195605939654974e-02,-7.061447569005534740e-03,2.513921583496234180e-02,3.714612722396850586e-01
2.452111380118570105e-01,-1.378236421008871559e-01,2.279428837995380319e-01,5.130273794182728560e-03,1.297306092387026438e-03,1.381834190749110444e-02,3.755746781826019287e-01
2.467660929557681238e-01,-1.266815383809015150e-01,1.739700235594058841e-01,6.019853972476228374e-03,-1.197471204172347037e-02,1.161027277929178522e-02,3.442675769329071045e-01
2.583254462756078285e-01,-1.317928171254851843e-01,1.506132946341331436e-01,7.256562195983145549e-04,-2.626972251776400064e-02,2.635128397891709981e-02,3.548643887042999268e-01
1.181403128689210574e-01,-1.544016106538321775e-01,2.670478253184615514e-01,1.045668079327601030e-02,5.142752843874918989e-02,-1.489812011493405614e-02,3.820528090000152588e-01
1.554533151697066184e-01,-1.210758877171537462e-01,2.488598690503676936e-01,1.598746048999170888e-02,1.863490515019064486e-02,-1.121047237472835509e-02,3.364645838737487793e-01
1.554168572617760091e-01,-1.200342258494554309e-01,2.537251593864641164e-01,-4.027977343254121601e-03,4.221594432764086413e-02,1.158732297432595038e-02,3.441147804260253906e-01
1.541107797430620874e-01,-1.194785473047508678e-01,2.291077301840797054e-01,-1.071999412612149004e-02,2.675007351037635150e-02,3.395842197797702307e-03,3.217453658580780029e-01
1.291763305888580515e-01,-1.255271602465071190e-01,2.459075299777682966e-01,-9.117265753254275083e-05,2.447051716469616361e-02,2.824746781653265275e-04,3.317055404186248779e-01
2.215614098300867918e-01,-1.327672614975145826e-01,2.194786969234789886e-01,6.627647160173980815e-04,1.253636664330832129e-03,-1.283771024121046914e-03,3.533074557781219482e-01
1.603103533693894245e-01,-1.178291768678547680e-01,2.663651989069418802e-01,1.409657500270978907e-02,3.647354163736296617e-02,-7.341170733033124812e-03,3.505082726478576660e-01
2.400310980273450689e-01,-1.402434685371024004e-01,2.390410493819990490e-01,-1.739548966571051003e-04,1.553819631225041107e-03,-8.578035355844978397e-04,3.797930777072906494e-01
2.812337523533251504e-01,-2.909191936246019461e-02,2.886127289157280895e-01,-1.130354816684113646e-02,-4.465302133853397970e-03,1.483768433425868005e-02,3.158321678638458252e-01
2.495055931461447052e-01,-1.044680893711056047e-01,2.502349361760384250e-01,-2.335670738441186084e-02,-5.511241982194280175e-04,3.445100003446338686e-03,3.566920161247253418e-01
2.666482601071336056e-01,-1.001827406831695688e-02,2.515074573442381833e-01,-2.130512502986665890e-02,8.936052754158495303e-04,-4.448283670258012211e-03,2.720443904399871826e-01
2.547798522140209965e-01,-7.660840191791742915e-02,2.481651051874762537e-01,-5.366602338989888074e-03,-4.951838206158141846e-03,1.986846868633179719e-02,3.301728367805480957e-01
2.371028183970922409e-01,-1.348690298554205413e-01,2.392940705679622304e-01,-1.984557167796513304e-03,-8.001537480101395406e-05,2.789944128111343513e-03,3.731194436550140381e-01
2.282268561138167118e-01,-1.359913109011481880e-01,2.299208504086595328e-01,-1.108353525145759286e-02,5.925719655511902870e-03,9.959366559650659895e-03,3.661231696605682373e-01
2.319854233030474444e-01,-1.408162230759623657e-01,2.348597403553738250e-01,-1.675002058466397203e-05,-2.526161173218304141e-04,3.022591471467879747e-03,3.742839694023132324e-01
2.240707841422419355e-01,-1.376724912493267339e-01,2.289806490592552757e-01,-1.138858411316058528e-02,7.861375876563185192e-03,9.832608817189213493e-03,3.654079437255859375e-01
2.235398693058182062e-01,-1.354579357369739556e-01,2.395580484235632079e-01,-1.002472978727081410e-02,1.810752840857092396e-03,8.889960911825974671e-03,3.680148422718048096e-01
2.171855499911308218e-01,-1.386599077537432889e-01,2.321609372909607394e-01,-1.074004404706421084e-02,6.570379612436199300e-03,1.105653115914954909e-02,3.647210896015167236e-01
2.230368298402288507e-01,-1.295596951784680761e-01,2.094475472368740321e-01,-1.162949979979993609e-02,1.088406355876369268e-02,9.225887380775683877e-03,3.474678695201873779e-01
2.260156891607010277e-01,-1.325694870335265008e-01,2.288923055956515740e-01,-7.257770841915027471e-03,2.741841504688817283e-03,9.829833536048526374e-03,3.606848716735839844e-01
2.381105818096296844e-01,-1.367568464567401609e-01,2.287264722010005080e-01,-3.154612369166389946e-03,7.809907285888074112e-03,2.023315382483348301e-03,3.705684542655944824e-01
2.643077757724429100e-01,-1.350885508534199198e-01,8.548475468061095262e-02,5.176402630099771057e-03,-8.137851410507267180e-02,4.071144543002428243e-03,3.742610514163970947e-01
2.257938475392783639e-01,-1.310213094232844933e-01,2.137759752795095336e-01,-7.279540177679164926e-03,8.765515437079745426e-03,5.093030256880312287e-03,3.516256809234619141e-01
2.150328719872351968e-01,-1.299721542741169023e-01,2.066660019204407395e-01,-1.388982158463742018e-02,2.651996406056757183e-02,1.573628897797528514e-02,3.458951711654663086e-01
2.000765067811788867e-01,-1.346909653918424987e-01,2.141088993631693471e-01,-1.993718486964154990e-02,3.249758073191655328e-02,1.523012266154050512e-02,3.493141531944274902e-01
2.512887604227522775e-01,-8.853099905818670456e-02,2.264617168758673305e-01,-6.304442919729675611e-03,1.926790739900098278e-04,-3.833667959164266262e-04,3.282939493656158447e-01
2.653181627897985839e-01,-1.153596968714938192e-01,1.477541385554868580e-01,-5.605833800442501080e-05,-8.176470538296950336e-03,-1.285654759696871607e-03,3.379178047180175781e-01
2.362502548973673955e-01,-7.595753190554985212e-02,2.727359377147017261e-01,-1.229210643944604782e-02,-1.085460820529511247e-02,-1.542430848120747086e-02,3.342401981353759766e-01
2.217349872815914114e-01,-1.235141145937746765e-01,1.981891503065090210e-01,5.273627497573991907e-03,2.327505024501093367e-02,-1.211074830482030198e-02,3.372992575168609619e-01
2.471414189437554088e-01,-1.234437213319445198e-01,1.512720132008218421e-01,3.819260423178387400e-03,3.131492666376350237e-02,-4.346455040157404248e-03,3.376963436603546143e-01
2.129439494228631546e-01,-1.200697489278508279e-01,1.972181486063087907e-01,2.334545889404845715e-03,3.879447231355131337e-02,-3.675973282669665367e-03,3.323859870433807373e-01
2.101943941276583905e-01,-1.247253106941315220e-01,1.973250749062220866e-01,7.996283083212471499e-03,4.296785520199418451e-02,-3.797696400187709070e-03,3.373432159423828125e-01
2.264617756485798050e-01,-1.288847128724668611e-01,1.541348791614214342e-01,1.694641130901043246e-03,3.985225664560096415e-02,2.389155905739806518e-03,3.325530588626861572e-01
2.581856999177296608e-01,-1.329301976908816019e-01,1.318670830233458213e-01,-3.740782163436044542e-04,3.200860196896697374e-02,-2.441208030991162594e-03,3.501639068126678467e-01
1.983095158797919533e-01,-1.517055959861839387e-01,1.598662545065729357e-01,1.123717277016077903e-02,5.844270345948437972e-02,5.668011904203638755e-03,3.482162952423095703e-01
2.233487393456740078e-01,-1.288666032465098643e-01,2.514372269853313302e-01,-6.466659038542937540e-03,-1.906767635698372381e-03,-9.374910909298475679e-04,3.672557771205902100e-01
2.465972419077290256e-01,-1.212099484324802301e-01,2.466191856828797713e-01,6.518136561709517770e-05,6.326375630009824225e-03,-1.537356398286611513e-03,3.679910004138946533e-01
2.488022076953009809e-01,-1.004137903015367428e-01,2.532046094195187225e-01,1.003142918609197659e-02,1.853809225708021599e-03,4.037777901419997012e-03,3.519512712955474854e-01
2.577665162464313764e-01,-1.240070475721641308e-01,2.581936850337477329e-01,4.987503757997552647e-03,-4.281068746695536852e-03,-3.640699835748318920e-03,3.822089731693267822e-01
2.344867711001333843e-01,-1.161794344503708221e-01,2.458181902202350999e-01,-4.338297842571260882e-04,-7.421959971821726065e-03,-8.369101605594595622e-03,3.569939434528350830e-01
2.312303511221231456e-01,-1.306878238466308018e-01,2.359262886189052444e-01,-2.517453502052977542e-03,-3.677151487775794179e-03,-1.604078294339199165e-03,3.643811941146850586e-01
2.523583035016001563e-01,-8.455352445758487767e-02,2.476347549199071074e-01,-7.368281981084026482e-03,-5.830653127186213045e-04,2.176033170128060905e-03,3.348411023616790771e-01
2.444931198587288745e-01,-1.333129332477656359e-01,2.397779576078993558e-01,-1.223495431909340765e-04,4.352705267408186855e-04,-4.875132914142731033e-04,3.754724562168121338e-01
2.474425198838063333e-01,-1.220521088278708338e-01,2.415645216533435780e-01,-1.910883841069913307e-03,5.418255533060612437e-03,-3.382155297140076837e-03,3.667728006839752197e-01
2.393099382833912270e-01,-1.404511268039234373e-01,2.393113967676441523e-01,-3.018770910245947457e-04,-7.994234220452150260e-04,9.839032546392523400e-04,3.797684907913208008e-01
2.444320634398003123e-01,-1.289715603222726104e-01,2.345349509404024702e-01,-5.371634637410769046e-04,2.431736445845880494e-03,2.371195956827347917e-04,3.685802221298217773e-01
2.378493870545011490e-01,-1.316180373176724927e-01,2.219331198986222997e-01,-6.340109876722048281e-03,-3.219401003852635215e-04,9.681906108495902689e-04,3.619429171085357666e-01
2.476875211136876365e-01,-1.028695775371827048e-01,2.655608383152843199e-01,3.887644694748421548e-03,-9.751408893862662311e-03,7.804926253555639383e-03,3.605394661426544189e-01
2.143954686913998042e-01,-1.346205135824831145e-01,2.492525875669246438e-01,-4.280842871665822835e-03,-2.174497770565789884e-02,-1.040780787585207645e-02,3.701234161853790283e-01
2.159418912393276102e-01,-1.315447283943689261e-01,2.361698408837234475e-01,-2.024902900390750798e-02,-1.057925365519254285e-02,-2.250955538879577909e-03,3.602306246757507324e-01
2.610468092557665654e-01,-7.356827231687876334e-02,2.697475169036958054e-01,1.149052485298354687e-02,-9.252729533776728882e-03,6.782549159497560688e-03,3.402135968208312988e-01
2.197090577546150780e-01,-1.145096252069586068e-01,1.969541326598107100e-01,-2.098658533640447577e-03,-1.954608368571970553e-02,-1.216126946817980888e-04,3.252294659614562988e-01
2.218194624577740914e-01,-1.411772352447235868e-01,2.403379296604546134e-01,-1.463363024365648378e-02,-8.445162732146065110e-03,-1.885904105719275053e-02,3.751733601093292236e-01
2.192284679372189515e-01,-1.408416719122707050e-01,2.345588260131305502e-01,-1.273652913708178680e-02,-3.167154559699966211e-03,-5.762532711473528427e-03,3.688114583492279053e-01
2.309056118608052710e-01,-1.395104432645312142e-01,2.391213720103100848e-01,-2.179822386342483015e-02,-1.107995498278435340e-02,-1.107579430936712905e-02,3.774660229682922363e-01
2.213305446251191411e-01,-1.293958608977192060e-01,2.296383674896445293e-01,2.322038144968146221e-03,3.739804158451774489e-03,5.076928693932328783e-04,3.550361990928649902e-01
2.409991563584334417e-01,-1.312505557678197432e-01,2.382060874255287897e-01,-7.842156680873180186e-03,2.639234005975444382e-03,-3.741607365305326446e-03,3.711944520473480225e-01
2.396791253526988630e-01,-1.339833686548285163e-01,2.386916907324153625e-01,-5.632181998593888128e-03,1.361452974740116504e-03,-6.522177281873891945e-03,3.734755814075469971e-01
2.260164464740179180e-01,-1.387184986674690756e-01,2.285271586415979217e-01,-6.318598581309728575e-03,-6.293182087286215178e-03,-4.715781145069071825e-03,3.664135932922363281e-01
2.399766275301124518e-01,-1.264171409955797687e-01,2.422614869255846348e-01,1.282004988551284017e-04,3.684474202811750332e-04,-4.843186341421494567e-03,3.676378726959228516e-01
2.354537794727771249e-01,-1.422236479333622294e-01,2.363332065952476468e-01,-1.395473148782168545e-04,4.421115640325343514e-04,-1.463206627298743864e-03,3.781272470951080322e-01
1.639333678852137877e-01,-2.007155521432125445e-01,2.708596940728409952e-01,-9.899522880878560858e-05,8.891674664633381076e-02,-4.595905112457979516e-03,4.551643729209899902e-01
2.245529332160974278e-01,-1.212931607607343892e-01,2.296951646474575115e-01,-1.533411646919997928e-02,-2.281029090803404075e-02,-5.509020289567687426e-03,3.518121242523193359e-01
2.150760343781915052e-01,-1.224623662395936396e-01,1.806911195521664903e-01,-8.067595928956793755e-03,-2.317239335172902731e-02,-6.534260314257048403e-03,3.247191011905670166e-01
2.346854661361969241e-01,-1.242416703835773906e-01,1.814417614470242024e-01,-5.797724900902981315e-03,-1.919734044262626574e-02,-8.667495148156253645e-03,3.376163542270660400e-01
2.469449124336677848e-01,-1.303075051804110096e-01,1.979675451537444286e-01,-6.828452772906252501e-03,-1.684975884050997352e-02,-2.498163924405925884e-02,3.593121469020843506e-01
2.499034179203911132e-01,-1.206606195719014951e-01,2.525044891644844247e-01,2.435464549278195442e-03,2.571449927188207678e-03,-2.666900948048532734e-03,3.719506859779357910e-01
2.540928830333073485e-01,-8.095108888211993703e-02,2.602028202588223538e-01,9.875341654850468168e-05,-2.096801775266238059e-03,-1.167803131781634980e-02,3.387642800807952881e-01
2.326294304578628014e-01,-1.359264651421852599e-01,2.141984964964227522e-01,-3.242802406775415359e-03,2.283448146202599928e-03,8.811587078015253177e-03,3.600839376449584961e-01
2.605027148288441285e-01,-1.148467364483317793e-01,1.554041339451114889e-01,-2.327115103240014454e-03,-9.781580244668200419e-03,-2.370170828970476901e-03,3.358636200428009033e-01
2.410294909569288824e-01,-1.357861577015962440e-01,2.425799002863162079e-01,-2.363829260913200350e-03,3.553048775855798067e-03,-3.203073217269194681e-03,3.777063190937042236e-01
2.491923630003579082e-01,-1.102481272820303171e-01,2.481572077623899197e-01,-3.872873963156333969e-03,1.424865092348159270e-03,1.745455688751728100e-03,3.590079247951507568e-01
2.514241584667015750e-01,-8.495137912193079233e-02,2.411593826971423216e-01,6.343338002145429248e-03,-2.439502976135789897e-03,-5.146782308762573154e-04,3.315726220607757568e-01
2.434424360545826005e-01,-1.174918651824358867e-01,1.637527527373989211e-01,-2.518676303608557640e-03,-8.085136516838269810e-03,-2.922513966427919743e-03,3.287887573242187500e-01
2.365761755877044958e-01,-1.306145668715613661e-01,2.455829318904467762e-01,4.936694395641151936e-03,1.505176135863662331e-03,8.066846041483732160e-03,3.721458017826080322e-01
2.648388613791747837e-01,-1.309216703966642470e-02,2.528611241083227323e-01,3.764768674091762378e-03,1.032863773966653971e-03,-5.840422246260031959e-03,2.724117934703826904e-01
2.632662244021159448e-01,-2.692190486960946427e-02,2.488789121727099374e-01,2.065651960663472675e-02,-5.578287189008012716e-03,-8.268386950344406433e-03,2.860413193702697754e-01
2.595567201763105958e-01,-1.930297944252148956e-02,2.593521626446750328e-01,2.950747110428414552e-04,-4.384607059073182544e-03,-2.239709033568326388e-03,2.788883447647094727e-01
2.620812898850851669e-01,-3.597141330888284361e-02,2.886443564898412695e-01,2.689750463031985450e-03,2.343108650024846012e-03,-1.507406664375940571e-02,3.133337795734405518e-01
2.572861600688036710e-01,-5.718580362136529982e-02,2.471404325238475697e-01,2.406397322345620038e-02,-7.478113649095634655e-03,-3.486736790580053074e-03,3.126443028450012207e-01
2.036641093281710280e-01,-1.122636629609359282e-01,2.231694854399350336e-01,1.824233330385001232e-03,1.669366889992186798e-02,-4.009734523254926408e-03,3.274864256381988525e-01
2.202379747720984715e-01,-1.202479899460441176e-01,2.015294776959826173e-01,5.971013154633355441e-03,2.017377310500807763e-02,-5.225316560509161469e-03,3.336473107337951660e-01
2.159029079031774268e-01,-1.112175512114155912e-01,2.123526526259826297e-01,3.005414366283984569e-03,3.482812355714529073e-02,-2.925383296325920549e-03,3.309845924377441406e-01
2.450490592241959531e-01,-1.222445418303187842e-01,1.605224859403835969e-01,2.553685782556676127e-03,-1.057896139958050541e-02,3.860054381352268690e-03,3.337712883949279785e-01
2.677798976701700751e-01,-1.211651790199914508e-01,1.643554833123648251e-01,2.661568050897134170e-03,9.120848286569432223e-03,-8.968803287465050914e-03,3.496578335762023926e-01
2.704516457984794120e-01,-1.433903872438868909e-01,1.090517732798599732e-01,9.289871271109299833e-03,3.464371935690974125e-02,-2.219106119411196759e-02,3.685890436172485352e-01
2.615387606736253034e-01,-1.422258571044847653e-01,1.464589355760536615e-01,2.500851644824993430e-03,1.694475381361135874e-02,-3.854272840925541954e-02,3.676150739192962646e-01
2.497730917590026967e-01,-1.006290343076095273e-01,2.500637998668729933e-01,8.110130564821595861e-03,-8.289201964824528378e-04,5.371759644892186783e-03,3.509551882743835449e-01
2.422112183672689711e-01,-1.353497374129009057e-01,2.372347593221795226e-01,3.065052393159010957e-03,-4.102693480972688356e-05,-8.555719292312965324e-03,3.754276335239410400e-01
2.507682565745396608e-01,-1.222688598458470527e-01,2.433417714384898400e-01,-1.039096585255645366e-03,-8.136253364578653266e-03,-1.129722039290905703e-03,3.696581423282623291e-01
2.366742693558454569e-01,-1.369750847791794679e-01,2.408632074570787873e-01,3.822459272570167665e-03,-4.642054315330628421e-03,-3.544149312896876722e-03,3.759557604789733887e-01
2.390288106786750411e-01,-1.327755874162432348e-01,2.501269784966332344e-01,3.757175400868386847e-03,-4.893568697698661915e-03,-4.465246650980771864e-03,3.777062892913818359e-01
2.449032033796935681e-01,-1.156467192077061668e-01,2.506469705950828408e-01,3.795741709884624653e-04,6.126697143068176622e-03,2.979502620565643335e-03,3.636479377746582031e-01
2.390990672810630047e-01,-1.399156897979985659e-01,2.372790794312673035e-01,1.634523688043213688e-03,-2.437144967997053420e-05,3.008139465943839887e-03,3.781545460224151611e-01
2.356128962359045897e-01,-1.275140612691522124e-01,2.401066775716731438e-01,4.582745290744458071e-03,6.396755392018306334e-03,-4.891794481456414323e-03,3.657468259334564209e-01
2.405478396276185260e-01,-1.299520117214031933e-01,2.476033481977493178e-01,1.771357514429226310e-03,-2.150181985890210756e-03,-3.887465017579326120e-03,3.741692304611206055e-01
2.643726031728803605e-01,-4.098630612160683584e-02,2.757440314814196269e-01,-2.289386342706535918e-03,8.019935690070879517e-03,-1.131580186383968067e-02,3.121515214443206787e-01
2.521798786872557208e-01,-9.077863093221624768e-02,2.522688982992909446e-01,1.020477756994152448e-02,-4.730447566644938907e-03,3.131852376433126063e-03,3.435986638069152832e-01
2.270978276834773602e-01,-1.297803794408519673e-01,2.188561629335295522e-01,-5.328847379960833033e-03,-7.458154672289890250e-03,-4.523337025748412621e-03,3.532734811305999756e-01
2.368027477284035398e-01,-1.226822915970255112e-01,2.157516162889294153e-01,-2.589928011484102319e-03,2.148328589518893467e-02,1.246328579410573012e-02,3.521019816398620605e-01
2.351192490014370473e-01,-1.405252514134633368e-01,2.183520251171544024e-01,-5.095227535755100789e-03,7.295219490796932098e-03,2.732083738726806890e-03,3.679012954235076904e-01
2.294222275902453867e-01,-1.323065784336126816e-01,1.590733010602188302e-01,-7.876910564156118510e-03,2.304162732057491239e-02,8.074919933312770665e-03,3.351476788520812988e-01
2.160532039290116446e-01,-1.292663665615683688e-01,2.087797140923129402e-01,-1.133276681314579828e-02,1.448816541936641389e-02,8.890292393405102925e-03,3.435679972171783447e-01
2.246631214596431780e-01,-1.228249615872853834e-01,1.943837290724159672e-01,-8.178679690479299935e-03,1.575425401550709092e-02,2.994018659595982200e-03,3.348361253738403320e-01
2.288541596553909097e-01,-1.441756369974924734e-01,1.990741506378126691e-01,-8.923829481340848566e-03,1.298701557529976028e-02,1.867430742617165462e-02,3.615526556968688965e-01
2.378199305524825169e-01,-1.338846784549440616e-01,2.195118880350735435e-01,-1.121302967618329621e-02,2.141590335832589329e-02,1.587798418852569976e-02,3.663383126258850098e-01
2.122384342383595579e-01,-1.347980110509397478e-01,1.894040149077743651e-01,-1.298491059253841819e-02,2.187625591648906589e-02,1.417256356383059419e-02,3.399638831615447998e-01
2.428774022472586780e-01,-1.319267290847258023e-01,1.636053722728164073e-01,-1.102499355239163967e-02,1.365957063030609833e-02,1.620446563492418390e-02,3.446198701858520508e-01
2.481922528433953279e-01,-8.473851972011769984e-02,2.561624899020215063e-01,-9.438238006869548819e-04,3.191289510180232410e-04,-1.097833087568820219e-02,3.375270366668701172e-01
2.473240425644601670e-01,-1.294858080621059671e-01,2.192144620001483801e-01,-3.326148321615508222e-03,-6.532464922584402950e-04,8.827937475694755398e-03,3.639397025108337402e-01
2.422978974485440473e-01,-1.313094042799721195e-01,2.544799867686868833e-01,2.607902634195936702e-03,1.545050290969738390e-03,4.995342348085573007e-04,3.798821568489074707e-01
2.454414098687673906e-01,-1.360917473977864556e-01,2.299261884292204683e-01,1.547254644256447530e-03,1.278634811679277240e-03,6.230318823837117763e-03,3.741887807846069336e-01
2.365217123493214002e-01,-1.417769101847568269e-01,2.378589950996151392e-01,-9.877150948296595451e-05,-4.542319460204392130e-04,-6.602534276556232306e-04,3.789716064929962158e-01
2.522421120211106316e-01,-1.294971480338109049e-01,2.322533564386214389e-01,4.638674517336157169e-03,4.164342094207059385e-03,6.580276194240263117e-03,3.724787235260009766e-01
2.380353364352515988e-01,-9.458156856859364914e-02,2.518261940931161291e-01,3.509260468617967938e-03,-3.411154772801779610e-04,-1.053756747577485470e-02,3.402670621871948242e-01
2.360380428285565046e-01,-1.237112979351012720e-01,2.550884281939997944e-01,4.614419670539008679e-04,-7.018256680636520296e-04,-3.066083183314584262e-03,3.696838915348052979e-01
2.503136755419714810e-01,-1.289373971176442368e-01,2.493929345178005907e-01,1.175123749102560721e-03,-8.221004958242759302e-04,8.170610186287873174e-04,3.788023293018341064e-01
2.389116925008707426e-01,-1.354418442704342640e-01,2.397512032656093639e-01,2.329399811548565121e-03,1.703342040176544867e-03,4.931168822091779730e-03,3.749046325683593750e-01
2.763505481411627218e-01,-1.279212146277791118e-01,1.181275648616416929e-01,-3.687254034268862540e-03,-2.223775435273940039e-03,1.422758779589449081e-02,3.537908792495727539e-01
2.548640471431012355e-01,-1.310638797059479610e-01,1.143905439290029691e-01,-2.464676434039959310e-04,-7.474240392997749845e-03,4.495748292765333609e-03,3.386575579643249512e-01
2.478472682315872311e-01,-1.324576012589722129e-01,1.062825041171536339e-01,-6.846190331298777736e-04,2.004316753456200639e-02,1.044430049699183669e-02,3.352140486240386963e-01
2.570237842179096677e-01,-1.180444280383426553e-01,1.610907330916280800e-01,-4.562581583675269048e-04,1.884333648851562295e-03,9.661917297172322242e-03,3.379189372062683105e-01
2.376560920114013098e-01,-1.312679582839687553e-01,2.357474079312425475e-01,6.653487574993757932e-03,-4.063943317297737763e-04,3.352828559413054913e-03,3.682003021240234375e-01
2.536512830274212926e-01,-1.349341204254698723e-01,2.392802356101760841e-01,-1.680460317848839419e-03,-6.518836704326712046e-04,7.952723436774017211e-04,3.816181421279907227e-01
2.360480522151767735e-01,-1.338554253185553489e-01,2.379028714100424602e-01,5.405271867224089102e-03,2.134621796637769381e-03,7.748394324161548760e-03,3.712136447429656982e-01
2.414667331992733090e-01,-1.271487467546685846e-01,2.437187936301900837e-01,7.353938584128574905e-04,2.035982032732672892e-03,6.058158966023926770e-03,3.699145317077636719e-01
2.420389278314654113e-01,-1.280893610831485008e-01,2.449018321400849574e-01,7.441118879664327963e-04,6.441961795180702055e-03,-3.529825339205513828e-04,3.717382550239562988e-01
2.478283722866228000e-01,-1.310165118197108014e-01,2.403049764404535660e-01,1.785233003964122652e-03,-1.809690542522621312e-03,2.945050559959387290e-03,3.752002716064453125e-01
2.354687978806389859e-01,-1.351133327904651682e-01,2.229843548557871313e-01,6.952832307111148080e-03,-1.521522369511175976e-03,9.977870135590923700e-03,3.651179373264312744e-01
2.356255562219290445e-01,-1.396668910256517182e-01,2.350343638939367541e-01,4.028124161154889027e-03,2.427828448450634901e-04,3.851102876780695700e-03,3.751216530799865723e-01
2.352606379174690399e-01,-1.362184607307486695e-01,2.357543998457856116e-01,5.734740528860866882e-03,3.438566151356609100e-04,4.007527367684145594e-03,3.719241619110107422e-01
2.401156597940695137e-01,-1.364020505143060391e-01,2.219974156517733332e-01,-7.716981903246312308e-03,4.310829848186122429e-03,9.287534705200089363e-03,3.684632778167724609e-01
2.063150536246144695e-01,-1.254536791068196211e-01,2.068356083540026924e-01,3.802849094692066761e-03,-1.112260481368255310e-02,3.693574666624352323e-03,3.327144682407379150e-01
2.496679174979258009e-01,-8.073323731672177317e-02,2.541639734384695815e-01,2.179585619025731225e-03,5.544762589119033459e-04,-6.958788502077424380e-03,3.329130411148071289e-01
2.381942332707837340e-01,-1.332901321061212008e-01,2.422274048636859634e-01,-1.499814730415680985e-03,-3.431854774316572473e-03,2.226160882086358848e-03,3.735935091972351074e-01
2.393063088914889058e-01,-1.282409194960145715e-01,2.434438245851069105e-01,-4.518890747278511547e-04,-2.892430198749819641e-03,2.758341335603368104e-03,3.696990013122558594e-01
2.418724702209655020e-01,-1.269256753521304515e-01,2.503816745493123164e-01,-4.794387682019617862e-04,-6.377852610546865496e-03,-6.442013836151932755e-04,3.732916116714477539e-01
2.367064628347917143e-01,-1.285816800377405367e-01,2.559341113754056707e-01,-2.643214161914160532e-03,-4.924869704289376073e-03,-4.797318056770466868e-03,3.754883706569671631e-01
2.448814988039160756e-01,-1.392772854471739929e-01,2.383476582676803401e-01,-7.142731314613126169e-04,-1.271949677119506381e-03,1.161601817421341288e-03,3.809475898742675781e-01
2.420121936051335965e-01,-1.245469263985414382e-01,2.473871018088585894e-01,9.173719050102491918e-04,-7.856379888342964000e-04,1.144018444422567225e-03,3.692871630191802979e-01
2.386854322150619434e-01,-1.251635785068363205e-01,2.250369977794015042e-01,-3.808203733498324167e-03,4.270858108827968111e-03,7.884298953400040860e-03,3.576186895370483398e-01
2.378485548308056363e-01,-1.241832637962651115e-01,2.249427153664730616e-01,1.064164568212932257e-03,-2.514028414433717995e-03,5.334932467113764031e-03,3.559059202671051025e-01
2.483819379699349073e-01,-8.324154944020828450e-02,2.755498923956283819e-01,-6.875371235114876266e-03,-8.572973889297202943e-03,7.060890873915699577e-03,3.467472195625305176e-01
2.140338530033038256e-01,-1.310648144063047971e-01,2.502942277767201684e-01,1.200656412595271436e-02,-5.610480445849536264e-03,-4.002078248567582375e-03,3.653714060783386230e-01
1.880599223790151986e-01,-1.180398939327693270e-01,2.925566817553362786e-01,1.101531624928048757e-02,-7.794621184774944318e-03,-2.531513804384118334e-03,3.703628182411193848e-01
2.024288698155598532e-01,-1.344135149856159339e-01,2.548960563479008012e-01,6.279369233804262332e-03,1.484650999573178037e-03,-1.754749703761021139e-03,3.660914003849029541e-01
2.107410574276166459e-01,-1.326962651052440156e-01,2.510017675351521316e-01,4.512987088054627380e-03,-7.474468293075553146e-03,-1.809494595126095789e-03,3.655621409416198730e-01
1.735183614201554203e-01,-1.376734652980339813e-01,2.401069573697317550e-01,1.142345834558741724e-02,-8.263280043072061126e-03,3.177988400331943891e-03,3.501754701137542725e-01
2.274175506588685947e-01,-1.274932731106997452e-01,2.525101705124608853e-01,4.147592899422540211e-03,-3.057123605326603644e-03,3.917847484066530259e-03,3.682698309421539307e-01
2.411206418754452407e-01,-1.329909209938046621e-01,2.382007173184068627e-01,3.280878615338241825e-03,8.551893144127750181e-04,1.285581900408120076e-03,3.727130889892578125e-01
2.540081194781298457e-01,-1.256432746023137814e-01,2.451198861811151319e-01,-7.332733594397985825e-03,5.203800221337490615e-03,3.106868044385988417e-03,3.756477832794189453e-01
2.255805247172598949e-01,-1.298108749478948387e-01,2.379931249258980808e-01,4.946850568451789144e-03,1.995871586911160866e-04,4.504416951979993769e-03,3.619431555271148682e-01
2.136878111943789627e-01,-1.596483489876228123e-01,2.165005530709559478e-01,-1.525322062951478194e-02,2.351734944004996511e-02,1.193445408699065485e-02,3.784473240375518799e-01
2.380212410459929262e-01,-6.779012823127308907e-02,2.416825685545832825e-01,3.169837985206081540e-04,-2.690100822094656629e-03,9.765924329123900488e-04,3.076987862586975098e-01
1.887502802006317260e-01,-1.301982221112424898e-01,2.443071584130090401e-01,-1.163250336712273042e-02,4.551664096133596626e-02,1.208944918356274004e-02,3.599919378757476807e-01
2.211390876329320521e-01,-1.244109743364017334e-01,2.254468915924380812e-01,-1.614602679301595234e-02,2.302575583569039380e-02,1.095270075309188323e-02,3.516311943531036377e-01
2.127806754942310752e-01,-7.398952486386101146e-02,2.964091376299797798e-01,3.164306317644555167e-02,-5.706981876192456643e-02,4.003550621050706859e-02,3.616576790809631348e-01
2.360508608498279592e-01,-1.372728919334877951e-01,2.371086574796188451e-01,-3.846185285266579251e-03,2.204407531632857770e-03,-1.452483564624791384e-04,3.739326894283294678e-01
1.364991894166453501e-01,-1.441914445038653958e-01,2.310099502571503760e-01,-8.319416781461409088e-03,-9.659782638167224711e-02,4.365204108374433692e-03,3.774996995925903320e-01
6.083926121361916961e-02,-1.762908268514191412e-01,2.391018296337894256e-01,-8.240722269937394290e-03,-7.945116835728172067e-02,-1.099682858515437650e-02,3.870188891887664795e-01
2.382150930245600651e-01,-1.412020838498976860e-01,2.437154983623986415e-01,-4.830746766341462313e-04,9.613084938967584713e-04,7.282578602697676977e-04,3.822036981582641602e-01
1.105945778958688785e-01,-2.529915002262100310e-01,2.173322213343290010e-01,-5.346138374016831674e-03,-1.006662985619942302e-01,5.016063378090979824e-02,4.695010185241699219e-01
1.690849123764413264e-01,-1.477203460680098224e-01,2.728138277630846042e-01,3.620382847882743643e-02,-1.197204732181518377e-01,-9.075113905577334578e-03,4.372245669364929199e-01
1.669738102045687789e-01,-1.178848300475714428e-01,2.775053972683502734e-01,3.823368278375965934e-02,-4.928577754553747914e-02,1.249017048887269415e-02,3.701192736625671387e-01
2.410659035417504481e-01,-1.351591215382886846e-01,2.304184623822828626e-01,-6.195723577389054305e-03,6.336271979562496312e-03,-3.209244559545171359e-04,3.713336884975433350e-01
2.374329568242221633e-01,-1.251589955392315434e-01,2.189474483647397551e-01,-6.041575394420543518e-03,1.352464062658470696e-02,5.425995138890483613e-03,3.547654449939727783e-01
2.264327087841057073e-01,-1.307392992849470970e-01,1.938738088719899610e-01,-1.514678570086134060e-02,2.442161319429274335e-02,1.614927385679885280e-02,3.467891514301300049e-01
2.462818190561251175e-01,-1.254967319759593414e-01,2.223110868156575048e-01,-2.480967187329198749e-03,4.438890183282660773e-03,6.837331672331511088e-03,3.606936335563659668e-01
2.098112447373986500e-01,-1.373768626889728672e-01,1.894119351748848601e-01,-1.399978823898751640e-02,2.274401187082690512e-02,1.620359238310236857e-02,3.417613804340362549e-01
2.207903088978599437e-01,-1.277704389896185955e-01,2.192654033002665592e-01,-1.697659498316046733e-02,3.346422767010927279e-02,1.504647835025236385e-02,3.547798693180084229e-01
2.520893197579561207e-01,-1.357688780411178686e-01,2.215521160802876866e-01,-1.276754337279129015e-02,1.975662544957664316e-02,1.975189123709531966e-02,3.772967159748077393e-01
2.612337404482523162e-01,-3.614169723544158330e-02,2.604704931947748325e-01,-5.749956662861300215e-03,-9.209020394292607731e-04,-1.066570559284227976e-02,2.977394163608551025e-01
2.667277284654484548e-01,-3.314594332647260999e-02,2.634386667648919156e-01,-5.234665801195196450e-03,8.128770147062650041e-04,-1.041165150275188966e-02,2.989282906055450439e-01
2.427438983653328886e-01,-8.585763314875360930e-02,2.507074376449106579e-01,-4.833508862174708612e-03,3.739194664933694848e-03,-1.052522398774703716e-02,3.333220481872558594e-01
2.663608414795589074e-01,-4.043273843616262964e-02,2.634678426921671091e-01,3.546664550000026145e-03,2.564508263801603023e-03,-5.048349717128323456e-03,3.055765628814697266e-01
2.619207566856014968e-01,-9.723816279707497845e-02,2.313687384559725835e-01,-1.268077582739926719e-02,1.725791248529082254e-03,4.529160239310526539e-04,3.456117510795593262e-01
2.509769342723759955e-01,-9.680982975732263518e-02,2.603213946262793455e-01,3.757703832409440680e-03,5.680723378347306111e-03,-3.140353470431979203e-03,3.527911305427551270e-01
2.434247462765153358e-01,-1.402605906292199722e-01,1.971071927818038305e-01,1.233399813990455549e-02,3.697312476176184415e-02,-2.290006034763786974e-02,3.711051642894744873e-01
2.487479793301808906e-01,-1.466735919332101123e-01,2.206497018815812283e-01,3.063015265245163168e-03,3.535783363241291020e-03,9.460652197696296783e-03,3.825849294662475586e-01
2.043837890049646500e-01,-1.481595285043119103e-01,1.954714641716094881e-01,1.603718181365127848e-03,5.865223311764741071e-02,-1.165033278977121653e-02,3.632621765136718750e-01
2.068533538343575173e-01,-1.403068963147984516e-01,1.586834270125007662e-01,1.097452636715053054e-02,6.194579060800377984e-02,-1.262179243369680910e-02,3.441932499408721924e-01
2.409244219232338224e-01,-1.340424235951111487e-01,2.020660885006271834e-01,1.467419225406897676e-02,2.063805325781124106e-02,-1.670285716514604418e-02,3.609712719917297363e-01
2.290881260157888177e-01,-1.424524718715622362e-01,1.910094712330997480e-01,9.154381516064676733e-03,1.398925151558341566e-02,-1.544489548833901868e-02,3.562285304069519043e-01
2.399103803984071748e-01,-1.397771124124277953e-01,2.443264294340696252e-01,-1.214897334059462757e-03,2.258945910428843476e-03,-4.798854956351081410e-04,3.819414079189300537e-01
2.506848094071809641e-01,-2.165246777903195863e-03,2.536599332010612828e-01,-3.903144641824420752e-03,-2.238159996852395750e-03,1.157679166019204633e-02,2.552587985992431641e-01
2.417057036527072433e-01,-5.522714608688467086e-02,2.563099861827607406e-01,-1.318990232144784652e-03,2.144113067224655972e-03,1.110301036343394436e-02,3.051356077194213867e-01
2.369771919002085780e-01,-5.716846366353314779e-02,2.551680035424114257e-01,3.661564835198912219e-05,1.930084865704900440e-03,1.231373362299035754e-02,3.044164776802062988e-01
2.382932771018635987e-01,-1.375361434844322162e-01,2.496958773644079033e-01,-1.314339070934635641e-03,2.327615280997548039e-03,-7.391414231614928422e-04,3.816887140274047852e-01
2.333474637549214914e-01,-1.393361267520163427e-01,2.358851431525446629e-01,-1.647770063527916658e-03,1.039819914741280972e-03,-1.818670229926488101e-03,3.739873766899108887e-01
2.368548048255569582e-01,-1.378880438393950969e-01,2.350418434850018445e-01,-3.396848481056765658e-03,1.131829062136322991e-03,-2.912390075264727554e-03,3.739251196384429932e-01
2.368691939452932105e-01,-1.397750163900604303e-01,2.411103998866001574e-01,-4.089924583651129153e-03,1.636117481666043505e-03,-3.210983982340399282e-03,3.789002895355224609e-01
2.383041811988858560e-01,-1.329387227398000915e-01,2.398686020026541688e-01,-5.617001885827383606e-03,1.328200995489343603e-03,-3.118894921353346141e-03,3.722010850906372070e-01
2.515251660459066341e-01,-1.337276862999924321e-01,1.895502770407422322e-01,-8.691211675107274673e-03,-1.000704515602179705e-02,-2.716560829141958025e-02,3.621126711368560791e-01
2.391521245839451637e-01,-1.342139639301238307e-01,2.186038078849911193e-01,-2.415931349269937259e-03,-1.883230146197555424e-03,2.786300679007749567e-03,3.635984957218170166e-01
2.430584655707697661e-01,-1.075261371957322576e-01,2.461407955041552131e-01,1.088922769053028705e-03,-3.629026539631125849e-03,4.038665725803589415e-03,3.522664904594421387e-01
2.429404872589527864e-01,-1.294697971584942153e-01,2.452799138769347909e-01,-5.776390866707467684e-04,5.794484155210832821e-03,1.484763202672399101e-03,3.737304806709289551e-01
2.505790902496790040e-01,-8.816251282093565123e-02,2.313056828438588008e-01,2.682172729954310567e-03,1.087533073123941180e-02,1.581616118617099748e-02,3.312332928180694580e-01
2.584024128603115145e-01,-1.458499104980860717e-01,2.290889324047570841e-01,-9.776550643782036532e-03,2.769749161157464279e-03,-7.250314444328323157e-03,3.910199999809265137e-01
2.591659667533562361e-01,-1.260002293003158191e-01,2.320864826512510359e-01,8.611481587045234296e-03,-1.606634348178771418e-04,-1.971116433938484725e-03,3.726800382137298584e-01
2.703202197691959574e-01,-1.021800737472845777e-01,2.398817109032501949e-01,-1.273126099267717082e-02,-4.366939765888005380e-04,6.377072802868676178e-03,3.591008782386779785e-01
2.269299950760604867e-01,-1.271370442876356699e-01,1.866537051191143048e-01,8.161572528636890089e-03,5.034188251046702728e-03,-5.658441953500069864e-03,3.362990617752075195e-01
2.260258025201813403e-01,-1.338895988587990860e-01,2.366881125558789600e-01,5.151817083464961013e-03,4.312903610178114508e-03,-5.197745990018509156e-03,3.656593859195709229e-01
2.143680582262416090e-01,-1.365744180386149476e-01,2.220210618703118699e-01,1.687001026348604327e-02,2.668757539767225087e-02,-1.335113613806463220e-02,3.597640693187713623e-01
2.258683078969997982e-01,-1.263401226653743381e-01,2.154305658226581266e-01,8.378220715507653585e-03,9.270010722989146384e-03,-6.597036279485631385e-03,3.479689657688140869e-01
1.902035014012482816e-01,-1.407289060390475299e-01,2.113912882671786231e-01,8.040075692920506389e-03,2.213526329601505846e-02,-8.852174894319865539e-03,3.447837531566619873e-01
2.128055856531326229e-01,-1.295163858109338040e-01,2.211734780432196845e-01,1.164729068410091592e-02,1.375599463739953301e-02,-1.152578239251936601e-02,3.485571146011352539e-01
2.090628184054596495e-01,-1.321826440402417147e-01,2.144818631091574834e-01,1.115768615176634601e-02,8.525750658286750105e-03,-1.027860476337276799e-02,3.453050255775451660e-01
2.167752277755038981e-01,-1.332332104277983986e-01,2.248244399362173129e-01,1.321393524485464654e-02,5.569591547482512922e-02,-1.339563412932124470e-02,3.684511482715606689e-01
1.906337627130733070e-01,-1.290830276788384190e-01,2.812464238965859398e-01,2.607314402306021295e-02,-1.468666429331110315e-02,2.244800961437760055e-03,3.769635260105133057e-01
1.874660242401213206e-01,-1.364109076374789287e-01,2.473150000781535462e-01,1.547980329288809603e-02,-9.540671305942698827e-03,5.153082297902781888e-04,3.589632511138916016e-01
1.941558583935498183e-01,-1.544334985751356082e-01,2.513415114300294739e-01,4.107432401573457917e-03,4.249676902639316564e-03,8.078446220335242650e-03,3.808144330978393555e-01
2.269282833558967927e-01,-1.278655967020045359e-01,2.273035393768640944e-01,6.367178688360322115e-03,-5.701307091521593332e-03,4.821994611714919624e-03,3.553883433341979980e-01
2.319858432842380747e-01,-1.381148818781653687e-01,2.255438174805969864e-01,6.030022934667089718e-03,-2.634953702707151790e-03,3.994593641644670831e-03,3.671643137931823730e-01
2.295016342938183407e-01,-1.254855179450797553e-01,1.619099084072742611e-01,3.195833859458062365e-03,1.025795445500523456e-02,-6.369510156279196283e-03,3.271977305412292480e-01
2.432917807979247948e-01,-1.130371986221429814e-01,1.842313568378488864e-01,2.837767719840947420e-03,1.506852472863168084e-02,8.049939036643122660e-04,3.318445682525634766e-01
2.626703777745373336e-01,-1.167159997835619939e-01,1.444706958363128901e-01,6.155682608982943928e-03,1.667267346938368019e-02,-2.804537380113639525e-03,3.376877903938293457e-01
2.610454555063227988e-01,-1.188116909470985499e-01,1.515905613155127396e-01,1.254639390854816062e-03,1.825746941790144795e-02,-7.326534185730455319e-03,3.403826653957366943e-01
2.387637884268343502e-01,-1.320079760935540525e-01,1.512283257090505373e-01,7.869818621417844912e-03,1.427846122524007930e-02,-5.932271288017531945e-03,3.370185196399688721e-01
2.391115654941783353e-01,-1.335873934048412703e-01,1.539346979980549812e-01,5.387912557285560490e-03,1.534965518093281932e-02,-8.973079277305891915e-03,3.397789895534515381e-01
2.390134633925353191e-01,-1.265140987493151847e-01,1.687807466558002845e-01,6.178310261855875750e-03,3.749829876395505308e-03,-6.257539793411718600e-03,3.363706469535827637e-01
2.317954953126990236e-01,-1.310649872026582174e-01,1.423675330428329222e-01,3.854922147329524224e-03,2.259679266945631426e-02,-3.876319677496428782e-03,3.299041092395782471e-01
2.638444760890394925e-01,-3.051408984224326937e-02,2.658604370342342871e-01,2.588778310128105400e-02,1.832489249292035879e-03,1.114400771616700335e-02,2.993954122066497803e-01
2.212053189101390593e-01,-9.390880771156256968e-02,2.510418740861794507e-01,1.001467416925300169e-02,3.528299524071179614e-03,8.086848588797764664e-03,3.318485617637634277e-01
2.428594053162018707e-01,-8.147924492807601116e-02,2.957384928196037932e-01,5.255431444620235239e-03,-7.329126744367302215e-03,-1.229324291900684221e-02,3.547391593456268311e-01
2.499923426773282276e-01,-8.714900340812511970e-02,2.523164737229954269e-01,6.533806776378070849e-03,8.165456733274831236e-03,1.150526141938633742e-02,3.393795192241668701e-01
2.652029171539807550e-01,-9.964786384687931986e-02,2.897441629521934070e-01,1.352636945929786352e-02,-7.431493334196776976e-03,-2.448696061252205770e-03,3.786882758140563965e-01
1.983670510266889453e-01,-1.196178142267353417e-01,2.208347522836839882e-01,4.058530564725085568e-03,8.872285104956929153e-03,-3.502290561799924207e-03,3.302815854549407959e-01
1.832478217286135358e-01,-1.674685450627030336e-01,1.935998008643830537e-01,1.824775715569810705e-02,6.186481175935594490e-02,-1.247958201326894098e-02,3.737481236457824707e-01
1.953166401897776794e-01,-1.241624558207991696e-01,2.126867782520224237e-01,6.195995198907665660e-03,4.077950391002416880e-02,-1.075548117945631169e-02,3.367033302783966064e-01
1.819704043279739558e-01,-1.305380858128704635e-01,2.357360143248644624e-01,6.092235657992165626e-03,1.797603006111890556e-02,-1.128181155839071310e-02,3.446985781192779541e-01
1.484759494889253961e-01,-1.326912640381458508e-01,2.356595674271625418e-01,1.426864186129615276e-02,6.591359014318670662e-02,-7.832787323027140536e-03,3.535502851009368896e-01
1.486414601575159478e-01,-1.562187581116079582e-01,2.245037463463834815e-01,1.524784380053071688e-02,3.516427496251407075e-02,-2.511608695544473822e-03,3.553142547607421875e-01
1.460574164054603830e-01,-1.604655975364244758e-01,2.729409191405428037e-01,2.541334973816244958e-02,6.055020187229635809e-03,4.730024047476678178e-03,3.886683881282806396e-01
1.775739049536187997e-01,-1.278890334573463683e-01,2.513470429505035852e-01,1.135214639218909763e-02,-7.846503797254066048e-03,8.329879376244499201e-03,3.493773341178894043e-01
2.381856450978711570e-01,-1.389619739958538325e-01,2.249504188360381962e-01,-6.349548582734319997e-03,7.920017380378986671e-04,-1.072821472698650552e-02,3.713380992412567139e-01
2.321922837254279670e-01,-1.360737269668552130e-01,2.318509663462732795e-01,-7.315137816826834671e-03,-5.815574712133769059e-03,-9.038091935362204191e-03,3.687835931777954102e-01
2.300797233863080549e-01,-1.455077181326345226e-01,2.322182539336803964e-01,-8.392907478885646214e-03,-5.780092751856148216e-03,-1.434144346224436664e-02,3.778918981552124023e-01
2.377836479356886523e-01,-1.299001708378445807e-01,1.957080976624136492e-01,-8.471297298777411694e-03,-1.908562887728317004e-02,-7.996824765756813461e-03,3.507009744644165039e-01
2.336628723425720200e-01,-1.341111241533001208e-01,2.001867201125396012e-01,-6.487213802941238158e-03,-1.632842223882771671e-02,-1.359134895204924809e-02,3.543260991573333740e-01
2.452723209692999895e-01,-1.361640893395276164e-01,1.984103805450515290e-01,-9.061558162165892633e-03,-1.613106393863709964e-02,-1.713449770722184906e-02,3.629361689090728760e-01
2.308765853084742137e-01,-1.268743742548747999e-01,1.830110016998193201e-01,8.901210691654016724e-03,7.774481072765938861e-03,-4.976964518025931566e-03,3.371145725250244141e-01
2.204903182864435540e-01,-1.299658184121219862e-01,2.243606559615044516e-01,-4.073519111136338251e-03,6.759997315820708355e-03,6.808621615036768854e-03,3.528693914413452148e-01
2.287279688660647792e-01,-1.342722824357845957e-01,2.326915753371017748e-01,-3.410466439296750470e-03,1.129925009700381931e-03,5.957104567190932634e-03,3.651970326900482178e-01
2.094270059361645342e-01,-1.317144006533418898e-01,2.336012250209744678e-01,-5.118512693978972787e-03,2.275314131454133238e-03,7.600049167188988562e-03,3.542260527610778809e-01
2.171566883680658422e-01,-1.310752518199905514e-01,2.290219037107888989e-01,-2.823278643981113473e-03,9.529008476487618728e-03,6.109444418694976592e-03,3.548893034458160400e-01
2.267288674584129748e-01,-1.378534955038445975e-01,2.362369887628998633e-01,-3.153714400735687425e-03,1.069428104915707504e-03,6.100082993409013631e-03,3.696242570877075195e-01
1.984059224788290998e-01,-1.428399576083798361e-01,1.785508161171118213e-01,1.545682850081595873e-02,-6.512612323038458051e-02,1.385625638665776913e-02,3.522562384605407715e-01
2.336355318183895857e-01,-1.254226650397288201e-01,1.834818247275019076e-01,7.426259871276565810e-03,1.495798522275659445e-02,-5.729608116451119330e-03,3.381792902946472168e-01
1.854463543729156505e-01,-1.264349938700837228e-01,2.179351750336668281e-01,3.989415562152993922e-03,-4.157693548833954478e-02,4.619151978146239512e-03,3.372770845890045166e-01
2.175338560936898591e-01,-1.240901062118478504e-01,2.310782634384956902e-01,1.250436190938882322e-02,-2.474164809967287909e-02,1.791014251614766323e-02,3.532496690750122070e-01
1.437190897933089684e-01,-1.379354346723747626e-01,1.954492959911864336e-01,8.796519809611390989e-03,-6.946417497856660628e-02,8.770615679165774670e-03,3.339371979236602783e-01
2.389773375354354856e-01,-1.416471126227528687e-01,2.403939358672147752e-01,1.019998088496739275e-03,7.707050593405401868e-04,4.936661500933785078e-04,3.813421130180358887e-01
1.873506136862188032e-01,-1.188730811718543973e-01,2.110523389581825393e-01,7.416091239573214221e-03,-4.307454867727401188e-02,5.591716342393046255e-03,3.277465403079986572e-01
2.310029298283884369e-01,-1.360593252415139842e-01,2.011466978809372808e-01,8.220189912493678849e-03,6.162792116994579225e-03,-7.248368212543793154e-03,3.537531197071075439e-01
2.371143539455381477e-01,-1.376124570481270515e-01,2.378463330644408069e-01,3.365345649773655076e-03,1.481968375231685958e-03,3.000197491104154759e-03,3.751834034919738770e-01
2.359369372879884241e-01,-1.349467326588710825e-01,2.357501126563992799e-01,2.529979064078643342e-03,1.192892056866695031e-03,2.962170785833263993e-03,3.708574473857879639e-01
2.337284678019312667e-01,-1.395166490135625326e-01,2.359899960795890927e-01,2.601943886383206641e-03,-1.455549264528957596e-04,9.925817154184612100e-04,3.744121491909027100e-01
2.362774021219275766e-01,-1.382203150018021520e-01,2.351687540948536326e-01,3.069847649681336187e-03,8.349369954686846869e-04,2.425336557695069971e-03,3.740088045597076416e-01
2.388756529696237640e-01,-1.336729026735906656e-01,2.395739660197024612e-01,5.648089375674703386e-03,2.466501039121444215e-03,3.937471312539926778e-03,3.731133043766021729e-01
2.352033059874266696e-01,-1.407340383406086581e-01,2.370830937132781813e-01,2.442684639421070433e-03,1.130068925877012777e-03,1.483309871323326137e-03,3.769183456897735596e-01
2.469573814306956772e-01,-9.722408788173531047e-02,2.428634817453261541e-01,-9.966565178624132992e-03,-1.413675728925949289e-02,-1.528843392279546735e-03,3.434722125530242920e-01
2.406422149355212092e-01,-1.323948849594747679e-01,2.301879397520159853e-01,7.955342809035492041e-03,-1.168059518424521825e-02,1.371886846915289801e-04,3.687348067760467529e-01
2.275646321237455583e-01,-1.328231769630776604e-01,2.501427723558374283e-01,-1.449950409329996484e-02,-4.493797548054826244e-03,-5.586843182565847180e-03,3.732438385486602783e-01
2.379943207300657393e-01,-1.301784661044625424e-01,2.376821994746790012e-01,-2.673430654022463868e-03,4.034812077735728912e-04,-3.062797422948998656e-03,3.680848479270935059e-01
2.422139555384925091e-01,-1.271649527187167505e-01,2.444503082011344475e-01,6.415516723640818722e-03,3.449677348016821042e-03,8.557200196123590508e-03,3.710130751132965088e-01
2.462925334335036021e-01,-1.247906291607896595e-01,2.399836318467418184e-01,2.699480543339998623e-03,-1.431657877357139438e-03,2.043759072148846386e-03,3.680243492126464844e-01
2.316534239642072113e-01,-1.308157836118114814e-01,2.476211933984597824e-01,7.114816746556638059e-03,-1.241805673499285327e-03,-2.302623381711223563e-03,3.709435462951660156e-01
2.217924578048736106e-01,-1.327503652334605933e-01,2.267442723113541614e-01,1.095086435219279775e-03,-2.127347061114713035e-03,-2.958692371524450707e-03,3.571053147315979004e-01
2.512711281036299482e-01,-9.311208313159166639e-02,2.386869095281338726e-01,-7.899653282506469143e-03,5.254991917988911972e-03,-1.946878854878420851e-03,3.386824429035186768e-01
2.551083639681421267e-01,-1.090749926608139131e-01,2.396564287756783318e-01,-8.137281759152983213e-03,3.741988037238607595e-02,-1.951866934222259639e-02,3.643943965435028076e-01
2.548363577134793445e-01,-1.083408454412490285e-01,2.490682908133253215e-01,1.170613874451040953e-02,-9.533232192520477849e-04,-6.898082250509870485e-03,3.610993027687072754e-01
2.464687300227884348e-01,-1.331639250779668437e-01,1.875014473314571828e-01,9.807684559082392034e-03,2.586852558110993346e-03,-1.704456063004419070e-02,3.555170595645904541e-01
2.343102037020653172e-01,-1.514252306725717701e-01,2.227862702032551989e-01,1.792659164214620293e-02,8.641790165866913842e-03,-1.020486817523809549e-02,3.820732831954956055e-01
2.514046260871471428e-01,-1.310564887169801684e-01,2.289765033700318919e-01,8.057102880808682949e-03,1.298852486014051046e-02,-1.270537634586690195e-02,3.733453750610351562e-01
2.398953575190369558e-01,-1.301268675884758030e-01,2.425950595986406111e-01,5.814592174957250448e-03,-2.414185969158222974e-03,-6.872231705483486212e-03,3.717301189899444580e-01
2.512751026895135298e-01,-1.223743741986515338e-01,2.312352445222907171e-01,6.776767594003001681e-03,5.917880631905155300e-03,8.423281005418118989e-04,3.643797636032104492e-01
2.418429632199477486e-01,-1.366907493152475506e-01,2.271871640692318672e-01,-3.924262543058560336e-03,8.052198021696384267e-03,1.290057931004893240e-03,3.717533648014068604e-01
2.508531189639810477e-01,-1.009987679824360940e-01,2.340611753811409623e-01,-2.448020624301763468e-03,9.522652385002560588e-03,7.151461430159773702e-03,3.444080352783203125e-01
2.231403109850947919e-01,-1.473641509705698183e-01,1.835644948548951771e-01,9.822500679149802003e-03,2.002641543980508351e-02,-1.397963883197890327e-02,3.553247749805450439e-01
1.641063350138590171e-01,-1.155359916284777050e-01,2.249581802363267435e-01,3.080123409157560846e-03,1.533461571983721350e-02,-5.072999270876997827e-03,3.158015906810760498e-01
1.482858487650700052e-01,-1.280239504867893841e-01,2.426210875921558929e-01,1.344729953959592113e-02,2.652307768719420339e-02,-6.467603302947554783e-03,3.377726972103118896e-01
1.652980440608632917e-01,-1.278960236857757393e-01,2.487803493784170872e-01,1.306523871222359419e-02,1.339469001332974953e-02,-4.529694986767031709e-03,3.442680239677429199e-01
1.323842271128831405e-01,-1.218854663170660380e-01,2.532950313668922981e-01,4.839043527139973502e-03,1.915848410182583936e-02,-2.447784137725145682e-03,3.334753513336181641e-01
1.548546218368840877e-01,-1.113379417175574121e-01,2.682065484022613244e-01,1.031259309886998089e-03,-6.832477737818347212e-03,-5.514961907404603795e-04,3.376754820346832275e-01
1.692991095625588360e-01,-1.087961074484809637e-01,2.526215869749113829e-01,-5.113258454162571565e-04,1.010474608184682051e-02,-1.995429959313614610e-03,3.282837271690368652e-01
2.492456247344323472e-01,-1.175596761159462406e-01,1.596454958658879986e-01,2.731664179267744930e-04,8.405214207326897058e-02,9.153671033007283048e-03,3.621524274349212646e-01
2.185989831962060204e-01,-1.784185653269556027e-01,9.160250461631247454e-02,-1.562162371067237106e-02,9.909079368333828519e-02,1.167451150285957889e-02,3.923380672931671143e-01
1.716569925718902379e-01,-1.452742741351910061e-01,1.516902279500464967e-01,9.267827875827222561e-03,6.626857943494449121e-02,-1.076887859665480104e-02,3.290838301181793213e-01
9.709464249543833803e-02,-2.688077259005338671e-01,2.870783134026098637e-01,5.630168132211444548e-04,-1.003332591005792612e-01,-8.007627760463543500e-04,5.193235874176025391e-01
2.413505258699477074e-01,-1.269959157571944330e-01,2.495582815821215661e-01,-4.224262749016946018e-03,-3.728301829053430778e-03,-5.994025003363436313e-03,3.727905452251434326e-01
2.591362042471594407e-01,-1.129075728130383705e-01,2.558591472886813101e-01,2.605605624031416372e-03,-2.065533548515565906e-03,-5.253507798639847973e-03,3.705726265907287598e-01
2.385418918291008494e-01,-1.276789706689621107e-01,2.221818238152984404e-01,-1.189226412536529762e-02,1.285017428973768937e-02,2.094480853309937940e-02,3.614272773265838623e-01
2.407170445165034423e-01,-1.236426059188596299e-01,2.051467801041492178e-01,-2.277095180844932246e-02,4.054202857794141773e-02,9.088646614764682441e-03,3.574872910976409912e-01
2.338599316673059536e-01,-1.036160535864343868e-01,2.656615861915258558e-01,1.139958244438270610e-02,1.935544343148950727e-02,7.920522264093678502e-03,3.568411767482757568e-01
2.510168878082966737e-01,-1.182047499651080191e-01,2.502176518276373329e-01,1.584256691670108590e-03,7.433383628551570171e-04,4.282651830154361218e-03,3.689097166061401367e-01
2.539664663243428322e-01,-6.750075624325482804e-02,2.486003694541135123e-01,4.882223302454189937e-03,1.134842752217838854e-02,-1.106665265345579095e-02,3.201097249984741211e-01
1.523584635043807312e-01,-1.327632731156647705e-01,2.633947589729961902e-01,-1.564349340369600161e-02,2.550534014511391355e-03,1.162633381810715145e-03,3.550212085247039795e-01
2.482319776410989165e-01,-1.191591141794156317e-01,2.401870221678251149e-01,-1.929805193596212127e-03,5.766429622133823624e-03,2.995092336288744661e-03,3.636249899864196777e-01
2.343110244819682775e-01,-1.320998363462043135e-01,2.289796553053413120e-01,-7.061914173560422843e-03,7.601117584183756173e-03,8.793293619621767726e-03,3.645364046096801758e-01
2.174090317715690612e-01,-1.283435248929725714e-01,2.439828269103582192e-01,5.639926915765424830e-04,4.424103467069152862e-03,1.051494433945853466e-03,3.598637878894805908e-01
2.460438979465806031e-01,-1.089759489159005390e-01,2.465730373292462918e-01,1.828218894944162775e-03,-2.815874311724155931e-03,4.022218399885650023e-04,3.553329706192016602e-01
2.372947419730281338e-01,-1.331400694740018098e-01,2.397145055215069154e-01,-1.113469598050855327e-03,-1.855790753917509542e-03,2.558763819583939267e-03,3.716959357261657715e-01
1.456776626332804969e-01,-1.129242873807067976e-01,3.024340687812198114e-01,-2.406484350543910272e-02,-2.292929425440389923e-03,1.412131552065578298e-02,3.665193021297454834e-01
2.442848747942001353e-01,-1.269101093077513176e-01,2.505721747442684055e-01,-3.522048297632209956e-03,-6.344196455771359752e-03,2.807043473743430287e-03,3.746206760406494141e-01
2.194391934010476164e-01,-1.541676162903119207e-01,2.490998188994507645e-01,1.616515506314258888e-02,-2.066549015971004023e-03,-5.020747760357279627e-03,3.904043734073638916e-01
2.436178903721243905e-01,-1.256677572430384138e-01,2.544458885426407191e-01,2.068353725803651760e-03,1.856819491169846553e-03,4.989800425775558004e-03,3.749475181102752686e-01
2.398715338054167590e-01,-1.394284195262409098e-01,2.400573996154317102e-01,6.458894414005304611e-04,5.120570649102572976e-04,6.022374265921725438e-04,3.793970346450805664e-01
2.504018373771493833e-01,-1.233455397552021132e-01,2.376775035959005633e-01,-2.817444833169271100e-03,-1.951296208727020193e-03,7.593469468568899219e-04,3.676007091999053955e-01
2.541923110828067101e-01,-1.186111190191271036e-01,2.433326478766763001e-01,-4.125659570478531005e-03,9.366198656107568724e-04,4.769555998271403125e-04,3.675679266452789307e-01
2.475396216200806132e-01,-1.321943591080364244e-01,2.438440001275121727e-01,1.571253003350936927e-04,-1.168523300619290399e-03,-9.499421435344749479e-04,3.779088258743286133e-01
2.540867628260864430e-01,-8.579002240823027647e-02,2.390096573405034452e-01,-1.010380491364134756e-02,-4.166359755685401203e-05,-1.687819717593524007e-03,3.330675661563873291e-01
2.500776620333204359e-01,-1.324436989849556712e-01,2.394340133958101080e-01,1.123477240071996466e-03,8.469335683645000130e-04,-4.618294635668533329e-04,3.773208558559417725e-01
2.534617454611401421e-01,-9.768289787483944164e-02,2.461032520262612655e-01,-9.416003536200515459e-03,2.245908716914524347e-04,1.041316728523293805e-03,3.479112088680267334e-01
2.368276244969932387e-01,-1.302828915365928375e-01,2.124284704023521320e-01,7.748812387935100597e-03,-4.861718821005442566e-03,2.068807460825661682e-03,3.559103012084960938e-01
2.394988171496230112e-01,-1.305614560220961229e-01,2.409969499159932138e-01,4.216493050254127226e-03,3.151319938744694040e-03,3.261179786246141445e-03,3.709667026996612549e-01
1.581913776078226475e-01,-1.170655693958767979e-01,2.546743844067317353e-01,4.586875004931581425e-04,5.446818989803501286e-03,3.800139314469511533e-04,3.342499732971191406e-01
1.872324818744738884e-01,-1.171273994460378665e-01,2.404774167707789678e-01,9.049317538087211371e-03,1.922630972809792269e-02,-8.391064555153926463e-03,3.365136384963989258e-01
1.578943568315692159e-01,-1.303192736310486155e-01,2.243667339462156463e-01,4.428839283116180192e-03,2.461204613660908369e-02,-5.379220813781768196e-03,3.295555114746093750e-01
1.547468061897979141e-01,-1.278801707777020291e-01,2.383601708687074217e-01,1.106600399063165444e-02,1.521443369211651978e-02,-7.294598303799000073e-03,3.342484533786773682e-01
2.435331713805689580e-01,-1.139218478029917214e-01,2.465939768404685761e-01,9.460876221366544461e-04,5.767292437006165014e-03,-1.718327297792722409e-04,3.591380119323730469e-01
2.436064420143879417e-01,-1.284105110550995410e-01,2.492934060823209230e-01,-1.444739026796246434e-03,5.683277836827731709e-03,-1.691772401224168497e-03,3.750417828559875488e-01
2.416604144846144497e-01,-1.329067241148242373e-01,2.467753579827143273e-01,2.967398537131050139e-03,5.876260009778540294e-03,3.049706459735679331e-03,3.773599267005920410e-01
2.383171087783034214e-01,-1.170572383888298373e-01,2.409670951248497617e-01,-2.278119665988763594e-03,3.813971715003888329e-03,2.556618081709250562e-03,3.568171858787536621e-01
2.403605019393766917e-01,-1.326115320796999453e-01,2.467831061970946760e-01,3.265213006264331818e-03,6.839816798394090722e-03,3.557022870458582779e-03,3.765038251876831055e-01
2.077705187797177500e-01,-1.382061371640230241e-01,2.410537799412429127e-01,1.823186463184654424e-02,2.981400650873923183e-02,-8.536291816201125454e-03,3.690600097179412842e-01
2.151790927812918530e-01,-1.445753721649781776e-01,2.267525663903873223e-01,2.002554904953113973e-02,1.728607502108910066e-02,-2.037238319303225076e-02,3.702234923839569092e-01
1.876543711614012955e-01,-1.430256883882809471e-01,2.453123602133855108e-01,2.409592611052544658e-02,1.280356130439741155e-02,-1.038634700961978130e-02,3.664660453796386719e-01
1.867391077439376490e-01,-1.398282752293671938e-01,2.463057020168216149e-01,1.924822327745690648e-02,-4.308316777193696087e-03,-2.058630244071122132e-04,3.616825044155120850e-01
1.690644597073553967e-01,-1.221647049985522537e-01,2.717379240569705035e-01,-7.789012997785701824e-03,-1.646572694104858885e-03,4.889789925710386238e-03,3.542875051498413086e-01
2.450894751902277791e-01,-1.285040824536886617e-01,2.411470361226403236e-01,3.161694182550761449e-03,-1.134962013185879465e-03,-5.420119559739167495e-03,3.718020915985107422e-01
2.505908093617283949e-01,-8.050688783424533868e-02,2.511388757108146130e-01,-5.334127354841191292e-03,-1.009974916217068648e-02,9.136537340798943016e-03,3.323390483856201172e-01
2.248279013136025295e-01,-1.339872455733308598e-01,2.473924027554298966e-01,1.100136714472276303e-02,7.811789105317296089e-03,2.325299067710172231e-04,3.713492751121520996e-01
2.369719328318317664e-01,-1.368417897555626872e-01,2.372402449169978556e-01,-8.746481424599039049e-04,-8.459851393829122745e-04,2.571444073437358178e-03,3.739804029464721680e-01
2.279538045839351601e-01,-1.346815551584015502e-01,2.368464529913125449e-01,6.981453324807101665e-03,-5.636313030328129114e-04,-5.150195778128844118e-03,3.674711287021636963e-01
2.429980549646663657e-01,-1.189457631157368050e-01,2.449493986106378862e-01,6.601910642378762059e-03,-3.133558717538763045e-03,-8.878482988291965666e-03,3.634695410728454590e-01
2.387876029441773906e-01,-1.380743520130242596e-01,2.263336850238082398e-01,5.611941407441864600e-03,4.641807123435678852e-04,-3.860194595153583486e-03,3.709804117679595947e-01
9.657302946384756226e-02,-1.079593555882821659e-01,2.797200651779870317e-01,-2.204135986275905512e-02,4.641937275313633843e-02,1.863825229505315650e-02,3.489981889724731445e-01
2.318307219648097495e-01,-1.264562487651081368e-01,2.300016360413631999e-01,1.024207741419914768e-02,8.038346874086907054e-03,-8.266945405154739121e-03,3.583728969097137451e-01
2.230149527018215616e-01,-1.355429522832529432e-01,2.193492350333250962e-01,7.916146762838190826e-03,2.343542994102520635e-02,-9.472760528685807146e-03,3.596771955490112305e-01
2.589432428875700354e-01,-1.231558793528271661e-01,2.038564688939651925e-01,2.142317478528602687e-02,5.833604132156710448e-02,-3.198018487522581721e-02,3.776771426200866699e-01
2.465486837034338297e-01,-1.244558506524459374e-01,2.414236585214876163e-01,-6.734365161716909147e-04,-6.763435812873463786e-03,2.649761296898946661e-04,3.686570525169372559e-01
2.311836619071358512e-01,-1.382535318626248455e-01,2.292793436497935211e-01,9.670750871372289087e-03,6.295661956206043304e-03,-7.936298097676375285e-03,3.692862987518310547e-01
2.218763830423263472e-01,-1.571314234883406380e-01,1.756352741746050050e-01,7.883228015082857643e-03,-5.928781166859832530e-02,2.785309384995078054e-03,3.728461563587188721e-01
1.986471552577863675e-01,-1.290684967238465708e-01,2.233648486570399827e-01,1.400832255041657703e-02,-4.921933724657814868e-02,2.377078591909724536e-02,3.544860482215881348e-01
2.116851525238204468e-01,-1.419964786831727221e-01,2.277864174127480212e-01,2.367441545479855025e-02,-3.121581442197513337e-02,1.329835856656647747e-02,3.690256476402282715e-01
1.307067718695459901e-01,-1.833587755370233996e-01,2.680581574231015729e-01,6.001812648978070101e-04,1.050335983937693979e-01,1.641476256851815557e-02,4.410731196403503418e-01
1.550013746689379857e-01,-1.485824265471417105e-01,2.633026478443741270e-01,2.578513696383880754e-02,4.513054473179906045e-02,-1.944688852851651426e-02,3.821128904819488525e-01
1.101691396631445802e-01,-1.572444358498565342e-01,3.401572772821532253e-01,-4.872774738426656482e-03,6.458539754365760777e-02,1.153466721019864687e-02,4.459716379642486572e-01
1.037706028522222268e-01,-1.954327263310143004e-01,2.497323443297679579e-01,-5.185006956467485759e-03,6.526779076859284823e-02,-7.517400290893806042e-03,4.093037247657775879e-01
1.258776963439166563e-01,-2.285505901016245678e-01,1.565091506212985539e-01,2.219136006735537153e-02,1.023580290940296067e-01,-2.934889577686792747e-02,4.158212244510650635e-01
1.382142003001137764e-01,-1.586659560691723869e-01,2.182274287788250056e-01,2.326208022397471126e-02,6.021450441945425808e-02,-8.791887280912702787e-03,3.619763851165771484e-01
1.156988022891536766e-01,-1.519506558595563050e-01,2.364631427209601400e-01,1.139096880910649492e-02,8.300354621163448521e-02,-1.157410968917278651e-03,3.736372888088226318e-01
1.727941120576272360e-01,-1.364190387232162016e-01,2.412599539974550900e-01,3.878833530003441242e-03,9.332629569924986990e-02,-4.907992921253935027e-03,3.843405842781066895e-01
2.383419071900613195e-01,-1.226558241934956883e-01,2.395842693176896965e-01,-1.810308111799918988e-03,4.019673763313660192e-03,4.138052087412694841e-03,3.617721199989318848e-01
2.398355789342337951e-01,-1.313522756142221359e-01,2.400269901460746202e-01,-3.694319892421312358e-03,-1.673416201041705471e-03,1.057446670909680322e-03,3.713545501232147217e-01
2.349504268848845445e-01,-1.261591730531169131e-01,2.261433630946342310e-01,-1.626661795848979158e-02,1.351227043029854490e-02,1.701403318125564029e-02,3.598713278770446777e-01
2.442346729713687492e-01,-1.356443272757943408e-01,2.189057790545375082e-01,-8.817355358167071333e-03,3.019049704364566017e-03,7.114112890514255778e-03,3.684292435646057129e-01
2.409639981376768825e-01,-1.232060633448660014e-01,2.482561521219029677e-01,-9.719456605655507099e-04,-1.025614736351565222e-03,-1.104621086130027664e-03,3.678834736347198486e-01
2.385910798185485460e-01,-1.332160112562832954e-01,2.477825664913725356e-01,-3.711245182935600431e-03,-1.865179642254933060e-03,1.085641376540977688e-03,3.765604197978973389e-01
2.359059667410925987e-01,-1.424595559511883658e-01,2.376318158726229979e-01,8.737283026062183430e-04,-1.081960387645202262e-03,-1.045370187023953509e-03,3.792433738708496094e-01
2.428955805691437320e-01,-1.093145511197360364e-01,2.489060578231246101e-01,2.721035000362982334e-03,-1.703757323572133251e-03,8.936695348305090207e-04,3.553003966808319092e-01
2.435521634606154784e-01,-1.098257324174719829e-01,2.566195005451586963e-01,-4.171386728114607687e-03,-6.253264590317868070e-03,-7.325339839267883645e-03,3.605480492115020752e-01
2.310365124590106345e-01,-1.265439880101943138e-01,2.453322073766643630e-01,4.150389815582009034e-03,-6.763634576087401880e-03,7.631131998158502232e-04,3.651995360851287842e-01
2.382784897511041056e-01,-1.374613182003950329e-01,2.493995009732712653e-01,5.554989179112222644e-04,-3.940310579441575270e-03,-1.598025723712291147e-03,3.814942240715026855e-01
1.908077139729295879e-01,-1.078229333013618063e-01,2.481594720196191317e-01,4.602069063772555352e-04,-7.340895503177903569e-02,-1.510890244554831657e-03,3.546414971351623535e-01
2.306893512388958345e-01,-1.227711519954737124e-01,2.470469805016569653e-01,6.643174714193064018e-03,6.374927456254135018e-03,8.652253460281809569e-03,3.625776767730712891e-01
2.318010274490779343e-01,-1.244997980001664034e-01,2.625218630032616907e-01,3.975594813655224623e-03,3.195329384719440991e-03,-1.734370793910403616e-03,3.727290928363800049e-01
2.349351777081598591e-01,-9.856121519575342105e-02,2.600900306845356780e-01,-3.171509903375318001e-03,7.840482552490733031e-03,-4.478281059997405236e-03,3.471547663211822510e-01
2.283780775459720580e-01,-1.296499409617362653e-01,2.306659269488507413e-01,2.802469001079992139e-03,7.528536812510720983e-04,-2.143723817594166570e-03,3.592317700386047363e-01
2.214901824800428465e-01,-1.406060160373201473e-01,2.410609721574482611e-01,9.555289601688606721e-03,-9.951021877507765234e-03,1.029589222270224126e-02,3.734597265720367432e-01
2.193429424835550701e-01,-1.323291815525967641e-01,2.455505026720338213e-01,8.044841188592388725e-03,1.850604607651500349e-03,9.834530425924499844e-04,3.657648563385009766e-01
2.547942830661373281e-01,-1.282608453627261946e-01,2.444697435546778208e-01,-4.031507731880648246e-03,3.726550571951533792e-03,-5.175169350637127269e-03,3.782244324684143066e-01
2.320578556826204675e-01,-1.415648609989108575e-01,2.194683372731129345e-01,8.053901868071382600e-03,-5.347664772140884454e-03,7.153679756331007833e-03,3.680796325206756592e-01
2.117699453501629137e-01,-1.100260695356884699e-01,2.743327291831454406e-01,1.299945173011523604e-02,-2.374814023733065257e-02,5.796278954599162932e-03,3.604148924350738525e-01
2.363545628835532764e-01,-1.359582606273355698e-01,2.375972739418304724e-01,5.147262935960269029e-04,6.671045833324319068e-04,2.373681611977713178e-03,3.729612529277801514e-01
2.402293246759500400e-01,-1.208727324967342892e-01,2.249314292077050081e-01,6.740746344954334779e-03,1.716727858595094511e-02,-8.921733285805885302e-03,3.554769754409790039e-01
2.012500646728248577e-01,-1.212240949397784540e-01,2.586897654375179822e-01,1.671103802832070093e-02,5.388767669399734811e-02,-2.624696623904208825e-02,3.707126379013061523e-01
1.897886103066958596e-01,-1.254053462089960436e-01,2.146065702863109159e-01,7.082337194973795970e-03,2.262682788258347025e-02,-7.503066163171367119e-03,3.311206996440887451e-01
1.821637284639759935e-01,-1.515916975726840366e-01,1.918205526377741166e-01,1.836942032141312964e-02,5.025210540364793282e-02,-1.576727058281623614e-02,3.521972596645355225e-01
1.805302556558299187e-01,-1.493077888117979035e-01,1.900292115576425189e-01,8.092646620424876619e-03,5.294782530679639776e-02,-1.228208862841858630e-02,3.479596674442291260e-01
2.145466438637067819e-01,-1.310134796701362403e-01,1.755598831481454403e-01,4.982789241252844580e-03,2.908910897072765692e-02,-8.371200619248090821e-03,3.320884406566619873e-01
2.532715784120208591e-01,-1.214431016597870006e-01,2.108283092948697313e-01,1.451003775222602619e-02,6.217953448988462056e-02,-9.485772335214503678e-03,3.725706040859222412e-01
1.709175449304559669e-01,-1.442101627127241603e-01,1.743908475839162642e-01,8.363361416817399752e-03,7.498905458424594273e-02,-5.941162058633651585e-03,3.429254591464996338e-01
2.275341785361779667e-01,-4.848087501274972455e-02,2.073985948720870609e-01,4.695803941514699667e-03,-3.967192176774411022e-02,-1.052059855339547781e-02,2.759561836719512939e-01
2.572805119174076394e-01,2.193856919977502096e-02,2.848061196850767973e-01,6.045538779249136178e-04,2.520458989008311172e-03,-2.158773342892535141e-02,2.530606091022491455e-01
2.619547761106807426e-01,1.417130392302512476e-02,2.846084350206042335e-01,-1.459527950355511174e-02,-4.696579006992190886e-03,-2.234794379533168451e-02,2.640579044818878174e-01
2.543224987461903952e-01,-6.641352639593370299e-02,2.488834696351427400e-01,-1.296296002199894340e-02,8.330737183331901261e-03,-1.866369127382389720e-02,3.208021223545074463e-01
2.897546015142183906e-01,-1.412937639907346776e-02,2.886426670151985840e-01,-4.560618192290815005e-03,1.591071898917729294e-02,-7.703480472584573434e-03,3.049732744693756104e-01
2.509242860952729526e-01,1.658572152011650314e-02,2.463320711333656932e-01,-2.703988938159031241e-02,6.384799575679432973e-03,-6.820126773379694626e-03,2.373074442148208618e-01
2.853076850890202687e-01,-2.089969796370899635e-02,2.772915859876367017e-01,-3.600467734020817209e-03,6.977648119323492416e-03,-2.954122668404588186e-03,3.026280999183654785e-01
2.536988789895375795e-01,-2.483891523825604297e-02,2.578260684008123471e-01,-2.678535044948816488e-03,4.615631727928545813e-03,-1.335209815398698784e-02,2.817271351814270020e-01
2.649998467698210236e-01,-4.274683715731605882e-02,2.292814963399208983e-01,-2.507212161260455492e-03,3.037877879208956532e-03,-3.571221160414334884e-03,2.916786372661590576e-01
2.438636833646481983e-01,-1.285977077706675076e-01,2.491867582354333754e-01,-1.537266223627294006e-03,3.898450230525748149e-03,1.484493814330101321e-03,3.752302825450897217e-01
2.295930822106282410e-01,-1.361084012846384694e-01,2.426207134351073824e-01,5.079215162973752321e-03,1.497718643846105433e-03,4.442775746682853938e-03,3.725786507129669189e-01
2.437840813912530713e-01,-1.322486118382332210e-01,2.459131333754629445e-01,-2.172576020329217486e-04,6.106138182517925790e-04,4.161127888393722878e-03,3.771722614765167236e-01
2.201326521557006033e-01,-1.251309775692702742e-01,2.497170316021937453e-01,2.982447662384743459e-03,-4.521097219444584429e-04,5.728136173705854596e-04,3.610053956508636475e-01
2.026426519419334826e-01,-1.365843540534583678e-01,2.382370506185946812e-01,7.841765656947814397e-03,-1.945026053948008477e-03,7.707601218950114672e-03,3.588740229606628418e-01
2.020128317955493802e-01,-1.384084701734485667e-01,2.342568035618513567e-01,8.773587721146888091e-03,-3.700755106916421480e-03,8.157719410213447320e-03,3.582939207553863525e-01
2.434260929542408358e-01,-1.129337312694544682e-01,2.477904013322735077e-01,-4.520232381851457468e-03,-3.828645640778250651e-03,1.305058827805652801e-03,3.587158024311065674e-01
2.398304653463501079e-01,-1.231950544353239418e-01,2.487468311714960967e-01,3.364217317386884645e-03,-5.577786123632039877e-03,5.841486818639154630e-03,3.678770959377288818e-01
2.508233502081317345e-01,-1.013109249215552732e-01,2.477768285893419131e-01,5.300300456255147355e-03,-2.076158657947866585e-03,5.809320588202565409e-04,3.507609963417053223e-01
2.475317153238488777e-01,-1.326182930659683401e-01,2.363851971584083334e-01,2.014860229375793361e-03,-1.057661212877223983e-03,-1.378018364373347765e-02,3.754812180995941162e-01
2.366178732343266200e-01,-1.511409223989537698e-01,2.401366969485720371e-01,-1.008955439079920781e-02,-5.298638863408524843e-03,-9.725468640115381190e-04,3.900335729122161865e-01
2.485914821718580581e-01,-1.028081471613660203e-01,2.518889691428847222e-01,-2.445295698905794457e-04,-3.873908582737317294e-03,-5.704902046907538160e-03,3.532621562480926514e-01
2.549715465060053976e-01,-6.193329237169920010e-02,2.673424759084596092e-01,4.848514997519329239e-03,3.596554398939725075e-03,7.754638956575504033e-03,3.237157166004180908e-01
2.194692390648368963e-01,-1.397685754370099065e-01,1.647832808027006046e-01,-7.097722868329543570e-03,3.931000727937626615e-02,6.567587981880621678e-03,3.425105214118957520e-01
2.437987585973988569e-01,-1.374723019358618514e-01,1.490669559329921290e-01,-9.051013061481427702e-03,2.843932355196999648e-02,1.155347843465458040e-02,3.482755124568939209e-01
2.630147372584740739e-01,-1.254618384206748205e-01,1.770440451751362498e-01,-1.000130869145559459e-02,4.414102236199349272e-02,5.642770760713533042e-03,3.621440231800079346e-01
2.402012721704214482e-01,-1.202625749254057075e-01,2.001292871325518474e-01,-1.195129877639312943e-02,2.131204105084525541e-02,2.033145979885163379e-02,3.465929329395294189e-01
2.580829100315671365e-01,-1.149761228317124073e-01,1.697009609059688673e-01,-4.427964229940226093e-03,1.928523676396748723e-02,3.437909784777933454e-03,3.394447863101959229e-01
2.411060583346376074e-01,-1.285636175962693861e-01,2.410859799792836322e-01,6.164887291711412809e-03,-3.496877522987437877e-03,-5.075982157272489019e-03,3.699679076671600342e-01
1.851183857688847301e-01,-1.585925502232921058e-01,2.135917383466124919e-01,-8.460053761965413005e-03,3.410661484541587657e-02,5.252306219740878260e-03,3.640354275703430176e-01
2.184862644819131616e-01,-1.286350453518595449e-01,1.563475034394355423e-01,-2.838826195188606620e-03,3.718964077786993810e-02,7.359553899807687576e-04,3.270470201969146729e-01
2.105244946401567119e-01,-1.332083064881616208e-01,1.525118869426306256e-01,-5.804677016443257620e-03,5.641554366483903654e-02,2.264022724033014182e-03,3.335288166999816895e-01
2.379524514114428890e-01,-1.531295890584717379e-01,1.200374301993678561e-01,-1.242586178095063908e-02,-3.013277571907511249e-02,-1.386206372400758391e-02,3.528431653976440430e-01
2.571817116686363480e-01,-1.283693722067947296e-01,1.888425852057683541e-01,-1.206611928102213627e-02,-1.387661037296235474e-02,-2.266643843637098504e-02,3.598991632461547852e-01
2.049725184971749048e-01,-1.434563267418210997e-01,1.788713340766632243e-01,-9.570472091027782541e-03,-4.733323353816077522e-02,-1.390636430405364950e-02,3.472258150577545166e-01
1.725983413910729403e-01,-1.453585073047577447e-01,1.834311411168433326e-01,1.452349276961679633e-02,-5.622226507642041904e-02,1.045916959920779182e-02,3.392669856548309326e-01
2.272914000356653363e-01,-1.387232465572767470e-01,2.314307800996923403e-01,6.550724649706174234e-03,-3.152880253147433837e-03,8.334602507505140326e-03,3.685998916625976562e-01
2.259151151073289510e-01,-1.371209955356825216e-01,2.349684071341107683e-01,6.514583285243111255e-03,-1.266715594601195826e-03,6.676929184787998121e-03,3.680077791213989258e-01
2.265054811483404318e-01,-1.395035519283465697e-01,2.300926882946401353e-01,1.242612154966045088e-02,-6.747209924038648221e-03,8.048666636368370653e-03,3.688937127590179443e-01
1.942759220823898625e-01,-1.384508421982894866e-01,2.473062922242401651e-01,1.200300168195867975e-02,-1.299002980635060277e-02,8.212418881813803376e-03,3.637371361255645752e-01
2.022693089728296034e-01,-1.452575122842146849e-01,2.744608057358170483e-01,1.893614165194285395e-02,-2.262818811919721854e-02,9.730173003323978193e-03,3.923912048339843750e-01
1.562169357445597206e-01,-1.441698463967112098e-01,2.598748548420055093e-01,-2.379436160823519136e-02,-4.232738035685976868e-02,-1.240217584282685484e-02,3.736969828605651855e-01
1.508265585289201294e-01,-1.204712759152815338e-01,2.701860355875563835e-01,3.928584983428554459e-03,-5.502855577058653191e-02,-7.590623730266690336e-03,3.599093556404113770e-01
2.220208718146025606e-01,-1.101942397985686828e-01,2.134074644767331441e-01,-1.070274380742838351e-02,-3.171952743101091876e-02,-1.316630199493875296e-02,3.338587284088134766e-01
2.125463658695077029e-01,-1.127366961955499902e-01,2.103649535760424572e-01,1.515378701511562766e-03,-3.974584461328006801e-02,3.857770404620425330e-04,3.314374387264251709e-01
1.768740525931602470e-01,-1.184380130719652341e-01,2.236931091574585473e-01,5.862509176159319026e-03,-3.310900694852399184e-02,7.017385636363275558e-03,3.267520964145660400e-01
1.905807323965756361e-01,-1.536554045382373945e-01,2.008692213983823138e-01,1.703295771373786530e-02,-6.076873265359197807e-02,6.045775401712818152e-03,3.663394153118133545e-01
1.609558371728067039e-01,-1.242556563580410056e-01,2.571519159795134790e-01,-2.073678153353384485e-02,-4.641284384563712506e-02,-2.549312030638650750e-02,3.574041128158569336e-01
1.924003978717658270e-01,-1.400002646782769755e-01,2.033549308551599322e-01,-1.293812968718349200e-02,4.709941974379971974e-02,1.028736223500419968e-02,3.488928675651550293e-01
1.843712189930630796e-01,-1.629652638851121216e-01,1.870163180090333166e-01,-1.017019892323517936e-02,4.579157506219364016e-02,3.300834634808122448e-02,3.625436723232269287e-01
2.449230327348762837e-01,-1.157457871267984773e-01,2.046126041018199726e-01,-5.415215131455508070e-03,2.673270677014954327e-02,1.677654013413168790e-02,3.467628359794616699e-01
2.453120888849416037e-01,-1.166154632201154562e-01,2.486539953453246465e-01,-7.112068963844568430e-03,-6.222798518338368626e-03,9.349951435050608828e-03,3.643383383750915527e-01
1.668242208793954129e-01,-1.500232080652060818e-01,1.634419886171543101e-01,-5.487598410623443015e-03,6.979536273803435553e-02,5.154486797215442756e-03,3.378110527992248535e-01
2.373975917891933962e-01,-1.346723652245420122e-01,1.615614947631721643e-01,-2.522493126964574055e-03,6.059498911881077560e-02,9.190412477446559952e-03,3.567332029342651367e-01
2.407089176546472475e-01,-1.339531866267174576e-01,2.387213794710583148e-01,3.237620190948118076e-03,3.198473528171096557e-03,4.173740734297758451e-03,3.738253414630889893e-01
2.423727858989762063e-01,-1.331036227323735277e-01,2.379924368444715499e-01,1.650984033381869189e-03,3.678031276779719378e-03,2.689058389999031580e-03,3.733998537063598633e-01
2.412552565900779600e-01,-1.291272315277738336e-01,2.433427933308084934e-01,-1.888958418030242626e-03,5.016468057483327615e-03,-1.980900142422360212e-03,3.715625107288360596e-01
2.450040243957812836e-01,-1.321865883010363285e-01,2.395768168737962278e-01,1.305642508203059800e-03,5.532825406584850753e-03,3.066102503744022427e-03,3.746735453605651855e-01
2.203051558824631051e-01,-1.371990554919827743e-01,2.375811717111849797e-01,1.011271222309799607e-02,-4.901710415824426202e-03,1.024445399505634346e-02,3.673931062221527100e-01
2.548318370005885347e-01,-1.304460526110438057e-01,2.327195621574043027e-01,-9.505737812868630260e-05,3.428690077547503871e-03,7.359827899489581986e-03,3.749752342700958252e-01
2.783721948925326206e-01,-1.232015685461946841e-01,2.213581117465082682e-01,-7.646340691220850257e-03,-1.648471823863594671e-02,4.261448312281452579e-03,3.777060508728027344e-01
2.361806532534606595e-01,-1.484252220232716302e-01,1.760316426040595128e-01,9.644647427397175926e-03,-2.542913230905330044e-02,2.531335188634431174e-02,3.640703260898590088e-01
2.345933441179641199e-01,-1.465139515348277688e-01,1.697754400564849830e-01,1.487324972401985780e-02,-1.972985747656226183e-02,2.438416988663612978e-02,3.582691252231597900e-01
2.490267986406589640e-01,-1.321507553290439119e-01,1.413305117894216312e-01,-6.062798603628804378e-03,-7.041997822750351022e-02,1.517131614923185844e-03,3.617146909236907959e-01
2.289533259609370930e-01,-1.191014717271410145e-01,1.907602809370185781e-01,9.966385357128909259e-03,-3.656370802269032216e-02,7.946483582632255654e-03,3.373510241508483887e-01
2.143727128803458171e-01,-1.355206533170421057e-01,2.023851367360878228e-01,1.112487516744438583e-02,-2.356361771287002194e-02,1.129632797559787169e-02,3.475551009178161621e-01
2.291575968910998795e-01,-1.346852562707457346e-01,1.909218312316578736e-01,8.076308636110585137e-03,-4.124961478607070547e-02,7.174103828964606411e-03,3.540995121002197266e-01
2.332599788713152211e-01,-1.348156354282291636e-01,2.008489441695564537e-01,1.166752540806667094e-03,-2.728807286443712260e-02,8.800246579520052889e-03,3.564698398113250732e-01
2.554567477455077507e-01,-1.334411933113755500e-01,1.999564574772321190e-01,1.213503167230829335e-02,-3.330149092713545478e-02,1.734604767800215080e-02,3.706876635551452637e-01
2.253341834612735406e-01,-1.290858647890315569e-01,2.105895712210485993e-01,1.378070421788015268e-02,-4.282629762529224782e-02,1.764929701607612783e-02,3.572277724742889404e-01
2.449422608698332837e-01,-1.356508779911893559e-01,2.450950787205631864e-01,8.283619718494422907e-04,5.873649449699215250e-03,7.360259831488383427e-04,3.808103203773498535e-01
2.317132470912665887e-01,-1.378640862775232234e-01,2.258667005718872356e-01,4.346222773682149984e-04,-4.574695456322174641e-02,1.655061040726045832e-02,3.762466311454772949e-01
2.404981626055880672e-01,-1.295477908575790038e-01,2.098425655154061709e-01,2.142548489466197803e-03,-3.202985654705449436e-02,7.994002267422032487e-03,3.602957427501678467e-01
2.403201727720307712e-01,-6.198839974451980650e-02,2.393192301403182509e-01,-7.655216009137207761e-03,1.852582307967583263e-03,3.285102994517038414e-04,3.021180331707000732e-01
2.562564393486883030e-01,-6.741500146521509085e-02,2.418960576885070823e-01,-1.259188504937197410e-02,-4.157613578987117038e-03,4.381118091163439462e-03,3.176577985286712646e-01
2.783352143072274076e-01,-1.313328874292121751e-02,2.832194742270718324e-01,-3.100966246557410738e-02,-7.561821871084730209e-04,4.434172836206051239e-04,2.988117337226867676e-01
2.442612125339974072e-01,-6.175247289359236946e-02,2.385932402398319163e-01,2.131258845090870570e-03,-8.679569121951185087e-03,1.001605599808706726e-02,3.041095435619354248e-01
2.442654705427255435e-01,-2.936315322455121390e-02,2.468018021055884414e-01,-1.311832217364172423e-02,-7.648790602212399668e-03,8.021783741653486233e-03,2.765102088451385498e-01
2.528233819772591762e-01,1.263999162432510870e-02,2.584175667350816497e-01,-9.253048372580986725e-03,-5.021789547404293362e-03,1.010850340658202805e-02,2.443400174379348755e-01
2.647309133836863726e-01,-5.992738128193231262e-04,2.742181312123170844e-01,-9.321370609392698459e-03,8.939078889437101702e-03,-1.654996722872282416e-02,2.726342678070068359e-01
2.415330670819132441e-01,-1.319807948519371998e-01,2.291690484914314929e-01,5.612951430582155139e-04,3.146854380353903032e-03,-1.905575072536738615e-03,3.675444126129150391e-01
2.371529725650426412e-01,-1.383490278295319287e-01,2.266514495819189623e-01,1.115106785417073433e-03,-7.007876615465848114e-03,-1.587781332837121277e-04,3.705669045448303223e-01
2.381718870039227776e-01,-1.310036502026047378e-01,2.326337879609742532e-01,5.501350499081411084e-03,3.957487542217922455e-03,-6.123348751753276628e-03,3.667792081832885742e-01
2.412559737556240758e-01,-1.306335018625834343e-01,2.406314528309556056e-01,3.074753063420646720e-03,-9.636076645187385435e-04,-2.841726010639207545e-03,3.716521263122558594e-01
2.464707981712371820e-01,-1.176243510621504257e-01,2.345941571173212337e-01,2.827422961396008384e-03,-5.586389412027429301e-03,-7.035835787507225061e-03,3.586756587028503418e-01
2.361149156413609174e-01,-1.185297169579775933e-01,2.538455190953539664e-01,-2.957734764941039821e-04,3.401570767259342893e-03,4.321330109225749068e-03,3.639591336250305176e-01
2.410740422518194981e-01,-1.378156782991341589e-01,2.409394855461651774e-01,2.207986255411697758e-03,-4.531352984049551690e-03,-4.078082882046959144e-03,3.789888918399810791e-01
2.393580684830040051e-01,-9.383610294452951472e-02,2.554899567817755512e-01,-2.780162074855365399e-05,1.427617135416865170e-03,9.197215275288533193e-03,3.419262170791625977e-01
2.363906775603601407e-01,-1.037458833133863279e-01,2.285377284885063420e-01,4.378204049121768408e-03,-1.075321578317298826e-02,1.150639614169198313e-02,3.374686241149902344e-01
2.353038341467009742e-01,-1.285026587182735991e-01,2.431636663578746749e-01,2.117281273989585731e-03,-2.976820308810679966e-03,-1.501167822097438384e-03,3.678629994392395020e-01
2.434988963994213496e-01,-1.325798542473279884e-01,2.392171749922674395e-01,-1.155341680201372491e-03,2.251114730526828939e-03,-3.205171887444167346e-03,3.740231692790985107e-01
2.153826553429464830e-01,-1.319553719885013243e-01,2.296702015436774547e-01,3.223459188903827176e-03,8.905208703481350390e-04,-7.968382204286254128e-03,3.550133705139160156e-01
2.168917663355902636e-01,-1.351485564660215299e-01,2.334999580883928560e-01,-1.159550044705331441e-02,-3.818584103541665126e-03,-1.055830136718072070e-02,3.617133200168609619e-01
2.480928231579704879e-01,-9.350759146588838444e-02,2.402221578891403642e-01,7.795963876469169315e-03,2.252502020231218153e-03,5.560466999083946236e-04,3.380275964736938477e-01
2.502837904103050737e-01,-1.329298116143102781e-01,2.392325758687431914e-01,1.991333539283809961e-03,6.520180045583353484e-03,-3.305733296202494325e-03,3.780370950698852539e-01
2.566424936823490377e-01,-6.260723045984978308e-02,2.572147334890144688e-01,2.173664824348730401e-02,3.723554303321001575e-03,-1.305546181453206590e-02,3.226046860218048096e-01
2.703860260492423340e-01,-2.301502927493595529e-02,2.986966511187920115e-01,-1.931340235253777710e-02,7.373486275280274546e-03,-9.691403303568957642e-03,3.110561668872833252e-01
2.201972671726532549e-01,-1.215972869903743786e-01,2.608904171424903939e-01,-7.877425815817902619e-05,2.312198323771543114e-03,2.133623803363240805e-03,3.638926446437835693e-01
2.460779678914937763e-01,-1.299234720673659860e-01,2.402234731770035436e-01,2.840430091767784469e-03,2.839025333470022224e-03,2.660984795919691618e-03,3.732019364833831787e-01
2.388283342593078284e-01,-1.292069876060821243e-01,2.381479080268349979e-01,2.040711112938990365e-03,-1.816707399184150449e-03,-5.608083906261721301e-04,3.677273094654083252e-01
2.188558313293123558e-01,-1.294370013904608263e-01,2.360113419927316047e-01,-5.447780545504300742e-03,-2.808100467905386101e-04,2.150868229388090778e-03,3.573240935802459717e-01
2.196058714694857361e-01,-1.747330607446241357e-01,2.495733628388130398e-01,-1.812507636259870405e-03,4.951125748163785496e-04,4.566114849012532610e-04,4.101582765579223633e-01
2.218317836263314358e-01,-1.224934960910243620e-01,2.236476909474942321e-01,1.695124394895833591e-03,7.257446996202320368e-04,-4.464790875212992414e-04,3.452524542808532715e-01
2.489556743954136064e-01,-1.176604179979548748e-01,1.683192412260181292e-01,4.429511351149040960e-03,-1.929027472425881573e-02,5.317765220257273696e-03,3.355697095394134521e-01
2.163825990654394404e-01,-1.321022600349997800e-01,2.224270783864446821e-01,9.585879148341133055e-03,1.114745362786967973e-02,-9.923636102200327630e-03,3.528860211372375488e-01
2.410426000054999296e-01,-1.145848816581515467e-01,2.115372534737676169e-01,9.671126061617860495e-03,-1.268707997213887502e-02,1.626541392805042757e-02,3.441013395786285400e-01
2.205516742166883093e-01,-1.210352801803299405e-01,1.862957558699725180e-01,4.347877297675868105e-04,-6.950088839977648647e-02,6.376094875094973601e-03,3.475160300731658936e-01
2.274072687082133171e-01,-1.504990169554022428e-01,1.241794797980240173e-01,1.394355008273029557e-02,-4.220494874957167464e-02,1.609056926661069434e-02,3.480840027332305908e-01
1.725675804077894671e-01,-1.610092833310647897e-01,1.989180588581321851e-01,6.215840205422667845e-03,-4.903201370795710196e-02,7.822961462522671008e-03,3.581475913524627686e-01
2.244484290876383736e-01,-1.148207279929141650e-01,2.206221789415179213e-01,5.884796969240486779e-03,-2.587135558130692140e-02,6.240376129736189409e-03,3.406593203544616699e-01
2.195018454517329576e-01,-1.289077270829538380e-01,1.950505139769646845e-01,5.877612160140350574e-03,-2.840734621200354318e-02,1.351483271780761809e-02,3.413803577423095703e-01
3.929488603009450021e-01,-4.651331880105544214e-02,2.122833883814767009e-01,1.066416997410798637e-03,-2.488336426246181080e-02,-8.145366202832803743e-03,3.852679133415222168e-01
2.681154171314181767e-01,-1.309935923889874454e-01,1.804902217586165092e-01,-2.567146885027787352e-03,4.783255283571317268e-02,-3.009577398036329676e-02,3.762912154197692871e-01
2.672509419230652550e-01,-1.287344971988286790e-01,2.254377352887131369e-01,4.228152146727879625e-03,1.032975456360900497e-02,-9.455444834453166636e-03,3.776735961437225342e-01
2.525679811419739851e-01,-1.175049827944289749e-01,2.115141277176716961e-01,1.221254415544065219e-02,1.597760707992040494e-02,-3.403386593707207960e-03,3.531211316585540771e-01
2.637365667982122241e-01,-1.172694500387325700e-01,2.384689652110755786e-01,5.138938660899986660e-03,2.659532683686206822e-02,-1.975913472188193382e-02,3.735630512237548828e-01
2.562773613476985735e-01,-1.466113363509063128e-01,1.816734079056053774e-01,2.074720578517878951e-03,7.812492073568069045e-03,-2.129309989653080035e-02,3.733418881893157959e-01
2.128846117353869749e-01,-5.809832534183548280e-02,2.796966668855838112e-01,3.889096483709508084e-02,5.240072935212121419e-03,1.269759210851235075e-02,3.179687261581420898e-01
1.753333076767168430e-01,-6.148124438484725562e-02,3.722679041975706649e-01,2.477085047508112425e-03,3.293378745281078102e-02,-6.241005497363388312e-03,3.806448578834533691e-01
2.706252141072550410e-01,-8.122214630069227170e-02,2.810581182326808980e-01,-1.441922702201123979e-02,-1.097031494515754609e-02,-1.641062826377207972e-03,3.585653007030487061e-01
2.443796481353962269e-01,-1.049920633846276874e-01,2.737332731219173088e-01,-2.392464630935478911e-02,3.580334383019661681e-03,3.147626912635025868e-03,3.673729598522186279e-01
2.188505553720490604e-01,-1.270371645582224762e-01,2.493446641751830284e-01,9.900491656691861458e-03,8.639776065532026039e-03,-2.480113596806320445e-03,3.628390729427337646e-01
2.225486583108178262e-01,-1.343201497615044149e-01,2.468939229452767337e-01,8.564427168739263338e-03,3.101710415962055743e-03,-6.059237578937929150e-03,3.701285719871520996e-01
2.272309793861538862e-01,-1.018673337395135936e-01,2.737326980477300387e-01,-8.109033807338002523e-04,5.127686088965269836e-04,-2.574934930579188003e-03,3.546750545501708984e-01
2.335899303221744827e-01,-1.313077908402432437e-01,2.027998497585853099e-01,-1.226769149265982337e-02,-1.174547545559594293e-02,-1.794938537368585135e-02,3.531218469142913818e-01
2.488844033979955572e-01,-1.331421844664087417e-01,1.449690220305632771e-01,-3.046641787018393270e-03,-2.360497141851151601e-02,-2.103761880787290151e-02,3.465132713317871094e-01
2.426106078765201124e-01,-1.357419837209367652e-01,1.212129573954351669e-01,-2.911971657737494421e-03,-1.495739025134181811e-02,-1.126779232867868713e-02,3.362059593200683594e-01
2.434156494426648054e-01,-1.363896408048325126e-01,2.255506157015827462e-01,-9.784458523223021550e-03,-1.678855277377707973e-03,-1.099885424527038968e-02,3.720813989639282227e-01
2.307160121301014277e-01,-1.349983474794672622e-01,2.336796549801372080e-01,-1.684504230905713856e-02,-1.614050217576552815e-02,-1.057937765742415770e-02,3.698759377002716064e-01
2.439263838788399696e-01,-1.186497832488311727e-01,2.102438641478061032e-01,-1.689114758536097022e-02,-2.418324164595922129e-02,-1.418471500745092928e-02,3.515644371509552002e-01
2.573654160026204729e-01,-1.333941173830841265e-01,1.448050915968687180e-01,-9.497194100198351821e-03,-5.640411793758823983e-02,-1.644707206130980454e-02,3.633252084255218506e-01
6.052268100351233804e-02,-2.362237833343618643e-01,2.633948620809377084e-01,2.083516241628305746e-02,3.405354000670907794e-02,2.700506551754840862e-02,4.431548714637756348e-01
2.690720260822742627e-01,-3.693424055073113443e-02,2.790570900230949225e-01,-7.056702852520950302e-03,-7.913756463553111783e-03,-9.678501737923169562e-03,3.121110796928405762e-01
1.111331641076637594e-01,-1.012859471230187075e-01,2.852814391497107138e-01,-1.011625119789894868e-02,-2.910078789511289215e-03,1.709027206555073855e-02,3.371210098266601562e-01
1.472411584616412084e-01,-1.515190973983153166e-01,2.702657522643940879e-01,-2.277414159773424526e-02,2.032406431969359384e-02,-1.462281415367936918e-02,3.802423775196075439e-01
1.053690975492022480e-01,-1.248242435746896584e-01,2.969627767073266256e-01,-2.370828732772424507e-02,-2.102673797988780305e-02,-8.534868695589193158e-03,3.701781332492828369e-01
1.676935269392728911e-01,-1.479801715135358742e-01,2.976747747880915118e-01,-2.456120461355216361e-02,-1.122959306300801846e-02,4.553984585640935556e-03,3.997836410999298096e-01
1.624179692692847010e-01,-1.708328658832711233e-01,2.616680725383986328e-01,-2.229969642341943920e-02,-1.031101034293116503e-02,-9.302950269305790276e-03,3.950345516204833984e-01
2.550311849784938634e-01,1.349993985420702702e-02,2.568591646318567623e-01,-2.544284655771152093e-02,6.872650825356506343e-03,-9.405384699257543502e-03,2.472474426031112671e-01
2.479237803375080873e-01,-8.842714366744017229e-02,2.385702464123339861e-01,-1.735419955384472253e-03,5.103412444242366947e-04,9.533192315645609271e-04,3.317919671535491943e-01
2.636636863158263178e-01,-1.367221672087384210e-01,1.762920669499146165e-01,-9.273352439939012634e-03,-2.000193484728056761e-02,-3.824602538111337297e-02,3.725678026676177979e-01
2.453443555784869390e-01,-1.335016432816697185e-01,2.297975108597299088e-01,-1.668199625130994913e-03,-2.847015249641609083e-03,-1.308798268105094455e-02,3.720519840717315674e-01
1.077980487976619439e-01,-1.352619502535709062e-01,2.440088179413704150e-01,1.043156609295181267e-02,3.091155702421404666e-02,-2.834441785902602155e-03,3.375737667083740234e-01
1.055929590218769309e-01,-1.319193702072337104e-01,2.621372063474499137e-01,-9.194410302771018409e-03,3.877794338095083126e-03,-1.297359896601025077e-03,3.440976142883300781e-01
8.688207756946496330e-02,-1.344585419643751223e-01,2.596441665427186019e-01,5.030614055311246127e-03,5.385324500107657904e-03,8.372222781369940015e-04,3.424072265625000000e-01
9.089432481764042615e-02,-1.660659591043930905e-01,2.981872746798548968e-01,-1.051499712149573003e-02,5.883894607196087654e-04,-4.464793059964430010e-03,4.033082425594329834e-01
7.742655692987809868e-02,-1.452718125568272511e-01,2.473555900755220471e-01,2.488429496160080370e-03,1.496903528066247969e-02,3.841693386601572995e-03,3.421234190464019775e-01
7.228415215272199212e-02,-1.476255824873962952e-01,2.576077828384381041e-01,-8.020308153122733541e-03,2.685792697406567259e-02,1.575807844380277753e-03,3.547168970108032227e-01
9.855663500390740572e-02,-1.491832649025605639e-01,3.051703969537535865e-01,-6.447447310759635286e-03,4.549343487620975679e-03,2.575652941128015253e-03,3.942809700965881348e-01
1.952226848682587779e-01,-1.460219696965105451e-01,2.515681480959703342e-01,1.988816934908830061e-02,5.573647004892681722e-02,-1.387240083155171291e-02,3.872130215167999268e-01
9.531270431990758463e-02,-1.206427889633340800e-01,3.090591867657382363e-01,3.709375691061835793e-03,1.235744032971487728e-03,1.673635671293234031e-03,3.722073733806610107e-01
3.614642590824193036e-01,7.110620297399741774e-02,4.251420993848123997e-01,-1.106133299112136347e-03,2.345477348171699436e-02,-3.872812531314226772e-03,3.294709324836730957e-01
2.754820047660095916e-01,5.714997277867908676e-02,3.021691856871887572e-01,1.047512223541311772e-02,1.893875375238436836e-03,-9.609046749273167376e-03,2.341467440128326416e-01
2.603883607365570230e-01,1.391035128106152263e-02,2.577430391508950813e-01,1.038494396006113540e-02,6.318846329652195656e-03,1.115777748043712131e-02,2.468262612819671631e-01
2.782108076547570863e-01,3.043842444096803157e-02,2.893656474354313612e-01,1.003923035184260855e-02,4.727603704609265392e-03,1.750872918929938758e-03,2.542794644832611084e-01
2.536877896474996064e-01,1.806731521646759431e-03,3.178343120509619091e-01,-1.966374261416621236e-02,1.292106783602786982e-02,-1.666905334832733537e-02,2.936163544654846191e-01
2.916468538085474904e-01,1.905566276201103859e-02,2.591460717485081777e-01,-3.058494972288256560e-03,-7.908900536258207936e-03,9.627926701484049860e-03,2.588370740413665771e-01
3.813085887765146342e-01,7.305865271141662176e-02,4.770892805120844904e-01,-4.347892308910261856e-03,1.210242645440204844e-02,-1.422103152186251010e-02,3.671773374080657959e-01
4.345262562308805920e-01,6.809298240544542358e-02,3.746929151212419207e-01,-1.765508182329341563e-02,-2.700995730858126581e-02,9.565044525719719470e-03,3.454368710517883301e-01
2.458579900564087373e-01,-1.480386444278245228e-01,1.813935819643954228e-01,2.477411794115261506e-03,-5.033762164830906521e-03,-2.646850073258173036e-02,3.689364194869995117e-01
2.625850326896569387e-01,-1.264224814678457931e-01,1.915570673131914980e-01,-2.385344887053565330e-03,-8.720127555609719083e-03,-3.064659609238923679e-02,3.630485236644744873e-01
2.494485634257878615e-01,-1.480406423291803497e-01,1.821019932021017695e-01,1.154923440893341124e-03,-4.542222083771284454e-03,-2.679622899335834876e-02,3.714615702629089355e-01
2.575493597297175974e-01,-1.235881964904586572e-01,1.789811131267785016e-01,1.484167698694626239e-04,9.882829880667486078e-03,-1.352112386087767938e-02,3.497642576694488525e-01
2.507623111118754688e-01,-1.519569042810025583e-01,1.393414886592675705e-01,-7.031727612822298752e-03,1.733780464022973344e-03,-2.789370290460391200e-02,3.636173605918884277e-01
2.557040404735844152e-01,-1.437362895134274010e-01,1.764531806004633607e-01,1.220970948884885811e-02,1.894489301248620389e-02,-2.501027965434333283e-02,3.709147870540618896e-01
2.402196842269211374e-01,-1.404595948539986705e-01,2.370143023639792457e-01,-3.912050743264611024e-04,1.033433329723446731e-03,-1.185824091126881901e-03,3.790971338748931885e-01
2.531842614150813242e-01,-8.753534728322534542e-02,2.503897490408470428e-01,4.739469397026315964e-03,3.784162728589876568e-03,2.741654714642913476e-03,3.395267426967620850e-01
2.456248318406061004e-01,-1.361766840587472494e-01,2.365635320432905309e-01,2.396900391787770750e-05,5.113368294807291099e-05,-9.247207216968680345e-05,3.773525059223175049e-01
2.468608567723922231e-01,-1.229550385905055360e-01,2.390596158002705474e-01,7.837957060100037140e-04,-2.517566096483571944e-04,-1.013928931695107661e-03,3.659846186637878418e-01
2.459884559854312036e-01,-1.253134117472373132e-01,2.460904587879728100e-01,3.962640219839527029e-04,-9.814481051287043956e-03,-1.998941647627840580e-05,3.717423975467681885e-01
2.502647145984637778e-01,-1.038583589996211198e-01,2.475396978879511600e-01,7.711291007535777016e-03,-2.615237967631566310e-03,1.716157003311739827e-03,3.530627787113189697e-01
2.483134641919810259e-01,-1.340123795487845326e-01,2.374520894116170511e-01,2.267765063968491673e-03,-1.957942984756196568e-03,-9.295759974755521751e-03,3.773918449878692627e-01
2.493660905719916054e-01,-1.002321024976781660e-01,2.395635245597881879e-01,7.274441670822562843e-03,5.177575162047807263e-04,-1.429984694913628189e-03,3.450416326522827148e-01
2.519714287100008332e-01,-9.642935256954540679e-02,2.487361722091103733e-01,7.427004123236196492e-03,-1.849974844533353513e-03,-3.155692120426541332e-04,3.470481932163238525e-01
2.181721486594082049e-01,-1.467785111923538555e-01,2.376606801934169066e-01,-1.193991524052709016e-02,-5.286708127257331441e-02,1.179560154884795381e-04,3.866440951824188232e-01
2.209614133712229644e-01,-1.379264399000228458e-01,2.385784556241357102e-01,-1.071555057106685777e-02,-5.543913948260139821e-03,-7.263923270483792737e-03,3.688202202320098877e-01
2.384202682716884403e-01,-1.159968544272509672e-01,2.366204451966265054e-01,3.733879351510944328e-03,-1.573241886169312459e-02,3.620103095449214454e-03,3.546836972236633301e-01
1.675521693875081652e-01,-1.358641813915098528e-01,1.858939673158360728e-01,-2.777182903168283219e-03,-4.098230915836240107e-02,-2.459330466694429219e-03,3.210031688213348389e-01
2.499875865596099533e-01,-1.301772623925627204e-01,2.531237488558404913e-01,-5.822926729379464782e-03,-1.658357519596860390e-03,1.234514745045616054e-03,3.818925917148590088e-01
2.547910402952749953e-01,-8.752358331206383513e-02,2.386365380018144189e-01,1.328124485562785610e-02,-3.702988877946537024e-03,-1.728111325061594452e-03,3.353947103023529053e-01
2.740467687600415259e-01,-3.611326337088355265e-02,2.639442044058859516e-01,9.026829835114713596e-03,6.403617327992585685e-03,-1.184518504199951611e-02,3.065229058265686035e-01
2.544915457095663913e-01,-7.523952717092816100e-02,2.490960303770874962e-01,7.948492847863560321e-03,3.071646267983429209e-03,5.988009250508991022e-03,3.275637924671173096e-01
2.570131871323657058e-01,-7.784311654568468186e-02,2.467818600318086864e-01,8.383809240550417138e-03,6.053832156680968857e-03,3.369895185510840118e-03,3.303971588611602783e-01
2.484874866212260780e-01,-9.330658788429649353e-02,2.401538402818909346e-01,8.425252730583070865e-03,3.465942981838796098e-03,5.792913165248527764e-04,3.380743265151977539e-01
2.660876806942263917e-01,-3.595699877264654787e-02,2.590158579714810783e-01,2.591540148611679723e-02,6.350154913115664025e-03,-3.167724593197836463e-04,3.021275997161865234e-01
2.507534409974688239e-01,-6.488199696377816572e-02,2.495639345071362647e-01,5.786321211804885782e-03,-3.506313761687403197e-04,-3.149615813973580519e-03,3.152495324611663818e-01
2.797441605368653494e-01,8.218297177077060756e-03,2.687953505924175479e-01,-5.310242927849975411e-03,-4.952249673828284550e-03,-7.507281584046550035e-03,2.668342888355255127e-01
2.440014833198980160e-01,-7.039685285393321168e-02,2.584697472468998614e-01,2.019668797567334730e-03,-6.356936439064462402e-03,-1.214253385767662466e-02,3.227696418762207031e-01
2.993160782384859386e-01,2.984296981844036800e-02,2.978343023020939007e-01,-1.539623977632391220e-02,-1.573597006160283368e-03,-2.527943170087241002e-04,2.700692713260650635e-01
2.679749672889483736e-01,-1.185302874336194301e-02,2.643698961414785997e-01,3.319769113903389950e-03,-6.739087962019476609e-03,-3.748714385564148963e-03,2.784230113029479980e-01
2.859124172779248241e-01,-5.286311537935339810e-02,2.661209134161389711e-01,-5.442992452636553468e-04,1.192159055301707758e-02,-1.765382506937667600e-02,3.313878774642944336e-01
2.667525716866290253e-01,-6.733085903412361350e-02,2.554090324631492770e-01,8.600151106139267837e-03,-9.588244177206108401e-03,-1.370468271102946028e-02,3.301694691181182861e-01
2.279088805087063074e-01,-1.374846482621969734e-01,2.275427711265519126e-01,3.309650480382807670e-03,1.742797841702816092e-03,-1.604833427371831888e-03,3.652786612510681152e-01
2.822046340973031198e-01,5.877309814547121425e-03,2.709251436258461876e-01,-1.073422100470458433e-02,8.355405492471185136e-03,-1.759814733524755342e-02,2.735897898674011230e-01
2.466982559824759946e-01,-1.312483073186867244e-01,2.410693289372533021e-01,-6.085363145029022529e-04,8.418781567811754393e-03,-1.910602319655896168e-04,3.754486739635467529e-01
2.221402165806229401e-01,-1.405072469127573720e-01,2.514116858049731951e-01,1.121040815136000249e-02,-7.653913008537145853e-03,-9.180259044932001121e-04,3.788674175739288330e-01
2.488840527591161256e-01,-1.095196551602705126e-01,2.431242346583262770e-01,-2.831212521942822781e-03,-5.786345887979301231e-03,6.712373643879947401e-03,3.559237420558929443e-01
2.222385534250950478e-01,-1.373161868272672059e-01,2.240912787859130617e-01,-8.663561022487211924e-03,-1.032409759899971524e-02,-8.192532411102685513e-03,3.615182936191558838e-01
2.064715643845259629e-01,-1.318551749940629070e-01,2.309853258522942543e-01,6.377548465442621321e-03,2.541874372523478167e-03,-9.197974192656561965e-03,3.517879843711853027e-01
2.096300671934876736e-01,-1.187186153955748086e-01,2.429975504917370466e-01,1.084874044037495780e-02,7.251562894769652927e-03,-1.053915278041542627e-02,3.474571704864501953e-01
2.046001865448822121e-01,-1.252279987123911809e-01,2.322566842675062304e-01,9.397640137024612650e-03,1.183441508098606078e-02,-8.115921400720278039e-03,3.457688689231872559e-01
2.328094871410186784e-01,-1.275123459034023243e-01,2.436036110731400472e-01,7.148278929219748987e-03,5.497789109109689487e-03,-6.188225852136434654e-03,3.663284778594970703e-01
1.917910787531250105e-01,-1.288080547340065274e-01,2.336288970103992946e-01,1.025772080996992242e-02,2.117929150977115524e-02,-6.980161821397537145e-03,3.460561931133270264e-01
2.568388752621948434e-01,-1.262907194156435708e-01,1.166274709658691178e-01,-2.346829092579693840e-03,-6.696992634053350324e-03,9.613803168241008773e-04,3.359795212745666504e-01
2.749102111298982187e-01,-1.398158030211602010e-01,1.258183854563169057e-01,2.143857828223624546e-03,-5.629639445536611594e-03,1.043105431032861734e-02,3.644572198390960693e-01
2.636099678801393509e-01,-1.155536683383614482e-01,1.666085451769142023e-01,4.353689833361622219e-04,-1.811120935307533727e-03,9.028506337219518313e-03,3.415404558181762695e-01
2.541237023352586055e-01,-1.292046576061054719e-01,1.327642170522784770e-01,-3.362478940237743474e-03,4.388671105100488230e-04,1.114832187100844862e-02,3.399346768856048584e-01
2.801755441923421963e-01,-1.338821696521266258e-01,9.404196342462181613e-02,3.663993676244523857e-03,-1.161928695718028939e-02,3.656847341650293522e-04,3.598126769065856934e-01
2.810866370476008402e-01,-1.392612736607015678e-01,9.796262674939366921e-02,3.831172738753936807e-03,6.924336455096418352e-04,-2.275032087692461374e-02,3.672181665897369385e-01
2.995518743009369933e-01,-1.350982200259996935e-01,7.843332281212553325e-02,-2.374419611621477431e-03,-2.398194366781679354e-02,-4.501015382497689475e-03,3.788245022296905518e-01
2.661114876672948659e-01,-1.242490621199555806e-01,1.302546016903057824e-01,4.386204596123395865e-04,-1.529630287129723348e-02,9.776960132923324161e-04,3.442537784576416016e-01
2.582551367502426420e-01,-1.293187770918838020e-01,1.282109438644648269e-01,3.753254243748620819e-03,-1.140024396048461806e-02,6.965591093168360974e-08,3.422797918319702148e-01
2.636284193567892675e-01,-1.166768186882784497e-01,1.406652953227950642e-01,-2.300284002132137445e-03,-2.358815838303663683e-03,5.467853320930760649e-04,3.361873626708984375e-01
2.962217148935173960e-01,-2.076130968214261741e-01,3.188489895682682096e-02,1.388145477771163434e-02,9.662899198868273032e-02,-5.542447212672957195e-03,4.682126641273498535e-01
2.349353534769055840e-01,-1.413632964146017135e-01,1.400548087431213451e-01,-1.344378117557661111e-03,5.215812629255028171e-02,4.403719547755483715e-03,3.508911132812500000e-01
2.404305478895928105e-01,-1.266292558451669048e-01,1.519426847909177980e-01,7.438223510412305187e-03,1.654406314338124212e-02,-9.350552427076563172e-03,3.336645960807800293e-01
2.575719146860981912e-01,-1.397651825123232272e-01,1.311059950106973071e-01,1.552196105626465865e-02,3.911602758394107371e-02,-2.418793614393866323e-03,3.590979576110839844e-01
2.422354109816096668e-01,-1.290567124683719702e-01,1.394995509434976411e-01,-4.161014954696372510e-03,1.584897038003230119e-02,4.821690174710749344e-03,3.333807587623596191e-01
2.354842807557324669e-01,-1.288739297879115675e-01,1.360802485661088967e-01,9.918218172275815488e-04,1.986123729535621898e-02,-1.732217461294381471e-03,3.280468583106994629e-01
2.433943524457133634e-01,-1.313518185885068912e-01,2.423135595559270661e-01,-6.283647346408977735e-03,-2.398743079545673056e-03,3.991997769125959702e-03,3.744520843029022217e-01
2.385580266106588909e-01,-1.339164086888993133e-01,2.383428719488998593e-01,-2.878242278784087435e-03,-2.706443014276274824e-03,2.481442086971454714e-03,3.724545836448669434e-01
2.389474671424162144e-01,-1.340229991640223273e-01,2.488088691080235781e-01,-3.512201069239935351e-03,-7.280548802358553263e-03,-6.901529913214232530e-04,3.782587647438049316e-01
3.477626867140352629e-01,3.151717026671088662e-02,3.326193947985434107e-01,2.844130331784782209e-02,-3.685872309305906341e-02,-2.060794656658004181e-02,3.212911784648895264e-01
2.980397820205375470e-01,1.994992701173084471e-02,2.948301402149182682e-01,-1.480117069972061890e-02,-2.842151148917832285e-03,6.629069945684543282e-03,2.779658138751983643e-01
2.437782279087451209e-01,-1.308439521790668580e-01,2.242042169520545858e-01,7.861926283161863732e-03,3.585741180362776292e-03,2.840008668729935778e-03,3.655683994293212891e-01
2.546226702882883330e-01,-2.773033831317772702e-02,2.575032143908136395e-01,-1.051474184508000877e-02,-2.219376262943491968e-03,6.254959361942175923e-03,2.846202254295349121e-01
2.533283578671844394e-01,-5.781740506266014323e-02,2.533169273702580715e-01,1.983160518831021202e-04,-1.216798349998644705e-03,3.611468521738365675e-03,3.112102448940277100e-01
2.671455620033651446e-01,-2.445623055164036774e-02,2.651207254042756700e-01,-2.660498489056280572e-02,-3.082990481031173090e-03,1.063006396404487033e-02,2.948495149612426758e-01
2.525386901551753271e-01,-3.667315360827475001e-02,2.593467623611879769e-01,-2.148621384243158336e-02,2.487286703461939318e-03,3.250518826617028283e-03,2.951169908046722412e-01
2.132357998802143495e-01,-2.720186593916937290e-02,2.795669142210081004e-01,1.650020611246069691e-02,5.202750017827375770e-03,-4.005608202642502516e-03,2.812555730342864990e-01
2.794398715054409177e-01,-4.517059460964462092e-02,2.927580778590343491e-01,-2.569529416339309119e-02,9.725743665475253263e-04,6.279940579504482943e-03,3.346258401870727539e-01
2.254949629098030872e-01,-1.329595897042105124e-01,2.164544492969011635e-01,5.538915181504750623e-03,1.405987128688796850e-03,-2.814944595108784947e-03,3.541927933692932129e-01
2.037074660194330422e-01,-1.202117056660692157e-01,2.669212644627467212e-01,7.621493462854903728e-03,4.112517167536090465e-03,-1.564891308392297705e-03,3.600390553474426270e-01
2.022923898895092609e-01,-1.376200511264678572e-01,2.595971940087496987e-01,6.164372759570314192e-03,9.472188464086881213e-03,-1.131850702239853464e-02,3.729214668273925781e-01
2.309872858026604525e-01,-1.360866709407071717e-01,2.271264884770261561e-01,5.740110528253532587e-03,1.867916989633419981e-03,-2.105292203524476713e-03,3.653267025947570801e-01
2.247745084565564433e-01,-1.389647908302374391e-01,2.398265574014460944e-01,3.351404728638369794e-03,1.371707690197528421e-04,5.893451654231261251e-03,3.716797232627868652e-01
2.401222093826892445e-01,-1.348918654883821677e-01,2.323889525393922351e-01,-4.732920552637289932e-03,-1.399553440810688294e-03,1.923096210980691475e-03,3.713212311267852783e-01
2.320826139537949251e-01,-1.255742906360202693e-01,2.218801829350260102e-01,-6.046829424672363340e-03,4.900824197255044569e-03,4.307010560172868166e-03,3.530028164386749268e-01
2.373464175348746763e-01,-1.364736804126630010e-01,2.370336024377421857e-01,-3.053764318348202878e-03,-2.071889710166385269e-03,3.585624977689167835e-03,3.737700581550598145e-01
2.375182676689110428e-01,-1.272068628280775549e-01,2.354003739001966633e-01,-5.019244563914537424e-03,-6.996586906155242156e-04,7.726639814279028309e-03,3.640228211879730225e-01
2.333441068286706832e-01,-1.348889052740408490e-01,2.350447526302305579e-01,-3.186578271503359532e-03,-1.262725734865038311e-03,5.043507122192677009e-03,3.692373633384704590e-01
2.318739203209591593e-01,-1.359252034260134689e-01,2.294252724994713666e-01,-3.011279844779115103e-03,-2.729344373559808713e-04,4.309435590761278786e-03,3.666943013668060303e-01
2.077877175539140642e-01,-1.357665210714030790e-01,1.456332183670595581e-01,-4.541262475408489659e-05,-5.351495338463346102e-02,-1.914716708578226593e-03,3.303661644458770752e-01
2.055778365188502821e-01,-1.223290227455620938e-01,2.340398686370844805e-01,-1.078642357276729134e-03,-3.076647353520113853e-03,-6.222012970118128046e-03,3.432403206825256348e-01
2.433208733402984214e-01,-1.136676112461932342e-01,1.897995343836285098e-01,-6.696695264595987386e-03,-2.883862425066894414e-02,-6.473413942879740340e-03,3.375708162784576416e-01
2.276958938810163535e-01,-1.336590671044086409e-01,1.415466322130710108e-01,-1.084482152317370676e-02,-5.205435930143674506e-02,-1.182874947284508552e-02,3.402501940727233887e-01
2.311292677423862352e-01,-1.367591765929680736e-01,2.299739738363382746e-01,6.104451587096083875e-03,-1.238488337714899439e-04,-3.426980887152219785e-03,3.675123155117034912e-01
2.052595841600977633e-01,-1.529551487459928638e-01,1.453378351116457745e-01,2.271434044969691292e-03,-5.195128822341463226e-02,-1.325877394643650269e-03,3.443270623683929443e-01
2.482469714590024856e-01,-1.220713079166747400e-01,1.779980005703210022e-01,8.287696750757828513e-04,-1.738943506583373599e-02,2.930379911930639392e-03,3.420395553112030029e-01
2.169963342001811069e-01,-1.178301412016190264e-01,2.015267631751888056e-01,4.699125295186760629e-03,-3.733146297145716053e-02,7.443367176854201635e-04,3.337922692298889160e-01
2.449872884609338164e-01,-1.354996592893379925e-01,2.455563035730840005e-01,9.901139944837687029e-04,-6.095676277489289752e-03,-1.020655570772864199e-04,3.809220194816589355e-01
2.576062038733749060e-01,-1.093247163355968443e-01,2.512986553555137670e-01,-3.441218742883366596e-03,7.376676256597928215e-03,-5.164439054534520832e-03,3.642010986804962158e-01
1.814116860342253057e-01,-1.451313006306378939e-01,2.350636531335985047e-01,2.817184147215522766e-02,-1.019370265715307047e-02,7.474119801760525580e-03,3.604009151458740234e-01
2.007132251377344856e-01,-1.329905472456061055e-01,2.555475288195906414e-01,3.651607538389852088e-03,-2.085159227077963261e-03,1.572568586170448651e-03,3.643128871917724609e-01
2.424713684177279283e-01,-1.162060076405998787e-01,2.939771326047267985e-01,-1.168053050195052255e-02,-3.662594367738650214e-03,8.726587175810334232e-03,3.878843486309051514e-01
2.424708716335076675e-01,-1.011508139191377442e-01,2.563200788723655754e-01,4.642767405641158585e-03,-6.927958679822055973e-03,-4.424259945180827533e-03,3.511323630809783936e-01
2.204391766667542496e-01,-1.265814865588676397e-01,2.434650577258184456e-01,-3.026034662292236064e-04,-8.936299059921319621e-04,7.494343278801658507e-03,3.593259751796722412e-01
2.018457353171936031e-01,-1.320987153626455857e-01,2.457451425642917242e-01,1.290111593216378832e-02,-1.932380157057595610e-02,1.158523017910710953e-02,3.607328832149505615e-01
2.031289815448965586e-01,-1.360034691694241016e-01,2.361484855915542413e-01,1.399564614642766561e-02,-1.428648826585325778e-02,1.740598479344529145e-02,3.597331643104553223e-01
2.547872396609913159e-01,-1.287124830950663323e-01,2.380056227260638479e-01,-8.586143153739465243e-04,2.529901132251780689e-04,3.180116408896059538e-05,3.753935694694519043e-01
2.508451177042183566e-01,-1.240924211247517867e-01,1.234206854116315782e-01,-9.805983431263594981e-05,3.706155964702097325e-03,-1.152958577998665859e-05,3.302728831768035889e-01
1.225045906503175880e-01,-1.187480452609074033e-01,2.954181701393803761e-01,2.561172160775795036e-03,9.138515637190451277e-03,-5.625809089404641521e-04,3.606784641742706299e-01
5.488639314500680377e-02,-2.169703397200003492e-01,3.170366132669734105e-01,1.397280567270149480e-02,-4.368432278374319300e-02,1.402341230583034441e-02,4.698901772499084473e-01
9.263910997785496093e-02,-1.231046008995019259e-01,3.522251786724562295e-01,-4.152132889851766276e-03,-3.766401268176827050e-02,-1.630532905895082374e-02,4.183770716190338135e-01
1.157662239147508321e-02,-1.619747812549025001e-01,2.741771396616787815e-01,7.411073331676803003e-03,1.610072644709995351e-02,-6.408076458381489846e-04,3.815724253654479980e-01
4.996449502717877078e-02,-1.591653165974334927e-01,2.723061309738221691e-01,-1.357437113599984507e-02,-8.046302536662015142e-03,9.919094399236681736e-03,3.751153647899627686e-01
2.435002605817244148e-01,-1.164486752036744399e-01,2.516045229367193103e-01,-5.023461670157857275e-04,-6.626486420553993548e-03,-4.006216931035927117e-03,3.643167316913604736e-01
1.244615290856694589e-01,-1.389723993187022555e-01,2.622668007958282033e-01,-2.753478267262244109e-02,3.409944132380962611e-02,5.797812034031838389e-03,3.613225221633911133e-01
7.045452729516571422e-02,-1.775560820454874511e-01,2.337279755618276167e-01,1.374657509010298283e-02,7.428980255590326987e-02,-5.809791100988144844e-03,3.819504082202911377e-01
7.976491006610203494e-02,-1.907874900609990709e-01,2.430740568890783493e-01,-1.540150508070918869e-02,9.311212580944895623e-02,2.049981788689159146e-02,4.147699475288391113e-01
1.055298240851796493e-01,-1.473585411762667607e-01,2.407273499813942230e-01,7.600044184444435663e-03,8.794773401954418535e-02,1.483003965776998837e-03,3.739051520824432373e-01
4.569057814667151773e-02,-1.756114172148878216e-01,2.615789892335513844e-01,-8.879193585744777836e-03,5.134208867022586192e-02,-4.269360043981034782e-03,3.893046975135803223e-01
6.855177218040861553e-02,-1.862279157360907100e-01,3.039889296570599253e-01,1.001940353657803512e-02,4.771931442145403018e-02,6.915013716845201490e-03,4.331327378749847412e-01
2.061687973305010024e-01,-1.265596039334493383e-01,2.072049731098380421e-01,3.711490186889748050e-03,-1.177124092401597537e-02,4.057787235072825120e-03,3.340066373348236084e-01
1.722279799122280741e-01,-1.306940204176721132e-01,2.027417842534544046e-01,7.528972789410650658e-03,-3.476875885300671765e-02,8.981065720027993707e-03,3.255376517772674561e-01
2.078170249465574049e-01,-1.223009270893868211e-01,2.070330402771411449e-01,2.268951543796289202e-03,-1.039293762251095217e-02,2.506710583747799766e-03,3.302696049213409424e-01
2.281932643057252852e-01,-1.261350614043309504e-01,2.170971968373928973e-01,-9.297679672746660129e-03,-2.982704660386900283e-02,-1.495473958457075800e-02,3.540328741073608398e-01
2.398231232322839135e-01,-1.308448105949120976e-01,2.370244204977374758e-01,-6.773978320382114879e-03,1.716131362862329673e-03,-2.380678133481996077e-03,3.694978356361389160e-01
2.244312854253774914e-01,-1.400699975261644470e-01,2.257555498864951549e-01,-6.195149814952434150e-03,-3.352237899984823744e-03,-6.450672164765308345e-03,3.655397593975067139e-01
2.492988089002299845e-01,-1.085952986547144838e-01,2.510627529350507037e-01,7.899438367622593771e-03,5.460921143422566883e-03,2.279453954157279957e-03,3.591863811016082764e-01
2.495453787726048533e-01,-1.062428065015603440e-01,2.497231360396153788e-01,5.019363905436956090e-03,3.286132287933125461e-03,3.101867458641589022e-03,3.560692965984344482e-01
2.405941817750828493e-01,-1.386795192367218932e-01,2.430059138386256312e-01,-9.057279062764413136e-04,4.032582194923627419e-03,-2.483731397496169967e-03,3.805769383907318115e-01
2.444609290981683558e-01,-1.106669360858255347e-01,2.408762118136810182e-01,3.407209003604674304e-03,6.816357798212046258e-03,5.307802535968523389e-03,3.537150621414184570e-01
2.256771071677493024e-01,-1.391755696520751151e-01,2.410396692860675150e-01,-8.976105940558837260e-03,3.007763493092431139e-03,-6.267744604233945437e-03,3.732897937297821045e-01
2.100726326016832124e-01,-1.183057517009337423e-01,2.138864328483203181e-01,3.012137296366608138e-03,5.156095967709142282e-03,-1.414300592682092485e-03,3.304727673530578613e-01
2.041151273025191004e-01,-1.207577292902755894e-01,2.107380492154294627e-01,2.262317368240085143e-04,4.033223741409967117e-03,1.608764574273979439e-05,3.283089995384216309e-01
2.134751971704356988e-01,-1.134095664486820254e-01,2.125828834950215518e-01,-1.464830166137978239e-03,9.742641839400554074e-03,2.823224475101990347e-04,3.268856108188629150e-01
2.185749451699935952e-01,-1.160549364459933785e-01,2.022750315793623854e-01,2.585850559456308751e-03,1.702807488077268810e-02,-3.149477952185884746e-03,3.281891047954559326e-01
1.875564058525115985e-01,-1.224074292870780262e-01,2.128300793518039247e-01,6.060584967694445128e-05,9.448073194313474574e-03,1.954465082320968466e-03,3.237738907337188721e-01
1.933637074829827052e-01,-1.275870155373543258e-01,1.912718446205820821e-01,-1.383836442936775633e-03,2.313421268075821491e-02,8.792774758100363680e-04,3.224220871925354004e-01
2.465202580187648429e-01,-1.348030773575486785e-01,1.354982257977377924e-01,6.347132935236272228e-03,4.919690484743775849e-02,-2.970275949509486747e-03,3.504374623298645020e-01
2.409522962895241371e-01,-1.254192981950078556e-01,1.093952457391717259e-01,6.222494550164237373e-03,4.013646866033163813e-02,-1.336120462234824044e-02,3.298805356025695801e-01
2.314234748899768879e-01,-1.331456173108804264e-01,2.252714621316243560e-01,6.658744989634148362e-03,7.333804833776201050e-04,-1.112637393565876943e-04,3.617185354232788086e-01
2.493603662102062413e-01,-9.970737841776700083e-02,2.494302510365741243e-01,-3.745102062362079196e-03,1.016717819149240941e-02,-4.144810983201671628e-03,3.496804535388946533e-01
2.745399716490261044e-01,-1.472332312549743394e-01,1.501460372256623321e-01,7.371732559248977404e-04,4.391411957721115533e-02,-3.925950172601218140e-03,3.830583095550537109e-01
2.530480688828551372e-01,-3.223910300314025701e-01,1.883880651732751377e-02,-1.398524290762571953e-03,4.303042097617184453e-02,7.453894939875390160e-03,5.068908929824829102e-01
2.363004153279643083e-01,-1.562342420112034502e-01,1.006397547706127382e-01,8.497711333932542882e-03,3.905199302941072398e-02,-2.168456859075369378e-02,3.541725873947143555e-01
2.635186470070702280e-01,-1.244511806351549787e-01,1.528702824276587102e-01,3.358902661326686103e-03,3.405031553421970086e-02,-6.898573753399994159e-03,3.514118790626525879e-01
2.908216165593557334e-01,-1.319099082772990650e-01,1.156010157211957712e-01,-2.818767547161504924e-04,3.297297607145104059e-02,-1.996890560730626984e-02,3.738864660263061523e-01
2.501462801459002905e-01,-1.545520227717021855e-01,8.117520053059090746e-02,-9.170323764474205700e-04,1.130068193231583730e-02,1.482977215721749224e-02,3.535463809967041016e-01
2.515065587804383718e-01,-1.526448964160375954e-01,8.891312205963654292e-02,-9.008735254310224275e-04,1.459008569015063025e-02,-2.048385487665106697e-02,3.549118936061859131e-01
1.670470805224474609e-01,-1.398788743930109435e-01,2.128190663847774611e-01,-8.357401540636279214e-03,3.727271192496033059e-02,8.757480320397841717e-03,3.390495777130126953e-01
2.191377186831222623e-01,-1.199239619301183252e-01,2.087097958111472917e-01,-1.025425725264419996e-02,2.668167096184669712e-02,1.042637880621777140e-02,3.381023108959197998e-01
2.304263226959540889e-01,-1.527402375991229466e-01,1.876351481491790874e-01,-4.736241011300706440e-03,5.534097882043462202e-02,-2.462049518470032106e-03,3.761979639530181885e-01
2.254457664445875809e-01,-1.244128256887552519e-01,2.347303417838430550e-01,-5.646936025676067145e-03,6.444712800622789430e-03,5.616302566755541036e-03,3.550358116626739502e-01
2.531418874305045308e-01,-1.291887281656407538e-01,2.451584679871458561e-01,-7.580552789804693818e-03,-2.500304736208207312e-03,3.615148478294052253e-03,3.787063360214233398e-01
2.117386646472347866e-01,-1.330680003614198581e-01,2.315789284511038382e-01,-1.093053119565802825e-02,1.174681827850039897e-02,1.280700924353886903e-02,3.569184541702270508e-01
2.406508196327864224e-01,-1.342989905230205505e-01,2.440683096446688294e-01,-2.319448536038620605e-03,4.953731813748391000e-03,3.462564045838613293e-03,3.768370449542999268e-01
2.351226194627405452e-01,-1.200240681097287238e-01,2.247535256271173953e-01,1.230441195267983900e-02,-1.379169252911437334e-02,7.186974128837936900e-04,3.515402078628540039e-01
2.388564697735924003e-01,-1.277010105202547596e-01,2.156534522521012243e-01,7.059976373205464721e-03,-9.145226692874161914e-03,6.229011171935255539e-03,3.562504351139068604e-01
2.568986659060100708e-01,-1.706431404869046820e-01,1.714582754526958186e-01,9.968676483844121552e-04,-3.978684562479711806e-02,3.300266409842390891e-02,4.019728899002075195e-01
2.500813831045519131e-01,-1.203098041956253278e-01,1.715309781833612712e-01,3.891753968346713111e-03,-1.192152383625647710e-02,4.457427118472037653e-03,3.388168215751647949e-01
2.476684113837965273e-01,-1.325417741603880928e-01,1.657437130811709181e-01,5.643174814761947079e-03,-1.110832719146975962e-02,1.161500293413815846e-02,3.478408753871917725e-01
2.347117631800539339e-01,-1.445366254373360304e-01,1.926144327908943243e-01,1.559632147627776355e-02,-3.683725050419209279e-02,1.817346525494141496e-02,3.680050075054168701e-01
2.472945375014701241e-01,-1.086077786740005102e-01,2.537875161816953717e-01,4.905017389559535902e-03,-3.287742787995222640e-03,-1.160470156306302701e-02,3.599001169204711914e-01
1.857837732527181374e-01,-1.155640807501259748e-01,2.190653684510576737e-01,-3.942683792193638916e-04,3.355698309945917557e-02,7.058022862745571765e-04,3.245423138141632080e-01
1.995307827227086606e-01,-1.259457359422339606e-01,2.145078237451939762e-01,-7.574693402576497710e-03,1.837992980430889003e-02,1.229186484428266418e-02,3.356676995754241943e-01
2.007304675215937362e-01,-1.150080789886017557e-01,2.227673306885303295e-01,-3.954552013441038280e-03,1.843178861378986372e-02,4.694662920181285823e-03,3.290388584136962891e-01
2.407719959463954229e-01,-1.214446404792572098e-01,1.944884532538981026e-01,1.012178727917557516e-02,2.414298975820924203e-02,-2.238980011520517403e-03,3.444552719593048096e-01
2.257092907370226165e-01,-1.311986429779813945e-01,2.195991343223512859e-01,4.364852136904606369e-03,5.493216014225882175e-03,-6.200318629124464999e-03,3.542638123035430908e-01
2.288396892619177225e-01,-1.312084453542619877e-01,2.296603461075871488e-01,7.951572671557183627e-03,1.680295032035330344e-02,-6.218389607130402758e-03,3.620545864105224609e-01
2.365714259326325009e-01,-1.324470698832119209e-01,2.420895968222191996e-01,4.140204968169782819e-03,-2.131696205108151582e-03,-4.667746849529769843e-03,3.719836473464965820e-01
2.395801330471640789e-01,-1.327138371474199663e-01,2.218451248863493319e-01,7.923026157526663268e-03,5.022706022716004470e-03,-7.993749994045652729e-03,3.643767237663269043e-01
9.007049067316649782e-02,-1.960489890471641128e-01,3.617353305653266959e-01,9.588954063814353335e-03,-3.638751273221250276e-02,-7.999219753497592783e-04,4.874881207942962646e-01
2.419134020119752537e-01,-1.089129304888634686e-01,2.500078247887871363e-01,-1.763696547627509239e-03,-9.004130710134080826e-03,-3.279937756446061736e-03,3.553437888622283936e-01
2.415678067975938204e-01,-1.122506795740692842e-01,2.435513263420924224e-01,-2.515266836556613421e-03,-3.484597441436602418e-03,-1.919486399104265240e-03,3.549080491065979004e-01
2.404036171239461728e-01,-1.384095456857582784e-01,2.349825927243724966e-01,4.153071463606314295e-03,-8.685305837386409281e-04,-7.295505999446371022e-03,3.764158785343170166e-01
2.425331312468579359e-01,-1.115670681324368030e-01,2.438717804711474924e-01,-1.914203622539369836e-03,-3.458996932008125396e-03,-1.821499170938176452e-03,3.548515141010284424e-01
2.397654010837573235e-01,-1.246998256531183236e-01,2.429712629041079763e-01,-3.096461680785664826e-03,-2.275385206411494228e-03,-1.132350285795685144e-03,3.661444485187530518e-01
2.126554214442616386e-01,-1.546453071321743922e-01,2.089909547985069338e-01,2.109102227119107748e-02,3.245968466823809240e-02,-2.209368110425200676e-02,3.735466003417968750e-01
2.299000162580413786e-01,-1.331761250314525413e-01,2.325396087232201592e-01,3.241244071318223358e-03,2.591199413887632693e-03,-5.750952639030254207e-03,3.646100759506225586e-01
2.339328099601016842e-01,-1.391208187448566280e-01,2.332605660962031591e-01,7.061880506554968524e-03,2.169200345584103469e-03,-8.409412515077199432e-03,3.732218742370605469e-01
2.289778262957932187e-01,-1.377239808699440293e-01,2.333986317686234657e-01,4.190588465451014835e-03,1.854626208561890909e-03,-5.442267520806280678e-03,3.691378235816955566e-01
2.361986467858405714e-01,-1.401284284352086185e-01,2.495207545609389455e-01,8.343141868090920427e-03,1.895284212401246015e-03,-1.102749201878685387e-02,3.839237391948699951e-01
2.425704296347220013e-01,-6.759953722730974168e-02,2.584820609462525343e-01,4.692416961514882506e-04,-2.849816653241771681e-03,5.479590265885244706e-03,3.186047673225402832e-01
2.489761526406756298e-01,-7.312202560004149587e-02,2.461032337795558966e-01,-3.880175515118244964e-03,6.937900927582525863e-03,1.233430019390815459e-02,3.216770291328430176e-01
2.330717115571170062e-01,-1.096598400052744560e-01,2.111179104889265856e-01,2.212996188664908409e-03,-1.119383010329102514e-02,-1.372520597561995882e-03,3.328946828842163086e-01
2.487611069082954485e-01,-1.149966558003847061e-01,2.121375506335815841e-01,5.946646322584435602e-03,-1.391379583507380314e-02,9.517890184666370507e-04,3.478914797306060791e-01
2.467294430906756264e-01,-1.038871582564807883e-01,2.449012759509295867e-01,-2.203187811081136829e-04,-8.546895387026210225e-03,-1.358139319751661090e-03,3.500274121761322021e-01
2.482438259638041766e-01,-9.467113661301457261e-02,2.566906301416552183e-01,-2.536293632471738405e-03,9.059838592672983353e-04,8.323132256484426159e-03,3.475458920001983643e-01
2.418393576242019449e-01,-1.363843433340624911e-01,2.165768651926463784e-01,-3.793791799373927211e-03,6.220631818432705408e-04,-6.388441649688898945e-03,3.664740920066833496e-01
2.644282610341202600e-01,-1.420665407116052936e-01,1.734090693203548805e-01,5.727420111688913754e-03,6.093253335507723550e-02,-9.327028790976236994e-03,3.847354948520660400e-01
2.179323912120562645e-01,-1.266986401761265313e-01,2.101347339820455740e-01,-1.032765300480069370e-02,-3.156000695250263388e-02,-1.040181958941920060e-02,3.460877239704132080e-01
2.578421032722746919e-01,-1.393170565824784490e-01,2.137618429043442458e-01,-1.241059954531846185e-02,-3.382816441503825461e-02,-6.214458463764817309e-03,3.823382556438446045e-01
2.392136824508716009e-01,-1.112965092875227713e-01,1.943168398351202142e-01,-1.124632260553963536e-02,-2.484762699726937932e-02,-1.099161526545364316e-02,3.342610001564025879e-01
2.409198789552298714e-01,-1.356928808901870231e-01,2.385155256329247742e-01,-8.389641292018505930e-04,6.965405377488460446e-04,-3.687325277462566355e-03,3.754754364490509033e-01
2.231609707386623676e-01,-1.404088380748725884e-01,1.589604110354276290e-01,-2.131122406560022331e-02,-4.090164387208921476e-02,-1.921674917630562113e-02,3.470627069473266602e-01
2.340824632044056219e-01,-1.304958807464145498e-01,1.759283764400293437e-01,-2.798619841393843073e-03,-3.025678084385620414e-02,-7.765810298331577918e-03,3.435817062854766846e-01
1.964091575912416121e-01,-1.248092965274903154e-01,2.438202650314637843e-01,-3.313647688125882958e-03,1.203897014766845512e-02,6.797717755498694850e-03,3.482309579849243164e-01
1.997686546502152605e-01,-1.186811083364293223e-01,2.756693332026626253e-01,-1.529860762302632203e-02,2.560646393585835900e-02,-6.971466370438673607e-04,3.660770356655120850e-01
2.220890688039453553e-01,-1.487472099397075809e-01,2.380127611265989152e-01,-4.687268267534190624e-03,4.490933754440355058e-02,1.298139726291037618e-02,3.876856863498687744e-01
2.213020377118521120e-01,-1.514772357892176791e-01,2.365942925252706441e-01,-1.281228585832215085e-02,4.700430505471583226e-03,1.407787848140612183e-02,3.821677267551422119e-01
2.381731751787585227e-01,-1.093964264574258938e-01,2.588657825682403879e-01,-1.202628520905940634e-02,3.936227888150144183e-02,2.525957766563044840e-02,3.679960966110229492e-01
1.959298834172230330e-01,-1.369156358596380629e-01,2.314418665547713638e-01,-1.088797902804943506e-02,1.692218614517928058e-02,1.048024029903181498e-02,3.541348278522491455e-01
2.224084729603046651e-01,-1.441487199394464458e-01,2.396541249812377261e-01,-1.391510189021059191e-02,2.745568393810556528e-03,6.245399719497645059e-03,3.764354288578033447e-01
2.367419516089308562e-01,-1.358999992648572963e-01,2.364594942806689803e-01,-3.293613408888724885e-03,-8.603909420079241871e-04,4.870887912544460963e-03,3.726429641246795654e-01
2.263541839169137537e-01,-1.329875835015283392e-01,2.334475146473963258e-01,-4.968762989300004812e-04,4.333868924186920729e-04,5.361245735440126059e-03,3.630609810352325439e-01
2.374466683511510523e-01,-1.342354892714784920e-01,2.497841009162349857e-01,-9.684211374991687519e-04,-7.781817845909466506e-04,-2.437837669338476995e-03,3.780316114425659180e-01
2.270046963996933120e-01,-1.375000499836295798e-01,2.279693308366591009e-01,-3.951963296306764892e-03,1.633216674944677239e-03,3.810759942129878820e-03,3.651228249073028564e-01
2.278854094276831777e-01,-1.405417586164517396e-01,2.321552193776016404e-01,-2.707925556985846683e-03,1.003950942083818923e-03,4.694714719518256613e-03,3.707034885883331299e-01
2.650413488577113008e-01,-3.887286157296804268e-02,2.600342644169022499e-01,2.373075592938510975e-02,3.735683867967320038e-03,-7.907984591818104786e-03,3.046081364154815674e-01
2.857009983348623994e-01,-4.420059962733635661e-02,2.917619812287321479e-01,1.989242962860894581e-02,-4.102047191305187995e-03,-6.519235753296774528e-04,3.348286151885986328e-01
2.455554912797546785e-01,-1.097734820588489590e-01,2.514672639579984548e-01,2.875472519786161606e-03,-6.015885539489040576e-03,-1.208206847910625603e-02,3.591177463531494141e-01
2.466437062835071248e-01,-5.717576480363070757e-02,2.577298206441003270e-01,-1.466511349438703003e-03,-6.091103079084679399e-03,8.229423788963168701e-03,3.100294768810272217e-01
2.516898390406097641e-01,-2.207279490132824096e-02,2.521665213200063871e-01,1.198099319043707117e-02,-3.640617752673738945e-04,8.202789344403955268e-03,2.751537561416625977e-01
2.405890447114105435e-01,-1.355740779743364877e-01,2.402577135153957100e-01,2.074154631741814171e-03,3.894103947656500902e-03,3.261283425663332944e-03,3.761176466941833496e-01
2.546449893540371212e-01,-1.456307310533482280e-01,1.297428297730299218e-01,6.246646488019712978e-03,6.041917651895569591e-02,-1.616307807455261147e-02,3.710500299930572510e-01
2.335125418454087609e-01,-1.327326415827298489e-01,2.379729489414733612e-01,4.624269841796287486e-03,1.079886563365338708e-03,6.344902937880043080e-03,3.687511980533599854e-01
2.238084730087640528e-01,-1.342665278618593583e-01,2.301781761625276146e-01,5.213486286154594192e-04,-1.651784881794168131e-02,6.374163779385473225e-03,3.626021742820739746e-01
2.321578693627605605e-01,-1.214255516596621509e-01,2.458907461427140007e-01,7.959390036850831629e-03,-5.327013571841190086e-03,1.182779551959753025e-02,3.616081178188323975e-01
2.357792694905676001e-01,-1.347066526330390479e-01,2.366184821545369021e-01,1.591295380660403972e-03,1.245797282783776957e-03,4.563135674020267832e-03,3.710069656372070312e-01
2.559654109338720951e-01,-9.073244835349383863e-02,2.556728151819785411e-01,7.736237576091577195e-03,-7.752478783199678002e-03,-2.072957522978305031e-03,3.470890223979949951e-01
2.674876013604031710e-01,-1.373535535578683242e-01,1.995788096720725324e-01,6.915903084352336902e-04,-8.610500192959252841e-03,6.781011392189588080e-03,3.760019838809967041e-01
2.833540186356271473e-01,-1.442697345243988405e-01,1.988856580984328382e-01,7.748209338520404242e-03,-4.712068849733342529e-03,1.411587702811771712e-02,3.933456242084503174e-01
2.488074047892539775e-01,-1.209471401169344151e-01,2.281942263220979317e-01,1.042646201799077386e-03,2.981497861649531184e-04,4.530044883503100105e-03,3.599813878536224365e-01
2.502792659664604957e-01,-1.192267671868188772e-01,2.474674195680443556e-01,9.449908743097316455e-04,-1.576757531535342895e-03,-5.749249500785764098e-03,3.682565987110137939e-01
2.702716890218501700e-01,-1.107139265003219963e-01,2.321004806620182992e-01,6.205499329264340357e-03,6.245507147584229528e-03,1.159968727701845941e-02,3.642809391021728516e-01
2.561272666939961029e-01,-1.107701291022570311e-01,2.245463393173944278e-01,-5.555374707799401630e-03,5.023008297501077406e-03,-1.664755267968108174e-03,3.524211645126342773e-01
2.493020899882222863e-01,-1.536232540571418892e-01,2.068621744653856287e-01,-1.483852469409861242e-02,1.521879488278262554e-02,1.243459287454829788e-02,3.858355879783630371e-01
2.377273010844589696e-01,-1.247369781456803273e-01,2.453812333193105544e-01,-3.866818076342377463e-03,4.573994477182665407e-03,9.471286677066483375e-03,3.668650388717651367e-01
2.532747261434793451e-01,-1.258138941667486521e-01,2.512988071006797552e-01,1.285956874050154033e-02,1.085100401522428627e-02,-1.074106589121839872e-03,3.792305886745452881e-01
2.353368992852648556e-01,-1.258271769392082240e-01,2.417407632571779708e-01,-1.896659353670138853e-02,3.384769405657858665e-02,8.962006290518569063e-03,3.708780109882354736e-01
2.135084555366583425e-01,-1.302253544096258486e-01,2.133059317894436258e-01,-2.104137468161187269e-02,2.197717416594616863e-02,1.618854880411921271e-02,3.487789630889892578e-01
2.492437166607654464e-01,-1.162844880793139080e-01,2.566868800625820013e-01,2.257976176764330684e-03,1.026779838312483727e-02,-7.401934658219298281e-03,3.699768781661987305e-01
2.365516772501846665e-01,-1.328261850996985127e-01,2.370779634491100296e-01,-2.588689359161144322e-03,-3.042094499769849598e-03,4.546824921374264736e-03,3.697898983955383301e-01
2.504058926037592281e-01,-1.301729098638668702e-01,2.319736068604169865e-01,8.734032753464768956e-03,1.846296272856216142e-02,-1.370830124309457138e-02,3.741393983364105225e-01
2.377383127696771070e-01,-1.412939669940180831e-01,1.998260667733953166e-01,1.172353184159458106e-02,-9.149816327181151815e-03,1.586934258767823056e-02,3.635269403457641602e-01
1.989664458430353555e-01,-1.369712544884585659e-01,2.426828299439402759e-01,-1.481912410469493797e-02,1.215505689649704936e-02,3.030500893126114072e-03,3.613597154617309570e-01
2.531341705925190810e-01,-1.240491112651589123e-01,2.447464906461969403e-01,-1.679525838424504374e-03,-9.526908949615057326e-03,8.193238220733289542e-04,3.734389543533325195e-01
2.003503045597388454e-01,-1.356748603297973643e-01,2.405076627641875575e-01,-1.135938101492471250e-02,1.146477487487574873e-02,5.913145441191652515e-03,3.590344488620758057e-01
2.390466777624837280e-01,-1.314595367781330737e-01,2.526317167423319798e-01,-4.453455446548997693e-03,1.547987949072076805e-03,6.421331203619546311e-03,3.777342140674591064e-01
2.156355994171689772e-01,-1.397766240492140932e-01,2.407567355640976570e-01,-8.772758852662976975e-03,4.478930653428344445e-05,1.619118506770006937e-03,3.689390718936920166e-01
2.589838350124857302e-01,-1.188907787957354523e-01,2.422522792297712169e-01,2.436350502838885435e-03,-2.113919391101812956e-03,-6.967747626543999671e-04,3.698370158672332764e-01
2.418489300810452713e-01,-1.318666563319109419e-01,2.406147195071092759e-01,-1.227912041262527090e-03,4.192508854314580514e-04,3.263479496779856954e-03,3.731496036052703857e-01
2.304642749344906483e-01,-1.442009549018026804e-01,2.416371911025403940e-01,-6.253988066170062740e-03,7.277251780704470895e-04,2.205267484676513672e-03,3.805502355098724365e-01
2.305279819724664336e-01,-1.380351485782560506e-01,2.397945254929087500e-01,-5.008166120471651411e-03,3.394477510627593939e-03,4.376268542002705736e-03,3.735066652297973633e-01
1.951256324707913437e-01,-1.377662325176072233e-01,2.184370993781396264e-01,1.587340146971672958e-02,-4.093823323904079853e-02,5.747096156869390890e-03,3.535582125186920166e-01
1.964131596077129394e-01,-1.163199551233593532e-01,2.201695512054506199e-01,1.690517610296325517e-03,-2.224298816753546987e-02,4.484422834328295748e-03,3.276414573192596436e-01
2.628472639451055470e-01,-1.678056363220606639e-01,5.410723378546773710e-02,6.895947589701202293e-03,6.077605285170137317e-02,-1.237154489137414458e-02,3.883591592311859131e-01
2.093650832280442020e-01,-1.185696483134595219e-01,2.162395104044875227e-01,6.883664758360176147e-03,-2.590176288691302051e-02,8.850436447489222480e-03,3.350114226341247559e-01
1.858636412066951848e-01,-1.333309731071000148e-01,2.651179674712121348e-01,-2.623737041582318782e-02,3.725454031807201409e-03,-5.640742422786549498e-03,3.683290481567382812e-01
2.176725966920780575e-01,-1.239387491376458261e-01,2.601168030098882089e-01,-1.625057838386100365e-02,-1.099191734096123703e-02,6.006393838494616250e-03,3.664180338382720947e-01
2.464842258567629951e-01,-1.355286658205456796e-01,2.396621560996936018e-01,-2.385776397179621700e-03,-3.485965657288336763e-03,2.573882090871486110e-03,3.787448704242706299e-01
2.269696816139921969e-01,-1.018194917401929744e-01,2.450736376322476540e-01,8.321628558316403711e-04,5.373114093808134019e-03,5.726784177274249488e-03,3.384812176227569580e-01
2.497918694578463439e-01,-1.201597009719239384e-01,2.602997892212042252e-01,1.979371138738448687e-04,-4.498707758566655029e-03,-1.350325214613408084e-03,3.754041790962219238e-01
2.188877905004700530e-01,-1.259724210396303556e-01,2.549592455705368410e-01,-5.139457587509149022e-03,-8.587410141889108934e-04,-2.330661203406635650e-03,3.643721640110015869e-01
1.927095398461438625e-01,-1.266818228667365154e-01,2.193228665361953156e-01,3.567091681914557472e-04,-9.315221295544197019e-03,5.469416288683772581e-03,3.340204060077667236e-01
1.772970269580685099e-01,-1.333246086074073300e-01,2.080413822614234631e-01,1.208387473580194507e-02,-2.177852494392525096e-02,8.004677399436098753e-03,3.302030861377716064e-01
1.959091159613076116e-01,-1.177740606638009169e-01,2.176937562607146326e-01,1.789575319626320266e-03,-2.309602343124048801e-02,2.801858772946672765e-03,3.276257216930389404e-01
2.078044592104420496e-01,-1.152551463555811229e-01,2.137575230112017666e-01,-8.479054478967258191e-05,-7.987217957802841828e-03,-3.468089134200706908e-04,3.263708055019378662e-01
1.858488925085985954e-01,-1.218116228150478708e-01,2.150622447193516751e-01,3.839286345759226286e-03,-1.818878536946523516e-02,2.774857379651128608e-03,3.248938620090484619e-01
2.112394471753651359e-01,-1.177886665810190248e-01,2.130100245307305906e-01,3.439236523020169738e-04,-1.494140274650384388e-03,-5.828589579599029267e-04,3.299292027950286865e-01
2.306732521549127446e-01,-1.213709611169055957e-01,2.305812717080480967e-01,4.870263582411667180e-03,6.651911870365278916e-03,-6.449939526186877943e-03,3.524648249149322510e-01
2.347971475536151376e-01,-1.229011529128270913e-01,1.811448022385990231e-01,1.289869863501647874e-02,2.088727299455633152e-02,-1.389913523195677320e-02,3.376726508140563965e-01
2.182493790695410052e-01,-1.214114938375884106e-01,1.980853762482749914e-01,5.201966454969295453e-03,6.693963363318462811e-03,-5.332783964970544237e-03,3.304967582225799561e-01
2.009173205011463015e-01,-1.202798612779714116e-01,2.041726247559931540e-01,5.546819978398687297e-03,1.310876731463457567e-02,-4.039369988793450016e-03,3.238527178764343262e-01
2.065053648577790391e-01,-1.275677788028088955e-01,2.034655404181253957e-01,5.189586114693413993e-03,1.350553248107987624e-02,-4.723345799769118440e-03,3.336068093776702881e-01
2.060823881503902333e-01,-1.139871807787473240e-01,2.201677992526669403e-01,5.544258083055170205e-03,1.604377013245299188e-02,-4.223715668580544508e-03,3.287387788295745850e-01
1.885226923233347673e-01,-1.434917449322894445e-01,1.358325828466554475e-01,7.782831540083088098e-03,-7.495076403692252365e-02,1.106050838223801396e-02,3.360320329666137695e-01
1.977177986361987883e-01,-1.307623992892200659e-01,1.697096812722516113e-01,-3.388853413608814563e-03,-3.654399283310451330e-02,-2.044508960022409661e-03,3.217715919017791748e-01
2.349818757152569715e-01,-1.282271999387185613e-01,1.476599081123727286e-01,3.562140618095038791e-03,-4.519289896652725624e-02,7.928787685144976852e-03,3.379107713699340820e-01
2.432248038695404846e-01,-1.411663747487828524e-01,1.531339874154612202e-01,1.626576883483944747e-02,-6.137134865530140954e-02,-5.662852733640611272e-03,3.652835488319396973e-01
2.059448937791276135e-01,-1.297575818784529322e-01,1.814037396216836018e-01,8.610895466041969259e-03,-2.935824819370504504e-02,8.644923115496104538e-03,3.287738859653472900e-01
2.558035509582541334e-01,-6.446031442510233300e-02,2.515703081182785739e-01,-2.497291385620458749e-03,-1.485712047775902952e-03,-2.597453661179305318e-03,3.182399868965148926e-01
2.530492934139269012e-01,-7.949338997543761720e-02,2.466881573382344317e-01,-3.518678319452648272e-03,-4.023421108734789951e-04,-6.584534457969772742e-03,3.296626210212707520e-01
2.517429015109280410e-01,-2.000630271910716629e-02,2.924641461573253554e-01,-3.238572747353637635e-03,-1.594037807210797525e-03,-1.427586194185276672e-02,2.953342199325561523e-01
2.658836785420395366e-01,-2.603333851544176181e-02,2.476573853091532107e-01,1.976235253958653210e-02,-9.909946448877373845e-03,-5.489624460673430198e-03,2.859787642955780029e-01
2.816163687086346012e-01,-3.238843071826960629e-02,2.895601317505929750e-01,6.606652317096937434e-03,3.706254646151431811e-03,-5.066389964275347206e-03,3.184425532817840576e-01
2.778076189426180731e-01,-1.871689244204374769e-02,2.502522038772285740e-01,1.277587101988538788e-02,-2.046789052993146577e-03,-5.881653768774922769e-03,2.848179340362548828e-01
2.313817970622556452e-01,-1.133845930968932214e-01,2.556267948662586664e-01,5.540867240071648155e-05,-2.771650565663581582e-03,7.563504419924851267e-05,3.575382828712463379e-01
2.432054802075715172e-01,-1.378082942215028972e-01,2.157664048323200412e-01,5.311869228761886483e-03,1.626862304374822191e-03,-2.002256491616159415e-02,3.698175549507141113e-01
2.512760373450907414e-01,-7.868989342991633551e-02,2.677108980816625405e-01,1.909748255061400560e-03,-4.434694163780809537e-03,5.190901721856554284e-04,3.385872244834899902e-01
2.446889322230585417e-01,-1.190529974624164600e-01,2.470968269124250716e-01,7.775250416366666015e-03,-2.106553623995144342e-03,-1.122839462586504300e-02,3.657358884811401367e-01
2.563321821048574201e-01,-1.217405992104257928e-01,2.486010109803290513e-01,2.298713385995942646e-03,1.920612813595484747e-03,-3.930130699766122213e-03,3.743649423122406006e-01
2.764839167778218032e-01,-1.142188086382382173e-01,2.209154378045045664e-01,-8.946076167358004913e-03,2.231030589393209404e-02,4.531784098048521523e-05,3.684549927711486816e-01
2.381969286262770880e-01,-1.319519730997949780e-01,2.430156271658434897e-01,4.383499222758187666e-03,-1.882788392994057692e-03,-7.571545788321303472e-04,3.726755380630493164e-01
2.155661539010557126e-01,-1.162426128825793659e-01,2.116179124056454253e-01,2.400952582548972637e-03,1.408467556256723027e-03,-3.962442760845830613e-04,3.298883140087127686e-01
2.434891090348338949e-01,-1.170320436121422003e-01,2.500668054541748120e-01,3.424053211479317817e-03,1.771269789665957418e-03,1.341510570346793416e-03,3.639232814311981201e-01
2.730915655778519691e-01,-5.901046159665687685e-02,2.856760143177577427e-01,-2.001066412322333871e-02,6.360393416727885482e-03,3.791535635857897543e-03,3.405807018280029297e-01
2.803148004076820299e-01,-4.384460762391770294e-02,2.716696452978707432e-01,6.662955466491220571e-03,-2.281048550682679074e-03,8.896837759303269019e-03,3.205275535583496094e-01
2.443191284378914974e-01,-1.333399685151501202e-01,2.414137505816618678e-01,6.028209055837667474e-03,-1.818541244698308182e-03,-5.649609515447575996e-03,3.765000402927398682e-01
2.535053387516509327e-01,-1.020989229599088832e-01,2.509054394447509106e-01,-1.521845146171856185e-02,-5.130125139149551393e-03,5.911449970926480751e-03,3.555491566658020020e-01
2.575047580141564540e-01,-8.184672337508849815e-02,2.479963929456181770e-01,-1.147650491469290844e-02,-3.654149579868599083e-03,-5.878321986792793899e-03,3.355026245117187500e-01
2.485468422985930292e-01,-9.654793118352075765e-02,2.397535955223226434e-01,-5.695893152783980395e-03,-6.914546570675494420e-03,1.477919022159192514e-03,3.411459028720855713e-01
2.720087704249624094e-01,-3.299743460877774259e-02,2.639516263259297779e-01,-1.974102350341423381e-02,-3.204013842235781898e-03,9.671177045712853193e-03,3.035073876380920410e-01
2.571692408736530044e-01,-2.192566022637126855e-02,2.580724941776119108e-01,-1.616614850472952031e-02,-9.001141600057037742e-03,2.016014882599499042e-02,2.835370600223541260e-01
2.426151592874793428e-01,-7.247358375446502632e-02,2.391567870383021488e-01,-5.868080593396525838e-03,-9.039387448704794964e-03,4.532880649329345049e-03,3.140274882316589355e-01
2.357080575159571367e-01,-1.365573622526349284e-01,2.282137024473838427e-01,4.262839890001436302e-03,3.219714820142278457e-04,-3.097902961704522042e-03,3.686887919902801514e-01
2.381058779125916069e-01,-1.403910023453621148e-01,2.330710273503730778e-01,1.920539666526730697e-03,-1.357274672709952307e-03,-2.706992424053256997e-03,3.760560452938079834e-01
2.387128595475426218e-01,-1.339290848801437117e-01,2.357292876616634003e-01,5.390799822575665506e-03,-2.895590264448562844e-03,-4.821840830446689694e-03,3.714043796062469482e-01
2.432579942729249933e-01,-1.354011736712453229e-01,2.452067848972852016e-01,5.256155821720536354e-05,-6.468606295598644529e-03,-5.515301020289680107e-04,3.798038065433502197e-01
2.390791333480777880e-01,-1.313859329289281397e-01,2.373662491486257520e-01,6.801115027093031749e-03,-2.144517844162644599e-03,-2.851697353017340012e-03,3.698509037494659424e-01
2.387527977968386395e-01,-1.364820699164507878e-01,2.307556853736484337e-01,-2.694979614216814687e-03,-2.545203129570972229e-03,1.930192639276304828e-02,3.728582561016082764e-01
2.280073459378398337e-01,-1.342554204858812106e-01,2.322110335748651111e-01,2.985405208540120071e-03,-3.290187177370718780e-03,4.984801530527806224e-03,3.645662963390350342e-01
2.202257463077501587e-01,-1.254839882795243944e-01,2.255710086460370190e-01,3.150010122151562699e-03,-1.773216934854645504e-03,6.005598784085544768e-03,3.486245870590209961e-01
2.093183291535187229e-01,-1.357958619824380930e-01,2.270524962124462753e-01,7.015797692425253251e-03,-3.563665220489549944e-03,8.096054162365511758e-03,3.548535108566284180e-01
2.301700639169168561e-01,-1.356879223535300549e-01,2.252749415441330783e-01,2.735913609613915744e-03,-3.853411511110351796e-04,5.378723857150486190e-03,3.635860383510589600e-01
2.262349513723687644e-01,-1.350593344202433710e-01,2.315149548417112235e-01,3.123609138922423326e-03,-2.544394656854856267e-03,5.019240575234631963e-03,3.641336858272552490e-01
2.450883798270773184e-01,-1.113379348805162150e-01,2.029355416231301557e-01,-6.065089479469251699e-03,2.769827566916499215e-02,1.881323276774386072e-02,3.424411714076995850e-01
2.423682988530896365e-01,-1.258851665179762935e-01,1.522842178985550077e-01,-6.469989443014501594e-03,2.691277771747203201e-02,5.824313410287059335e-04,3.359337449073791504e-01
2.736425880911390607e-01,-1.326399089167480949e-01,1.403746037876197894e-01,-1.554969778092728933e-02,2.470368638690874710e-02,2.269974097982434616e-02,3.643945753574371338e-01
2.861496662335564767e-01,-1.363584693439408857e-01,1.415365426648859115e-01,-8.820914219923186445e-03,2.494399283013967045e-02,2.444171716535203931e-02,3.771181404590606689e-01
2.536570645252836931e-01,-1.275737035401841857e-01,1.527818819453698462e-01,-3.101961089075482101e-03,1.565620452979866323e-02,1.379429125791196628e-02,3.440800011157989502e-01
2.325328705841943067e-01,-1.272285156827096531e-01,2.439702341037481570e-01,8.312932847163801223e-03,2.574754219543195534e-03,-6.469739134859505032e-03,3.660963773727416992e-01
2.525048412289607747e-01,-1.272700643615853056e-01,2.391958156293188531e-01,5.887823543928999426e-03,4.766952338328316535e-05,-2.773376955884852314e-03,3.734685480594635010e-01
2.193572811829760383e-01,-5.787956240272412733e-02,2.812742964220387165e-01,-9.147530619924050532e-03,6.066685509850041139e-03,-3.679191459720740267e-03,3.134672641754150391e-01
1.221210147354329645e-01,-8.661708104082953275e-02,2.743786797373404807e-01,-2.223602109218945216e-02,9.866666285458255622e-03,-1.265894472625454098e-02,3.174777030944824219e-01
1.291234972493600641e-01,-1.465117544130499772e-01,2.889861436222912472e-01,-2.925189656240045726e-03,4.334759488664984700e-02,-1.511289661621048434e-02,3.897980749607086182e-01
2.790383441206692461e-01,-1.750272318208676015e-02,3.108175125743271594e-01,-5.096948927554641184e-02,-1.558257821521035619e-02,4.756905372277828864e-03,3.270479440689086914e-01
2.567519948393609530e-01,-1.023219228022827776e-01,2.478713984986059549e-01,1.522979112945250721e-02,-5.355691820912374633e-03,1.745198121469955076e-03,3.558302819728851318e-01
2.716479096645668667e-01,-7.123982623230351585e-02,2.756061221096662850e-01,1.189109399183685759e-02,-4.743077605156300128e-03,7.484792190031406070e-03,3.458390235900878906e-01
1.746300875919670759e-01,-1.184013880571176680e-01,2.500272954463225727e-01,1.015083416765312496e-02,2.343771920205806394e-02,-9.144998625661270725e-03,3.403732180595397949e-01
2.025094617179692413e-01,-1.172689216399255552e-01,2.189501504513794439e-01,3.228566659353112895e-03,1.424147391178785284e-02,-4.749678908101059860e-03,3.293831944465637207e-01
2.046354304183902184e-01,-1.239851429083166923e-01,2.372081493567469168e-01,7.362642601169863861e-03,7.843540457334669674e-03,-8.592605951108944762e-03,3.468792438507080078e-01
1.849342214363348114e-01,-1.194974759739888953e-01,2.303585257837958422e-01,3.926176180638381828e-03,2.869724146482587404e-02,-5.332764231111572842e-03,3.334258198738098145e-01
1.973845110309478956e-01,-1.199808893169980462e-01,2.163011158563231395e-01,4.468658891132071265e-03,6.513489971031114802e-03,-4.289848116183920743e-03,3.276041746139526367e-01
2.377272897343551128e-01,-1.393733762396575926e-01,2.387105310835876126e-01,1.931166447491085639e-03,-7.018483904866919514e-04,-2.531268322010445798e-03,3.776354789733886719e-01
2.133743395622868799e-01,-1.256185857252011262e-01,2.223173078235378131e-01,6.590969746764305248e-03,4.103808604519776707e-03,-7.858662781371775208e-03,3.440841436386108398e-01
2.114476032383264537e-01,-1.220829303881790229e-01,2.354103897317653682e-01,5.654042587736995105e-03,2.942705891396534164e-03,-8.760272873776167243e-03,3.466428518295288086e-01
2.385971913536370781e-01,-1.213725669979139749e-01,2.524206055405884830e-01,1.873688945103686374e-03,-5.562194427928922671e-03,4.000350588345303747e-04,3.672181367874145508e-01
2.484873821429933738e-01,-8.541161379414627386e-02,2.550484872724974594e-01,-5.810158552494736756e-03,-8.676605974428441143e-03,7.811596957006794635e-03,3.379830121994018555e-01
2.418423932835999102e-01,-1.351752579398987630e-01,2.223287579600099484e-01,1.047401424217547956e-02,3.095194828106270085e-03,-9.610222192622155934e-03,3.685119152069091797e-01
2.408136457060012225e-01,-1.291524131491008642e-01,2.460457449724547385e-01,-3.564639465670689815e-04,-4.055546952288886786e-03,2.562544715537315963e-03,3.727028071880340576e-01
2.476458399868330384e-01,-8.718476327774576928e-02,2.558669213332278036e-01,-4.516725008377677972e-03,-2.044711661232706881e-03,4.316638283503353851e-03,3.392070531845092773e-01
2.484026406194241865e-01,-9.974333409331087585e-02,2.524249617169018745e-01,6.578266713338616839e-04,-7.144505353115830843e-04,9.389737027778927159e-03,3.505559563636779785e-01
2.255487917442411672e-01,-1.328450394163239734e-01,2.225148879679021419e-01,4.162022695049057835e-03,5.551110498138085193e-04,-9.175502616906673408e-04,3.569641709327697754e-01
2.511253015483602136e-01,-1.301064133457735528e-01,2.374586587471302357e-01,-1.309847503155863596e-03,4.647312838235396148e-04,-3.903782068605106143e-03,3.746541738510131836e-01
2.390103751447682501e-01,-1.261706902445651202e-01,2.474712611109624039e-01,-2.112477292350137779e-03,2.085309234939842788e-03,3.602693262409935055e-03,3.695726096630096436e-01
2.394954665517585179e-01,-1.303965656750413760e-01,2.390165927422516767e-01,-5.314972041317473153e-03,1.702255703352282190e-03,-1.312261454499312214e-03,3.697861731052398682e-01
2.363074179144036835e-01,-1.299149333857151645e-01,1.958253073103091157e-01,2.015011913403028272e-03,-1.937340797960406327e-02,-1.148371726199831459e-02,3.499513566493988037e-01
2.492122505653736053e-01,-1.349212952449623248e-01,2.457655371741327421e-01,-5.952592531905214791e-03,5.679432359360965347e-03,-3.176363270107532884e-03,3.827267885208129883e-01
2.320990005554541269e-01,-1.369659656956547789e-01,1.862865334716457821e-01,-7.396538805329423184e-03,-3.699356574213819027e-02,-1.861683050004358381e-02,3.559626638889312744e-01
2.368006623506361263e-01,-1.214872404631705399e-01,2.331120189131910547e-01,-1.115090807515077033e-02,-1.768344816992797885e-02,-1.282476265002640767e-02,3.589802086353302002e-01
1.891561179756578726e-01,-1.394854911752125559e-01,2.589336822114159387e-01,-1.774067371155512579e-02,-1.992483263217833742e-02,-1.131912319712713097e-02,3.719214797019958496e-01
2.072413130023028072e-01,-1.208068596810737833e-01,2.355828484766788744e-01,-8.046284743441534798e-03,-3.934741218745239216e-02,-8.895166315488669401e-03,3.504175841808319092e-01
2.248220238446395625e-01,-1.372894314351983946e-01,2.257792740102876616e-01,-4.135902026078878968e-03,-1.855999958426712490e-02,-8.920933111520944203e-03,3.644115030765533447e-01
2.027556904457950004e-01,-1.433366402423496555e-01,2.189469624005390413e-01,4.820934359209621493e-04,-1.510973225361723730e-02,-2.587129717915333596e-03,3.554594516754150391e-01
2.255575456724183137e-01,-1.406457536179948620e-01,2.321981026513565693e-01,-1.114025797449790314e-02,-1.564305842025390941e-02,-1.598695667872836526e-02,3.720939755439758301e-01
1.946958821584992005e-01,-1.361913408488615862e-01,1.761657430522421408e-01,2.135494770908560186e-02,-9.491140641978176862e-02,9.718850793011431927e-03,3.638328313827514648e-01
2.000768069935047744e-01,-1.491604624236617660e-01,1.794524562426524361e-01,1.575496705058861135e-02,-7.035809237422345486e-02,1.999435251939389591e-02,3.632960319519042969e-01
2.121373651459931564e-01,-1.256859806498687449e-01,1.863924339873450631e-01,6.332265741534963757e-03,-4.279175018378850864e-02,1.017197790791820634e-02,3.346853554248809814e-01
2.128104734938545683e-01,-1.387633093644191906e-01,2.256050031862666672e-01,1.449754280856192096e-02,-2.418864248975810538e-02,1.454803606996116910e-02,3.623351752758026123e-01
1.158693700865132403e-01,-2.769472529606440414e-01,1.536995865635829850e-01,-2.795675650922142125e-02,1.313303825562274763e-01,2.958720186181365910e-02,4.767707288265228271e-01
2.308837137423321029e-01,-1.479573973086333871e-01,1.834249555041175817e-01,2.181045663181357432e-03,-6.394251680751043831e-02,1.048950752536475031e-02,3.747050762176513672e-01
2.470385050929656268e-01,-1.348969029967035105e-01,2.388982033742831634e-01,2.733275994320497320e-03,4.578371829026551751e-03,1.762114534793215960e-03,3.780561685562133789e-01
2.409139593280065772e-01,-1.303126060941746378e-01,2.443576891322268574e-01,9.459305844833013760e-03,6.021044948935132214e-04,8.417218008659266629e-03,3.736060857772827148e-01
2.404076788045016455e-01,-1.345866355537947423e-01,2.404096338467812399e-01,2.174283303107306560e-03,4.098604448645189191e-03,6.541556024782680702e-03,3.752524852752685547e-01
2.364882487938897992e-01,-1.345089135139661551e-01,2.384563683857351124e-01,5.580988164311379007e-03,7.669592107620866028e-04,6.597766172429210367e-03,3.722884953022003174e-01
2.246188035447250764e-01,-1.371635135095475855e-01,2.400244903955426334e-01,1.020089260853587060e-02,1.490477692588793642e-03,8.587957578988322793e-03,3.704556524753570557e-01
2.392667822506545083e-01,-1.394240793521797639e-01,2.412213486686646258e-01,1.330004566580281471e-03,-9.329235416818005416e-04,-2.972106487128157873e-04,3.796826899051666260e-01
1.770571070243543987e-01,-1.224782025054886314e-01,2.521114579012848078e-01,3.509478978968502954e-03,-1.153241069365488862e-02,2.798923004757002120e-03,3.439410328865051270e-01
2.212768945647987651e-01,-1.448388063183121410e-01,2.446183638031481922e-01,9.561241874295495213e-03,-1.104677238093584001e-02,1.495777562848494766e-02,3.800562620162963867e-01
1.455032016742024426e-01,-1.425125098511146604e-01,2.376699688219742479e-01,1.650587579277235095e-02,-4.046265180711627191e-02,1.079658181884169017e-02,3.522384762763977051e-01
1.685767651889606977e-01,-1.294082922007359360e-01,2.392820014250594263e-01,2.420072255877345896e-02,-3.276508492064447720e-02,3.816476302548459012e-03,3.462438583374023438e-01
2.350895361881117085e-01,-1.362062635366476371e-01,1.992574767294885141e-01,1.579537175718778719e-02,-1.130778604099781821e-02,1.657777989341054775e-02,3.574867248535156250e-01
2.378400441634603846e-01,-1.301791010380047853e-01,2.373874377263912594e-01,7.039759500174207207e-03,-1.099851889946600048e-02,2.265638364226203391e-03,3.685087561607360840e-01
2.263610419804424345e-01,-1.604640724512889638e-01,1.439003955586045103e-01,1.724533443797008833e-02,-4.627308011965199086e-02,3.347941013471689153e-02,3.677145540714263916e-01
2.454671011354568888e-01,-1.261763084484553155e-01,2.306557156399934305e-01,1.395392453927506854e-02,-1.081983857002561354e-02,5.966831259511796298e-03,3.658904135227203369e-01
1.864254404880742455e-01,-1.206362904042491829e-01,2.368834660826653060e-01,9.346402564886040903e-03,-2.231814501835382991e-02,4.653206075144196430e-03,3.378579020500183105e-01
2.370631567230369607e-01,-1.360978299284734683e-01,2.319816154025831911e-01,6.495878426319112026e-03,-1.555721789822551906e-03,-4.663242490196511589e-03,3.709148168563842773e-01
2.325195040630871346e-01,-1.377808771892376494e-01,2.371569748382057474e-01,3.901710461528852102e-03,-1.204290021187124759e-03,-5.930910399809178127e-03,3.728494048118591309e-01
2.400095735097508287e-01,-1.349796197257908115e-01,2.442568308136359723e-01,4.093535798675081508e-03,-7.021229321549094134e-03,-1.223443040250646405e-03,3.773993551731109619e-01
2.395752796371946880e-01,-1.350459142717020666e-01,2.389700258368750996e-01,3.861478691546997837e-03,-3.547655369721060443e-03,-3.659975023321793922e-03,3.744827508926391602e-01
1.991049685111908607e-01,-1.328332492964266476e-01,2.383222829755864414e-01,5.860045223554493851e-03,-6.431536296369611862e-03,7.491111211511113262e-03,3.537430763244628906e-01
1.953362156805117378e-01,-1.389534328669922714e-01,2.447828080882114843e-01,1.256175296087597149e-02,-1.102323374789896011e-02,7.909014894096011439e-03,3.629732728004455566e-01
1.875595297661663552e-01,-1.184841640359293180e-01,2.545561220681053505e-01,9.423078147653970310e-03,-1.153367107953588711e-02,3.514647288481724703e-03,3.454818129539489746e-01
1.582718264979263711e-01,-1.284907068731478141e-01,2.506954517556319595e-01,3.555257045512486610e-03,-1.084509892050144683e-02,6.324367666531247739e-03,3.432044088840484619e-01
1.773679580345287055e-01,-1.286417156467477008e-01,2.329094597162003066e-01,7.597583860666855260e-03,-1.031288107164736803e-02,8.979246773180848962e-03,3.383151292800903320e-01
1.783948101867784963e-01,-1.237225642463789382e-01,2.447382835230544340e-01,2.633467597495393886e-03,-4.917486802945146562e-03,4.903104707987604449e-03,3.404193818569183350e-01
1.565845743575019489e-01,-1.311397926763797628e-01,2.508248601278546541e-01,-1.650168372860317395e-02,1.423721216740396998e-02,3.927240612365999299e-03,3.467752039432525635e-01
1.442844876162666101e-01,-1.275472049779736716e-01,2.544171500542845021e-01,-1.134470521091141167e-02,1.538518764293139024e-02,4.477667132603876943e-03,3.422215580940246582e-01
1.657198646313842727e-01,-1.329003230686899018e-01,2.298979090778781875e-01,-1.014158833916000563e-02,2.093451408766930366e-02,5.313747013676525799e-03,3.378841876983642578e-01
1.807028587747234183e-01,-1.254725584249269110e-01,2.351274664736749953e-01,-6.885325151766315960e-03,9.752252391897189496e-03,4.167433680436139626e-03,3.374145030975341797e-01
1.516943838922628907e-01,-1.269422435946994110e-01,2.373436539219541952e-01,-7.076615002476573275e-03,2.593644303008836235e-02,3.017723297140396423e-03,3.332189023494720459e-01
1.608885921143600184e-01,-1.160956634456442038e-01,2.410015829969399948e-01,1.096306426111900122e-03,4.862278052251806440e-03,2.315945674914245719e-04,3.246584236621856689e-01
1.470631397170667765e-01,-1.162650982176279546e-01,2.505568125260795309e-01,-4.205506505948704071e-04,1.323878697706288958e-02,2.554112686409245291e-03,3.284073770046234131e-01
2.253963079506912104e-01,-1.288155806911427392e-01,2.163694604932544785e-01,7.778537763514225233e-03,2.449240293916883551e-03,-5.366468893481027985e-03,3.501942753791809082e-01
2.207308619337679800e-01,-1.313176276900473449e-01,2.205360242654924308e-01,5.562003240411771479e-03,4.467111382074332414e-03,-4.728405346285489627e-03,3.522631525993347168e-01
2.037222077274345455e-01,-1.267425066881671392e-01,1.967840993970947638e-01,7.123731769008133548e-03,1.803283390000479103e-02,-5.264154622995098273e-03,3.288969397544860840e-01
2.225684630066113168e-01,-1.159618359511688235e-01,2.146266851622819771e-01,3.402868072347683698e-03,6.679102845749443698e-03,-2.934690000889174366e-03,3.349204659461975098e-01
2.314278111992076614e-01,-1.239209868494124123e-01,2.272676839304351715e-01,8.424347543342900618e-03,4.546202688167595013e-03,-4.891548773009066382e-03,3.537774384021759033e-01
2.277193409188232320e-01,-1.293968619065223313e-01,2.112967603883287582e-01,8.957281670186702238e-03,5.203607043627006372e-03,-2.950059616367115001e-03,3.496926426887512207e-01
2.458292443994495868e-01,-1.360779235696720213e-01,2.385354218435935258e-01,2.470431208646127214e-03,3.497400161012570691e-04,2.300210066063833238e-03,3.783586621284484863e-01
2.428652735789411377e-01,-1.161524581050061289e-01,2.462218615352518847e-01,-1.527896788110328242e-03,-6.431594258400115220e-03,-1.631734865487906739e-03,3.609004914760589600e-01
2.252122055966812031e-01,-1.346916518745970848e-01,2.117265857481719082e-01,-9.165670531886535577e-03,-6.157207974134765519e-03,-6.483575492501532714e-03,3.540494143962860107e-01
2.380943731235116434e-01,-1.363177048883211229e-01,1.999182307876632425e-01,-6.652670895726074327e-03,1.893113452158623131e-02,5.593411793991009615e-03,3.586781322956085205e-01
2.303264828133700926e-01,-1.254205143500299879e-01,1.928213239782479715e-01,-1.045314466608485149e-02,1.694967058611379640e-02,1.567399661516645504e-02,3.413896858692169189e-01
2.422956667570894396e-01,-1.327354124838475424e-01,2.436023021214941686e-01,-2.991084330816680664e-03,-1.913275760631929926e-03,5.967011677096508999e-04,3.757378458976745605e-01
2.623415974951878726e-01,-4.359819612123230770e-02,2.649728921133603921e-01,1.974986236266801365e-02,-5.799186679959710509e-03,-1.965895883758967538e-02,3.111937940120697021e-01
2.500201599397571250e-01,-1.050483562622133715e-01,2.487661129550289840e-01,8.180880131931722241e-03,-4.752011550992245315e-03,5.830406842800995443e-04,3.548232018947601318e-01
2.396198505057325623e-01,-1.332652657399155394e-01,2.484716909992808476e-01,3.781076928604744283e-04,-9.117674467648056655e-03,2.315509751594257634e-03,3.777410387992858887e-01
2.520994455610733320e-01,-1.119209885388731673e-01,2.248123591148931399e-01,-5.373552926684942513e-03,1.779266550927644701e-03,4.851379745575864350e-03,3.514102101325988770e-01
2.493084637359714861e-01,-1.167597053386274092e-01,2.144578364236281454e-01,-5.474248454754483337e-03,5.380614988166334059e-03,-3.512769266944109833e-03,3.502521216869354248e-01
2.424525640346110733e-01,-1.317455439667225003e-01,2.402633344970499518e-01,-4.525427433120903127e-03,-1.062230777366255296e-03,3.855885448540949043e-03,3.732549250125885010e-01
2.337354376809234469e-01,-1.342860288753035536e-01,2.205249638006459567e-01,-1.196674905994696975e-02,1.732776058719448162e-02,1.697926022207715130e-02,3.646201193332672119e-01
2.703302978755177666e-01,-6.102229472989209591e-02,2.724882626559613774e-01,-3.034673630827187680e-03,2.199243625263528137e-02,-1.749585746775721845e-02,3.360226154327392578e-01
2.501970866064734955e-01,-7.691606845575346685e-02,2.404880301018993694e-01,6.110472879498106760e-03,7.712021200127454758e-05,-9.305803650534511320e-03,3.229444921016693115e-01
2.643497107462596807e-01,-1.181596646090320724e-01,2.385450532795355960e-01,-1.302942840418631378e-02,2.200380278497589617e-02,-2.508817616406270636e-03,3.729470074176788330e-01
2.469905096169778824e-01,-1.327250435734271261e-01,2.387644225137233178e-01,-1.911467010710954937e-03,-1.196888401458872991e-03,3.198899336624026670e-03,3.757312297821044922e-01
2.133358913305092863e-01,-1.217204200522824104e-01,2.204921076339050323e-01,-1.212706012440050454e-04,4.241822450286017801e-03,-5.978247861115850402e-03,3.389290869235992432e-01
2.609031882907010824e-01,-5.111884902277824549e-02,2.554555617038465343e-01,2.236571234757526311e-02,-4.941119505549371356e-03,-6.150917762262129822e-03,3.120497763156890869e-01
2.376341317465825442e-01,-1.382033310826343564e-01,2.495143574591601188e-01,-1.558938739830289643e-03,-1.722224892322722937e-03,1.798794009439193720e-04,3.819375038146972656e-01
2.548566463393357462e-01,-1.238658296055962366e-01,2.388087718400193349e-01,4.996111638447811240e-04,-4.928754959963325445e-03,2.739141829316872178e-03,3.710885345935821533e-01
2.505406585666202224e-01,-1.242410986959062158e-01,2.429803893899971368e-01,1.296057728150750397e-03,-5.990060549611235172e-03,-1.628471111121348710e-03,3.712218999862670898e-01
2.500771939247991016e-01,-1.335774652524453487e-01,2.454071058093982294e-01,1.907961956990844002e-04,-1.550804395326912076e-04,-1.972160459795058510e-03,3.813565969467163086e-01
2.498605428924034200e-01,-1.264047590091553486e-01,2.299457990144668229e-01,2.647788422687019638e-02,3.719423891282813699e-02,-1.700464062812647587e-02,3.762976229190826416e-01
2.476667263357630600e-01,-9.204751976513028677e-02,2.352647685862434002e-01,-6.662179416032205925e-03,1.452810701550727793e-03,-1.259296251948050557e-03,3.339022397994995117e-01
2.084364526970464704e-01,-1.397227116576578165e-01,2.407844261324245116e-01,9.184667894758701684e-03,1.710446895448727985e-03,-1.624113866036260663e-03,3.657775223255157471e-01
2.474571735849641074e-01,-1.358605151352502149e-01,2.386675067686253038e-01,-3.088053642530334385e-04,-2.124640449897551193e-03,-3.113993906992287061e-03,3.790559172630310059e-01
2.391263449401661023e-01,-1.357831910972464584e-01,2.497740847223854921e-01,2.246653407461720979e-03,3.928685297793028421e-03,6.000775120668043992e-04,3.804273903369903564e-01
2.392172450210114099e-01,-1.377784382902011995e-01,2.457073674569091315e-01,1.491922510576510017e-03,4.791588153372151188e-03,1.895389693932222810e-03,3.803957700729370117e-01
2.408635661518725990e-01,-1.312960702955035253e-01,2.509211802623306786e-01,6.068398280621137460e-04,5.884151917503377752e-03,1.085029079215968795e-03,3.774327635765075684e-01
2.376642688676881554e-01,-1.370180685369086215e-01,2.312287026211132246e-01,5.008896072742878222e-03,1.344687603733062467e-03,2.928811638821333854e-03,3.716495633125305176e-01
2.398167851656937133e-01,-1.328887531211621065e-01,2.446722433599704261e-01,-7.287899217678923524e-04,2.934467376309047356e-03,1.211347160831937816e-03,3.751992583274841309e-01
2.836885871157930339e-01,-8.747395707848024116e-02,2.316726532392786864e-01,-1.115604808985413629e-02,-6.761129760408384100e-04,-5.988015641736432401e-03,3.487738966941833496e-01
2.481895284882802977e-01,-1.286596004369238155e-01,2.412478179320066696e-01,6.239138741917291467e-03,3.111697528424149428e-05,3.111030158990906683e-03,3.736218512058258057e-01
2.391284809381153120e-01,-1.332112672596379999e-01,2.500962968450199941e-01,2.019633131780845629e-03,2.941796989298836856e-03,1.866371539073344472e-03,3.780073821544647217e-01
2.366162246097265331e-01,-1.305566332083981651e-01,2.510777492364700270e-01,-5.020627645489235793e-04,4.852522992222575542e-03,-1.168089227257556716e-03,3.747137784957885742e-01
2.237564717093277200e-01,-1.250950551827055834e-01,2.127963461679756585e-01,1.211934776776930900e-02,2.086379880434803546e-02,-3.207246464659398166e-03,3.460801243782043457e-01
2.149925057219557456e-01,-1.335765546166700624e-01,2.252880320057490393e-01,3.219922122764672188e-03,1.817355396179645395e-03,-7.845444013075847725e-03,3.541479408740997314e-01
2.372539278419726061e-01,-1.416363752088347361e-01,2.398876131425900782e-01,6.553057684079308326e-04,2.082632042672469784e-03,-1.055261396775537629e-05,3.802327811717987061e-01
2.516270716388704365e-01,-1.274659260214994205e-01,2.331368941293932295e-01,-5.088447619068831203e-04,-2.663605803547701347e-03,-1.119430504627469229e-02,3.707315623760223389e-01
2.611844284016868745e-01,-1.122113491650457984e-01,2.312504828696224646e-01,-1.221627399501577435e-02,-1.141669031010115846e-02,-2.898189744208026428e-02,3.640080094337463379e-01
2.496782369408471758e-01,-1.300871443296346963e-01,2.472526039482707272e-01,-2.094851210394824397e-03,1.922046800279468733e-03,-1.335936391999652164e-03,3.785974979400634766e-01
2.421306531268087037e-01,-1.319607032429811200e-01,2.364116559179497146e-01,4.930294371361708741e-03,1.126287345585595418e-03,3.944969991589689258e-03,3.714310824871063232e-01
2.486965099685139458e-01,-1.292246956244635370e-01,2.299627882215309338e-01,1.191875773466761785e-03,1.486907870600748163e-03,1.531138894794667991e-02,3.698779940605163574e-01
2.388250969192225182e-01,-1.230155767513268494e-01,2.504886919881382235e-01,6.070019852509895425e-04,1.863264372010874255e-03,-8.482511268202064161e-04,3.678297996520996094e-01
2.385018602607466010e-01,-1.350024173438136577e-01,2.451748604028779477e-01,1.672651529166767521e-03,4.209793145834873343e-04,-1.978661663862199202e-03,3.769125044345855713e-01
2.342404865626426524e-01,-1.250430481909750591e-01,2.465308028706352794e-01,-2.216849259291110404e-05,1.030557192334464849e-03,-5.721965896712693546e-04,3.655893802642822266e-01
2.443602403687956115e-01,-1.328327059768157348e-01,2.409529504568142522e-01,1.336482386185821984e-03,-5.954399622701700943e-03,-2.448080910102944010e-03,3.756735622882843018e-01
2.493582600835335672e-01,-1.242682748732711062e-01,2.413505131073506726e-01,3.935909984807780919e-03,-4.919669127392702936e-03,-2.574196126454522150e-03,3.698756098747253418e-01
2.469758552716294908e-01,-1.306619729769223082e-01,2.397825424773426806e-01,3.835885562086307436e-03,-2.190371002360494597e-03,-2.802735610228584452e-03,3.742027580738067627e-01
2.466081047483140443e-01,-9.727602907958698975e-02,2.392222905130086397e-01,-5.558580025914252112e-03,-6.793085104776073156e-03,1.422722248024691893e-03,3.405997455120086670e-01
2.403185291891401232e-01,-1.392336462310916068e-01,2.386328064202374033e-01,3.756558347447628513e-03,-3.252357904797043703e-03,-3.539833329433925060e-03,3.788595199584960938e-01
2.456688996818584547e-01,-1.306453351390622353e-01,2.467723178522069905e-01,1.533964811625387198e-03,-7.457056048983145766e-03,-5.923328285474827861e-04,3.770991861820220947e-01
2.380135412204978929e-01,-1.360264154195548469e-01,2.373704117084125542e-01,6.798386520017020776e-03,-1.936663534896004802e-03,-5.588375634524892291e-03,3.740445673465728760e-01
2.369521051008138257e-01,-1.385046094377116455e-01,2.355106626755870125e-01,4.125812265347774538e-03,-1.376574386720454471e-03,-2.850476433704860445e-03,3.748463094234466553e-01
2.368170401982849782e-01,-1.173748543798825983e-01,2.432627382016501749e-01,6.670929738066077794e-03,-1.780789305525175325e-03,-5.077207498945045250e-03,3.577664196491241455e-01
2.310946861694862520e-01,-1.246449389813933523e-01,2.342145048563689658e-01,5.017938853348625702e-03,2.770194238856746576e-03,-7.667408735772486029e-03,3.576942682266235352e-01
2.410222607129597350e-01,-1.344515929896638595e-01,2.407144881020933935e-01,6.212167274635378884e-03,-3.926614172694785701e-03,-4.603579588242144235e-03,3.756204843521118164e-01
2.225562371736687639e-01,-1.421698156041586725e-01,2.269002671553850270e-01,8.910039260996564445e-03,5.198321704045686005e-03,-8.083238716584187356e-03,3.676188290119171143e-01
2.237863169439053557e-01,-1.340394587413847316e-01,2.136462490157284844e-01,7.837293383012089443e-03,9.717073562912875717e-03,-6.098599813424759528e-03,3.536846637725830078e-01
2.311263593092302004e-01,-1.283711929669201224e-01,2.246522108728481459e-01,8.551154171969714557e-03,4.483231431259832381e-03,-6.711095962402609250e-03,3.568861782550811768e-01
2.227301415712102939e-01,-1.258835293100744324e-01,2.017125719892211566e-01,1.308171486936761385e-02,-3.901833491627125505e-02,2.303967731816320558e-02,3.483093082904815674e-01
2.257093789567354847e-01,-1.445243747718070459e-01,2.002024682190724492e-01,1.929195274406689947e-02,-2.656257948262721186e-02,1.879343340787956868e-02,3.641056716442108154e-01
2.388942345526697819e-01,-1.355912381386745469e-01,2.234657332675918651e-01,9.688365028680917881e-03,-1.162091563111294652e-03,8.787052432865916779e-03,3.677185475826263428e-01
2.124717829348531095e-01,-1.285138655056522472e-01,2.230029566383568418e-01,1.084411768982061763e-02,-1.734840033192890790e-02,1.055587362102163029e-02,3.486589491367340088e-01
2.557796660062137128e-01,-1.443063990324087442e-01,1.943296039029843714e-01,7.676848746256079506e-03,-2.881302427288946755e-02,-1.093686807318281634e-03,3.767367899417877197e-01
1.931330157967183214e-01,-1.553620891876430488e-01,1.461742409308978696e-01,1.622932598469985221e-02,-6.784612253369835810e-02,1.990239231864099345e-02,3.508230745792388916e-01
2.355726629359530255e-01,-1.318402469867576698e-01,2.141822119583051132e-01,5.275697840215352354e-03,-7.390871814229709943e-03,6.717352675978171227e-03,3.577337265014648438e-01
2.238977736893401349e-01,-1.381294835130720544e-01,1.696201245859089435e-01,8.991128545234684799e-03,-2.744059857961591437e-02,1.763889755086677294e-02,3.432123064994812012e-01
2.380348970823923660e-01,-1.217236450117681612e-01,1.983837004340101573e-01,5.080504393734806487e-03,-1.694958236017652872e-02,8.281492735554181472e-03,3.433345556259155273e-01
2.292266427014418850e-01,-1.375992903323027816e-01,2.358564286891935424e-01,-5.248472521061375157e-03,-4.213008536242433344e-04,-1.064905098011029519e-03,3.703022599220275879e-01
2.431598057933994639e-01,-1.319171906144117057e-01,2.431507389120673712e-01,-9.260940373727286372e-04,-2.558412578149934537e-03,-7.480303820967919293e-04,3.751043081283569336e-01
2.430756756870232627e-01,-1.285432298551948405e-01,2.403462990212784922e-01,1.058453654870590045e-03,4.277769612964473292e-03,5.767647433496683957e-04,3.703417778015136719e-01
2.437179084959845421e-01,-1.108006887539493557e-01,2.494687119887497306e-01,5.631151908117849186e-03,6.568681513132125158e-03,3.523937808006812923e-03,3.577947616577148438e-01
2.466412578586424931e-01,-8.170038126070666706e-02,2.845909036462228037e-01,1.164145402749172317e-02,3.476942039795279712e-03,1.573753665277065339e-02,3.505634069442749023e-01
2.501845149971715365e-01,-9.641924400822288188e-02,2.406324655570790672e-01,6.569405628122739101e-03,4.133461340249047419e-03,9.565421529670914717e-04,3.421959877014160156e-01
2.615546739767051765e-01,8.710661312537282264e-03,2.641840600780490655e-01,9.009668118244468227e-03,-3.231222146541147880e-03,2.072599762135677540e-03,2.547343075275421143e-01
3.132108108076239184e-01,4.664190587318273185e-02,3.050064449127652955e-01,-5.619319975620552451e-03,3.690324256293922318e-03,-1.857019872628931471e-03,2.628406286239624023e-01
2.925692839468518880e-01,-3.555649911328861990e-02,2.883082534494481597e-01,-4.994510067556935922e-04,-2.423298918840786909e-02,-8.637067361280350479e-04,3.287114799022674561e-01
3.181490170905321158e-01,1.206979252421702675e-02,2.909652358970171715e-01,-1.044696456137221563e-02,2.186488548274289831e-02,-2.676265516075582163e-02,3.000223636627197266e-01
2.396952611155387658e-01,-7.758197988346482443e-02,2.414887173817739929e-01,-2.653026615948349265e-02,1.063325243426371108e-02,-1.793050642625950092e-03,3.220209479331970215e-01
2.660346589893485825e-01,-7.637051677638867497e-03,2.582045401389898021e-01,-1.207828810581163849e-02,-2.648720316528398351e-03,-4.342316234766083888e-03,2.707949578762054443e-01
2.508576990591441791e-01,-7.734056887625823107e-03,2.485561298999963697e-01,-7.317435195138983703e-03,6.715243785516890329e-03,-3.597331649556880125e-03,2.580979764461517334e-01
2.589108425862447493e-01,-6.874362948784695782e-02,2.498120907096381682e-01,-2.686747198425615095e-03,-1.292429849242396778e-03,-2.441976365691567175e-02,3.259979188442230225e-01
2.523145199277369022e-01,-5.584866170113242378e-02,2.528688567920244767e-01,-1.558503097460382097e-02,-2.990694538974696809e-03,-2.142791970568966309e-02,3.118792474269866943e-01
2.613649799845089161e-01,-5.015398148793315247e-02,2.601541024134730873e-01,-1.346348234833718259e-02,2.103025607297882241e-03,-2.046258694993502436e-02,3.138176798820495605e-01
2.542564592783084221e-01,-1.292605414996682578e-01,2.116013265055723402e-01,1.221789834990430240e-04,-9.164472883893749755e-03,6.419095233372851955e-03,3.645838797092437744e-01
2.638564828250177796e-01,-1.392029461699531012e-01,2.296822231270252146e-01,1.709351675476754187e-03,2.958156370922169695e-03,1.624114245385011035e-02,3.881711959838867188e-01
2.783897540448904140e-01,-9.839742014091301670e-02,2.453107295493419659e-01,1.082001916912732342e-02,-2.702175200452685069e-03,-1.731547367844779931e-02,3.631413578987121582e-01
2.858055259817314786e-01,-1.246119960380276670e-01,2.109945717134805165e-01,4.111793734159310473e-03,-2.248022536279174755e-02,1.305004093133928580e-02,3.813308477401733398e-01
1.858693852582892214e-01,-1.242168168060410471e-01,2.140485477091212951e-01,-1.716940025484620840e-03,2.598213567842252297e-02,1.436550585486458557e-03,3.282159864902496338e-01
2.449418476280778578e-01,-1.350238097026372208e-01,2.400436234352387177e-01,2.291032075079775000e-03,1.665124775646235856e-03,2.922698491409523799e-03,3.776061832904815674e-01
1.777464670216370446e-01,-1.308673716502747331e-01,2.023356073072274386e-01,4.094681359257125106e-03,2.755992776685977849e-02,-5.179738867440305053e-03,3.253384530544281006e-01
2.034542583340792077e-01,-1.194228405199672105e-01,2.017949733505292054e-01,-3.593079777289044218e-03,1.441324631188469103e-02,1.733324902779475804e-03,3.230907022953033447e-01
1.731016184368968924e-01,-1.268932385240373883e-01,2.099465342454941430e-01,-4.349646148813000532e-03,4.144835506042114648e-02,3.435504281186142761e-03,3.281064033508300781e-01
1.885690761222938439e-01,-1.281019716641009776e-01,2.053702583648217561e-01,8.954137170380269822e-03,4.098789403393542086e-02,-6.667794652868636214e-03,3.336123526096343994e-01
1.987748791626366140e-01,-1.235215474179228445e-01,1.982048755039101107e-01,-3.573796299347994134e-05,1.638648501984524969e-02,-2.107011981570885712e-04,3.232603967189788818e-01
2.502903315878379220e-01,-6.120735299701013377e-02,2.443353706621671784e-01,-1.858149291051978264e-02,1.315422764810394649e-02,-5.776216962042118527e-03,3.112335503101348877e-01
2.495193275929287191e-01,-8.576212131835450614e-02,2.484244731661988115e-01,-6.184715088699549034e-05,7.281013396545269085e-03,-2.881884779723830128e-03,3.350100517272949219e-01
2.493106438475221065e-01,-8.541651926158466690e-02,2.431250476328028765e-01,-1.980064456674198153e-03,7.354981106580387763e-03,1.366882211796980381e-03,3.319483399391174316e-01
2.373338449180933674e-01,-1.345070508062085057e-01,2.548539517190792636e-01,-1.602302820228646832e-03,-2.173157779193478616e-03,-1.298201408124037733e-03,3.809386193752288818e-01
2.896566880562345125e-01,-1.372118137010769345e-01,9.820156641651718588e-02,-9.445713124574151021e-03,-2.932320450756886222e-03,-2.526038774247200969e-02,3.733006119728088379e-01
2.972497168053582772e-01,-1.299403583595418743e-01,1.182469930721247453e-01,-7.700599601228386333e-03,1.847429621912573608e-02,5.620828549051137477e-03,3.733118474483489990e-01
2.794707778364539652e-01,-1.713765432531055566e-01,3.939550677928790878e-02,-1.239841292491888729e-02,-1.442374842927602804e-02,1.627953696511594273e-02,3.931189477443695068e-01
2.688170368736275684e-01,-2.594160405227900479e-01,3.564885879710737171e-02,-7.997795463648788017e-03,-4.100600125388612072e-02,-5.881043357968077784e-03,4.642957746982574463e-01
2.698206362909390532e-01,-1.771571335135370684e-01,4.238723186940289434e-02,-2.908984867272863210e-03,-2.401940112389041801e-02,1.586496877529215352e-02,3.903442919254302979e-01
2.799796114014262982e-01,-1.840649893478551458e-01,2.420355851622787990e-02,-9.589437381912976205e-03,2.704228256007151429e-02,-3.036548444895587409e-02,4.090271294116973877e-01
2.373707043097137981e-01,-1.367521317455251961e-01,2.373758782424280622e-01,2.879903996473703529e-03,2.282826097577050125e-03,9.783360784130115499e-04,3.741834163665771484e-01
3.463422007014333448e-01,-2.540003512517237105e-01,7.915747834224469426e-02,5.585554053943753497e-03,3.637384550617914214e-02,2.554175855435390080e-02,5.267033576965332031e-01
2.498007129726068087e-01,-1.254337915996927011e-01,2.510509514559156052e-01,1.900531168582344924e-03,-4.562501390988044081e-03,-1.359732983098444620e-02,3.766956031322479248e-01
2.460086879005108917e-01,-1.140723110989484979e-01,2.447223905773776576e-01,-1.584580824672995880e-02,8.307640290475827236e-03,-3.872351414365004553e-03,3.608353137969970703e-01
2.422891523202124475e-01,-1.228203026361657790e-01,2.395627847428878354e-01,9.851021714864238721e-03,-3.233923029357232558e-04,1.752779689222332517e-03,3.641669750213623047e-01
2.532044724636128286e-01,-1.185080632980630710e-01,2.558693474556308911e-01,-2.993678002619376988e-03,-1.994339677039304315e-03,-2.853807902460979082e-03,3.731368780136108398e-01
2.379459995851764265e-01,-1.413143035264347314e-01,2.481376135698686314e-01,1.110387525321939253e-02,-8.889903208442628824e-03,-6.726325186010848663e-04,3.852477967739105225e-01
2.306874660075659278e-01,-1.335038738822147408e-01,2.357161377282681325e-01,2.647482825110047174e-03,-3.248671965685821523e-03,1.282649249097233147e-03,3.668100833892822266e-01
2.243504987928374161e-01,-1.355965443056807163e-01,2.419554328226994067e-01,-1.318330815638007157e-03,-2.608019799248318619e-03,4.583675232546160876e-03,3.691846430301666260e-01
2.547539135564451662e-01,-9.119561528323566479e-02,2.490365362551197892e-01,9.469237355815231585e-03,-2.073776836990114635e-03,-5.688917722257484655e-03,3.436783850193023682e-01
2.511979863521404122e-01,-9.355967142407345394e-02,2.467047986771772616e-01,7.281881852476481364e-03,2.759936770598346578e-03,5.192164298061599688e-03,3.429165780544281006e-01
1.789605573285870110e-01,-1.434466003412068758e-01,2.464314850256838496e-01,-2.053735225244482376e-02,7.059545630962212569e-03,1.346280150854061407e-02,3.636074960231781006e-01
2.074406050031200877e-01,-1.464170257386336327e-01,2.433059337964011692e-01,-1.074483016317967846e-02,-1.169254817794085355e-02,-8.702591211563090803e-03,3.744014799594879150e-01
2.463533362666876503e-01,-1.352869320420724275e-01,2.362678370332062516e-01,-5.186628920871164464e-04,6.749511062095791322e-04,-2.991462790141547097e-03,3.767372965812683105e-01
1.553105790511643547e-01,-1.473116610130088822e-01,3.038424730582942601e-01,2.273672317226396039e-02,8.671033391330478304e-03,-1.004222436268237088e-02,4.008365869522094727e-01
2.376236905332047011e-01,-1.356725259382968174e-01,2.374979223516646143e-01,-8.711343521473083546e-04,7.849180889527048030e-04,-4.775202118084893518e-03,3.733305037021636963e-01
2.424173469994156394e-01,-1.366960178546427485e-01,2.428154497121119415e-01,1.019515535830121510e-03,2.978251670551242038e-03,2.149037593911108136e-03,3.793700337409973145e-01
4.615885873799806249e-02,-1.702513748355669043e-01,2.497645366908263498e-01,-1.095051376997130399e-02,-6.082206307204060525e-02,6.116532830981231787e-03,3.793691694736480713e-01
2.238025833340390736e-01,-1.325679174667662164e-01,2.254712328075668126e-01,9.869684306107913419e-04,1.061029856608732957e-04,4.447013112848366596e-03,3.572949171066284180e-01
1.859149927895566989e-01,-1.228170238379124729e-01,2.387035807193943482e-01,-2.263677536122603740e-04,3.203516244726119580e-03,-7.000424170328885427e-03,3.384931087493896484e-01
2.311534591977987274e-01,-1.358197067134304659e-01,2.275566964940441417e-01,5.224356113747602795e-03,3.959648000962165751e-03,-3.729656804397030352e-03,3.654216527938842773e-01
2.633864147925117638e-02,-2.057042531145295006e-01,2.879530530346260941e-01,-2.181092092573803931e-02,-5.031366048066353638e-03,-7.402396540643691597e-03,4.297199547290802002e-01
4.071760320350698015e-01,8.988862134724368014e-02,3.605407009854119660e-01,-3.424973428002414666e-02,2.703719380378941106e-02,-2.565192119333671930e-02,3.094116747379302979e-01
2.220142570001142346e-01,-1.326734895279940984e-01,2.246563447180982553e-01,6.741612257843063432e-04,-1.344651538373153226e-03,-5.802739119411767267e-04,3.560270965099334717e-01
2.200700296172988235e-01,-1.349595796862507191e-01,2.258910561743567302e-01,-1.124524065676505043e-03,9.709664360474804315e-04,6.481451719334257143e-03,3.581608533859252930e-01
2.834630189766860348e-02,-1.534859962285927137e-01,2.792820087845422905e-01,-1.071127010757992604e-02,3.290910384257252075e-02,-6.606245514626193395e-04,3.811226189136505127e-01
2.499042197652640018e-01,-1.224655150044097057e-01,1.292115734164135943e-01,1.004455722859478890e-03,1.486379107357167773e-03,-3.140819410303409619e-04,3.290799260139465332e-01
2.323404291509716391e-01,-1.331582758326367855e-01,2.349287374650730897e-01,4.053832705992731558e-03,-2.453542170962497160e-03,-4.102852977517237876e-03,3.669603466987609863e-01
8.375425302222436197e-02,-2.847040645940490666e-01,2.755763411437323063e-01,-2.568726666089124304e-03,9.558340559026967664e-02,5.829611603407201109e-03,5.203518271446228027e-01
2.369948728096045731e-01,-1.246336830120538114e-01,2.546858382989128367e-01,-1.199856696072003001e-03,6.546877108698171549e-04,-1.587090737447672791e-03,3.708084523677825928e-01
2.477983367433378437e-01,-1.070336826889297099e-01,2.494720096117856722e-01,-4.619001218083415225e-03,4.434786289855439587e-03,-4.114215995141872612e-03,3.559160232543945312e-01
2.555687502481547302e-01,-1.323585633872582101e-01,2.244669457082615338e-01,5.895214877553530027e-04,-4.316058729460420240e-03,1.242638506876047808e-02,3.740452527999877930e-01
2.486805493273701040e-01,-1.243923672942373188e-01,2.342558358325103895e-01,1.551065630217366050e-03,-1.012989819481026820e-03,3.114664367442869161e-03,3.661275804042816162e-01
2.388627906164217940e-01,-1.261888060047965388e-01,2.311606811097869085e-01,-9.887802163839125812e-05,1.795953309945512487e-03,2.970956443729321807e-03,3.613122105598449707e-01
2.375200322284995447e-01,-1.373921049750023715e-01,2.379656256883001531e-01,2.014074270432605375e-03,2.279094417331074818e-03,2.097530416046347775e-03,3.751897215843200684e-01
2.393394965108968098e-01,-1.362414995630517600e-01,2.402756046075794072e-01,3.041522841043350044e-03,4.243271107379154895e-03,3.378965879899907543e-03,3.762041628360748291e-01
2.795768942688092729e-01,-1.416981900767609326e-01,2.306407317668632828e-01,-6.545071852500280833e-03,-1.358759360925217326e-02,7.435513664426574888e-03,4.001251161098480225e-01
2.359615127755597397e-01,-1.418770325553180001e-01,2.323783961342088256e-01,9.079266228059650924e-04,-9.459303983133755464e-04,2.004549658524667956e-03,3.760826885700225830e-01
2.456836994927379947e-01,-1.475615435428148381e-01,1.534132763561386059e-01,2.307614653329107760e-03,5.100015073759986244e-03,1.270391904773811309e-02,3.569999039173126221e-01
2.485739525793251026e-01,-1.321937311843251195e-01,2.484045899376575994e-01,1.260404201046217126e-03,-9.366849485308487199e-04,3.155030757648410664e-03,3.807319700717926025e-01
2.427475979813673579e-01,-1.289417117936097479e-01,1.726437865942598293e-01,-5.528266674338999133e-03,-1.620154450712277131e-03,9.207231354728735067e-04,3.422174155712127686e-01
7.917047474992616740e-02,-2.739182023379000408e-01,3.084852419549748981e-01,-2.984079261326628464e-03,6.862320258147512619e-02,-3.144875051895187467e-03,5.219283103942871094e-01
2.432213239789941250e-01,-1.132205964518488706e-01,2.514313496628513001e-01,-1.973887565100341970e-04,5.856679734433390891e-03,1.052317531510756424e-02,3.612199723720550537e-01
1.989294638965594941e-01,-1.322236077659290354e-01,2.396519450916721472e-01,-7.490937798912063704e-03,6.538407239283661881e-03,6.810908778371152321e-03,3.538951873779296875e-01
2.508424491388287492e-01,-1.282333575950697080e-01,2.435702193917368419e-01,4.421676918132217641e-05,-5.998407608471139664e-03,-9.891275215273636582e-06,3.756362199783325195e-01
2.434022185440461450e-01,-1.162474936279298959e-01,1.601578865464196588e-01,-2.678961588356800882e-03,7.482942088547846378e-03,1.996388958559291277e-04,3.263868391513824463e-01
2.250620648059153128e-01,-1.317895230570345355e-01,2.316944185110879073e-01,9.855963873697634776e-04,1.036261001211059862e-04,6.075832303108142513e-03,3.603713512420654297e-01
2.254573048807057556e-01,-1.300466793118464637e-01,2.194313858466627742e-01,4.987316842206517518e-03,-1.933366706877596335e-03,3.800183972341411760e-03,3.527127802371978760e-01
2.449536814727723832e-01,-6.439387348569722280e-02,2.447821001545368857e-01,-2.992893680530259908e-04,-9.618497260451365494e-03,1.035456578834462269e-03,3.097158372402191162e-01
2.346060334505754574e-01,-1.346773953747905650e-01,2.475854163786260220e-01,-1.004146547493384341e-02,8.530449321020908485e-03,8.623163175229691529e-03,3.769292533397674561e-01
2.533581440161332132e-01,-1.007145153883090283e-01,2.369595889259076271e-01,1.179622427779163617e-03,-5.816064416727746191e-03,-9.924983274436790202e-04,3.463216423988342285e-01
1.962102378755031795e-01,-1.403235493202661666e-01,2.463452692348847561e-01,-1.325099188996167569e-02,1.099155418620799060e-02,6.166777920731095555e-03,3.655734360218048096e-01
1.577636845884630157e-01,-1.187101715991505796e-01,2.847079402722826891e-01,-1.919293838763620058e-02,9.682517999693519839e-02,1.494608438112094567e-02,3.969257175922393799e-01
1.829997981208171254e-01,-1.283298236869072906e-01,2.426795578810055920e-01,9.192134712920534481e-04,-3.998201998090163958e-04,4.577015536814091692e-03,3.451575636863708496e-01
1.327720437876965531e-01,-1.426999967616589815e-01,2.060318964461022861e-01,-1.665948822688305409e-02,8.138700591804128026e-02,1.631502166748452498e-02,3.506217002868652344e-01
2.344935224779199079e-01,-1.338663513466993027e-01,2.536012544512145084e-01,3.188879338181239130e-04,1.922676520255846982e-03,2.355040666571442550e-04,3.782911300659179688e-01
1.948495679923758495e-01,-1.523129084495182806e-01,2.341019295500579855e-01,-1.044612422891792042e-02,5.057364240819574308e-02,1.046615059485380209e-02,3.794977664947509766e-01
2.252063467556102982e-01,-1.313472463139841451e-01,2.178350072030295626e-01,6.119111109948439237e-03,-1.137137662705933836e-03,2.917325535301846379e-03,3.531264066696166992e-01
2.316252464199426708e-01,-1.330309097088487880e-01,2.338061376875132380e-01,1.675292933147517474e-03,6.314122461532397507e-04,3.767176519992494928e-03,3.658228218555450439e-01
2.175730658864293010e-01,-1.215641175516094935e-01,2.258057726458459480e-01,-7.544910453438809228e-03,-9.955162849352147680e-03,-9.925308012096990817e-03,3.444378674030303955e-01
2.204734530176523655e-01,-1.249459286295542676e-01,2.108724509932308200e-01,-1.063163083053174363e-02,-1.273767762239578702e-02,-8.067771619695657259e-03,3.422155082225799561e-01
1.921680601780372533e-01,-1.425809601833691598e-01,1.455026691684475348e-01,-9.890841435711263119e-03,-5.475107909655331506e-02,-9.899277063521224468e-03,3.289283812046051025e-01
1.712720039879238043e-01,-1.440809072552759751e-01,1.608181490229250166e-01,-8.465479276734185626e-03,-6.350277512968205418e-02,-1.090735772034599760e-02,3.300451338291168213e-01
2.286702384365605356e-01,-1.393263866713249366e-01,2.249023844434103192e-01,4.044145030360819619e-03,-3.137059994824966530e-03,4.277130317497021376e-03,3.663094639778137207e-01
2.100586718548422271e-01,-1.309083325901692629e-01,2.186753094680433662e-01,-1.956849565263492352e-02,-5.677974012464177128e-02,-2.145586744521619377e-02,3.625912070274353027e-01
1.963043697879532645e-01,-1.454284510569334166e-01,1.826985260531134858e-01,-2.124201690272864429e-02,-4.591583397862385868e-02,-2.169846479343236212e-02,3.484362363815307617e-01
1.904331340116917626e-01,-1.389870418908187300e-01,2.008847545487074115e-01,-8.553729226685149317e-03,-2.620473067278656504e-02,-1.106272941871560764e-02,3.386983573436737061e-01
2.101221233204653704e-01,-1.334203475864645938e-01,1.958080900889044573e-01,-1.029427993874360361e-02,-2.119848018721901331e-02,-7.833127901439432272e-03,3.393507897853851318e-01
1.893633202331829468e-01,-1.274508779852385754e-01,2.314590176150805867e-01,-1.414303212243489538e-02,-2.573792586696556015e-02,-7.309334405349218397e-03,3.438422381877899170e-01
2.334439176524578108e-01,-1.310531476483473567e-01,2.259722052831247274e-01,5.681336167726032220e-03,-1.824349688917443029e-05,-5.421527378258770647e-04,3.609546124935150146e-01
2.256968660223046541e-01,-1.371967747974495999e-01,2.247245387644837555e-01,3.491820302348416349e-03,-1.918703493678958075e-03,5.119616305916800149e-03,3.625825941562652588e-01
2.466731383969625324e-01,-1.020597792029769024e-01,2.353398633014810448e-01,-1.296713618790223607e-03,7.852153696031285296e-03,5.433137284165365927e-03,3.436122536659240723e-01
2.255131548519101470e-01,-1.280694793295736322e-01,2.212240963037634123e-01,-3.783668718043572098e-03,-5.315046035796042916e-04,-1.894417776428855907e-03,3.515353500843048096e-01
2.473818843385273691e-01,-1.308815215399095067e-01,2.462852594674163897e-01,-6.492507865544179524e-03,-1.770475694613584837e-03,-5.442779757090407747e-03,3.780136704444885254e-01
2.066098898185858568e-01,-1.357331074141162608e-01,2.115886069729415730e-01,7.136504166243488705e-03,-8.926781805574284315e-03,7.540695882800626040e-03,3.456737995147705078e-01
2.440436124361489711e-01,-1.328253680265158443e-01,2.387292562925050210e-01,-1.880098116118188601e-03,3.083647507839853193e-03,-3.982756387843439279e-03,3.743559420108795166e-01
2.446961597180449255e-01,-1.342510125720248193e-01,2.430931494349204969e-01,1.095403575721329769e-03,-5.205745177937494070e-03,-1.084720118058536860e-03,3.782651126384735107e-01
2.269997000254010688e-01,-1.381289763384277447e-01,2.293206052466860989e-01,1.065479937558855630e-02,-8.657864982630311679e-03,8.187315896072258625e-03,3.673394918441772461e-01
2.473612597590219564e-01,-8.895329124857817571e-02,2.654380020213115143e-01,1.455178776726926033e-02,-2.664130668236168020e-04,5.313712553079639328e-03,3.467476069927215576e-01
2.329455758399401333e-01,-1.058746121308920124e-01,2.403797578088022191e-01,6.360679952066777137e-03,1.625963857880185825e-05,-6.828958637689949013e-04,3.427769243717193604e-01
2.481982944316377671e-01,-1.110906977318309174e-01,2.401730579710336100e-01,6.215090545524207559e-04,-8.543777099658138308e-03,-1.091382981159831666e-03,3.556590080261230469e-01
2.508170146235426667e-01,-1.283060849891268784e-01,2.410513036869408598e-01,3.021331303797077268e-03,5.203001660446585942e-03,2.103632014604457645e-03,3.744985461235046387e-01
2.472499499885689178e-01,-1.340165831755515402e-01,2.396118937053777764e-01,6.170690445360318011e-04,2.367475536921756149e-03,3.556966081520509040e-03,3.775795102119445801e-01
2.570480670281900526e-01,-1.175527815122535402e-01,2.449665658487369946e-01,-5.377834763208345654e-04,-2.555640724617139377e-03,-5.783537049722285803e-04,3.687376976013183594e-01
2.163271514257328054e-01,-1.207732834706638503e-01,2.119528045782264891e-01,1.018301319890274614e-02,-3.544474922467302780e-02,7.464121739790863762e-03,3.412161469459533691e-01
2.462446235335232214e-01,-4.546782643389030154e-02,2.384241972926322006e-01,8.245473109577729502e-05,4.968736185677485179e-03,-1.011016929063815028e-03,2.880158722400665283e-01
1.798719838046285990e-01,-1.185817772046096619e-01,2.334857796072654090e-01,6.690268662560358223e-03,-3.183897013204989301e-02,7.046338807884885806e-03,3.335786461830139160e-01
1.713674693097327340e-01,-1.454835424091091844e-01,2.015744040403409931e-01,1.573338989596837975e-02,-4.420370197729542316e-02,9.802921028787093399e-03,3.431777060031890869e-01
2.000564848225004910e-01,-1.277714295902686037e-01,1.900956236952399958e-01,-1.299375114689593075e-02,4.569398475992505343e-02,6.249282494058708975e-03,3.334552645683288574e-01
2.408626027630380584e-01,-1.340270119016153672e-01,2.139965833503390813e-01,1.040919502685271752e-02,-6.274059647971381645e-03,9.612528567424755144e-03,3.631976842880249023e-01
2.176633645743844547e-01,-1.247961916154757128e-01,2.158055033896431607e-01,3.164615762706201544e-03,6.311088875512889038e-03,-1.625716708319266662e-03,3.417648673057556152e-01
1.702312315361955986e-01,-1.414386679870070496e-01,2.307828569756785742e-01,2.161288853230303175e-02,-3.356517060118369838e-02,1.117177879345565561e-02,3.533162772655487061e-01
2.119857819089055462e-01,-1.176982014186837150e-01,2.110027121150601648e-01,-1.931893432572553797e-04,-7.041405090356859077e-04,-6.716731851292117293e-05,3.291960060596466064e-01
1.777214797347923814e-01,-1.238640564692413126e-01,2.379935714872228880e-01,6.112758261870438999e-04,-3.113411243104007714e-02,-2.013532200672765032e-03,3.401250243186950684e-01
2.511974339471424456e-01,-1.337125321762784314e-01,2.415664530589448633e-01,-1.752257704216870701e-03,-4.716707436605684436e-03,-2.233637839283370897e-04,3.802860379219055176e-01
2.428773830588943916e-01,-1.335515265958225894e-01,2.455212229662163126e-01,4.721070759731283914e-03,-1.893151785672280200e-04,7.844503249676552286e-04,3.778488337993621826e-01
1.719447637002373130e-01,-1.066404461343800625e-01,2.638664406908158844e-01,3.058293284376105252e-03,1.724732319000062478e-02,-1.049023403571190411e-03,3.355459868907928467e-01
1.904140348185779374e-01,-1.229013142487542926e-01,2.172992066624169216e-01,4.249072857145024668e-03,-2.248226666861905323e-02,2.208730006108231003e-03,3.299970030784606934e-01
2.498321844294187355e-01,-1.332404562000846782e-01,2.384239850216199885e-01,1.132022459502868370e-03,-3.882192840740461646e-03,3.348761898960306055e-04,3.775632679462432861e-01
2.212103085753336085e-01,-1.278675142292589051e-01,2.569309836233810151e-01,3.864099015230683214e-03,2.237972833337511375e-03,-2.418437925328507238e-03,3.683448731899261475e-01
2.236928446101582035e-01,-1.276174879477377511e-01,2.518393854887178707e-01,-8.076333874109648371e-04,2.084131294930342652e-03,-1.185072842315908984e-03,3.662219941616058350e-01
2.508508358273112138e-01,-1.243042245484305280e-01,2.426394887290651836e-01,-3.040411249239956606e-03,-5.398658346384393146e-03,3.512410910866960948e-03,3.713224828243255615e-01
2.735786937753535986e-01,-9.430198764901867592e-02,2.624476925633468238e-01,-1.311712148609810863e-02,1.753288311720374582e-02,-6.285232137834104345e-03,3.645848333835601807e-01
1.800997166774497837e-01,-1.206265578868712107e-01,2.261914177672073589e-01,-1.282311617094245232e-04,5.009096115195142696e-03,-3.552940565028857561e-03,3.263968825340270996e-01
2.413037684123462978e-01,-1.255468158222823316e-01,2.490063618698981074e-01,-6.991137074358522076e-04,-1.343707970650501573e-03,6.556137703769057863e-03,3.709450364112854004e-01
2.351467737435896099e-01,-1.343753584414648650e-01,2.505173730308525859e-01,2.088228366686975621e-03,4.854546214571164170e-03,1.438673820304844139e-03,3.775614202022552490e-01
2.100030056720255389e-01,-1.191926936923598385e-01,2.146601435894026355e-01,8.829690682618222971e-05,1.962901424423379657e-03,-2.504713468326174504e-05,3.315662741661071777e-01
2.395182838601657704e-01,-1.392519808550903848e-01,2.290187435219828704e-01,1.458841869920069357e-03,4.638434474434844691e-04,5.362513956004493626e-03,3.737559914588928223e-01
3.421443457848178382e-01,-2.846477194955294165e-01,5.234311728928378593e-02,1.144795408939000819e-03,1.263286577508445675e-02,4.557750742060125322e-03,5.438317060470581055e-01
2.452047411521474096e-01,-1.383946579535335619e-01,2.390738008253748270e-01,-7.628665003024906899e-04,-1.321991760615666813e-03,1.539641687703596122e-03,3.805894851684570312e-01
2.199023490445325413e-01,-1.400045991571519655e-01,2.365862948740302119e-01,1.310570939082275795e-02,2.195787317158420099e-02,-1.805463831009942663e-02,3.724992275238037109e-01
1.994889586864126430e-01,-1.253349380667336810e-01,2.425502163843026027e-01,3.270432558927306547e-03,2.939476721233974348e-03,-7.333737366385510367e-03,3.486710786819458008e-01
2.223101305118438953e-01,-1.268870390245472324e-01,2.505138277040424577e-01,7.696988125241600170e-03,1.170284846671891879e-02,-3.187615051279943379e-03,3.649682700634002686e-01
2.475249475975614677e-01,-1.275973193474443657e-01,2.247169337466705108e-01,-3.748286156267677596e-03,1.012961694392291220e-03,-5.414978452295766791e-03,3.644369840621948242e-01
2.392845676204684580e-01,-1.383437203367168522e-01,2.448330199029709331e-01,7.727620323605292668e-04,3.674252467864422798e-03,2.696250492569974688e-04,3.804887235164642334e-01
2.510604539527452328e-01,-1.553958648033598455e-01,1.143484232663228711e-01,-5.213516929668052247e-03,-3.113576405516754395e-02,-7.558161868257614983e-03,3.626164197921752930e-01
2.562823682867221287e-01,-1.411712142659525271e-01,1.431212550661179195e-01,-6.649549483508112278e-03,-1.025966028615602800e-02,-2.419918485753261989e-02,3.577761054039001465e-01
2.694770918031608176e-01,-9.441580221455109223e-02,2.591861286122117414e-01,7.842363111986317553e-03,2.675334857116447394e-03,-7.464126111918809904e-03,3.593775928020477295e-01
2.450452904361634099e-01,-4.849441092039155632e-02,2.406836880107067200e-01,-2.254616076124709052e-03,1.963578364966036237e-03,-4.867297069397305206e-03,2.915513217449188232e-01
2.822184113179146969e-01,-4.640907722109599565e-02,2.778966101812190281e-01,8.996289790335421435e-03,3.838504111203077523e-04,-1.486992883584922417e-02,3.278734982013702393e-01
2.542402129733228877e-01,-1.338833461554371218e-01,2.386138401255632480e-01,1.969746141290745680e-04,-6.127862154029514816e-04,9.494133902159765815e-04,3.805562555789947510e-01
2.529831540088935959e-01,-7.418851603712653398e-02,2.422705037644086734e-01,2.000048079310263321e-02,3.627284341912412162e-03,-2.127262584847461335e-02,3.259575068950653076e-01
2.391247375334299985e-01,-1.394250414112943037e-01,2.395023370249633188e-01,-1.012496922713755979e-03,-1.629314561596638096e-03,1.293917559518009729e-03,3.787599205970764160e-01
3.494228349370666065e-01,6.591853758608129388e-03,2.522640738580016473e-01,-6.078925816927809034e-03,4.954634419727647204e-02,4.867025493909962058e-03,3.181356787681579590e-01
2.449966370452156261e-01,-3.750844943444020529e-02,1.892922892911513277e-01,-1.016485769332366867e-02,-4.320009421156391534e-03,1.684723641325429691e-02,2.615201473236083984e-01
2.403385368082050499e-01,7.129149004786144994e-03,2.765127901069036609e-01,-1.818120907201454389e-02,-4.044331335969462288e-03,1.074989639796918896e-02,2.559663951396942139e-01
2.496303385053915413e-01,-5.311218787166227528e-04,2.547353003643730851e-01,2.997614000383269379e-03,-6.466217380325393373e-03,-1.413422445400055148e-02,2.542353272438049316e-01
2.493671796266219709e-01,-1.178114696938253880e-02,2.475202235882293933e-01,3.629801289004469435e-03,8.630901783690126533e-03,-4.209441015801470773e-03,2.608365118503570557e-01
2.558068337189724484e-01,2.631646913536125898e-02,2.587538126669776117e-01,-1.027778414056954373e-02,5.834497997868353172e-03,-2.317412486916402628e-02,2.353315949440002441e-01
2.361625597800713627e-01,-1.372434417534424689e-01,2.364946982824976951e-01,2.341545407055463553e-03,-4.537614959480939071e-04,-6.608150140910524703e-04,3.735967874526977539e-01
2.407895852698372641e-01,-1.404627212331236719e-01,2.390576592014982404e-01,-1.886646341345941274e-04,-1.160152219009319809e-03,1.355008514352887532e-03,3.804019987583160400e-01
2.583199616074040028e-01,-1.173202778931879964e-01,2.304982765815545565e-01,-1.326958629538634808e-03,6.624625821520830835e-03,-3.979369939202776277e-03,3.627852499485015869e-01
2.454539652838801933e-01,-1.275525270352442508e-01,2.478977299410492496e-01,5.703838259355708921e-03,-2.315387683691429339e-03,-5.562042508171802929e-03,3.745101392269134521e-01
2.308269575993911749e-01,-1.281923894300332212e-01,2.255625373024395253e-01,5.796333251367441486e-03,1.407914400508620103e-03,-4.072174382293790827e-03,3.566357493400573730e-01
2.406376337246126651e-01,-1.404088587107173991e-01,2.381061794702448720e-01,-1.887883713301792066e-04,-1.160819531257117941e-03,1.149379068999193797e-03,3.797977864742279053e-01
2.272626975995593324e-01,-1.252728843364155908e-01,2.164046909397622787e-01,1.285624904968535494e-02,8.632230443928539179e-03,-1.069815750649898839e-02,3.487608730792999268e-01
2.112537934542599305e-01,-1.211365574503878439e-01,2.269764991580816293e-01,1.394807714475169102e-04,3.343722130635857527e-03,7.413512582623647817e-03,3.408153653144836426e-01
2.133493023681154455e-01,-1.219769679120891182e-01,1.869127388906756393e-01,1.855462786419158957e-03,1.002292177262936214e-02,-1.372645370427019002e-04,3.234029710292816162e-01
2.384302730727577979e-01,-1.276345915503162842e-01,2.512835048258967863e-01,-1.798075990653106963e-03,-5.365551782714399025e-03,1.988194450196413988e-03,3.728025257587432861e-01
2.526450084292397591e-01,-1.267507051534102203e-01,2.482933442483644670e-01,2.728690956218138286e-03,-8.141082503121826325e-03,-1.670581854660955264e-03,3.775428235530853271e-01
2.375634912725307912e-01,-1.082808597392304339e-01,2.450678412492445779e-01,1.276186819279934376e-03,-3.235280977748325112e-03,3.651876819112263774e-03,3.497660160064697266e-01
2.308292979440291770e-01,-1.445580441677845607e-01,1.995556158334376717e-01,6.958651473328549691e-03,-2.473932920961788360e-04,-1.681746614499529668e-02,3.621434569358825684e-01
2.410951472703943277e-01,-1.289927681274913307e-01,2.431892481347162072e-01,2.482581437886169796e-04,-1.215876360117385847e-03,-3.178570351612095587e-04,3.711460232734680176e-01
2.375138694732036870e-01,-1.377195233867187785e-01,2.341846013562763062e-01,-1.731970484743875784e-04,-1.516937674479069053e-03,3.184393289787735247e-03,3.736299574375152588e-01
2.281536887478572417e-01,-1.301187610821432639e-01,2.312047609647263358e-01,-2.763139533470247862e-04,-4.291745190363237890e-04,3.468802078082932911e-03,3.598589301109313965e-01
2.576367052711639460e-01,-1.464113995785063238e-01,1.862809867812338926e-01,-2.956199160702983105e-03,-8.847532523541489641e-03,-2.598957575351554597e-02,3.765671253204345703e-01
2.374819531894240554e-01,-1.361579997984666002e-01,2.363855778764962223e-01,-1.607865493493483751e-04,2.136187599703440610e-04,1.055855279910839373e-03,3.730977475643157959e-01
2.561732792369741385e-01,-1.373504625300545900e-01,1.634009535307659744e-01,-6.207252926148948240e-03,-1.825985736557837746e-02,-9.702301159926204205e-03,3.582705557346343994e-01
2.391294895286205091e-01,-1.419203157631452883e-01,2.130859117176870932e-01,1.385622477297443825e-02,-1.065561753812788864e-02,-1.092432058682374883e-02,3.704429268836975098e-01
2.705127934846267013e-01,-1.294368692081222516e-01,2.001681672985439198e-01,-4.087736676216837534e-03,-2.729243569885526910e-02,-2.202350978732026815e-02,3.748514950275421143e-01
2.695302066985361678e-01,-1.151841683898806035e-01,2.620527157702244869e-01,-6.049483366229168116e-03,1.075897394302869486e-02,-2.225220174931012360e-03,3.816494047641754150e-01
2.767451369978621289e-01,-9.553082471573950962e-02,2.173059932922872806e-01,-5.082571044253811690e-03,1.300439351163640636e-02,2.204014272105187140e-03,3.472665548324584961e-01
2.493925533917549786e-01,-1.208803799144783642e-01,2.606514916234286550e-01,1.737087581213625845e-03,5.097275851174923149e-03,-4.603593279204874940e-03,3.762290179729461670e-01
2.401505118483269752e-01,-1.308546064919875462e-01,2.439024783607158797e-01,-6.565365900925789790e-03,3.369291797031285542e-03,-4.620767169087941148e-03,3.732000887393951416e-01
2.310868881923289209e-01,-1.296059429255455864e-01,2.279993206179972420e-01,-3.276737857082261335e-04,1.484492758113755816e-03,5.830538881216990564e-04,3.591700792312622070e-01
5.344572789914323052e-02,-1.534859852032058325e-01,2.798394380350320287e-01,3.105225229097383945e-03,1.226317527423036180e-02,7.167392827791964176e-03,3.762407302856445312e-01
2.631877047291689142e-01,-1.127956204242953064e-01,1.696774479250446055e-01,-1.989376120144160844e-03,1.298894454091562012e-02,1.093256916568317036e-04,3.398049175739288330e-01
1.811573819366771865e-01,-1.188026873431261704e-01,2.297035632954088080e-01,-5.873154647747427912e-05,5.707867719905588416e-03,-2.231916716550432726e-03,3.271198272705078125e-01
2.435124963987365387e-01,-1.232994645853480870e-01,2.486618442042816124e-01,6.714798765776670061e-04,7.906453237125575170e-03,8.701219049116271434e-04,3.696722090244293213e-01
2.482079997128654458e-01,-1.125227615391909686e-01,2.399707957540993530e-01,-5.302914247101075430e-03,-6.399347032572992588e-03,8.027126676557166940e-03,3.572445213794708252e-01
2.314192404897927324e-01,-1.201008178362968914e-01,2.158601905907153451e-01,4.239534588697941621e-03,1.329577246144221514e-02,-8.599880468439520531e-03,3.451742231845855713e-01
2.382881540325004210e-01,-1.042709845462991003e-01,2.471148716203576123e-01,1.851269576138342117e-03,-6.546776710520068807e-03,-5.393965980501367946e-04,3.472579419612884521e-01
2.724036463132538111e-01,-3.650118792458520445e-02,2.673868902941236025e-01,-8.669451247977293107e-03,-3.327924461340314374e-03,2.673414350778939227e-02,3.103232383728027344e-01
2.103184179569346779e-01,-1.185688914041171937e-01,2.115664086576592995e-01,2.938260675993722417e-04,2.752944492857459062e-04,5.616332919849049716e-04,3.295152485370635986e-01
2.483890335006022076e-01,-1.202199613324676231e-01,1.618094983808066600e-01,-1.439924525788017270e-03,4.257440150749701273e-03,2.022032030010014543e-04,3.339391052722930908e-01
2.478561038643076753e-01,-3.122360961522718803e-02,2.526611381136733558e-01,-1.383914489836765745e-02,-3.249474267169536953e-03,3.399874558910608545e-03,2.826490402221679688e-01
2.485812147327498556e-01,-7.390083348013737341e-02,2.461676990159611667e-01,-1.878736345035315891e-02,-9.549798298297279206e-03,9.790975001476215356e-03,3.237935602664947510e-01
2.273492772085838887e-01,-1.232289498051397508e-01,1.627256721848232002e-01,5.919369781968874047e-03,1.421418044682185196e-02,-3.337817812621339010e-03,3.242997825145721436e-01
2.446621818580936025e-01,-1.029791157479282016e-01,2.547115986231777152e-01,-2.610494476853446148e-03,3.131224821731429155e-03,2.148583687644876287e-03,3.528636693954467773e-01
2.454329401537532762e-01,-9.645356049484829497e-02,2.453442411815502933e-01,-1.768437069278454982e-02,-2.864199518129590880e-03,3.023261691663122960e-02,3.472188413143157959e-01
2.233920283229110793e-01,-1.342186783445470932e-01,2.265901625562001531e-01,5.356524901249510012e-04,1.366186992977631246e-03,-7.301090228390321943e-03,3.594519495964050293e-01
2.373364791926076689e-01,-1.365848057474723931e-01,2.438267989173980577e-01,2.264917828154623843e-03,-8.674492196221811812e-04,4.296175811012638724e-04,3.772324621677398682e-01
1.961990584812160765e-01,-1.321810910955844576e-01,1.702660115173108002e-01,-4.925084810719284820e-03,-3.577309696732426658e-02,-2.352063132873880892e-03,3.223641812801361084e-01
2.309134174838358700e-01,-1.249068529853012283e-01,1.608576322391158109e-01,-7.988348874593893117e-03,1.564605793393460814e-02,4.531354569095272233e-03,3.279878795146942139e-01
2.108423607029078495e-01,-1.260341284486671265e-01,1.919226212936460119e-01,4.219817726587015219e-03,-1.778137410124015425e-02,4.621386385026737820e-03,3.294482231140136719e-01
2.134314359916301418e-01,-1.179605618177727855e-01,2.122366662368321277e-01,-3.233381454088310805e-04,1.084303091745671393e-03,-1.830167091627012837e-04,3.308022022247314453e-01
2.072727953908420906e-01,-1.477817882280087480e-01,2.158478839015011141e-01,1.174209093518745889e-02,-7.696302462337989425e-02,2.272167854789993238e-02,3.858941495418548584e-01
2.304160719802689772e-01,-1.174262419358153287e-01,1.881492554755407332e-01,-3.284129644335306679e-03,6.439183709216656989e-03,-8.670075407160299767e-06,3.289913535118103027e-01
2.379276152584567372e-01,-1.186038530243471306e-01,1.763906789184489510e-01,5.069355584863917061e-03,-2.765451475829090386e-02,-1.000559259125652183e-03,3.336705565452575684e-01
1.770819151646118861e-01,-1.300347101758330126e-01,1.943592975269434753e-01,-4.419705237974125983e-03,-3.495327158921900101e-02,-5.441165787941246515e-03,3.220837116241455078e-01
2.281700097016887974e-01,-1.387249153002884650e-01,2.359498709012921858e-01,7.926176910748284135e-03,5.150628055992428553e-04,2.409444027884274486e-03,3.711246252059936523e-01
2.432856103568263040e-01,-1.327933545482317401e-01,2.396354587680632475e-01,-1.693080627709039930e-04,4.667506869937063443e-03,1.338893011589717104e-03,3.743618428707122803e-01
2.382126876463566134e-01,-1.397621715624679517e-01,2.363985108367957499e-01,7.471894933730204892e-04,1.454310172393670844e-03,8.371293175251381686e-04,3.770844638347625732e-01
2.518982039987422428e-01,-1.288443864642894454e-01,2.418105518371657658e-01,7.178352367222653801e-04,7.763259780605425570e-03,1.669256747858489150e-03,3.760539889335632324e-01
2.419538680891970550e-01,-1.159297527190265992e-01,2.394313146498086575e-01,-1.327772691132729022e-03,1.899261765272255683e-03,2.166267622367329046e-03,3.566713631153106689e-01
2.487003855023328103e-01,-1.092437253098426930e-01,2.366021972711902510e-01,-1.920465869445896027e-03,-1.545386740245853268e-03,-6.617091113455380799e-03,3.522633314132690430e-01
4.499586208604416937e-02,-2.191600048892123898e-01,2.974367152698511041e-01,2.101662629332532589e-02,-2.190296904749557821e-03,2.409406389780926940e-03,4.489380121231079102e-01
2.372461830816880723e-01,-1.419192361494876209e-01,2.362616411263866179e-01,5.651427017650928995e-04,-1.479742828274585999e-04,-8.388414537287412114e-04,3.786782622337341309e-01
7.910075045084444256e-02,-1.750709735313304427e-01,3.003307462543290396e-01,-1.210805124275481093e-02,-4.752536640593095496e-02,-8.314655581234304399e-03,4.209508001804351807e-01
1.968025776441961472e-01,-1.186696760748662816e-01,2.152390037725887273e-01,9.943235614263278184e-04,3.316487384060365882e-03,-2.109792333612616356e-03,3.251586556434631348e-01
2.255432511134283224e-01,-1.299508180255100620e-01,2.368707413965462916e-01,1.427873252236931938e-03,8.529820565036380989e-04,-5.563728264411454093e-03,3.614310026168823242e-01
1.009834740011040094e-01,-1.270459639535559682e-01,3.950790024947345991e-01,2.033280956991495581e-02,-4.836535048370705497e-02,-2.646877816504478176e-02,4.646630287170410156e-01
4.029334928260790843e-02,-2.512117979692215508e-01,3.098636737257866591e-01,1.277621347662693391e-02,-4.493964679183822669e-02,-1.311420243473336057e-02,4.932432472705841064e-01
2.336953793773969834e-01,-1.453026442326348922e-01,1.421550014895771596e-01,-1.705133045776634215e-02,3.432926560557937601e-02,2.297339795317734912e-02,3.511646091938018799e-01
2.235200708991128271e-01,-7.990849328648971794e-02,1.921346670656154387e-01,-1.683381773782877469e-02,-6.307398282565154779e-02,1.903952450407727813e-03,3.103654384613037109e-01
2.451762488110334481e-01,-4.242936279109824071e-02,2.751421408947086200e-01,-1.608965661926999025e-02,-2.721356172313510458e-02,-2.358556051862688296e-02,3.112884461879730225e-01
2.628690264513418029e-01,-4.375962646609793394e-02,2.600897536424479073e-01,1.128418070862966839e-02,-1.074087866315681563e-03,2.135883075668888048e-02,3.081082701683044434e-01
2.396891661011072427e-01,-1.392964593698702291e-01,2.432949097281520978e-01,1.177527635468593806e-03,-1.433337704831744641e-03,-7.783300632384183913e-05,3.808148801326751709e-01
2.805126517605711078e-01,-6.063131859440509808e-02,2.626064570793669173e-01,1.323207242136941776e-02,5.140134999339017116e-03,2.700465182169359876e-03,3.334931135177612305e-01
1.721069379819130107e-01,-1.392625844314991923e-01,2.416506442045594505e-01,-7.206904615896738212e-03,3.842472392219553612e-02,-4.501650585841669716e-03,3.578925728797912598e-01
3.297680733757437643e-01,-1.846814674826985359e-02,2.671219351908689088e-01,-2.243972214463390430e-02,3.038496325427176431e-02,-3.674556805314223296e-02,3.342280983924865723e-01
2.457991046736738572e-01,-1.318745457826495937e-01,2.483997829391982604e-01,-9.970737068891303602e-04,6.776510872583352491e-04,8.623857943038467809e-04,3.789893686771392822e-01
2.408044449543113585e-01,-1.259717673657823056e-01,1.700428628734574343e-01,8.190498321948866053e-03,5.254104155745683603e-03,-1.110278153533347800e-02,3.379825651645660400e-01
1.438036596645692056e-01,-1.134628008240950447e-01,2.733903158081826268e-01,-2.725065596800714529e-02,2.155610519319160756e-02,-7.281972860212093668e-03,3.465514481067657471e-01
2.378514825090519147e-01,-1.400053688824016707e-01,2.408466483531880864e-01,8.647480373311798498e-04,-9.180730871526373649e-04,-2.980826395879414975e-04,3.793699443340301514e-01
2.188674436638977649e-01,-1.104688939007918980e-01,2.551134308656793914e-01,-1.003430901705673096e-02,1.242674193589782044e-03,8.315957681444611366e-03,3.496104776859283447e-01
2.244432429621239511e-01,-1.337656312624799781e-01,2.209088131337277883e-01,3.524926714218796792e-03,-6.096982152970943777e-04,-1.237791556207105351e-03,3.565150797367095947e-01
2.306042982834706767e-01,-1.246216460333428450e-01,2.052010996715025182e-01,6.265576519865988930e-03,3.039050478926011434e-03,-9.338562863792484927e-04,3.434458076953887939e-01
1.412283672326663519e-01,-1.600995705163961169e-01,2.623285803362342405e-01,-7.547001737925948008e-03,-1.308173843161161178e-02,-7.289217844682284366e-04,3.776777982711791992e-01
2.200075762822314707e-01,-1.275730427522968335e-01,2.574496318880684642e-01,7.631552413814353007e-04,4.296146891757664926e-03,4.936998651827331427e-03,3.679111003875732422e-01
2.419326792408699189e-01,-1.346446595565577442e-01,2.515078606206880285e-01,1.750552560120615091e-03,-6.259435783719503182e-03,-1.939106320482292083e-03,3.816359341144561768e-01
2.383925028735467411e-01,-8.930016793758852045e-02,3.024464430500225509e-01,-2.258220035654200097e-02,1.522675864803557828e-02,-1.082838315092624244e-02,3.674950301647186279e-01
2.147203468881346555e-01,-1.307788489179332603e-01,2.776187096779709762e-01,-5.699769131773469236e-04,2.812188209914713837e-03,-8.825128644796152028e-03,3.812028169631958008e-01
2.294579147151370457e-01,-1.173249420472127630e-01,1.894155507872011812e-01,5.037067101203281105e-03,5.018331598882954520e-03,-1.166696360987298699e-03,3.288335204124450684e-01
2.535683582666680147e-01,-8.047175123843194888e-02,2.581635161117310506e-01,-5.778776598963985406e-03,-4.235127587219805756e-03,1.193228795948662012e-02,3.372239768505096436e-01
2.835371328108364786e-01,-1.233359082132015339e-01,1.055189747308344222e-01,1.368492713427038772e-02,-1.540731315860151968e-02,-8.147982738510913675e-03,3.553568720817565918e-01
2.728879430407393780e-01,-5.402453192199965781e-02,2.236283562960751370e-01,-4.836241569040930608e-04,-1.737094762420958796e-02,-7.911925948859296030e-04,3.067613542079925537e-01
3.129548275170742633e-01,-9.509239449748249640e-02,1.577419976482910546e-01,8.445478650217212724e-03,-6.391189872009869766e-02,-5.171987575227575060e-03,3.739088177680969238e-01
2.381489154193627555e-01,-1.370403180250009956e-01,2.409586808959496840e-01,4.360398510306148605e-03,-1.179983891642317822e-03,-5.912175378291199997e-04,3.766846358776092529e-01
3.018615322243120569e-01,-3.287670771125442148e-02,2.397246316764047869e-01,-2.949856287809910632e-02,-6.646140582252032213e-03,-2.927246707213230006e-02,3.168986141681671143e-01
2.679095274532957704e-01,-1.527490951249399209e-01,1.855105368407815869e-01,1.495749563910008309e-03,-1.613356916302320079e-03,-2.964623134068919072e-02,3.895287513732910156e-01
2.347033178148600907e-01,-1.384929836711756845e-01,2.299313534257484415e-01,7.870517843490707020e-04,3.426591103523563627e-04,-2.151051177532099876e-03,3.708550333976745605e-01
2.339024299823305730e-01,-1.326904374437288259e-01,2.220941852589326526e-01,-1.101365064469821131e-02,-5.545038680525508738e-03,-7.056519430647343986e-03,3.616717755794525146e-01
2.499647826571531617e-01,-1.289963888327431696e-01,2.478491250018092784e-01,-1.460860058452346285e-03,-7.288012006554892442e-04,1.538171555168392664e-03,3.779277503490447998e-01
2.595503300510026978e-01,-1.029858764892371825e-01,2.361255802880136145e-01,4.881203673197165305e-03,-2.103602803189483922e-02,3.621688678745012529e-03,3.534505367279052734e-01
2.316465181562025188e-01,-1.474867054656077148e-01,2.010478023122500568e-01,-6.717124906986189810e-03,-1.979341005919314084e-02,-1.600693755714440586e-02,3.676365911960601807e-01
2.907229816609266937e-01,-1.019415859407660219e-01,2.367180734501503625e-01,-3.417047215677847423e-03,-6.716507631320560098e-03,-1.820352079635331743e-02,3.702170252799987793e-01
2.249166982066111431e-01,-1.376239784163098834e-01,2.204028607656933203e-01,-7.270413400030754057e-03,-7.829678236892959747e-03,-7.210142229145177772e-03,3.609960079193115234e-01
2.518710794161060917e-01,-1.192110331553940389e-01,2.352143437918714219e-01,-4.469754560523460374e-03,-1.062762209984664721e-03,-1.566325041611968134e-04,3.631277382373809814e-01
2.159445439622872387e-01,-1.170056704914594625e-01,2.418054004724111139e-01,3.347808712288753014e-03,1.562726289155104420e-02,-1.320527730807246128e-02,3.484600484371185303e-01
2.448714021516773531e-01,-6.939516223036362730e-02,2.385126094979925226e-01,-5.106663243422758514e-03,2.170485750261394453e-03,7.570302850078767035e-03,3.115603327751159668e-01
2.549253746549014488e-01,-6.641112005086474701e-02,2.725981227271060403e-01,-1.080210878058656190e-02,3.508138771012841843e-04,1.551026018567383362e-02,3.321453034877777100e-01
2.385368135465890937e-01,-6.707735920619997683e-02,2.757515244945395461e-01,-1.076564416307624478e-02,8.554834827331790625e-03,1.095369940711568915e-02,3.272392153739929199e-01
2.453147643747452256e-01,-1.122350692336684524e-01,2.381888434356058404e-01,-1.053355586937576409e-03,-3.164801672282860964e-03,-2.620004935725141031e-03,3.541168868541717529e-01
2.359549530418085239e-01,-1.144972645940632860e-01,2.597957768140365387e-01,1.416183027096474482e-03,-3.873441297658319470e-03,8.354268758077398145e-04,3.630335032939910889e-01
2.415454348540687357e-01,-9.595948570894002883e-02,2.421729054553698746e-01,-9.132522255362034158e-03,3.637814230391207479e-03,1.353343122966838008e-03,3.382560312747955322e-01
2.241684554434273946e-01,-1.376421133884390136e-01,2.394559321083020720e-01,6.796258425671723030e-03,2.093836253384879012e-03,-4.865035733099888279e-03,3.699925541877746582e-01
2.512321304181223125e-01,-9.163912288218201141e-02,2.505440016077910004e-01,-4.883939080884885930e-03,-3.644426847220749808e-03,7.195200056628630290e-03,3.429168164730072021e-01
1.198116183309273358e-01,-1.281579405971657315e-01,2.677595674295690786e-01,1.318215311873422238e-03,-2.020214853529095356e-02,3.625493956699051609e-03,3.483290374279022217e-01
1.652167071267162113e-01,-1.225090520800541649e-01,2.747870097010560175e-01,1.294404651524612947e-02,-4.924882470543259783e-02,4.026972667188886794e-03,3.662589192390441895e-01
7.806944795485082356e-02,-1.427332788770844518e-01,2.618190043103426623e-01,1.497273945551863550e-02,-5.108111512463463233e-02,1.236971720658631806e-02,3.633862435817718506e-01
1.124666834616302041e-01,-2.891358772676444477e-01,1.649649282949536278e-01,-1.842690593148585496e-03,-1.014378073387794676e-01,-8.825971125942338319e-03,4.650127589702606201e-01
2.391140517597449000e-01,-1.403394854066223607e-01,2.386273147043743992e-01,8.478623327623959881e-04,-7.752863831923124385e-04,-6.940725864923744191e-04,3.792175352573394775e-01
1.563566472926562478e-01,-1.148233176584511211e-01,2.941117695993319403e-01,-2.756939655332139600e-04,-1.135309923746506688e-01,-1.582702264215924554e-02,4.114499390125274658e-01
1.247031009777124777e-01,-1.592287922825050828e-01,1.809536283731733863e-01,-6.834640385960039435e-04,-1.066739836925011814e-01,2.121199231607523786e-03,3.659312427043914795e-01
1.129452759808704243e-01,-1.708354290491008176e-01,2.619852159001099245e-01,2.519145353771762297e-03,2.050185229564667130e-02,-1.569145286945414566e-02,3.834810853004455566e-01
1.825668949422645793e-01,-1.612815605965382537e-01,2.121856473462298831e-01,1.125657707600588760e-03,-7.462409283098618562e-02,-2.855792839965065394e-04,3.821043074131011963e-01
1.750217467170750996e-01,-1.213204574347871573e-01,2.611914178843299239e-01,-6.331395416320146838e-03,-1.006817300745243594e-02,-5.257795499915969735e-03,3.482627272605895996e-01
1.420838645376424902e-01,-1.608372045250229254e-01,2.680114152959836571e-01,-3.135997817597324655e-03,-2.488708197874380662e-02,1.025975798934296909e-03,3.842600584030151367e-01
1.303903591437465814e-01,-1.421857357549102252e-01,2.621917982090975485e-01,-2.622611879880866470e-02,-5.579319456011879418e-03,-7.802129962335568750e-04,3.602136969566345215e-01
2.271028728067702729e-01,-1.325928210225608139e-01,2.255599556986693233e-01,-6.393307219134044227e-03,2.164923798904205832e-03,1.501982055955576340e-03,3.591265082359313965e-01
1.879662193927754132e-01,-1.380183531734257563e-01,2.698708912923038494e-01,-1.476194994921179067e-02,1.879126975085441704e-03,-2.512440666621791087e-03,3.746428191661834717e-01
1.798949907013097371e-01,-1.511618262632295762e-01,2.373251386595213452e-01,-2.142814903595906956e-02,-1.944461350316661896e-02,-1.621650787945685956e-02,3.677093684673309326e-01
1.819927858987371305e-01,-1.464419977047069499e-01,2.301346025246505667e-01,-1.834447678465444750e-02,-1.567633045246404067e-02,-1.282903653408649230e-02,3.581047952175140381e-01
1.888885202116757089e-01,-1.368290333869615072e-01,2.366021832134610481e-01,-2.193504572727163204e-02,-1.013581632569775584e-02,-1.698927897699104711e-02,3.557066917419433594e-01
2.441784179527946574e-01,-1.352104533205466252e-01,1.582907437755800006e-01,-1.445123964123758674e-02,2.675932383586082999e-02,1.915604703332140363e-02,3.501476049423217773e-01
1.771000545621898015e-01,-1.329988331620190478e-01,2.443865453084707318e-01,-2.274540962680841882e-02,-3.811001749825621010e-02,-1.707883922891098583e-02,3.582436442375183105e-01
1.934581475824475039e-01,-1.472864108604394207e-01,2.451495313950601274e-01,-1.208270643798323163e-02,-6.744223540534362640e-03,2.020376655894371744e-03,3.701068460941314697e-01
2.262577209800834543e-01,-1.331947225428248838e-01,2.329511223749056725e-01,-3.478902342918935081e-04,4.137549454801268717e-04,5.785408216248413837e-03,3.629849851131439209e-01
2.123522650003713541e-01,-1.169588929495210122e-01,2.562111757429209602e-01,-1.061771553052684447e-02,-1.917852670371955962e-02,4.136803888948840523e-04,3.553235828876495361e-01
2.422162615764119065e-01,-1.289197040851120524e-01,2.415534866789457169e-01,-2.766157348051791372e-03,-3.021583860870694603e-03,-6.201660234032012635e-04,3.708744645118713379e-01
2.252389227167475583e-01,-1.326091606173291360e-01,2.268567996911075024e-01,-4.603606199641155166e-04,-5.994734910647496256e-04,4.924784103412056455e-03,3.587635755538940430e-01
1.580135975763845013e-01,-1.442783031854923959e-01,2.328194366584405151e-01,1.452416829647052007e-03,-5.597199846869868600e-02,-8.105613594975163982e-03,3.594322204589843750e-01
1.413058439002487510e-01,-1.395486768169774405e-01,2.315459688174189012e-01,-2.960406292678851789e-02,5.152613734246865723e-02,1.546291107050107479e-02,3.516791462898254395e-01
2.434515516707465577e-01,-1.288676680970259891e-01,2.021010467216779738e-01,-1.075434712295858866e-02,1.846852381529866943e-02,5.082322391617519024e-03,3.555046916007995605e-01
1.051962533595018068e-01,-1.323524971641890646e-01,2.290950755762821978e-01,-2.245060023344735978e-02,8.765352221218991602e-02,-1.247752182743958743e-02,3.553039729595184326e-01
6.206061485086033364e-02,-2.352132684171199806e-01,2.539005377307035904e-01,3.468908022908465116e-02,5.716734360464953424e-02,-1.259047135803023458e-02,4.428240954875946045e-01
1.166247652235308657e-01,-1.146396641638453007e-01,2.826187795990789953e-01,-5.154651892930210352e-04,4.895782961285178453e-02,-2.263774171455890799e-03,3.558546602725982666e-01
1.229571179249343699e-01,-1.459665125969454302e-01,2.498182397763988039e-01,-2.090540925305848369e-02,5.774559583809519420e-02,1.382126948201959672e-02,3.666298687458038330e-01
2.398981871340964966e-01,-1.371862107323834623e-01,2.393061804614242671e-01,-2.651648077873355273e-03,-4.521203770357233413e-03,2.469145210947949927e-03,3.769223690032958984e-01
2.708148326069004797e-01,-4.524112792301651642e-02,2.960283540758238963e-01,-1.581058551923712882e-03,1.876338051793649889e-02,-7.137152733745997894e-03,3.312287628650665283e-01
1.049231861349798761e-01,-1.601715983766350826e-01,2.140444213060548329e-01,1.432695699116116189e-02,6.872458512153552246e-02,-4.835064396672045933e-03,3.549158871173858643e-01
2.067641844432417386e-01,-1.190403348080704693e-01,2.135134976786819405e-01,8.368805579807396804e-05,4.359038530628516796e-03,2.374420833766903959e-03,3.293433487415313721e-01
1.466281158625676873e-01,-1.328173226146760477e-01,2.477254602311186604e-01,-2.108725507765424334e-02,1.936223564548826201e-02,1.037500242414968708e-02,3.454609215259552002e-01
2.865836270201018721e-01,-2.226489096085806918e-02,2.502087961177180686e-01,1.125755377741222488e-02,-9.159533670444669484e-03,2.846944649744806086e-02,2.975561022758483887e-01
3.798095182258661162e-01,2.558163620155068374e-02,3.197500806025417308e-01,-1.275239494866855236e-03,-4.275352883715676650e-02,2.329255127640849493e-02,3.390072286128997803e-01
3.463902241733732845e-01,-1.416492430703358840e-02,2.554514541043620413e-01,1.066589827754257057e-02,-1.442472580573277152e-02,3.435632752211002783e-02,3.316443860530853271e-01
4.175171358832339141e-01,5.308759554711772743e-03,2.617929677241815911e-01,7.749519629036317678e-03,-2.194979908848222055e-02,2.467214707438225574e-02,3.652761280536651611e-01
2.912812993433243625e-01,-2.991943653211395771e-02,2.458301642888287841e-01,2.165814796267763465e-02,-1.401682195670112159e-02,8.174425731372909204e-03,3.046865463256835938e-01
2.191474843396486738e-01,-1.214019080740059431e-01,1.984242680257596869e-01,2.975839615291349643e-03,1.046223725681984587e-02,-5.364472068565601451e-03,3.313417136669158936e-01
2.159537609025598548e-01,-1.199093532992549227e-01,1.949160450628880936e-01,-2.847800607727145675e-03,6.045700645876137501e-03,9.147822148650757617e-04,3.260633647441864014e-01
2.645027496632061936e-01,-5.455496826609643191e-02,1.940143145699722294e-01,1.697845791591148790e-02,-3.179610797831192853e-02,7.220823592863110730e-04,2.969442903995513916e-01
2.329936612554781572e-01,-1.181934515424546833e-01,1.720772235191197486e-01,2.861404600792109756e-03,1.006942824569383860e-02,2.786129662597816277e-04,3.255443274974822998e-01
2.435717932856633627e-01,-1.552917318531555346e-01,2.276845907359417165e-01,2.842572276042127331e-03,-8.434889871086193730e-03,1.650334923412606625e-02,3.925079107284545898e-01
2.379383287060766183e-01,-1.341066305603391406e-01,2.255076155545936434e-01,-4.989306428621859135e-03,4.134006932244259076e-04,-8.690860379309692935e-03,3.664000332355499268e-01
2.247695306063413334e-01,-1.362880909056182199e-01,2.228430772836721141e-01,-7.187900056010444218e-03,-7.169911367691521493e-03,-8.255934951139531214e-03,3.608108460903167725e-01
2.395003828034882598e-01,-1.380857388588044576e-01,2.419219455906260197e-01,-2.413046124317363983e-03,3.962346408118683216e-03,-2.334941307403208891e-03,3.789094984531402588e-01
2.397018835684198157e-01,-1.375590189391519003e-01,2.376212807237604585e-01,4.045453215928429829e-04,-8.565908342795384208e-04,-4.477061861614157687e-03,3.763084113597869873e-01
2.385355708027346866e-01,-1.364807642726191261e-01,2.412765080870858947e-01,-2.396958377466216084e-03,4.067609373304693389e-03,-2.783206465479153360e-03,3.765139877796173096e-01
2.388684139014947694e-01,-1.232176516750764783e-01,2.497057460549113872e-01,-3.443482607039716550e-03,-1.561650694014083112e-03,-1.705120249643775994e-03,3.676947355270385742e-01
2.800017147818925078e-01,-9.585558162548182826e-02,2.355961578772358955e-01,3.536001092137941795e-03,-3.155993975740559697e-03,2.367126898290777479e-03,3.558575809001922607e-01
2.443207291681060711e-01,-1.220346785971420378e-01,2.411387105518157936e-01,-3.023769377722935548e-04,-2.909830380541723101e-03,-3.584756062987644754e-03,3.648628294467926025e-01
2.278634555564114372e-01,-8.788249517703500269e-02,2.490982648787100351e-01,2.791009193969391441e-03,-1.366365700637674641e-03,-7.404660360758432217e-03,3.271768391132354736e-01
1.429079416586643281e-01,-1.567854267011710989e-01,1.910368435566284773e-01,9.374625893869050972e-03,9.442671401144393795e-02,-1.064357214557213292e-03,3.654759526252746582e-01
2.497136180898503754e-01,-1.361031067713283083e-01,2.361654935526959487e-01,5.977427385885878157e-04,-2.810218804134748116e-03,-9.083538012298326796e-04,3.792601227760314941e-01
2.539859286543503791e-01,-7.560543432617539139e-02,2.553738462324956493e-01,-2.541883484896420749e-03,-3.977959666735720115e-03,-6.203094346148485885e-03,3.305633664131164551e-01
2.457415432080439222e-01,-1.092281220873917991e-01,2.524150284267566713e-01,3.242401222425933798e-03,-6.103938661875666846e-03,-1.072879851526921044e-02,3.590341508388519287e-01
2.407597496539884419e-01,-1.385246319580780150e-01,2.379191727783371291e-01,1.408893528554690504e-03,-9.757730153047624319e-04,-2.608240118403886906e-03,3.779107630252838135e-01
1.459405592158443676e-01,-1.996250304145779086e-01,2.922724990418842372e-01,-1.361245722024701475e-02,9.605300398376259707e-02,7.109811496157510645e-03,4.688090980052947998e-01
2.432878428419706918e-01,-1.197814707587477462e-01,2.494699391447409709e-01,-1.257809749649159078e-03,-6.508994753697449655e-03,-6.262576854518679507e-03,3.665400147438049316e-01
2.622172175843466846e-01,-4.954134433285090067e-02,2.538637332093586219e-01,1.131725902695319280e-02,-2.761553063010670390e-03,-1.047529281746658117e-02,3.088611662387847900e-01
3.011933139930367265e-01,-1.127505801140568642e-02,2.688470139674564163e-01,7.217436382483653941e-03,5.109497974461483898e-03,-2.846247126675557557e-02,3.020604252815246582e-01
2.489857771092297833e-01,-9.660873723072904706e-02,2.525701901291241835e-01,-7.459785902695809622e-03,-1.248417006567643277e-03,-2.275680075496626235e-04,3.476477265357971191e-01
2.448219896654480199e-01,-5.520454679653535868e-03,2.778061422181408169e-01,-1.503157189474588901e-02,-1.338930813509479076e-03,-7.765602313960001148e-03,2.699643671512603760e-01
2.328365642407747016e-01,-1.352145726893664857e-01,2.498017769755304374e-01,3.158224652718748466e-04,-7.549146228434557362e-03,-1.675996217152554094e-03,3.770586550235748291e-01
2.303438264125956814e-01,-1.315318436753615816e-01,2.422653387121579405e-01,6.506691344219828199e-03,2.079226714039364085e-03,-7.457731028562140929e-03,3.683979809284210205e-01
2.319739224874946548e-01,-1.191516454547049131e-01,2.710089964870823764e-01,1.651338301487281085e-02,-1.134081494459534840e-03,-5.227154708082971946e-03,3.733939230442047119e-01
2.250904371250385672e-01,-2.826506234375472659e-02,2.910571336984035806e-01,8.510830286183148838e-03,8.628145228879689765e-03,-1.444541763426032341e-02,2.938031554222106934e-01
2.489168821751295835e-01,-9.758577434098569814e-02,2.485334162851736417e-01,-8.135267631938881278e-03,-3.229983663506084783e-03,3.872256191702131545e-05,3.466427922248840332e-01
2.882497566032347081e-01,-1.019971440819095188e-01,2.637109764311251769e-01,-3.476832089764782426e-03,-9.425406038205531509e-03,-4.155924722449774993e-04,3.789748251438140869e-01
2.477165477371364444e-01,-1.326929186530826921e-01,2.440538323786683728e-01,4.508849905311630886e-05,1.391022156530335573e-03,2.447059639717884261e-03,3.786228001117706299e-01
2.545398025744199932e-01,-1.451351281491918832e-01,1.970569330606269376e-01,6.657733695327709353e-03,-7.193758949793754680e-03,2.701324247486540115e-03,3.746731877326965332e-01
2.380137928787975921e-01,-1.360717417449416322e-01,2.143851758198090374e-01,-4.144744003170841747e-03,2.237415840732288452e-03,1.764620096982494899e-03,3.629532754421234131e-01
2.282712106326645896e-01,-1.309062258230092313e-01,2.226641745207701695e-01,7.753135882734692175e-03,-6.338065757782607862e-03,6.971197923710947299e-03,3.570330440998077393e-01
2.330289906041138337e-01,-1.340446186160556830e-01,1.961917967585832256e-01,9.281968275021187931e-03,-1.364729231361205830e-02,5.016655428901831658e-03,3.513840734958648682e-01
2.084728901110675658e-01,-1.210282599506832812e-01,2.196998270962929045e-01,7.572324795573767524e-03,1.574935142768967011e-02,-1.033325199191117635e-02,3.370946645736694336e-01
2.503902106069335609e-01,-1.116970995798511057e-01,2.469161609859125139e-01,-1.470236510147122574e-02,4.651517456412662850e-03,-1.545403783117698000e-02,3.623413443565368652e-01
2.960002622623222890e-01,-4.435426444072579355e-02,2.759102174622793391e-01,2.019721675934607261e-02,8.613718594888580479e-03,7.492249540917230582e-03,3.331994116306304932e-01
1.130686075908018257e-01,-1.348411368890238826e-01,2.500115004223145698e-01,1.258433939710468881e-04,-6.637800750853080790e-04,-2.441233794019828738e-03,3.379072844982147217e-01
1.911917905257001227e-01,-1.273988345546988310e-01,2.284026532054901359e-01,4.652948668614031693e-05,5.293235993204730566e-03,6.751657472354516930e-03,3.390582203865051270e-01
2.413784873411776166e-01,-1.380044282656577859e-01,2.380423107672509364e-01,-9.764812328242438973e-04,-9.441513499321763959e-04,4.357156980843619916e-03,3.778086006641387939e-01
2.513140837417260909e-01,-8.107786077676870651e-02,2.563800060672287717e-01,-2.750304915467048812e-03,2.556381229449069918e-03,-6.171959301307325743e-03,3.351872861385345459e-01
2.439931755811957648e-01,-1.335839279772663701e-01,2.159796067515203366e-01,5.628399228929826560e-03,-6.866539299023042067e-03,8.509145524225217999e-03,3.650008738040924072e-01
1.570343584531678216e-01,-1.168205315693750523e-01,2.383644368493519072e-01,-6.015653437563724115e-04,6.357537161802065580e-03,2.901408587863571909e-03,3.225388526916503906e-01
2.489082236489102984e-01,-9.493177060352150920e-02,2.691868117571150076e-01,-6.977627878091088691e-03,1.333307518865697741e-03,3.958341521092163112e-03,3.546944558620452881e-01
2.397599632634418165e-01,-1.314057788657106429e-01,2.414650106153092834e-01,5.872077777068241203e-03,2.588831765428372799e-03,3.952358844270219274e-03,3.722501695156097412e-01
2.465865303755867544e-01,-1.141559916075208514e-01,2.469707743639639186e-01,-4.124863238063434731e-03,3.804135041450506377e-03,-4.979378111728471543e-03,3.611686229705810547e-01
2.418667982291280438e-01,-1.242646855605623463e-01,2.432588675409589896e-01,-1.833212549916238927e-03,-8.088783699967311974e-03,2.274354024256197877e-03,3.671317994594573975e-01
2.269124881102783653e-01,-1.321552809950738983e-01,2.353546892781482880e-01,-3.475317549935021686e-04,3.870372879922547331e-04,6.589656075079243329e-03,3.635427653789520264e-01
2.343743580533717008e-01,-1.431078414437244040e-01,2.347681154164453776e-01,6.474577665421196900e-03,-1.098552151993752689e-03,3.925110986294196372e-03,3.779116272926330566e-01
2.291045704796037252e-01,-1.152462843278399818e-01,1.847584921837392702e-01,3.449056241191160183e-03,6.551953925926134494e-03,-2.464572100358199559e-04,3.247123956680297852e-01
2.390330888186146807e-01,-1.271692063886860347e-01,2.529573124423065145e-01,-3.667350510429148811e-03,2.199834066078698407e-03,-3.108244588641291117e-03,3.734714686870574951e-01
2.497877447060139477e-01,-1.440910194565016289e-01,1.780137120619123270e-01,-9.181717104269480900e-03,-5.387125431883590075e-03,-2.202897663593732236e-02,3.658107817173004150e-01
2.163142350025173410e-01,-1.364581439195634571e-01,2.373144935948467427e-01,7.890304782625550198e-05,1.482532999623121638e-03,3.509771324508647022e-03,3.637873530387878418e-01
1.903139187821817346e-01,-1.305018206045039930e-01,2.274210623959489475e-01,7.071505050035417281e-04,5.354026324884320412e-03,5.737082996048206707e-03,3.411604762077331543e-01
2.355787713608560041e-01,-1.363508993264914426e-01,2.448867253338661565e-01,-3.420379264235516581e-03,2.376594384413651187e-03,2.179685582925864912e-03,3.767578899860382080e-01
2.375840424252204097e-01,-1.223256505158603208e-01,2.476387512307510197e-01,-1.154481698317364607e-03,3.561715342145466926e-03,4.462117925360710620e-03,3.651803135871887207e-01
2.383521336247703681e-01,-1.268617874905433318e-01,2.523712833751002305e-01,1.262761525336904018e-03,7.781203327967676879e-03,-1.201533788070769521e-03,3.726774752140045166e-01
1.818018321900322642e-01,-1.156491424031403648e-01,2.292814901749182788e-01,-1.621806702931543210e-03,6.162902257926420289e-03,3.748667140559900756e-03,3.240652084350585938e-01
2.449643611757497119e-01,-1.141871668538023965e-01,2.481718346964022492e-01,4.800309658467586879e-03,4.884266794323172296e-03,1.254744121821987565e-02,3.616145551204681396e-01
2.329290692129982188e-01,-1.323885288569105756e-01,2.443331831420280931e-01,-2.380466054064391337e-03,-1.866541929609376880e-03,-6.735298441546931636e-04,3.711898922920227051e-01
2.309859828151412109e-01,-1.407082391867969795e-01,2.269381413092959321e-01,-2.774135650962883046e-03,-5.396721558459390000e-03,-6.757549540187275834e-03,3.700214624404907227e-01
2.398646609416654474e-01,-1.406075736716717317e-01,2.401505848646618146e-01,7.923137707940657287e-04,-3.011447064725441148e-03,-7.142837155803022798e-04,3.806554973125457764e-01
1.934859082695184473e-01,-1.251574963226043669e-01,2.302121683891028558e-01,7.639607664675664416e-04,5.077270654556540960e-03,-7.253424253553503349e-03,3.388538658618927002e-01
2.425588174392269980e-01,-1.238388354920234025e-01,2.610367588283615814e-01,-4.335159741499150163e-03,4.748017256791249932e-03,-4.141900646318513041e-03,3.762106001377105713e-01
2.452551283849265240e-01,-1.323184228214328573e-01,2.435105621556898359e-01,-3.004000588398357107e-03,-2.346297313857687895e-03,6.684630288016191191e-03,3.769400119781494141e-01
2.395938853416346159e-01,-1.348685129557892215e-01,2.392542611956957055e-01,2.081694811945528426e-03,-2.853439344102025668e-03,-3.928640391250367778e-03,3.744045495986938477e-01
1.068756568972853427e-01,-1.361371655103931766e-01,2.561615208514780306e-01,2.426123273777280875e-03,-3.635170252434833955e-03,1.484671194846897781e-05,3.430410921573638916e-01
1.386673710962709749e-01,-1.189424411398022630e-01,2.623671404762626391e-01,3.313821568071149797e-03,-3.044545839752118926e-04,-1.172505903200406728e-03,3.369986116886138916e-01
1.183121808881620468e-01,-1.301996353877811208e-01,2.703014397700636007e-01,7.258437510537260433e-03,1.180763259183517828e-02,-8.431711138050224617e-04,3.510105907917022705e-01
1.586780747681408588e-01,-1.137216915306924758e-01,2.654830611825469422e-01,-5.974837572153959830e-03,-5.866035142041555947e-04,-2.499164741263278089e-03,3.388649523258209229e-01
1.488494717698298497e-01,-1.188410695799496097e-01,2.583043486917222520e-01,3.141745626946439683e-03,5.464332334142714930e-03,1.130993226830274891e-03,3.362464308738708496e-01
2.599947528967322397e-01,-9.916723918067527066e-02,2.385846122527204849e-01,-4.460539103277070400e-03,2.219282687057452157e-04,-2.410452763276225204e-04,3.490358591079711914e-01
2.236372797898698583e-01,-1.354485878867950910e-01,2.331255380725784088e-01,2.050881430875784329e-03,1.290444392377797754e-03,-7.793873645424127111e-03,3.641972541809082031e-01
1.495948462012114399e-01,-1.256084821213174219e-01,2.341735596153130816e-01,-3.107350673563484544e-03,3.182900878422927765e-02,6.328837629608104719e-03,3.306889235973358154e-01
1.529674840676362169e-01,-1.163750491285689970e-01,2.522740987334285423e-01,1.043769323017830963e-03,8.973876842547013483e-03,-2.052378000485674536e-03,3.307751417160034180e-01
1.592093617160017793e-01,-1.172910395976478198e-01,2.600339343790558644e-01,-1.084505266802195380e-05,6.199112490508348026e-03,-1.206749991421452844e-04,3.385431170463562012e-01
2.230925883436291612e-01,-1.324306964376703588e-01,2.358080560933098757e-01,7.014324305800184603e-04,-5.359365051291491069e-04,6.657731752244386639e-03,3.622353374958038330e-01
1.484603521664192849e-01,-1.238090302516147018e-01,2.515110562179142528e-01,-1.604218049299817404e-03,6.992896425230280206e-04,-1.670126771400720937e-03,3.358945846557617188e-01
1.218787534721092192e-01,-1.260565948873807463e-01,2.981093814673380082e-01,-1.210250380433789026e-03,-8.813346840187724629e-03,1.375089068125909773e-03,3.694131374359130859e-01
2.029969218605842673e-01,-1.241010516133748687e-01,1.996779177194890065e-01,-2.809433482685067332e-03,-1.430598456387737437e-02,-3.802925250665470987e-03,3.264957964420318604e-01
2.068113426503322416e-01,-1.151938735923343921e-01,2.212648763274653319e-01,8.418437119082609194e-03,-1.559072204281188381e-02,2.698479383413964795e-03,3.309290707111358643e-01
1.911647646813317836e-01,-1.161528960662416565e-01,2.375987756698008657e-01,6.104413958084621561e-03,-2.121263334716191884e-02,2.897231176649785948e-04,3.351599872112274170e-01
2.203481014732267262e-01,-1.208622652093215982e-01,2.434698720225781376e-01,-9.559502774233962635e-03,-3.208270559601544402e-03,-7.994274782410937252e-03,3.540413379669189453e-01
2.444664047431066023e-01,-1.394913915372126834e-01,2.411482830274649380e-01,-1.167196741752905310e-03,-5.740532990142065140e-03,1.980294313622433210e-03,3.824595212936401367e-01
1.808548200985495291e-01,-1.101416795282851580e-01,2.372021779416308984e-01,-2.388005337279083470e-03,-2.987143892361756106e-02,3.174888136965561998e-03,3.270705342292785645e-01
2.179324253946549050e-01,-1.219524626773834386e-01,2.264688776096420719e-01,9.942325506182708716e-03,-9.277283172410772175e-03,1.136130002482123140e-02,3.455980420112609863e-01
1.831833264512590931e-01,-1.333941751448047830e-01,1.689775425476842396e-01,8.377014929031130139e-03,-5.612648465353584776e-02,1.552925836905039159e-02,3.260528147220611572e-01
2.491897804714233722e-01,-1.274334648836131512e-01,2.486778760648446773e-01,-6.108610442520228355e-03,-4.438850996162981358e-03,1.407268202925991479e-03,3.766026198863983154e-01
2.245703877847981256e-01,-1.376416515264450025e-01,2.218612433540711748e-01,6.488560620561821535e-03,7.142930937126109811e-03,-5.731220136035377818e-03,3.613883256912231445e-01
2.378598360906063469e-01,-1.365311089665589006e-01,2.404831326983686290e-01,2.007428240679619801e-03,-1.488855709772535316e-03,4.972456686345633203e-03,3.758330941200256348e-01
2.359766205129923411e-01,-1.186668680515870072e-01,1.924026662442704094e-01,1.004783187322144146e-02,1.148699959997142445e-02,-1.380740527925624836e-02,3.368799984455108643e-01
2.498641745659075375e-01,-1.370111012627827085e-01,2.375698475807014876e-01,4.062543435079453858e-04,1.293073405105143276e-03,-1.396352135453060236e-03,3.808918595314025879e-01
2.384276622086088371e-01,-1.380496929957114594e-01,2.218193989080289308e-01,9.337099027397871912e-03,1.132230173160950898e-02,-1.248821491447050028e-02,3.699626922607421875e-01
3.833733798061875753e-01,-5.351413412230743294e-02,1.872554636247356907e-01,-9.131243662611265161e-03,-4.277416585529481008e-02,-1.307980061059840597e-02,3.871740400791168213e-01
2.508282454562354991e-01,-1.045810242697735593e-01,2.523359256557464736e-01,1.122661317427631547e-02,2.789181917278752212e-02,-6.858330161360953400e-04,3.599545061588287354e-01
2.475606116394618028e-01,-1.339931104954218966e-01,2.432727247545777571e-01,5.343568076315980374e-04,4.683154129328286281e-04,3.603454318101455625e-03,3.794812858104705811e-01
2.527756774521807692e-01,-1.185574569086251112e-01,1.444263230281958577e-01,-3.221965039366306034e-03,-4.374730964342708403e-03,1.680787204104246301e-03,3.308945596218109131e-01
1.904711047897074960e-01,-1.247216940225030768e-01,2.289782448514522117e-01,-5.224465095427477737e-03,-4.919839678473109795e-03,-9.245812150582110103e-03,3.367156386375427246e-01
1.562502919319654904e-01,-1.208757668812618508e-01,2.392913612590881756e-01,-1.219785045971676259e-03,6.677132442095670521e-03,2.081455213678939410e-03,3.268925249576568604e-01
2.630484210976843373e-01,-1.294593945976717231e-01,1.282156562792435284e-01,-1.142086072354617579e-03,-7.289388768278482443e-03,-1.042454426725438615e-02,3.461338877677917480e-01
2.509962886201145271e-01,-1.158997840041592897e-01,1.520683238264016746e-01,-1.567191051839351501e-03,-9.283606913077852713e-03,6.520629794250923177e-05,3.291946649551391602e-01
2.544056795855393904e-01,-8.641130216229928052e-02,2.376968278754981179e-01,3.393925430037839650e-04,2.398321499637609631e-03,6.927600221493905586e-04,3.328059315681457520e-01
2.523960548869289555e-01,-1.178476461225433647e-01,1.605287554588273602e-01,-1.801376183969483026e-03,-2.722112243310963013e-03,-9.936906438075810560e-03,3.344172537326812744e-01
2.630073383753420146e-01,-1.194886309869781921e-01,1.562245239200865665e-01,-3.908497466042553867e-04,-1.651475944573341757e-03,-7.406419159194204717e-03,3.421037197113037109e-01
2.237821094826127344e-01,-1.410423472852059268e-01,2.147528168644403934e-01,-7.655724749096062993e-03,8.559587595791069703e-03,6.027111467540943388e-03,3.610940575599670410e-01
1.910550269242991817e-01,-1.304998130715462890e-01,2.390282362508992786e-01,3.429688826293539089e-04,4.329753422516633213e-03,4.106039977142773509e-03,3.481840491294860840e-01
4.547879683392051509e-01,7.292763692882806015e-02,4.124044087944936932e-01,-2.165499174185382680e-02,6.297956893488807634e-03,3.808774175780332838e-02,3.705494701862335205e-01
2.290154791944578327e-01,-1.292734633909214670e-01,2.120130094282489663e-01,-1.368840000300875978e-02,4.735781954118092885e-02,1.027398610922619464e-02,3.607981801033020020e-01
2.133213241671704230e-01,-1.150929513591943953e-01,2.398863582926999694e-01,-8.465543502475924437e-03,1.222403554742880309e-02,9.739115015305417969e-03,3.438514173030853271e-01
2.416000174199633976e-01,-1.318199927585632369e-01,2.553487018545893550e-01,-1.604441152167341515e-03,-5.039413223632263281e-04,2.908255441870994870e-03,3.805252015590667725e-01
2.279550932182345946e-01,-1.344189814654637716e-01,2.399049866414903476e-01,-2.528832093191228127e-03,1.250977138266531877e-05,-4.473193007780294078e-03,3.686018288135528564e-01
1.844605486041465403e-01,-1.147346791391687104e-01,2.361485551361818536e-01,-3.802254626844583322e-03,2.403844815867536497e-02,4.854071224230126387e-03,3.309106230735778809e-01
1.685042543641145918e-01,-1.248483599082891443e-01,2.685088611128339520e-01,-7.146906577729571393e-03,1.087393404328916742e-02,1.615323620297271986e-03,3.548367023468017578e-01
1.637267151451725633e-01,-1.168438256474463588e-01,2.413400605399125265e-01,3.291242537585188383e-04,7.035269201502314211e-03,-2.146951438516580928e-03,3.266225755214691162e-01
2.206681754278849994e-01,-1.119948258627097570e-01,2.238508744760201452e-01,-8.774472611683832232e-03,3.366369492964450816e-02,9.186212716194127464e-03,3.400256335735321045e-01
1.491298459501762541e-01,-1.168666043584062203e-01,2.554418472454465516e-01,-4.939291969697347598e-05,3.004515707681088346e-03,2.247393197617084896e-04,3.322080671787261963e-01
2.687983326094951497e-01,-5.516213504086389663e-02,2.519717079229467638e-01,8.171055817397437915e-03,7.732881415808960657e-03,7.250875346566744428e-03,3.167329728603363037e-01
1.809054068418680661e-01,-1.312550232104260917e-01,2.116665572963509767e-01,-6.106340328798131982e-03,2.731780492595781845e-02,5.146544232498294347e-03,3.322994112968444824e-01
1.701578612889352304e-01,-1.394402634255505480e-01,2.345546479796757899e-01,-1.893212671291416571e-02,3.083105477622455001e-02,1.646018140241337080e-02,3.530932068824768066e-01
2.328152883299248466e-01,-1.306865425472875097e-01,2.200834391594122530e-01,-1.164412985087085774e-02,-2.299789354113087811e-02,-1.148973804855314348e-02,3.606343567371368408e-01
7.159227366717249574e-02,-1.598588592422190424e-01,2.610735528085729173e-01,-9.868292939674377234e-03,-2.404415965980617742e-02,-5.797218885494470966e-03,3.680431842803955078e-01
2.393641261028326972e-01,-1.395040008291052458e-01,2.431949554379323752e-01,1.083255922074283662e-03,-3.061979260899100330e-03,-8.422070366170246068e-04,3.808423280715942383e-01
2.498491602857563221e-01,-1.311911388420415880e-01,2.414473547888912053e-01,2.540456633952578765e-03,-5.373549974549657153e-03,-1.845912310427566799e-03,3.770637512207031250e-01
2.458231224784854785e-01,-1.353640500951923675e-01,2.364381363922940238e-01,-6.853223348427675901e-04,-7.703235348185909475e-04,-2.733566501058413284e-03,3.766163885593414307e-01
2.203318045640478284e-01,-1.182790676480760528e-01,2.185815605412134710e-01,-2.926053851815718990e-02,-6.323155439644531639e-02,-1.131749020230771868e-02,3.591868877410888672e-01
1.804030015719512714e-01,-1.428213894377570736e-01,2.003047379187908317e-01,-1.643617414065404181e-02,-5.199444509959350036e-02,-1.682511946386387042e-02,3.479551374912261963e-01
2.432207433252120132e-01,-1.364776653575670295e-01,2.371826138206299117e-01,-4.961830054788828395e-04,-8.980500519828106976e-04,-3.611148688779611694e-03,3.767717480659484863e-01
2.103529948425433282e-01,-1.371698521522228820e-01,2.136971488571146605e-01,-5.450811558251654823e-03,-1.255081249801909618e-02,-6.591595205183093178e-03,3.501964211463928223e-01
2.103006097866357282e-01,-1.321614982867232446e-01,2.254771804416211833e-01,-5.444944289056800370e-03,-1.098036935459741938e-02,-9.314468402499826230e-03,3.513103425502777100e-01
2.397506025033992738e-01,-1.385331062012963299e-01,2.441610286628996263e-01,6.772133229574141440e-04,-3.998435574627163397e-03,-3.150976480734109849e-04,3.805733025074005127e-01
2.431464144141712858e-01,-1.282041135470762816e-01,2.427181968561282210e-01,-2.692614123779834764e-03,3.159050855427309335e-03,-4.055162987089118085e-03,3.712726831436157227e-01
2.379045505995061593e-01,-1.362139372598444031e-01,2.383594478544670270e-01,5.574693731696011428e-03,-2.220897623840006885e-03,-6.951731401678587149e-03,3.746839165687561035e-01
2.245474914553463874e-01,-1.384535637549327847e-01,2.268165227779838089e-01,-5.054526543135651195e-03,-2.386497554053481056e-03,-2.912114822052605176e-03,3.643044829368591309e-01
2.169507749756721116e-01,-1.306550230168965210e-01,2.005418479758534489e-01,-1.393328170835406166e-02,-2.784114064842974079e-02,-1.402814043492386399e-02,3.448091745376586914e-01
2.220512156255713687e-01,-1.291112841837736280e-01,2.307449020783453042e-01,-2.840407391850473164e-03,-5.504568844536512386e-03,-7.368750660658569818e-03,3.559797406196594238e-01
2.225145331867846021e-01,-1.287322585815552367e-01,2.268239719050480219e-01,-1.480045469120786113e-02,-2.324878991347528040e-02,-1.046804034251919667e-02,3.570909798145294189e-01
2.375081447544992730e-01,-1.391148187851084517e-01,2.360743117690688453e-01,-1.885955189290814066e-03,1.820501858345476270e-03,-2.606346212588187342e-03,3.759626150131225586e-01
2.257334540274674173e-01,-1.392579496527404648e-01,2.307331427996857087e-01,-3.573211773896770634e-03,-2.395774698091891839e-03,-5.719393304246369117e-03,3.677257299423217773e-01
2.274681415312586052e-01,-1.319270160691171367e-01,2.182619627715320365e-01,-8.347392842660235346e-03,-8.374048541850191707e-03,-8.865386982746316022e-03,3.558035492897033691e-01
2.718938613722380881e-01,-1.461047006092537348e-01,1.410894652482305722e-01,4.441349753125156674e-03,-5.362802447780276593e-02,-4.772554774553588834e-03,3.819842040538787842e-01
2.614327131375532853e-01,-1.389740290222099550e-01,1.236429196157361882e-01,-8.774956017617192849e-03,-5.025233695624867214e-02,-1.610314959892974671e-02,3.643136620521545410e-01
1.880056171184266434e-01,-1.690708418301307692e-01,8.641600712490379865e-02,5.444791735957856330e-03,-1.089025230074988082e-01,1.002410456551522215e-02,3.708347976207733154e-01
2.860506704002118150e-01,-1.913127827772175271e-01,2.863138816806839321e-02,6.513817668388798606e-04,-3.352725532698112854e-02,2.801977024281825449e-02,4.206980168819427490e-01
2.345521777573951472e-01,-1.401459437438584976e-01,1.150171079761542758e-01,1.081893376911878448e-03,-4.688666931430411633e-02,1.827280060671068393e-02,3.427798449993133545e-01
2.734118500941737917e-01,-1.496884941990113405e-01,1.213014639230025615e-01,1.175798782071494492e-02,-3.079167539937752510e-02,1.579707452533328504e-02,3.765651285648345947e-01
2.545246271324934639e-01,-9.638359798766973907e-02,2.462639157579940563e-01,7.718843516279659187e-03,-2.964984370197557006e-03,-6.796987855416827644e-04,3.471491932868957520e-01
2.510649124854568148e-01,-9.454190732057107804e-02,2.490423849782147925e-01,1.640335882534571521e-02,-3.083284296368644407e-03,-5.002761296636680163e-03,3.459190428256988525e-01
2.494733665983904780e-01,-5.347253349434502590e-02,2.499552486538281215e-01,1.727540067031319709e-02,5.801919597466172022e-03,-1.200345761891351455e-03,3.048328459262847900e-01
1.187421169082731598e-01,-1.211430095175676097e-01,2.699521006760111641e-01,6.403113785837051888e-03,2.127058330397456690e-02,-7.271872951611219049e-04,3.437502980232238770e-01
7.039151181771861887e-02,-1.685717875557265488e-01,3.299454680724187017e-01,1.268238818534098145e-02,5.573703247219637807e-02,1.522121326094473710e-02,4.438389539718627930e-01
2.185435297176159253e-01,-1.342161255967405653e-01,2.397877814681274589e-01,9.622722675736449817e-05,6.498020514548188097e-04,-4.193342846516468977e-03,3.639214932918548584e-01
4.719580100513533216e-02,-3.063737374287534010e-01,2.458080429828632119e-01,-1.455778191623421751e-02,7.499496871220974470e-02,-1.626120182658252408e-02,5.029744505882263184e-01
3.706900576609445386e-02,-1.916928768743138833e-01,2.265397343170555688e-01,1.454148083709752917e-02,7.594854833537313665e-02,6.754909169288289029e-03,3.868470489978790283e-01
1.274468283727714091e-01,-1.573407846488281969e-01,2.145359494706033932e-01,3.171183411632006420e-03,1.068762658473705884e-01,2.801452433652202104e-03,3.844628930091857910e-01
2.192237405425016550e-01,-1.343470390730625574e-01,2.387236716668855174e-01,1.272961420727546956e-03,1.457090040572201709e-03,9.142156549124985957e-05,3.637284636497497559e-01
2.463627833470112272e-01,-1.354395385937724183e-01,2.368018410466616597e-01,8.849716449156482499e-04,6.543936219178607102e-04,-2.952578762730697151e-03,3.771522641181945801e-01
1.564805647211928163e-01,-1.401844432253716854e-01,2.246413458895701043e-01,1.051558985429864451e-02,8.121895242585364105e-02,-6.685560918814942646e-03,3.648730218410491943e-01
2.314677820207655667e-01,-1.249797380029427640e-01,2.538228815070301403e-01,4.042742421419812451e-03,4.168517292629280238e-03,3.496608603205731466e-03,3.683216571807861328e-01
1.449666203038716128e-01,-1.485475001268770634e-01,2.686273653865258182e-01,8.089475330583805607e-03,1.088909036932523694e-01,2.822209280525174706e-03,4.165700376033782959e-01
1.297585016952299553e-01,-1.611553774566100716e-01,2.157809833554534817e-01,4.784427272107480596e-03,9.590631438766600292e-02,4.972178506816736857e-03,3.805164694786071777e-01
2.433818878337248026e-01,-1.353206450424659923e-01,2.401148317368212992e-01,-2.575041770367163751e-04,1.172664337506814074e-03,-2.906987562023048526e-03,3.771189749240875244e-01
1.891187856087400698e-01,-1.280040259742511455e-01,2.459164407426113752e-01,1.805832487670553516e-04,1.943191317399759182e-03,-4.643015854070624781e-04,3.490225672721862793e-01
3.584523503681064094e-01,-5.557718611097495209e-04,2.434887556992633706e-01,-1.182785888641130212e-02,1.969160654505621583e-02,2.265938019818403495e-02,3.224188387393951416e-01
2.846509302347726700e-01,-1.763297641207198230e-02,2.356733355399268093e-01,2.958196175122261486e-03,3.619131871007338908e-02,3.298417540954556859e-02,2.935792505741119385e-01
2.463000036897766976e-01,-1.214068840106293512e-01,2.470077312195371744e-01,-1.665331107994011666e-03,-1.035459327487103960e-02,2.146858993483410308e-03,3.685280084609985352e-01
3.862125781445401862e-01,6.421825190199104139e-02,4.511317694045408055e-01,-4.528275628536693881e-02,3.558658099982129914e-03,1.301509148777976656e-03,3.674140870571136475e-01
2.516918577316190619e-01,-5.467036580517178890e-02,2.438763664256585195e-01,2.628160657383580082e-02,-3.108271366285567973e-03,-2.858603040072940117e-03,3.060231804847717285e-01
2.167353129408365886e-01,-1.278028354267586320e-01,2.390921051464842129e-01,-4.210865751129765425e-03,-7.746651738100678898e-03,-4.158993044709644558e-03,3.566430211067199707e-01
2.830575321746712225e-01,-3.954684436879660203e-02,2.688141088918367116e-01,2.459485415811943007e-02,-1.178364909536605554e-02,-5.527294133646399807e-03,3.193812966346740723e-01
2.931448305004024091e-01,-4.670133007749596721e-02,2.611495336961464631e-01,-7.440735463738446485e-03,1.370294739987658501e-02,-1.396082622790435074e-02,3.270470201969146729e-01
2.582141408900153756e-01,-3.352391101063262324e-02,2.600437462501349328e-01,8.400869345244612457e-03,2.911167866362794669e-05,-2.047993226287912749e-02,2.951579391956329346e-01
4.164053761357456862e-01,1.417592567762990252e-02,3.051273561023560288e-01,-1.996410307827223979e-02,-9.759408290698533620e-04,2.142089305555570228e-02,3.633003532886505127e-01
1.392922346627892549e-01,-1.373209540721618827e-01,1.988432524452641015e-01,1.015896787373849353e-03,5.358481447046845730e-02,2.596753091712055198e-04,3.242700695991516113e-01
2.087766597680113800e-01,-1.243616784541046738e-01,1.813910253297872366e-01,3.837315432688446267e-03,3.153829539870439680e-02,4.837455126459267373e-04,3.250181376934051514e-01
1.343812282048876261e-01,-1.240611627453674926e-01,2.496674053690902673e-01,1.941596729871920249e-04,4.532746634538280250e-03,4.030801079015592118e-04,3.315726816654205322e-01
1.821470376237389610e-01,-1.248951360989089820e-01,2.062938406750455811e-01,-1.505598677939107765e-03,3.239841696745535127e-02,-4.424362850255578877e-03,3.247869312763214111e-01
2.226901918528316204e-01,-1.219918962956366149e-01,2.183973861502549463e-01,-6.387051248193242360e-03,7.169254086017415317e-03,5.907379127533771666e-03,3.431119024753570557e-01
9.208027377109065381e-02,-1.006160101538706303e-01,3.490002534240765342e-01,2.714568926816277733e-02,-1.454233718513132240e-02,-2.653003017376507136e-02,3.969935774803161621e-01
2.291787380433089050e-01,-1.320625178753304096e-01,1.748466341027213322e-01,8.861165533985318477e-03,-1.267901983893927366e-02,1.094898049751799607e-02,3.389656245708465576e-01
2.306042138179041356e-01,-1.400731940324388414e-01,2.305318092938994368e-01,-9.756433239396582538e-03,5.376252921464127858e-03,1.067255729345750748e-02,3.716031312942504883e-01
1.534354713560997507e-01,-1.157028863298228544e-01,2.599471079199874302e-01,1.496506910031885230e-03,-2.871474091345996033e-03,2.159811202216530175e-03,3.353982567787170410e-01
1.834187006850777624e-01,-1.235411930962031224e-01,1.969841568622026640e-01,9.820273013371089849e-03,6.929438033683620046e-02,1.598720522864369728e-03,3.365628719329833984e-01
1.960164783119449639e-01,-1.277979976024160025e-01,2.001402615042803257e-01,2.760934110433719071e-03,1.735576425641128726e-02,-2.128184735264574030e-03,3.273351192474365234e-01
1.871069895876656397e-01,-1.286099762409482206e-01,2.386350581079888789e-01,1.330136897110567032e-03,-5.068624991636571341e-03,3.048301236918222242e-03,3.445444703102111816e-01
1.889614162360713778e-01,-1.267180111098950568e-01,1.932972721318605702e-01,-3.836504611320116186e-03,2.303759850491009925e-02,3.227242551561312640e-03,3.204818665981292725e-01
1.963754134500310666e-01,-1.343016245032602474e-01,2.232987527723412635e-01,-1.900239793603679395e-02,3.043243643137751725e-02,1.748675853275776307e-02,3.517870604991912842e-01
2.268636173727977823e-01,-1.162992499787376399e-01,1.791326985404543826e-01,-4.732303578886638482e-03,2.982915510943816295e-02,5.720845169097599214e-03,3.263345062732696533e-01
2.135038877561569182e-01,-1.360048099082200868e-01,2.391046062781832793e-01,-8.206079573361203154e-04,-2.617889185418906554e-04,-4.947584549514451508e-05,3.629898428916931152e-01
2.553417217865585620e-01,-1.321077988727293873e-01,2.374860242123201237e-01,-1.819567044481536526e-03,-2.455831943610335168e-03,-1.224645746628142025e-03,3.788803219795227051e-01
2.604844214508749700e-01,-9.941539269324367600e-02,2.652247646860196317e-01,-2.290763820832999141e-03,9.971510069067514304e-02,-4.375017815136470617e-03,4.014459550380706787e-01
2.494123966983891882e-01,-1.367033955085565078e-01,2.371158033467383186e-01,-3.292613650581152109e-04,9.086675797893232608e-04,8.708230663449434894e-04,3.801233768463134766e-01
2.275497748370584883e-01,-1.233011354123435266e-01,2.216020866493333685e-01,9.979986934673577836e-03,1.088633424333678226e-02,-1.113797105677834416e-02,3.493872880935668945e-01
2.539607457685224001e-01,-1.264932504884867803e-01,2.252146975368463089e-01,4.029857095370134069e-03,-9.604194958335381897e-04,6.394492929434683615e-04,3.669982850551605225e-01
2.133035825014799325e-01,-1.205252152972772911e-01,1.949277144038997767e-01,-3.212867673272034371e-03,4.421679693273276868e-02,4.348554906798050845e-03,3.340629041194915771e-01
2.562504334786188109e-01,-1.330895737140900259e-01,2.381206474413730123e-01,1.225465238601052345e-03,3.015503835933189963e-03,9.406472872043588956e-04,3.806443512439727783e-01
2.533427285198436851e-01,-1.355798829383038639e-01,2.354437299275844442e-01,-1.079640900099230159e-03,-1.437356088664601850e-04,-2.549189555780164828e-04,3.802940845489501953e-01
2.388302602848960676e-01,-1.335565091304800056e-01,2.415864449759075883e-01,5.562996318230555362e-03,-2.708933412917655104e-03,1.534153753864873210e-03,3.739355504512786865e-01
2.377859918414012008e-01,-1.343208886052009443e-01,2.510079474418701051e-01,5.607725641806507282e-04,-9.814161275006488567e-04,-1.031801696044608394e-03,3.789002001285552979e-01
1.989549006294456523e-01,-1.186346035122206738e-01,2.081023625599955351e-01,2.377219573884304087e-03,4.069426113293971026e-02,-8.181377546143009383e-03,3.302086293697357178e-01
2.250617547323583156e-01,-1.249881304021352585e-01,2.096169895259872018e-01,6.705195272574402884e-03,3.089125503055666858e-03,-9.935382080127276756e-04,3.428315818309783936e-01
1.936523414595200387e-01,-1.420346753639720738e-01,2.372479519062287157e-01,-1.081725076174571559e-02,-2.771746310411793337e-03,-4.102818251206966083e-03,3.600630760192871094e-01
2.357973113191348946e-01,-1.379844677202970993e-01,2.148442228120958086e-01,5.034744948569629813e-03,4.244132678190183118e-03,-2.661605446135918186e-03,3.639660775661468506e-01
2.116471600538233078e-01,-1.319186992394635050e-01,2.276460279752597349e-01,1.624031780019519200e-02,9.584387139918370060e-03,-1.256723740589136239e-02,3.540208339691162109e-01
2.396185186612730389e-01,-1.377964508326902648e-01,2.370627111267463727e-01,-5.721226294899514793e-04,4.731555792199524432e-04,2.489413753851974550e-03,3.761704862117767334e-01
2.036057773131214055e-01,-1.315299445069380013e-01,2.396438834213153179e-01,1.536744695521006544e-02,-1.514644103059573955e-02,1.230392070515751689e-02,3.571319580078125000e-01
2.457314623577176449e-01,-1.307336879377419825e-01,2.416105860712644271e-01,3.740363476567368922e-03,-5.111004929538624612e-03,-2.488161217038297943e-03,3.746071755886077881e-01
2.638472056229637097e-01,-1.015823489462085172e-01,2.591643072917866331e-01,-6.526710972589101940e-03,2.590486904915402944e-03,9.636240737571608733e-03,3.636975586414337158e-01
2.316890000438694419e-01,-1.388636772524541318e-01,2.332982830235041383e-01,2.713098986516325820e-03,6.423836651577379767e-04,9.921816536630971399e-04,3.713953197002410889e-01
2.331340272988797757e-01,-1.173303933957286216e-01,2.611019203361606422e-01,4.270092560185640568e-03,3.909456144756660173e-03,-1.337745177126830991e-03,3.653973042964935303e-01
2.273983240773016501e-01,-1.360607810553289554e-01,2.301058415359402975e-01,8.858658437951152931e-03,5.322212877529802939e-03,-9.440974214938578635e-03,3.656251132488250732e-01
2.548681489818669377e-01,-1.335661135107767683e-01,2.387297338328616125e-01,9.521751430832096517e-04,4.713937613393423369e-04,1.846364289408858881e-04,3.806263208389282227e-01
2.481613281149564476e-01,-1.281785494170301631e-01,2.346524700257585083e-01,2.598084007028487671e-03,-7.348648878242553494e-03,1.326922137428913646e-03,3.700240552425384521e-01
2.380620148435306505e-01,-1.397615369162454324e-01,2.501248045410606746e-01,1.010374186881291513e-02,6.026699674859040123e-03,-8.397468067383478951e-03,3.848123252391815186e-01
2.120297136886983291e-01,-1.356427868921114832e-01,2.244819441905316904e-01,7.956886298568860427e-03,1.126028685662357198e-02,-8.015188392596909323e-03,3.551388084888458252e-01
2.841450567137596139e-01,-7.901292931925316121e-02,2.956225026013770130e-01,8.288113811236116207e-03,-2.904852874731937793e-03,5.501222795421511699e-03,3.694668710231781006e-01
2.774533078301093525e-01,-1.075020845144347148e-01,2.554705497763900546e-01,2.196721698048511792e-03,-3.238025371461779323e-02,-8.612841084696709647e-05,3.786442279815673828e-01
2.441732076766872095e-01,-1.403573762061220420e-01,2.092600668564824629e-01,-1.382218050175410863e-02,-1.397296814097514356e-02,-1.992450163226267695e-02,3.714934289455413818e-01
2.381297740643010252e-01,-1.391872637031964510e-01,2.288736901887269692e-01,-3.323984755473659205e-03,-1.703459579245413349e-04,-1.914872119659438363e-03,3.728345036506652832e-01
2.389942147426971086e-01,-1.347215622600482221e-01,2.325255497260532711e-01,-5.569309245816101567e-03,9.008972252846791538e-04,-4.188012022157178507e-03,3.707236051559448242e-01
2.178294725757540240e-01,-1.348022273427302298e-01,2.343890448522092385e-01,-1.149021757898648771e-02,-4.394694200208665823e-03,-1.063840514729310315e-02,3.622931241989135742e-01
2.446420037333510156e-01,-1.317802889823001533e-01,1.995812125937163339e-01,-1.544963457973845371e-02,-1.216537486313663298e-02,-2.633723402037021349e-02,3.605597615242004395e-01
2.423449780018664956e-01,-1.345116984544150185e-01,1.681430581880329067e-01,-8.772760035450578777e-04,5.230828773910903978e-03,7.773464561097746719e-04,3.459040224552154541e-01
2.228639736023195206e-01,-1.335541060506083288e-01,2.345664587410765667e-01,-1.466921691187756272e-03,-1.192996846597079537e-03,-6.926671585179615398e-03,3.626243770122528076e-01
2.418448098340162944e-01,-1.394236412295991878e-01,2.395663057774120308e-01,-2.947120017741114905e-04,7.622332522642878737e-04,-7.134292089869632763e-04,3.801389634609222412e-01
2.400035847834442737e-01,-1.263452174354010027e-01,2.575849171993522813e-01,-2.166710551608962143e-03,-1.161238491223851726e-03,4.935939121236091777e-03,3.755697906017303467e-01
2.267096048750467385e-01,-1.337480934100064023e-01,2.220075370097710221e-01,-1.206623489192198235e-03,-1.523383055415819401e-03,-3.711783133477822728e-03,3.582033216953277588e-01
1.965931141153828832e-01,-1.360885549916701631e-01,2.535012211541852745e-01,-1.140879309408284435e-02,3.815816597869561128e-04,-4.866014857119275831e-03,3.651162385940551758e-01
2.612344433908494468e-01,-7.870234986100871355e-02,2.861345397132373791e-01,5.640967819923421028e-03,5.905372720564528929e-03,8.207159096812565238e-03,3.536151051521301270e-01
2.569029662566953420e-01,-8.509768165262510120e-02,2.490807000193119292e-01,4.695885107418678456e-03,3.895666786055791090e-03,1.802090463075440782e-02,3.397592604160308838e-01
2.146853154052260071e-01,-1.342336731006041617e-01,2.282033430814178754e-01,-1.920522435055330157e-02,2.220237218880082020e-02,1.388828457135975365e-02,3.602886497974395752e-01
2.571426362213418138e-01,4.536785677787677495e-02,2.547330029269814777e-01,5.094499995293960692e-03,1.584976465147537334e-03,-5.556585528393808912e-03,2.110025882720947266e-01
2.220321811971637249e-01,-1.494743752561679129e-01,1.615305519296978964e-01,-2.035407248461004737e-02,6.556044738719890574e-02,2.321146707539870763e-02,3.673615455627441406e-01
2.447476461215463139e-01,-1.451594612753754898e-01,1.938736718466675391e-01,-9.842032408506055929e-03,2.601554380966725893e-02,1.843863974504742279e-02,3.716457486152648926e-01
2.473276427373591324e-01,-1.334498919603915312e-01,2.048854072255526515e-01,-1.374594604630607377e-02,1.154523884437964193e-02,1.896260928372895185e-02,3.642489612102508545e-01
1.931607079020700724e-01,-1.430108547936791985e-01,2.219856114796286972e-01,-1.569285731713049650e-02,2.985442038799133654e-02,1.035684788223402431e-02,3.567446768283843994e-01
2.448008503749387610e-01,-1.085288681923025356e-01,2.484110073990055956e-01,-2.934639572981457157e-03,9.551677094503253918e-03,-4.576548454128740416e-03,3.556583523750305176e-01
2.472992236496648344e-01,-6.386960072711203584e-02,2.536532380165788525e-01,-7.991470061035800196e-03,1.051751419098044191e-02,-6.194330476834313849e-03,3.154079020023345947e-01
2.379607174103278711e-01,-7.045109976363836402e-02,2.443318891509215218e-01,-8.902285763633664348e-03,5.607644807818102511e-03,-7.110916100287040936e-03,3.124214708805084229e-01
2.499196910849526554e-01,-1.921393439268817560e-02,2.533861440743350180e-01,-7.834788690228109559e-03,9.373216558099375928e-03,-8.325154223053299546e-04,2.717124819755554199e-01
2.565267418426540047e-01,-7.074670869252860927e-02,2.398022681277794110e-01,-1.154656631497931463e-02,7.863010100060272706e-03,-9.848837381850415046e-03,3.206097185611724854e-01
2.565510625961275326e-01,-7.623438467844437239e-02,2.429007632199644551e-01,-8.022173631618684936e-03,9.737237289125183146e-03,-6.207046741853302664e-03,3.270824849605560303e-01
2.395613524214562640e-01,-1.338775460887702273e-01,2.223358476761607694e-01,2.214412251938249418e-04,-1.679500223410452359e-04,8.758717776460970021e-05,3.651313483715057373e-01
2.468315209604828309e-01,-5.512572213107846952e-02,2.319657800262323599e-01,-7.444366303454034908e-04,3.465954210452441321e-03,1.777005980497260165e-04,2.948697209358215332e-01
1.453249945709488289e-01,-1.395295231721990215e-01,2.479501371278723387e-01,1.171073850651789192e-02,6.176207046800422226e-04,-3.357402565646588812e-03,3.483584821224212646e-01
1.946998062732069323e-01,-1.252863407363665749e-01,2.408216674809314783e-01,-1.093020894934366733e-03,2.593852106002709872e-03,7.024113794459933835e-03,3.456132113933563232e-01
2.463192668767069382e-01,-1.307085797720975162e-01,2.238791223124189933e-01,6.297709101725498977e-03,-1.161273274358973873e-04,-1.498330200700558361e-03,3.664952218532562256e-01
1.580956708394211652e-01,-1.201548320966307898e-01,2.427025255911043344e-01,8.070449048333093326e-04,-7.022079501025781274e-03,2.285456818340855095e-03,3.290731012821197510e-01
2.439286210640903563e-01,-1.285046938584877285e-01,2.296837848196771337e-01,2.106326246013343756e-03,4.331190546911257121e-03,1.177368740851754414e-02,3.661825954914093018e-01
2.374021324747987161e-01,-1.234043513423341565e-01,2.488368646849245802e-01,1.529911837729106688e-03,-1.766409690603398287e-03,1.313645969281124551e-03,3.666869997978210449e-01
2.070819896774570568e-01,-1.228737726566296456e-01,2.328832678805754508e-01,-1.350164191197754729e-03,2.907304304034821069e-03,6.385634460284650080e-03,3.438065648078918457e-01
2.262189926775747539e-01,-2.507839222801426238e-01,1.755255495256179132e-01,-1.670134310221284279e-02,1.269488242917298781e-01,1.390698420314557746e-02,5.056537389755249023e-01
2.309048489616675193e-01,-1.254320568357154553e-01,2.536368133336839858e-01,1.633364515308192598e-03,7.814491372842378297e-04,-4.122895401099529143e-03,3.683120906352996826e-01
2.565704606290148959e-01,-1.259410371256568795e-01,2.221141539978470358e-01,1.140275730512357692e-03,-6.490112395248852882e-03,4.113846864258352380e-03,3.667470216751098633e-01
1.691142331429390522e-01,-1.293127878214433146e-01,2.452310892797260611e-01,-5.662419889734043518e-04,-6.428108408814107652e-03,-3.612687834050804826e-03,3.431207835674285889e-01
2.431035720219628660e-01,-1.212493875834464441e-01,2.514040330067415230e-01,-2.755107731206457491e-03,-2.880981004807073049e-03,-1.802743052136391655e-03,3.686511814594268799e-01
2.471869523465237695e-01,-8.336041509962174856e-02,2.373812921962608069e-01,6.609281207508874503e-03,-1.033772035768990016e-02,-6.915176561065913656e-03,3.266673982143402100e-01
2.440028230339684190e-01,-2.150404012249407248e-02,2.536176695973042516e-01,9.047523937955570224e-04,6.590821103504866316e-03,-7.016454012351375983e-05,2.706878781318664551e-01
2.466541101985054718e-01,-1.336756092374111748e-01,2.322694509040663380e-01,4.957554426223250571e-03,-6.188364047849380942e-04,6.637822239530724935e-03,3.736224770545959473e-01
2.552590042390360248e-01,-1.264078882354653377e-01,2.393994032717346454e-01,1.298268296443457013e-03,-4.029803228609471835e-03,-7.342800465147077994e-04,3.740634322166442871e-01
1.516516046685299490e-01,-1.252692317445667225e-01,2.445525235241942652e-01,-6.171475714028004309e-03,-1.890627232044426662e-02,-4.737408571504496749e-03,3.351057469844818115e-01
2.568569961427780157e-01,-3.388735937454831482e-02,2.667661098859910318e-01,1.133061357636209803e-03,1.148446277683943736e-02,-4.694132283579153381e-03,2.966093719005584717e-01
2.493762731063808580e-01,-1.288239914058583180e-01,2.378827462074547539e-01,1.592620393304836719e-03,5.502367550157202108e-03,1.789226238861586207e-03,3.727314472198486328e-01
2.397547133187590274e-01,-9.025893043632568502e-02,2.443741424340167001e-01,-1.675177217100799385e-04,1.771488749850048472e-03,4.189552852277575803e-03,3.324409425258636475e-01
2.276194953471463722e-01,-1.366638814062546559e-01,2.234822597640441777e-01,7.251803757749602890e-03,-5.887442688527380619e-03,8.364687645364462382e-03,3.628829419612884521e-01
2.463731185678320612e-01,-9.999375037442503888e-02,2.416446279255408114e-01,1.807452494646754736e-03,-1.733562896810149270e-03,-4.535345500145456822e-03,3.441440165042877197e-01
1.112459494654432224e-01,-2.924253070064834481e-01,1.529397181592295485e-01,3.020392214004906373e-02,-1.070109501615473663e-01,-3.013711705720701836e-02,4.704625606536865234e-01
2.664006353084862333e-01,-7.432055347826899139e-02,2.708797897242861685e-01,-8.878015563458309042e-03,-5.452405143487801947e-03,-1.860092208458739502e-02,3.449648618698120117e-01
2.433559323280746201e-01,-1.189160577039191785e-01,2.410931411590346574e-01,-6.201260513044035746e-04,4.949001208699887848e-03,1.893162991109932289e-03,3.612641096115112305e-01
2.429161407884368185e-01,-9.235273656901943351e-02,2.562611294918757943e-01,-3.706745787068894439e-03,9.119214293197046989e-03,-4.889697382232129769e-03,3.426658809185028076e-01
2.428667620305926533e-01,-1.247839423861677455e-01,2.535097621517674593e-01,8.211600942851717162e-04,8.253639361519526235e-03,-2.567926937496914190e-04,3.733628392219543457e-01
2.415085206658131312e-01,-1.262475051191103703e-01,2.453125970236451903e-01,-1.348172950453667938e-03,2.921673592761658399e-03,-6.851826422297237207e-04,3.697166442871093750e-01
2.143155958747053336e-01,-1.148947913923187708e-01,2.186726930297256399e-01,8.549022312130368298e-03,-3.040751985717647654e-02,6.634399373323988068e-03,3.360922932624816895e-01
9.431117325872379054e-02,-2.089372901773691171e-01,3.341768173211296378e-01,3.201333126461303018e-03,4.858642296540841704e-02,3.101592533174330119e-04,4.789018630981445312e-01
2.509308722562506588e-01,-1.263216118049368952e-01,2.434548138308101906e-01,1.518015545179162394e-03,7.210441993149100878e-03,1.700349665891036192e-03,3.738000988960266113e-01
2.206816884231549980e-01,-1.162705874788528826e-01,2.178447954678472964e-01,4.618824715008545967e-03,-1.068061486802688795e-02,6.511186731571486953e-03,3.363367319107055664e-01
1.829321699384206523e-01,-1.338323582895130093e-01,2.093292238185530119e-01,8.622804732479529694e-03,-2.468987162727826271e-02,7.587374918198648219e-03,3.340999186038970947e-01
2.103107559761924761e-01,-1.255426598895664769e-01,1.898064481380855595e-01,4.236779400690631261e-03,-2.063395045654647236e-02,1.079619140045437117e-02,3.286522626876831055e-01
2.560442388462750851e-01,-1.337313755100540402e-01,2.364516942421069357e-01,7.312085868307726787e-04,3.494505800411192042e-04,3.277516149154889027e-04,3.803609907627105713e-01
1.732330670861653710e-01,-1.405879928528026845e-01,2.360089079588672811e-01,1.800407529195155107e-02,-3.165340904942817724e-02,7.736610834034132224e-03,3.553627133369445801e-01
2.181661205069213294e-01,-1.339765315701131887e-01,2.087065794042208267e-01,8.589975375770792648e-03,-1.561230038888177657e-02,1.229537591549824393e-02,3.495267331600189209e-01
2.241658478598944071e-01,-1.342819426417858342e-01,2.157155461624677972e-01,9.702000546050318364e-03,-9.605652759849543643e-03,8.820889787018372508e-03,3.554150462150573730e-01
3.749473136651092497e-01,6.147629514263899808e-02,4.499749234548455767e-01,-4.581069832955006471e-02,2.298631053967676099e-02,-6.771643261927235910e-03,3.680091500282287598e-01
2.234000661540090638e-01,-1.299389585827962490e-01,2.311052368118547695e-01,5.626428384268983979e-03,-6.113860150800193988e-03,7.286948295022391622e-03,3.577663898468017578e-01
2.239010518825622076e-01,-1.325771143928966000e-01,2.253418302418137009e-01,1.163742775108632822e-03,6.709953126302519225e-05,4.178368808415385861e-03,3.572797477245330811e-01
2.294612593900036135e-01,-1.360100405463054996e-01,2.369497418077534112e-01,8.801545161582628382e-03,-2.049578616392053534e-03,1.037053338954383244e-02,3.700402975082397461e-01
2.447346084775020025e-01,-1.369485826006068552e-01,2.364063074356437810e-01,-6.127075995062513779e-04,5.844931476161530819e-04,2.284106851164982837e-03,3.776115179061889648e-01
2.325928344589475727e-01,-1.363649271778414884e-01,2.246784726504937324e-01,7.926231181514451635e-03,-3.068569324553954182e-03,1.005506862826118647e-02,3.657764792442321777e-01
2.544639271492761257e-01,-1.252583337205616654e-01,2.284526498251600590e-01,-5.032897799315467807e-05,4.073199687109030701e-03,1.542074002666481017e-03,3.674852848052978516e-01
2.456234737735949747e-01,-1.332954766082316278e-01,2.426273413371059506e-01,2.411278920928617425e-03,6.638513993829807044e-03,5.116938886809179604e-03,3.777319788932800293e-01
2.351281861457150124e-01,-1.344586892026006508e-01,2.420048079693707388e-01,5.839099176145281893e-03,2.435470303244291132e-03,6.126480630483037426e-03,3.733844459056854248e-01
2.038341783580576716e-01,-1.215974074454147652e-01,2.472281425588346848e-01,6.312245863388158242e-04,-2.699986847080186516e-03,-4.878052440713528080e-03,3.492920994758605957e-01
2.577618291232722236e-01,-1.210763385927788177e-01,2.370699500127488313e-01,1.162125338753290953e-04,7.318753857696470161e-04,1.494643452754380192e-04,3.689300119876861572e-01
2.357818726630959705e-01,-1.357328640338832659e-01,2.377587539989246546e-01,6.395585002954562448e-03,1.657283006725126812e-03,6.772558487683405515e-03,3.728674054145812988e-01
2.260762402815600369e-01,-1.006543386964453557e-01,2.520147912821861791e-01,2.653352819394433695e-03,-2.324665956618072581e-03,6.313669939785675981e-04,3.404983580112457275e-01
2.518607252163125865e-01,-1.424385944925111447e-01,1.288335994282577002e-01,-3.207908794006137515e-03,-6.163206395212975260e-03,-3.584428748164789416e-03,3.496876955032348633e-01
2.351195748627689652e-01,-1.231354975060555967e-01,2.393248044781076111e-01,-1.184650645141428977e-03,3.779276735248054530e-03,-2.800871287021623399e-03,3.604740202426910400e-01
2.024747375578666297e-01,-1.226731531671401004e-01,2.412195437978729151e-01,9.931041117538308774e-04,-4.332479691149875370e-03,-6.593395685514881997e-03,3.464242815971374512e-01
2.463251988074694199e-01,-1.318250961206325622e-01,2.403254384254299714e-01,4.067917755245394756e-03,7.170414204330842999e-03,3.524160189112076833e-03,3.755076229572296143e-01
2.263162840348779126e-01,-1.397013829520740436e-01,2.351661921125940691e-01,-4.541286810334174175e-03,-5.141773592583569977e-04,5.350990622237809802e-03,3.707223236560821533e-01
2.381102211023249926e-01,-1.358234817187508048e-01,2.382176422909751679e-01,-5.846770186174834495e-04,6.248781047172225671e-04,-2.588968424035974387e-03,3.740172386169433594e-01
2.650184283432842625e-01,-8.969109657118182199e-02,2.591893037208193862e-01,7.157675503530937060e-03,9.314877310906789082e-03,6.052906442818637919e-03,3.525749444961547852e-01
2.427305930808150713e-01,-1.244790037081072581e-01,2.425986304272318150e-01,2.215899165507944930e-03,-3.483199571986171725e-03,3.664614633175478694e-03,3.672681152820587158e-01
2.483437413792108361e-01,-1.108915305983650679e-01,2.483531344756473302e-01,6.248926520813446323e-03,-7.541915082177175385e-03,-6.906561303146783147e-03,3.598392009735107422e-01
2.444308012807389074e-01,-1.288273557660264967e-01,2.400138289438818462e-01,6.084300282667277990e-04,-4.163382735540122059e-03,-3.466337034230471646e-03,3.711895048618316650e-01
2.480933470270678121e-01,-1.425060717636306706e-01,2.290959205701300905e-01,1.283315295782852246e-04,1.051129757924260935e-03,1.839647542874413289e-02,3.827885687351226807e-01
2.312311823526047583e-01,-1.299645547480952068e-01,2.312376017920858007e-01,2.270362861006494128e-03,-5.512822721489680459e-06,-1.790687236380364509e-03,3.612336814403533936e-01
2.486098278278213447e-01,-1.304041407811312725e-01,2.421094363243755376e-01,4.148305655947428019e-03,4.864276833082834331e-03,3.179665869782044921e-03,3.760093748569488525e-01
2.227765903832130689e-01,-1.419599045949681282e-01,2.286306118584573721e-01,5.900920754491870493e-03,-4.987456311619874356e-03,5.727911757473568705e-03,3.680756390094757080e-01
2.146109728024959973e-01,-1.270214418180404814e-01,2.139912363512407045e-01,-6.966401622099348268e-04,-1.112147216299197699e-03,-3.338443285109279467e-03,3.413795232772827148e-01
2.382811909774326109e-01,-1.356152852708933376e-01,2.133499630775870792e-01,-7.927893053662714556e-04,4.294026584294138513e-03,7.690451826583902511e-04,3.621566295623779297e-01
2.456377053492891371e-01,-1.047554643122108053e-01,2.468768095658252781e-01,-1.661883023926274874e-03,9.098397337016152220e-03,-2.789731154712951806e-03,3.514129519462585449e-01
2.384798032223098829e-01,-1.347678067944849123e-01,2.554002090263522429e-01,1.514858622982445148e-03,-2.176965856544568235e-03,-1.258649234439741848e-03,3.820228278636932373e-01
2.432274282317122560e-01,-1.197351383453913592e-01,2.506676488952308546e-01,-3.562300289815934721e-03,6.791649137050855337e-03,-3.524237674749739965e-03,3.670305311679840088e-01
2.143204640284494533e-01,-1.266265632403097974e-01,2.278106285340776305e-01,1.081828007007498704e-02,-2.220383435152925231e-02,1.363659608062608303e-02,3.513037264347076416e-01
2.222474077240543799e-01,-1.351309385774833727e-01,2.441925333800175069e-01,2.046719116591897824e-03,1.561025554192661119e-03,-3.318164724119287284e-03,3.689125776290893555e-01
2.019409845993133112e-01,-1.206543390922581310e-01,2.102836170246364378e-01,1.049073162467419485e-03,-6.198481177431068578e-03,1.678956924452835574e-03,3.270407617092132568e-01
2.380215113892313883e-01,-1.363418462289276156e-01,2.384030225653656354e-01,2.608693036100737019e-03,3.973816305865445625e-03,2.882137430227897038e-03,3.746779859066009521e-01
2.221929497154831734e-01,-1.362959575478921992e-01,2.331864704392546672e-01,4.122920406872831837e-03,-8.808841337704145444e-03,2.206317458186952962e-03,3.645196855068206787e-01
2.348224926844661442e-01,-1.336214659805489147e-01,2.300535637719496873e-01,7.667126909815822310e-03,-6.936414852555885385e-03,1.156397581386187437e-02,3.670673966407775879e-01
2.412704221194000853e-01,-1.405462113549448833e-01,2.376987570160045138e-01,-2.816918425325986306e-04,8.479785098519820223e-04,-1.415635185761563624e-03,3.800544440746307373e-01
1.884260612478194652e-01,-1.160967529089777517e-01,2.304399802491995941e-01,-1.980453012488892699e-04,-6.715169760339036523e-03,-3.331142637590233258e-03,3.278142809867858887e-01
2.463802447318060584e-01,-1.260107819359981840e-01,2.357596347172648266e-01,5.311657304110791681e-04,-1.405034968280528991e-03,1.418752912832254784e-03,3.672133684158325195e-01
2.349205125059978527e-01,-1.238854277719043107e-01,2.479124206958128740e-01,-2.782230521706868798e-03,-4.781262182580031488e-03,2.840655126367386697e-03,3.656338155269622803e-01
2.324522117349130390e-01,-1.364508668169956418e-01,2.297738565272201550e-01,5.291949411831579908e-03,-6.344487298651067418e-04,1.390452404772482163e-03,3.676950037479400635e-01
2.366538395532225558e-01,-1.362115056290211235e-01,2.129358707365846259e-01,4.263298445228314720e-03,4.048135781001455146e-04,7.052037924575242471e-04,3.616683781147003174e-01
2.535593385609796746e-01,-1.249717979897917303e-01,2.349364535079924154e-01,8.750664279629438106e-04,-1.599886531461919628e-03,-1.705548041363692726e-03,3.695970773696899414e-01
2.485034630963666724e-01,-1.194996081848521963e-01,2.493988423163575885e-01,9.050003261167980512e-03,-6.912756010225226851e-03,-6.246121493950927347e-03,3.691377341747283936e-01
2.440062874466804588e-01,-1.427082692088708638e-01,2.394040358385307043e-01,-3.711064596467725067e-03,-2.805164600214144193e-03,1.627826516764813852e-03,3.845288455486297607e-01
2.186079268893147132e-01,-1.214270527696042906e-01,2.232869620049532933e-01,1.181338434896947974e-03,-3.193313897429196960e-04,3.613957885296422215e-03,3.424622416496276855e-01
2.059187570518691834e-01,-1.264063162122035511e-01,2.181519119454400635e-01,3.053413024307840076e-03,3.046496224108438070e-03,-4.727202910197083295e-03,3.387887775897979736e-01
2.410150562499032700e-01,-8.819351493150043297e-02,2.633413119048030882e-01,-9.741931373663761939e-03,1.342821198187672815e-02,-4.667173382698663713e-03,3.422247171401977539e-01
2.521120129995921832e-01,-9.884750445487142101e-02,2.422834350669990089e-01,1.010690283805361529e-02,-6.303379715804645171e-03,3.422773036032300022e-04,3.467646837234497070e-01
2.477935122021661107e-01,1.268472398359943298e-02,2.494377229307047084e-01,-7.473103477681604379e-03,-3.913170620221544826e-05,-2.790136072541893634e-04,2.362904846668243408e-01
2.212515319909633404e-01,-1.329386182979824804e-01,2.361594239332389933e-01,2.096468291530792223e-04,-1.235025480768918004e-03,6.034809897250373312e-03,3.620319068431854248e-01
2.460837131323377058e-01,2.641396760834288648e-02,2.519968421815350634e-01,-3.070538416209394467e-03,2.666540022279358275e-03,5.899288109957047735e-03,2.230307608842849731e-01
2.360811671627590647e-01,-1.361992024227113851e-01,2.466114498109739372e-01,1.321381154167676616e-03,-2.943278017621775260e-04,-1.638770261257958306e-03,3.776735663414001465e-01
2.473658253740221302e-01,2.578546881929136281e-02,2.533268725103461350e-01,-6.616780003128428130e-05,-5.745691094942344604e-04,5.982278000591551709e-03,2.248613089323043823e-01
2.450603906682483624e-01,4.611424394009161487e-03,2.494868064423719223e-01,-9.728333065075360497e-03,-1.691943586011777087e-03,8.616440632891003010e-03,2.437516450881958008e-01
2.521369452714833370e-01,6.175784892981095453e-06,2.483764959786441961e-01,-1.175377024165638086e-02,-4.132877209994612056e-03,7.655809716073512516e-03,2.515501379966735840e-01
2.428043417806101112e-01,-1.366727522881662216e-01,2.383288197659159668e-01,1.001048270300369369e-03,-9.582747666113412008e-04,-4.048162340484105434e-03,3.773320317268371582e-01
2.363594943110744473e-01,2.584149396425317047e-03,2.387817525965763577e-01,1.258000269503508272e-04,3.974217307621217068e-03,-2.840504461006827536e-03,2.351482063531875610e-01
2.536726080455068422e-01,-1.196312896771823953e-01,1.625917006063552772e-01,-5.505322667130451569e-04,-1.006245183069415412e-02,3.011247017111868228e-03,3.376130163669586182e-01
2.429004847184274563e-01,-1.154722612179256841e-01,1.767597143145197003e-01,3.679535322317665016e-03,-4.984315688058659106e-03,8.244267894024489424e-03,3.307893872261047363e-01
2.322408613649092346e-01,-1.207104330200195891e-01,2.363872698154565466e-01,1.237949280773261232e-02,1.578046011078224758e-02,-1.381850344906046003e-02,3.575401604175567627e-01
2.063590263891288967e-01,-1.245100383256592669e-01,1.825647984205744367e-01,-2.189768103783928423e-03,2.900275297679769798e-02,2.593322269647377245e-03,3.236136138439178467e-01
2.016258180490171359e-01,-1.383802078019270576e-01,1.930642971080874792e-01,9.063165246410801465e-04,8.345010617464503067e-02,-1.152297068715095723e-03,3.656017482280731201e-01
2.238389953461373261e-01,-1.307667589032056044e-01,2.365067972530268958e-01,-1.267715253726535429e-03,-1.046142869197124337e-03,-5.785825739124433181e-03,3.612565994262695312e-01
2.105170606108534015e-01,-1.256119300979738618e-01,1.802224272091163537e-01,-3.294353047081738465e-05,2.809503294723340872e-02,4.590876535609925146e-03,3.258048295974731445e-01
2.456691413148567871e-01,-1.385872704349325746e-01,2.388885463443392587e-01,4.785147270398598001e-05,1.229671989587045010e-03,-1.313212247225049477e-03,3.809241354465484619e-01
2.214711339974123339e-01,-1.558485884388001175e-01,1.346250742926063115e-01,1.633268587787340548e-02,3.745460886814855339e-02,-1.020788966058433327e-02,3.499501347541809082e-01
2.417501805193904285e-01,-1.405545541235786455e-01,2.372523483243162701e-01,8.108725963286446924e-04,-4.391903350378124904e-04,-1.091688911583784316e-03,3.800838291645050049e-01
1.838144929959301677e-01,-1.266659105968164223e-01,2.042201688932809289e-01,6.567175501049881021e-03,2.806127752215395108e-02,-4.982606750791691505e-03,3.251402974128723145e-01
2.098363241425686143e-01,-1.279392366044513618e-01,2.452626022910143755e-01,1.357222145050818694e-02,8.804443358812566803e-03,-1.527190759154618480e-02,3.588848710060119629e-01
2.430918411735966400e-01,-1.207533918489000491e-01,2.410012312150249802e-01,-3.564673230587549896e-03,3.649121686135524227e-03,-4.384253722977977247e-04,3.629128038883209229e-01
2.272534882502116882e-01,-1.343083471855335831e-01,2.388423673590631124e-01,-6.143060638828111604e-03,-3.417856086675121656e-04,-6.795269841715400987e-03,3.678361773490905762e-01
2.584757410378887288e-01,-1.273988877006230203e-01,1.290457488543470532e-01,-8.036389595308977363e-04,1.095576520699806204e-03,6.624118426187377076e-03,3.403597772121429443e-01
2.307726431013653046e-01,-1.383955482653821401e-01,2.358461714416103527e-01,-5.565274646815454758e-03,-7.573292764598057308e-04,-6.454284217568429655e-03,3.720262050628662109e-01
1.935541105284751540e-01,-1.386978092567385246e-01,2.532651016929961529e-01,-2.132365409807306100e-02,1.772177825329601750e-03,4.910345255066452322e-03,3.677521944046020508e-01
2.373191137301021991e-01,-1.409035247621203690e-01,1.829282084059176416e-01,-6.740660119902410798e-03,-5.631917383590649001e-03,-1.953068275793435477e-03,3.545162379741668701e-01
2.468878235498165874e-01,-1.366348943089603640e-01,2.406344291104199062e-01,-8.464796093929364195e-04,4.627818359981637937e-03,-2.287261257208812043e-03,3.805424571037292480e-01
2.369879670504062008e-01,-1.265262794866615081e-01,2.222545816943037877e-01,-8.767785440941169156e-03,-9.917288079942250534e-03,-3.743003198747460718e-03,3.571716547012329102e-01
2.318131300587365218e-01,-1.227533521330998745e-01,2.066037281853667917e-01,7.270634331417472236e-03,3.432039045920366044e-03,-1.001019004155515035e-03,3.429452180862426758e-01
2.368601180541939910e-01,-1.392699115914341479e-01,2.445788305210473967e-01,-3.409338038003270708e-03,9.867666999316100987e-04,-3.679427254743398990e-03,3.801513314247131348e-01
2.246665726712710476e-01,-1.349001661262594076e-01,2.052747020055560312e-01,-1.036460872952676970e-02,-9.126334245600510250e-03,-1.453444411747555759e-02,3.519907891750335693e-01
2.188496873159525014e-01,-1.280606508914985953e-01,2.309482123206693660e-01,-5.660230841444935899e-03,-8.028864642522275108e-03,-7.100158450917867792e-03,3.537386059761047363e-01
2.366995969281406320e-01,-1.397761722310406629e-01,2.387853990560021289e-01,-2.501681750452031203e-03,4.205291360366178411e-04,-1.223632702425370145e-03,3.775545060634613037e-01
2.593855354474667863e-01,-4.325538916716256677e-02,2.671531472888536984e-01,1.884117474149791388e-02,-1.478864879038438700e-03,-3.752909202595497689e-03,3.084095418453216553e-01
2.051971457079072025e-01,-1.250651235678528761e-01,2.326576933445655415e-01,1.006439887158894556e-03,-3.181204068456626628e-03,6.671738408602280457e-03,3.450556099414825439e-01
2.476732163202362003e-01,-1.228294016228246022e-01,2.420581994577563345e-01,3.819025974666896109e-04,-1.038561732071526574e-03,3.710219020186887161e-04,3.677328228950500488e-01
2.783262726543716536e-01,-8.555177820165024705e-02,2.719970238817572272e-01,9.963807064252479945e-03,8.829184090119252676e-03,-8.086106922374162315e-03,3.617624640464782715e-01
2.449534412504241754e-01,-9.729367207418587737e-02,2.416774265212005002e-01,5.679290101598160473e-03,-5.591776637252106677e-03,-7.728707850969852335e-03,3.411632776260375977e-01
2.180109661539792187e-01,-1.339520067403333070e-01,2.428064038198678998e-01,-8.616932031222230420e-03,-5.724002277342964302e-03,-3.294947008698685328e-03,3.654769957065582275e-01
2.449856285475665030e-01,-1.161276069086713547e-01,2.451578141788515464e-01,4.329944505337175384e-03,-1.053028711509603442e-02,-9.195279105451781634e-03,3.620877563953399658e-01
2.278064738005445844e-01,-1.125861297047742599e-01,2.441746520037012813e-01,-1.779297286494003431e-03,1.773175272805280851e-03,3.282201047152755874e-03,3.489382565021514893e-01
2.477469736240133780e-01,-1.247487560636628412e-01,2.481165365932304356e-01,-3.706830832820236319e-03,1.393317827125864668e-02,1.248269353949644361e-02,3.741416037082672119e-01
2.393404306693738826e-01,-1.337968612549527425e-01,2.400860149423550971e-01,5.694450565743412610e-04,-1.897654006847651923e-03,-3.328288004468517129e-03,3.735708892345428467e-01
1.637510066859663715e-01,-1.158965367304507083e-01,2.444979570566433447e-01,-1.601924819198943719e-04,-7.473924261577307403e-03,-2.516145856644505345e-03,3.278568983078002930e-01
2.389655778895153349e-01,-1.346626066677789890e-01,2.468282138048699947e-01,3.354588546800466378e-03,2.014996656159106017e-03,5.647001064679525208e-04,3.776829838752746582e-01
2.231353431863775660e-01,-1.382246446410775320e-01,2.267298258864743621e-01,5.200569845233253552e-03,2.810100060823329284e-03,-5.611698278724264188e-03,3.634448647499084473e-01
2.432973922723048465e-01,-1.364110268478649912e-01,2.385730985832186235e-01,6.483247819799270277e-04,-1.255123226053520653e-03,-3.473647955344057181e-03,3.774243295192718506e-01
2.107196581432524973e-01,-1.350021351941402548e-01,2.371373309372370730e-01,4.831231907989095437e-03,1.140865210231930237e-02,-7.723250580574194703e-03,3.605468869209289551e-01
2.272110971208500807e-01,-1.411740474949905733e-01,2.366007640379760302e-01,6.129992005861137003e-03,6.426278054097542963e-04,-4.360687741683251517e-03,3.733976483345031738e-01
1.639688982065627687e-01,-1.427547989198034162e-01,1.910065902771571622e-01,1.775606651778039585e-02,7.075753127077534510e-02,-1.398512881245689635e-02,3.459133207798004150e-01
2.533943595128110848e-01,-1.247932862794170067e-01,1.536661268804481173e-01,-2.084264987472958172e-03,-4.822624567096644131e-03,-6.643065341130231782e-03,3.398099839687347412e-01
2.430783074997785453e-01,-1.355781640160335089e-01,2.384886678331921139e-01,7.859996650448227134e-04,-9.927468962364479829e-04,-4.348309503155987216e-03,3.764643669128417969e-01
2.080015058196819644e-01,-2.560028184686510833e-01,1.859718504230690184e-01,-1.979504686694650434e-02,1.317218048122523744e-01,-2.465447035522479440e-04,5.087151527404785156e-01
1.451347517892160044e-01,-1.496877535009110693e-01,2.600941644771360139e-01,-1.841268878285406280e-02,1.166514218342691806e-03,-1.839519582579623178e-03,3.675049841403961182e-01
2.596496745263277006e-01,-1.245807936537041971e-01,1.616183231704919065e-01,-1.432595902287282265e-03,1.317342500796982434e-03,-1.125349717460355503e-02,3.463637530803680420e-01
2.558205636773638325e-01,-1.160669031434918702e-01,1.607620642472905037e-01,-2.320999413206561220e-03,-9.734326445397583141e-03,1.090550716879728986e-05,3.350906968116760254e-01
2.503255468476704992e-01,-1.193064812389140750e-01,1.417398151100195958e-01,8.321272594234581897e-04,-2.131703009790974872e-03,-1.023438069415116445e-03,3.290908336639404297e-01
2.579450997992661643e-01,-1.273501368073965134e-01,1.378433820830833878e-01,3.793213678499925221e-03,-1.448329995845209399e-03,-1.196818981010848784e-02,3.421715795993804932e-01
2.586698691820444318e-01,-1.196297882156190512e-01,1.295730177764435331e-01,1.283466965553809683e-03,-3.072610436812395641e-03,-3.455318373690230210e-04,3.331260383129119873e-01
2.372282333723866321e-01,-1.382336152931609163e-01,2.390077250052402569e-01,3.390862994525073969e-03,2.724789776197476983e-03,3.242744178330479385e-03,3.764720559120178223e-01
2.327226113867924551e-01,-1.249095901323752367e-01,2.061990678144101086e-01,6.400803284144502246e-03,-2.980262583221039187e-03,5.655920336557006918e-04,3.453536331653594971e-01
2.502688705877504916e-01,-1.314285970823329819e-01,2.391535584791019409e-01,-9.511568318220926365e-04,5.752524552493631753e-03,-4.389651290233649589e-05,3.763984739780426025e-01
1.923561082849721549e-02,-2.794295474419463687e-01,2.914480625437131378e-01,3.286456520343447249e-03,6.567535404480014799e-03,2.534258338241373448e-02,4.966783821582794189e-01
2.542269976811573073e-01,-1.213566918526919336e-01,1.793639800317959054e-01,-1.724679037809418369e-03,4.622206789230867523e-03,8.808957374156866152e-03,3.447550833225250244e-01
2.919140822215356423e-01,4.578590109745531156e-02,2.951867390685846138e-01,1.984629889826626525e-02,-7.461503194487440448e-03,-1.988569108394254437e-03,2.505110800266265869e-01
2.406071164187575384e-01,-8.819131364861443334e-02,2.381992875415928079e-01,1.306626238448463199e-03,-9.326503064250816349e-03,1.322566236802350144e-03,3.280149996280670166e-01
2.357570895162801328e-01,-1.315520963397643905e-01,2.184055631724072244e-01,-6.664021269922940777e-03,6.887100734457186207e-03,8.935881732827048729e-03,3.596648573875427246e-01
2.482703554039075722e-01,-1.269807085453641682e-01,2.213057363576844128e-01,-4.130883650205599555e-03,3.875235506686872024e-03,5.665744019709819182e-03,3.627871274948120117e-01
2.463529948548255355e-01,-1.329517120895628568e-01,2.001028316047227529e-01,3.476914292845184953e-03,-8.104204523580826967e-04,-1.445676455167974614e-03,3.584867417812347412e-01
2.548610447081920416e-01,-5.608674830091400776e-02,2.585216457642969257e-01,1.429194710279899604e-02,-4.634227880921918188e-03,-1.187215293398669394e-02,3.145476579666137695e-01
2.502039292010659333e-01,-7.453700076849523182e-02,2.324939080825819127e-01,2.496851291813719474e-03,3.989538428334250819e-03,-2.264141081445136816e-02,3.187844157218933105e-01
2.305823399555138598e-01,-1.398634668543892179e-01,2.344992596050770040e-01,-2.720349302333070415e-03,-8.832822138155002351e-04,-1.151224096207050093e-03,3.724580109119415283e-01
2.450406999050450119e-01,-1.332084597582753327e-01,2.468766113818101626e-01,-4.947972419736255435e-04,1.758268778778300642e-03,1.811331849172905612e-04,3.791837692260742188e-01
2.393867079090745142e-01,-1.369594692917949774e-01,2.467698492832927082e-01,-1.525735039415652668e-03,4.984209459349204369e-03,-1.604551935500212519e-03,3.802089095115661621e-01
2.387997482175167052e-01,-1.279774572731218196e-01,2.199142674572691636e-01,-3.983495962949620741e-04,1.572598340466955374e-02,6.082117555703399694e-03,3.588994145393371582e-01
2.274360352802180241e-01,-1.274726740837020256e-01,1.645432384314519103e-01,7.657125208867652209e-03,2.769753510692299012e-02,-7.514812485728630115e-03,3.320260047912597656e-01
2.589837943370350004e-01,-1.222662081156563885e-01,1.839197789830360197e-01,-5.216286802354426488e-03,1.262686860597822883e-02,1.214734470966345042e-02,3.512415587902069092e-01
2.367663819444120188e-01,-1.337380658231222819e-01,2.553212269016676972e-01,-1.059547913608850558e-03,1.103644871128538641e-03,-7.273293885034338253e-04,3.801330029964447021e-01
1.925687133529421780e-01,-1.380329828236870338e-01,1.486763281559181360e-01,-8.288740863795392155e-03,-6.161419813669524737e-02,-1.008610281087127247e-02,3.295654058456420898e-01
2.313705739949301621e-01,-1.302126160797612009e-01,2.153526192951125129e-01,-7.204216595917862197e-03,-1.541147861689003444e-03,-3.402988277686520933e-03,3.541252911090850830e-01
2.188507647351187746e-01,-1.353585188420981245e-01,2.091278934865444250e-01,-1.548802038772529623e-02,-3.401799796870685899e-02,-1.941477485852846629e-02,3.569830954074859619e-01
1.709543537007308656e-01,-1.478922000195609099e-01,2.589878347092638977e-01,-1.344637118138803863e-02,-4.136976090466412681e-02,-2.182394935671781722e-02,3.802470564842224121e-01
2.363937297265142901e-01,-1.326063096333359725e-01,1.804782094656813274e-01,-1.103872191127765884e-02,-4.276055801832715636e-02,-1.333607498826051667e-02,3.536089062690734863e-01
2.375022047920182511e-01,-1.368144956531288647e-01,2.454092208426510990e-01,2.986211103977158814e-03,-2.390782038788382378e-03,2.975567867457224250e-04,3.783905506134033203e-01
2.194933275541761653e-01,-1.298177660585103088e-01,2.261536867207446233e-01,-4.989378210425825244e-03,-5.650837038498306673e-03,-5.847152189850028485e-03,3.530753254890441895e-01
2.366412988990015398e-01,-1.362394951634260387e-01,2.378075513602884161e-01,-1.139428708789098649e-03,-7.205869473149408488e-04,-3.546921752817352915e-04,3.734730780124664307e-01
2.273368371175600866e-01,-1.272622813249178753e-01,2.289705817442613811e-01,-5.786169278468724503e-03,-3.562064746566267343e-03,-6.117747801134466694e-03,3.557714223861694336e-01
2.449875075426636850e-01,-1.255825495853472029e-01,2.343463222889887732e-01,7.507237317345237374e-05,1.104589275767931499e-03,1.733827862623975031e-04,3.653708696365356445e-01
2.040200614208609320e-01,-1.180181417793651349e-01,2.195741799929684379e-01,-1.571159135882650867e-04,-4.422653570981026697e-03,-1.394293345223778175e-03,3.301880359649658203e-01
2.215799968204009152e-01,-1.413279903403501514e-01,2.644282814834248430e-01,-9.255214908020292092e-03,-1.007821794197791970e-02,3.862655153601356455e-03,3.869038820266723633e-01
2.103616601727540669e-01,-1.237401507638459935e-01,2.250948495772344959e-01,1.041895678638904985e-03,-2.061084679918711096e-03,6.052844448746905887e-03,3.418909013271331787e-01
2.437618231327721985e-01,-1.269543821488712809e-01,2.447184180884655613e-01,-4.352228207926646907e-03,4.623391799393012855e-03,-4.714820761863648332e-03,3.714480996131896973e-01
2.435442040932740970e-01,-6.376333092202646213e-02,2.652360553513970487e-01,7.471217345650730743e-03,7.831586619084680845e-03,-3.821301894910213246e-03,3.193270862102508545e-01
2.108747353003744829e-01,-1.158749902836499340e-01,2.157941358861716896e-01,1.115671322541876391e-03,-2.034638298683046683e-03,1.740905741191949236e-03,3.292753398418426514e-01
2.512614589604577620e-01,-1.351168033696603654e-01,2.388837222766552193e-01,4.551040587142290744e-04,4.566644345195516180e-03,-1.724482212340522770e-04,3.804236650466918945e-01
2.511351602067476985e-01,-9.577649368105722871e-02,2.544954892725060369e-01,-3.069287515017850819e-03,9.080681395468321454e-03,2.183381233281180694e-03,3.490195870399475098e-01
2.502443955430959655e-01,-4.577921808154436500e-02,2.757163756273024457e-01,7.366350330401386613e-03,7.279931406959087858e-03,2.049635913763228623e-02,3.120916485786437988e-01
2.424311382608839716e-01,-1.341705333020726254e-01,2.491608641767457388e-01,5.294941452902623882e-04,7.372957907450862144e-03,-4.333890373740495005e-04,3.802275955677032471e-01
2.610891529790080323e-01,-2.577711210887392856e-02,2.472164788402733127e-01,2.586500402960682093e-02,1.958986056845544565e-03,-3.474323603465273927e-03,2.838306128978729248e-01
2.594829341777297738e-01,-7.096546201868048076e-02,2.747409618695733080e-01,5.400378644550368756e-03,-6.700604699380757062e-03,-1.202067133761047183e-03,3.386701345443725586e-01
2.577140633233297451e-01,-7.393472431485278995e-02,2.548053477238183540e-01,4.069860620839071789e-03,6.072142731181758360e-03,1.764308600900094809e-02,3.318566679954528809e-01
2.629495865451451087e-01,-2.735425468945804073e-02,2.545079173073240275e-01,1.305467829829006464e-02,-1.928350631069805903e-03,2.307473084809165756e-02,2.898563444614410400e-01
2.301076921227762639e-01,-1.312162706061299478e-01,2.347696630408100393e-01,-5.702553752953342867e-03,-5.035191408318678841e-03,-6.547101183036717342e-03,3.640926182270050049e-01
2.545157988349844302e-01,-8.936703139866844503e-02,2.500995562664969363e-01,6.165284700796665532e-03,5.466294183290885955e-03,-2.074523031639833974e-03,3.420128822326660156e-01
2.538760918020469548e-01,-9.259767355632661512e-02,2.357300558437891713e-01,5.576171487915651884e-03,-3.366473110926753495e-03,3.805002460722467159e-03,3.380191326141357422e-01
2.670272857452619109e-01,-1.023813814642888786e-01,2.417443713477270828e-01,-2.586562785953949208e-03,-1.436652140309729701e-02,1.890808463000175207e-03,3.583465516567230225e-01
2.415748928701757781e-01,-1.404124574076500431e-01,2.387967044227698732e-01,7.111276181851749113e-06,1.131495117794545759e-03,1.466731010733713595e-03,3.806193768978118896e-01
2.054487956409149219e-01,-1.344356831375583261e-01,2.336437714375878272e-01,-8.871013515434501145e-03,-5.606765546390173223e-03,-7.109430708881436974e-03,3.555017113685607910e-01
2.467117170435252915e-01,-1.262553666766455251e-01,2.412169210347194226e-01,-2.032417860700132597e-03,6.568684920707342813e-03,-1.291708533442490620e-03,3.704484999179840088e-01
2.322986400224881787e-01,-1.605732227687413083e-01,2.331690214030056052e-01,2.994488599234607692e-03,-9.021775625060738518e-03,-1.112645791437690858e-02,3.941236734390258789e-01
2.147039676393674990e-01,-1.251354646528615722e-01,2.154294998839247910e-01,1.111665076352700166e-03,7.448468272737010032e-04,8.335255820796827388e-04,3.402137458324432373e-01
2.235177697962812959e-01,-1.160125772943012973e-01,2.309177277685490193e-01,-1.835985911740542487e-02,-4.775581992247764085e-02,3.342413890547400387e-03,3.545909523963928223e-01
2.332178920671217626e-01,-1.391851104687219509e-01,2.314370168069847522e-01,1.238818260979959469e-03,2.448378922061479656e-04,2.701846991807513223e-03,3.715516626834869385e-01
2.476201292785596142e-01,-1.302231850190288254e-01,1.930204640748484912e-01,-1.326473758553828493e-02,-1.132804419366880734e-02,-2.312936664929957781e-02,3.572594523429870605e-01
1.056456919972485198e-01,-1.814339203053279004e-01,2.600001999556593724e-01,-1.885840557970233644e-02,-2.194384573334448585e-02,6.712088239932623634e-04,3.912351131439208984e-01
3.018280751447948718e-01,-1.434781741183485670e-02,2.867012071662304873e-01,7.275630836366291706e-04,-5.732790752815998536e-02,4.378498607322404285e-02,3.332051932811737061e-01
2.596801219834059538e-01,-1.280101278926105701e-01,2.138141548696413374e-01,-5.504677552176893973e-03,1.953135453356198009e-03,-8.525200463522080233e-03,3.673499822616577148e-01
2.026567125484235454e-01,-1.384784279003983265e-01,1.956156551181575942e-01,-1.411046061373886183e-02,-4.568491453880037939e-02,-2.032827827377325230e-02,3.494555354118347168e-01
2.380199815565273713e-01,-1.243335070335193498e-01,2.555936045622340114e-01,-1.000600511136588114e-04,4.698932565602852163e-03,1.400301987480189695e-03,3.715493083000183105e-01
2.400044858471755416e-01,9.670686163771563537e-03,2.422791110309495122e-01,-9.588648473001089648e-03,5.783777473501215162e-03,-9.095893128408812089e-03,2.328242808580398560e-01
2.237003116096662469e-01,-1.364935188534154020e-01,2.297383118375327382e-01,-7.565812119729062486e-03,-2.704744558950562469e-02,-1.376015831248949411e-02,3.672674000263214111e-01
1.209055467763241604e-01,-1.206308860185105747e-01,2.900854002823185507e-01,3.960290615074591944e-03,-5.166092681080178967e-03,1.096652322476428850e-03,3.577086627483367920e-01
2.503584418867487726e-01,-5.727949041736629665e-02,2.473244758899190154e-01,-1.607929711886611768e-02,8.884151449564316183e-03,-5.002411691200227273e-03,3.079032897949218750e-01
1.613220219526911858e-01,-1.388266251522927153e-01,2.681868150574412413e-01,2.523571406325724430e-03,1.385091553170903454e-02,3.815075537984718643e-03,3.663644790649414062e-01
1.432282241962667124e-01,-1.575006893841461864e-01,2.637467199214575397e-01,1.726563757831974313e-02,1.713560307002880839e-02,5.230772342992080770e-03,3.782370388507843018e-01
2.059936276023227875e-01,-1.354238581128286434e-01,2.312979945614089816e-01,-5.890781059209810981e-03,-7.671260800005273890e-03,-7.369076115770646987e-03,3.553718030452728271e-01
1.036148354480849465e-01,-1.474374175494146677e-01,2.543771887479301386e-01,2.253710679762689281e-02,6.477075845985288439e-03,-4.929475373038874966e-03,3.540173172950744629e-01
1.543158648215193773e-01,-1.337350816420421196e-01,2.478920225525961807e-01,9.118033682989204469e-03,1.354991889068102176e-03,-4.819489563573125385e-03,3.449770212173461914e-01
2.935133780615418742e-01,1.893023897025788993e-02,2.694295591156752323e-01,-2.536350092689164740e-02,-1.180856215891683530e-03,-7.026104503185576569e-03,2.672922015190124512e-01
2.175409501566276660e-01,-1.288360746696592951e-01,2.364944797300695400e-01,-6.989321702808231479e-03,-7.964874987652331706e-03,-7.397400143278377166e-03,3.569346964359283447e-01
2.490408643061237659e-01,-1.188628113721649227e-01,2.493027148941870108e-01,1.026782008583247349e-02,6.422345219980630376e-03,1.061165810799610289e-02,3.690899014472961426e-01
2.528893968751118049e-01,-7.703334811075809863e-02,2.538961391284578761e-01,3.418388008094445756e-03,5.904441794256231821e-03,-7.550471992409526307e-04,3.306410908699035645e-01
2.656125813313904294e-01,-1.117018802211983131e-02,2.696812285361798178e-01,-1.329232685777223012e-02,2.000115222079966622e-03,-7.918142034515456007e-03,2.801455557346343994e-01
2.382585197672240085e-01,-9.151839702780067975e-02,2.503264155007249303e-01,-6.505293357791605037e-03,8.265165242061266529e-04,-1.193547645871481828e-03,3.361717462539672852e-01
2.177216733365864854e-01,-1.496608296947941896e-01,2.316153431645940342e-01,1.193354823595679098e-02,-8.618852108334200748e-03,1.026026657794124747e-02,3.758099675178527832e-01
2.375946367953435390e-01,-1.300785818996121335e-01,2.492401407745644115e-01,8.398851457212040510e-04,5.410868746854098632e-03,6.674512602195952242e-04,3.737542629241943359e-01
2.421052237354783532e-01,-1.366316489791365718e-01,2.378550885420965544e-01,-4.530484132152070632e-04,-1.726137888438423942e-03,-3.520714186059993242e-03,3.766918480396270752e-01
2.473052108062233356e-01,-1.297314428643706608e-01,2.014332960495527347e-01,-3.997270499385444271e-03,2.808910760431476434e-03,7.499051079760075782e-03,3.566592037677764893e-01
2.341866473462135834e-01,-1.396837788934283675e-01,2.124054633212735799e-01,6.407599502942794983e-03,-7.048838196366205393e-03,6.936469118694757810e-03,3.640422224998474121e-01
1.944530175153212914e-01,-1.273439703315708549e-01,2.494521590896748853e-01,1.321129768383623622e-02,-1.359879995827459505e-02,8.596101195712975429e-03,3.543682396411895752e-01
2.240549397199618764e-01,-1.243976264517857311e-01,2.259935649169776406e-01,4.942548693890661676e-03,7.192586738200315002e-05,5.666017050300179575e-03,3.496685326099395752e-01
2.556502595469716255e-01,-1.214480425693456045e-01,2.402001159671846853e-01,3.596060286449044054e-03,5.337875967861028040e-03,3.023868997387127184e-03,3.698206543922424316e-01
2.505709719563286031e-01,-1.299483311166623745e-01,2.369627476189860305e-01,-4.383805188403628044e-04,2.950079820796964233e-03,2.178869788736083769e-03,3.739556968212127686e-01
2.363626680115512579e-01,-1.307317573350273987e-01,2.252204410861068373e-01,-5.352026393893208160e-03,-7.205872649693120802e-04,-6.321365929369156516e-04,3.617746531963348389e-01
2.088191688945472135e-01,-1.356144626217812288e-01,2.495414547574094366e-01,2.671557076728739780e-02,-2.919829664300266359e-02,7.180802484197934370e-03,3.730582296848297119e-01
2.086231951317572553e-01,-1.103033171915346056e-01,2.489643252373102411e-01,1.838137010772383090e-02,-2.203927215233794298e-02,6.773091503487434217e-03,3.446967005729675293e-01
2.219651888224507819e-01,-1.453190865135110532e-01,2.410702931791260384e-01,7.260467586368371876e-03,-1.003654577750835979e-03,7.809271130112128978e-03,3.776557445526123047e-01
2.113458195981448573e-01,-1.190410507566464493e-01,2.151777937855250400e-01,3.673678082566972022e-04,-1.524051836753882987e-03,-3.750314056566202278e-04,3.323311507701873779e-01
2.497454331247198622e-01,-1.331612204713729652e-01,2.614000356095408928e-01,8.670704989108258404e-03,-1.967284002151160546e-02,6.978704369111994946e-03,3.908307552337646484e-01
2.286297316195135543e-01,-1.173555402292844191e-01,2.193601217419248461e-01,8.707896634186191101e-03,-9.267951996851146734e-03,7.435396651978043100e-03,3.423968553543090820e-01
2.407482884097207620e-01,-1.318670710731147666e-01,2.399911322957831716e-01,-2.348422029368977919e-03,1.053808805330681960e-04,6.133770061580743303e-03,3.724111914634704590e-01
2.047076821363772448e-01,-1.279524106972463326e-01,1.889876548958923652e-01,9.532114397232185898e-03,-2.345053756742490614e-02,4.858840939564766821e-03,3.281365931034088135e-01
1.626515725422951197e-01,-1.178148295406761387e-01,2.410975879206300188e-01,-2.329544445123093999e-04,-7.968801550252360352e-03,-3.845271648595994119e-03,3.271875381469726562e-01
2.024194085208617100e-01,-1.399059287672831386e-01,2.158993304791712031e-01,1.515374168407386014e-02,-1.597953658138274308e-02,1.341534283032105868e-02,3.521046936511993408e-01
2.474385717852146116e-01,-1.240737375412523380e-01,2.556929936122890323e-01,8.390892045477691547e-03,7.036917775252983726e-04,1.087974204708694499e-02,3.764624297618865967e-01
2.518963210671683051e-01,-1.240318434304296946e-01,2.520170125679276896e-01,1.092403450347711330e-02,-2.128052353549151395e-03,6.156656716585508747e-03,3.766333460807800293e-01
1.934738429295418949e-01,-1.292379074592996391e-01,2.426154749300867275e-01,1.367893758169971136e-02,-1.478335096064883024e-02,8.757839246099470565e-03,3.519423902034759521e-01
2.920528533820261341e-01,-2.812771711360684268e-03,2.880671717979043089e-01,-1.495040928481992416e-02,1.702446921769801801e-03,-1.122369203231622994e-02,2.946922779083251953e-01
2.255934639019399612e-01,-1.300021950429363082e-01,2.311837089531071365e-01,8.764256238315140191e-04,1.202800533574290400e-03,3.596687760572394883e-03,3.584868907928466797e-01
2.381010424711760831e-01,-7.666359577286671612e-02,2.547358341755666666e-01,-1.156137423126825034e-02,9.768995881559731833e-05,4.178303113118680620e-03,3.241032958030700684e-01
2.570662558682748622e-01,-5.408670209138766172e-02,2.858806153891060298e-01,-7.969312022021805483e-03,2.244860204999462282e-03,4.196693707783869312e-03,3.269106745719909668e-01
2.204619240053056761e-01,-1.367732022868143049e-01,2.425314363621912661e-01,1.069009248769782310e-02,1.360225885372865970e-02,-3.165938967575663340e-03,3.700215816497802734e-01
2.471586905772767129e-01,-1.342038776874664441e-01,2.216400472921337683e-01,-1.346773855561451873e-03,-2.597304822321577517e-04,-3.849853463096132491e-03,3.693329989910125732e-01
2.368947845111441797e-01,-1.339039370883098046e-01,2.303243749698508647e-01,1.093678384005568674e-02,3.445764495241543379e-02,-1.164572905442520442e-02,3.733982443809509277e-01
2.518073469033920153e-01,-1.002051320799876855e-01,2.467784622826224017e-01,-1.156379640620030375e-02,-7.196732660272413089e-03,1.128060803098071552e-02,3.508648574352264404e-01
2.421222144834455914e-01,-1.384703075288488405e-01,2.376892386941580337e-01,-2.663946916729536402e-03,-2.378666882596243686e-03,-2.384914035533724531e-03,3.784686028957366943e-01
3.216190090906078103e-01,2.299014439672833476e-02,3.322840147983456838e-01,8.522754897275455765e-03,6.668821163137994557e-02,-1.372698288783260863e-03,3.256429731845855713e-01
2.373909938738307801e-01,-5.901470781952977696e-02,2.271576768327591145e-01,7.144213853950564727e-03,5.206203438126640742e-02,-2.719038883518102787e-02,3.089179396629333496e-01
2.627975297164699131e-01,-3.118771937148451245e-02,2.393386456382320115e-01,-2.810992690134566686e-03,4.075399293309155818e-02,9.276226280554579181e-04,2.917019426822662354e-01
2.923061902882451157e-01,-1.915592217203351821e-02,2.903870093222798987e-01,2.211992347352317867e-02,1.503186473659322286e-02,-5.120710599829434058e-03,3.140684366226196289e-01
2.920660862369353628e-01,-4.129421473201161374e-02,2.981409943000175033e-01,1.202030263183576954e-02,8.696342499099556089e-02,-2.226934598382869501e-02,3.712145984172821045e-01
2.366884040466687988e-01,-1.370086245063071306e-01,1.240638528409160335e-01,1.179950947226473049e-02,5.275234013923257165e-02,-1.400639762555561454e-02,3.458336889743804932e-01
2.303552149989322451e-01,-1.335980881129915920e-01,2.321992526078334729e-01,3.430194859963512418e-03,-8.258075918560626571e-04,4.725670542583484610e-03,3.650217652320861816e-01
2.393080398520020802e-01,-1.411174790454113592e-01,2.394396248541873218e-01,1.852758395541751943e-04,7.534633143052963137e-04,9.889006023257700118e-04,3.804975450038909912e-01
2.438607251371481821e-01,-1.482714588089699137e-01,1.827761345078678934e-01,9.494028363965976991e-03,1.270256645140431517e-02,-2.062943359143997249e-02,3.682077527046203613e-01
1.969597170253495344e-01,-1.299886829044527570e-01,2.348861895349265705e-01,-1.303298005263280220e-02,1.752157296619242036e-02,7.740848642013122179e-03,3.497771024703979492e-01
2.582831436348645981e-01,-1.246113799526339938e-01,1.672581510885775835e-01,3.501217827773456595e-03,2.279626435620276184e-02,-5.939744790530927451e-03,3.489160537719726562e-01
2.375741261466308707e-01,-1.417058553905002904e-01,2.391497753972909313e-01,-4.337613816223347628e-04,7.957886331525157323e-04,7.800489566869409129e-04,3.800759017467498779e-01
2.404962405702528172e-01,-1.375093924824707381e-01,2.385770778834610251e-01,2.297575298059691563e-03,9.175378901659498026e-04,3.462310117886895685e-03,3.771217465400695801e-01
2.491350860382407495e-01,-1.274083389630659147e-01,1.575521452571408410e-01,4.274246562451608500e-03,1.624028006299761337e-02,-6.856331242094475774e-03,3.415765166282653809e-01
2.348598448987780363e-01,-1.187724874250440515e-01,1.661651068416946375e-01,1.972169790112948771e-03,2.698791332183276756e-02,-4.697418001938492849e-03,3.282453715801239014e-01
2.308184684951564425e-01,-1.154461516782731567e-01,1.907757951285375397e-01,-9.276489139305815973e-04,2.531872516924373734e-02,1.626608659199798787e-03,3.310149013996124268e-01
2.559097289222485028e-01,-1.406006299643336177e-01,1.584468423076114407e-01,1.025025788773127697e-03,6.522800331982291089e-02,2.883608204974102106e-03,3.753220140933990479e-01
2.501794041937761004e-01,-1.361344451873605088e-01,2.366704271616283661e-01,6.157930938668033320e-04,1.088299482593631327e-03,-8.562830883451042364e-04,3.797487020492553711e-01
2.247518319689372768e-01,-1.378918939947453293e-01,2.423284523254170819e-01,-3.385123007510502068e-03,1.259089924737869307e-03,3.265440953990790107e-03,3.718394637107849121e-01
2.448362928706328545e-01,-1.297760054632488835e-01,2.447283867074236119e-01,-1.700276662217199827e-03,8.885227250061549257e-04,3.132860069016592253e-03,3.746123909950256348e-01
2.488707369085933763e-01,-1.200544325608282059e-01,2.712746136453002554e-01,1.527697804540258586e-03,2.906223858836655058e-02,5.219057636260491378e-03,3.840515911579132080e-01
2.511534299420354888e-01,-1.371915797442554708e-01,2.371867188240345814e-01,-6.677992683755999085e-04,-1.404311795421976650e-03,-1.422611798245743651e-03,3.815708756446838379e-01
2.488519426700149528e-01,-1.314055491472303494e-01,2.352261487533961470e-01,-7.854423041385685811e-03,3.707587068716687324e-04,-4.084270422723421459e-03,3.739460408687591553e-01
2.520935103597999327e-01,-1.345378906314576573e-01,2.391724912939101333e-01,-5.986174112504504333e-04,-1.344456638636976585e-03,-3.366547967653474175e-04,3.803445398807525635e-01
3.267092239369674411e-01,-4.051753601758967260e-03,3.308122379588947504e-01,1.598750256928397478e-02,-7.562119043122755846e-02,3.770124940664740243e-02,3.646414875984191895e-01
2.532520710899944794e-01,-1.348808162456996418e-01,2.336982749442867713e-01,7.466913508026114168e-04,-1.728622763407598392e-03,-6.948401105362333324e-04,3.787507116794586182e-01
2.334291095913205716e-01,-1.373602195994820807e-01,2.366169314740372287e-01,3.509458058865806782e-03,-1.361239731911498187e-03,-7.530205308895364033e-04,3.724528253078460693e-01
2.083050101491906170e-01,-1.219083834583590820e-01,2.325254173427052928e-01,-4.639962044097275390e-03,1.374310980705371193e-02,9.962133231859630206e-03,3.443172276020050049e-01
2.534942712161427081e-01,-1.348624977016555371e-01,2.369826947893661773e-01,4.272259695385904360e-07,1.877457840834633818e-03,-1.375974967092980644e-03,3.803912103176116943e-01
1.630540213098342628e-01,-1.338250019984342232e-01,2.369086974476525276e-01,-1.660808592927848215e-02,2.456796788622692129e-02,7.658234265646648650e-03,3.439938426017761230e-01
2.405672179033390701e-01,-1.412724080553556527e-01,2.385727566812700373e-01,4.060977609300874523e-04,-1.176261681851098429e-03,-7.731283569151390332e-04,3.808547556400299072e-01
1.881310295955827550e-01,-1.355762638615037319e-01,2.006285267942216066e-01,-5.594867046812409747e-03,4.449358141445167864e-02,6.751360497507044763e-03,3.393491208553314209e-01
2.399084498013420996e-01,-1.387760461810173263e-01,2.414112052393775076e-01,1.965757617537957670e-03,-1.677914981085551743e-03,-1.355417611461428619e-03,3.794717788696289062e-01
2.169352028008735556e-01,-1.277981202435722330e-01,2.075585533356360535e-01,4.092867951295883246e-03,2.472055108614321442e-03,-9.478072290406509750e-04,3.402467072010040283e-01
2.400832015438656430e-01,-1.363993488464148029e-01,2.387926019764594621e-01,-1.882578955814588053e-03,-3.997570100729083697e-03,1.759342189332414874e-03,3.759291768074035645e-01
2.383795051121291309e-01,-1.358433442063479435e-01,2.367817005186405033e-01,-3.655784772253952222e-03,-1.920381128121940225e-03,3.571568620869792435e-03,3.735462427139282227e-01
2.565777054871054008e-01,-1.324540236948383298e-01,2.372651152118338547e-01,1.216803086106887921e-03,2.188205501620702203e-04,-1.695318854939705747e-04,3.797500729560852051e-01
2.495341340466962765e-01,-1.343439108553573513e-01,2.369673871223945127e-01,5.088564092065183016e-04,1.031839608538194335e-03,-7.967876845498383367e-04,3.777592480182647705e-01
2.395824327629912931e-01,-1.359090862359412788e-01,2.343796758182948858e-01,-2.417718329682689259e-03,-1.448192776015826090e-03,5.039772367154997032e-03,3.730514645576477051e-01
2.499886904005212962e-01,-1.340612105373483742e-01,2.392099909062812002e-01,-8.346526360069718778e-04,3.139212855712974169e-03,-9.994233409485091604e-04,3.788213133811950684e-01
2.393690548326221079e-01,-1.392444371030079342e-01,2.418281195118087701e-01,5.477598911378174940e-04,-2.431957532260164111e-03,-1.555558566111654478e-04,3.798736333847045898e-01
2.387885028025742429e-01,-1.343005466557075644e-01,2.386238019227567286e-01,-3.100760981648892529e-03,-2.220587685924202415e-03,6.185074149527083898e-03,3.732189834117889404e-01
2.019896326042659174e-01,-1.473909811729886832e-01,1.973972826332103803e-01,-2.292634298926171654e-02,3.944591104609766752e-02,1.944823260055107000e-02,3.575792610645294189e-01
2.479933280425963005e-01,-8.487083527399971739e-02,2.490081505489951108e-01,1.026885446552485218e-02,-8.759467748003259974e-03,-3.676680508377216071e-03,3.342520892620086670e-01
2.388435619385213537e-01,-1.223936591610082364e-01,2.489330053719573943e-01,-2.245981059316254358e-03,-6.636984209201302401e-03,2.518724192180188826e-03,3.666130304336547852e-01
2.292278962089658312e-01,-1.317715799206531091e-01,2.141199394554268165e-01,-8.505723262684596053e-03,7.706128573287722439e-03,6.797322537876620586e-03,3.544414043426513672e-01
2.376953092273494383e-01,-1.299089341072781623e-01,2.490537754184787844e-01,-8.886399107323587638e-04,5.140272384911701020e-03,-5.266365273623892489e-04,3.735234737396240234e-01
2.435620233662288969e-01,-1.185944179593953207e-01,2.517008278553080625e-01,-6.793582803091115577e-04,-5.648746641040686307e-03,-5.516719584750482200e-03,3.665507733821868896e-01
2.328505468980877902e-01,-1.339307291658533017e-01,2.310786892771403145e-01,-7.791611738304004241e-03,6.040720376553638388e-03,1.074624792103497789e-02,3.667694032192230225e-01
2.357360633744776668e-01,-1.128936014198490545e-01,2.536178792696829887e-01,1.021200867890265183e-03,-5.861501207688100956e-03,-6.840533526505336061e-03,3.582500815391540527e-01
2.364009071965180175e-01,-1.368917678984548636e-01,2.488068417167063617e-01,8.868098630306441412e-04,-3.064535390620886941e-03,-8.582170337439179106e-04,3.796908259391784668e-01
2.445215856103122309e-01,-7.648182429730368548e-02,2.538115651718370613e-01,3.917672127578736068e-04,-5.348334802871794816e-03,-7.163022930803372539e-03,3.261162638664245605e-01
2.615915248827797024e-01,-8.600685696155471738e-02,2.629324172939226933e-01,-1.474391336665447337e-04,1.213949193194722997e-02,-1.780867735713519834e-02,3.502658009529113770e-01
2.468843811342132655e-01,-1.380423749544708312e-01,2.390239654973252692e-01,1.755284006844363043e-04,-1.409222294925246673e-03,-1.314456167724005128e-03,3.810721039772033691e-01
2.401169093768399654e-01,-1.362159518494511223e-01,2.382684061710126366e-01,2.631619424152645704e-04,-9.009443395277766473e-04,-4.003345805594645847e-03,3.754795789718627930e-01
2.765711973059059581e-01,-1.220190888243436189e-01,2.163318913203891580e-01,3.470197005652541754e-03,6.744517530451599532e-03,1.931093577460268234e-03,3.723922371864318848e-01
2.617857131876700771e-01,-1.208165288809790461e-01,2.029586386129254294e-01,-7.521019358517110412e-03,4.973742335248997580e-03,1.388250289396767041e-02,3.579941391944885254e-01
2.428300076878421587e-01,-1.170114468901845839e-01,1.660636665684483426e-01,2.364881994511231714e-03,6.501955413969650460e-03,1.041925370887415380e-05,3.284795880317687988e-01
2.609519968458958172e-01,-1.290307790750946926e-01,2.005256108946417148e-01,-6.966916488296437220e-03,6.529390349877540502e-03,1.117023450850546801e-02,3.644454777240753174e-01
1.934773885811791883e-01,-1.264753268493655214e-01,2.122871769669455455e-01,1.230209846566979529e-02,2.491852775323125796e-02,-1.065674682266954006e-02,3.337653577327728271e-01
2.544091423853837020e-01,-1.247756703056052685e-01,2.324816772681024268e-01,8.962942450787455542e-04,-5.289473008219026419e-03,-7.478702450076743936e-04,3.688297569751739502e-01
2.478253031763147374e-01,-9.420685505452630615e-02,2.517830494405018937e-01,-6.470070196562561875e-03,-1.179077790894790360e-02,4.968151005953151678e-03,3.449232280254364014e-01
2.810111947096365359e-01,-1.050309036673332252e-01,2.571057275755545546e-01,-8.059934611838726753e-03,1.626798398185726191e-02,-9.549915645175204026e-03,3.763427734375000000e-01
3.173331738490143827e-01,-2.955154911816260110e-02,2.987150999240015814e-01,1.157098882260720538e-02,7.115452558193510919e-03,-2.062580010539032116e-02,3.406569361686706543e-01
2.339666792125819628e-01,-1.356524877833302778e-01,2.531163633421840142e-01,6.541671241909654676e-05,-2.102748364082175636e-03,-5.826615917120183015e-04,3.795753121376037598e-01
2.499406562126283426e-01,-4.876484807979056257e-02,2.322352118930282039e-01,-7.874289369132241511e-04,3.259470342845097353e-03,2.176028819562965226e-03,2.903406322002410889e-01
2.381516756785027888e-01,-1.344096026450326831e-01,2.541209541729527177e-01,8.381648644901982517e-04,-1.062705502510082316e-03,-1.736916916239231645e-03,3.808162212371826172e-01
1.033303111606236058e-01,-1.510764318124666050e-01,2.765515450269740438e-01,1.898975829272377125e-02,-3.403085458559131082e-02,1.727896658372441233e-02,3.798010647296905518e-01
2.431413681871344989e-01,-1.349408104732962577e-01,2.138182415988663654e-01,2.342014082330898727e-04,1.630096023727999098e-03,3.799714809456104184e-03,3.643773794174194336e-01
2.414230573940558955e-01,-1.362294155853454036e-01,2.233793327375767634e-01,-7.507771165852701253e-03,1.118008117166727038e-02,1.391226850734373667e-02,3.704827129840850830e-01
2.406548975628431397e-01,-1.301938441399164148e-01,2.293426154561787889e-01,-7.421009048657063734e-03,8.489485560359778717e-04,2.862543155285174421e-03,3.655866086483001709e-01
2.544617689607728273e-01,-1.257440694967680295e-01,1.947721531588419153e-01,-5.765835527513763978e-03,1.289215430825466427e-02,1.379882048789892422e-02,3.558013141155242920e-01
2.426907097305953664e-01,-1.366637213380451077e-01,2.450099847786421647e-01,1.204751362775621608e-03,-7.891357012017461564e-03,-5.144345333097190059e-04,3.807715177536010742e-01
2.709241015530447494e-01,-1.366896475850096770e-01,1.986172318361437983e-01,-2.061471975265214904e-02,3.319239097243158187e-02,1.979432499779542817e-02,3.842649161815643311e-01
2.764855493620313465e-01,-5.011733750110997088e-02,1.760494182328457557e-01,-9.190493297321352534e-03,1.809169788716766952e-02,-2.424205976084068889e-02,2.948770821094512939e-01
2.488246457398849143e-01,-1.353307373836611649e-01,1.586340727185189814e-01,7.709760107081419650e-03,4.092286473176377087e-03,2.036884197732006380e-02,3.500510454177856445e-01
2.879308777230374927e-01,-2.021961011382048534e-01,6.947562865273318455e-02,-3.715695256833784037e-03,-2.327464249536020588e-02,-2.068053445734305967e-02,4.287492632865905762e-01
2.735000438385166710e-01,-1.724987145688439694e-01,3.161982743193611500e-02,-3.278137211680862487e-03,4.253345723077312651e-02,-1.580367010815973000e-02,3.946535885334014893e-01
2.451636517955120276e-01,-1.356235460122128811e-01,2.381411439640874761e-01,-1.207293149218779168e-03,-4.835652628565688393e-03,-1.955058593363866691e-04,3.774238526821136475e-01
2.501905591298873022e-01,-1.293243435540953057e-01,2.409968448559882959e-01,1.555419800875933872e-03,-6.493612308855805683e-03,-1.437022720016354737e-03,3.751891255378723145e-01
2.423347977384883722e-01,-1.266338007666708843e-01,2.425442173709013161e-01,-1.184962378779222305e-03,8.030071517738771730e-03,-1.461008208793602818e-03,3.693496882915496826e-01
2.265274223046382929e-01,-1.384337650611038861e-01,2.246852019083981356e-01,3.985381667882117313e-03,1.985751225732257548e-03,-4.451205009639793916e-03,3.642068803310394287e-01
2.364376161947723820e-01,-1.044584792308138887e-01,2.554218532193211488e-01,-5.010521829645701300e-04,-3.759517290602483897e-03,5.523116124075315783e-03,3.509656190872192383e-01
2.446377252995056151e-01,-1.338529057790927568e-01,2.419152980169445577e-01,-5.813825878076520244e-04,-1.722024058702598505e-03,-1.884056735515169225e-03,3.771640360355377197e-01
3.473540790027986880e-01,-1.481251117685176422e-01,7.012720781463122055e-02,3.169696057483740049e-03,1.197854189151192038e-02,-1.608782193863779117e-02,4.315452277660369873e-01
2.565293442591994877e-01,-6.401317326935626606e-02,2.498000667396022834e-01,2.852218936299974299e-03,-7.561421149575658310e-04,1.287629515822309202e-02,3.180554807186126709e-01
2.478165568861045442e-01,-1.363058731390427436e-01,2.383141513000059386e-01,-1.903021254824413706e-03,1.212846318006958286e-03,-3.443256319403861006e-03,3.795274496078491211e-01
2.347027202238259336e-01,-1.325639293588327383e-01,2.563702191348478099e-01,-6.151531256399335804e-04,3.389502403252591224e-04,4.670380545556348270e-04,3.785685598850250244e-01
2.427255241969296096e-01,-1.338866893452050622e-01,2.453737292929256963e-01,4.133069878057460574e-03,8.941785195071415998e-05,4.787632403641024249e-04,3.780120015144348145e-01
2.366781219106361966e-01,-1.335062152111543832e-01,2.565009019591786288e-01,1.609412875266102441e-04,-3.782941411055724241e-04,-4.362882619831232999e-04,3.804846107959747314e-01
2.464004700806921577e-01,-1.199779869549513350e-01,2.450247371848569000e-01,1.553012583736466381e-03,-8.566633794893752096e-03,-2.033842236306730375e-03,3.660202622413635254e-01
2.452037678293474132e-01,-1.343374280274023669e-01,2.219418666428244202e-01,-7.826770834737616089e-04,8.561295010722336880e-04,-9.868962257617278425e-03,3.688631355762481689e-01
2.292374618350400128e-01,-1.385620216507200686e-01,2.248031792174211008e-01,9.587612377537505295e-03,4.162467736798452535e-03,-9.545897174121905499e-03,3.664236664772033691e-01
2.723997123882604399e-01,-1.287167332337062209e-01,2.019165609928929572e-01,1.032552466155180378e-02,2.206278788063806284e-02,-2.102280092155604102e-02,3.750951290130615234e-01
2.374722152092615113e-01,-1.351356025160393992e-01,2.545868087409837721e-01,-1.042407430944223418e-03,2.483458375846367069e-03,-4.786410892697619116e-04,3.814826011657714844e-01
2.434710134469869058e-01,-1.358434821760743927e-01,1.389554210571026793e-01,1.481043569789736170e-02,3.938928449553651123e-02,-2.061869487844462598e-02,3.489221930503845215e-01
2.610872683554414930e-01,-1.227003846321625957e-01,2.303229443504588025e-01,6.619363253692986393e-03,6.029631426169419772e-03,-4.977296661958691831e-03,3.697935640811920166e-01
2.496038669892204076e-01,-1.274756058359213795e-01,1.912297353344151463e-01,1.152276815142352917e-02,1.280493522717604873e-02,-6.691839090020982629e-03,3.530004918575286865e-01
2.401060799441581683e-01,-1.383928441365037676e-01,2.498178501117879202e-01,-4.888338808031443290e-04,3.230526512715079651e-03,5.457386406784248481e-04,3.834899961948394775e-01
2.305116076540214554e-01,-1.278490289533375512e-01,2.447100687464290047e-01,1.405225346928069483e-02,-3.427013758082615713e-02,9.755331100197274855e-03,3.716360330581665039e-01
2.404536406462834952e-01,-1.329534459864122886e-01,2.422744378005444732e-01,4.164106738480223904e-03,5.894220479958855140e-04,5.090365294504196544e-03,3.744954764842987061e-01
2.321254152529770853e-01,-9.013476742786244444e-02,2.536842931018593039e-01,-1.311791790814825819e-03,4.054625435952729715e-03,-2.074819174886700056e-03,3.336635529994964600e-01
2.531926052850395070e-01,-1.028110894528355412e-01,2.427691440257671585e-01,1.146011827679651110e-03,-7.472478950605072369e-03,-4.700459998272927794e-04,3.511532545089721680e-01
2.433242951804243104e-01,-1.338746584581272381e-01,2.387274820577446055e-01,-1.078403760019131744e-03,1.831774347256251954e-03,2.918790396071624382e-03,3.749738335609436035e-01
2.519203122931443772e-01,-1.026558222965001932e-01,2.398164290652189390e-01,-6.016398748957447334e-03,4.342772526761079152e-03,-8.978196010625797037e-04,3.489220142364501953e-01
2.517694002099281070e-01,-1.260431408667198605e-01,2.435625402052808419e-01,-6.182035950553499415e-04,5.981788494813000505e-03,6.090345124858360460e-04,3.739232718944549561e-01
1.725310552127719832e-01,-1.367975519878951995e-01,2.529394173344374774e-01,9.589400711044806028e-03,-1.257124617562944621e-02,5.161900385702728085e-03,3.575642704963684082e-01
2.425563739713550437e-01,-1.341554066457039673e-01,2.479922899444644280e-01,5.053985817052518079e-03,4.923563619875760092e-05,-5.235602450401988066e-03,3.796682357788085938e-01
2.147039279340316742e-01,-1.336256601188065551e-01,2.377185145297612823e-01,3.920583425483931996e-03,-2.569603981916039094e-03,-8.402551020652633540e-03,3.607735633850097656e-01
2.224801186119343965e-01,-1.486567112673785607e-01,2.239436894955850743e-01,7.427837942985735138e-03,8.886267683752977625e-03,-1.206989794165190706e-02,3.729977607727050781e-01
2.397984271383820642e-01,-1.335067100808873808e-01,2.565311384938321337e-01,3.568166682719103909e-04,1.245031491402319402e-03,1.446324294091725932e-03,3.819612860679626465e-01
2.118556704238389876e-01,-1.338202151550529906e-01,2.257339686640257859e-01,7.710666058710549144e-03,1.079056381559305097e-02,-9.267544812134138540e-03,3.539310097694396973e-01
2.014213014741746965e-01,-1.383474465802936315e-01,2.372805562196532159e-01,1.028188379113559661e-02,2.322419449371982379e-03,-5.577343335316028647e-03,3.596375882625579834e-01
2.320122271349820964e-01,-1.306996121877015693e-01,2.383500593481684138e-01,2.117453966023525105e-03,-2.938359359614179560e-04,-5.723646107657267418e-03,3.660749197006225586e-01
2.386949053338842663e-01,-1.383960953996961063e-01,2.391478608870231115e-01,1.096375593514737051e-03,-1.052293005035458964e-03,-6.285479251975337363e-04,3.773284256458282471e-01
2.500681202887423127e-01,-1.372861375648397608e-01,2.397430231503743792e-01,1.143259257771487517e-03,-1.234997841152952894e-03,-1.260806317892651171e-03,3.823136389255523682e-01
2.385495396529688228e-01,-1.369898859911461986e-01,2.508935967060284544e-01,-1.303830901915567584e-03,1.245443699888214815e-03,3.191778600850961583e-04,3.818742930889129639e-01
2.588425550535560782e-01,-7.590445106031876166e-02,2.599367566146228437e-01,-1.748581938732420710e-02,1.699208040870509376e-02,-4.308478932432905327e-03,3.380268812179565430e-01
2.389689285805569607e-01,-1.385430252704583920e-01,2.455754130293355264e-01,-1.345736865436975276e-03,1.672561045859893500e-03,-1.078143615088457077e-04,3.808763623237609863e-01
2.187954644921775715e-01,-1.193366550772774343e-01,2.204680895306596333e-01,1.217357825068525294e-02,1.760219161608306271e-02,-1.290250028114962692e-02,3.417238891124725342e-01
1.924607527179866828e-01,-1.449582254682403315e-01,2.097329591056028564e-01,1.671238993811233198e-02,4.232642243958067985e-02,-1.401792950511919315e-02,3.560616075992584229e-01
2.363107190961363235e-01,-1.366830559471696738e-01,2.264286011645434971e-01,-8.145081203841553208e-03,-3.034656914101065833e-03,-7.941863972769060143e-03,3.687165677547454834e-01
2.429080814532709187e-01,-1.393031928103061756e-01,2.279605229120701959e-01,1.776143628417227536e-03,3.605497483837188672e-03,-9.563417712045559071e-03,3.753912746906280518e-01
2.550058314045201557e-01,-1.235252193886107464e-01,1.745015954336551767e-01,-2.012008188303503024e-03,-3.386770340948166980e-02,-9.693688623749302860e-03,3.507541120052337646e-01
2.444642261547926299e-01,-1.396959305122737471e-01,1.821026156309881738e-01,1.684335353544760133e-02,3.349081167913124657e-02,-1.346227777507595820e-02,3.636905848979949951e-01
2.172393570664094553e-01,-1.374865592866987840e-01,2.019592215179858152e-01,1.107099457793762030e-02,1.721517926759840583e-02,-1.524843271989462581e-02,3.501400053501129150e-01
2.158309118319514108e-01,-1.361213603913450365e-01,2.128171187919895846e-01,9.511666264595999842e-03,1.064684667758076901e-02,-8.107323598527624645e-03,3.516069352626800537e-01
2.494061441260227163e-01,-1.419460506341372885e-01,1.997136105888275004e-01,3.126895675659645615e-03,2.179679508828686815e-02,-2.430433927372167152e-02,3.733702600002288818e-01
2.387398339566798311e-01,-1.414044860401142689e-01,2.398769279233848029e-01,-6.658164381271242712e-04,6.116338562636651054e-04,4.022703436796511265e-04,3.807179927825927734e-01
2.409479366636874675e-01,-1.389404491513405726e-01,2.446943310285964457e-01,-8.108389377766184354e-04,2.612030448163807275e-03,-2.961831289100536860e-04,3.818050920963287354e-01
2.415526709283710993e-01,-1.354542518232909887e-01,2.402698016555722960e-01,4.213862488174147450e-03,-3.926073854826551100e-03,-5.588404892682512920e-03,3.766237199306488037e-01
2.186226101546894229e-01,-1.290853915565842724e-01,1.873277099336990159e-01,6.159733203355086811e-03,1.703316501085281459e-02,-6.402461512226747045e-03,3.348222374916076660e-01
2.538314998314437076e-01,-1.082390230849819834e-01,2.395743867363844259e-01,4.553543584404253489e-05,1.028391408680160747e-02,-2.049375842558329511e-03,3.556207716464996338e-01
2.397032053720863642e-01,-1.419937946887898095e-01,2.387701196207132892e-01,1.912110964850883340e-04,4.268586137108502715e-04,-8.464220044278324443e-04,3.812350034713745117e-01
2.279429667355626077e-01,-1.334784268443574562e-01,2.182544346380407840e-01,1.590117901645614340e-02,2.753563424552512781e-02,-1.102565721617187848e-02,3.614076972007751465e-01
2.396932424010221607e-01,-1.348630062094579585e-01,2.398572040345269274e-01,2.119489852017138274e-03,-3.334236448684172252e-03,-2.451699379662916449e-03,3.747248053550720215e-01
2.445077111829438987e-01,-1.379150010648042546e-01,2.450184780092680148e-01,-1.053410634675502324e-04,5.921034825664902267e-03,-2.599922303963956606e-04,3.828160464763641357e-01
1.941637498380802129e-01,-1.179836566561683897e-01,2.372430991393266186e-01,1.122837105273738999e-02,2.062634745139395667e-02,-9.178023168679667887e-03,3.385944664478302002e-01
2.398259434206818641e-01,-1.411530589589882201e-01,2.383889082476445542e-01,-3.147529318699987121e-04,1.128410060210878647e-03,-1.115683244825583977e-03,3.802728354930877686e-01
2.435744997277686508e-01,-7.024121875567143625e-02,2.488410411255768395e-01,-1.386904397292673099e-04,1.191626216223575646e-02,-5.440397585050500695e-04,3.171556293964385986e-01
2.481550833949656143e-01,-1.237971344156388182e-01,2.446461013725029499e-01,-3.785888934093695028e-03,1.200326818505019835e-02,-2.479676917121213277e-03,3.708763718605041504e-01
2.447349725420189803e-01,-1.246409436230700440e-01,2.458464762915644197e-01,-9.409053052276529581e-04,9.615289173667064190e-03,-1.026941334643078621e-03,3.703154623508453369e-01
2.442561081753081009e-01,-1.397653272487924259e-01,2.385033802921169566e-01,1.147072632600777166e-03,-3.242497708647173495e-03,-1.262931303150604569e-03,3.812304437160491943e-01
2.405168757989935568e-01,-1.377015392574093000e-01,2.415785139380513535e-01,-2.711360625731897185e-03,3.703250597963833341e-03,-2.548844872852586412e-03,3.788594901561737061e-01
2.525129394916821868e-01,-1.151570449782006456e-01,2.392217424542056325e-01,3.262016080798449055e-03,6.878755209354775989e-03,-1.231613630675930209e-03,3.614547252655029297e-01
2.458655616743674055e-01,-1.367067772101418499e-01,2.399303421358047195e-01,-2.515257512963424251e-03,3.705095938529810555e-03,-2.422005238213976834e-03,3.797419369220733643e-01
2.497045385004970641e-01,-1.335837700113580717e-01,2.392601386350972081e-01,1.029922668406028832e-03,1.611879114411662308e-03,-1.001016561190649912e-03,3.781927824020385742e-01
2.501675561509253409e-01,-1.318461859752979026e-01,2.404250876718369012e-01,4.738479196141133260e-04,3.442142123138792163e-03,8.615813031508294073e-05,3.772849142551422119e-01
2.379037860250244885e-01,-1.413398983123553276e-01,2.368732725783485038e-01,-1.863648085596150477e-04,6.579733946690450143e-04,8.527480147425370809e-06,3.787313401699066162e-01
2.393538070594895539e-01,-1.334257168802885918e-01,2.415030126228902008e-01,-3.282929883993857250e-03,4.283449256801307586e-03,-2.986402116064668273e-03,3.740113675594329834e-01
2.445695275451842954e-01,-1.394767881558673928e-01,2.399460740582378127e-01,1.285913845352865473e-03,-1.088570626743315742e-03,-1.297569346942085890e-03,3.817733526229858398e-01
2.505052510242000707e-01,-1.363048120167049126e-01,2.387771924861821771e-01,7.198939796395880785e-04,1.326408583459138700e-03,-1.294317237975053415e-03,3.810969591140747070e-01
2.089327735029889443e-01,-1.213075966203295969e-01,2.016014251065376128e-01,2.498745939998359665e-03,-5.038944907076383685e-03,6.458122906323310840e-04,3.267835676670074463e-01
2.271394655594091150e-01,-1.401548820327291889e-01,2.358257980097027695e-01,4.737299187266090159e-03,-8.227713106796775413e-04,-5.885131170115695878e-03,3.719466328620910645e-01
2.166959882296511652e-01,-1.136701120500058088e-01,2.131044954648789180e-01,-1.900387853380827718e-03,-6.840574198325252361e-03,-1.563374158619430278e-03,3.288262486457824707e-01
2.820687123276877650e-01,8.238209881224478615e-04,2.850231140890277515e-01,-2.101779256247700810e-03,-5.364094521713973912e-04,-1.834803246715940861e-02,2.845389246940612793e-01
2.071429549382584612e-01,-1.216097597482916765e-01,2.025359483730349575e-01,6.925595978474474723e-04,-4.331585121199113021e-03,-2.542324672526568826e-04,3.265622854232788086e-01
2.396571788193997410e-01,-1.296446087188153629e-01,2.498854595981997995e-01,2.078673699486056382e-03,-4.879018768612858412e-04,-2.487446648178931463e-03,3.745637238025665283e-01
2.149087320344690577e-01,-1.188674669585315924e-01,2.154274796737496445e-01,-7.712307186685421305e-04,5.746881823396205388e-06,-1.468279953158301704e-03,3.340482413768768311e-01
2.390461142786485804e-01,-1.308826045647918657e-01,2.558991443174463143e-01,3.162935010548710850e-04,-4.054290182161963789e-03,-1.666865537162469033e-03,3.787131607532501221e-01
2.041966885628651585e-01,-1.214735136687627864e-01,2.089153269563809312e-01,-2.559752617198962719e-04,-4.753765804460415891e-03,-1.204455621987011917e-03,3.281652033329010010e-01
2.374736598430046697e-01,-1.238728879234986396e-01,2.573670045941581774e-01,-7.982141972314379399e-05,-9.663536863172292671e-04,-7.312455887906817338e-04,3.716986477375030518e-01
1.809424096427795225e-01,-1.283888900500371189e-01,2.455527374665666396e-01,1.509269645141989025e-03,-2.513876509759014471e-03,-1.258884258479531816e-05,3.462255597114562988e-01
2.088039385002500858e-01,-1.223364802025163345e-01,2.137336874515831098e-01,1.930672696587394568e-03,-3.624920548983476525e-03,3.214709143859456955e-03,3.337548971176147461e-01
2.112893921198213953e-01,-1.269725054951361953e-01,2.140738666521626032e-01,1.229927010536579872e-03,-5.153388071176898642e-03,3.702043383998187328e-03,3.398471176624298096e-01
2.210933032883805049e-01,-1.168321854011350192e-01,2.178179246870067254e-01,4.265729379808368138e-03,-3.619899736533468103e-03,4.066440031040454220e-03,3.365130722522735596e-01
2.163823082032509670e-01,-1.307525578307653646e-01,2.142740607825686650e-01,2.047085732661335384e-03,-4.234996686733516827e-03,3.430178997019063970e-03,3.462324142456054688e-01
2.181975531812677671e-01,-1.302191663196789750e-01,2.146863118390053005e-01,3.933183713281501390e-03,-4.136548105656770100e-03,3.303191265445328938e-03,3.468625545501708984e-01
2.380544924440370913e-01,-1.341626198263174141e-01,2.382628501294383194e-01,-2.515702257306547465e-03,1.684179565994472268e-03,-2.855243733092008036e-03,3.723911046981811523e-01
2.435243268246549686e-01,-1.373018533023698529e-01,2.385622542715704064e-01,-7.721029878639700840e-04,5.185662147288315829e-03,-1.047508912062206088e-03,3.784828484058380127e-01
2.449885676911101040e-01,-1.383887766722654011e-01,2.383608065368246209e-01,3.780255538441599193e-04,1.472156025224801270e-03,-1.682224526567925723e-03,3.801270723342895508e-01
2.442484604732592657e-01,-1.325317723368751865e-01,2.393690838283247246e-01,-1.875068398825159880e-03,2.653996634613525404e-03,-4.201519334184005902e-03,3.744774162769317627e-01
2.300153013300859639e-01,-1.385069932273360616e-01,2.355410338229523282e-01,-3.820708530906422040e-03,2.935752681376318563e-04,-4.110243083482810478e-03,3.714435398578643799e-01
2.299629694722917783e-01,-1.268156772849223235e-01,2.553848039730284847e-01,-1.992627900984029858e-03,1.635310786940580904e-03,-2.925755986235995800e-04,3.701721727848052979e-01
2.422661742723364875e-01,-1.357506579833075433e-01,2.382796609583824887e-01,-2.936346854899548665e-04,1.130219020254667316e-03,-3.287354590998376250e-03,3.760879635810852051e-01
2.311737639122535271e-01,-1.267640101482078729e-01,2.554477656568620580e-01,-5.448490127609085685e-05,-3.273969877017002261e-03,-7.326691668193478606e-04,3.707169294357299805e-01
2.319856858981143855e-01,-1.371764581798373128e-01,2.357061302575983452e-01,-2.478435120002383217e-03,1.469156721971851334e-03,-4.400731436612268649e-03,3.711481988430023193e-01
2.383869700764781885e-01,-1.344252586261844296e-01,2.374368594819714073e-01,-1.033909890092868942e-03,1.790107400163942330e-03,-4.393400714151812769e-03,3.724330365657806396e-01
2.441008704059089152e-01,-1.386205813437806078e-01,2.379443411893229776e-01,-1.665813001622297278e-03,7.818972298153469133e-04,-2.624255734123000054e-03,3.797211945056915283e-01
2.400690332416756945e-01,-1.120558950892905359e-01,2.479050224768503674e-01,-1.827052251554580351e-03,8.970026234300914475e-03,-1.847406734984147984e-03,3.564747571945190430e-01
2.348745179395364535e-01,-3.181761019492648779e-02,2.507113938208351822e-01,-9.780146603467242193e-05,-5.792204833622416338e-03,-7.228507418598820709e-05,2.751359045505523682e-01
2.410377997202355904e-01,-1.366153386412270188e-01,2.481236180008342951e-01,-1.030776859744179236e-03,6.868097708111253752e-03,-1.998751637950032698e-04,3.814353048801422119e-01
2.388701261868237669e-01,-1.398056459147073993e-01,2.374511561899941281e-01,-1.255273739333625464e-03,3.511721179961810953e-04,-2.073064550705189680e-03,3.779920935630798340e-01
2.435823148073284483e-01,-1.395019393251346052e-01,2.388734382388259525e-01,4.872398380871265821e-05,1.955937862725726836e-03,-1.108741157824679651e-03,3.807715773582458496e-01
2.375027143590149326e-01,-1.281060917235723740e-01,2.544077209267247008e-01,-1.196864268624133094e-03,6.580676909837141104e-03,4.604771519526879432e-04,3.745277523994445801e-01
2.478728792982834439e-01,-1.320607873905684237e-01,2.439058144502784520e-01,-6.736703723381211838e-04,-2.112887375208172616e-03,-2.283422182355657713e-04,3.779854774475097656e-01
2.385102250571814464e-01,-1.402101343896108299e-01,2.396007812353711519e-01,6.707234097651536883e-04,-9.279901414189037790e-04,-5.271841809312506535e-04,3.792730867862701416e-01
2.393107765261584252e-01,-1.391121692221629347e-01,2.422485490594207536e-01,2.432567873972862026e-03,-2.796230362185436833e-03,-9.651344118404669818e-04,3.799582719802856445e-01
2.397912716043668069e-01,-1.385205070331959609e-01,2.432754077472519816e-01,1.330376420690800206e-03,-1.666902577492526075e-03,-2.982821245588305635e-04,3.800841271877288818e-01
2.422813273745503260e-01,-1.228944597529516569e-01,2.457889827382477299e-01,1.773182077690563284e-03,-1.287782621807763601e-03,-8.322317129315724010e-04,3.669646382331848145e-01
2.442690839554862436e-01,-1.380896517256562372e-01,2.400905857146822808e-01,-2.011563141736777383e-04,2.206347463630844649e-03,-6.273663401623164699e-04,3.803076148033142090e-01
2.124756769294768866e-01,-1.163910891494812361e-01,2.166117799050628623e-01,-1.732623407834585089e-04,-7.250304159047434678e-04,-1.897553887507613364e-03,3.309730291366577148e-01
2.321957591636563956e-01,-1.401288131528677372e-01,2.327425182800444414e-01,-4.427787724933270400e-03,-2.501237192379432276e-04,-1.016830844052153942e-03,3.726815879344940186e-01
2.371104523739918646e-01,-1.410047786153724725e-01,2.378488802590911222e-01,1.904218390434556703e-03,1.607914304240853703e-04,-1.270931756407592478e-03,3.785058557987213135e-01
2.442281612662079993e-01,-4.640512553433770448e-02,2.457934656675309359e-01,7.727822071487346935e-03,-8.008811046584869003e-03,1.433201614147912480e-03,2.920664846897125244e-01
2.515110862758284660e-01,-1.764137505183438481e-02,2.487110325560011881e-01,1.411083296273032105e-02,-3.418938060679645608e-03,-1.016374719783475281e-02,2.695172727108001709e-01
2.505486260661288767e-01,-8.994947252995758036e-02,2.503528398700996527e-01,3.981215624527129418e-03,-1.036051923342882694e-02,-7.632030406624998146e-03,3.411988317966461182e-01
2.431136260681119321e-01,-8.502354253588850774e-02,2.501065483320952798e-01,-9.068749814459548930e-04,-1.022175473527873850e-02,-7.358361792607410155e-03,3.324092328548431396e-01
2.482827892252696955e-01,-9.611100284368634394e-02,2.359849688694786174e-01,6.509903755358439036e-03,-6.227140766199047717e-03,-2.929792069746853765e-03,3.388100564479827881e-01
2.539821543911364166e-01,-7.806407084928623785e-02,2.471972501995402527e-01,4.492341043843116159e-03,-7.753713378629363724e-03,-6.707807961954912086e-04,3.290745913982391357e-01
2.558451531998223727e-01,-1.318042588743059129e-01,2.405476695310274082e-01,1.553656052959846408e-04,-1.897574994436862896e-03,1.427834667262535811e-03,3.802538812160491943e-01
2.549051054189518384e-01,-1.335256840320849792e-01,2.373980750466649914e-01,-8.456924440468919146e-04,-1.633543065963045243e-03,7.638435587255252082e-04,3.799955248832702637e-01
2.434138355802390186e-01,-1.395530290454030375e-01,2.390184518183799955e-01,1.945763734112198207e-04,-2.340606727892768045e-03,-1.354927377203671854e-03,3.808171451091766357e-01
2.269556167097285249e-01,-1.388438023782929132e-01,2.277761247153721746e-01,-3.581857464713263887e-03,-1.673423140850801346e-03,-2.636008428460203529e-03,3.663028180599212646e-01
2.565997889318137326e-01,-1.320775809873444839e-01,2.369340399725566315e-01,-7.887101006862700606e-04,-2.674799042193529760e-04,-5.101867873510249106e-04,3.792308866977691650e-01
2.560078771038251100e-01,-1.295666286884838425e-01,2.360269452208274277e-01,2.691329172156866571e-03,-2.176594954065996356e-03,-2.206068679530862563e-04,3.760304450988769531e-01
2.438385623589672258e-01,-1.406344754596186575e-01,2.382565887751258438e-01,-5.023685320626042599e-04,-2.869206847995047893e-03,9.054523565955946906e-04,3.817492127418518066e-01
2.544901646524275751e-01,-1.110418064860815290e-01,2.472213483032303927e-01,4.260064092989462523e-03,-6.519648834128504399e-03,-2.833387785173543732e-04,3.622039258480072021e-01
2.421653750135545624e-01,-8.238678855653364108e-02,2.574128946372798432e-01,-3.488637100044128959e-03,-7.553124932089097835e-05,-1.407412332400553075e-03,3.325021564960479736e-01
2.434341106705604219e-01,-1.396402820091374175e-01,2.152802590797307514e-01,8.940799888393282258e-04,1.755055721200952197e-03,7.406841708005562326e-04,3.698200881481170654e-01
2.472858355756414328e-01,-1.332682880877994192e-01,2.407441807816316226e-01,3.592222160923917804e-04,-4.989929400301815719e-03,-1.394410851370336216e-03,3.774330317974090576e-01
2.455987973504681898e-01,-1.303617826650869671e-01,2.475859135664644217e-01,1.301647936333357380e-03,-7.266796140174803902e-03,-4.159718856904113713e-04,3.771755695343017578e-01
2.480939738405008033e-01,-1.369187966821312497e-01,2.400857254737918112e-01,1.051573821178490315e-03,-6.867800863076335520e-03,2.686299409661000066e-03,3.812901079654693604e-01
2.383202025476145181e-01,-8.869275659377262588e-02,2.516545166323662652e-01,-1.910884556873509174e-03,5.179802680135190199e-03,-1.729012555101722441e-03,3.340302109718322754e-01
2.491722033729517061e-01,-1.048369682060902863e-01,2.409717215441595228e-01,1.099260474062424640e-03,-9.079362449803087681e-03,-4.790789130239370770e-04,3.503402769565582275e-01
2.380215303827645235e-01,-1.364450367043361090e-01,2.444933073916257804e-01,1.608202993925851761e-03,-1.586018282872176223e-03,-1.970653638679281498e-03,3.777797222137451172e-01
2.405265605035087351e-01,-8.632673654975345223e-02,2.437219261243052104e-01,1.128884780470525151e-03,-7.840104415351420442e-03,1.879215333278712189e-03,3.287651538848876953e-01
2.001988635906969405e-01,-8.588241225248685606e-02,2.424483128712757729e-01,1.332642757984160362e-02,-3.740908182545607530e-02,-6.856033869226118259e-03,3.171536028385162354e-01
2.132920369524957116e-01,-1.336974562172711656e-01,2.419723603273873924e-01,-4.455850658321025429e-04,-1.363394998293099855e-03,6.167704063892881852e-03,3.623483479022979736e-01
2.432959768631507147e-01,-1.144540193309164233e-01,2.487192852598703874e-01,-3.674042593208589214e-03,9.129318014143119817e-03,1.616205112616246305e-03,3.609058558940887451e-01
1.890357389035769997e-01,-1.260822785146802627e-01,2.460351177463692696e-01,1.374309627342390483e-03,-5.600711717058829385e-03,5.433377472106355396e-03,3.474164009094238281e-01
1.870139845009436697e-01,-1.451818338909284800e-01,2.500353490844932081e-01,2.303535101848047661e-02,-3.186425785933368841e-03,4.811809472448505889e-03,3.700715899467468262e-01
2.356259942846929412e-01,-1.351507046790660915e-01,2.486223638655499224e-01,1.849678083440905226e-03,-3.645510910174905306e-03,1.695525872070821182e-04,3.775092661380767822e-01
1.837623866948437934e-01,-1.241783777020944307e-01,2.554611421619724654e-01,1.505252613038559478e-03,-2.307400423678429395e-03,3.416497698789899319e-03,3.494352400302886963e-01
2.382870427958906079e-01,-1.354622651107394993e-01,2.466849655846445333e-01,1.658653035881354262e-03,-6.622954977866253156e-04,-1.478340788349735615e-03,3.780395686626434326e-01
2.391332242297066202e-01,-1.364261010865536194e-01,2.503982357728668506e-01,1.462570228894933232e-03,-2.378022752867773367e-03,-1.018108103221766411e-03,3.813513815402984619e-01
3.343897491196969329e-01,6.387697717964602173e-03,3.479753943514690695e-01,-1.128052715398396993e-02,5.504553792522191846e-02,1.597170727776386912e-02,3.499473035335540771e-01
2.598058889452199427e-01,-1.375657699064394279e-01,1.387488884630853903e-01,3.175254112775443898e-04,-1.863384097132946698e-02,7.356738982805983984e-03,3.544837534427642822e-01
1.643431945015201290e-01,-1.203312984012693126e-01,2.465527631681098675e-01,-6.705608383963768820e-03,-5.619036489138827528e-03,-4.982829734460564666e-03,3.339237272739410400e-01
2.230115592035105954e-01,-1.316089566306941627e-01,2.342915371395062896e-01,7.164071577988248563e-04,-5.571942587010714210e-04,6.511942231654108820e-03,3.605728149414062500e-01
2.503480000151896978e-01,-1.335695512029772547e-01,2.423743987919319554e-01,7.816058949205284111e-04,8.176565658428874145e-03,-5.300524485572388105e-04,3.802608251571655273e-01
2.421181334488092529e-01,-1.338070718620622823e-01,1.541794907582039464e-01,7.414983297774403216e-03,9.046836735456083994e-03,-1.310012986899515564e-02,3.419355750083923340e-01
2.253982602891805853e-01,-1.282090756929832043e-01,1.309234789272011590e-01,9.050876673479448659e-03,-4.542097789269258779e-02,5.033266142126617548e-03,3.272118568420410156e-01
2.638810825805374405e-01,-7.495922297478463392e-02,2.509339811787802965e-01,8.182118162649416881e-03,2.074995632644759547e-04,7.216499349879597867e-03,3.330924510955810547e-01
2.270190059433344620e-01,-1.330781448880173357e-01,1.699311151950345100e-01,7.656829875556607663e-03,-2.232587835980947427e-02,6.022689860079283308e-03,3.378636240959167480e-01
2.291816976478124879e-01,-1.074284511711849216e-01,2.452456628403331951e-01,-4.076575118305321844e-04,2.294661822818886733e-03,-7.214716340287277447e-04,3.449486792087554932e-01
2.298315206440864067e-01,-1.260198767222174276e-01,2.390393559756551767e-01,5.294713189104740918e-03,9.067223897710145059e-04,-7.026218747792636714e-03,3.608688116073608398e-01
2.280753185423197715e-01,-1.409752454011192757e-01,2.189091510568964560e-01,9.564571880432788317e-03,4.891018195089301066e-03,-9.794010584127758878e-03,3.654223978519439697e-01
2.436889308673930998e-01,-1.374492734770438596e-01,2.394764104611856737e-01,5.878360957743462454e-04,-3.581982471972586929e-03,-3.186280828207696102e-03,3.791418075561523438e-01
2.441654655803009999e-01,-1.375294990435099729e-01,2.389937227702280675e-01,-2.866599553835697629e-04,-4.111156689890611143e-03,-8.562455846166030105e-04,3.792056441307067871e-01
2.457831048628852100e-01,-1.247862561438949081e-01,2.412654878350593557e-01,-2.772139183567424352e-04,-6.037568476450003684e-03,-7.516875381915616439e-04,3.684823513031005859e-01
2.449618105117566391e-01,-1.143366301268583796e-01,2.540656630223294687e-01,2.306446392028512274e-03,4.774433394488301202e-03,4.563782135678644269e-03,3.641374409198760986e-01
2.563563756433491769e-01,-3.821840574299811832e-02,2.521068234313658118e-01,1.629442314910642051e-02,6.532559299271482878e-03,2.368740854771908544e-02,2.968979179859161377e-01
2.443073315178533600e-01,-1.280904031442878510e-01,2.413002525694929457e-01,-3.880862126284283925e-03,4.186796419279249781e-03,-3.535783517362741431e-03,3.710856437683105469e-01
1.851164550681472232e-01,-1.155711776243902866e-01,2.278012529687768462e-01,1.920213113885846324e-04,-4.220860131200668275e-03,-3.888392916531317918e-03,3.242973089218139648e-01
2.501344793617448770e-01,-1.343339583812647731e-01,2.404002192808454286e-01,-8.338497968300816318e-04,3.139733886873516053e-03,-9.899867850068221238e-04,3.797404766082763672e-01
2.475204208306854836e-01,-8.558916755252374275e-02,2.480779708917731363e-01,1.401384929092810115e-02,-8.534982533944409071e-04,3.273840164159234466e-03,3.343225121498107910e-01
2.151387375613925956e-01,-1.253575320802057247e-01,2.594420999192691424e-01,-6.079586864557151235e-03,-2.105250817512523479e-02,-1.184139461383800287e-02,3.672149181365966797e-01
2.540961553931976868e-01,-6.750536401162796074e-02,2.456512932382409753e-01,-7.299355411466725702e-03,7.107958036892755502e-03,-4.056890906506523987e-03,3.180310726165771484e-01
2.474059047141387024e-01,-1.376376073858619764e-01,2.380853303694303036e-01,6.419970353196928622e-04,3.232981607876477242e-03,-1.159645078648145235e-03,3.805169761180877686e-01
2.495623152307603343e-01,-8.361629538890183455e-02,2.392481886398450108e-01,6.770165069902397970e-03,-6.430433944982879430e-03,1.564338294214988323e-02,3.296568393707275391e-01
2.296566070635506496e-01,-1.267179762389378239e-01,1.919258001608152020e-01,-6.194883629051361335e-03,-4.036063094125658113e-03,-6.716429986632226111e-04,3.393309712409973145e-01
2.378423592441915035e-01,-1.397148911036357188e-01,2.374098072133475901e-01,2.582177890867028510e-05,1.625149554555768705e-03,-3.543199166444735079e-03,3.774015605449676514e-01
2.500886490022884989e-01,-1.374365015563783765e-01,2.395709466814727739e-01,1.259246337369969524e-03,-2.660569553641779338e-03,-1.439391992091457531e-03,3.824169039726257324e-01
2.686474484251258898e-01,-6.777682530743908695e-02,2.548266903253472715e-01,1.584026265509736256e-04,2.323905162321511508e-03,8.673693207339313802e-03,3.300979435443878174e-01
2.332926983218311934e-01,-7.375728811478407532e-02,2.436353212160515813e-01,1.835623202101542084e-03,5.128976912282631750e-03,-1.119483167049657724e-02,3.130932152271270752e-01
2.603238195689843160e-01,-1.090646276767522627e-01,2.366896038866684315e-01,-8.780259052978984374e-03,6.605840096200753069e-03,-2.991711932701683445e-03,3.586993813514709473e-01
2.560445119764075406e-01,-1.232004475398504190e-01,2.368735519466183548e-01,-3.961123992129924210e-04,3.577033760776006724e-03,-1.360836871155871432e-03,3.700921237468719482e-01
2.507197502032191272e-01,-1.318544844196609112e-01,2.373207238273576658e-01,-1.418543118216836468e-03,-3.542692041528313403e-03,-4.694630051019783434e-04,3.761127591133117676e-01
2.131790440386709395e-01,-1.244992025229358090e-01,2.416027163141665213e-01,6.544740145148960839e-03,3.948254431139415835e-03,-2.611653350942823651e-03,3.530273139476776123e-01
2.461596647616824951e-01,-2.858273004508091186e-02,2.460111763435347265e-01,-8.293222301221394449e-03,9.744340489392083055e-03,-6.116756834227708717e-03,2.757644653320312500e-01
2.371790031576947178e-01,-1.378208952059826187e-01,2.379870773683596119e-01,6.861811918563359757e-05,-3.603673454728658319e-03,-5.288947124965493254e-03,3.755682408809661865e-01
2.365563625067212128e-01,-1.343617302547529535e-01,2.327572449282085398e-01,5.696940349324037742e-03,-4.663368406314822266e-03,-3.932977175829022176e-03,3.693162798881530762e-01
2.609262898269940623e-01,-1.203828378748645622e-01,2.384767263952274341e-01,1.400926523229921016e-03,-1.787016657306249789e-03,-3.171714029601343252e-04,3.706159591674804688e-01
2.554425004469734195e-01,-1.266995469958273057e-01,2.387282227166572235e-01,-3.279566300538379591e-03,-2.266694584437058298e-03,-9.084426050205914342e-04,3.741321265697479248e-01
2.436697108371161657e-01,-2.891395020238379798e-02,2.547433750385922346e-01,1.065214848105825243e-03,-4.300157941702891103e-04,-2.337119952141901436e-02,2.812215685844421387e-01
2.263649300674893672e-01,-1.289680795687964121e-01,2.082156279685928313e-01,-1.022303757885720255e-02,1.013470757123698454e-02,7.675906273047817564e-03,3.477647602558135986e-01
2.417456323044080424e-01,-5.388400810680968323e-02,2.613623679933724797e-01,-4.075846546856744940e-03,9.738866408197269058e-04,-1.434607424390279759e-02,3.070034086704254150e-01
2.543507749401660023e-01,-3.909917047764460696e-02,2.422061700380639393e-01,1.621283551599739248e-03,-1.331893312098825525e-03,2.016988136582123590e-04,2.875932157039642334e-01
2.635697618051959790e-01,-2.599758577300484430e-02,2.583852194108071654e-01,1.246810555341289553e-03,-9.271186202012538478e-04,-2.524144721212901246e-02,2.903334200382232666e-01
2.539491420980649616e-01,-1.260110116335503849e-01,2.364928730157100090e-01,1.118162165226674592e-03,2.682294455165987798e-03,1.108546886611779404e-03,3.715787529945373535e-01
2.642974340004095035e-01,-6.767522612603305010e-02,2.474556918460130983e-01,-1.302478299838756223e-02,3.144271746420530117e-03,-1.658644788753458471e-02,3.259791731834411621e-01
3.952839936865708559e-01,4.902197860255894102e-02,3.651524482768316870e-01,-4.779961580179836571e-03,2.277639632829815339e-02,2.050403280921860028e-02,3.365381956100463867e-01
2.411444574766576365e-01,-1.412119617611887756e-01,2.373349120728620310e-01,-5.766057920960189326e-06,1.001404328081487768e-03,9.381472150791031429e-04,3.804733753204345703e-01
2.233160757331174029e-01,-1.327112290146506002e-01,2.215968333044796013e-01,8.808988851421127846e-04,1.211535630110525301e-03,6.929589206615619900e-04,3.551823198795318604e-01
2.402047976944129692e-01,-1.369359778235570702e-01,2.399154920786413236e-01,2.363514933907904776e-04,-3.038688488105915388e-03,-6.259495268742823687e-04,3.770347237586975098e-01
2.434971900163613867e-01,-2.651280574734721229e-02,2.400271496327162635e-01,-3.163634647271287587e-03,-5.099673172378097787e-03,-6.548424335609388108e-03,2.687325477600097656e-01
2.435954507886685660e-01,-8.105266965008123270e-02,2.441035783096741629e-01,1.708199742441942758e-04,9.670009658670498595e-03,2.488674227831819252e-05,3.253340423107147217e-01
2.353691952850841540e-01,-1.342579548243058862e-01,2.344441517338346492e-01,-3.790607724366661796e-03,-6.182176543458141934e-04,3.392771605674739684e-03,3.692722022533416748e-01
2.286909802219861954e-01,-4.229033626392125766e-02,2.453909356003468045e-01,-1.860529018727111097e-03,-1.554037027753547590e-03,-2.364536794902725655e-03,2.797669470310211182e-01
2.333079848504180931e-01,-1.380867354038682882e-01,2.331975806018756758e-01,-8.610578751013236868e-04,4.161731552565406844e-04,3.035079725759266042e-03,3.713804185390472412e-01
2.222729338810960908e-01,-1.321503136484773466e-01,2.363802493912839642e-01,-5.044161409414613453e-04,-1.786397065829529226e-04,6.433036999894100293e-03,3.618560731410980225e-01
2.438272357666301793e-01,-1.356602243685294806e-01,2.399470957668388138e-01,1.126232977177136748e-03,-4.663796685419117731e-03,-1.147746269140677679e-03,3.776590228080749512e-01
2.368104799148171569e-01,-1.387782886871738453e-01,2.376569907919580116e-01,-1.290569557351479296e-03,-1.839336672786131448e-04,5.191739467953983191e-04,3.760205805301666260e-01
2.350954171468665754e-01,-1.306010881108375932e-01,2.490101638942898155e-01,6.231582394693254041e-04,-1.035941347816608273e-02,7.144227602234551680e-03,3.734867572784423828e-01
2.407884666483530167e-01,-9.013151769364341481e-02,2.526289261103811246e-01,-7.891776120076389673e-04,-4.265947380325059608e-03,5.833992107655208183e-03,3.372314572334289551e-01
2.503933785615902741e-01,-9.421871768799208735e-02,2.389686294303210723e-01,9.808602392088635030e-04,-2.073080368799534029e-03,-3.155157142223974622e-06,3.390673995018005371e-01
2.852974941002506259e-01,-9.921435193093103289e-02,2.289208994231730077e-01,-2.236412395608864800e-03,6.454786290059455305e-03,-8.226973025826004151e-04,3.598502874374389648e-01
2.386892618595966020e-01,-8.228219071497655523e-02,2.454180869346730409e-01,-6.833391032596725524e-04,8.716178787232442202e-03,4.737225017302162814e-04,3.247425258159637451e-01
2.338610679595598540e-01,-8.904120737974435817e-02,2.542645787906845922e-01,-1.779872399070786884e-04,1.001019391557281084e-03,-2.365478420448994916e-03,3.336021602153778076e-01
2.380564598647142427e-01,2.219985830083434641e-02,2.388476487628430900e-01,8.602276059442405596e-05,1.404994959655951180e-03,2.033354919995293238e-04,2.162673175334930420e-01
2.541817142903378124e-01,-9.405517915926486783e-02,2.293667024596171555e-01,2.922157646949225841e-04,5.576373552308448896e-03,-1.052877198259994382e-03,3.366602063179016113e-01
2.871123461048652459e-01,-8.440809278668370830e-02,2.690832092261098984e-01,-6.435080259916246652e-03,8.200489420360862480e-03,4.694988104225313041e-03,3.633818924427032471e-01
2.368393718230795419e-01,-7.547076593099769082e-02,2.731470560861213315e-01,-4.570400322172343821e-02,-5.368211459947638126e-02,-7.026720517967102557e-04,3.537067770957946777e-01
2.373860726329944382e-01,-9.546052932197826579e-02,2.576820312377562927e-01,-3.071804066771200575e-03,-3.571876679267398710e-03,5.384392063075898668e-03,3.436681330204010010e-01
2.467074656702356039e-01,-1.108476805444641167e-01,2.391677434789224177e-01,-1.073281904203468324e-03,8.230145733654024159e-03,-1.790335858873959253e-03,3.541510105133056641e-01
2.380505155882883528e-01,-1.386120763581151771e-01,2.411406451064515843e-01,-2.663945571065338275e-03,-1.225578753830894362e-03,9.078472930271441451e-04,3.782545030117034912e-01
2.373369132034462980e-01,-1.400662633006456437e-01,2.381563056853089333e-01,-2.448746790675960378e-03,-3.477386752471518642e-04,1.557424154457452432e-03,3.778474628925323486e-01
2.387428378849557609e-01,-1.392051988561689713e-01,2.428382550939570117e-01,-1.193943567141852622e-03,-2.339996445379389622e-03,1.498511456255863431e-05,3.800395429134368896e-01
1.472544324578635710e-01,-1.332445555843757290e-01,2.685063292645304966e-01,2.937772574830974093e-02,-5.336482517043757146e-02,4.368451887670077175e-04,3.721906542778015137e-01
1.821819279573579364e-01,-1.530069913972192941e-01,1.569715492391482725e-01,1.373089432417201432e-02,-5.426913565116961435e-02,1.609856103708460703e-02,3.386966884136199951e-01
1.577436939062934751e-01,-1.224514748114226698e-01,2.490144960057882884e-01,5.720604271448732317e-05,-2.269932559557670884e-02,7.527405086472828931e-03,3.378299772739410400e-01
1.235411840282536061e-01,-1.287309996388558142e-01,2.594718174019579049e-01,1.720255448042234785e-03,-1.179207617489236824e-02,4.713410180148907419e-03,3.419102132320404053e-01
1.105583661176284538e-01,-1.464852393135260833e-01,2.961424527355052683e-01,-7.541591395190032875e-03,-2.934481830323009202e-02,3.146819799238934935e-03,3.885868787765502930e-01
2.541533174972313569e-01,-1.324741299943841266e-01,2.376802457107906608e-01,8.452261495233018632e-04,2.533784769900091459e-03,-8.403322452385570589e-04,3.786908090114593506e-01
1.270130010113246499e-01,-1.521991872877773988e-01,1.931864384798266387e-01,1.182044674620676486e-02,-1.102438080923541924e-01,1.233844388131588241e-02,3.716877400875091553e-01
2.136987687855710916e-01,-1.319911196605398351e-01,2.295595536382697976e-01,-5.438114816644024074e-03,-5.334918869639658154e-03,-8.326618586817213785e-03,3.544264137744903564e-01
2.190424955173198851e-01,-1.221403750627710200e-01,2.233313417276072688e-01,-1.244796124263716558e-03,-1.195159136832142486e-04,-3.334385520286019602e-03,3.434027731418609619e-01
1.401415748900798897e-01,-1.157241431033518425e-01,2.680756892066737951e-01,-8.663862322681063549e-04,-4.301911443655290906e-02,-4.259642134331336101e-03,3.466655015945434570e-01
4.988400892978804568e-02,-2.170839078484540496e-01,2.304944344320942751e-01,2.454505741993844026e-02,-6.574369626053290505e-02,1.534751372445990365e-02,4.093774557113647461e-01
5.401500533151451511e-02,-1.826397866070037790e-01,2.872500124515330322e-01,-1.408280824787287895e-02,-4.911060636894108017e-02,5.610917306118039759e-03,4.165635704994201660e-01
2.554666141905049814e-01,-1.173427996601859868e-01,2.382850294099113087e-01,-2.636714802986553190e-03,7.032906870142087083e-03,1.864413971771082751e-03,3.647688031196594238e-01
2.396361371372658922e-01,-5.057518587079162797e-02,2.386783920163617068e-01,-2.298493487909115431e-03,-3.789874254763023198e-02,1.781059714496088450e-02,2.987005710601806641e-01
3.162380843039913070e-01,2.226826745547577646e-02,3.504633862608075301e-01,1.350484499993971459e-02,-2.943358770698646047e-04,1.946434578964442719e-02,3.151742517948150635e-01
2.182122451283577957e-01,-1.162177349939326892e-01,2.015886682517429307e-01,-7.666837558424253150e-04,-2.459938658676825377e-03,-2.980659445410577539e-04,3.264667093753814697e-01
2.538699975212005411e-01,-1.326798367157898950e-01,2.363232830556968034e-01,1.834881579871257306e-04,8.040816868859668350e-04,-4.759689492961466893e-04,3.780855834484100342e-01
2.092388269785649957e-01,-1.276380315042434654e-01,1.974070411596673402e-01,4.434856012135013603e-05,-1.438365951676410723e-02,-5.981249559194798653e-04,3.320570886135101318e-01
2.262797387733288534e-01,-1.410115898753225294e-01,2.343754549783904628e-01,4.819516633984332298e-03,4.420024782670366930e-04,-5.500810764656176126e-03,3.716221153736114502e-01
2.586677650447709031e-01,-8.243469356580113150e-02,2.518206269588824653e-01,-5.439109135732129660e-03,5.456361000330510642e-03,-7.101296983136022242e-03,3.382181823253631592e-01
2.493289432245119341e-01,-8.394408464974478790e-02,2.418202273115448997e-01,-8.470874886830959127e-03,8.302335965949704868e-03,1.125805758573502312e-03,3.302282392978668213e-01
2.712624201595511542e-01,-5.633352648849812572e-02,2.732484899771161491e-01,-1.252086307480569129e-02,-1.258766999619160155e-03,-1.586393541083672837e-02,3.304598927497863770e-01
2.448651806961270050e-01,-1.071804583508217668e-01,2.488003282629623891e-01,-4.471997407697180828e-03,9.818609321623513256e-03,-4.801519728861967928e-03,3.546200096607208252e-01
2.564396925303435992e-01,-3.314711518104646037e-02,2.765870611209112484e-01,-1.357891473748451192e-02,7.356574106201996472e-04,-1.005765534429393232e-02,3.015942573547363281e-01
2.503174295120088599e-01,-1.364880118068583226e-01,2.392432590841213902e-01,-7.617448686790970419e-04,-2.808945287393312031e-03,6.700430196344178387e-04,3.814240396022796631e-01
2.400332449004950186e-01,-1.377662365287173063e-01,2.354562648761574506e-01,-2.178383077203216792e-03,-1.581009230105820005e-03,-2.750743120992418930e-04,3.755611479282379150e-01
2.443536360018345732e-01,-1.402655441305827311e-01,2.391444428596938843e-01,-4.921709372690051369e-04,-1.834874155469746896e-03,1.528716251243453401e-03,3.820645511150360107e-01
2.454409845397153012e-01,-1.396172533706407926e-01,2.389880312894956949e-01,-1.393616657545227767e-03,-4.945964875184837538e-03,8.507146086728854502e-04,3.819791972637176514e-01
2.087332131486147047e-01,-1.261831149213234748e-01,2.190026538115833199e-01,1.068191996378978692e-03,-3.192378095314842013e-03,4.013081751733014318e-03,3.402882814407348633e-01
2.460437547052890528e-01,-1.453416528350424120e-01,1.690539202167388178e-01,-1.377559778272767141e-02,1.833361734078869237e-02,2.270203328152214234e-02,3.634571433067321777e-01
2.346113016407933294e-01,-1.385167490935036438e-01,2.308402447600139684e-01,4.612016146442218085e-04,1.622503809734990830e-03,1.912698917196019820e-04,3.712685406208038330e-01
2.429855382541000752e-01,-1.394480224562179571e-01,2.379858428728922615e-01,-2.142176501975696229e-03,-2.933202057335974390e-04,3.133553223638520756e-03,3.800156116485595703e-01
2.798168426080964721e-01,-1.323456021216362077e-01,8.908405287190537813e-02,-1.778284752035852803e-02,-5.788732470836770172e-02,1.863603731335826668e-03,3.723652958869934082e-01
2.203750377837557783e-01,-1.590797028003787250e-01,1.104226405433362812e-01,3.760846030358184697e-03,-8.945963204193460583e-02,2.299576821365044779e-03,3.720495104789733887e-01
2.623298934956481698e-01,-1.547425442095229919e-01,1.223172139693584626e-01,-8.564807822793122499e-03,-4.075219325792420882e-02,1.761696192424833758e-03,3.746587038040161133e-01
2.642949998465597417e-01,-4.827154109468795307e-02,2.533013814476554604e-01,8.635296983718782635e-04,2.691536087425293582e-03,-1.410939121802664425e-02,3.082266449928283691e-01
3.024011911798005214e-01,-1.360273042731051096e-01,1.241972626233082272e-01,3.892042253388895657e-04,-2.800078372012878083e-02,-5.125827811979071988e-03,3.850687146186828613e-01
2.572607952799234043e-01,-6.918891416181247034e-02,2.441921453532769903e-01,1.099911051363818004e-02,-1.260489642296804685e-02,-1.071161046848538058e-02,3.219592273235321045e-01
2.355876437676817092e-01,-1.355211865088223055e-01,2.537606754215626648e-01,-4.418673697949109772e-04,-1.310851469488018371e-04,1.603231034834898738e-04,3.805218935012817383e-01
2.477565135749023040e-01,-1.382693795950159510e-01,2.378044234950909552e-01,-2.451770010202256460e-05,1.780458600997813752e-03,8.428280586853080254e-04,3.811625838279724121e-01
2.391696778042380622e-01,-1.397940660817381942e-01,2.403389902682373791e-01,-9.091870612108612438e-04,1.557907533765774287e-03,-3.254568584596860504e-04,3.795630335807800293e-01
2.367680228550654853e-01,-1.405129948863163281e-01,2.371796852604470818e-01,-1.111944684413153448e-03,1.733246469332819651e-04,-1.185325239717235739e-03,3.774976432323455811e-01
2.420625194439583738e-01,-1.395329460815330214e-01,2.387713206196479809e-01,-2.033571113783059874e-03,3.218611220062808816e-03,-2.918509183397323490e-03,3.800514042377471924e-01
2.391767981315824354e-01,-1.408191455450365503e-01,2.402490708491331062e-01,-2.154224174396699061e-04,2.445866607563633617e-03,-1.018843934795166990e-04,3.805570304393768311e-01
2.391861146611770905e-01,-1.394934572987166221e-01,2.393173090044870832e-01,-5.198605477322963946e-04,-9.043081968661976762e-05,3.041012156042096085e-08,3.787463009357452393e-01
2.052112267182738259e-01,-1.235645227473527868e-01,2.308275351897486893e-01,8.889272908479640620e-04,-3.049362513866269320e-03,6.617346187605678901e-03,3.425395488739013672e-01
2.369953605099594796e-01,-1.340563766877914398e-01,2.551203507571473406e-01,7.705693467353088959e-05,1.161752250035356006e-05,-1.760575292567170694e-03,3.804504275321960449e-01
2.396976796822081202e-01,-1.261682959084990951e-01,1.324723670795934782e-01,6.777898191556912776e-03,2.473655254027784869e-02,-1.898271173726607522e-03,3.287999629974365234e-01
2.382942915009124973e-01,-1.416030650623472109e-01,2.368898418204690715e-01,-2.971944547385483313e-04,3.910696489119592340e-04,-1.071508074111728569e-03,3.792025744915008545e-01
2.405098539669658919e-01,1.259785154820408648e-02,2.422856943039589372e-01,-1.327736674997769526e-04,1.529591106686566115e-03,-6.723265896816651510e-04,2.288235127925872803e-01
1.811124803402242300e-01,-1.266501803855656638e-01,2.452735916993297738e-01,9.401254878771750628e-04,1.586675209691801192e-05,-3.173483201320832347e-03,3.444034755229949951e-01
2.499108049190997827e-01,-1.372208029713429811e-01,2.345555799669171715e-01,-3.066698280878498383e-04,-4.669504345074771377e-03,-6.741785457503529991e-04,3.797752261161804199e-01
2.548062118765757056e-01,-1.340340384586607980e-01,2.379097952139650474e-01,1.106997993961865261e-03,-2.004060061034215225e-03,-4.885047800149691297e-04,3.806949853897094727e-01
2.447430662372819810e-01,-1.377785805086645388e-01,2.376754617008385306e-01,3.063438900200034665e-03,-1.346968149559907030e-03,-1.776513176835580431e-03,3.790940642356872559e-01
2.816864711127019527e-01,-8.827713827161756677e-02,2.612682524795353900e-01,-9.155230967473802989e-04,2.992320078155867981e-04,-9.222569478958816958e-03,3.605467081069946289e-01
2.504159793747041673e-01,-1.349594967131719225e-01,2.396141147282185579e-01,-4.714295334219394747e-04,-4.009099624667268776e-03,-1.562045705050144322e-03,3.801636099815368652e-01
2.466926922138062972e-01,-1.367372074077840005e-01,2.377779382205332526e-01,2.478302288731892063e-03,-6.697983022693878912e-04,-2.131188266114723579e-03,3.790951967239379883e-01
2.367367776234515775e-01,-1.379168442045511367e-01,2.439450144179710622e-01,1.556250778400534475e-03,-3.231878043793314122e-03,5.491358422656729930e-03,3.784797787666320801e-01
2.458865698139603984e-01,-4.965461190892175858e-02,2.263440077413310658e-01,6.773751507694297357e-04,1.731900314057787131e-03,-3.116722348441879238e-03,2.863396406173706055e-01
2.466012723038436549e-01,-1.229277168053274361e-01,2.412979234548259799e-01,1.183145890085154835e-04,-2.414769093615622402e-03,3.159002015577848637e-03,3.669707477092742920e-01
2.574191016473965643e-01,-1.232553967679332896e-01,2.383848048036713574e-01,-5.854883158032293811e-04,-4.968714470582804438e-04,-3.382827941585849472e-04,3.715260624885559082e-01
2.388960144736600455e-01,-1.116628649439814769e-01,2.510747984754877482e-01,2.035067677312190140e-02,1.512125643882518237e-02,-1.012371234565443215e-02,3.599237501621246338e-01
2.431098842852712216e-01,-5.115337919934254129e-02,2.385974650129014663e-01,1.004374641138996299e-02,-3.979631915392571606e-03,-7.293600726402612450e-03,2.929046452045440674e-01
2.522713811986394550e-01,-8.894482322788610507e-02,2.522423994844790740e-01,6.501838909188915362e-03,-9.298822232959524925e-03,-5.511995328342109146e-03,3.419005572795867920e-01
2.448346300994779789e-01,-1.128339821613994765e-01,2.487265724137191492e-01,3.601762420880433909e-03,-1.053154064474108760e-02,2.039764529582597727e-03,3.601640462875366211e-01
2.480854070457260141e-01,-6.488268069960431705e-02,2.574274013085459667e-01,4.074319156257206250e-04,-5.309840183373780269e-03,-1.142788379468414293e-02,3.184916079044342041e-01
1.571462068010107127e-01,-1.189001590080736442e-01,2.407957330907980475e-01,-1.066360357782063228e-03,-5.710994701664598439e-03,-2.255762047878177683e-03,3.262000977993011475e-01
2.399165442695208317e-01,-1.365830647301768119e-01,2.361947068615620482e-01,3.133374570995852999e-03,-1.579237044697484041e-03,-2.680078952094876697e-03,3.747305870056152344e-01
2.582121327779911546e-01,-8.922727110111630666e-02,2.392813326458959888e-01,-1.640628854286613550e-03,5.170050845132828123e-03,-1.711834839759007743e-03,3.385148048400878906e-01
2.370186140106171069e-01,-1.399326584636449988e-01,2.378570854221827013e-01,1.727582276385862840e-03,-2.399659721094148969e-03,-2.602259031945013470e-03,3.774328827857971191e-01
2.443859654133075932e-01,-1.396794464165568850e-01,2.391565085011580494e-01,3.808777202932667151e-04,-2.417868886149479851e-03,-1.432798254258710107e-03,3.815091848373413086e-01
2.395863578919186776e-01,-1.403062259352301777e-01,2.385387083489341475e-01,5.758623417946864224e-04,-1.472536270187293963e-03,-8.498008347635546689e-04,3.793825805187225342e-01
2.386868770611259849e-01,-1.396344783025295355e-01,2.375501082294673716e-01,1.938484847459508035e-03,-2.019854554699079222e-04,-2.947777087601480273e-03,3.778038322925567627e-01
2.380668948955198538e-01,-1.359432593532526878e-01,2.424641403092654413e-01,3.046943995724461958e-03,-6.684304343032099541e-05,-1.898776791690030830e-03,3.762794435024261475e-01
2.298012942682025883e-01,-1.335952692658833318e-01,2.222045303531258731e-01,6.142261274014486003e-03,2.116254494762515384e-03,-9.553763314207011810e-04,3.598381578922271729e-01
2.270909995959561334e-01,-1.386677756218283875e-01,2.253343877051357524e-01,3.166628984734774083e-03,1.168957857340813993e-03,-2.336583342830200576e-03,3.649529218673706055e-01
2.457694194301389967e-01,-1.321209696894575514e-01,2.405519084763934057e-01,-9.531761676867775727e-04,5.540907667347907267e-03,3.319588315156081677e-05,3.754351437091827393e-01
2.283067053865816542e-01,-1.375674646311080829e-01,2.259572667491505371e-01,1.240526970504214795e-03,1.621329305189096780e-03,-2.720819958594284001e-03,3.647527098655700684e-01
2.316302631646087740e-01,-1.354875104053144541e-01,2.423169400912330018e-01,6.037028121186598789e-03,6.645270784008722089e-04,1.048066332257325227e-03,3.727289736270904541e-01
2.285514147017396747e-01,-1.279454477894951259e-01,2.283883474630611365e-01,4.856432208198839182e-03,4.715523428038930474e-04,-3.919682768648282030e-03,3.565801680088043213e-01
2.343033249855958344e-01,-1.376812754963888663e-01,2.488585950319326945e-01,-1.509255813836288002e-03,-4.739313932483875044e-03,-1.200680172874755286e-03,3.795751333236694336e-01
2.426841094794484066e-01,-1.365754521049905579e-01,2.467118072996595524e-01,-2.338459831439151232e-03,-3.442545828010303097e-03,8.623359403961712967e-04,3.813604116439819336e-01
4.414953218198612306e-01,6.006359418881287993e-02,3.631936109854451700e-01,-6.631988048661809944e-03,-2.688089272409258513e-04,-2.875138878384196281e-02,3.526565730571746826e-01
2.393344608606754464e-01,-1.160423571778233381e-01,1.578015762101219743e-01,1.472657994367111050e-03,6.606149649031604031e-03,6.661777659232447717e-06,3.226496875286102295e-01
2.380737505926280306e-01,-1.387722340464644377e-01,2.474532846027944766e-01,-1.632162342099990632e-03,-2.181956422847467630e-03,1.066275766679451742e-04,3.816514313220977783e-01
2.390177780975719091e-01,-1.352827493253166424e-01,2.466740476461801168e-01,-1.318919850566922444e-03,-6.247444496498742944e-04,1.161254690690395304e-03,3.782005906105041504e-01
2.293454666775560646e-01,-1.146346688349222237e-01,1.786536801852968148e-01,-1.252964374218771930e-03,5.356398515260365686e-03,1.831452586956206527e-04,3.217855095863342285e-01
2.369728309348072826e-01,-1.306648693871932387e-01,2.363638934340973885e-01,4.329448107441899625e-03,-9.516277056141223900e-05,-2.722274480010253121e-03,3.674404323101043701e-01
3.592181747288440974e-01,-9.369560504866136785e-02,1.669907410025468220e-01,3.781428856646042603e-03,-2.715988302912665867e-02,6.627754557958154746e-04,3.965816795825958252e-01
2.409363323067158502e-01,-1.352434734243016523e-01,2.413396099140613094e-01,-4.872060566130908535e-04,1.021567574188713638e-03,4.078251810867338303e-03,3.764529824256896973e-01
2.366457461032574483e-01,-1.399167744492608167e-01,2.366061372249222972e-01,8.885953205854070155e-04,-2.603639683173694305e-04,-6.559660558161458819e-04,3.765478432178497314e-01
2.294047248699402908e-01,-1.347045800278006134e-01,2.341066209787446006e-01,2.592850297122506129e-03,-5.736454636660465439e-04,-2.935370227744748053e-03,3.665469884872436523e-01
2.363085879971468795e-01,-1.862373880144041483e-04,2.382551553382200316e-01,1.709707668463051819e-03,-1.408166184009247701e-03,5.547749378627322026e-04,2.375070303678512573e-01
2.482299625787629527e-01,-1.302829597909588299e-01,1.557808834861257319e-01,-1.336365321075073161e-03,2.316800263342478402e-03,1.412321213811735220e-02,3.427032828330993652e-01
2.364589801478769737e-01,-1.361090630439977800e-01,2.350560847683954568e-01,1.162557290974470473e-03,-1.031528897379105792e-03,-2.746332722638441907e-03,3.719087541103363037e-01
2.344823093823027171e-01,-1.380114330658469557e-01,2.335653859380971697e-01,9.813326606137851536e-04,-6.483332089739851038e-04,3.210523492027099468e-03,3.720832467079162598e-01
2.376274321360710151e-01,-1.356388946491042247e-01,2.518136985761250668e-01,1.046246315488103765e-03,-1.641490903343365828e-03,-2.626871079702155056e-04,3.805730342864990234e-01
2.194836442218681127e-01,-1.314661322402378152e-01,2.215871615624068758e-01,1.601229601206113342e-03,1.067363313816578618e-03,-2.867074118264726842e-03,3.520570397377014160e-01
2.229007436966253253e-01,-1.164984468074086316e-01,2.202517330843620225e-01,5.582039034182176632e-03,3.887474346639788192e-03,-5.120874944221004421e-03,3.384039700031280518e-01
2.431766977201243740e-01,-1.221030978595698535e-01,1.570818370562815647e-01,8.451280519463423048e-04,7.606357389785920776e-03,-1.215326046193560558e-03,3.310182690620422363e-01
2.124068310694203210e-01,-1.221387017822736648e-01,2.146298248038853440e-01,1.576268059105428044e-03,9.903430420370768102e-04,-2.844059123526660599e-03,3.357141911983489990e-01
2.388057440096869044e-01,-1.205466418846169591e-01,1.677998460226089728e-01,3.793529741570161092e-03,1.646867276269307206e-02,-5.355186599814879683e-03,3.310629725456237793e-01
2.401139769757205111e-01,-1.394706192706842152e-01,2.410454474345768983e-01,-3.801652856917862172e-04,-3.045746652682591350e-03,6.231947140584064623e-04,3.800899088382720947e-01
2.204744903378829668e-01,-1.243290872624072951e-01,2.158646436812198255e-01,4.447051687952107216e-03,2.831945949166070169e-03,-1.372405625180335171e-03,3.426518738269805908e-01
2.430450000346263684e-01,-1.319970287384110708e-01,2.403330049808374280e-01,3.608261266754789458e-03,2.104681327249149827e-03,1.796689144596187639e-03,3.737764060497283936e-01
1.937785778599163677e-01,-1.253043742130795779e-01,2.217435564436507356e-01,6.227098923993954621e-03,-5.983886275777387798e-03,6.997691257377746180e-03,3.344992995262145996e-01
2.263614266558300336e-01,-7.258504622246919613e-02,2.391534895017229934e-01,-2.873300162201331215e-04,-6.510331774513071143e-03,1.035960220555102009e-03,3.057570755481719971e-01
2.072303649037988971e-01,-1.311623872942384306e-01,2.251853886079178690e-01,6.458253245727353133e-03,-1.087186906245555390e-02,7.787300613262785644e-03,3.486682176589965820e-01
1.995986098885133009e-01,-1.249159310763290065e-01,2.387794096322527482e-01,6.481154241566886107e-04,-5.591860844340092347e-03,6.104729582938428142e-03,3.460728824138641357e-01
2.084600763602862949e-01,-1.308710232817646701e-01,2.397259909444079407e-01,6.149659897842908556e-03,-2.370666199083550432e-03,5.715386814999055473e-03,3.563158214092254639e-01
2.187254497723206681e-01,-1.262681054323503971e-01,2.383818543999241535e-01,9.600111154462079993e-03,-1.015562760026566397e-02,5.983372775011561694e-03,3.562043905258178711e-01
2.436845566204439151e-01,1.042495409930149775e-03,2.346317366625908507e-01,1.703060146335360660e-03,-4.752083992219988508e-04,5.544666570021557911e-04,2.382663041353225708e-01
2.168744930685167771e-01,-1.157811647129314697e-01,2.037823519012261220e-01,5.550920623646898866e-04,1.897833346589612030e-02,-7.577029928825763038e-05,3.279595971107482910e-01
2.447945897897589873e-01,-4.807681358343163236e-02,2.280025095102523602e-01,-1.457316181989901614e-03,-5.643750746367628621e-03,8.600148059445892603e-04,2.850295603275299072e-01
2.452048154980009109e-01,-6.313756759017966069e-02,2.482036696218609118e-01,-2.580021678050395009e-06,-8.641081348058099812e-03,-1.877785397468802100e-04,3.102141320705413818e-01
1.733130050861626803e-01,-1.267710584627846082e-01,2.423487450758057826e-01,3.599569840930460628e-03,-2.980496313816133336e-02,-2.198358669896504670e-03,3.438768386840820312e-01
2.198848100884478185e-01,-1.168274343963503770e-01,2.028153367579301480e-01,-3.307513832375245325e-03,-1.811973844726704613e-02,-2.672813274765563178e-03,3.300881981849670410e-01
1.803493367715587603e-01,-1.124387023238291178e-01,2.425217180546360707e-01,1.107374526013044265e-03,1.935828151330625663e-02,4.379701996691335100e-03,3.301196992397308350e-01
2.306194442504307940e-01,-1.306910487708148605e-01,2.272079653431084700e-01,-3.943117775490084689e-04,1.139158855007100200e-03,4.979577286399162420e-04,3.596239984035491943e-01
2.202209401123116361e-01,-1.797423211009022137e-01,1.480958881047363396e-01,3.122787718748556637e-02,-5.248659531202544415e-02,2.911491372683684339e-02,3.873736858367919922e-01
2.220576387400743368e-01,-1.246946980474808314e-01,1.626674799451413023e-01,-2.536424372127324411e-03,-1.623409971700735810e-02,-2.666924469444801379e-03,3.224933743476867676e-01
2.099092634793077172e-01,-1.105070144696282952e-01,2.222125650802420638e-01,-5.114650420626404466e-03,-1.654102877052299886e-02,-5.535723311087866610e-03,3.282550275325775146e-01
2.170754013473151223e-01,-1.164751136496033207e-01,2.011137344047887465e-01,1.580139077683368615e-02,-1.678021284546103026e-02,1.066020847587540767e-02,3.288181722164154053e-01
1.659304802495208953e-01,-1.234638506386609852e-01,2.059377103159835687e-01,-9.992872314625012541e-04,8.371182094278090124e-02,1.952093961899282332e-02,3.451039493083953857e-01
2.162402432412386666e-01,-1.222330532029444333e-01,1.974401996417562422e-01,4.293661190965504526e-03,-9.645262626541889484e-03,3.537302014771174716e-03,3.300397396087646484e-01
2.522732866975417876e-01,-1.253993045426063380e-01,2.335822857063797886e-01,5.098142496857434704e-04,4.854840512349949816e-03,2.599514987906071870e-03,3.688070178031921387e-01
2.464378246763074265e-01,-1.088688121000205566e-01,2.482994310181870778e-01,1.410123884024193580e-03,7.737237679424134248e-03,3.558108828655840924e-03,3.565546870231628418e-01
2.110864501656926073e-01,-1.192457399751607611e-01,2.101524309250508427e-01,5.920775678579937983e-04,6.574579615696076471e-04,-5.932327523407116086e-04,3.298713266849517822e-01
2.557979447003987383e-01,-1.321990870699374099e-01,2.373741918382464844e-01,-4.025804389227238887e-04,-6.870899410892748077e-05,2.530868265508576741e-04,3.791219592094421387e-01
2.567741623296120324e-01,-1.323176609026662787e-01,2.405955492994520384e-01,-1.114799427707494940e-03,1.061595422640359372e-03,8.326861802083427308e-04,3.812721073627471924e-01
2.537566911014386695e-01,-1.274946271901899464e-01,2.373104577440130480e-01,5.488278595733137814e-04,6.562883455988230072e-03,2.200407063299777890e-03,3.734937012195587158e-01
2.484444074548489978e-01,-1.339960431518359973e-01,2.377737449857618146e-01,-1.974060560850163758e-03,3.236750661174533569e-03,-5.570370673642656683e-04,3.772767186164855957e-01
2.536588224296791316e-01,-1.350582916962643765e-01,2.353043816518201048e-01,-4.764295742362071977e-04,-5.069015284396732358e-04,-1.323966480544805562e-05,3.798745274543762207e-01
2.523154465339676467e-01,-1.359539859198314604e-01,2.369107374447639025e-01,-5.600155032795225193e-04,1.377760371115112825e-03,5.180448829720032955e-04,3.808106184005737305e-01
2.376312663248788537e-01,-1.367048853180878876e-01,2.373562683561508402e-01,-9.586334396261168909e-05,7.337658124784605333e-04,4.591844972259284674e-03,3.742854297161102295e-01
2.573220369023963006e-01,-1.261875721242089465e-01,2.359512871889780927e-01,-4.546224428205498588e-03,2.012725416825596105e-03,1.735907029477927444e-04,3.733827769756317139e-01
2.511237571726603890e-01,-1.362969511402436495e-01,1.808432734710593848e-01,-3.501108005047500350e-03,4.967070529599562634e-03,7.287214271506884007e-03,3.578772544860839844e-01
2.387228557043839516e-01,-1.388384659512692521e-01,2.387647788098473112e-01,1.138661948723209815e-03,-1.012289599599143324e-03,-8.625924019544466397e-04,3.775944709777832031e-01
2.380530184362547597e-01,-1.391286114841296384e-01,2.385902135447271477e-01,1.191193082120166899e-03,-9.314282968517401161e-04,-8.584191174392777259e-04,3.774625360965728760e-01
2.368259227543586531e-01,-1.401442578887108215e-01,2.368812555653800889e-01,1.202291757631041317e-03,-7.624330743599568277e-05,-9.030406793280028408e-04,3.770068585872650146e-01
2.304980917783590044e-01,-1.259802592226082485e-01,2.548765333913084463e-01,1.217064069821857620e-03,-4.066576550799257464e-03,4.743601773134312498e-04,3.693456947803497314e-01
2.371265615525440795e-01,-1.399442345809898680e-01,2.371539219096892581e-01,1.040246467412518508e-03,8.779769893155141519e-05,-1.064638957347717940e-03,3.770933151245117188e-01
1.178524271686605396e-01,-1.240095054894738286e-01,2.926847367116321430e-01,8.025131422352803356e-03,-2.232403123554603172e-03,2.555242010488096779e-02,3.653980791568756104e-01
2.385967757765162789e-01,-1.390707625154064542e-01,2.381646074518072864e-01,1.119013315711011453e-03,-6.132292546455579696e-04,-1.115042562627741821e-03,3.774630427360534668e-01
2.141195480171898535e-01,-1.196158774750262915e-01,2.155378350698501644e-01,9.619751517058721529e-04,-1.186526247720978526e-03,2.540013204480210361e-03,3.344862163066864014e-01
2.100639959114741218e-01,-1.174000406518552198e-01,2.120659636738367326e-01,7.648205074329537956e-05,7.019064547651599623e-04,-6.298162768968572790e-04,3.284736871719360352e-01
2.113793600938675687e-01,-1.209755384425317132e-01,2.096820389024592335e-01,-3.125266934060694918e-03,3.040898159261356485e-03,1.639554001136702592e-03,3.316076695919036865e-01
2.163529274223071064e-01,-1.248019258009079729e-01,2.147774892705039407e-01,1.164650216668786792e-03,4.167855311204726634e-04,7.781399203030731808e-04,3.403792679309844971e-01
2.140184891777147658e-01,-1.195746748815540716e-01,2.152850885447295526e-01,-8.667475094644700286e-04,3.838204458225386029e-04,1.519337272049784988e-03,3.342426419258117676e-01
2.416259526464158425e-01,-1.404639459997175654e-01,2.411165858614316426e-01,6.580951197311259810e-04,1.251058670607067044e-03,3.127521489351356714e-04,3.818437159061431885e-01
2.400567719158039903e-01,-9.130695907069280581e-02,2.537731137283383842e-01,1.482138942619783042e-03,7.080406694628225625e-03,8.674601682338001739e-04,3.386656343936920166e-01
2.105310406475588147e-01,-1.211414529432636583e-01,2.059766349932905805e-01,-1.534205338760419963e-03,4.789980020090955047e-03,7.084827810632975597e-04,3.295363485813140869e-01
2.743265608447532644e-01,-1.637445747289743569e-01,7.525616409893881587e-02,-1.894613684770676647e-03,-6.682003524663074345e-02,-1.040005881257815776e-02,3.975655436515808105e-01
2.882052979655395086e-01,-1.263809651357510888e-01,1.153443780188549567e-01,-4.123873507156126245e-03,-2.492413882994264085e-02,-5.689862434321492357e-03,3.634675741195678711e-01
2.248561142353867615e-01,-1.267291483911247574e-01,1.654534793644982238e-01,9.138575375042173876e-03,-1.899596350420305543e-02,3.575637864944847949e-03,3.280658721923828125e-01
2.541676927092577642e-01,-1.154363567316335493e-01,1.644315166172574116e-01,3.819508946042390906e-04,-1.565425630283525174e-02,-6.154087143335399898e-03,3.351747393608093262e-01
2.303147400292281655e-01,-1.263587605874674502e-01,1.854395904790071270e-01,7.842115654177007900e-03,-1.611271449936357847e-02,1.868452136336691332e-03,3.379316627979278564e-01
2.359667151036445865e-01,-1.362482363938340435e-01,2.546334163795290761e-01,4.741863652766169267e-04,-1.079316456885015367e-03,-6.407235783364389310e-05,3.818960785865783691e-01
2.825178638870888825e-01,1.805947501001090028e-02,2.773173574223644078e-01,-5.593505276001204882e-03,6.143798843514687580e-03,8.967498116310906181e-03,2.627514302730560303e-01
2.374127380259763442e-01,-1.372490592972051282e-01,2.411653590177934015e-01,4.420431550546664520e-03,1.074041414315237255e-03,-1.787276465203994978e-04,3.766346871852874756e-01
2.384430269795855817e-01,-1.190593417674605803e-01,1.802898826480355265e-01,2.950020611023496369e-03,-7.471898489580854411e-03,1.395479504417691894e-03,3.325647115707397461e-01
8.373034583959990118e-02,-1.321296257247456807e-01,2.732532396094734528e-01,3.233554684109205511e-03,-4.824061549765689717e-03,-4.030387726702146234e-03,3.515320420265197754e-01
2.469878880493210638e-01,-1.268503007501610158e-01,1.380259340364353715e-01,8.212741093039568202e-04,-2.117779835991732626e-02,-1.081485627858054884e-04,3.350240588188171387e-01
2.655767390653851479e-01,-1.478764130843466251e-01,8.527762697189415764e-02,-3.379339719614639446e-03,5.582408239878117011e-03,1.601682031933238104e-02,3.602823913097381592e-01
2.554486503800992292e-01,-1.241948201039362043e-01,2.415280951511806773e-01,-2.507949155235075864e-03,-4.048616005561755590e-03,4.813332388462856527e-04,3.729702830314636230e-01
2.580760984427252769e-01,-1.269688251495568188e-01,1.199859391498199757e-01,-1.600008519066943059e-03,-4.541748468824604104e-03,2.656880557426617153e-04,3.379753530025482178e-01
1.726416761321395155e-01,-1.303809514235542699e-01,2.401872255223120034e-01,-1.182417778665747002e-02,-5.954869501918077200e-03,-8.824684440008973008e-03,3.429466187953948975e-01
2.592585643824820707e-01,-1.236916676609638166e-01,1.312442792733634067e-01,1.976037899213375134e-04,-5.163434629740596207e-03,6.515248475916139356e-03,3.379687666893005371e-01
2.610416506981677598e-01,-1.194494881469462533e-01,1.386175771008963942e-01,-1.136250737134187998e-03,-6.023403959170730779e-03,3.523849230052224571e-03,3.366450071334838867e-01
2.419075468860910072e-01,4.411057603039808539e-03,2.404854838252198368e-01,-1.360102831128712480e-03,-4.215398545609664411e-04,1.086276464242883670e-03,2.368089854717254639e-01
2.115011646216180263e-01,-1.183022544522855796e-01,2.112002025755524148e-01,2.346163359112268039e-04,4.938315609925318563e-04,4.881758928758265863e-04,3.296554982662200928e-01
2.149055083409437406e-01,-1.166961208047549992e-01,2.158060277671574601e-01,2.832861524483147771e-03,6.711326301750749485e-03,-1.705309031984812056e-03,3.323055803775787354e-01
2.136278688165190176e-01,-1.220880660630229431e-01,2.152479481430000785e-01,7.507937656482731141e-04,7.236044964101385601e-04,-2.218374131421252740e-03,3.365556895732879639e-01
2.114615458719412977e-01,-1.223754911225777842e-01,2.045230447416266917e-01,2.885183598191314123e-03,5.340237237091753630e-03,-6.532237222509814376e-04,3.305915594100952148e-01
2.245781794583341373e-01,-1.304346912584272156e-01,2.252015865969291819e-01,5.218186022796124021e-03,2.535433472296409578e-03,-4.271065495484733208e-03,3.555440008640289307e-01
2.448136683133859681e-01,-1.294772358897611775e-01,2.442038865541413806e-01,-1.085817648586163498e-03,-6.553303517663896030e-03,-2.534034066463993059e-04,3.741635680198669434e-01
2.301086420003116140e-01,-1.352177039236929779e-01,2.306441089804482092e-01,1.018088272040974709e-03,2.168864119975564425e-04,-2.191874622285162107e-03,3.656185269355773926e-01
2.243750374591159669e-01,-1.331520840108294523e-01,2.264630193036485384e-01,1.116444419359372171e-03,1.188493457189891949e-03,-3.662343724210101806e-03,3.586429059505462646e-01
2.373231572983415250e-01,-1.322781594172577624e-01,2.564311935069042425e-01,-2.979159813897636132e-04,-1.021797861128865360e-04,7.723717180437041346e-04,3.795190155506134033e-01
2.213579790163572314e-01,-1.289175577061628108e-01,2.262354369111377606e-01,1.995657619109497682e-03,-2.300135699235976493e-04,-3.756978274944131058e-03,3.528167307376861572e-01
2.339570618463317209e-01,-1.416586701665404624e-01,2.275684955469537973e-01,1.644055684403992849e-03,-4.406754702010787748e-04,5.489877350534968017e-03,3.725955486297607422e-01
2.393325025614154167e-01,-1.375180847492371572e-01,1.924722528784661990e-01,2.076062882086835912e-03,-4.511456381907902715e-04,1.080524105565605804e-02,3.562537431716918945e-01
2.489209574204966635e-01,-1.361228298401204462e-01,2.396081136757512164e-01,-1.149341821418570220e-03,-8.923706510174647319e-04,1.068542181560689893e-03,3.804857134819030762e-01
2.196795635161253868e-01,-1.187246074937621104e-01,2.041511309344441472e-01,-1.600565641161185750e-03,3.285757896589813504e-03,6.684237338102480466e-04,3.309758901596069336e-01
2.391663695541927925e-01,-1.348980402725960259e-01,2.513230410464819542e-01,3.824368886530646501e-05,-5.169843109074716628e-03,-6.487513588014097356e-04,3.803955614566802979e-01
2.368289328875486099e-01,-1.357590494003677040e-01,2.520886257935998631e-01,-6.903188614234371254e-04,-1.404802406324787969e-03,-5.158001132797467633e-04,3.804581165313720703e-01
2.385388558783393398e-01,-1.369280214066334045e-01,2.484389913804729288e-01,-1.081675029324167701e-03,-2.056296626718463576e-03,-2.635163399349800019e-04,3.805350959300994873e-01
2.383699168437149463e-01,-1.320293795270051085e-01,2.523883625399358510e-01,-5.910150281871519046e-04,-4.425639680051916131e-03,-1.701577674942522569e-03,3.776944279670715332e-01
2.381512533093030348e-01,-1.344922175736872616e-01,2.541083348061857761e-01,6.853050267709632527e-04,7.052749455636422881e-05,7.234717737239755673e-04,3.808767199516296387e-01
2.350034363422869865e-01,-1.343331275569303318e-01,2.539584532100541137e-01,-5.961702822843476229e-04,-2.688075918283769176e-03,-3.634113428576180634e-04,3.792001008987426758e-01
2.359451436997837548e-01,-1.367899512350572722e-01,2.482966993077598272e-01,-1.584735471244149698e-03,-9.990733351980716180e-04,2.327193262337254320e-03,3.790971338748931885e-01
2.382289298771876618e-01,-1.381004813173845047e-01,2.454046263821610396e-01,1.484103864209377743e-03,1.332087859336081922e-03,1.723917705460701027e-04,3.799839019775390625e-01
2.471960976900890727e-01,-1.253301991583610220e-01,2.469118628343989763e-01,5.730368394915219456e-04,1.077755084447055978e-02,5.477050576024621899e-04,3.728543817996978760e-01
2.422086626555980393e-01,-1.290490208162198560e-01,2.412716137593779731e-01,1.101287562111713135e-03,7.821837272695995880e-03,1.204211415485063191e-03,3.710482418537139893e-01
2.359360345962986383e-01,-1.349228194215530419e-01,2.533582399849418909e-01,1.684181087373629038e-05,4.323062785953765631e-04,-4.286397182863972396e-04,3.798711895942687988e-01
2.362982403158093159e-01,-1.282182671106157357e-01,2.563124945847094494e-01,-4.540774383873070834e-04,-2.065532726840305089e-03,-3.359430705529195885e-03,3.749875426292419434e-01
2.440012395480521401e-01,-1.276870252182996379e-01,2.359678327750066307e-01,2.552203975214769032e-04,-3.623232513075027444e-03,2.410153463592231825e-03,3.678148686885833740e-01
2.519137879319826023e-01,-1.305161592547227078e-01,2.367190688740744564e-01,2.033357999483975144e-03,-4.363904475259189689e-03,-1.443320425524244202e-04,3.751562535762786865e-01
2.372227945290245055e-01,-9.257097332664560030e-02,2.529403456160544961e-01,1.168442859790108906e-03,4.533950894571170745e-03,5.527644972005241419e-05,3.380241096019744873e-01
2.447489745489375146e-01,-1.401278345683366067e-01,1.961890528804969835e-01,8.898174793118069498e-03,-1.980499277090121829e-02,2.549283381372224877e-02,3.676445782184600830e-01
2.449909231563721923e-01,-1.339214110955744275e-01,2.395626282707516708e-01,-5.113675742821602224e-04,-3.561070639060683659e-03,4.227083639729006283e-03,3.763503730297088623e-01
2.253034310821083741e-01,-1.283755120806941985e-01,2.387932853212281770e-01,-4.081114757746820421e-03,-8.900086899142039664e-04,3.647458290224483025e-03,3.607410490512847900e-01
2.513438613904291907e-01,-1.338362168716970557e-01,2.406758607682099593e-01,5.321437437996792957e-04,-3.851554645045620305e-03,1.173570142859454383e-03,3.800235390663146973e-01
2.624151280432357458e-01,-9.224804448215655206e-02,1.573907980979550036e-01,2.335720553767112184e-02,5.742994425633365929e-02,-3.527138832679006016e-04,3.333158493041992188e-01
2.391164638323422797e-01,-9.931557137896435128e-02,1.511206140762150207e-01,1.000553299065924662e-02,5.977179863083096484e-02,-5.912071518467221058e-04,3.217425644397735596e-01
2.704437210277925718e-01,-1.496343224500262803e-02,2.624052467977141534e-01,-2.679069187278049907e-03,-6.394046612373930662e-03,2.225146268158925689e-02,2.843539714813232422e-01
2.680210376523631810e-01,-1.215472580582813711e-01,2.511763033227606967e-01,-7.468101063489782760e-05,1.831299753987758461e-02,-7.037940446693372737e-03,3.829356729984283447e-01
2.141420457469632166e-01,-1.341450912004564511e-01,2.444073351890838908e-01,-3.771883201740132592e-04,-1.316227050007448812e-03,1.796031504178342538e-03,3.643847405910491943e-01
2.337513389754643511e-01,-1.134888044637773208e-01,2.475206276840743180e-01,-1.458071263082155473e-03,-1.092664708291236041e-02,1.613452827258830260e-03,3.548505604267120361e-01
2.405671533394207195e-01,-1.366169303339795082e-01,2.441480438710637302e-01,-1.657315049665884820e-03,-7.065800166713554972e-03,2.026624373247023006e-03,3.792118728160858154e-01
2.485158653117366945e-01,-1.227690914773903602e-01,2.450686119015452191e-01,-2.086823283754314119e-03,-9.109546211891148340e-03,2.033077144314178984e-03,3.699444532394409180e-01
1.380733820472373474e-01,-1.292950442614344553e-01,2.735960237112332605e-01,-2.527240385566433684e-02,-2.359497701533664477e-02,-2.088931435744096655e-03,3.601195216178894043e-01
2.385615538062335061e-01,-1.374917555603174524e-01,2.435666397202302380e-01,9.543392782737757790e-04,4.707831941568266058e-03,3.939572656176602004e-04,3.786726891994476318e-01
2.356613584296700092e-01,-1.361589841612958485e-01,2.508705007295913836e-01,1.699009268383076636e-04,-5.370640830505982654e-04,-1.208847457529076130e-03,3.796604871749877930e-01
2.375849861168520261e-01,-1.380081676075800567e-01,2.388790376729414966e-01,-2.152418330900678946e-03,6.365831906045191745e-04,-2.206293939194553088e-03,3.762813508510589600e-01
2.391222560022567556e-01,-1.401917561252978561e-01,2.431064016199110112e-01,-1.785378588175061182e-03,2.954062503726007875e-03,-8.766584191032558921e-05,3.813685774803161621e-01
2.440586604358680189e-01,-1.236400660565203091e-01,2.470483923751134459e-01,-2.103455315832515257e-03,-9.807996565971820874e-03,2.040097963820174110e-03,3.696281313896179199e-01
2.513648840644163718e-01,-1.255373764096919809e-01,2.417887826689913144e-01,-1.134840629526042864e-03,-5.556700546735765522e-03,2.056883407518862207e-03,3.723532557487487793e-01
2.342787071535080146e-01,-6.512961341642700686e-02,2.448173826722690460e-01,2.995045817266159607e-02,3.829136000163491527e-03,1.408424756433965773e-02,3.102288544178009033e-01
2.266376419961302624e-01,-1.321685439908727444e-01,2.248502491222394428e-01,3.320116230420127549e-03,-1.423574260746599213e-04,8.001757488420181003e-04,3.579648137092590332e-01
2.569773837732554078e-01,-8.915327654833393733e-02,2.406986891768293224e-01,-9.167783042028608553e-04,-1.607098638604111162e-03,6.145072009373053724e-05,3.383004069328308105e-01
2.388236512708312720e-01,-1.406911221063054662e-01,2.400510617759525345e-01,-8.759393989151932538e-04,1.320362002109728679e-03,-2.152848106048856449e-04,3.801400661468505859e-01
2.397545261359185498e-01,-1.410004220576633327e-01,2.404968651880066699e-01,-6.663785357736225386e-04,2.942183985832151280e-03,-1.103235219477248161e-03,3.811672627925872803e-01
2.401077246930905240e-01,-1.408156122464123416e-01,2.408539838500322883e-01,-9.475461849586781045e-04,-3.103725130795198343e-03,1.368340852178730584e-03,3.813458085060119629e-01
2.392869780563978699e-01,-1.396694615947098317e-01,2.424755935507804105e-01,-1.325047854643028209e-03,-2.694046281137071376e-03,2.684034283737154179e-04,3.805965781211853027e-01
2.380372112407519725e-01,-1.221958686114212184e-01,2.581037847900573556e-01,1.706440054055453161e-05,-1.046295389430174343e-03,2.652337365930050421e-04,3.706786632537841797e-01
2.437345792547682966e-01,-1.168791616579684528e-01,2.412311936631957310e-01,8.115302071196307766e-04,-8.192874255751846080e-03,1.610833692842652057e-03,3.596622049808502197e-01
2.418045781364125402e-01,-1.090366892301656843e-01,2.522386977004120734e-01,-1.080090034602085433e-03,-7.360746584246176220e-03,1.741811310653676838e-03,3.564187586307525635e-01
2.440427793022281744e-01,-1.246021316320616856e-01,2.574908339738917751e-01,-9.007765656841381459e-04,4.406873472436356916e-03,-4.252547736497893673e-03,3.757025897502899170e-01
2.395861652485645199e-01,-1.307327568575734067e-01,2.440479496992771780e-01,-2.617020571338361454e-03,-6.077751125685449405e-04,-2.471068347586056601e-03,3.726235032081604004e-01
1.071260599451470674e-01,-1.665664542358553935e-01,3.353338116557749715e-01,-8.997825037848921140e-03,-4.552371595321415970e-02,1.910483457192743706e-02,4.438470602035522461e-01
2.710064559929026284e-01,1.527699124482836956e-02,3.110690175834052162e-01,-1.434145937682572945e-02,6.506157070532635547e-03,5.032257144684106759e-03,2.794060409069061279e-01
2.816412576136625989e-01,-1.639003835373412099e-02,2.723354270372311259e-01,-2.161507116597492784e-02,2.913231007216916801e-03,1.281508200720929413e-02,2.967416346073150635e-01
1.513180264623392168e-01,-1.456635265587152839e-01,2.953147612980551173e-01,-7.256832565051316887e-03,-4.023183043208514512e-03,2.847711069171489449e-03,3.897798657417297363e-01
2.720817179445325085e-01,-1.105323029231972121e-02,2.469155002086385886e-01,-2.183265746692589909e-02,2.435789200570935911e-02,2.653664038452373253e-02,2.810619175434112549e-01
2.422837846073557788e-01,-1.353614023720605686e-01,2.385215507646445965e-01,2.643414655069126619e-04,3.174411429642495439e-03,-2.486500407012166153e-03,3.758433759212493896e-01
2.171505305093951732e-01,-1.371101928071630227e-01,2.368043269373163728e-01,-1.060727299854125408e-02,1.006846137021812776e-03,2.403288552138842140e-04,3.649524152278900146e-01
2.301705947563119636e-01,-1.361770962393296924e-01,2.404017739989104396e-01,-7.003204710507383683e-03,-6.352829396807022078e-04,-6.450241160228274880e-03,3.719363510608673096e-01
2.434884453426514606e-01,-1.360811352594996637e-01,2.386390402745851569e-01,1.254554808693546762e-03,1.555838060663296578e-03,-1.527924929679943221e-03,3.771934211254119873e-01
2.556090112887183796e-01,-1.323342709167485698e-01,2.364617321678559869e-01,-5.062838489146672446e-04,1.045712696148310973e-04,3.191365899750190087e-04,3.787342905998229980e-01
2.440083950001897262e-01,-1.385937289680637674e-01,2.374829388691084564e-01,-7.482107015503633961e-04,-2.893878501546007318e-03,1.141718742662210708e-03,3.794219791889190674e-01
2.451823436004443857e-01,-4.892556990109411807e-02,2.599244496743996491e-01,-4.226430351549704048e-03,8.311926353722979806e-04,1.517449542639445759e-02,3.029835224151611328e-01
2.434988138600532315e-01,-3.461138944343572499e-02,2.503550668478783936e-01,1.921250167657527616e-03,-3.927094950786466952e-05,-2.172237613890853555e-03,2.816457450389862061e-01
2.508605769648044603e-01,-1.846449588198001424e-02,2.753380553402057229e-01,-5.702071434012462650e-03,1.034419800290710184e-03,1.516700415366941182e-02,2.837576568126678467e-01
2.366308706375641335e-01,-1.286223569749833096e-01,2.543793026925717515e-01,1.264230663004033270e-03,6.576926721995319733e-03,-2.906296838731908631e-04,3.746230304241180420e-01
2.433472212260484879e-01,-1.312130047052870452e-01,2.392258417296512507e-01,3.608097255950818913e-03,4.871792971883267230e-03,2.322706623651207402e-03,3.726863265037536621e-01
2.348194644539396969e-01,-1.357493918072796291e-01,2.292397358583941891e-01,4.325268457709511086e-03,-7.952559710737153913e-04,2.104764146996769211e-03,3.679076731204986572e-01
2.746350307711911687e-01,-3.483594457442062975e-02,2.785659448644219882e-01,-1.481515187115241272e-02,-5.842022537723070598e-03,1.729864702886585795e-02,3.141063749790191650e-01
2.721075496890529299e-01,1.484348682382660711e-02,2.677419087424993127e-01,-1.265950570855827080e-02,1.019161563576203786e-02,8.759476975399205396e-04,2.566621005535125732e-01
2.412932564274520852e-01,-1.395236562493216703e-01,2.397341270740778740e-01,2.491092822790468334e-04,3.128106110696338669e-03,4.949509998929930250e-04,3.800795674324035645e-01
2.532974136307428181e-01,4.495809959284169377e-03,2.559774340134842729e-01,-1.783928918086386591e-03,2.951294840209975952e-03,1.604603967037534010e-02,2.517624199390411377e-01
2.363883087518022230e-01,-1.443352333328201120e-01,2.290068594402959734e-01,2.833747045298427164e-02,-4.490927038991136128e-02,2.105628916897692854e-02,3.898515999317169189e-01
2.299695207650941375e-01,-1.254752085483467616e-01,2.559430350774113405e-01,2.112091077628789650e-03,1.363412048635762128e-03,4.257596905953863788e-04,3.691439032554626465e-01
2.036590056534415827e-01,-1.312787185620313268e-01,2.285779669537659764e-01,1.527797933090269296e-02,-1.242382739522384857e-02,1.303103826678746364e-02,3.504615128040313721e-01
2.262774296989925049e-01,-1.408460223722115545e-01,2.164700157551064374e-01,2.252201397356732443e-02,-2.841781400920037962e-02,1.606657150108709367e-02,3.687738180160522461e-01
2.295042716733568799e-01,-1.160721600753507610e-01,1.831245527381879790e-01,2.591970732684548747e-03,-7.401235399000167907e-03,1.387642208546419845e-03,3.251717686653137207e-01
2.369417372039337721e-01,-1.231130044543782692e-01,2.556798534227119335e-01,9.542739597890689167e-04,3.238985859494260267e-03,7.853014648801693752e-04,3.698287904262542725e-01
2.211160959411175297e-01,-1.283654663318620215e-01,2.212570522034624232e-01,5.088003026919856765e-03,-2.443474690301183569e-03,5.284233918821773165e-03,3.498085141181945801e-01
2.293260009964820934e-01,-1.222625030415633030e-01,1.912129081762239391e-01,7.086814245538890743e-03,-4.381423206744877036e-03,4.664393757617358791e-03,3.345750868320465088e-01
2.209215182765277286e-01,-1.255722474492096397e-01,1.926849082421208670e-01,9.450048005058012124e-03,-6.731582847164135561e-03,6.013792079731494419e-03,3.340415656566619873e-01
2.361202876698447195e-01,-1.314344274547708524e-01,2.497327291019484363e-01,-3.967691033354781363e-04,-7.722556815364552130e-03,1.515172236053946749e-03,3.747950792312622070e-01
1.556626439557985964e-01,-1.133268318778501288e-01,2.611651364971608325e-01,1.384942176029540671e-03,1.735993994037996358e-03,2.310661569759692863e-03,3.345085680484771729e-01
2.579346918045982706e-01,-1.279188625234157217e-01,1.725692767608655864e-01,4.572658488067512898e-03,2.757080524145214071e-03,7.635783851546080764e-04,3.511679768562316895e-01
2.251639627414841194e-01,-1.305653809118233477e-01,2.107120864712469510e-01,6.791374246972695095e-03,-4.517725049744261007e-03,2.964306623857843742e-03,3.490518927574157715e-01
2.409038415278104694e-01,-1.344799618961960430e-01,2.498779860140892262e-01,-1.425894500219509944e-03,-5.336282743606322702e-03,9.926931179362664427e-04,3.800746798515319824e-01
2.373200098753810716e-01,-1.351975683870990375e-01,2.543523606760764721e-01,9.406319486081830394e-04,2.625287346490693795e-03,4.972921821785954329e-04,3.813507258892059326e-01
2.076221357485825425e-01,-1.258367664991949797e-01,2.054400209747603845e-01,-3.827593872016356053e-03,6.229966792948366666e-03,1.872881460246865210e-03,3.326302170753479004e-01
2.138266263877111606e-01,-1.209032368408074348e-01,2.199917375963106325e-01,-3.929028608230016040e-03,7.497090531036510429e-03,4.369323731513042458e-03,3.382572233676910400e-01
2.253553470717932772e-01,-1.280448630157766110e-01,1.965238938685681114e-01,-8.657348588535659917e-03,4.663890242900895974e-03,4.816757957291416779e-03,3.404315412044525146e-01
2.112158752347082502e-01,-1.216384271450765830e-01,2.144847646279550990e-01,-3.615270725747668414e-03,9.870730582332190584e-03,3.104120734527719607e-03,3.350390195846557617e-01
2.500140387305465062e-01,-1.346687723703888784e-01,2.359356955959220348e-01,1.459628199634250027e-03,2.654816391559507421e-04,-9.048073628161849586e-04,3.778523802757263184e-01
2.541017407770715386e-01,-1.308300056319000593e-01,2.346883824174130495e-01,-2.374434976864072625e-03,-1.409571179392860680e-03,-1.248650224603150768e-03,3.756382167339324951e-01
2.380994482057850470e-01,-1.372938432006643450e-01,2.449048231326718672e-01,-2.502447990775763173e-03,-7.051670788322865436e-04,8.622775876568096595e-04,3.788715302944183350e-01
2.495734435214987945e-01,-1.343584917870641049e-01,2.373244016551484814e-01,1.863026183688767804e-03,4.846517820242140194e-07,-1.292458032944037273e-03,3.779767155647277832e-01
2.400227924556617154e-01,-1.278080042261641736e-01,2.561358513041728235e-01,-7.729441175060171960e-04,-4.807271208242940366e-03,5.389384348794516591e-04,3.762419521808624268e-01
2.444151287942614159e-01,-1.386037474979294193e-01,2.398477680660147660e-01,-7.313365883867652736e-04,-1.189906385858003224e-03,1.138162949652623754e-03,3.807685375213623047e-01
2.569502718140467268e-01,-1.312067936923436706e-01,2.377957167069921496e-01,9.912480430720588525e-04,-6.083065443735960188e-06,2.271133484003917940e-04,3.789471387863159180e-01
1.973237349826819920e-01,-1.153226348359824571e-01,2.421327119942893180e-01,4.089563851371670264e-03,-6.145975185140432201e-02,2.670287829597091898e-03,3.537915050983428955e-01
2.388054383408393100e-01,-1.334019014782119039e-01,2.541986149646067172e-01,-1.050108957236919622e-03,-9.290455580759213921e-04,1.112200270785591687e-03,3.801503777503967285e-01
2.358923848094510167e-01,-1.393948182595675100e-01,2.370404777984299050e-01,-1.535730402016060106e-03,2.147238275191343227e-04,7.038899669552607305e-04,3.758741319179534912e-01
1.134973767335872019e-01,-2.255575225959551011e-01,2.518511898081096656e-01,-1.280695475525352525e-02,-7.643483512917509382e-02,1.495894071555475650e-02,4.468777775764465332e-01
1.558910050993126406e-01,-1.205231764182753268e-01,2.537954976595302448e-01,-6.352030277212141092e-03,2.771857450868535182e-03,2.143566025500706542e-03,3.364671766757965088e-01
1.474361481362783111e-01,-1.751456217955322248e-01,1.855535501142722699e-01,-2.378983651064416754e-02,-9.464195713726857029e-02,-1.381001470758592801e-02,3.833395838737487793e-01
2.045579883811262656e-01,-1.403917538129465792e-01,2.216155454213735165e-01,-1.659678154664448110e-02,-2.041478376610606632e-02,-1.063128035703132454e-02,3.571848273277282715e-01
2.075555793027858420e-01,-1.449072106886576949e-01,2.165850956338712385e-01,-9.253171761588269151e-03,-7.309012235597406315e-02,1.321410695846647306e-03,3.791869282722473145e-01
1.716203744891004468e-01,-1.230278800744493001e-01,2.316220697414850260e-01,-5.285718656789201164e-03,-3.858301580580037610e-02,-7.424123400247314812e-03,3.358754217624664307e-01
2.798132978788002712e-01,-1.195739075524847872e-01,2.407016813442257042e-01,5.842853008621252432e-03,5.638798776238357000e-03,2.253873851333724684e-02,3.835895955562591553e-01
2.584899612416802772e-01,-1.289067975948517963e-01,2.178309674091840065e-01,-2.592138569742982301e-03,8.695930290404574239e-04,4.401428394007608422e-03,3.688614666461944580e-01
2.459745955070675172e-01,-1.358636110007722664e-01,2.283006564264428995e-01,-1.858316066281561017e-03,1.720290629566741157e-03,5.289769462649968404e-03,3.734533190727233887e-01
2.476579360700496280e-01,-1.302453430855548266e-01,2.230118203961830026e-01,-4.595231483743789785e-03,3.196221149292580860e-03,-1.814866786089941670e-03,3.663445711135864258e-01
2.340221334477668447e-01,-1.407758519872612801e-01,2.262730345625354189e-01,-1.013764394996284710e-03,-8.090529125640065575e-04,5.720778574482415779e-03,3.711232542991638184e-01
2.386197895129927304e-01,-1.385231485935644047e-01,1.921963246852234075e-01,4.685262425844129858e-03,-3.412978537996884127e-03,1.151458133813721210e-02,3.569064438343048096e-01
2.399084325783181759e-01,-1.398921451653684089e-01,1.913738447730059522e-01,-2.430637206320834798e-03,4.846011397003970609e-04,1.286671530029320776e-02,3.587279021739959717e-01
2.502129257186277433e-01,-1.317083534753620000e-01,1.983802297594874364e-01,1.084820322662220088e-03,-2.776448719460419129e-03,1.192055891279824101e-02,3.594543635845184326e-01
2.316156422634818024e-01,-1.304705305590895814e-01,2.219436011777493334e-01,6.189639130507268439e-03,-5.523917866332626013e-03,5.307543111234718988e-03,3.577552437782287598e-01
2.772412464167355317e-01,-1.390692591237634168e-01,1.950933492542979708e-01,9.696701296268039894e-03,-1.772226824118668803e-02,4.704484587047274603e-03,3.836070895195007324e-01
2.282278316673660157e-01,-1.265730709401515774e-01,2.330592154422423956e-01,7.701425744266183863e-03,-8.913867924838510259e-03,9.400864030928789139e-03,3.581935763359069824e-01
2.430426036300186166e-01,-1.290247507816489336e-01,1.717036045357686336e-01,5.094131893172619205e-03,-1.465765175399120872e-02,1.107106142530944748e-02,3.436139523983001709e-01
2.379706778843427850e-01,-1.361010489792524591e-01,1.549871942169525618e-01,5.180621097013587972e-03,-7.103381709355805623e-03,1.308341136592755527e-02,3.413496017456054688e-01
2.452941567918414667e-01,-1.350593718581184211e-01,1.937420473400008336e-01,2.403197421128793008e-03,-5.044448001529891923e-05,1.079129351596590583e-02,3.578897714614868164e-01
2.519693646472912496e-01,-1.493931904402377997e-01,1.855124515866169443e-01,1.142268671745273745e-02,-2.228870276225799162e-03,1.622204393039645975e-02,3.742070496082305908e-01
2.345884109827364172e-01,-1.308354918793312172e-01,2.245445693051739411e-01,6.266997043911259023e-03,-3.076680143503707004e-04,4.946177787918946186e-04,3.606717288494110107e-01
2.455446886862577560e-01,-1.324629736676333214e-01,1.569753372742609121e-01,6.795216266049327290e-03,-6.384435624838075314e-03,1.308660667385517888e-02,3.435535132884979248e-01
2.387062452336392582e-01,-1.411556879284486254e-01,2.409157556669569433e-01,1.074806824209308424e-03,7.648846714699354980e-04,1.579809538513875797e-04,3.809784352779388428e-01
2.341221540443350624e-01,-1.387214912281891088e-01,2.468170946034148328e-01,-1.381000811226643435e-03,2.925544975688657121e-04,-1.744902238180005014e-03,3.793703913688659668e-01
2.345297982393708680e-01,-1.334396562391029772e-01,2.556863281070743676e-01,2.086941871019218375e-04,5.035021172632163540e-04,5.794681046718465778e-04,3.789933621883392334e-01
2.406498354637990889e-01,-1.299440162877477656e-01,2.314061369666546852e-01,-6.141690602524669911e-03,1.777128247758043571e-04,-2.228796155966289265e-03,3.662345409393310547e-01
2.359232138202896900e-01,-1.354119265640360559e-01,2.550210317724805886e-01,-3.098923127667319814e-04,-2.731737247545705212e-04,7.815287546924360156e-04,3.812460601329803467e-01
2.365474526223360630e-01,-1.330744219629597658e-01,2.546940190522825609e-01,4.657654701925375033e-04,7.935044056239584642e-04,4.049380108092425303e-04,3.790251016616821289e-01
2.362400946213246422e-01,-1.374330360524425032e-01,2.519494688483445155e-01,-5.120645081989961319e-04,2.052262398171237311e-03,7.196863176153059979e-04,3.817899227142333984e-01
2.355995705537119178e-01,-1.273394944000545981e-01,2.545964704886792274e-01,6.532833090477365660e-05,1.070253366795817420e-03,1.306260104603704664e-03,3.728121817111968994e-01
2.344657768184116309e-01,-1.377262312647064280e-01,2.499807400864811069e-01,-1.173442135765378341e-03,3.834988693590263894e-03,4.485823377753897934e-04,3.802512288093566895e-01
2.342769774083043322e-01,-1.345000976762836253e-01,2.531660770197444732e-01,-5.365762080879251262e-04,-1.884910622827001836e-03,4.994867838425229474e-04,3.785914182662963867e-01
2.408604115834562243e-01,-1.351174142210855300e-01,2.505792387262237852e-01,-2.282868623712810529e-03,4.089432234111815487e-03,2.740923148727730044e-06,3.810166120529174805e-01
2.379743301710724734e-01,-1.369623663286322901e-01,2.475755085298887992e-01,-2.410640424222362452e-03,6.969781343721093668e-04,-2.185957465128375576e-03,3.798720538616180420e-01
2.378494834087531429e-01,-1.380905966302387045e-01,2.479886436840090247e-01,-1.295270057524464634e-03,2.140498846663673425e-03,-5.916509113332624778e-05,3.811354637145996094e-01
2.356072277101550205e-01,-1.369882680064078984e-01,2.314133306493728059e-01,-4.017671027756122490e-03,-1.666702763084021042e-03,3.484199510693381137e-03,3.706420660018920898e-01
2.366274537235460995e-01,-1.363103511016098279e-01,2.481014615715010918e-01,-1.095918856445934984e-03,-3.273106080833079398e-03,6.023649059201663380e-04,3.788537681102752686e-01
2.270398666622902017e-01,-1.374354391102102224e-01,2.280953155136344890e-01,-3.956401635514493476e-03,1.193998252628847463e-03,1.749515594006005722e-03,3.650869429111480713e-01
2.388045699393531174e-01,-1.387914438480377932e-01,2.435298584644241260e-01,-1.205830278624769707e-03,-2.798318627177034858e-03,5.490836225430851310e-04,3.800185322761535645e-01
2.366296032893947798e-01,-1.367684136864718014e-01,2.367800428366695353e-01,-2.208667881682995805e-03,-1.585078809500803593e-03,7.205963768371196655e-04,3.735050261020660400e-01
2.300186456570504079e-01,-1.358686307878335386e-01,2.298879348663747102e-01,-2.605945506617812941e-03,-1.025789184744469221e-04,1.103279414441476775e-03,3.658548295497894287e-01
2.966850583840950906e-01,1.735745317242212704e-02,3.877133794805641132e-01,6.264387248578041564e-03,2.622700456898905200e-02,2.612903786760313596e-02,3.405382037162780762e-01
2.254826411238205208e-01,-1.238201405674425049e-01,2.094098903807761758e-01,-4.329256630247998831e-03,3.003907155250955426e-03,1.149392890659845304e-03,3.416778743267059326e-01
2.443967875724671057e-01,-1.398157749679216633e-01,2.392616673704294206e-01,1.876918933212534256e-04,2.080060960941911875e-03,1.500780952256618129e-03,3.816969096660614014e-01
2.422113694231524672e-01,-1.366457000281238177e-01,2.394310522892575399e-01,2.210682945021443316e-03,3.056346413437084630e-03,3.631647689571648914e-03,3.775835335254669189e-01
2.385106522605160428e-01,-1.395182326051437327e-01,2.391092534471762066e-01,-5.612371492271051943e-04,1.244573223645171513e-04,-4.518712038516547349e-08,3.783298432826995850e-01
2.413005282823563746e-01,-1.404334580619369666e-01,2.389981258274352371e-01,1.109101269405080389e-04,2.953740007511134347e-03,3.767765809771321111e-05,3.806224465370178223e-01
2.425594132935174063e-01,-1.383040364335420269e-01,2.380810632136541316e-01,1.546460173540023866e-03,2.462183128302175908e-03,2.734228533847168734e-03,3.787072300910949707e-01
2.419779984089351355e-01,-1.375991728343086140e-01,2.409049677241938969e-01,1.286775107694697762e-03,2.935603306143726426e-03,2.716703951380080619e-03,3.791116476058959961e-01
2.299034374183940854e-01,-1.256717537532488493e-01,2.310293946209224236e-01,-4.123952610740857366e-03,1.761858987737399077e-03,3.879010843315495137e-03,3.562875390052795410e-01
2.205774468062171589e-01,-1.326807131943092410e-01,2.200060036911908323e-01,-3.372643995562977799e-03,4.476637503408342246e-04,2.008203650609718081e-03,3.530391156673431396e-01
2.271086406221307641e-01,-1.301211491523367458e-01,2.208172813192405270e-01,-4.150655166468928542e-03,2.441672069284314163e-04,2.274827010685378896e-03,3.542211651802062988e-01
2.349053837465917560e-01,-1.381392762873281943e-01,2.287829480616080935e-01,-4.025252216475247447e-03,3.678133703086663097e-04,2.931060922994961366e-03,3.701224625110626221e-01
2.287357121405508287e-01,-1.369040874872530233e-01,2.283289458213698109e-01,-1.804439922162790703e-03,1.322552424467857406e-03,3.999439482810365071e-03,3.655227720737457275e-01
2.199395205089744731e-01,-1.324163857602074501e-01,2.217533455394104513e-01,-2.159599230111569450e-03,7.145813532954547890e-04,3.258726769784466189e-03,3.533333539962768555e-01
1.841334313478645290e-01,-1.485948584800921290e-01,2.340888459235893615e-01,2.389358811665930060e-02,1.431790104707837165e-02,-8.452247046128196287e-03,3.638231456279754639e-01
2.767549984588847378e-01,-5.263408422866452940e-02,2.732908876920039365e-01,1.032338239561187213e-02,1.524659512213541283e-02,6.507891367840221847e-03,3.294120132923126221e-01
2.275731114777184982e-01,-1.320406520986878995e-01,2.372327175925881548e-01,3.843664473272229674e-03,6.951314968573829101e-04,-7.912665518857425057e-03,3.648598194122314453e-01
2.456376529006674136e-01,-1.271638823959573839e-01,2.405887409415429778e-01,1.854999581226450187e-03,-6.182696399305385310e-03,-2.672153896742885271e-03,3.705005347728729248e-01
1.945558021548248195e-01,-1.430083576131990775e-01,2.353783884155668527e-01,1.099939095338830011e-02,1.089685694642401176e-04,-5.631068149618080436e-03,3.603531718254089355e-01
2.280976798183959875e-01,-1.336087583375594745e-01,2.420600361773260767e-01,-2.044118373572664273e-03,-6.146545134978717876e-04,-2.282977966504267514e-03,3.689255714416503906e-01
2.301381334400372514e-01,-1.371370429142861336e-01,2.411985168961955917e-01,2.802837994394400886e-03,2.357180342696865575e-04,-3.456628338514714308e-03,3.730082809925079346e-01
2.377245836814719238e-01,-1.351714161669055059e-01,2.505349496240446561e-01,8.264063490680736155e-04,-5.315194363149393017e-04,-1.264964154929786814e-03,3.794735372066497803e-01
2.293413165745562254e-01,-1.359648930178401494e-01,2.354926577388390119e-01,3.723065038473006259e-03,-8.268689309835694501e-04,-2.332366797152344347e-03,3.685017526149749756e-01
2.286548689143602098e-01,-1.397389917918893665e-01,2.345121096015916895e-01,3.798701254742077506e-03,-3.340497767161243735e-05,-4.396006605369451661e-03,3.714934587478637695e-01
2.975205526169215631e-01,-1.183067779418364995e-01,2.450796501064563815e-01,1.833728131690066801e-03,-7.713650879301367676e-03,-1.206508786294421993e-02,3.930411338806152344e-01
2.506747283840751184e-01,-2.451247485023885786e-02,2.583431138985009534e-01,3.006233551143043612e-03,2.107591815663405980e-03,-2.330979763064125465e-02,2.820771634578704834e-01
1.938389948356469272e-01,-1.234292903130250890e-01,2.547967898841816958e-01,6.370171423330639850e-04,3.610413461847421668e-03,8.986604942823786090e-04,3.517921864986419678e-01
2.405351473576576582e-01,-8.255155184381846034e-02,2.526154953768889877e-01,3.040272925293119148e-03,2.242018374223155638e-03,-8.358720763795833911e-03,3.296761512756347656e-01
2.881912831649459106e-01,-5.007739472141992110e-02,2.670072496869496659e-01,-1.140359252032248361e-02,-1.576094954021465405e-02,-1.319046190737823733e-02,3.307051360607147217e-01
2.454392130528319782e-01,-1.066843579594141389e-01,2.541422999654411319e-01,8.789940483169464067e-03,2.625488122381681652e-03,5.918595299634086198e-05,3.569086492061614990e-01
2.390964915426191939e-01,-1.284273267588530443e-01,1.690819702160266114e-01,-7.798908818960345948e-03,8.960785684820098823e-03,1.406816732007852393e-02,3.395009338855743408e-01
2.538979253065585806e-01,-1.629497672550286325e-01,1.882557795104381482e-01,2.668999511358352062e-04,2.469951317076790956e-02,7.131835201761132538e-03,3.907571136951446533e-01
2.277308935932269573e-01,-1.273090575223425613e-01,2.000301923293232864e-01,-9.771459043949607542e-03,3.204850906170290253e-02,6.690267511750205322e-03,3.471136391162872314e-01
2.364706750950859304e-01,-1.352065452238117305e-01,1.982603586849771560e-01,-6.212228785754314239e-03,2.544046378741974309e-03,7.514723560253427047e-03,3.545513749122619629e-01
2.364701257410608548e-01,-1.354533828166225584e-01,2.378774367443257098e-01,7.854284974960900213e-04,-8.450983911350113884e-04,-2.340119828719778011e-03,3.726565539836883545e-01
2.393920229906271457e-01,-1.277964917211448226e-01,2.561510576136296624e-01,3.748870734852624348e-04,2.638982928310159865e-03,-2.042220885309027883e-03,3.758933544158935547e-01
2.543893719280425070e-01,-1.356482178264447058e-01,2.375957838928305643e-01,6.201448857347058394e-04,-2.702408174983366666e-03,-1.124668768067786997e-03,3.819529712200164795e-01
2.366375963395405124e-01,-1.360452386428000482e-01,2.522223784242784150e-01,5.669404455778286923e-04,1.955377335222727945e-03,-8.076053982785314422e-04,3.807334303855895996e-01
2.378246965259308565e-01,-1.327440003555733772e-01,2.544311606133520254e-01,9.148730321594593070e-04,2.321463789290986041e-03,4.893527356397652222e-04,3.791703581809997559e-01
2.384880407797953794e-01,-1.399821766867158368e-01,2.397715597939014953e-01,1.285170686185629560e-03,-1.063253693306934981e-03,-2.420446848389064384e-04,3.791248500347137451e-01
2.413878169436194654e-01,-1.393142701140340223e-01,2.415286880498965782e-01,4.647975455058274961e-04,-1.347050888004411133e-03,-5.069542602166691742e-04,3.807815611362457275e-01
2.370032145740069707e-01,-1.318655304846751974e-01,2.565187286926531862e-01,1.107555354028630281e-04,1.934577475800253784e-04,6.569566014732141062e-04,3.790054321289062500e-01
2.172186447320315072e-01,-1.145547776011651420e-01,2.136559583321089584e-01,-1.651421511984709324e-03,-5.847937398115276089e-03,-2.641648420507593936e-03,3.302060067653656006e-01
2.157567161342068274e-01,-1.215054480317998287e-01,2.123856582475603383e-01,-3.180857264123099302e-03,-6.372927775748916078e-03,-2.315465611868417969e-03,3.358399569988250732e-01
2.050885681655760240e-01,-1.210745806354922988e-01,2.098712912669885022e-01,-5.326444939117248650e-04,-5.217307796573785253e-03,-2.433967695371839525e-03,3.287331759929656982e-01
2.141834494759175533e-01,-1.208931173723487712e-01,2.146937787110798079e-01,-1.398800757794727966e-03,-1.492506271198557966e-04,-1.393188240794752258e-03,3.353495597839355469e-01
2.455239866296283213e-01,-1.360118675252608433e-01,2.394257228821612127e-01,-4.159600883378141638e-04,-4.324902663123777503e-03,1.617092524151746190e-03,3.786087334156036377e-01
2.414187362782728163e-01,-1.389658148741635957e-01,2.379089202735855668e-01,-2.060238580680874738e-03,-2.982981385592554414e-03,2.855739138904096058e-03,3.787262141704559326e-01
2.374730645798639184e-01,-1.376433442877563473e-01,2.438119464184918816e-01,3.303799765482379799e-03,-5.767938176639062983e-03,-5.673792449516009036e-04,3.785021007061004639e-01
2.467410405180600064e-01,-1.381999957975761362e-01,2.379663456632317153e-01,2.143310645189361514e-04,-1.812562165358894313e-03,1.425408724899921743e-03,3.806506991386413574e-01
2.369751951168128090e-01,-1.301510059031462108e-01,2.521157371680328163e-01,-4.997631024752169707e-04,2.492041840902856423e-03,2.082814400101132887e-03,3.749690353870391846e-01
2.405777265031105727e-01,-1.392765784639864446e-01,2.377815265022788782e-01,-1.619283974926074990e-03,-1.200071823496447719e-03,2.903115095977416935e-03,3.785134553909301758e-01
2.422850584875115010e-01,-1.387232578369026748e-01,2.378118440520132770e-01,-1.822852096150052569e-03,-2.329740680360622128e-04,3.020652681291998917e-03,3.788410127162933350e-01
2.369297197062241178e-01,-1.395950211746795899e-01,2.373869517938514417e-01,6.754955200583755105e-04,3.502149896176842995e-05,-8.680750466665779902e-04,3.767583966255187988e-01
2.381332454386706488e-01,-1.385086625727207088e-01,2.446263611682183425e-01,1.392989394150431336e-03,-1.061651320949553653e-03,-3.796635406814698925e-04,3.799427747726440430e-01
2.383607302634741520e-01,-1.411403512976091013e-01,2.401635890561555353e-01,8.882282114948666712e-04,-1.167107542450013203e-03,-2.412794773503958428e-04,3.804144263267517090e-01
2.392566515180556130e-01,-1.410242294033610955e-01,2.403444317829007693e-01,8.054047734433792370e-04,-7.139591327321496116e-04,-5.279772110663477798e-04,3.808315992355346680e-01
2.379121592003355934e-01,-1.409419569674006389e-01,2.388584318494369474e-01,5.402183761255353097e-04,2.367279293115915457e-04,8.268182189888505975e-08,3.793295025825500488e-01
2.356079910178451309e-01,-1.398413894806554147e-01,2.372569297816457812e-01,8.590451691737859951e-04,3.573401681138620146e-04,-1.145185021609412997e-03,3.762852251529693604e-01
2.374930943995682830e-01,-1.412940214185253174e-01,2.376120008206042966e-01,1.590393144218678074e-03,2.366311750917132550e-05,-5.289249409900353017e-04,3.788577020168304443e-01
2.228147692553661685e-01,-1.305088365804579209e-01,2.502923088353354864e-01,6.201346263377791740e-03,-6.155931700433760374e-03,1.772854919872264437e-03,3.681569397449493408e-01
2.352376869906646906e-01,-1.377859827802311310e-01,2.367894180366915680e-01,4.477920608570914833e-03,-9.833839256188749503e-04,-5.611948796161528319e-05,3.738862872123718262e-01
2.561823580023416258e-01,-5.996887004563228318e-02,2.468641938115180290e-01,-4.406726658256528845e-03,-9.282219422418712396e-03,7.848204932640495332e-03,3.124003708362579346e-01
2.364408615537197389e-01,-1.405688729383232083e-01,2.343833027565650484e-01,1.140758423795297863e-03,2.479466587059067422e-04,-6.932051437644251839e-04,3.759925365447998047e-01
2.488145436114721221e-01,-1.357586152498773402e-01,2.399443142157060005e-01,5.303690767035210748e-04,-2.721489987594507155e-03,3.252289861759992146e-03,3.802877068519592285e-01
2.450340433801998230e-01,-1.263682829932848417e-01,1.400881587199811207e-01,-2.353020219787050043e-03,-1.305402836999239010e-03,1.744276545830841565e-05,3.316593170166015625e-01
2.486846094955282305e-01,-1.349396235457651638e-01,2.387683931369279644e-01,8.113086917355860801e-04,-3.212789201235963406e-03,1.581444123628962311e-03,3.788168728351593018e-01
2.454987544502593155e-01,-1.374043441845747560e-01,2.383218702611016038e-01,-2.618719328598406552e-03,-1.436979040358413618e-04,2.255346122534798367e-03,3.794128894805908203e-01
2.501925685566571134e-01,-1.367798461744518523e-01,2.363962134495511402e-01,2.105687978271029472e-04,-1.631030395420962793e-03,2.466203958218532877e-04,3.802728950977325439e-01
2.404779057047455870e-01,-2.316891932764866824e-02,2.475834465078526336e-01,-3.810538559842888877e-04,-3.188923083961152892e-03,6.768954052418192820e-03,2.675853073596954346e-01
2.293038751351828552e-01,-1.297057287193967845e-01,2.317089312137907420e-01,-1.194031930067406032e-03,-1.806965364791671266e-03,-4.405200050869274245e-04,3.602384924888610840e-01
2.371033376124796199e-01,-1.389789871889070549e-01,2.409202578045546717e-01,-2.253583424112222747e-03,-1.245246429477118782e-03,9.966739337432281402e-04,3.780354857444763184e-01
2.384814742622548001e-01,-1.366306175881040197e-01,2.462090228050641261e-01,-2.740876599401520768e-03,-2.956200915410482199e-03,1.152585836147841311e-03,3.791045248508453369e-01
2.363154059557520670e-01,-1.348885447760519996e-01,2.548305998264424610e-01,5.629013301844142711e-05,-6.136090316401349425e-04,-4.522119076849293864e-04,3.808015882968902588e-01
2.152157196530027905e-01,-1.236748128238346206e-01,2.203085816045629031e-01,-1.285867384412349825e-03,-2.769191634752318255e-03,-6.060477679002802646e-03,3.416676819324493408e-01
2.380380063574663030e-01,-1.368116033713291657e-01,2.456967727381267064e-01,-2.636121230500254684e-03,-3.690894139664961573e-03,1.950332613315567103e-03,3.788335919380187988e-01
2.043178510736045062e-01,-1.150477776774118388e-01,2.175252047079885565e-01,5.165434927864355225e-04,-5.011436184293879825e-03,-1.153977142894997525e-03,3.262927532196044922e-01
2.457929956414105221e-01,-1.379937245795411771e-01,2.388339845739014256e-01,-1.817123762675061232e-05,1.257369427373341295e-03,-1.183900180737886779e-03,3.803667128086090088e-01
1.925510493924129651e-01,-1.167951686731902999e-01,2.773538998663987454e-01,5.522487282629493996e-03,-9.520430540902638517e-03,-7.599696115375580152e-03,3.600787818431854248e-01
2.169449042882108936e-01,-1.233414462778568144e-01,2.226102080704129293e-01,-6.926565760562580776e-04,-2.673335533069780365e-03,-3.741807532729698235e-04,3.431880176067352295e-01
2.381047154389594467e-01,-1.379851270328685264e-01,2.429294356644327579e-01,-2.727590023871166985e-03,-1.460071456797085306e-04,1.088606508290316729e-03,3.785595297813415527e-01
2.277836455114184977e-01,-1.305002148554401387e-01,2.385009709004080325e-01,-4.711057788259529313e-04,1.095999874836262467e-04,-6.130333818932654291e-03,3.639168441295623779e-01
1.878495252689874051e-01,-1.144530599597353843e-01,2.297953983540778622e-01,4.768441736549130171e-04,-5.608638560184182019e-03,4.479076191833679388e-03,3.255486190319061279e-01
2.092400442325300647e-01,-1.201667006806558524e-01,2.138892698732675068e-01,2.321396860886089288e-03,4.018372891764541641e-03,-3.579602661623012324e-03,3.319110572338104248e-01
2.127252683305728698e-01,-1.215869287594998627e-01,2.160043594623863861e-01,3.308021721698824798e-03,6.724307188715291338e-03,-4.124721114285219772e-03,3.362902700901031494e-01
2.170219837669719598e-01,-1.215813223264373133e-01,2.277812438365107717e-01,-1.429904242953950431e-03,-1.663232018140194807e-03,-3.754294221455391819e-03,3.441915214061737061e-01
2.137638104362454827e-01,-1.139706241123885772e-01,2.122082616343330397e-01,1.382280695346750719e-03,7.925950407313354235e-03,-1.626905996000197136e-03,3.272683918476104736e-01
2.043452451490128663e-01,-1.206767944991001679e-01,2.109741935048541350e-01,6.156974652347651112e-04,6.476421165506782325e-03,-2.489713387063696368e-03,3.286082744598388672e-01
2.401687051130275696e-01,-1.359673558003431926e-01,2.453682095788199680e-01,2.350496486387112702e-04,-4.371493168531873953e-03,5.211571453219837873e-04,3.788395524024963379e-01
2.403331220766086185e-01,-1.341684198395816652e-01,2.506998704640401865e-01,5.465546253112443928e-04,-3.759575843637686429e-03,4.789802847411221177e-04,3.798489570617675781e-01
2.392191504057952778e-01,-1.367340543781426776e-01,2.477137430488040026e-01,1.019711846636317878e-03,-2.572496083712342684e-03,-4.568619785448164137e-05,3.803018927574157715e-01
2.285834328466215815e-01,-1.288069409738228921e-01,2.345636362525863050e-01,-1.480982748518780857e-03,-7.206806075536415293e-04,-3.761004842879417821e-03,3.604878485202789307e-01
2.262126351289095727e-01,-1.332787080458804341e-01,2.268080682857512853e-01,-1.681882305174023850e-03,-2.126242653621316335e-03,-6.689133810379815220e-03,3.600065410137176514e-01
2.352730084306898783e-01,-1.376137421724276111e-01,2.529121206627930052e-01,-7.136755769688606955e-04,4.649420328410754891e-04,1.025572587969373261e-03,3.820188343524932861e-01
2.043579617727655506e-01,-1.253980629373995792e-01,2.311848858495459957e-01,-1.378595282238498886e-03,-3.474815309506414009e-03,-7.671476401740967739e-03,3.442724645137786865e-01
2.380600411709549169e-01,-1.384707315109466319e-01,2.423666819827217100e-01,2.951141636104102559e-03,-3.687033159511991331e-04,-1.489293056181786260e-03,3.787462711334228516e-01
2.544823010732712998e-01,-1.319171422436728469e-01,2.345046626919441990e-01,7.217834892513422772e-04,4.485529098169194597e-04,-7.471785935944175779e-04,3.768131136894226074e-01
2.538875138987241598e-01,-1.342444157009090588e-01,2.360362492569288984e-01,4.140792831304675073e-04,4.805542760198874548e-04,-7.127379592648255217e-05,3.795229196548461914e-01
2.566582351074570001e-01,-1.305969363481430112e-01,2.372211601128642877e-01,8.676035211502019801e-04,2.457842188203731258e-03,2.035243895940411489e-04,3.779388368129730225e-01
2.508096564725327826e-01,-1.321448665101281339e-01,2.379836142723963377e-01,-1.026386340668407338e-03,4.506675434328563049e-04,-4.675695008301246954e-04,3.767111599445343018e-01
2.067833584738614783e-01,-1.159797375290324839e-01,2.127509017744914355e-01,-2.734595794947216707e-04,-4.410830928972632459e-03,5.716740650354029413e-04,3.258792757987976074e-01
2.077589366393080006e-01,-1.238152256510170329e-01,2.103903859279387389e-01,1.549114907184121316e-03,-4.677665725496290769e-03,2.728646998057827292e-03,3.330405950546264648e-01
1.920744156901306732e-01,-1.288143700772994005e-01,2.144616784367306683e-01,2.059198669533323679e-03,-7.675563693656083791e-03,4.754585624061087937e-03,3.330343961715698242e-01
1.695317764909061720e-01,-1.378008189885836510e-01,2.097143005043135555e-01,-1.108565781757436287e-02,8.086504807026793917e-02,1.069073695216749345e-02,3.588124513626098633e-01
1.978496889644029699e-01,-1.240114131037615419e-01,1.989177164210436666e-01,-1.009998518430029173e-03,1.612419824582861719e-02,3.669846523705736809e-04,3.236091732978820801e-01
2.319176034056866786e-01,-1.330995005196440317e-01,2.281335712252528514e-01,-9.186324892794046210e-03,2.618851333394791106e-03,8.040702248531969576e-03,3.637832701206207275e-01
1.819367971684935081e-01,-1.294262442410260561e-01,2.252315449452141349e-01,-6.116518082189726854e-03,7.204617342153463166e-02,3.924519791707044986e-03,3.578158020973205566e-01
3.393316721890208831e-01,-1.289006182488215968e-01,1.072075488376570268e-01,-2.957346223350476155e-04,1.148086610802995271e-04,1.559039288131446217e-02,4.064044356346130371e-01
1.660207080950021896e-01,-1.217481901370545544e-01,2.296818423979699597e-01,2.812789457281732229e-04,1.270257361969202858e-02,-3.478150313800292773e-03,3.251214623451232910e-01
1.884498826411615813e-01,-1.220963207747454010e-01,2.141743965977694897e-01,1.021709971876487856e-04,7.034945748420735889e-03,8.699705905105614223e-04,3.244073390960693359e-01
1.887564319135845992e-01,-1.131886556398122579e-01,2.286089276495446854e-01,4.173769950237613663e-04,-7.229085333672541532e-03,-3.052089693284064723e-03,3.240024149417877197e-01
2.391181340458847226e-01,-1.402904214165903440e-01,2.403938559078468706e-01,-4.927683439325946258e-04,5.444467426522832821e-04,-5.835738780628835698e-04,3.800514936447143555e-01
1.671173365853218518e-01,-1.228682015294271096e-01,2.306537820198216737e-01,-2.475737688897030556e-04,1.029858626901629035e-02,6.237408197070673206e-04,3.269138634204864502e-01
2.411729375784085749e-01,-1.310222039884845202e-01,2.423058127820373331e-01,5.402216539294745629e-03,3.986492706615994350e-03,5.046195431698508385e-03,3.730466067790985107e-01
2.392573985317392182e-01,-1.371286675889377138e-01,2.390112522429269082e-01,2.470830364662675305e-03,2.890568141483494235e-03,2.753517298166185782e-03,3.763509094715118408e-01
2.325096126635591842e-01,-1.371425425241228346e-01,2.278805690690751673e-01,6.114208471387667931e-03,-1.712918449988294362e-03,1.923546768506058206e-03,3.675391972064971924e-01
2.426486391834315748e-01,-1.360084981564298745e-01,2.446129428706923237e-01,1.419225569221081815e-03,5.730366411166408838e-03,8.711356627459312550e-04,3.797837793827056885e-01
2.384836860973671979e-01,-1.359579849312839706e-01,2.356073439993490171e-01,4.223988635361941579e-03,4.623784687074766362e-04,5.369303078642023198e-03,3.732002973556518555e-01
2.406602895524392882e-01,-1.388129459630831342e-01,2.423584898802842447e-01,5.184542466787683476e-04,4.638546582243433490e-03,-1.683157188461077377e-04,3.804112076759338379e-01
2.365565500208949845e-01,-1.418801464952862690e-01,2.406990764948043482e-01,-1.989300645735411592e-03,7.858180605690054084e-04,-4.718223935957584670e-04,3.805437684059143066e-01
2.325189171058517079e-01,-1.385155430013751965e-01,2.371371477768779990e-01,-4.570568031778916851e-03,5.301969273975577594e-04,-2.301962088531536873e-04,3.734502494335174561e-01
2.349156966514568678e-01,-1.359826872006785758e-01,2.564499828349816046e-01,5.992534817768986524e-04,-1.295178221103330000e-03,1.055901851477152173e-04,3.821289241313934326e-01
2.534923292953152330e-01,-1.035912157784507348e-01,2.373767333274418578e-01,-1.425653591244798162e-03,-5.032307022577778809e-03,2.863513490668189170e-04,3.494224846363067627e-01
2.554366122073793433e-01,-1.319953930907496464e-01,2.413303519440564426e-01,-5.863172203599030042e-04,-1.204289947630174731e-03,4.251776590649445449e-04,3.805827796459197998e-01
2.554793470834861302e-01,-1.276974567963950202e-01,2.373485217859119534e-01,1.577903564380827520e-03,-6.072275460425202330e-04,1.811533988513905867e-04,3.744523227214813232e-01
2.476411125575935235e-01,-1.353468596318558315e-01,2.388038910325528952e-01,-1.552001837790798660e-03,-9.271105767730975769e-04,1.465317914196998320e-03,3.786681592464447021e-01
2.543901030696537058e-01,-1.332453777075051637e-01,2.380214903843046736e-01,-3.256420878185036730e-04,-2.092310922626123507e-03,6.176644731030103003e-04,3.797350823879241943e-01
2.390075643328658794e-01,-1.328961754525199990e-01,2.559001831486927836e-01,-7.813815795955217965e-04,8.775900071609752957e-04,-8.332783716112984957e-04,3.806394636631011963e-01
2.394879184545642414e-01,-1.389850633890634124e-01,2.460215664201717556e-01,-1.498103098610484990e-03,1.430416751047171395e-03,-3.074272513012845601e-04,3.817989528179168701e-01
2.551373990387406088e-01,-1.277953095684583040e-01,2.369074730245363525e-01,2.033245411690749564e-03,-1.527831916222635849e-03,1.394711269396033397e-04,3.741769790649414062e-01
2.123763987106360163e-01,-1.136851026746065613e-01,2.141062249300724751e-01,7.432286907010659692e-04,-7.516161488645577496e-03,5.902607644102256593e-04,3.271930813789367676e-01
2.156819287721325473e-01,-1.212425307732628715e-01,2.104586123346024185e-01,3.164325964237065577e-03,-3.585821021760452702e-03,1.914293531243661979e-03,3.344624340534210205e-01
2.443082409563108459e-01,-1.256716890476499426e-01,2.409294438684084216e-01,-2.023927437078250346e-03,9.556335164658142159e-03,-1.745050754915934612e-03,3.687029480934143066e-01
2.107636942492567833e-01,-1.177886483962611586e-01,2.109426613638877290e-01,2.827202262902071979e-04,-7.972287194560412696e-03,-1.288355528611936050e-03,3.289397656917572021e-01
2.130143657761223996e-01,-1.206014714759265638e-01,2.148158717366162596e-01,1.433597593705210858e-03,-6.356588809726680710e-04,2.444808347610349063e-03,3.345580697059631348e-01
2.383582965917241392e-01,-1.359058789734141903e-01,2.387854934680692931e-01,-4.134179468916481144e-03,6.134428209014673120e-04,-1.926108871460876712e-04,3.745480775833129883e-01
2.279533600589327136e-01,-9.252182647283702099e-02,2.532509128872475479e-01,2.576027027229416035e-03,5.433520461468173413e-03,-2.732756963065523085e-04,3.340063691139221191e-01
2.099362216398580061e-01,-1.209985425057594349e-01,2.043043112289100738e-01,1.435509927366243653e-03,-6.558741448386296718e-03,4.244958155541183188e-04,3.283618688583374023e-01
2.389760880313206159e-01,-1.408682359141177620e-01,2.402393116941576590e-01,-7.529712554403477590e-04,1.352850810247574389e-03,-7.728086761525542934e-05,3.804869949817657471e-01
2.390918440422180602e-01,-1.377312124921794834e-01,2.466112774830575838e-01,-1.249769644959878006e-03,5.128895057211855547e-03,-1.752057018868466475e-03,3.807603716850280762e-01
2.396796973686648458e-01,-1.353711853359432782e-01,2.509067032595149738e-01,-2.924905769536150727e-03,4.306571286985310873e-03,6.357282926629835920e-04,3.808968663215637207e-01
2.399169652588266088e-01,-1.398512362242610996e-01,2.414990500685316732e-01,-3.901246218062863588e-04,3.562616751590576888e-03,-4.540303862455568207e-04,3.806131482124328613e-01
2.370438322556046862e-01,-1.369623387353683108e-01,2.496006735905127172e-01,1.060619484314461207e-03,1.204910696152306383e-03,-2.959055117416049431e-05,3.804502189159393311e-01
2.395013318096054222e-01,-1.375807202676649910e-01,2.401888665722631266e-01,-2.084127064721660177e-03,1.774019847507266349e-03,-1.831352363310363414e-03,3.774693906307220459e-01
2.381496842295415250e-01,-1.389474972119692509e-01,2.413733383132804500e-01,-2.746423518451011729e-03,2.583881224126357125e-04,-1.295993639185779017e-03,3.787560760974884033e-01
1.382962833310386053e-01,-1.440252125924625648e-01,2.638776890573949485e-01,-4.146645918443537387e-02,-4.662225525340524951e-02,-7.993294090008581931e-03,3.778907656669616699e-01
2.437934854337955870e-01,-1.338892185495142995e-01,2.146818840944424434e-01,5.384709237487832027e-03,-6.940030496591385011e-03,1.004096984543391760e-02,3.647337555885314941e-01
2.382806080696244500e-01,-1.381166091110413163e-01,1.944579740308642335e-01,5.920505318098425590e-03,-2.514305951301649533e-03,1.153008995187974721e-02,3.572443425655364990e-01
2.367794058977596983e-01,-1.413370045604680492e-01,2.383164920616803184e-01,-9.380032780979591280e-04,2.643356878593968655e-04,-3.439878254351322719e-04,3.788915276527404785e-01
2.376514721728044399e-01,-1.371093968681006414e-01,2.398325123565301364e-01,3.064880765708163403e-03,7.524466095020678879e-04,-4.317010672894762836e-04,3.758966326713562012e-01
2.391922517737605502e-01,-1.366197678129726922e-01,2.432345798966716877e-01,2.611274509351824841e-03,2.614330707844874074e-03,-1.361201565334327779e-03,3.779109418392181396e-01
7.498912701025835237e-02,-1.899862946963247756e-01,2.911132083574001217e-01,3.020393137888793822e-03,-3.630556659304828154e-02,-1.779138564567573667e-03,4.221141040325164795e-01
2.411432857904062255e-01,-1.394769924518107218e-01,2.393498323561078500e-01,5.403576389439444013e-04,-6.449700108172165070e-04,-8.973861022079761491e-04,3.797326982021331787e-01
2.345612809378556651e-01,-1.397849710843849791e-01,2.303689051309174562e-01,-1.147763192048823020e-03,-8.310919055635833776e-04,-2.948122894507354541e-03,3.723108768463134766e-01
2.390425318059338222e-01,-1.396228492342893035e-01,2.390911938733851771e-01,-7.123674037653339345e-09,2.611136228827377035e-05,-4.218148665963487821e-04,3.786904215812683105e-01
2.356372024629719841e-01,-1.331092041368344692e-01,2.306807707462191215e-01,4.443052271599889566e-03,4.600630280548651560e-04,-1.764497948516605390e-03,3.663877844810485840e-01
2.432414627588025402e-01,-1.379157978017715447e-01,2.393976145516619192e-01,-9.305308581215573699e-04,-3.404384738931979289e-03,-9.547698902519364660e-04,3.793027997016906738e-01
2.412151115883057750e-01,-1.380851201791255534e-01,2.388741553466581791e-01,1.878850256891651015e-03,-1.460131384784407607e-03,-2.963413150083880898e-03,3.781924843788146973e-01
2.404609399239783230e-01,-1.411119959944496238e-01,2.375215979294971191e-01,4.628186046480827821e-04,-8.034955728019289260e-04,-1.714694834351205427e-03,3.801267743110656738e-01
2.392474329815355849e-01,-1.400297678927064082e-01,2.387033756053162092e-01,7.431896935808624503e-04,-6.072491045663003066e-04,-4.133210248638690158e-04,3.790097832679748535e-01
1.336997682203305005e-01,-1.217395185140143221e-01,2.483417560771718491e-01,-1.335768229445182236e-03,-4.495838014445201376e-03,-7.359325370984605560e-04,3.282433450222015381e-01
1.215255581709426824e-01,-1.099912228751936949e-01,3.387163691734681459e-01,-3.946467561887699940e-03,-5.450072114565330389e-02,-9.154448466055068595e-03,4.003302454948425293e-01
2.391445734980843230e-01,-1.366136592086655277e-01,2.381030331198165095e-01,2.464304512571710722e-04,-1.735184280457589302e-03,-4.040836464513914220e-03,3.753160834312438965e-01
2.281649864216732659e-01,-1.313112640675017928e-01,2.253820472527391094e-01,3.616999387544235934e-03,3.499763859149728276e-04,-7.085890341873807112e-04,3.581503033638000488e-01
2.814273316359044430e-01,-2.267369041297978838e-01,1.294448642693129814e-01,-6.319927635105989858e-03,1.048588495861475234e-01,1.465084231280184245e-02,4.876960217952728271e-01
2.361140784270095994e-01,-1.388334338960620085e-01,2.422574576509616828e-01,-3.878713312581338630e-03,1.005505882869550975e-03,-2.186996541272964029e-03,3.781393170356750488e-01
2.393464375345926987e-01,-1.403266733819522327e-01,2.385602460834964356e-01,2.117056015408914189e-04,-1.091534420565042768e-03,-6.340415463478909835e-04,3.792870938777923584e-01
2.385630065746980888e-01,-1.365909519065476307e-01,2.402347302588444533e-01,3.026708365543479516e-03,-3.392550151763755028e-03,-1.737212091484977711e-03,3.760870993137359619e-01
2.375676591390578352e-01,-1.375180259577355180e-01,2.391188818147896300e-01,2.716102779132676098e-03,2.722564756277871725e-04,-5.302901857666118303e-04,3.758945465087890625e-01
2.456321706316479392e-01,-1.319666712182412660e-01,2.510406327761926515e-01,2.469273920217673023e-03,1.498023458953818979e-03,-2.050003863460088101e-04,3.803649842739105225e-01
2.380806789913202659e-01,-1.413236380591987862e-01,2.380874999973453532e-01,8.350427709703328550e-04,-1.023504584039405113e-03,-9.818105148534355536e-04,3.794184327125549316e-01
2.271422874465853781e-01,-1.319023944929077763e-01,2.246793180309473170e-01,4.019664849559934604e-03,-1.473428224157868796e-04,-5.092596359706819033e-04,3.578884601593017578e-01
2.435572994415990400e-01,-1.347504473266497027e-01,2.378576078849868047e-01,-1.643254649181335829e-04,-2.691279424817575195e-03,-7.531493237601993634e-04,3.755216598510742188e-01
2.376922026024268497e-01,-1.387998614327962121e-01,2.373381772807101608e-01,1.527953735755230259e-03,3.398748217692959409e-04,-3.081221816525709332e-03,3.763627707958221436e-01
2.348378718794656150e-01,-1.373627000502991857e-01,2.340130744941310015e-01,7.070979513984290699e-04,2.788618519501857851e-04,-2.185185351104856205e-03,3.718104660511016846e-01
2.438697026863978490e-01,-1.258030806868054019e-01,1.880952934352764228e-01,-4.140607814126728847e-03,-6.130304839854591736e-03,-7.658167861888686735e-04,3.454220592975616455e-01
2.304902187308676964e-01,-1.352937220909066762e-01,2.301818568659235731e-01,2.360548648455227955e-03,1.971845903932418782e-04,-8.626232234435735101e-04,3.656559288501739502e-01
2.108672398649364954e-01,-1.195620170548111483e-01,2.077392859357525823e-01,7.583983870707652767e-04,-9.521734920884918681e-04,7.484704914470561134e-04,3.288857638835906982e-01
2.883190555731267590e-01,-2.485355429917335823e-01,4.931350723480688869e-02,-2.017215481920041353e-02,5.128568547829540428e-03,3.683331181084388128e-03,4.672960937023162842e-01
2.345588307239590553e-01,-1.384256749682011844e-01,2.306970258228293047e-01,7.547667857421298115e-04,-2.169656713221635239e-03,3.956015774070485074e-05,3.710900247097015381e-01
2.393577269750060132e-01,-1.405810426327260831e-01,2.437867686365540187e-01,-1.502792361181998779e-03,3.645612442125569994e-03,-1.587885073091333150e-03,3.822434544563293457e-01
2.048772401601592352e-01,-1.149092414044365629e-01,2.180827482821884877e-01,6.718863894725677060e-04,-2.035486188997507120e-02,1.017586518367271427e-03,3.284937441349029541e-01
2.422165204435723362e-01,-1.284327029958124422e-01,2.488583206954053106e-01,2.254380388157565390e-03,-2.279381116826204555e-03,-4.205488077390314924e-03,3.741264939308166504e-01
1.199424957617752363e-01,-1.528172260876393684e-01,2.605691545707489176e-01,-1.417281190307478379e-02,-4.312609332337671852e-02,-1.520766762672505230e-03,3.724515140056610107e-01
2.407181309037638994e-01,-1.363293383080074472e-01,2.381814789496954909e-01,-9.234074608060263700e-04,6.637121075712948664e-04,-3.917810298950808422e-03,3.758519887924194336e-01
1.691553694483796944e-01,-1.141123247878044755e-01,2.407045116044272959e-01,6.228861735670249145e-04,-1.488955674469066848e-02,-1.410618368461247609e-03,3.260362744331359863e-01
1.869136074021627292e-01,-1.366706526537974919e-01,2.047993403170162985e-01,-1.109833892945875748e-02,-2.652268052051272654e-02,-9.941183567350107136e-03,3.370320200920104980e-01
2.387448743461657863e-01,-9.341297838302661805e-02,2.575535380114026274e-01,-7.094651381315557250e-04,-2.916722914422190810e-03,1.448127058123525098e-03,3.419990837574005127e-01
1.801038211717626569e-01,-1.260741769846179805e-01,2.135801658242509615e-01,4.567321341995229066e-03,-1.083874401736445621e-02,4.552378735484734901e-03,3.249500691890716553e-01
1.640231228990906565e-01,-1.219764731525283946e-01,2.312685843400702490e-01,-2.030980661632011269e-03,-1.774854671588367572e-02,-7.275990520965979098e-03,3.265978097915649414e-01
2.460252628987425472e-01,-1.256600568234256532e-01,1.863944448544782584e-01,-3.753791809365236536e-03,-1.928558958047182307e-03,-8.392694938964925149e-04,3.458286523818969727e-01
2.447968789501956399e-01,-1.346374364216703645e-01,2.407429254826329579e-01,-2.000810445534428796e-03,6.375481599218257162e-03,-4.550424156636470249e-03,3.776833117008209229e-01
2.142154143465516691e-01,-1.121030357935471761e-01,2.173287040085469246e-01,-2.096365417018616027e-03,9.603184345319386653e-03,1.779567982474102635e-03,3.283423483371734619e-01
2.217122409028013386e-01,-1.214845212252302076e-01,2.206059782758394705e-01,-6.432674457896176909e-03,6.481254683463042766e-03,6.270623834918949424e-03,3.431817293167114258e-01
2.134031154591601587e-01,-1.202963149752736133e-01,2.151098785948821757e-01,-9.586813680442311239e-04,4.933802333571945392e-04,2.356950032098144038e-03,3.345862030982971191e-01
2.104580393478714395e-01,-1.192075787801478437e-01,2.114495847357224512e-01,1.689936728123812609e-04,7.132064814413681918e-06,3.092126907930421329e-04,3.301630616188049316e-01
2.509297367884690821e-01,-1.175104807833684817e-01,1.433245252932873748e-01,1.420742172979675734e-03,-1.448700675672392633e-03,-1.983383886235759713e-04,3.281668126583099365e-01
2.051643865019524837e-01,-1.162701222298458958e-01,2.138448537960906948e-01,3.869928647356259978e-04,3.957680582433711382e-03,1.990270900078349239e-03,3.259524703025817871e-01
2.120656449947804500e-01,-1.166388036197984202e-01,2.122879802298435203e-01,-3.223969916741691814e-04,1.084850576919905562e-03,-1.829314704457117927e-04,3.288216590881347656e-01
1.901004553430147570e-01,-1.281885535092377459e-01,2.469573661070233461e-01,2.171353702215023541e-04,2.257386087626205885e-03,4.210279945382706945e-03,3.502943515777587891e-01
2.288295606230869583e-01,-1.383502500834387083e-01,2.354053529406293366e-01,-2.862610361263251760e-03,-1.290859459508421407e-05,-4.073838518778057603e-03,3.706118166446685791e-01
2.397879642168344871e-01,-1.390263540693088828e-01,2.420630441846609582e-01,1.278808100041937392e-03,-3.765875023239927469e-03,-1.107144404536762388e-03,3.800242543220520020e-01
2.406763485034691397e-01,-1.403407649552017578e-01,2.387501420152773335e-01,4.974138025851206936e-04,-1.281174183782920247e-03,-8.533061553826524559e-04,3.800680041313171387e-01
2.378557772400085035e-01,-1.347039222490790111e-01,2.389690117164020577e-01,-3.964002120155671327e-03,6.321401243194801683e-04,-2.192342312061473352e-04,3.731825351715087891e-01
2.321527293013782578e-01,-1.372523540827678412e-01,2.287540575176654767e-01,-5.245915094712931374e-03,-7.051662803442927197e-04,-3.578230013673687135e-03,3.678840100765228271e-01
2.361692064856285023e-01,-1.382822517551600683e-01,2.379974298686163559e-01,-3.344070083242948761e-03,1.680552903165812191e-03,-3.871315495036595114e-04,3.754254877567291260e-01
2.214805054062211065e-01,-1.335848559174178107e-01,2.264896256578821099e-01,-3.800734069115936989e-03,-1.853692237765627599e-03,-9.668642491697152473e-04,3.576751649379730225e-01
2.383773021042183138e-01,-1.381781089220270875e-01,2.418611472231748383e-01,-3.711958310915450081e-03,3.951928365195907862e-04,-2.356877194534229281e-03,3.783866465091705322e-01
2.406290147320582218e-01,-1.382891233250240770e-01,2.440804819728539798e-01,-1.329198736591473765e-03,5.265789348173640846e-03,-8.234083345027984812e-04,3.807744979858398438e-01
2.292017167670208633e-01,-1.289235870456235944e-01,2.444426228821512392e-01,-6.371317338462183667e-04,1.153796383421632453e-03,-4.344997733304456836e-03,3.660683333873748779e-01
2.379628432785482195e-01,-1.322499548322032537e-01,2.388894963571301377e-01,-4.474514334840383467e-03,1.560245513567683207e-03,-2.512413294668711106e-03,3.707934021949768066e-01
2.293769539949300773e-01,-1.346429579465749926e-01,2.277405908615031116e-01,-2.552883673240168624e-03,-2.375066178062061086e-03,-3.528929140314195686e-03,3.633061349391937256e-01
2.327250128490592485e-01,-1.387909865681571098e-01,2.300693382476408089e-01,-7.826195178698104257e-04,9.402785152280802644e-04,-4.479260449211064604e-04,3.702021837234497070e-01
2.462352472102547207e-01,-1.303764417146276444e-01,2.422084806704022375e-01,2.754824672022706752e-05,-3.628234517597180107e-03,-3.878047384050814939e-04,3.746678531169891357e-01
2.432107890308775056e-01,-1.250582536923439403e-01,2.495841411683279443e-01,8.503212736122108158e-04,-7.137509046387506897e-03,-1.125137248025317744e-03,3.717103898525238037e-01
2.325411798966388610e-01,-1.318839348689762603e-01,2.315873132854276428e-01,-1.892307955114055310e-03,-2.809494028757080054e-06,-2.728074346266369347e-03,3.639945387840270996e-01
1.799164434905856091e-01,-1.260970583545400203e-01,2.078575939903384850e-01,-1.189459806051438402e-03,2.593367412943787045e-02,1.447972893874945044e-03,3.240424990653991699e-01
2.365620008932871332e-01,-1.379288765616047407e-01,2.577943282749866061e-01,1.557047122900573344e-02,3.993268262115550610e-02,-1.237824932992596938e-02,3.932128846645355225e-01
2.369286957780370462e-01,-1.404549911733062317e-01,2.337844670767692534e-01,1.888163514149833163e-03,-1.922062863599314770e-04,-2.300418019157360848e-03,3.758569359779357910e-01
2.178215954351738759e-01,-1.271287562214921119e-01,2.479395216075013786e-01,-6.049519737529283903e-03,-2.571265407060660448e-03,-3.309047994663604809e-03,3.611779212951660156e-01
2.248313701840066459e-01,-1.259144267067457412e-01,2.230516023146396631e-01,5.427270468481555296e-03,1.523275073361042217e-03,-4.901336239147796245e-03,3.500984609127044678e-01
2.488366254692398194e-01,-1.327853250435435117e-01,2.399783491041507788e-01,1.466393721329440052e-03,3.480116191821158896e-03,-2.804415660993593454e-05,3.773275315761566162e-01
1.952515153099224354e-01,-1.267794972248586782e-01,2.316100032277729204e-01,9.859679695601829275e-04,3.853866627838192522e-03,-8.028068068881445002e-03,3.420165181159973145e-01
1.569985018440152591e-01,-1.204505654238273299e-01,2.430195491473750025e-01,-4.459430180104753905e-05,7.024112809640165565e-03,-4.053765459928936055e-03,3.293043971061706543e-01
2.331989762613527750e-01,-1.607555338904479714e-01,2.594793584066612535e-01,1.413066594955866839e-02,1.542607274310073100e-02,-6.579567079181704303e-03,4.094958901405334473e-01
2.004941393912599290e-01,-1.257271474016972979e-01,2.475646629671927335e-01,9.521804989790490920e-03,7.359254180867575226e-03,-1.809729260411044012e-03,3.527543842792510986e-01
2.213632524839128646e-01,-1.315003406856359858e-01,2.194035164120082260e-01,2.891004752244318889e-03,9.563051299155720742e-04,-1.623310325738728079e-03,3.519385755062103271e-01
2.436436089272466243e-01,-1.391777027099712072e-01,2.392492841056240160e-01,4.777495625542349891e-05,1.962977535374279062e-03,1.285318453488453957e-03,3.806648850440979004e-01
2.401846064008652804e-01,-1.410396802696513852e-01,2.385154979466386493e-01,1.577751967689098407e-04,1.230335086388745919e-03,7.857267137538470874e-04,3.804009854793548584e-01
2.561449232376883933e-01,-1.262953115393378734e-01,2.258470255191547538e-01,3.961598249308298492e-04,-4.761388933566816813e-04,-5.857494555503373751e-03,3.683686256408691406e-01
2.393225707338540453e-01,-1.345937860184275303e-01,2.155803931609312496e-01,-4.863313040442482880e-03,8.182256186299016526e-04,1.311371059453222596e-04,3.627293109893798828e-01
2.411023281548454467e-01,-1.400644265003010425e-01,2.396203935284894615e-01,5.390409528121197467e-04,2.464969762737290442e-03,6.070027127620361736e-04,3.804545104503631592e-01
2.195302128633191963e-01,-1.387067105673739364e-01,2.404264463080788006e-01,6.788267556204121561e-03,-6.493525005531065181e-04,5.753995194729537646e-03,3.694522678852081299e-01
1.937647179634486572e-01,-1.395236264154157135e-01,2.398629589171711318e-01,1.237483845198759924e-02,-3.861604409119773033e-03,3.454413532520193668e-03,3.593189716339111328e-01
1.770923522492103830e-01,-1.453767372846812567e-01,2.478347723065656427e-01,2.500952800798094192e-02,-6.314117237890541634e-03,6.300368191584043535e-03,3.659483194351196289e-01
2.402698335378903871e-01,-1.331374226162957974e-01,2.475475442631357437e-01,5.657913982476007542e-04,4.826630906579866022e-03,8.408559728719986175e-04,3.771955370903015137e-01
2.539393346396036089e-01,-4.689952842911335185e-02,2.438995882966553119e-01,1.439308796370373893e-02,-6.229685228712258764e-03,-8.921896205993942730e-03,2.975923120975494385e-01
3.636712327635833186e-01,-7.087173282117836814e-02,1.994434596078956123e-01,-6.941255721468609155e-03,4.565066285986333489e-02,-1.035227770992884488e-02,3.887831270694732666e-01
3.204065926559662714e-01,-3.109814228620780274e-02,2.684443118405099860e-01,-6.775804679514117572e-03,6.940410961312333538e-02,-1.686449917992051406e-02,3.513295054435729980e-01
2.398582379931954445e-01,-1.277028091395833176e-01,1.951064611181018149e-01,4.994781008584196075e-03,-3.783618750666111179e-03,4.546357997139095688e-04,3.475244641304016113e-01
1.885448707572148219e-01,-1.182714093757046003e-01,2.279308956291309363e-01,5.092208712655598140e-04,5.355081262234908518e-03,3.287481742798904500e-03,3.284676373004913330e-01
2.718429162572367219e-01,-2.116117122792123550e-01,1.114605211307725108e-01,-5.677842016484579979e-03,-1.307687010500937219e-01,-3.851402794921221506e-02,4.876077771186828613e-01
2.391198046079686945e-01,-1.241145901131985585e-01,2.840319745993148404e-01,7.683942343391651948e-03,-1.116999115557570921e-02,5.454533359946634255e-03,3.884722292423248291e-01
2.430702014150054047e-01,-1.363112534220947691e-01,2.449998697119880053e-01,-3.787960368129342052e-03,7.075117273764535905e-03,-3.647964868501480436e-03,3.806563317775726318e-01
2.418300116215383877e-01,1.271617274102371242e-02,2.413256071079886433e-01,-2.862597837704331828e-04,1.616302032001988966e-03,-5.408039991790201950e-04,2.288816273212432861e-01
2.262987074595710912e-01,-1.383529753561142384e-01,1.164123978908072066e-01,-9.461811628837371591e-03,4.527289495524828428e-02,1.558442892759663405e-02,3.348458409309387207e-01
1.093110279257888534e-01,-1.208399494708858463e-01,2.874039246284125770e-01,-2.866230909415446934e-02,-2.673486939227111281e-02,4.391566140683984820e-03,3.610284030437469482e-01
2.589843570220924929e-01,-1.379416792631798505e-01,1.492112584798487851e-01,-3.729485526411814686e-04,2.901386570525783110e-02,2.485616098411020172e-02,3.611203730106353760e-01
2.547793884876347059e-01,-1.344100695399277345e-01,1.376583486662404654e-01,-2.561163904456926436e-03,-6.966207211701460483e-03,-1.304611260090638748e-02,3.468131422996520996e-01
2.399812070315383850e-01,-1.313541803697788612e-01,2.456587942738117092e-01,-4.903017462969375042e-04,1.744561519290185230e-03,8.514809575343048568e-05,3.742196857929229736e-01
2.192656429569617704e-01,-1.282698082315454069e-01,2.225317477182577885e-01,-4.245837753602956649e-03,-3.435147303635899783e-03,-5.218235671967420830e-03,3.494249880313873291e-01
2.525178753602896897e-01,-1.230134498642290741e-01,1.240017133402130656e-01,6.094790126178756132e-04,3.685836560546339007e-03,-1.617833013166071016e-05,3.306360542774200439e-01
2.594474376872524801e-01,-1.200864829994300331e-01,1.618587443689822880e-01,-4.676355500491139947e-03,2.314383969535228729e-03,1.104595379626744853e-02,3.420220017433166504e-01
2.342772663431958446e-01,-1.347260385554760465e-01,2.239484328347045861e-01,-6.819142153984701117e-03,-7.893358734502986919e-04,-8.043960244158554875e-04,3.641456663608551025e-01
1.680245575937940328e-01,-1.478516060104944629e-01,1.708684732409370133e-01,-2.672774770140454517e-02,-8.874695648196836983e-02,-9.432757718745486686e-03,3.559807240962982178e-01
2.350394948092482672e-01,-1.431038619565323800e-01,1.461017985861509383e-01,-1.067174831246969421e-02,2.631594389242987442e-02,1.911162195815130013e-02,3.475429713726043701e-01
2.328309454891084873e-01,-1.227466278222682922e-01,2.046010332598182657e-01,-6.549226999511882988e-03,-3.674307307266726306e-03,-1.411913024386111286e-03,3.425924181938171387e-01
2.404343994204779511e-01,-1.226443010058761302e-01,1.973860917327799891e-01,-5.208336366410488798e-03,-3.412080631913509427e-03,1.502616218788516947e-04,3.437524437904357910e-01
2.533039758252824125e-01,-1.241408171658985038e-01,1.880976055487574294e-01,-1.620270188217082805e-03,-2.106672573562916263e-05,-1.207866528677840803e-03,3.494522869586944580e-01
2.496243825506007374e-01,-1.330712979293927345e-01,1.537463298123017130e-01,-6.428235993761161060e-03,-8.321979654885458544e-03,2.159118787733615335e-04,3.453814387321472168e-01
2.428055400654594298e-01,-1.313795798509028445e-01,1.972747964732832204e-01,-4.905711479982185824e-04,7.149994940612558122e-03,1.399874645104479814e-02,3.546725511550903320e-01
1.997146214693413524e-01,-1.276151419160709288e-01,2.291727959570575290e-01,8.168464437094224810e-04,-5.515656009264097159e-03,-5.298141953828435641e-03,3.432675004005432129e-01
2.168293793723024554e-01,-1.160218391839247659e-01,2.273495826532189734e-01,-7.877115020404612533e-03,-1.119513052571731795e-02,-8.003084193584308892e-03,3.393472433090209961e-01
2.375967184307856972e-01,-1.162760152321637985e-01,1.751405020108652844e-01,-3.280248790347302292e-03,-2.927610123476407852e-02,-1.317440979157701118e-03,3.311100900173187256e-01
2.387615295821652328e-01,-1.143786530860263356e-01,1.995148266429075390e-01,4.794979519660625723e-03,-1.827257008992871218e-02,4.462968255585991056e-03,3.369259536266326904e-01
2.249608117545503494e-01,-1.361824168775787602e-01,2.207204379182305110e-01,-6.993798373997661688e-03,-1.967725580454732053e-03,-6.573467520599352194e-04,3.592640757560729980e-01
2.024202391101082021e-01,-1.345266149136290501e-01,2.272304684040289124e-01,-6.218452418316734731e-03,-7.091562587616147620e-03,-7.487569409585821331e-03,3.506330251693725586e-01
2.248225631229818777e-01,-1.245282852441578492e-01,2.051609588713260157e-01,-4.391287520179367257e-03,-4.336678635150595373e-03,-1.340859586527770597e-03,3.401226997375488281e-01
2.206659020070283472e-01,-1.187269373130583061e-01,2.057381110559072523e-01,-2.296151290074002760e-03,-1.448362467296482889e-03,-2.968277659042334771e-04,3.322142660617828369e-01
2.420910913051835811e-01,-3.298568377190064238e-02,2.504497067708283398e-01,6.408207430570608213e-04,8.783674027047457585e-04,7.853774031733497935e-05,2.793562710285186768e-01
2.080854184234809945e-01,-1.356143335812678985e-01,2.209812960437116947e-01,-2.397572782272718549e-03,-5.560872330339812486e-03,-5.232151599570796646e-03,3.505998849868774414e-01
2.287072414597609016e-01,-1.239562344028926621e-01,2.351740612643589690e-01,-5.867824333471174936e-03,-3.392767069484180654e-03,-8.160086101936560310e-03,3.564148545265197754e-01
1.913977430817205838e-01,-1.271766423379889488e-01,2.198506692584701327e-01,-5.908235493297074592e-03,-7.217046419518582598e-03,-8.756198032708540496e-03,3.344466686248779297e-01
2.360926059691224044e-01,-1.411244751048320034e-01,2.348762158689345902e-01,-1.482048243673650834e-03,1.133201886616138276e-03,-2.869052846800681199e-03,3.766570091247558594e-01
2.399775693235590979e-01,-1.342005466558972016e-01,2.453474613548210226e-01,2.846510339584881928e-03,-1.374340295664741108e-03,-1.601535111514171663e-03,3.769417107105255127e-01
2.386239604873761910e-01,-1.402027231854701961e-01,2.408509304574254772e-01,8.872243262342692418e-04,-6.367436224907736071e-04,-4.380658388765209426e-04,3.799505233764648438e-01
2.339518715782753222e-01,-1.182213316661848979e-01,1.977606743447615778e-01,9.867743218996204851e-03,3.408038173973805540e-02,-1.105008583576809478e-02,3.416621685028076172e-01
2.350683901989692737e-01,-1.344785410182258167e-01,2.314247458980405736e-01,7.158456260806169737e-03,6.449401074375143853e-04,-3.120595130893504682e-03,3.679890036582946777e-01
2.394832783156441158e-01,-1.346049985168594199e-01,2.493685143513117985e-01,1.616019076383633365e-03,-3.603475736924272987e-03,3.412201438195994478e-04,3.791897296905517578e-01
2.144952582918943085e-01,-1.251763305877562349e-01,2.167931125196694286e-01,9.888784765602642336e-04,-1.185172014544322956e-03,-9.069517424254094776e-04,3.408404290676116943e-01
2.383689948216567989e-01,-1.374221898437736344e-01,2.474884683765198878e-01,1.114421374859802909e-03,-1.972807118725290049e-03,-1.079759093395734980e-04,3.804531991481781006e-01
2.130590371399700422e-01,-1.295261678017255169e-01,2.324730026377617442e-01,-6.859410493922064520e-03,2.004072867433896819e-03,8.259566156156604444e-03,3.532001376152038574e-01
2.378882459476299172e-01,-1.396271131306258129e-01,2.446761438121943799e-01,1.397766395536702289e-03,-1.067446692521336390e-03,-1.401967673869332787e-04,3.809669315814971924e-01
2.376427155882611109e-01,-1.344990366344162580e-01,2.443860669132444929e-01,2.166827154444578784e-04,-5.484273942595837767e-03,8.806846023406960516e-04,3.756822347640991211e-01
2.470793458694887090e-01,-1.356259036829963738e-01,2.359229227670003037e-01,-1.588776802003272247e-03,-9.575933507125292945e-04,7.449632097104080721e-04,3.772666752338409424e-01
2.498295672782695487e-01,-1.370253854169951324e-01,2.380331584280647172e-01,4.786701416286917349e-04,-2.661854211935774008e-03,-8.950587278935090386e-04,3.811256587505340576e-01
2.401169653516627700e-01,-1.278539972836051086e-01,1.900779883919603563e-01,4.737630134151113448e-03,3.942907104925117909e-03,5.426125751708709343e-04,3.458446264266967773e-01
2.483545437763422514e-01,-1.380360759213719035e-01,2.375744746995713808e-01,-1.218812976533983965e-04,-2.511339689403895101e-03,-7.231480583770311370e-04,3.811418712139129639e-01
2.448161738015152133e-01,-1.372691250635708071e-01,2.366918188953260616e-01,1.888039493528805924e-03,-1.356163376275211583e-03,-1.942338957586210680e-03,3.781250119209289551e-01
2.196301794544535391e-01,-1.255364287338399665e-01,2.131075155305122149e-01,4.196269808889211556e-03,8.258113960810764369e-04,-1.500669663906397788e-03,3.420420289039611816e-01
2.488235284242179823e-01,-1.351804857301534546e-01,2.390700916430108514e-01,1.922905534039743994e-03,-1.033843650859439045e-03,-2.086274548741254634e-03,3.792574405670166016e-01
2.856907352917884002e-01,-1.644170276008609100e-01,7.045982856029563146e-02,-5.290768741315700179e-03,-4.196674370046852426e-02,-3.195699727353586150e-02,4.005940556526184082e-01
2.745379144780958347e-01,-1.128919668744926830e-01,2.336687365492296498e-01,-3.521367713256587546e-03,3.937370284732335732e-03,-4.521564469268145661e-03,3.688946962356567383e-01
2.716972760209841464e-01,-1.206060711430717025e-01,2.165197748197782157e-01,1.011031969838676464e-02,-1.208920059836117119e-04,5.094424291353394710e-03,3.683540523052215576e-01
2.385800862266770350e-01,-1.400905956459050916e-01,2.391966384987683769e-01,6.014809352342745125e-04,-9.184339097559522875e-04,-3.354935645992501323e-04,3.789845407009124756e-01
2.318396617710962726e-01,-1.245530823133107895e-01,2.061987789341331034e-01,6.830772961214021284e-03,3.416172942755094782e-03,-9.486814716095879089e-04,3.445470929145812988e-01
2.256615110875147545e-01,-9.603276078583097841e-02,2.545225102469730327e-01,3.314928396748645627e-03,1.804188042844054015e-03,-8.220386879581259923e-04,3.371191620826721191e-01
2.422397343447399987e-01,-1.171668558828134199e-01,1.686217022123590037e-01,-2.289189896206102887e-03,-7.953071200434643634e-03,-1.332228214114093289e-04,3.291495740413665771e-01
3.098907891261990510e-01,-1.215422079669286892e-01,2.269849626757138306e-01,-8.396585423542560211e-03,2.165697496042666079e-02,-1.832021381443436209e-02,3.998311758041381836e-01
2.759296353350562114e-01,-1.352271452781809158e-01,1.890129773830432347e-01,2.344302193824787314e-03,-1.104398304692827577e-02,-2.132328808579881524e-02,3.776433169841766357e-01
2.309258058138902725e-01,-1.183571146150975140e-01,1.955716581632891415e-01,-5.206333944255256072e-03,3.289856340435126560e-03,8.175786273879079129e-05,3.331871628761291504e-01
2.416564763820162887e-01,-1.401646046757961395e-01,2.404040526624084684e-01,-2.829160663337511273e-04,2.876700607769925363e-03,-2.303317983221861225e-04,3.812294900417327881e-01
2.464436569373089081e-01,-1.212949549495180579e-01,1.988090862454170993e-01,-3.421756165529147437e-03,-1.798907812284573351e-03,-1.430479695611486940e-04,3.464513719081878662e-01
2.724444284152958140e-01,-1.440014832426254887e-01,1.303217212842960049e-01,-7.205694874185543082e-04,-1.343658235052617132e-02,-1.694451347792044066e-02,3.685704469680786133e-01
2.792216762686365872e-01,-1.701371244487065171e-01,5.482110450869132068e-02,-1.670436195670452900e-02,-2.144556608748568807e-02,-2.998626774769342501e-02,3.954199552536010742e-01
2.813091450462315013e-01,-2.081056211003347312e-01,7.079697566886157534e-02,-6.266913961148943245e-03,-5.461769052352615644e-02,1.602127560591574268e-02,4.366366565227508545e-01
2.378911771050099266e-01,-1.391954145058491021e-01,2.481771831100339498e-01,-8.734749744621447170e-04,2.929185794569286183e-03,3.789050265473512501e-04,3.823705911636352539e-01
3.009772580944753417e-01,-1.325561912338338866e-01,1.777229287583153849e-01,-1.484676551247832328e-02,-2.647583111498353139e-02,-2.949874238098383616e-02,3.938054442405700684e-01
2.154975054801048229e-01,-1.214058142892649739e-01,1.880888755595982176e-01,-2.302476393440100293e-03,-8.666829942223583036e-03,-2.729192339751732683e-04,3.244418203830718994e-01
2.493341299165463820e-01,-1.258202535276496392e-01,1.395571817348436328e-01,8.158239131214134682e-05,-2.522595981967413938e-03,-1.599559457436374767e-03,3.341186642646789551e-01
2.650683783132062876e-01,-1.092557555842091493e-01,1.295332837892825828e-01,-8.661565037482618981e-03,-4.206858041052245756e-03,-2.504315898460471312e-02,3.315326571464538574e-01
2.639630584805653934e-01,-1.859449913934565768e-01,4.376435999431078916e-02,1.799505853021815538e-02,7.147799330118854988e-02,-2.645084707339884211e-02,4.125933349132537842e-01
2.350889953035022184e-01,-1.336748319051185574e-01,2.077314621671359496e-01,8.780612856080227679e-03,-1.934673399447589840e-03,6.553213142386708767e-03,3.563959598541259766e-01
2.504352548044598836e-01,-4.222388955104919295e-02,2.397588695655625823e-01,-1.460827012491898620e-03,-1.098245144577845219e-03,7.977329779306371839e-04,2.874904274940490723e-01
1.580651051131454210e-01,-1.198554484255996561e-01,2.421661542706203818e-01,8.760175757710009573e-04,-7.119434242329386597e-03,2.231252709124496511e-03,3.284136652946472168e-01
2.554973355543756486e-01,-1.193979861661726011e-01,1.867070696145071707e-01,-1.022934896415005068e-02,1.511251492633779690e-02,1.284787979780066189e-02,3.478271663188934326e-01
1.897499883406360000e-01,-1.267752399214513159e-01,1.960713219095816529e-01,1.778966816800873563e-03,-2.070520108678932172e-02,3.387725882437050366e-03,3.218059539794921875e-01
2.753229120938579522e-01,-1.548642238077619082e-01,8.609929133790414357e-02,-7.398780781896343662e-06,-4.413133570008904299e-03,2.335455701830958797e-02,3.757122755050659180e-01
2.380826321103571841e-01,-1.330934759042611271e-01,2.144261126950965934e-01,1.004406632129420038e-02,-5.104457376393527201e-03,7.795466004587634987e-03,3.607127964496612549e-01
2.582382337514732007e-01,-1.153446018296704345e-01,1.591215824564450876e-01,-4.952857317933167386e-04,4.036393807619027309e-03,-1.388196115952257392e-02,3.361364305019378662e-01
2.400278397885078907e-01,-1.362269103357391931e-01,2.502825722898195382e-01,1.204956490844309291e-03,3.233257053638914722e-03,2.635354709850962641e-04,3.815325796604156494e-01
2.427602848161879157e-01,-1.189611471503693452e-01,1.615136440314904331e-01,1.508110083510517084e-03,-6.746327918041964376e-03,8.151854992293995281e-04,3.289378583431243896e-01
2.702003073850524073e-01,-1.496313354743928348e-01,6.335012048137150797e-02,-1.365134474401515259e-02,1.526994332094573116e-02,2.420696520826942644e-02,3.677225410938262939e-01
2.135883616788780692e-01,-1.248319844465310829e-01,2.154144066052720852e-01,-2.540459334651818096e-03,-9.443456190471466319e-04,-1.295163939325124193e-03,3.393769264221191406e-01
1.422570789138677683e-01,-1.190464975164814559e-01,2.703209451286693321e-01,8.632229595338564848e-03,-3.289591423719950142e-02,6.425750450558843745e-03,3.489087224006652832e-01
2.396919938286047325e-01,-8.690692234974997654e-02,2.577463483342671835e-01,3.136799857748408553e-04,1.017358842743344618e-03,-3.930923530456646665e-05,3.359951674938201904e-01
1.626744709083459139e-01,-1.151926328848479758e-01,2.551570176442632953e-01,4.128035338302035208e-03,-3.490084397558437627e-03,1.621462267923608810e-03,3.340008258819580078e-01
1.477166637934160809e-01,-1.178786967902070576e-01,2.528882345891125816e-01,-4.836388182807609061e-04,-1.005111602988622774e-02,2.409958531793546070e-03,3.314456641674041748e-01
2.316730208046117179e-01,-1.313059176561483521e-01,2.229852729089815133e-01,-4.193588464832130082e-03,-1.956698041950734757e-03,-6.524857516719366739e-04,3.588052988052368164e-01
2.183845649058301364e-01,-1.274092229439079682e-01,2.033746807383414457e-01,-6.671739517274818780e-03,-3.201772814374715965e-03,-1.322015647921736181e-03,3.387888073921203613e-01
1.623221384277968582e-01,-1.157871168785384181e-01,2.636611425598893166e-01,-6.060676761946579699e-03,1.031676599452286888e-02,-2.115885722929795529e-03,3.409407436847686768e-01
1.246254096979354936e-01,-1.277505234857009841e-01,2.519165579663852350e-01,1.464094931552243749e-03,1.008121424800900029e-02,9.173013129206242320e-04,3.351652026176452637e-01
6.690912267823159731e-02,-2.312492240867562165e-01,2.609052627389613077e-01,2.481617541204013053e-02,-4.067553911238775549e-02,-1.375403881968683501e-03,4.372541308403015137e-01
1.415389821865730424e-01,-1.176830124089438268e-01,2.597439456571885019e-01,-8.655307599261297157e-04,1.320386140063651865e-03,1.034688747942844132e-03,3.343956768512725830e-01
1.416315928434391802e-01,-1.200933859505970563e-01,2.623926364627308105e-01,2.338310680594525744e-03,4.171362596505279706e-03,1.017810404159246937e-03,3.387640714645385742e-01
2.434187907209855728e-01,-1.381832609485673657e-01,2.406302939746153835e-01,-2.683658358693436939e-04,-6.320384113704722792e-03,1.294552408247758545e-03,3.803799152374267578e-01
2.426027950112955578e-01,-1.377984096603283859e-01,2.423784698261318427e-01,1.919084346203057912e-03,-2.777472436308026614e-03,-8.419826213262528343e-04,3.803368508815765381e-01
2.146118554653209110e-01,-1.189161476217522051e-01,2.108834248216565899e-01,3.054458113962735754e-04,2.221945571799620149e-03,1.924677286094734130e-04,3.317024111747741699e-01
2.480804902464443240e-01,-1.290495513656302606e-01,2.485954898696163262e-01,2.162475801284151735e-04,5.455784005051133537e-04,8.302449566952861985e-04,3.773919045925140381e-01
2.285699902685111029e-01,-1.350546471946368343e-01,2.318212507924833354e-01,3.774712381037155767e-03,2.523915151211199651e-03,-5.898235642434628001e-03,3.654885888099670410e-01
2.253072531316923088e-01,-1.359493295632938081e-01,2.448641508063403860e-01,9.961284053837126534e-03,2.805646295141718104e-03,-8.114323033957615908e-03,3.721191585063934326e-01
2.291347742442812752e-01,-1.377059083844337506e-01,2.291419310108528951e-01,2.130364409007269068e-03,-5.274168736706364841e-06,-1.814255705625952061e-03,3.668762743473052979e-01
2.297127246573524018e-01,-1.396423634544183834e-01,2.349909258005870583e-01,-2.615667794475649453e-04,-2.730128332044058984e-03,-1.164980256055059022e-03,3.720580637454986572e-01
2.210868078408707305e-01,-1.125622139060343530e-01,2.051073765094518775e-01,3.853526640840797875e-03,2.863977513199931092e-03,-1.209374816753005111e-03,3.260659873485565186e-01
2.827317092618605310e-01,-1.236231107140266794e-01,1.194352841836830992e-01,-4.750408233399420685e-03,-9.303965929570022497e-03,-9.934152693236221812e-03,3.550452589988708496e-01
2.376510903258896301e-01,-1.391207038411783059e-01,2.408115511373157269e-01,2.990763990359035680e-03,-1.201696408347950216e-03,-1.767655788792987662e-03,3.784154951572418213e-01
2.357347801300675449e-01,-1.364274522368624232e-01,2.369850496031554732e-01,2.775972100405895218e-03,-1.023243549336184249e-03,-1.182617828202909638e-03,3.728297948837280273e-01
2.378217623773432043e-01,-1.355905332843595490e-01,2.373011579566999818e-01,2.593358955151281453e-03,-1.299154972463326292e-03,-1.078414135299282390e-03,3.731907606124877930e-01
2.562489527780973386e-01,-1.215323938518862723e-01,1.458744967359031641e-01,7.638565319872032446e-04,1.605998100073912239e-03,-9.836955943455121844e-04,3.364762067794799805e-01
2.585230772985160907e-01,-1.237371459742306334e-01,2.410163946223113085e-01,5.047719924071698491e-03,-1.347000809094882345e-03,-2.744248177167472338e-04,3.739242851734161377e-01
2.499812227459829173e-01,-1.295947755881819430e-01,2.496188544029689371e-01,5.591254452750092988e-04,-3.151081859211310086e-04,-4.460357638131771246e-03,3.794752359390258789e-01
2.280998949046922908e-01,-1.194973735303418994e-01,1.772903130985044873e-01,4.075930557734664186e-03,6.808983446933946672e-03,-2.189120751548969887e-04,3.254739344120025635e-01
2.203742049413295323e-01,-1.153636430273219660e-01,2.222092897176496940e-01,-3.928241627531870936e-03,5.326873289714537281e-03,4.520974506807823659e-03,3.369452655315399170e-01
2.126412429357052158e-01,-1.232200489251728398e-01,2.544598794383712836e-01,-6.145365883422295242e-03,-9.592500481215990998e-03,-2.081367395181885679e-03,3.591645956039428711e-01
2.094426058628912068e-01,-1.327493332934665815e-01,2.487689354123067131e-01,-1.016136875378390167e-03,-7.969815546273796916e-03,-6.887281569540335338e-03,3.639161884784698486e-01
2.408702868036871059e-01,-1.225923884145268955e-01,2.197100962764665932e-01,-1.035569159255562977e-02,1.227964040884696635e-02,4.016413082406486076e-03,3.545199930667877197e-01
2.462133697261817966e-01,-4.753952533333141717e-02,2.395628537733549557e-01,1.321257467865817917e-04,4.204893891345894141e-03,8.724080603121713538e-04,2.905800342559814453e-01
2.486027048858517885e-01,-1.245203774608550085e-01,1.437070186460603916e-01,-1.911043199397951566e-03,1.437466551985716991e-03,-9.818007144152657815e-04,3.333241343498229980e-01
2.311423499427838202e-01,-1.050799448253095514e-01,2.618465715240220204e-01,1.882897575456344815e-03,-1.456983785610931363e-03,-3.713951661043223256e-03,3.526613116264343262e-01
2.205183279104307448e-01,-1.296536303550007430e-01,2.218341534096637813e-01,-1.530596918611951921e-04,-1.883962254745451660e-04,-2.790133606605150855e-03,3.508652448654174805e-01
2.281073820929555018e-01,-1.377487735667988489e-01,2.441064678446847880e-01,-6.405281252122712980e-03,1.406675701263080617e-03,-2.646478554242682850e-03,3.743128180503845215e-01
2.235750554610548002e-01,-1.324653794838166476e-01,2.470659057910479239e-01,-9.436056463323086452e-03,5.481745216860133040e-04,-8.911454323746889616e-03,3.690346479415893555e-01
2.716569305480747709e-01,-5.904837275486102266e-03,2.782515053722076637e-01,2.245047989369633457e-02,7.494312024883227792e-03,1.674570371887186548e-02,2.853703796863555908e-01
2.156352076224435088e-01,-1.194570303849266935e-01,2.085462897778085911e-01,-1.071268021170833319e-03,-1.365456554597947346e-03,-1.361413248204249374e-03,3.316266238689422607e-01
2.386744011732798154e-01,-1.397914182080332579e-01,2.456999539787702025e-01,-1.878936157279397509e-03,1.546557990923077804e-03,-2.357307176039564491e-04,3.820505142211914062e-01
2.563652350116449319e-01,9.837119990122461521e-03,2.590133110621803958e-01,7.489182865681890365e-03,1.179282869332126497e-03,6.887792417402734992e-03,2.484969049692153931e-01
2.447980724661913410e-01,-1.270694407665342585e-01,1.821026249441228262e-01,-4.065364745236670248e-03,3.198045809683859944e-03,-2.268509106782475861e-04,3.449379503726959229e-01
3.199970044506694755e-01,2.992582468509233373e-02,4.210555739447431334e-01,-2.115078573671204734e-02,1.509476658212662199e-02,-5.099303971255351661e-03,3.546434044837951660e-01
2.424513843456538031e-01,-2.993163125614048403e-02,2.420522192746769607e-01,7.184524465842141196e-03,1.434792522584981637e-03,1.513334428913797047e-02,2.737371325492858887e-01
2.460588716616257110e-01,-1.350713777623009926e-01,2.311878375480681536e-01,-2.719390340132220481e-03,-1.030062939758249075e-03,5.936624086397994382e-03,3.740918636322021484e-01
2.334997798694661841e-01,2.079594663517536635e-03,2.417969398675187120e-01,2.108311160250986486e-05,-2.184575138437440563e-03,4.393623609960661553e-04,2.357099354267120361e-01
2.301414299636933003e-01,-1.155727090437269344e-01,1.851984480901880115e-01,-2.417098562316262467e-03,-6.391971104656232229e-03,3.309126814497658571e-04,3.257930874824523926e-01
2.385568568605756223e-01,-1.401097352738609469e-01,2.437506555760988458e-01,-1.403982211591502799e-03,2.369593180849265384e-03,1.419799570520430248e-06,3.813198804855346680e-01
2.514396903650678028e-01,-5.018758375603266098e-02,2.493819375438297015e-01,-6.277586616375480967e-04,5.775899987298356922e-03,5.181120156446688066e-03,3.009059131145477295e-01
2.552482452089465115e-01,-1.631136530533711104e-02,2.558553233743545707e-01,-8.964215149874422972e-03,7.120021844981094458e-03,-1.124021645819225359e-03,2.725927233695983887e-01
2.423993671787817439e-01,-6.730422908544472782e-02,2.455855338937785182e-01,7.129558304035174023e-03,5.242682182952725263e-03,1.071144063262543904e-02,3.122377097606658936e-01
2.530989806052129643e-01,-2.774778403497990542e-03,2.463957812219454979e-01,8.779469125286321063e-03,2.928331983562150725e-03,6.620669454099009296e-03,2.533566653728485107e-01
2.159210175293062584e-01,-8.435021303805557980e-02,2.363231609467691952e-01,-4.299588365378692600e-03,4.790135887473907783e-02,-1.669505951851208564e-02,3.232344090938568115e-01
2.116429332872023505e-01,-1.195854790962884301e-01,2.121445176099819308e-01,-2.508080491571227505e-04,-1.380081557511503125e-03,-5.623847739134768976e-04,3.314898312091827393e-01
2.007912761659310374e-01,-1.176304736694727682e-01,2.194916033190685289e-01,9.267773095995351842e-04,-4.546491250048682875e-03,3.299904558795332260e-03,3.283199071884155273e-01
2.154939778434179776e-01,-1.166244794972066678e-01,2.092173334371491000e-01,2.590400568528174706e-03,-9.492522352769867337e-04,7.471396792421635628e-04,3.290622830390930176e-01
2.491079342556816734e-01,-5.761612040023567083e-03,2.450227062514880594e-01,1.142283402176723361e-02,2.309095892714080767e-03,6.415291764080313826e-03,2.538993656635284424e-01
2.722016856905344340e-01,-1.176293422130489097e-01,1.561704524117812909e-01,-3.774988561697944188e-03,-6.587507788071697568e-02,3.405894185877249292e-02,3.697840869426727295e-01
2.673116892751480345e-01,-7.368277743019766013e-02,2.042194325671422561e-01,8.485680431930944789e-03,-4.481478734653871615e-02,-6.685107155349956885e-03,3.242205083370208740e-01
2.384553645956290213e-01,-6.205159301688320528e-02,2.470770964210500242e-01,7.288775032323964627e-04,6.279714923761261537e-03,8.401495268975690822e-03,3.054526448249816895e-01
2.183079763523355088e-01,-1.160289409617851208e-01,2.015639855033243000e-01,-1.341312650699900749e-03,-3.299944794626369013e-03,5.758072272978554621e-04,3.263471424579620361e-01
2.399559981406981790e-01,-1.134571582787542443e-01,2.522947581670920147e-01,-1.927537117000228787e-04,4.981628604734130925e-03,-1.004991483591712031e-03,3.598490953445434570e-01
2.482507328893923670e-01,-7.975446587331416759e-02,2.577337330486724198e-01,-1.913114165673794392e-03,1.758021204767536226e-04,-1.218254157408283148e-02,3.335328102111816406e-01
2.533930537608428124e-01,-1.350273544506291057e-01,2.366099040477222526e-01,1.754135737970322196e-07,9.914247207063219599e-04,-4.423500210055138074e-05,3.803105652332305908e-01
2.632253872118994198e-01,-1.069639123570706313e-01,1.046305908135945206e-01,-1.039413669516118729e-02,3.322011702907275068e-03,8.806838074129550581e-03,3.226022720336914062e-01
2.773115808034322116e-01,-1.301174892728190202e-01,2.261268817195569159e-01,-3.108100724054655133e-03,2.532227624977536045e-03,6.139975667121072567e-03,3.846108317375183105e-01
2.287950955924423213e-01,-1.298662243150975892e-01,2.314369026073577473e-01,-4.840745916737382976e-04,1.900604545509373315e-03,4.096686839019215531e-04,3.600062131881713867e-01
2.398135727387813720e-01,-1.387771553754015841e-01,2.437080693478332616e-01,-1.000889615838917871e-03,-9.241161889984429809e-04,1.173217803748155107e-03,3.805656731128692627e-01
2.705040474384046156e-01,-1.036486199883656645e-01,1.489686655338804400e-01,6.462906673842913792e-03,-4.272418919315981722e-02,4.431526596343408203e-02,3.475358784198760986e-01
2.111188480397960254e-01,-1.188684888702854769e-01,2.065774973231078726e-01,-1.105150816494788123e-04,4.023885278834706675e-03,3.552493236926565273e-04,3.278149962425231934e-01
2.572086948732575928e-01,-1.334185268655990464e-01,2.329387260878181820e-01,-1.368212318071357391e-03,-4.962363857097081693e-03,1.243181899043978300e-02,3.797911107540130615e-01
2.278927928596936048e-01,-1.299773322269484055e-01,2.446571536520364409e-01,-4.878961795257760921e-03,3.482010374810918206e-03,6.414453813422873844e-03,3.668552339076995850e-01
2.356485933796124144e-01,-1.321211874155968358e-01,2.547355502850927600e-01,7.750148284112651264e-04,-2.734096701722441101e-03,-2.315593101064969232e-03,3.777285218238830566e-01
2.202653981249205750e-01,-1.323659190672952235e-01,2.154033573370577326e-01,-5.894275004788654751e-03,7.226470089908386754e-03,7.197525906911090253e-03,3.508194386959075928e-01
2.397244724244141922e-01,-1.132140972796422673e-01,2.537715519864676139e-01,2.944466388374578775e-03,-3.198510127023555631e-03,-2.906746794393087752e-03,3.602814972400665283e-01
2.381202388229545219e-01,-1.321135309326972318e-01,2.457278027290652478e-01,-1.982080920182491615e-03,-4.514140304440544642e-03,1.381050771512888501e-03,3.742006719112396240e-01
2.337238836168666622e-01,-1.291229895338839029e-01,2.287846119047802218e-01,-3.899024295314854668e-03,6.224145623546246259e-04,6.562202860932490282e-04,3.604692816734313965e-01
2.861567232929181914e-01,-1.202979911835365123e-01,1.319756169036331861e-01,8.237184663577871296e-03,4.070615219227756432e-02,1.166256517457925704e-02,3.631696403026580811e-01
2.323684506481929479e-01,-1.343494954306536648e-01,2.032445024194901584e-01,-9.113367996256539760e-03,7.200475758191291452e-03,6.592132738210475067e-03,3.538149893283843994e-01
2.381491661694624673e-01,-1.315096532542612273e-01,1.798619328911401360e-01,-6.820794379947490819e-03,1.992632338253285014e-03,-5.251192404791600208e-04,3.444574773311614990e-01
2.301156027223001665e-01,-1.393184387580727601e-01,2.271883755380129655e-01,-6.052114155079276608e-03,1.784649197480614674e-03,4.356982988567945081e-03,3.682187497615814209e-01
2.191442509250752235e-01,-1.307197291551730201e-01,2.196078482305400259e-01,-3.931573808458736427e-03,4.943412615771311872e-03,5.014345414861316221e-03,3.503745496273040771e-01
2.796370851093621934e-01,-1.652590383832081011e-01,5.086136781262674822e-02,1.448262445003155059e-03,-3.813984533012017286e-02,1.439379792094890378e-02,3.917668163776397705e-01
2.559432289266371785e-01,-1.297719897928854005e-01,1.442392858682893519e-01,-2.876871271528698426e-03,9.883830843664186822e-03,1.225161444939113463e-02,3.448714315891265869e-01
2.334047140746742521e-01,-2.594479062338025943e-02,2.509770501015039512e-01,-3.528245050376047900e-04,3.240269907551563897e-03,3.226141615708976774e-05,2.686265110969543457e-01
6.041634510230193406e-02,-1.491004594986739540e-01,2.734990662604057654e-01,-3.484539147075288619e-03,-1.957767373936762992e-02,3.643439627301643408e-03,3.676575124263763428e-01
9.929301250228914077e-02,-1.617933097077647875e-01,2.323340124717346855e-01,-1.309296350815965237e-02,-7.407640037545248912e-02,5.678528236918224149e-03,3.710446357727050781e-01
2.289353983007807181e-01,-1.190066616066832450e-01,1.823451058275692149e-01,1.716557330686687734e-03,-7.372820052772206291e-03,9.483585896991797350e-04,3.274113833904266357e-01
1.604747925979147505e-01,-9.292324934409752768e-02,2.957947767088624502e-01,1.253088703458003599e-02,-1.066074061325153477e-01,-2.241852810439979443e-02,3.910065889358520508e-01
1.100316733764750421e-01,-1.302228584982139670e-01,2.463787098676220033e-01,-2.355824586525508135e-03,-2.830693044337919892e-02,-3.391064466003686217e-03,3.339546918869018555e-01
6.717010452288171840e-02,-1.372092748742778645e-01,3.126530577530638455e-01,-1.320074728570858448e-03,-4.972120006325225772e-02,-2.239643108412026420e-02,4.014113545417785645e-01
1.648935699255330567e-01,-1.285345826045550810e-01,2.520012543119689030e-01,-9.626089033998831636e-05,-2.274815391333370133e-03,-4.670808468653932753e-03,3.454398214817047119e-01
1.066954406994564952e-01,-1.357458489565239179e-01,2.386258334841776518e-01,-3.349946143954543511e-03,-2.643717344704426750e-02,1.847458802378674093e-03,3.321286737918853760e-01
2.394976773179152696e-01,-7.514504462861620881e-02,2.394881999516499382e-01,1.203339850808713297e-03,6.297384284192501618e-03,1.496823147027064342e-03,3.148445487022399902e-01
2.069696928296139993e-01,-1.301441702601027206e-01,2.628135193984131868e-01,1.731070269041890680e-02,-5.574411565257278434e-02,1.646184421731308745e-02,3.829153776168823242e-01
1.280200146378832060e-01,-1.149323515801699697e-01,2.925404323242664084e-01,-3.572991181680969502e-03,-8.691895148118425340e-03,7.731591682006211386e-03,3.556792438030242920e-01
1.082468373935988604e-01,-1.505427414335795966e-01,2.794075391639831984e-01,-1.472514519585921798e-02,-1.460218565931466553e-02,-1.740419047355917358e-03,3.766455650329589844e-01
2.635342822820759268e-01,-1.191398491073352300e-01,1.549937194905801618e-01,7.287612489508736666e-04,-2.693839877309835412e-03,6.736772465931352774e-03,3.418250977993011475e-01
9.912630693780252744e-02,-1.395482593762191748e-01,2.749764211271413239e-01,-2.433154324403205560e-02,-8.262702924407261049e-03,4.906905062023132758e-03,3.631981313228607178e-01
1.389926677463629301e-01,-1.410304295301628152e-01,2.874282651545310152e-01,2.960348327644022823e-02,-7.177785105307695618e-03,7.167388773399129692e-03,3.807219862937927246e-01
2.153218244824705030e-01,-1.202299543450120189e-01,2.127595334384219106e-01,2.739196670375215574e-03,-7.904308306501115801e-04,6.955067431604056421e-04,3.343166410923004150e-01
8.038664269125740669e-02,-2.798125636029681340e-01,3.085889222130799858e-01,-5.087799852698617065e-03,-8.516089299512311084e-02,1.243977954567125491e-03,5.346564054489135742e-01
1.520085319849492911e-01,-1.168315473885688377e-01,2.610668839598512259e-01,2.862734524634964403e-04,2.692184758614716861e-03,2.500858652441062448e-03,3.369402289390563965e-01
1.269438342584157664e-01,-1.252077820491259152e-01,2.411380371546046342e-01,1.260090186069572462e-03,-2.307763187612791450e-02,2.006352436691773329e-03,3.271537423133850098e-01
2.564761705378842960e-01,-1.248433934346931673e-01,1.389375107655718422e-01,-1.075363327715060571e-03,9.447782244850516653e-03,7.385968412962452996e-03,3.388732373714447021e-01
2.451694675638817489e-01,-1.324452458487281881e-01,1.561933486566417506e-01,-9.464534463838297773e-03,-1.253695823779450713e-02,-8.623462833406266015e-03,3.433282375335693359e-01
2.712163633690724551e-01,-1.399979100690337819e-01,1.329442479211837835e-01,-4.799695129309828126e-03,-1.437790123392086727e-02,-8.849470725168144189e-03,3.637047111988067627e-01
2.757603656118224889e-01,-1.376180299174443733e-01,1.548406072323371685e-01,-7.001862194698659295e-03,-2.869274775570446884e-02,-1.984711287636449148e-02,3.732509911060333252e-01
2.194562280998627324e-01,-1.156339865959599422e-01,2.018541696492930915e-01,3.254250393686375798e-03,-4.347875748805293990e-03,1.313407441372447648e-03,3.267883956432342529e-01
1.202823575716438498e-01,-1.543913668268995787e-01,2.158499328439443532e-01,-5.936952693481788168e-03,-7.315249038895399458e-02,-7.755271066148471896e-04,3.563567399978637695e-01
1.972920692179753466e-01,-2.003252907394828808e-01,1.755520379851065460e-01,1.120405640731623673e-02,-1.412793034264315795e-01,3.515683614926474673e-03,4.584988355636596680e-01
4.259262776696302044e-01,9.377335523365859515e-02,4.260351402270257659e-01,3.290074665575726948e-02,-2.674057002703288111e-02,1.470546530413412850e-02,3.411788940429687500e-01
2.362511444946081007e-01,-1.414680992251644565e-01,2.379132760079246678e-01,-1.094606509336527519e-03,-3.173267647992950111e-04,5.348425331526431275e-04,3.785593211650848389e-01
2.565134315735321802e-01,-1.310831628559791517e-01,2.370524893206414352e-01,7.306204558451263702e-04,7.641976927083509548e-04,5.718517272678559204e-04,3.782475292682647705e-01
2.662373086849036397e-01,-1.320321101861109125e-01,1.766233291718996012e-01,-8.581639016914572454e-03,-5.173693130727247645e-03,-1.716956871457012146e-02,3.635165691375732422e-01
2.262192092705254676e-01,-1.336884447173469492e-01,2.215507685333445442e-01,-5.181806835865269316e-04,1.255246461001084321e-03,3.673129272645104214e-03,3.576606214046478271e-01
2.549083159003440180e-01,-1.167642997606097716e-01,1.531138463689245000e-01,-8.833120300969127302e-04,-8.977925549602788075e-03,-2.388153899934509355e-03,3.330610990524291992e-01
2.537103428238771108e-01,-1.179933878141218723e-01,1.533378681289464529e-01,3.009318103087351998e-04,-9.914994717282580444e-03,-2.366962481245573138e-03,3.335288166999816895e-01
2.625366959473232065e-01,-1.300281703230851682e-01,1.157711613754941055e-01,-4.040965970627228426e-03,-2.463257433365603419e-02,-8.578078492118019344e-03,3.465867042541503906e-01
2.376911829631865314e-01,-1.395670180236888713e-01,2.370422720786795612e-01,7.233913943701269274e-04,-1.048074828195923186e-04,1.434876223791749748e-03,3.769444823265075684e-01
2.374140328391131094e-01,-1.396810222213057950e-01,2.369418827234736069e-01,7.052879558377544034e-04,1.239581723309490084e-05,1.471108272517224116e-03,3.768697977066040039e-01
2.227092606298699262e-01,-1.238818361446914346e-01,2.175149471095966236e-01,-4.033204348039639729e-04,2.958221007028997204e-03,7.610398049289711624e-04,3.440647423267364502e-01
2.268572536034572928e-01,-1.365539132025946900e-01,2.282077056000303972e-01,2.796481596573047006e-03,-1.604576518467802681e-03,8.760668055048821939e-04,3.641342520713806152e-01
2.301910961985462190e-01,-1.346375366315549493e-01,2.309424824070869520e-01,8.152730237055731341e-04,-3.405148065290480148e-04,2.146450317737572631e-03,3.652270436286926270e-01
2.398692737956205634e-01,-1.341170384862516718e-01,2.436750091280902031e-01,-7.336994580333852916e-04,1.227191159882389101e-03,1.855360119010496028e-03,3.759255111217498779e-01
2.404958894957242577e-01,-1.023200440389634702e-01,2.568390806951986738e-01,-1.208382690322119379e-03,3.689429287798984877e-03,5.002756093640628801e-03,3.514439761638641357e-01
2.199529865253459504e-01,-1.318347871851431874e-01,2.481537521308106453e-01,1.546773548996898599e-04,-2.209670791353427616e-03,9.859215315821514072e-04,3.667263984680175781e-01
2.305022077009101222e-01,-1.251116916233705467e-01,1.939334922790306726e-01,-6.486821149917862232e-03,5.110978675205176021e-03,2.500169621697692461e-03,3.391423523426055908e-01
2.378961852521652709e-01,-1.297051125264251370e-01,2.527178397526673725e-01,-4.032199097509161644e-04,4.230640993430370006e-03,2.959358369921555668e-03,3.753389418125152588e-01
2.293886773497737785e-01,-1.307679513888381773e-01,2.423417542517122270e-01,-9.544173708332250039e-03,3.361136393531713538e-03,7.774446449646768564e-03,3.674699962139129639e-01
2.393833197998662399e-01,-1.352928978166151874e-01,2.518492360418216336e-01,-3.062593753851883434e-03,4.245928662044347671e-03,4.382839750834372026e-04,3.811707496643066406e-01
2.416557454847982345e-01,-8.685234941173375356e-02,2.443596597543428728e-01,-1.821767292915746740e-03,6.764212149532509120e-03,2.457418420246164248e-05,3.300914466381072998e-01
2.600516309882939248e-01,-1.202795732623304081e-01,1.296422427504834440e-01,7.090804155126837838e-04,-3.397821041339331785e-03,-5.479297787494403181e-04,3.348084688186645508e-01
2.332290274820590925e-01,-1.221450637681767426e-01,2.420884621448691765e-01,-7.624250363156155272e-03,1.060660408957597115e-03,8.175333367187599676e-03,3.604107499122619629e-01
2.426575743759030179e-01,-1.235343937127124647e-01,2.475252791403062258e-01,-4.228750351417984534e-04,7.106779180633729896e-03,-1.111060254231086789e-03,3.688611090183258057e-01
2.390687820745375780e-01,-1.353470709648181558e-01,2.510095577300610614e-01,-7.452530146175101932e-04,-1.186436628519570722e-03,-4.748174944567317346e-04,3.805353939533233643e-01
2.256691729399490087e-01,-1.387679849925871067e-01,2.336343092406539534e-01,5.779113166538845867e-03,-4.835801266619747471e-04,1.325983435438905940e-04,3.686212599277496338e-01
2.446112146156910194e-01,-1.271452850457138739e-01,1.820511333668302090e-01,-3.549601604185777248e-03,3.211844035311077136e-03,-3.254196071238770740e-04,3.448602855205535889e-01
2.450926957822668895e-01,-1.352419074514815134e-01,2.383855831658270863e-01,2.653512433679043213e-04,-1.768809318184661221e-03,-2.092336764422140366e-03,3.770559430122375488e-01
2.491546204458414404e-01,-1.348042351102785863e-01,2.391915580378756456e-01,3.048972951667853516e-03,-7.699741275589540518e-04,-2.275194182391563897e-04,3.791148662567138672e-01
2.512123300335864506e-01,-1.347390478391817248e-01,2.390137029710359684e-01,2.929701194078228148e-03,6.504471983966312243e-04,9.976185501146036388e-04,3.800384104251861572e-01
2.880905214295693129e-01,-1.331076847835929722e-01,1.747253521603773230e-01,-1.046439186654879797e-02,1.106645768712736762e-03,-3.513717395503677086e-03,3.779941797256469727e-01
2.447092894977629940e-01,-1.281759657543542208e-01,1.814610643178065086e-01,2.528788677867018723e-04,-1.022102967930468408e-03,-4.356436122862433974e-04,3.456346690654754639e-01
2.527649518810625162e-01,-1.358077510143749500e-01,2.315783770524346696e-01,-1.162270903512861719e-03,-1.737620741052129866e-03,1.611172416481937333e-04,3.784419000148773193e-01
2.530830191900234061e-01,-1.174127401381614144e-01,2.456867301898560396e-01,-2.784751640962333796e-03,8.893068665266859463e-03,-3.594486668373241336e-03,3.672612309455871582e-01
2.560427650902473706e-01,-1.278671340006382329e-01,2.395624891446907490e-01,-2.953131417827711998e-03,-2.579986929985906251e-03,-2.383183739367705767e-04,3.760023415088653564e-01
2.549702086842045023e-01,-1.276812133025865825e-01,2.338547097009837927e-01,-3.249487272595484068e-03,-1.801326363636511106e-03,1.968341071894949166e-04,3.725984692573547363e-01
2.552575316562470942e-01,-1.317640645711302128e-01,2.409780663857687966e-01,-1.243326448086703052e-03,-2.529429731157905627e-03,-1.879770954413367248e-04,3.801145851612091064e-01
2.549588643468180260e-01,-1.285531537748700326e-01,2.353844919030465554e-01,-2.978283035989678657e-03,-1.841105633472481934e-03,7.245129792074031148e-05,3.741582632064819336e-01
1.934266270166088431e-01,-1.200266610100146625e-01,2.375380681819404260e-01,-6.480127123967886760e-03,-1.540203983100122027e-02,-4.185299150114666321e-03,3.389924168586730957e-01
1.802622102382072655e-01,-1.481826436727692320e-01,2.448886626387109522e-01,-2.205793189108239127e-02,-8.471142817648814188e-03,-8.750034480541474952e-03,3.676730394363403320e-01
1.702528281291166845e-01,-1.290206135429599610e-01,2.422482784991507043e-01,-6.697698839445154206e-03,-1.025523711118311691e-02,-3.910577819682414108e-03,3.417458534240722656e-01
2.368572867773660884e-01,-1.239799283325770940e-01,2.402517239840669394e-01,-1.162349087821562543e-03,8.451112583240102472e-04,-3.304159115829859899e-04,3.625553548336029053e-01
2.232033177985616179e-01,-1.243272898689193884e-01,2.555088707851652652e-01,-1.160988826179441477e-02,-7.236843512740286609e-03,-6.207675121759645073e-03,3.656848669052124023e-01
2.380051883257595924e-01,-1.387199286947011223e-01,2.367116921364050275e-01,2.082623828010395951e-03,1.113156866222834909e-03,3.281790057100443438e-03,3.761452436447143555e-01
2.427704287588700049e-01,-1.315740369466997239e-01,2.171005786641177771e-01,6.749847464916818376e-03,-1.169815577580963356e-03,3.435618435253746982e-04,3.623872101306915283e-01
2.289400120743498857e-01,-1.330901114347359804e-01,2.411443677297364085e-01,-2.418313872403527603e-02,-3.944732546798525308e-02,-1.202349002001259527e-02,3.774778544902801514e-01
2.222131597519391710e-01,-1.355400692796351891e-01,2.092415367854589259e-01,6.543430852874433656e-03,-4.972343108205535406e-03,4.273798562996145023e-03,3.518130481243133545e-01
2.360528923535121226e-01,-1.331545322041269297e-01,2.354381730776728410e-01,4.166936268450423773e-03,1.769237833314614688e-03,4.474246232876417234e-03,3.690651357173919678e-01
2.700861485274410612e-01,-8.838316321017222754e-02,2.752642822723329608e-01,5.810543136504715996e-03,-1.261486420499627510e-02,-1.063470679511853423e-02,3.623551428318023682e-01
2.228005521849191484e-01,-1.227190070619542384e-01,2.173954146688388267e-01,3.618287673269106677e-03,-1.146767045169346704e-04,9.319131427902003790e-04,3.429100811481475830e-01
2.306470797145404039e-01,-1.253157166863934635e-01,2.534305840260033249e-01,7.466221334545336194e-05,1.357586308325428159e-04,-2.329965634060310146e-03,3.679063022136688232e-01
2.390711549091133203e-01,-1.342301813155844237e-01,2.449405774396400670e-01,-5.170417734787194266e-04,-1.233941156510694279e-03,3.042212956567518205e-04,3.762778937816619873e-01
2.265108916486829882e-01,-1.233049264775937653e-01,2.151143671834576110e-01,6.392647070919127775e-03,-1.002219514253938418e-03,7.541004706028747642e-04,3.444439172744750977e-01
1.890786651558230558e-01,-1.525521282085278152e-01,2.463903276273774479e-01,2.323892775758934839e-02,-7.702369470347704937e-03,2.034185596619051024e-03,3.760135471820831299e-01
2.368463010039316974e-01,-1.421945590997401310e-01,2.318138860202219320e-01,1.670544847715113102e-03,9.493330115306871167e-04,1.537440441698074327e-03,3.765740096569061279e-01
2.329960744825098629e-01,-1.309491749282658546e-01,2.258003121509212230e-01,6.242115393666295212e-03,6.081155317114150647e-05,1.403790145426599286e-04,3.605634868144989014e-01
2.427184830733481458e-01,-9.887996916350788590e-02,2.590356372584503575e-01,-8.722201846083156617e-04,7.834108102100511856e-04,-5.061079011253154236e-03,3.501580059528350830e-01
2.564895662047809166e-01,-1.315891257399044723e-01,2.356455214174215940e-01,7.780082076018832301e-04,3.616608830997764955e-04,3.928164917091939655e-04,3.780913650989532471e-01
2.332223311985121006e-01,-1.346043458690532879e-01,2.532446424689801523e-01,3.033648116557577184e-04,1.226469229456140717e-03,-4.195250171104132034e-04,3.782425224781036377e-01
2.321573783014828085e-01,-1.369649310216561888e-01,2.298252682627321686e-01,-4.738776921179781859e-03,1.686112865343250642e-04,1.655196640437398047e-03,3.680646121501922607e-01
2.482013064145035808e-01,-1.366122320100300047e-01,2.384999842189604036e-01,3.832451578939910617e-04,-3.175043488175352795e-03,2.639122358518393181e-03,3.801236152648925781e-01
2.385950523971537840e-01,-1.392497750172106974e-01,2.389641462753154810e-01,-2.196627490552788969e-03,-1.454399383292613677e-03,1.451647853676004806e-03,3.780654072761535645e-01
2.436827798963970282e-01,-1.377491680248790207e-01,2.415939484455465469e-01,-9.967108956049548253e-04,-4.188152411814331441e-03,1.175316789081362352e-03,3.804703652858734131e-01
2.360903897830508025e-01,-1.234116607206470900e-01,2.548020725274319220e-01,-1.901831605245666939e-04,8.856398692288994928e-04,-2.139554912667259584e-03,3.692356050014495850e-01
2.605878170216171519e-01,-1.183068693130014115e-01,2.496401781542388065e-01,-1.374478467130459992e-02,2.621513992465067389e-02,9.482569735541453854e-03,3.774006366729736328e-01
2.533052675065780579e-01,-1.353191303038863147e-01,2.362192183856618444e-01,-8.352994187265547991e-04,-1.011247354685966310e-04,1.264958404000069239e-04,3.803721368312835693e-01
2.552296600984391706e-01,-4.902024474231481133e-02,2.578877136314437490e-01,-3.212431149776016209e-03,-1.911332638244198176e-04,1.857257792681159606e-02,3.073266446590423584e-01
2.851829844878160936e-01,2.399443966987555021e-02,3.182716349315927729e-01,-1.700357478955644153e-02,-6.071582318459800044e-03,1.091009871891218674e-02,2.815878987312316895e-01
2.403908962708388442e-01,-1.397632173973261394e-01,2.405668887083603213e-01,-7.327311419540362284e-04,-2.132658635038562484e-03,1.138598418692816742e-03,3.802673220634460449e-01
2.738087367835416730e-01,-2.457261693356621590e-02,2.653313150655071673e-01,4.707748989341137974e-03,-2.360036126409024125e-03,1.553987617042006802e-02,2.956035435199737549e-01
2.639123581950185704e-01,-4.220408954839471871e-02,2.721110180543521162e-01,-4.127131958140461097e-03,-8.080874510889130523e-04,2.070035530265151857e-02,3.124465048313140869e-01
2.360491124095830395e-01,-1.317865470004701001e-01,2.210688428649577597e-01,-5.718309453205856069e-03,1.701674650789325666e-03,6.037593924119223372e-04,3.607285320758819580e-01
2.375025338356667182e-01,-1.406654490156016291e-01,2.399069139779785309e-01,-1.425417498977659542e-03,-8.541509228363297320e-04,1.878487360455316610e-04,3.793869316577911377e-01
3.195181905860599580e-01,2.047822944768118436e-02,3.442528711344979286e-01,1.245046999888687299e-02,-3.064433702417313637e-02,-2.947326060674912082e-02,3.214368522167205811e-01
2.687062310178663926e-01,-3.190151928575454821e-02,2.742163395565861417e-01,2.260537018537758097e-02,1.333487137898006119e-03,1.375901280502607113e-02,3.068518042564392090e-01
2.813112439173829360e-01,8.605405158775197849e-03,2.782484773308122050e-01,6.886350800152988422e-03,1.502470602111218717e-02,-2.590060885861622531e-02,2.763596177101135254e-01
2.386681659172091297e-01,-1.319774580948572806e-01,2.228629726918384402e-01,-6.315914464549608580e-03,1.978645830861902946e-04,-4.703513595515126239e-04,3.631670475006103516e-01
2.385109193284790097e-01,-1.380263517995470868e-01,2.453361469829166697e-01,-1.292514194199291012e-03,-1.168532932688248153e-03,-5.276592346938207987e-05,3.800078630447387695e-01
2.883717118477895358e-01,1.955159156258765019e-02,2.780656093381719818e-01,-3.685839700851466704e-04,3.651028418041680004e-03,1.935011121234427381e-02,2.660143971443176270e-01
2.393119634088851089e-01,-1.347010303681294707e-01,2.489595702530900956e-01,-8.151901907127447023e-05,6.345665347492430780e-04,3.104340487528623946e-03,3.789686858654022217e-01
2.384710142337242988e-01,-1.351717171819041552e-01,2.447435383274561838e-01,1.771580724249895980e-03,1.627512597035236149e-03,2.162333287624675819e-04,3.768413662910461426e-01
2.379982135732346127e-01,-1.315340766629127800e-01,2.530887461658857807e-01,-5.083249611167830508e-04,-3.266593690650961695e-03,-9.518085087584203258e-04,3.773510158061981201e-01
2.420176377026500014e-01,-1.225600752511094016e-01,2.488397342984840499e-01,-1.070460171376876306e-03,-4.611493763931442990e-04,-5.680642674183930541e-04,3.680430352687835693e-01
2.370455284911006932e-01,-1.322372543066820394e-01,2.560869060989441892e-01,5.930606030279540319e-04,-7.912896352830308582e-04,-5.841529121516056584e-04,3.791674673557281494e-01
2.373950631949608980e-01,-1.366328186617430385e-01,2.504304893475108873e-01,-1.435250642940861469e-03,-1.339986575587356682e-03,-5.271190618923975038e-04,3.807292878627777100e-01
2.374301822857742272e-01,-9.978822624393410279e-02,2.587554020390786524e-01,-5.115969929544840564e-04,-2.188753498851947477e-03,-6.550665784361459250e-03,3.485773503780364990e-01
2.369988730396662135e-01,-1.271290812102476853e-01,2.557581650301560816e-01,1.412944631516607030e-05,-4.359196139440693445e-03,7.501903706948174783e-04,3.739392459392547607e-01
2.399624504141606440e-01,-1.343335144327495456e-01,2.207240972060273143e-01,-3.389854559491670746e-03,5.525531356515111896e-04,-3.595611975720237321e-04,3.651061654090881348e-01
2.460636190865598261e-01,-1.290559294756951081e-01,2.475691566516066699e-01,-5.283953897491311391e-03,4.158893426288138456e-04,4.087645014025606842e-04,3.759873509407043457e-01
2.474212652243987787e-01,-1.334026825002488370e-01,2.362077608998680578e-01,1.960824158469204673e-03,1.583539169024900540e-03,8.639452712274325180e-04,3.753712177276611328e-01
2.347472994625515175e-01,-1.292461928339829480e-01,2.547652583741289445e-01,5.635880051216392631e-05,1.274416002037425570e-03,-2.687147821310084152e-03,3.744394779205322266e-01
2.162904955219399350e-01,-1.311208291466942344e-01,2.179274344399766139e-01,5.209872660672916489e-03,-4.799293306206812125e-03,5.404934999736467349e-03,3.485744893550872803e-01
2.248621603835352367e-01,-1.274572143180884298e-01,2.213848130687694205e-01,3.290938557799980013e-03,-2.134718769857799764e-03,4.156037016905563333e-03,3.507333397865295410e-01
2.384904224184378196e-01,-1.343367679546954296e-01,2.537087315595766834e-01,7.808170975286081840e-04,5.141137145511767616e-04,-4.821972131289806824e-04,3.806689381599426270e-01
2.376107084651891133e-01,-1.358593325592373224e-01,2.436486566087618377e-01,2.458667178848986286e-03,8.461709811969582483e-04,5.601758266736052167e-04,3.765535056591033936e-01
2.330017486525896853e-01,-1.349902634833348714e-01,2.363756813624778574e-01,3.389767361027298028e-03,-1.314839740210716173e-04,5.389042762663545302e-03,3.698550164699554443e-01
2.383230172242655487e-01,-1.365495549662296693e-01,2.404679988888645537e-01,4.453384203944425052e-03,8.404725766182524803e-04,9.461283697857701116e-04,3.760351538658142090e-01
2.226085465837948085e-01,-1.380517971621341711e-01,2.202906193951599534e-01,4.548520286800592297e-03,-4.458655412008419305e-03,3.945466818321320332e-03,3.597411215305328369e-01
2.387982509026500000e-01,-1.364833109180771387e-01,2.500114994660340151e-01,1.402126602823043286e-03,2.411733318064743486e-03,8.374532442275853597e-04,3.810453712940216064e-01
2.541501499972464995e-01,-1.344831954365182103e-01,2.386883187494211467e-01,-1.099366074992666649e-03,6.072448570584546717e-05,7.441175717802174430e-04,3.811446726322174072e-01
2.356339824759307588e-01,-1.314280519527840640e-01,2.245946663497259133e-01,6.360866580257579575e-03,-3.372252019416136838e-04,5.166021539694153541e-04,3.618381023406982422e-01
2.343535606130462967e-01,-1.332891916126119347e-01,2.299619004381820431e-01,3.184265138617089954e-03,4.270795324000499580e-04,3.267190289464822015e-03,3.655528724193572998e-01
2.305299003348681430e-01,-1.346553309007852417e-01,2.302117370470281865e-01,2.372145909857037351e-03,-1.904223635578457079e-04,6.489272293365977700e-04,3.650512695312500000e-01
8.092470763709476433e-02,-1.430900459785608425e-01,2.677339392486401959e-01,-2.478700936594527282e-02,-3.843253322817997194e-03,-4.377609372725594500e-03,3.589892983436584473e-01
2.216193397412143384e-01,-1.350040115446249356e-01,2.319834980322510454e-01,-7.617717886252400872e-03,1.502650448966856437e-03,-2.843989642182047882e-03,3.622000217437744141e-01
1.960641116296095721e-01,-1.352870577697627141e-01,2.606045331768941375e-01,-5.679714040541923754e-03,-1.626941436571550242e-02,8.275680898526573126e-03,3.693791031837463379e-01
2.509643792997788281e-01,-1.214590670615947748e-01,2.383044239921763285e-01,1.779643339549341141e-03,2.126084913216711759e-03,1.781536364628064626e-04,3.662892282009124756e-01
2.260234298872174641e-01,-1.325999642746726881e-01,2.242126025575318371e-01,4.227919069804728092e-03,2.320029489858923156e-04,1.103331121575772274e-04,3.577966392040252686e-01
2.205228136588673060e-01,-1.440011417822156803e-01,2.523753479527758303e-01,-8.345647142001248742e-03,2.782301404357364477e-03,7.466402562368339851e-03,3.819721639156341553e-01
2.458374129246134743e-01,-1.134626067831816243e-01,2.437556848809180332e-01,3.357888332074654512e-03,7.582874952901247356e-03,-1.244683706450835231e-03,3.585579991340637207e-01
2.507285150617445391e-01,-1.366205860177418241e-01,2.360390410862824029e-01,-6.583740226699414267e-04,1.866442286235013613e-03,2.258875506605177545e-04,3.802329003810882568e-01
2.493807730242256493e-01,-1.138229669889763429e-01,2.572671582198984841e-01,-1.102003330381174512e-02,-1.072203689542675000e-03,8.553813098220217070e-03,3.680092394351959229e-01
2.652427014771640001e-01,-1.180274335817115272e-01,1.873849064565123457e-01,-3.851944057595698551e-03,5.282302192048601852e-03,-8.924756655100365282e-03,3.514035344123840332e-01
2.385723009744923906e-01,-1.393179273561147014e-01,2.383294288266350480e-01,1.656937100316485190e-03,1.013136169671940111e-03,1.704401744758667200e-03,3.777953684329986572e-01
2.371905311605428668e-01,-1.406222802260552462e-01,2.393266274598066234e-01,7.007463301788824199e-04,2.014425562432981399e-04,6.202037668445360566e-04,3.788889944553375244e-01
2.300444369352630525e-01,-1.392370633889973841e-01,2.348761646145954285e-01,-2.859010862949854306e-03,7.312281985282577433e-04,1.107543414700260572e-03,3.717609941959381104e-01
2.327317276338937702e-01,-1.255289098581469365e-01,2.478684861835881714e-01,-4.972901740836158102e-03,2.957199601167674434e-03,7.345811723395111875e-03,3.664219081401824951e-01
2.327196059487582902e-01,-1.287444712644296163e-01,2.114235598628795287e-01,-8.896485835955633692e-03,2.624084451956825315e-03,6.421767044850754287e-03,3.518435060977935791e-01
2.399133364028650794e-01,-1.357960192922347264e-01,2.380663743546068134e-01,-7.932222418992662997e-05,-6.709895914870572320e-04,3.852903098864245320e-03,3.748505115509033203e-01
2.509986461918886080e-01,-1.303547016229968658e-01,2.420778854400164048e-01,-1.055839902104736220e-03,-6.823724075865145525e-03,-5.346074829219402700e-04,3.771629333496093750e-01
2.387175225117977861e-01,-1.346195738353612448e-01,2.383805067749546758e-01,-2.999211910517717537e-03,-2.064351675098486522e-03,4.705778911368063352e-03,3.733109831809997559e-01
2.373774229493711418e-01,-1.423248218601425585e-01,2.361825973734950623e-01,-4.111617517560577431e-04,-1.354299261849998496e-04,1.357006282335512836e-03,3.791142702102661133e-01
2.368886645891088993e-01,-1.391973185538956104e-01,2.367985576083091459e-01,-8.595597337619180619e-04,-2.473016673873615302e-04,1.148342382189010587e-03,3.760493993759155273e-01
2.369440917989651951e-01,-1.391453791639056248e-01,2.365134252857736263e-01,-1.481043840971396717e-03,-1.600420518262682086e-03,2.077012842257203694e-03,3.759105205535888672e-01
2.388978259599121023e-01,-1.404804534820718320e-01,2.400685787502743751e-01,-5.400422605295689647e-04,-5.310911991539943224e-04,4.437815969587634800e-04,3.799680471420288086e-01
2.380379620032077870e-01,-1.363882164099710637e-01,2.380094509221452048e-01,-2.689578617843006118e-03,-1.724573203257019150e-03,4.647833687925109758e-03,3.745393455028533936e-01
2.569225450958972368e-01,-1.131041081438274309e-01,2.692037182245259896e-01,-5.360583890349447309e-03,2.179303234261188368e-02,5.654035560275359924e-03,3.784466087818145752e-01
8.010901539250128017e-03,-3.404730993887284396e-01,2.777792872030703797e-01,-2.173534788611612006e-02,4.332874580311203185e-03,-1.264823695857912253e-02,5.386831760406494141e-01
2.450282127951153854e-01,-1.352779176232528080e-01,2.411676943143235552e-01,-9.468192811208773390e-04,-5.927876475834416466e-03,2.927867338826843115e-03,3.785674273967742920e-01
2.393818832149717801e-01,-1.375425001886643184e-01,2.372720425557370560e-01,-3.198332379238185037e-04,-6.059884459781195729e-04,4.457972412791470426e-03,3.759550750255584717e-01
2.382056191788531896e-01,-1.355548074815922099e-01,2.373138507383947271e-01,-2.572356941138544302e-03,-4.102527619445649524e-04,8.101502576358692769e-04,3.733452558517456055e-01
1.750407183324234339e-01,-1.504908684264687491e-01,2.885486209567117988e-01,2.451558313919850046e-02,-7.193196706063364684e-03,6.533340901217407452e-03,3.973557353019714355e-01
2.409791179146705264e-01,-1.378798033399880607e-01,2.439323349338134994e-01,-1.506569185348414271e-03,-4.294973149003673656e-03,1.642068875856539422e-03,3.804364502429962158e-01
2.391908455510992904e-01,-1.293339602586477954e-01,2.414873844662425162e-01,-6.895338080660164300e-03,3.139544907345239930e-03,-6.574775267908300296e-03,3.700865209102630615e-01
2.383720311659381919e-01,-1.358828761386381978e-01,2.416812405257502405e-01,-4.057892368977170441e-03,-8.558848970547259724e-04,1.485816108982334813e-04,3.759891390800476074e-01
2.417269461683385079e-01,-1.400343722917619660e-01,2.395156843242245148e-01,2.645677023990793868e-04,2.326416422121074194e-03,-5.453370348981495964e-05,3.806821107864379883e-01
2.291220024694823887e-01,-1.393324561018765562e-01,2.323148990625978350e-01,-2.643601605466876486e-03,-3.206148075236023385e-04,-4.569741645435505817e-03,3.701746165752410889e-01
2.028262816743339192e-01,-2.091905680284756874e-01,1.422173789167345270e-01,-1.246341926476600241e-02,1.124351196152869325e-01,3.977083252575884867e-03,4.323168694972991943e-01
2.483988550509887427e-01,-1.320989394154193364e-01,1.518988487064538151e-01,-1.513377072565148113e-03,1.530203794173263772e-03,1.302451139400228643e-02,3.433592617511749268e-01
2.531102583712399601e-01,-1.232200823138604046e-01,1.952743262935776603e-01,4.262802809859855824e-03,-6.304271927143513185e-03,-5.033873611580257914e-04,3.512529134750366211e-01
2.409341607286553111e-01,-1.369139045615295758e-01,2.281943586880074704e-01,-5.157130516561036354e-03,5.696206167277444599e-04,4.406220461236533964e-03,3.718289434909820557e-01
2.375471961445375368e-01,-1.404280333414025250e-01,2.365005176436924816e-01,-6.707833627403274584e-04,2.526584480760101122e-04,-1.280242602313962173e-03,3.774615228176116943e-01
2.392319382616638901e-01,-1.380952174516353326e-01,2.415999838330323279e-01,-2.521206581109963329e-03,2.335420600141062224e-03,-2.931270017598777179e-03,3.785975873470306396e-01
2.368973909714199300e-01,-1.362616461602078055e-01,2.459751246569134575e-01,-2.329075032480634397e-03,-1.873580919742092994e-04,-4.202708024782472501e-04,3.778021037578582764e-01
2.371102894457767785e-01,-1.367520098114001215e-01,2.365502165825757452e-01,-6.927843875964832289e-04,1.325941031711319953e-03,-2.376088768517552706e-03,3.736142218112945557e-01
2.452155055406053663e-01,-1.322825909220381457e-01,2.483265907275499784e-01,5.300086411312752380e-04,-1.669488038032381069e-03,-4.595991946660595191e-04,3.790761828422546387e-01
1.704132648202262845e-01,-1.469564264401940212e-01,1.650916248329839242e-01,-1.147426572243242029e-02,-6.209669854219134616e-02,-1.233939351281808025e-02,3.338901996612548828e-01
2.498843123199492589e-01,-9.348470490578167369e-02,2.543724467596139016e-01,-2.088253725905684505e-03,-2.217391360185983450e-03,-1.177081158977130379e-02,3.462758958339691162e-01
2.392221549090808586e-01,-1.335003798116585760e-01,2.498050164643915161e-01,-6.066945327664298926e-04,-6.553971655642571066e-03,4.246357625788816899e-04,3.782975971698760986e-01
2.398086919760016311e-01,-1.141822757633971785e-01,2.531049491831254272e-01,1.784870631792648396e-03,5.507648258915491882e-03,3.804319019163118483e-04,3.609628081321716309e-01
2.366658741925365128e-01,-1.361835328991330141e-01,2.457838455722479998e-01,1.893047796229228286e-05,3.261433813327089919e-04,-7.255378090254649501e-04,3.774935007095336914e-01
1.976959208327737083e-01,-1.403288175234416735e-01,1.399982400555427331e-01,-8.141178909178366924e-03,-5.887978616705555335e-02,-7.201864496040539035e-03,3.299112319946289062e-01
2.326444113846698469e-01,-1.231379559656872041e-01,1.783844445035259463e-01,-5.702551047168652812e-03,-1.220955446436064115e-02,-4.276286623409931986e-03,3.328965902328491211e-01
2.426350502658470853e-01,-1.340991967101106686e-01,2.449213526059534352e-01,4.018232133406236632e-03,-8.917504251070352043e-05,6.427664190191853619e-04,3.779483437538146973e-01
2.261465172438640869e-01,-1.187331553205292073e-01,1.977381661908728105e-01,-5.865600679803923551e-03,-5.799777915149235789e-03,-4.546851862346877257e-03,3.319905400276184082e-01
2.340409841711686978e-01,-1.252994074432123017e-01,1.785879438178190060e-01,-5.622002566557083442e-03,-9.080262552330409243e-03,-7.492424081574760968e-03,3.358342051506042480e-01
2.256874795944095458e-01,-1.243261055785455788e-01,1.796207181939483144e-01,-2.998906450542605361e-03,-1.657234571905827694e-02,-1.139869175762318193e-02,3.312829136848449707e-01
2.592733010902394941e-01,-1.066201269635774496e-01,2.385499533513547599e-01,5.291084026703783000e-03,2.104750627756985133e-03,1.691122055302666377e-02,3.573236167430877686e-01
7.988220924782128696e-02,-2.592896002424409096e-01,2.238061133724901230e-01,-1.781022516023568480e-02,-9.709728202435599642e-02,2.015093491277109711e-02,4.637024700641632080e-01
2.107737029003056428e-01,-1.183980722851429024e-01,2.278669392589159348e-01,7.757177713849960562e-03,-1.117016804278936348e-02,7.056678921691488145e-03,3.390826880931854248e-01
2.385539146212161121e-01,-1.422703877433663666e-01,2.365569584599619968e-01,1.781517836490833508e-04,9.372289823834285306e-04,4.467967109376392399e-05,3.798333704471588135e-01
2.448812066183556069e-01,-1.386552920899146168e-01,2.405543024390029427e-01,1.916873336964923773e-04,2.072282021943102660e-03,9.515242811505938330e-04,3.814120590686798096e-01
2.378344133424076801e-01,-1.384670733195839665e-01,2.452543604466735361e-01,1.305901179071647204e-03,1.300840737196973110e-03,1.553179828405954529e-04,3.800792992115020752e-01
2.411709549310608880e-01,-1.406144565858789552e-01,2.386793307988481772e-01,-1.341051732327413072e-04,4.826967020726364243e-04,8.663663963982639639e-04,3.805496692657470703e-01
2.390130508801209253e-01,-1.399488296721547176e-01,2.398416710534491125e-01,1.543950855092332541e-03,8.850093710082899230e-04,8.739111967704634235e-04,3.793924152851104736e-01
2.369948644964082474e-01,-1.413625340912768591e-01,2.391571712229235147e-01,4.849175680176514344e-04,3.700353555046053040e-04,7.711641963685322929e-04,3.794469833374023438e-01
2.392922012665863463e-01,-1.398435985329892772e-01,2.398631783177047061e-01,1.372697280448769656e-03,1.070295983108035054e-03,5.593686619390129088e-04,3.794348239898681641e-01
2.503153991560315705e-01,-1.319387855512840768e-01,2.385946481974274280e-01,1.935329097361541528e-03,-1.608539042810779420e-04,1.193824984656217687e-03,3.765513598918914795e-01
2.391474980932012939e-01,-1.420001820979401308e-01,2.392127421096156281e-01,4.567616122880778506e-05,-2.787748738929230606e-09,-7.119862264584443461e-05,3.811803460121154785e-01
2.400627589325061151e-01,-1.395500320914341286e-01,2.397172236185682315e-01,2.279354301003077427e-03,3.561014494714612958e-03,2.183425967508666188e-03,3.795296549797058105e-01
2.584245373348129649e-01,-1.424476030960755701e-01,1.904237296927511203e-01,-1.336534944107813268e-02,-8.811580090651477057e-03,-2.978618320079609930e-02,3.761561214923858643e-01
2.391978810202022299e-01,-1.243010868413056552e-01,1.453888321121274974e-01,2.790792300999837740e-04,-5.132301904621110362e-03,-7.453084363388039722e-03,3.272278308868408203e-01
2.434957699994960423e-01,-1.226294822598450185e-01,1.696655458859248899e-01,1.451008857654047116e-03,-2.741788418309360972e-02,-8.672620354918968155e-03,3.390496671199798584e-01
2.474159987153002616e-01,-1.273620650915930352e-01,1.592559568900291378e-01,-8.000395344710755155e-03,-1.863668680038204489e-02,-4.758097005709711544e-03,3.413096070289611816e-01
2.518485041003147851e-01,-1.192596119958013873e-01,1.625428656768914681e-01,-5.995354735736758240e-04,-8.671732208617194404e-03,-6.115116357227791052e-03,3.359963297843933105e-01
2.369628040966006988e-01,-1.185406031680360933e-01,1.711493699005500746e-01,-1.098700503670826598e-03,-1.190261258308590933e-02,-6.798664423432519786e-04,3.282486796379089355e-01
2.445889778145243221e-01,-1.226758922958925552e-01,2.475912877582840121e-01,2.115129551720987787e-03,9.233074137371434509e-03,2.333509480146343795e-03,3.691620826721191406e-01
2.310573244361435186e-01,-1.388236964361869719e-01,2.340969042862122429e-01,2.483659216927314260e-04,1.574188879353763003e-03,6.791249472015994069e-04,3.714222609996795654e-01
2.385128189539979238e-01,-1.326626218864146167e-01,2.481967298543002187e-01,-7.841705131362042584e-04,2.606687001168419678e-05,-2.786210860708142139e-04,3.761136829853057861e-01
2.374589694428630993e-01,-1.328027006672618249e-01,2.514887049587448686e-01,-3.715581715142363215e-04,4.035270072391853452e-03,1.614163067574083755e-03,3.775477409362792969e-01
2.346575743398846559e-01,-1.244241787593955845e-01,2.466472197714765224e-01,-2.058710299975660685e-03,1.522838322855908557e-03,8.245232556531902068e-03,3.655302226543426514e-01
2.389678016317478004e-01,-1.355458784088567348e-01,2.415033772442369830e-01,-3.870035278348535161e-03,2.294840278512193157e-03,-3.408990751157874814e-04,3.758691549301147461e-01
2.327309850625378096e-01,-1.346940678880743647e-01,2.200419442661167846e-01,5.512951967778794912e-03,-3.067176849963772992e-03,3.536736995664355176e-03,3.614648580551147461e-01
2.364609110609245946e-01,-1.350388260240316107e-01,2.274478007462445439e-01,-5.257888955228146206e-03,6.238456508622713470e-04,-4.707635966673919675e-03,3.672812581062316895e-01
2.390916857124857076e-01,-1.287939790200537948e-01,2.552330407191538142e-01,7.695059696079060898e-04,2.047554278405203446e-03,1.615998701028784935e-03,3.762456178665161133e-01
2.395677663114102740e-01,-1.405414612758869586e-01,2.406720878728704216e-01,5.902737403588121171e-04,4.702282786481077324e-04,6.587257949730766044e-04,3.806665539741516113e-01
2.183080842985754555e-01,-1.309590935418256108e-01,2.194761894551105486e-01,-5.469898477726134640e-03,-6.255568366682212784e-03,-4.824394284158395677e-03,3.502483069896697998e-01
2.500035813966238196e-01,-1.338312972739555684e-01,2.414538209168171357e-01,7.393419412188999328e-04,5.774406138769962692e-03,1.468268948445758133e-03,3.797746002674102783e-01
1.122317401562329120e-01,-1.379756603351644795e-01,2.382822424002973283e-01,-1.962826617948712580e-03,-9.828824582196932225e-02,-1.360330573014828168e-04,3.728600144386291504e-01
2.044753120914184208e-01,-1.096154534204466374e-01,2.244185148195976254e-01,-2.677731230994788436e-03,-1.927817654323771626e-02,-1.023640346891809254e-03,3.262733817100524902e-01
2.368105825681994236e-01,-1.411348627835689040e-01,2.384019153244177347e-01,2.561354742071352019e-04,7.876319094596668721e-04,1.812699756852813901e-04,3.787464797496795654e-01
1.004911347629053875e-01,-1.396266976120532077e-01,2.454848298227486070e-01,7.816366469564478819e-04,-2.526463100232670053e-02,1.820700543632455641e-04,3.397236466407775879e-01
2.391725638846831647e-01,-1.151424507289699889e-01,1.752858313743888008e-01,-2.554505476922650127e-03,-3.076076002965816292e-02,-2.574294211044803569e-03,3.314554989337921143e-01
2.139871048790583652e-01,-1.271526739874656586e-01,1.941320627466951998e-01,5.569095317828313615e-03,-7.817745343309572686e-03,1.094417150841689272e-03,3.320801258087158203e-01
2.114516876633807385e-01,-1.212562735527440150e-01,2.147601893607378742e-01,2.271569451655281510e-03,-5.343912314102629464e-03,3.354724541142982755e-03,3.345761597156524658e-01
2.377603374548544479e-01,-1.327556109649613569e-01,2.503231917599876843e-01,5.156859109452415412e-04,4.082975359838350062e-03,-3.383260044424646383e-04,3.770222663879394531e-01
2.135702755247072260e-01,-1.175897299523564754e-01,2.044867379483805148e-01,-2.089121904917654905e-03,-4.338988024301885377e-03,-4.812130049500173133e-04,3.268204629421234131e-01
2.396447905712307258e-01,-1.376056459324112302e-01,2.488418445209280572e-01,1.343767749823569172e-03,1.104142585039201560e-03,1.553500909072456611e-03,3.819533884525299072e-01
2.387398216686263397e-01,-1.397769016900325956e-01,2.435635335885660835e-01,1.278052427353967109e-03,2.864131267164158213e-03,9.441580425386865037e-04,3.809937238693237305e-01
2.146582706407312024e-01,-1.224064345904185697e-01,1.861183182274726011e-01,2.475782802443629929e-03,-1.097820147371943340e-02,6.067258742524379292e-04,3.243275880813598633e-01
2.070380537034283708e-01,-1.252350336803336184e-01,2.072231958119628570e-01,4.143384908664834304e-03,-5.967452211873089211e-03,5.513828312495331826e-03,3.327408730983734131e-01
2.187410801111497882e-01,-1.205806072912084664e-01,2.093932754533296414e-01,4.514441507586266535e-03,-3.219670242332006022e-03,1.404632382958929818e-03,3.348922729492187500e-01
2.418270055708235389e-01,-1.269180929064918639e-01,2.569207004023062457e-01,1.967126433934275262e-03,-1.091132263598652320e-03,5.124204928116140624e-03,3.766436576843261719e-01
2.352058132191406914e-01,-1.367726349366024663e-01,2.252806303288099332e-01,-3.453984735984988669e-04,8.646713197365622208e-04,-5.797051324693542132e-03,3.672573268413543701e-01
2.387139681513197886e-01,-1.400471243436088864e-01,2.407993758054391420e-01,1.314668269958953369e-03,1.211559434677768462e-03,8.212333073568521709e-05,3.798207342624664307e-01
2.221545855688931703e-01,-1.335851321766326483e-01,2.253456719613602666e-01,4.283335467032286202e-04,1.457912744018662228e-03,7.832391689665008658e-04,3.573582172393798828e-01
2.380900265882484323e-01,-1.333434586598590266e-01,2.442591423347227619e-01,2.403301968925162808e-03,-8.239723340141900769e-04,-1.670650223709275366e-03,3.745931684970855713e-01
2.310472772979935141e-01,-1.363904408514566291e-01,2.260963329026976221e-01,5.493363376609050608e-03,2.586127480244211282e-03,-3.564516141053063539e-03,3.651911020278930664e-01
2.273036432728358647e-01,-1.357280778427028545e-01,2.313396795649742543e-01,2.841457750673550588e-03,1.281964946998441924e-03,-5.973060220050158305e-03,3.652529418468475342e-01
1.981321445824630323e-01,-1.355726215436366955e-01,2.343701489595512166e-01,5.685403610366974309e-03,-6.974638256822807830e-03,6.022299455991853706e-03,3.537182211875915527e-01
2.286987606525170413e-01,-1.398129651325648315e-01,2.352293152192777015e-01,4.604648643316390857e-03,5.506364680586870418e-04,-6.140696267900633276e-03,3.720588386058807373e-01
2.363678947015524501e-01,-1.375675865938832954e-01,2.105343015003794394e-01,8.048966239534854905e-03,-8.949484404963560904e-04,1.067197886851702256e-02,3.624547719955444336e-01
2.450658675048894841e-01,-1.330057299593749021e-01,2.392911628899778154e-01,8.623618788547463216e-04,-2.613965816606242040e-03,-4.227753042893399663e-03,3.753193020820617676e-01
2.434813325592046773e-01,-1.373746740394168331e-01,2.385863629652577589e-01,2.563350387406013783e-03,-4.381564711374633363e-04,-3.138836461501027381e-03,3.784981071949005127e-01
2.409811856081222059e-01,-1.370964279107752537e-01,2.406388673973327008e-01,-2.049267106873115679e-04,-4.207647514786619705e-03,5.677070398017092148e-04,3.779782950878143311e-01
2.397125749523060789e-01,-1.342370369233852334e-01,2.411739021031965580e-01,3.352820764949770473e-03,-3.763946228586555285e-03,-2.836849508746542951e-03,3.748163282871246338e-01
2.386888998415726548e-01,-1.411164521539051697e-01,2.365732844690550118e-01,-2.730330315535542569e-04,-9.637163735399202277e-04,1.911413663032647710e-04,3.787561058998107910e-01
2.155748269701205644e-01,-1.575081343035332759e-01,2.036316412395436648e-01,1.380091000785654137e-02,7.144914514672509598e-02,-1.143066975905289093e-02,3.887879252433776855e-01
1.810008720837240903e-01,-1.248246576216130305e-01,2.314082818256710250e-01,-4.866533744236857181e-03,2.478783003602578680e-02,8.174421373950024883e-03,3.370472490787506104e-01
1.757495931317947235e-01,-1.393904833726520298e-01,2.163607708658888407e-01,1.736818974639867813e-02,3.552782781880627072e-02,-9.652347400237504954e-03,3.445749282836914062e-01
2.093267269486421556e-01,-1.449254250067975314e-01,1.988659576912151228e-01,1.540246455588626349e-02,2.298982221137874440e-02,-1.543646514020310424e-02,3.534266948699951172e-01
2.388490319642559145e-01,-1.229490909970578638e-01,1.770881736308246024e-01,7.668337997963540695e-03,2.654993255396152427e-02,-1.287658005993934721e-02,3.393462002277374268e-01
2.485780452296615095e-01,-1.341450475062519465e-01,2.500103805054372796e-01,1.979538653483252017e-02,2.332827755696543354e-02,-1.632372110542574389e-02,3.881169855594635010e-01
2.411482784638712407e-01,-1.316008565269225217e-01,2.552646613599500736e-01,-1.135607223929073375e-04,2.107043017350873626e-03,-7.298722058789596130e-04,3.800237178802490234e-01
2.373403514181625651e-01,-1.349678608619445663e-01,2.475382579828919738e-01,2.542646679043363174e-03,2.522691120487775655e-03,1.571195029267168173e-03,3.775712549686431885e-01
2.371196144810265860e-01,-1.363872215500457341e-01,2.507626911455377861e-01,7.871302921055899678e-04,8.805106124857541017e-04,-6.967885913755082934e-04,3.805192708969116211e-01
2.753826693568674489e-01,-5.668684887949304585e-02,2.545268403380890332e-01,1.011842035400743918e-02,-3.480080093283979912e-03,-1.377574755633676797e-02,3.235619664192199707e-01
2.371164141652210566e-01,-1.234980523893565857e-01,2.495026513969897386e-01,9.147401494585360830e-04,4.364885454009841646e-03,-2.872471639264993944e-03,3.670794069766998291e-01
2.413657967986946595e-01,-1.316112266923078478e-01,2.569064051946348126e-01,-1.236084796487257366e-03,-2.771271092608756882e-04,-3.529428958415073902e-04,3.809919357299804688e-01
2.098553968623226018e-01,-1.205005809431414499e-01,2.056821732486327214e-01,8.222410566210678912e-04,3.852994502316064822e-03,4.707395423061417998e-04,3.283611834049224854e-01
2.359172156905717244e-01,-1.011190537189105565e-01,2.584069949067537841e-01,-1.683007425302446183e-04,1.680218660425383684e-03,-4.568017908861803263e-03,3.489272892475128174e-01
2.375416554859108298e-01,-1.346436001568130647e-01,2.541433846962549703e-01,1.717365017747199754e-03,1.994300314286838807e-03,-9.319333339835239116e-04,3.807883858680725098e-01
2.338801626764105690e-01,-1.377933599050400471e-01,2.497940405038724943e-01,9.878194859519551316e-04,4.181753358122741390e-03,-8.829537546667146053e-05,3.799534738063812256e-01
2.359874351853069319e-01,-1.345821093178484196e-01,2.545301823350339943e-01,-1.707050337126608363e-04,5.098405752338543352e-05,-6.172089857049097884e-04,3.801818490028381348e-01
2.506496582855344823e-01,-1.358504813591431826e-01,2.366139742547425651e-01,1.987426241446115253e-04,-1.186226592924013784e-03,9.717899077553069330e-04,3.796863555908203125e-01
2.369318466695642944e-01,-1.153164837124694420e-01,2.560529642398231553e-01,-1.835343918171308646e-03,5.586972353307977437e-03,-3.127356491870480950e-03,3.623713254928588867e-01
2.363169802579985768e-01,-1.392509242962293170e-01,2.396248229114364692e-01,-2.685274278136902046e-03,-7.594001210122231643e-04,1.175654982534940279e-03,3.772691488265991211e-01
2.420987268760472211e-01,-9.242863584623531303e-02,2.457976350753783290e-01,1.082566997890844910e-03,1.082152871950237648e-02,-6.053991324087128548e-03,3.370822072029113770e-01
2.304019629555260074e-01,-1.373245305238982028e-01,2.003300113277148298e-01,-8.284350593833440107e-03,-6.980800759257229683e-03,-7.700023485911020038e-03,3.543992042541503906e-01
2.655069483256081719e-01,-9.327534564636294490e-02,2.422792192304734360e-01,2.307072147251817325e-05,3.590248044666931272e-04,6.829855564566017327e-03,3.479524254798889160e-01
2.393638494717224008e-01,-1.360160059765461171e-01,2.299278497108105945e-01,-7.736976618396994645e-03,8.854603633316986263e-04,-4.813318892183193233e-03,3.710908591747283936e-01
2.409731604650046655e-01,-1.194602690078561263e-01,1.644631578312822362e-01,-3.145872353218473645e-03,-6.330067109873190392e-03,2.594353272545285149e-04,3.291494846343994141e-01
2.304291541563678880e-01,-1.201524488409558139e-01,1.896615648643592000e-01,-6.162826069256263639e-03,-3.754088199164784968e-03,-3.715384853933116020e-03,3.323773741722106934e-01
2.355233395750252201e-01,-1.354503722312992431e-01,2.535344882596753946e-01,-1.078122261569802861e-03,-8.566365792180319653e-04,-7.676109334003257314e-04,3.803091049194335938e-01
2.190326085775895770e-01,-1.285524923916112061e-01,2.186362455776678648e-01,3.857434955661108271e-03,-2.902724439329128388e-03,2.913321236673305920e-03,3.475243449211120605e-01
2.501194739995715732e-01,-1.206383527551798673e-01,2.576606477025514819e-01,-9.191653753210675187e-04,-1.888133993113699305e-03,1.226732477279194808e-03,3.746090233325958252e-01
2.118374018116156443e-01,-1.322243903215507554e-01,1.909374269283971026e-01,7.776528899720694214e-03,-2.284522694866635353e-02,6.985135677097693840e-03,3.369242548942565918e-01
2.309054775064567633e-01,-1.249025949323091939e-01,2.564390018444931973e-01,-1.925567877005385838e-03,-1.545654134477336423e-03,2.054988096304193783e-04,3.692625164985656738e-01
2.013677509531724974e-01,-1.317795936350573960e-01,1.808802385115845512e-01,9.256030781537215313e-03,-3.912690893118231372e-02,8.463022327877253725e-03,3.311286270618438721e-01
2.593565340102036432e-01,-7.571405816078113915e-02,1.694621651968396259e-01,-1.150991990475696246e-02,-5.503373657647160633e-02,-1.905513707565952702e-02,3.174983561038970947e-01
1.462473777757899995e-01,-1.313775594587027196e-01,2.486124659946108706e-01,1.208760577850910914e-02,-2.161814983055959996e-02,1.241862898257858373e-02,3.439132869243621826e-01
2.042413062159280090e-01,-1.222398958336024799e-01,2.190887732804416843e-01,4.354971217449411791e-03,-3.743854089488702491e-03,5.091306585253941100e-03,3.344167470932006836e-01
2.276312214658654520e-01,-1.266864132256242947e-01,2.274490337476920698e-01,4.938347523696181088e-03,-2.268490994646829486e-03,4.419361039238763403e-03,3.544342815876007080e-01
2.287896500515209097e-01,-1.282065064716839120e-01,2.251622616705412638e-01,5.367123853492273070e-03,2.621287441425759583e-03,-5.518521880274655442e-03,3.554755151271820068e-01
1.942885190330481127e-01,-1.190431924140201991e-01,2.217915476756288362e-01,6.510635825509461863e-04,-1.026872220423825574e-02,2.665408860541905282e-03,3.284656405448913574e-01
2.641424421198420580e-01,-1.229670584913962889e-01,2.199435821772464661e-01,-5.642613259849622604e-04,2.433932303082490811e-02,1.980649215450130257e-02,3.710155785083770752e-01
2.258994306366214344e-01,-1.288690375864296189e-01,2.340091471671463808e-01,3.417721421182139596e-04,7.174642805089663294e-04,-4.230693790983827696e-03,3.589694797992706299e-01
2.571931304915604510e-01,-1.227014649611047059e-01,2.359498810529809254e-01,-6.748960725347418008e-04,-9.631301328651670863e-04,-7.482569545630268076e-04,3.697388470172882080e-01
2.527257085784483381e-01,-1.117700578796503863e-01,2.382911328356561165e-01,4.018598959866283640e-03,-6.761643257074003918e-03,6.410571006537646183e-04,3.577583134174346924e-01
2.324820912957482888e-01,-1.243610447840787503e-01,2.043174418934423642e-01,-5.900822647026474077e-03,3.679562458742306665e-03,1.321449350608848092e-03,3.438462316989898682e-01
2.498133187033257374e-01,-1.348288123406179984e-01,2.361980362593864291e-01,-1.677283708751271330e-03,-1.103431894609970074e-03,2.463691464471532040e-03,3.780584931373596191e-01
2.601980131456146372e-01,-9.305831661635927121e-02,2.435892069073556376e-01,6.876127164000863344e-03,-5.058834792828118378e-04,-3.143742417474274919e-04,3.454585671424865723e-01
2.478653392886054907e-01,-1.229051170586471647e-01,2.422224519647338536e-01,1.802503790612526406e-03,-1.100004833145779926e-03,-9.694462849055888141e-04,3.680034577846527100e-01
2.204667553668069879e-01,-1.382737014452369018e-01,2.318170025241629295e-01,-9.584632208375298834e-03,2.537094137694539953e-03,1.076386830928232480e-02,3.654282689094543457e-01
1.978497978794472867e-01,-1.234872647475645235e-01,2.865010875540243696e-01,1.694567676152484298e-02,8.740535258519886719e-03,-6.714567351713759090e-03,3.752724528312683105e-01
2.387011686735466820e-01,-1.415860673143607973e-01,2.399813868286218843e-01,-9.492522985062345261e-04,-6.147780270554219911e-04,1.837119991409820233e-05,3.809340000152587891e-01
2.386654171233597022e-01,-1.387956861237386041e-01,2.455893269361376086e-01,-1.449089688573920514e-03,-1.608937039157145579e-03,1.662298352530055916e-04,3.809888064861297607e-01
2.281733544394913271e-01,-1.262467624443215919e-01,2.227384564829101299e-01,-2.580084713879482287e-03,2.277283830172307372e-03,4.335575571375299003e-03,3.518648147583007812e-01
2.399631436190129974e-01,-1.378732714078020893e-01,2.440007528177359775e-01,-1.370676313741125453e-03,3.127791580110443181e-03,4.913304525084405492e-04,3.799183070659637451e-01
2.268339560111875819e-01,-1.271666786398211180e-01,2.226014604366430838e-01,-3.267523455063573237e-03,-8.138951795278687260e-04,6.686636325139572309e-04,3.519537150859832764e-01
2.536260681770949876e-01,-1.364032112526743779e-01,2.321159947197603268e-01,2.088636841942202911e-04,-1.884061202209010195e-03,-4.439359466814675492e-04,3.797464072704315186e-01
2.506131757070984012e-01,-1.344893944000113695e-01,2.389931154232582955e-01,-2.670632292432607684e-03,-7.703479630623950251e-05,1.501243456694458705e-03,3.794631361961364746e-01
2.463171710174271167e-01,-1.364270111370635696e-01,2.391947404265138410e-01,-2.431780379601799352e-03,-1.326953698955464327e-03,1.269878711615273111e-03,3.792698681354522705e-01
2.289485002983975281e-01,-1.347801571962761180e-01,2.332245804395494948e-01,1.979744785931781756e-03,2.273747797823096278e-04,-5.009966587085384893e-03,3.660045862197875977e-01
2.303666016972838460e-01,-1.356819848340644619e-01,2.303433068629560099e-01,-1.124579748053851184e-03,1.439363343653322143e-04,2.611065711399212196e-03,3.660701513290405273e-01
2.453376227216648719e-01,-1.392402763271944344e-01,2.377619355430898862e-01,-1.931082789237361643e-03,-1.741335219052184049e-03,2.174832263265484740e-03,3.808918297290802002e-01
2.343379660847685064e-01,-1.300396847424466762e-01,2.222370327449727789e-01,-6.866789366692576356e-03,1.525525759996944515e-03,9.500736675627581465e-05,3.586874306201934814e-01
2.395428177465807051e-01,-1.363567658861029597e-01,2.448677468101382315e-01,-1.536351246378945276e-03,-5.465152698527219605e-03,1.052185455689320448e-03,3.787221908569335938e-01
2.449047425277205980e-01,-1.375025936977253838e-01,2.400821114631941922e-01,-1.387065521267296514e-03,-3.081680687783146678e-03,3.098479087901262995e-03,3.801019489765167236e-01
2.505783607444871386e-01,-1.350684116043106564e-01,2.354374139905821839e-01,6.092730399544603190e-05,-4.337616328007805680e-03,1.728679098235230173e-03,3.783900737762451172e-01
2.488375459326394590e-01,-1.349723335480438324e-01,2.379356910038610551e-01,-1.105572160077569234e-03,-8.065533221172642864e-04,2.125546256982969919e-03,3.785020709037780762e-01
2.388108198283240557e-01,-1.414364541432348299e-01,2.352383518495558268e-01,-9.908632040218903411e-04,-3.636462836000819705e-04,2.227243681511488580e-03,3.784977495670318604e-01
2.320206653307733680e-01,-1.391698080181018038e-01,2.286910600534219629e-01,-4.883960705606002137e-03,3.509454384623244129e-04,2.508819633973774325e-03,3.696597814559936523e-01
2.407199321079879772e-01,-1.404264926623119414e-01,2.405900235411453369e-01,1.937967910794578667e-05,-1.053208103783479996e-03,2.047543501578808520e-04,3.810860216617584229e-01
2.395185860678073486e-01,-1.417029376546153352e-01,2.387002423187274402e-01,-5.060750563305503949e-04,-1.036311204246053060e-03,5.333155431068382826e-04,3.808193802833557129e-01
2.080615540613706682e-01,-1.323020202519571142e-01,2.332356752865363536e-01,-4.727462469824952364e-03,6.765416531430624991e-03,7.627882296716055263e-03,3.541586697101593018e-01
2.560808621211891900e-01,-1.211058989948609055e-01,2.441135735745805224e-01,1.031729970017791027e-03,-4.062813911128171362e-03,-5.981172635588291727e-04,3.714201748371124268e-01
2.381268384967187846e-01,-1.396144216043957442e-01,2.082578257185596637e-01,-1.892869635863707323e-02,7.061394462725531507e-02,2.470842461077854546e-02,3.875090479850769043e-01
2.372895726990298382e-01,-1.268322101704012494e-01,2.547275721041862839e-01,-1.743344612340274593e-03,-6.007101589496405616e-03,2.080045156703474833e-03,3.733211159706115723e-01
2.532664816551317699e-01,-1.305996388692106380e-01,1.895082436344290577e-01,-1.816237233013003050e-02,7.293389543833173061e-02,3.327853588775511826e-03,3.793739378452301025e-01
2.450581853125171905e-01,-1.387156300576853074e-01,2.412020536961334283e-01,1.364296019309523249e-04,-2.507243249058337901e-03,6.828318037750946137e-04,3.818869590759277344e-01
2.262524759007829012e-01,-1.330858468622633795e-01,2.332834322898903745e-01,-9.249482943286582151e-04,5.031287757802011852e-04,6.293057545559598703e-03,3.630731105804443359e-01
2.369779420141265025e-01,-1.389573489907819925e-01,2.392390810519717803e-01,-5.076760531618290662e-03,-8.045790449104698022e-04,1.145583316774464663e-03,3.771812617778778076e-01
2.339712924781414682e-01,-1.390840333426732744e-01,2.212146864181512573e-01,-1.062261508437522921e-02,4.962637826079015733e-03,1.088375466125570540e-02,3.678883910179138184e-01
2.547348062321454498e-01,-1.218562888049567472e-01,1.796019908594317371e-01,-1.454882773277127450e-02,7.356878346067838303e-02,-5.959275999810691692e-04,3.688422441482543945e-01
2.412136383798009209e-01,-1.389950743448368775e-01,2.448559590634020733e-01,-1.126148672335136993e-03,-2.718161670195496510e-03,6.587720488428921474e-04,3.820785880088806152e-01
2.534725586772550443e-01,-1.070118467023755959e-01,2.417608052941880858e-01,1.822174435194607537e-03,7.976924770222250383e-03,1.455831754468918859e-03,3.550654649734497070e-01
1.646889659229773817e-01,-1.261511910323050434e-01,1.984146094147499484e-01,-1.225554395825671512e-03,8.405572507253519787e-02,1.914582819201203490e-02,3.432702720165252686e-01
2.449412047831764916e-01,-1.354609259224177631e-01,2.418928001253862758e-01,1.688075157362037282e-03,7.090849385886010409e-03,1.806753904458551592e-03,3.791103363037109375e-01
2.172589491614125845e-01,-1.198086608550252008e-01,2.006049326602639682e-01,1.968303271500303382e-03,-3.638150022649601096e-03,1.585103646501063058e-04,3.291349411010742188e-01
2.413466329719297643e-01,-1.375073074407255624e-01,2.444272364175679724e-01,1.463048774259819666e-03,5.595375898182528007e-03,8.604900717603503708e-04,3.805383741855621338e-01
2.118382740342421577e-01,-1.174239330091801509e-01,2.105533783148003102e-01,4.629635022382166108e-04,-6.378878390016739760e-04,-4.538052541473093135e-04,3.286254107952117920e-01
2.229508804712483916e-01,-1.258749682665610825e-01,2.222565331425432611e-01,3.195988404117438165e-03,-4.469086870189354862e-04,2.453992032389987719e-03,3.485499322414398193e-01
2.187332562776097555e-01,-1.205513643599326057e-01,2.088854497254354903e-01,5.093803366888161391e-03,-1.085078828755071424e-02,4.033999102393466020e-03,3.351860642433166504e-01
2.219533295216901680e-01,-1.261041584626940715e-01,2.228329235880852077e-01,2.055993184610630485e-03,-3.319323339487070183e-04,3.589757140675796376e-03,3.485722541809082031e-01
2.244185903069764454e-01,-1.382906252632789823e-01,2.235681656940186057e-01,5.590466103126549499e-03,-4.145536789077638312e-02,8.730997277015546676e-03,3.697679340839385986e-01
2.209981241982698075e-01,-1.289136407546917773e-01,1.921311925027155421e-01,9.222177132839374722e-03,-6.738301604329512140e-03,5.072293658084254045e-03,3.371041417121887207e-01
1.882012231734447871e-01,-1.209398122058569780e-01,2.170002935691159873e-01,8.584936205608122584e-04,9.964319847497956489e-03,-1.805082503354370942e-03,3.249775171279907227e-01
2.180990030613491060e-01,-1.299014193752550672e-01,2.217798339837429022e-01,1.391664961609410944e-02,1.977293182824372067e-02,-1.207442207790333094e-02,3.529731929302215576e-01
2.141850774798118862e-01,-1.234181941504305657e-01,2.273693267362202342e-01,5.507499865302202622e-04,2.970898739785370144e-03,-4.741203256307922193e-03,3.445223867893218994e-01
2.196469200013305700e-01,-1.147205516750509913e-01,2.039537633598674238e-01,6.722468992253947083e-03,1.875273282983123610e-02,-1.840912364842871079e-03,3.286355733871459961e-01
2.392481060617333566e-01,-1.332544762142472972e-01,2.467985836420755752e-01,-1.218822323106090325e-03,-1.039964403866833849e-03,1.995271432458779845e-04,3.763450086116790771e-01
2.376074874123415281e-01,-1.238079490358639234e-01,2.578658804532105719e-01,-3.391172361789558947e-04,7.459432251535928152e-04,4.388075371395978169e-04,3.719621002674102783e-01
2.227310399888612902e-01,-1.182359164016685421e-01,2.231979880860561205e-01,5.695560919542316108e-03,5.228211676805294937e-03,-4.842653451531618233e-03,3.415663540363311768e-01
2.386519954219801787e-01,-1.318270127285981475e-01,2.366507282753044783e-01,7.935956103281792060e-03,2.245795763649705620e-03,7.320543388716195185e-03,3.699758350849151611e-01
2.500701676932024498e-01,-1.311386497408781326e-01,2.202629746709083292e-01,3.770700776292570250e-03,-3.050479793491454763e-04,-5.940489352166519656e-04,3.672735393047332764e-01
2.081576282085685903e-01,-1.253961299340863589e-01,2.190944651391653342e-01,3.156945845767515895e-03,5.134125015833898228e-03,-4.902805998517367411e-03,3.394213318824768066e-01
2.294193047315832845e-01,-1.280007583561289519e-01,2.541190448758767206e-01,-3.418727269567311492e-04,4.101328835990141267e-03,4.413092577083151634e-04,3.704575002193450928e-01
2.315766284881526083e-01,-1.253491867706646168e-01,1.911347106138956420e-01,1.570331786947473662e-02,2.374024774635892857e-02,-6.327822386012699543e-03,3.422681987285614014e-01
2.199192804508912635e-01,-1.223750746196211603e-01,2.127824337788166986e-01,5.086588392349932451e-03,6.162627329856056914e-03,-2.032573217775253752e-03,3.390831947326660156e-01
2.585420375581661823e-01,-1.249331273002202702e-01,2.385670069496161894e-01,-3.907507523187790134e-03,7.136001040396536266e-04,-2.658170519549195939e-04,3.739516437053680420e-01
2.366808711630489781e-01,-1.232192830903753311e-01,2.554350822380325736e-01,-8.233124699068343445e-04,-2.879247829384426298e-03,6.803387324086274026e-04,3.696725368499755859e-01
2.145765545487330894e-01,-3.398425725058618063e-02,3.776389964064873483e-01,-3.561596329668310912e-02,4.186896874356903220e-02,2.874317834752681405e-03,3.714728355407714844e-01
2.391228374808294643e-01,-9.140756827027113340e-02,2.594087580918229552e-01,1.245070130498121021e-03,2.529522740870139737e-03,1.948390902194838299e-03,3.411777019500732422e-01
1.962118665570196652e-01,-1.293370799577602259e-01,2.177001356230723883e-01,2.626028880775703976e-03,8.898879179113038801e-03,-5.879136001017631376e-03,3.373444676399230957e-01
2.422314635504476954e-01,-1.259670634575871251e-01,2.474870510769653642e-01,-1.551936233689028919e-03,-7.327220871117397574e-03,-2.109134248864416952e-04,3.710812628269195557e-01
1.349159201979114320e-01,-7.806640358532640489e-02,4.081293971519648345e-01,7.860320254691861852e-03,-3.340600563300683001e-02,6.985396948391361591e-03,4.264696240425109863e-01
2.406364338968471350e-01,-1.375015063413230765e-01,2.456206225885954608e-01,-8.463269239381133015e-04,-2.956888397472160618e-03,-1.189260319118259983e-04,3.806918263435363770e-01
2.439076050644387872e-01,-1.401758778732152821e-01,2.381491438944269845e-01,8.391947127775342902e-04,-1.691273139441067932e-03,-2.010727598010495637e-03,3.812668025493621826e-01
2.253028899758054149e-01,-1.404103962385645221e-01,2.346900304584785546e-01,-5.164542988587202815e-03,-1.085788179548119719e-03,3.944605725577110880e-03,3.706717789173126221e-01
2.412036641089743139e-01,-1.061645113360319137e-01,2.496098753759936895e-01,-1.438719940540028868e-03,-8.836444495138644217e-03,1.302088391101614059e-03,3.519956171512603760e-01
2.535288305946228893e-01,-1.350129501090306938e-01,2.359705937677941123e-01,1.907119229623143071e-04,-3.173911246358322377e-04,8.013695667664181579e-05,3.800675272941589355e-01
2.406206867782084979e-01,-1.306549196496396836e-01,2.559834562595287299e-01,2.575625699175645013e-04,-2.324025917225458742e-03,-1.180109545112674116e-03,3.792175948619842529e-01
2.334331215562834849e-01,-1.385040986645474925e-01,2.250141700730977634e-01,-3.416283885312420589e-03,-4.917008988986211991e-04,5.396589359944362757e-03,3.679673373699188232e-01
2.373196185825443838e-01,-1.372855209428011647e-01,2.258243897026663005e-01,-3.632228253644190653e-03,1.326686550011191095e-04,5.069173738184136815e-03,3.691499829292297363e-01
2.374730578419689819e-01,-1.295486527227256435e-01,2.495604244502345748e-01,6.708795283421871512e-04,-4.440890157175968710e-03,-7.805076682496671359e-04,3.732957243919372559e-01
1.285772539153827720e-01,-1.239318810744408639e-01,2.634006299264337048e-01,-8.627481244460081730e-03,-1.686160073819378043e-03,-1.088434855063534837e-03,3.409072160720825195e-01
2.413273583869771088e-01,-1.372050122029854768e-01,2.367111082662160526e-01,-7.350632264240086582e-04,-1.263999954123341124e-03,4.248463622996632647e-03,3.763259649276733398e-01
2.321803022326998089e-01,-1.276216397070248088e-01,1.792248164723421466e-01,-4.708297923611886801e-03,7.580456922936626603e-03,8.489398917802475075e-03,3.371399343013763428e-01
2.382507913682160861e-01,-1.373126830837263501e-01,2.465518010796547421e-01,-1.111916107470546471e-03,-2.667544951087978330e-03,1.255632701101248036e-03,3.798212409019470215e-01
2.386785315281789166e-01,-1.058803529777303520e-01,2.529684010518192805e-01,-1.728708346644143318e-03,-9.063125278865279827e-03,9.621454708200161913e-04,3.522880673408508301e-01
2.276033901691571215e-01,-1.468622682312062111e-01,1.084136720664903575e-01,-3.911140789513775119e-03,-9.437413905017347227e-02,3.879769305880373040e-03,3.696061968803405762e-01
2.362106823702956326e-01,-1.382417909227368624e-01,2.279504248887438411e-01,-5.505861038599632086e-03,6.209233543123079825e-06,3.053089962069056515e-03,3.705519139766693115e-01
2.384641192375008545e-01,-1.407100521232417523e-01,2.376653523689756520e-01,-7.648556898513158772e-04,2.329369380281826019e-04,2.449869809873171048e-03,3.788017332553863525e-01
2.389055487927203014e-01,-1.310969620372766098e-01,2.505839586248047035e-01,5.268346281147864244e-04,-5.357921811263719261e-03,1.981933096325802328e-03,3.761090636253356934e-01
2.451739678887948082e-01,-1.286319567180715939e-01,2.428456281707775111e-01,1.031123940655801624e-03,-7.230939106077085080e-03,1.839129980842526017e-03,3.728755116462707520e-01
2.186015146543934806e-01,-1.201364141364679450e-01,2.074807055996739091e-01,4.602501037279221538e-03,2.698047440544110599e-03,-1.685761090837433526e-03,3.334575295448303223e-01
2.445706130769892961e-01,-1.159662182050949786e-01,2.502463074970684986e-01,4.278479927064027070e-03,-8.420884424619343167e-03,-8.511085571860807454e-04,3.637789785861968994e-01
2.525866957025517667e-01,-8.101144771937726641e-02,2.586800295322985721e-01,1.054837581945334765e-02,-5.440996826788546507e-03,-3.714539696686287862e-03,3.373745381832122803e-01
2.555842446717014327e-01,-1.247760265322309936e-01,2.374893701022023906e-01,7.598361675856663260e-04,4.474439197268524626e-03,-4.677025367274056998e-04,3.717273771762847900e-01
1.920937648657578267e-01,-1.398545255775848206e-01,2.372267027699113684e-01,-1.499929845876858160e-02,1.255138955297892972e-04,1.009511903385493627e-03,3.576122224330902100e-01
1.943928719612234290e-01,-1.230409404170940968e-01,2.553876104699261962e-01,6.895056336127003719e-04,-1.886055321493751522e-03,-1.102508352452345177e-03,3.519405126571655273e-01
1.933583508426567898e-01,-1.696769704874840634e-01,2.369966268337633242e-01,-8.894803164966338938e-03,1.767188465906766037e-02,9.904333685596745582e-03,3.885996639728546143e-01
2.454323608548132363e-01,-1.385797534154608601e-01,2.388914606189692091e-01,-5.009953228001037247e-06,1.246268718940845904e-03,1.401828778010551311e-03,3.807976543903350830e-01
2.454256908547302607e-01,-1.235123080855536210e-01,2.414806029374710339e-01,-6.804977191230633573e-04,1.927516347389136983e-03,3.216290887227764902e-03,3.670407235622406006e-01
1.767144809827221330e-01,-1.248509541909142567e-01,2.463537494223178026e-01,-1.115908249661238388e-02,1.308025948723969163e-02,6.391235025251405452e-03,3.432222902774810791e-01
2.487061474760454971e-01,-4.397010638350865031e-02,2.334303020478990798e-01,1.359854148938837142e-03,-5.070024818227672481e-03,-4.466519342516528227e-04,2.854910194873809814e-01
1.445506443462040991e-01,-1.595495381520750655e-01,2.410061517808163023e-01,-1.638344972655438395e-02,2.148627714843786771e-02,5.876409310106420550e-03,3.652486205101013184e-01
1.666065629945787385e-01,-1.275610979163473990e-01,2.426932294416929703e-01,-7.337907468779219719e-03,5.194545930785818277e-03,5.649562703901881561e-03,3.391817510128021240e-01
2.045721682642945849e-01,-1.300672025921706942e-01,2.403408932947495580e-01,-7.409763259793122545e-03,2.597503540708315066e-03,6.579437389829053198e-03,3.543266355991363525e-01
2.121582281863541031e-01,-1.138558130903713356e-01,2.385285603278773925e-01,5.793030400756772613e-03,-9.608742418035932237e-03,1.070949691480683336e-02,3.410269618034362793e-01
2.544658379054529629e-01,-1.337783859397558006e-01,2.379494112257504179e-01,-1.627015113755208697e-03,-2.620684965923019381e-03,-1.671292993859003345e-03,3.803036808967590332e-01
2.423965486435659955e-01,-1.081868131044987080e-01,2.543728951081850598e-01,1.118211614685700375e-03,7.958456117892344361e-03,1.834068435298529757e-03,3.570079803466796875e-01
2.494196625614492902e-01,-1.362482347953081485e-01,2.369695766003049320e-01,5.087653416222283342e-04,-9.783859303907614137e-04,-1.087447333477799694e-03,3.796055018901824951e-01
2.505939711473456621e-01,-6.211655369218599398e-02,2.597410736234052608e-01,-4.286656484508115719e-03,7.741286825439323664e-03,-9.678332230092314553e-03,3.181946873664855957e-01
2.438276949758960976e-01,-1.360169486336372524e-01,2.374424964055195098e-01,4.733221873292103366e-04,-8.643763024946164112e-04,-2.507347444809995309e-03,3.767215311527252197e-01
2.439627318127688960e-01,-1.386651214354502892e-01,2.404372915440348701e-01,1.098206634901440024e-03,4.190017543144611625e-03,1.408648836798281467e-03,3.809590637683868408e-01
3.581471011363529522e-01,-1.595696408307198388e-01,1.343676194748403274e-01,-3.471524160528574078e-03,9.308645817535728291e-04,6.921205798724033571e-05,4.497691392898559570e-01
2.293474449685158345e-01,-1.369274849465596799e-01,2.417395230278850948e-01,5.597031121653100495e-03,4.271483918424950530e-04,-1.637292689357022464e-03,3.727631568908691406e-01
2.282872689180296677e-01,-1.376693663550978552e-01,2.406929644174921612e-01,4.662100238638925212e-03,-2.800137137249501438e-04,-2.110720163254045222e-03,3.724203407764434814e-01
2.515003475082093765e-01,-1.302032807195256936e-01,2.365555161897906766e-01,-1.946710992495606684e-03,-4.634690503883261842e-03,5.480294899253759918e-04,3.745573759078979492e-01
2.258601550784566925e-01,-1.423360195603993739e-01,2.346601512006325496e-01,5.437979875275153474e-03,-6.069980131884679820e-04,-4.787229405387657087e-03,3.728868067264556885e-01
2.494516704113797778e-01,-1.370456588658476305e-01,2.381895944749025662e-01,3.789696258163413991e-04,-1.143592687476234059e-03,-1.174086666694050193e-03,3.810023069381713867e-01
2.860861710024681370e-01,-6.952459747600256423e-02,1.957858599874273964e-01,-9.702508594735960445e-03,-5.578312516379187007e-03,1.875979650239262275e-02,3.223863542079925537e-01
2.388227926817814706e-01,-9.160043639778892022e-02,2.563281440188925897e-01,-1.119920547953050065e-03,-5.367624803643104847e-03,2.169103861132802569e-03,3.396681249141693115e-01
2.378799862718672387e-01,-1.342848513293122825e-01,2.502038067996940618e-01,5.651231025278675470e-04,6.219680113500056576e-04,2.250372683577675850e-03,3.785001337528228760e-01
2.527397314162686537e-01,-7.776894013116497639e-02,2.508382669733327797e-01,-4.825027344192862541e-03,1.005101085601100598e-02,-4.077253767844304932e-03,3.302028477191925049e-01
2.366873920169251799e-01,-1.375798063967765272e-01,2.149102834433885834e-01,4.636731665749696529e-03,-1.864018038851678223e-03,-9.819530641136404309e-04,3.639746308326721191e-01
2.393203280841185165e-01,-1.283079196301269154e-01,2.558964900793694319e-01,1.977445525866144017e-04,1.992588677423528729e-03,-2.554326555738508156e-03,3.762323260307312012e-01
2.254449396970039099e-01,-9.645017728102894816e-02,2.557013754028970576e-01,1.956001284687824710e-04,-1.560532664041068551e-03,2.507546279103292815e-03,3.380792737007141113e-01
2.327204700637200141e-01,-1.446928007395392735e-02,2.410251030984854603e-01,-7.254636370370400110e-05,5.772375515532522650e-04,-4.186941452341030531e-03,2.515515089035034180e-01
2.404161385417755703e-01,-1.069750057881289629e-01,2.585453387487499088e-01,-3.951873003591810721e-03,6.270455214409893785e-03,-5.510194658023073039e-03,3.571597635746002197e-01
2.354296024764424566e-01,-1.376777459359241340e-01,2.275930784327858114e-01,5.899276193584259038e-03,-5.585692004269256645e-05,4.391983997278550017e-03,3.694711327552795410e-01
2.219833568836061255e-01,-1.288054148217699368e-01,2.520793171186276327e-01,9.202820334769295303e-05,2.587377713306923156e-03,1.285915187342782858e-05,3.667914569377899170e-01
2.538926987185856632e-01,-1.353584281489961794e-01,2.354223101988355826e-01,9.864973534096492264e-04,8.307470196265844898e-04,-9.950172584493226571e-04,3.803628981113433838e-01
2.378444103522947550e-01,-1.371999295516665718e-01,2.467356648530566188e-01,2.215948776131694206e-03,7.238922527013677121e-04,2.740453984416522590e-03,3.796192407608032227e-01
2.607240269486565398e-01,-5.703342409822040326e-02,2.459365503093183247e-01,-1.506198877364120503e-02,-2.892642702662692744e-03,-2.543321699219672476e-04,3.117619752883911133e-01
2.396308900921780560e-01,2.590301614964235499e-03,2.399414577658094960e-01,-2.167267158925559843e-03,-2.253563384154572396e-03,1.948913291801202430e-04,2.372580766677856445e-01
2.580317510777772050e-01,-1.054160438513941089e-01,2.437434387643647171e-01,4.282015311300934809e-03,-4.385016027302315184e-03,-1.276710254997715020e-04,3.566765189170837402e-01
2.385444431670769305e-01,-1.365097994975534301e-01,2.421544189467104702e-01,4.724752763730449140e-03,1.855670384521405838e-03,-5.147574252406948345e-05,3.769747614860534668e-01
1.670984016914404124e-01,-1.217141684088136611e-01,2.289391270346516072e-01,-1.572636939074073363e-03,8.857594868436038243e-03,5.335015630800023570e-04,3.245627880096435547e-01
2.359207906500259133e-01,-1.384998536175394701e-01,2.211958741302244569e-01,-8.802474599231252528e-03,1.721912567022340287e-02,1.687556293961693654e-02,3.699603080749511719e-01
1.584153328982839115e-01,-1.308990086767432837e-01,2.539004482436311716e-01,-9.614050923649404209e-03,2.216446574923465127e-02,6.910612374208991056e-03,3.497710227966308594e-01
2.442987992756510685e-01,-1.383309881505510042e-01,2.386567662637319731e-01,-1.691432449800202168e-03,-2.696404260223413465e-03,3.721153661432022048e-03,3.799348771572113037e-01
8.525179438032973178e-02,-1.756676232570646423e-01,3.804617712398076224e-01,7.862354660353763208e-03,1.664366199768026189e-02,1.459144022119541161e-02,4.836415052413940430e-01
2.491866376923037862e-01,-1.378686860225478983e-01,2.414393330746602007e-01,-2.332601484490187563e-04,-7.726767082124795516e-03,1.388767522132658676e-03,3.834817707538604736e-01
1.570551597220533613e-01,-1.278752319345911326e-01,2.551897445842301604e-01,-9.854928094800569083e-03,1.861800308087347908e-02,4.424103847022721470e-03,3.466514348983764648e-01
2.312415876993712538e-01,-1.264193492874520763e-01,1.613945432331995167e-01,-4.454509513411549979e-03,2.264028057612948314e-02,3.472605153376061120e-03,3.308350741863250732e-01
2.546819905357871616e-01,-1.334872803340483860e-01,2.343350957007089008e-01,2.453156893269948201e-03,2.864096029685288952e-03,1.590741640063317352e-03,3.784727156162261963e-01
2.522447336820791697e-01,-1.353283761910146210e-01,2.365093234204698747e-01,2.055812226456224068e-04,-1.844705122711740161e-03,9.629181006944620988e-04,3.799671232700347900e-01
1.557446466136457319e-01,-1.299729347449040950e-01,2.407960089520504166e-01,-8.059730463328983879e-03,1.746795753232564113e-02,3.897062396275205107e-03,3.381194472312927246e-01
1.625301522651764197e-01,-1.276201132744700928e-01,2.445881489967466904e-01,-8.363923477529369016e-03,6.948482859657211484e-03,5.018500772815837757e-03,3.393524885177612305e-01
1.721223218191293425e-01,-1.267504387380912201e-01,2.423124121607045656e-01,-8.728317280089159524e-03,4.205668523196390805e-03,7.390636231111094578e-03,3.401102125644683838e-01
2.122070847850583697e-01,-1.265718235047650353e-01,2.163238712028238697e-01,1.391847366306571757e-03,5.857408286564971117e-03,-4.325106296308134715e-03,3.410976827144622803e-01
2.326864169393471904e-01,-1.373538369344893262e-01,2.297026143496253558e-01,5.725541524442437184e-03,-6.428802820677055618e-05,-3.979579040472388043e-03,3.687552511692047119e-01
2.265125573405825654e-01,-1.323762215492644279e-01,2.171572832920743990e-01,5.134414120176273785e-03,1.905129507503207842e-03,-3.012972226404057006e-03,3.544691503047943115e-01
2.484075894384992211e-01,-1.368175694905898743e-01,2.367686749408665636e-01,6.372598332558991130e-04,3.372844152590848219e-03,1.160022946079112757e-03,3.795914351940155029e-01
2.191271072208917092e-01,-1.224331488715636879e-01,2.062720842206107186e-01,5.378292072052964085e-03,2.059103052404515251e-03,-2.367270854530081556e-03,3.354910016059875488e-01
2.204351734389336792e-01,-1.284900546772996255e-01,2.198198645785656158e-01,4.047596127136289003e-03,1.945809766423360707e-03,-5.074096205846085998e-03,3.488155007362365723e-01
2.208807295847000640e-01,-1.235171785573382086e-01,2.012812718302078863e-01,5.345332779831826232e-03,2.994005279510113075e-03,-2.339382449104489801e-03,3.352209329605102539e-01
2.510001442848872610e-01,-1.356154134603135553e-01,2.391777974473697777e-01,-4.804144950575965590e-04,1.218171221479874252e-03,6.168261364941354449e-04,3.808502852916717529e-01
2.216470372316775850e-01,-1.330986726485794414e-01,2.139130443517638924e-01,8.970911918557672449e-03,4.400019929035317232e-03,-8.088862261968301701e-03,3.516483008861541748e-01
2.308662392873351288e-01,-1.382936100444212002e-01,2.279727998176875603e-01,4.405540417948050624e-03,2.093185611079335581e-03,-6.082445835101655054e-03,3.679695427417755127e-01
2.091565989280026461e-01,-1.263786717282019412e-01,1.789315119424241540e-01,3.755822762594898494e-03,2.931797689246368535e-02,-4.951033800258281166e-03,3.256537616252899170e-01
2.200543963040159368e-01,-1.287112885298603571e-01,2.195783122492258599e-01,5.650379612409054536e-03,3.892775193827675926e-03,-5.120942639910381483e-03,3.488432466983795166e-01
1.768120889931908135e-01,-1.215739191206599568e-01,2.315712408286433877e-01,3.176667520130095016e-03,1.146733589279652285e-02,-4.538696482486523874e-03,3.299374282360076904e-01
2.197585511659934654e-01,-1.265859865165236409e-01,2.261341680946326593e-01,3.709118625970414355e-03,1.342622190700409369e-03,-5.719892565786673447e-03,3.497830331325531006e-01
2.115992233017358060e-01,-1.298056077105669837e-01,2.248181716816554099e-01,4.581406901443086516e-03,4.069051393623025412e-03,-6.590323257398067631e-03,3.485512137413024902e-01
2.393084732030630324e-01,-1.365938480047719228e-01,2.452139602488438430e-01,2.927708764781438919e-03,2.665987398642708124e-03,1.445647259316875472e-03,3.789599239826202393e-01
1.966983327923755576e-01,-1.227017211715420997e-01,2.188340935367694973e-01,2.922049476059477343e-03,5.562428227736988459e-03,-3.821150671689172319e-03,3.312684595584869385e-01
2.470391930816331072e-01,-1.365271510813317601e-01,2.382730507208513093e-01,-1.978232850325334358e-03,3.624498474337068624e-03,-2.501853116982324932e-03,3.793514370918273926e-01
2.498730086657995342e-01,-1.299821874442373959e-01,2.357248717550322337e-01,1.494050515431640750e-03,7.736755703932445861e-03,2.309650576238554166e-04,3.732322752475738525e-01
2.414619574352795395e-01,-1.338987036994890856e-01,2.404980291768751277e-01,-4.372488778677020328e-03,3.814455148672804552e-03,-4.802550911743256462e-03,3.751065731048583984e-01
2.434692650159508420e-01,-2.095844977685551447e-02,2.520030140685297071e-01,-1.156975918352359193e-03,-6.331651863776793787e-03,-2.334695303559494348e-04,2.690275907516479492e-01
2.405064060585582197e-01,-1.395716722001100751e-01,2.366345489266480639e-01,-1.354589028629105173e-03,6.604342443195100436e-04,-2.305262413503227949e-03,3.781870901584625244e-01
2.470001761058484568e-01,-4.875850169947831825e-02,2.354548526200255509e-01,5.666705877890165907e-04,3.435702528611465478e-03,4.678197729480496557e-04,2.902221381664276123e-01
2.464043920439688562e-01,-1.385640990793538530e-01,2.401017712569755991e-01,8.472171587739073007e-06,4.674201531226426787e-03,-1.635225540614474219e-04,3.819421231746673584e-01
1.819786671588239368e-01,-1.424157506336007351e-01,2.522378786064860545e-01,2.548313278024055134e-02,-3.711167559859925589e-04,5.934598402832738651e-03,3.674425482749938965e-01
2.979617261462453315e-01,1.781380342622534974e-02,4.254624204817450961e-01,4.728559020195000073e-02,-4.538984645131456663e-02,-2.758957159145702942e-03,3.786418735980987549e-01
2.533516774201629018e-01,-3.102993937799447544e-03,2.545176674102943570e-01,-3.537368044919772699e-03,1.398721324390472505e-03,-3.004935471935509580e-03,2.571767568588256836e-01
2.349814592763097565e-01,-1.089361926450957418e-02,2.420127537911726801e-01,2.941316304337586842e-04,3.265548458941433096e-04,-1.197160381242510542e-02,2.503264844417572021e-01
2.378027267233415454e-01,-5.658700173752889695e-02,2.436235324667510027e-01,-1.068857263532293003e-02,8.773376792148464276e-03,1.595104447611797854e-03,2.983187437057495117e-01
2.449951797058784742e-01,-6.630430597260522640e-02,2.466838625034214472e-01,6.594538636631580835e-04,7.657877915111392479e-03,-7.711401213712512040e-05,3.124310374259948730e-01
2.346344773532970385e-01,-8.375198719957641091e-02,2.526891743529683376e-01,-6.977083005351243563e-04,1.729807609258243771e-03,-6.634395036919113996e-03,3.280042111873626709e-01
2.395849985922984537e-01,-8.688499936325089212e-03,2.516060597522702391e-01,1.068473137082791638e-03,5.539208777226725146e-03,-2.398514631539758017e-03,2.547184228897094727e-01
2.634176915701317290e-01,-2.576844672161318628e-02,2.558102021827466932e-01,9.423989550510309884e-04,-9.997421158861236924e-04,-1.833292091153103723e-02,2.872289419174194336e-01
2.665239231525875496e-01,-4.345802902280371249e-03,2.985638561410480785e-01,3.808600315649345730e-03,-3.980553506620661611e-03,-1.754783797197281142e-02,2.899835109710693359e-01
2.348409049920330560e-01,-9.872359924850332424e-03,2.421646438945204982e-01,2.234224811265566810e-03,6.934908547095734645e-04,-1.207419956721024132e-02,2.493676245212554932e-01
2.225760569667680211e-01,-1.294981109963116439e-01,2.512899525587127258e-01,1.314144628747855592e-03,4.685683873115529369e-04,4.184272559988324106e-03,3.673533499240875244e-01
2.466365867068539830e-01,-2.511269063954524317e-02,2.474995674028615256e-01,-7.125941532658951021e-03,8.840047587872327389e-03,-1.175177086067546312e-02,2.736494541168212891e-01
2.506895085697516956e-01,-1.294939044245552451e-01,2.187817743531073056e-01,-9.325077778259210307e-04,2.648746574665352196e-03,1.441302508245199173e-04,3.653087019920349121e-01
2.405025932682994250e-01,-1.355845154486918780e-01,2.534202448367291471e-01,-3.955894583924605555e-04,1.361414990808066045e-03,1.054290780558544928e-03,3.827217221260070801e-01
2.467459904305014939e-01,-4.924773014697331197e-02,2.283543033736467054e-01,3.944939277783744637e-04,-8.553940802648403365e-04,1.449639754775458676e-03,2.872554361820220947e-01
2.529502935531497965e-01,-9.415550706955053140e-02,2.359717424687162446e-01,3.508098723675551634e-03,-2.488081939609147926e-03,-4.363720765771378352e-03,3.391017019748687744e-01
2.510059252631350324e-01,-1.330534991639586995e-01,2.402474073300942259e-01,-1.604193509030577306e-03,-5.947896592264922695e-04,3.590144515892845236e-04,3.788068592548370361e-01
2.549172708097164897e-01,-1.326404348322379467e-01,2.395472750790479388e-01,7.593658057111472327e-04,-4.715458577477274179e-04,-5.442068958865912444e-04,3.801101744174957275e-01
2.536638412306424506e-01,-1.356318850680615917e-01,2.362002441670164044e-01,9.719991414811364602e-04,-8.981155434323753826e-04,9.282015479070156823e-04,3.808746039867401123e-01
2.539537457686776856e-01,-1.286683159588671022e-01,2.345592124747827856e-01,3.156836282558371986e-04,-5.752543733798813098e-03,1.618599864117878677e-03,3.734467029571533203e-01
2.466236399787508915e-01,-1.238593449912177014e-01,2.408934678321348888e-01,-2.505399675399488024e-04,-1.634533050172433345e-03,-5.557444123298374257e-04,3.676638007164001465e-01
2.483772522907134461e-01,-1.060106949791713715e-01,2.388480653226069950e-01,-9.302086715388715706e-04,-8.495469874156485329e-03,1.377111190740963696e-03,3.500419855117797852e-01
2.452147125418186191e-01,2.744628342139102117e-02,2.455203070249660779e-01,-2.002132930961116573e-03,-7.982903426711549085e-04,-9.089346419874541269e-03,2.185212075710296631e-01
2.067546255694583113e-01,-1.257277244153583717e-01,2.226704409004009177e-01,-1.212114787125065461e-03,-4.690237438691883913e-03,-5.988348592752315222e-03,3.409802615642547607e-01
2.609592547865340340e-01,-9.799963405287806517e-02,2.437366074376882685e-01,5.931824104489131361e-03,3.225986511442314737e-04,-1.542824538064249446e-04,3.508159518241882324e-01
2.279840669921328611e-01,-5.360485516784252447e-02,2.424989506685909235e-01,1.163791442810613221e-03,-1.016996779814999946e-03,-1.526340291417595512e-03,2.891442477703094482e-01
2.530210543233096243e-01,-1.051348520305999124e-01,2.367547974140276623e-01,-7.237796916715291847e-05,-9.187958917503425207e-03,1.937838125902433765e-03,3.506835103034973145e-01
2.544218698467405337e-01,-2.178145586622493024e-03,2.468219134597779141e-01,4.285243270707697789e-03,3.031269784192026917e-03,7.025751899776065505e-03,2.533414959907531738e-01
2.581705911662437458e-01,-1.009231444489062934e-01,2.380790224309132785e-01,6.424958107298890837e-03,-2.033694680921923834e-03,2.697759544516067096e-04,3.496765494346618652e-01
2.504713937876806851e-01,-1.289371515863346473e-01,2.372492758203241237e-01,-4.559871975523479442e-04,-5.532333517726929425e-03,9.508974859784593246e-04,3.731008470058441162e-01
2.487278434650133652e-01,-8.515824148278106076e-02,2.290489660118974480e-01,8.607114340989503037e-03,-4.571872180965706549e-04,2.194523407961195514e-03,3.248599469661712646e-01
2.506332921334777364e-01,-1.343555904694552217e-01,2.376795356012802174e-01,2.201794547713999996e-03,-6.901967016067171853e-04,-8.276273175790818974e-04,3.787020146846771240e-01
2.582274325951953164e-01,-1.261716186112210036e-01,2.386060929975702405e-01,3.108452239328273609e-03,3.388107065580905626e-04,-2.508537358717015647e-04,3.750129640102386475e-01
2.533940030012485356e-01,-1.347094633219865778e-01,2.375127795523370444e-01,-9.990665070027542928e-04,-2.021031499009495573e-03,5.136436079651222984e-04,3.804326355457305908e-01
1.979322660822110946e-01,-1.230553232759330068e-01,2.001095192214277507e-01,8.023367742094194037e-04,-1.588950235109096859e-02,6.546383127465266226e-04,3.232603967189788818e-01
2.281530787596476595e-01,-1.181548215402021262e-01,1.839142884277232548e-01,2.489170736818266307e-03,6.598001028000875096e-03,1.605908027730459605e-04,3.266730010509490967e-01
2.042427972602621211e-01,-1.150856201984115784e-01,2.180078987363532339e-01,-6.934686209572507153e-05,-2.450932647347831006e-03,1.617283537322154827e-04,3.264564573764801025e-01
1.722117511159729220e-01,-1.311126561122065159e-01,2.210692688326183486e-01,3.737407235311348847e-03,-1.310526952457748313e-02,7.480782529124855099e-03,3.315681815147399902e-01
2.378435961404442578e-01,-1.385278320520851314e-01,2.445721102785826662e-01,1.322142234868625308e-03,-1.007198091324303969e-03,-3.974680017508053892e-04,3.797919154167175293e-01
1.906671968055538013e-01,-1.203203172297475643e-01,2.162828903177928808e-01,3.389730857742633517e-04,-8.670733468306600009e-03,2.228139467215300810e-03,3.249251246452331543e-01
2.548254600024323913e-01,-1.427972917322984925e-01,1.636474982952524082e-01,-6.727475790809549910e-03,6.756902342882302459e-02,-3.210832255412905938e-03,3.795079290866851807e-01
2.562001193106228092e-01,-1.333592117264475740e-01,2.344901304214807025e-01,5.378773694815750829e-04,-8.697861783828147010e-04,-3.487428867316244097e-04,3.791753947734832764e-01
2.569963660408300932e-01,-1.318143736130042987e-01,2.370835957289943730e-01,7.931337664738658325e-04,-8.865480928382216174e-05,-1.712258491347686852e-05,3.792491555213928223e-01
2.084520842242224836e-01,-1.214262170805026630e-01,2.200274713237819202e-01,-7.241391842449291551e-04,-1.783413848793616741e-03,-4.801646516488611988e-03,3.359351754188537598e-01
1.913838551175628955e-01,-1.198207095561164420e-01,2.199501852477601938e-01,-2.015907009406940501e-04,-6.921353037093509568e-03,-2.625208681234795106e-03,3.266784250736236572e-01
2.110865458444750598e-01,-1.202625212360131923e-01,2.199025573557484570e-01,-1.448671316834156033e-03,-3.052602936366184856e-03,-4.138113452250482410e-03,3.359713256359100342e-01
2.611053959757433929e-01,-5.079336647305771058e-02,2.377678852376282070e-01,-1.303339899847394748e-02,-8.415023226776204577e-04,1.678330652146830040e-03,3.017726242542266846e-01
3.207803943017055182e-01,4.282481909018240329e-02,4.241965283709634438e-01,6.048786793611882207e-02,-3.243132734575485121e-02,1.423586889600817829e-03,3.617140948772430420e-01
2.112736491100094816e-01,-1.159962842673604028e-01,2.117236382147518747e-01,7.473918948883073211e-03,-3.371257743599475470e-02,9.564682675174383114e-03,3.333237469196319580e-01
2.142302940414115842e-01,-1.186420294676909792e-01,2.046896291371070875e-01,-1.936201041065900921e-03,-3.988107580261735646e-03,-9.820711883400062934e-04,3.283002376556396484e-01
2.164928753086066415e-01,-1.315677345228017936e-01,2.184448218578426693e-01,-1.305988690848862085e-02,-2.120439659475454458e-02,-1.632768983831627690e-02,3.528310358524322510e-01
2.508036408863826838e-01,-1.593810094807554534e-02,2.553495326854926528e-01,1.045845018317893664e-02,6.857598264674831003e-03,7.449886833717096410e-03,2.702223658561706543e-01
2.479087629241328306e-01,-4.703951112609003338e-02,2.396348313430188282e-01,5.699416020003003278e-04,2.106417475125104376e-03,5.047181267266971985e-04,2.909254431724548340e-01
1.991914964288322154e-01,-1.137022075212945210e-01,1.899494177471707512e-01,-4.297675132867772923e-04,-8.743068922875874005e-02,-1.164283306749577460e-02,3.441448807716369629e-01
2.583726705040167992e-01,1.229790964053453783e-02,2.773484576119919498e-01,6.330092379241533847e-04,4.652380031235664893e-04,2.075413543807398675e-02,2.586046755313873291e-01
1.668062326889000746e-01,-9.008590582646738842e-02,2.607277329755425255e-01,-5.952106088716088272e-04,-5.024087104232632939e-02,2.076821263682911839e-02,3.283442854881286621e-01
1.943531114109067759e-01,-1.281411419328121748e-01,2.283299623905143128e-01,9.905534944086046879e-04,4.556591311599775956e-03,-6.910961895755383250e-03,3.410613238811492920e-01
2.050418630501755768e-01,-3.030915196453456972e-02,2.618704064635827278e-01,-8.484321469945130625e-05,-1.951103532436771967e-02,1.143904019094573593e-02,2.711620628833770752e-01
2.833594778715371465e-01,3.472608232648841109e-02,2.754778770258395904e-01,1.927585017168745307e-02,-1.062177518715985355e-02,-6.373427414556462160e-03,2.479839920997619629e-01
2.833913877064805908e-01,2.460020705694898613e-03,3.639510417939620934e-01,-1.190828106415503691e-03,-4.671246301633437403e-02,-8.904650993804947255e-04,3.385215103626251221e-01
2.466547367824957204e-01,-1.152619842533478267e-02,2.511367650451621913e-01,1.887071565766918054e-03,-1.460011153673731121e-04,5.072928750923454480e-03,2.606196701526641846e-01
2.824105996607555458e-01,-2.334073138105094425e-02,2.858154695353065100e-01,1.772251428355486186e-02,7.540850534028849771e-03,1.970280741873260688e-02,3.111494481563568115e-01
2.326616433367061920e-01,-1.370209033337394522e-01,2.329327988089447410e-01,-6.369461313199191281e-03,-1.473220696394985426e-03,-4.758555283335895794e-03,3.700833022594451904e-01
2.519776101989622541e-01,-9.010043431307132589e-02,2.294126367560294921e-01,-2.550302165523697347e-04,8.869065390615988751e-04,-4.410532043911042548e-04,3.313769996166229248e-01
2.366249828130841670e-01,-1.336118048151041515e-01,2.378747564763835642e-01,-4.960859787920799541e-03,9.556526471301968455e-04,-3.066093666136393212e-03,3.710044920444488525e-01
2.389295657162502917e-01,-1.333238516242198912e-01,2.387487350105355066e-01,-4.365964901137190865e-03,1.253039303133830166e-03,-1.433116876312665131e-03,3.722544610500335693e-01
2.495525782981380392e-01,-1.051154999089615183e-02,2.446704713764821792e-01,-1.081326715911987493e-02,6.291765404062439268e-03,-6.226713196579542614e-03,2.587921619415283203e-01
2.394649968246357064e-01,-1.373033343413444241e-01,2.451175212818788030e-01,-2.170546859976539393e-03,1.049482283000597801e-03,-2.427922087925528296e-03,3.796724081039428711e-01
2.398918740436070673e-01,-1.392471448546428459e-01,2.419945997501801171e-01,-5.627283879309924203e-04,-3.666897392060282368e-03,5.574833431663953672e-04,3.802502751350402832e-01
2.353354766162004119e-01,-1.375994816466330484e-01,2.286875102514527858e-01,-5.923898700995074845e-03,-8.378052341725182421e-04,-4.128039681635849341e-03,3.698701560497283936e-01
4.639827000233676668e-01,1.051819566946537998e-01,4.183711776053996023e-01,-1.347112077262636702e-02,-3.694753377437666898e-03,-3.528965340392459238e-02,3.446365892887115479e-01
2.559405418361987983e-01,-1.283204962673404614e-01,2.344061039614888098e-01,2.763690674114016414e-03,-1.874217125163473623e-03,-3.307084723127521469e-04,3.740043044090270996e-01
2.383933972710428617e-01,-1.353822190490690802e-01,2.394910344004178848e-01,-2.604442927901061758e-03,3.440569996243170951e-03,-2.035230404476635196e-03,3.744168579578399658e-01
2.402128880287563995e-01,-1.323586086709860887e-01,2.460811890045047079e-01,1.203746823726976715e-03,4.083186337832362713e-03,-5.446756678594961119e-04,3.756136000156402588e-01
2.394340338648451860e-01,-1.380003604953060070e-01,2.461810456300830285e-01,-2.737759087650704602e-03,-3.352924546033001548e-03,8.852148913233345287e-04,3.809295892715454102e-01
2.668951634238193038e-01,-1.468366318788400515e-01,1.733150244593724132e-01,2.486852930505338913e-03,-1.395478085882267960e-02,3.324778998760910542e-02,3.809634745121002197e-01
2.283322438619969363e-01,-1.349727417185144218e-01,2.442501402160329183e-01,-6.513264594904087310e-03,-3.835244495867464625e-04,2.994140784093328195e-03,3.717277944087982178e-01
2.022607945720620859e-01,-1.212466242659688692e-01,2.381549235653310781e-01,-3.640483019812379081e-03,5.381008826710378251e-02,1.240708163711069789e-02,3.560134768486022949e-01
2.556912261384411966e-01,-1.265585917055494503e-01,2.323569134045658513e-01,9.095830154700917014e-05,-1.786445096382188258e-03,9.787409918674563024e-04,3.711500465869903564e-01
2.506430817125325228e-01,-1.366821457714285648e-01,2.392137460044458652e-01,8.058034710415662221e-04,-4.151882498993952897e-03,2.139600592457055386e-03,3.818271756172180176e-01
2.194809437871390323e-01,-1.365029078716684940e-01,2.172140672913609460e-01,-7.288882622957830286e-03,1.500215870702392706e-02,1.046685258769761671e-02,3.564911186695098877e-01
2.486758992885946262e-01,-1.319513316385650392e-01,2.455258742115454806e-01,8.059551858365132963e-04,2.243853305361170891e-03,-1.163118914945497227e-04,3.790845870971679688e-01
2.507528009531537205e-01,-1.346196054737064940e-01,2.377571377510456496e-01,-2.107833200344408960e-03,-2.466980073951659160e-04,-1.267116522289362789e-03,3.790658712387084961e-01
2.279026262400616343e-01,-1.396041520779010559e-01,2.341279676230708651e-01,-3.633531914669878207e-03,1.297773078377381520e-03,4.682449745801192491e-03,3.708076179027557373e-01
2.405011073175742087e-01,-1.272537978333019293e-01,1.979338229873937871e-01,-1.813255418879194947e-02,-5.517907250087150661e-02,-2.256316066836730472e-02,3.647590577602386475e-01
2.380599214250194440e-01,-4.159049166419320764e-03,2.483066483340635455e-01,-5.370127229565083669e-04,2.726527924091357545e-03,1.187580127810429140e-02,2.484013885259628296e-01
2.482740626183219390e-01,-1.300566005873492748e-01,2.377999450372942358e-01,5.887465189944794631e-04,-5.092017356043307581e-03,-8.214472452706662962e-04,3.733121454715728760e-01
2.388664579869294868e-01,-1.367038993900009380e-01,2.408059608820113384e-01,-2.091495641436453938e-03,-3.576335079577851617e-03,2.838931586723989105e-03,3.766443133354187012e-01
2.502527346547179787e-01,-1.375372781867187366e-01,2.406479648753376277e-01,1.012721913508169997e-03,-3.324771828453045551e-03,-1.775983977721650245e-03,3.831375837326049805e-01
2.411075101895122641e-01,-1.376688301194916586e-01,2.423115272546734200e-01,-2.595272514704945362e-03,3.093339029087423513e-03,-1.836597163305820615e-03,3.794575631618499756e-01
2.392969212515918265e-01,-1.383454140495643525e-01,2.438734173573865460e-01,-1.416819259321109442e-03,2.595912339505220510e-03,3.901955099936963356e-04,3.799863755702972412e-01
2.709124191309987273e-01,-1.416931615951299572e-01,2.097911322938048051e-01,1.476229046601783106e-03,-3.329442262580477319e-02,-2.899707917482738720e-02,3.932108581066131592e-01
2.068307745578722434e-01,-1.187500358509590709e-01,2.205749386791037714e-01,2.436189578982077622e-03,2.133563047051656187e-03,-3.335321040269071096e-03,3.327633440494537354e-01
2.386497267026636560e-01,-1.297616979070184418e-01,2.207844988786491491e-01,-6.237083189573533124e-03,-5.721406290661462841e-03,-5.666674740960744167e-03,3.602438569068908691e-01
2.322669176791928303e-01,-1.317072794908606959e-01,2.434070361284324524e-01,7.885564856761943797e-03,1.552053552045302336e-04,-2.462847471821341325e-03,3.699470758438110352e-01
2.448578358442144720e-01,-1.271569888468932485e-01,2.459358870276156517e-01,-1.546803546462367568e-03,8.312580434209442676e-03,5.671079128794587285e-04,3.728440403938293457e-01
2.406584931709968289e-01,-1.299616657507436379e-01,2.530566445520087138e-01,-8.347241820131750525e-04,4.071912309112600548e-03,3.280321033568728197e-03,3.770837187767028809e-01
2.097481883294910476e-01,-1.247343211414328745e-01,2.209497362988244173e-01,-3.086613081963126767e-02,-5.646581105507562232e-02,-1.189737257296189649e-02,3.586066067218780518e-01
2.586163012037890896e-01,-5.664243591420631274e-02,2.394272365805441560e-01,-1.138163447593176780e-02,3.173588145961542522e-03,8.618988320917889655e-04,3.068026006221771240e-01
2.385619751232412877e-01,-1.403063741265159758e-01,2.405651520605617821e-01,-5.287175336741996128e-04,3.612165355336687238e-03,-7.444504000730210063e-05,3.799265325069427490e-01
2.496438817173044777e-01,-3.189225594085712268e-02,2.300034797254133789e-01,-2.829257148589260748e-04,-1.440770043149353736e-03,1.747900899037883242e-04,2.722598314285278320e-01
2.430562349192948723e-01,-1.300960510582483409e-01,2.450828140716700132e-01,1.010958548857568369e-04,5.559390040000036261e-03,1.885879120837160184e-03,3.743078708648681641e-01
2.356549189557598512e-01,-1.345159889226448247e-01,2.534974601622722590e-01,2.204396236488592557e-03,-1.685679063718119417e-04,2.112467756558202296e-04,3.794264793395996094e-01
2.343127033429504569e-01,-2.555179818419878179e-03,2.344300984134907728e-01,2.392456668862000778e-03,-8.800476103012297045e-04,-4.558860286069694057e-04,2.369690537452697754e-01
2.487673140992888166e-01,-9.897424094609655332e-02,2.460483681613328533e-01,-5.679476966362960282e-03,8.695841519715277051e-03,-5.590435415637876049e-03,3.469920456409454346e-01
2.453495306115220653e-01,-9.228643274076023251e-02,2.619882091041211281e-01,-1.164495558403707371e-03,-3.225278740917439423e-04,7.095947918011182715e-03,3.464796543121337891e-01
2.348705354745395379e-01,-1.363675936781064968e-01,2.502691614673900888e-01,-5.535754898653342214e-04,-4.951240009054823929e-04,-5.786983414939114853e-04,3.791755437850952148e-01
2.347714419754960979e-01,-1.321413611533344690e-01,2.535085771539368760e-01,-1.386245030100896961e-03,-4.072400547782326470e-05,4.202167842699603925e-04,3.766394555568695068e-01
2.518821269060815271e-01,-1.097576671926974168e-01,2.403332320005006073e-01,3.653940254311667873e-06,-9.593740384547936803e-03,-1.243352021491077449e-03,3.563999533653259277e-01
2.383726009224909070e-01,-1.177058308206179460e-01,2.555544577389380345e-01,3.325138410468955752e-03,1.890008693736309814e-03,1.865762816411957545e-03,3.650472462177276611e-01
2.402250304794192881e-01,-1.343552463304049649e-01,2.485233440025438889e-01,-3.513891145848941321e-03,7.589844613813397783e-03,1.504729445109366254e-03,3.790834844112396240e-01
2.377815861997462643e-01,-9.574265269835427472e-02,2.577533594379387005e-01,-1.057911278815775510e-03,2.572253461887848321e-03,7.034740176247168165e-03,3.441947698593139648e-01
2.371091513003739659e-01,-1.079011375544010609e-01,2.526874048412111051e-01,9.544121466522496660e-04,3.781166230371973969e-03,-8.990151258410733178e-04,3.531253039836883545e-01
2.389017943355050688e-01,-1.338906298444167975e-01,2.555028386627856696e-01,8.803071313917021920e-04,-4.462545083968234871e-04,-4.616617094337043654e-04,3.813686966896057129e-01
2.459748432093216142e-01,-5.953932161666525280e-02,2.444073030559753834e-01,2.172170922548505648e-03,-7.095744691355178151e-03,4.849611292612400655e-03,3.051199913024902344e-01
2.169366798632747784e-01,-1.309122200241867873e-01,2.427084878493967479e-01,-6.526034905856500923e-03,4.533294572157985157e-04,2.962601990557063927e-04,3.616025149822235107e-01
2.265148094729125261e-01,-1.172382364102861896e-01,2.099067775992519702e-01,-6.178059265882894328e-03,-1.310099469441302310e-02,-6.865023114926448178e-03,3.369031250476837158e-01
2.052127741837370678e-01,-1.267486485943330465e-01,2.896455359724665057e-01,-5.005540672736293051e-03,-5.527086396934131896e-03,-1.571771312869315760e-03,3.814838528633117676e-01
2.520412671559715267e-01,-1.916923013733601300e-02,2.529963100662391828e-01,-3.862949707219130117e-03,-5.605462387874915638e-03,1.263512824087349544e-02,2.728241682052612305e-01
2.367129254757625589e-01,-1.339760672032237199e-01,2.452469849921096734e-01,-2.595776046834910242e-03,8.960287614500152037e-05,6.946715867367412277e-04,3.750577569007873535e-01
2.400128839369246037e-01,-1.739510042469138984e-04,2.360021673670965325e-01,1.541086941516690238e-03,-2.697534852765410933e-03,-5.064159997303634576e-04,2.382691800594329834e-01
4.520319186246499199e-01,8.971682839517708397e-02,4.685265240133920650e-01,1.142711549191140555e-02,-1.755679285446884452e-02,9.191326202094566439e-03,3.729483187198638916e-01
2.429449117386498491e-01,-8.436372649126414047e-02,2.503440510151784815e-01,-1.841724696926367623e-03,1.101543154981001783e-02,-1.049750936355700777e-03,3.316398561000823975e-01
2.387834069409395243e-01,-1.379644804826328230e-01,2.466927642076613969e-01,-3.456187644055849339e-03,-2.108426724649789768e-04,-3.690705555184111211e-03,3.808650672435760498e-01
2.391881857540494316e-01,-1.254766016912676752e-01,2.285443531354768576e-01,-7.194124338551512003e-03,-3.209900498581568732e-03,-6.790225951066980806e-03,3.599121570587158203e-01
1.889118378401034581e-01,-1.392404741856927419e-01,2.751688871635281641e-01,-1.144051852071009678e-02,2.112686290668516417e-02,-2.465996384521086226e-03,3.810244202613830566e-01
2.225677872001089186e-01,-5.448736201690743131e-02,2.131568133945142551e-01,7.097095757119934768e-03,7.015298240269252084e-02,2.525180096400374274e-02,3.017766475677490234e-01
3.090327851429278683e-01,6.148908540099817799e-02,4.242267227338342162e-01,1.681717412169275380e-02,-1.104288058686168569e-02,2.732360404981354959e-03,3.229547142982482910e-01
1.165036103351427682e-01,-1.552742742587878699e-01,2.583812915994830872e-01,-2.348334648677449787e-02,2.409942800516286926e-02,3.337733559628681783e-03,3.687572181224822998e-01
2.493735751001412704e-01,-1.144946933465159356e-01,2.453638514772486512e-01,-1.860773610123122625e-03,8.344385540155693781e-03,2.262598793680398526e-03,3.622041046619415283e-01
2.443474025529127347e-01,-1.327411581646111560e-01,2.382182782332676607e-01,-2.377739055547868630e-03,3.912078227891763876e-03,-2.824450064386002223e-03,3.741776645183563232e-01
2.437978274921137611e-01,-1.304951774192354419e-01,2.414834020462008901e-01,1.625736464850555422e-03,5.429110913622497980e-03,-3.933342598877230620e-04,3.732708990573883057e-01
2.467967390252737980e-01,-1.313912881445347403e-01,2.171507416386652678e-01,-1.715583628954139329e-03,-2.734770546362464251e-04,2.055474020874013298e-03,3.643007576465606689e-01
2.505294269252037465e-01,-1.352373092659544529e-01,2.391079343127616719e-01,2.899034062136904440e-04,1.157881620589699782e-03,-6.210590440362054321e-04,3.801918327808380127e-01
2.534011177711072982e-01,-8.934983600737358977e-02,2.301971673883778102e-01,4.999036657229358714e-04,4.712133348240071622e-03,1.654259820007520591e-03,3.318720161914825439e-01
2.464769283166931835e-01,-1.368624892780224978e-01,2.380285098197182647e-01,-2.685076291389409779e-03,1.764169410732736561e-04,-2.612630912973437636e-03,3.792414367198944092e-01
2.427433245682596441e-01,-1.395082531365877121e-01,2.379651428126882129e-01,-2.239213147854088662e-03,3.490275766043911504e-04,-3.024737387929074279e-03,3.799414336681365967e-01
2.428517274103011436e-01,-1.357686592480211174e-01,2.376495118814597185e-01,-1.445889419718703159e-04,6.897900896162915138e-04,-3.588201413342927224e-03,3.760996162891387939e-01
2.263882356896950721e-01,-1.320888926830117716e-01,2.363779831245678142e-01,4.935100821638227931e-04,3.368806115120643609e-04,-6.142592686872104871e-03,3.637320697307586670e-01
2.129737440973951679e-01,-1.315261468252923449e-01,2.244143570347452155e-01,-5.009893130856460722e-03,-5.641728996240246048e-03,-7.642901383904964797e-03,3.508537709712982178e-01
2.455195845769775065e-01,-1.351545418984244906e-01,2.384432153022310041e-01,4.910201695924483727e-04,1.303578515070309869e-03,-2.161410005664888591e-03,3.772120177745819092e-01
2.499242001517917589e-01,-1.331724569245425205e-01,2.360251562605705788e-01,-1.617952100771085462e-03,7.024687781948872785e-03,-2.273787244650242434e-04,3.765469491481781006e-01
2.393591090420367773e-01,-1.378417836132689867e-01,2.373343848747830331e-01,9.787213303846962684e-04,1.371601716352337762e-03,-3.757022290729698615e-03,3.762602210044860840e-01
2.407351256341290768e-01,-1.356092300700484088e-01,2.423421685678312232e-01,1.010881713800330841e-03,6.098800238801035511e-04,-3.827862326325082425e-03,3.772142529487609863e-01
2.266885963594248987e-01,-1.395748668249066071e-01,2.350440329408040041e-01,-4.993749797253197939e-03,-1.097314782241876367e-03,-5.612937796856109010e-03,3.707451522350311279e-01
2.490294630382988983e-01,-1.351261507168789733e-01,2.390667750549730908e-01,-1.925582543306057163e-03,1.258273990823728476e-03,-2.062367273661344300e-03,3.793101608753204346e-01
2.369051228086641037e-01,-1.406208959725993024e-01,2.393559206309914811e-01,7.664589236555208011e-04,-7.731126289588658449e-04,-2.536566692772847416e-04,3.787623047828674316e-01
2.387872873385952222e-01,-1.403012988259797478e-01,2.408570351018048394e-01,8.052225799115704475e-04,-1.070421267409970255e-03,-6.396417069210067960e-04,3.801363706588745117e-01
2.454828006679210528e-01,-8.123213449138633191e-02,2.459089485988710244e-01,1.593675544237488102e-03,-9.917236607595436917e-03,-1.325021419962875684e-03,3.273988366127014160e-01
2.419077759235942482e-01,-1.380656432517147758e-01,2.399567633457040938e-01,-1.343006942809096848e-04,-3.073229175299507787e-03,-6.476275390207502465e-04,3.790407776832580566e-01
2.374340702886225396e-01,-1.368087870263023920e-01,2.373904559998153974e-01,3.896132866603589737e-03,-8.490406051265577108e-04,-1.523350685274268675e-04,3.742848634719848633e-01
2.495293090987279749e-01,-1.376840629938716476e-01,2.366602696380800674e-01,1.927535629668292573e-04,-1.064035538704610935e-03,-1.166502164763968128e-03,3.809518814086914062e-01
2.373923673628912101e-01,-1.366686906594148376e-01,2.372538540098913795e-01,-2.872726996825643656e-03,1.736315224949850624e-03,-2.111727711283145105e-03,3.740548789501190186e-01
2.332518206661837457e-01,-1.374281673962532424e-01,2.358059925957731728e-01,-2.919776823480551772e-03,-4.350445310570659886e-04,-3.825768030963452946e-03,3.720577955245971680e-01
2.544835152986361093e-01,-1.074321791888470101e-01,2.378737160322413891e-01,4.039715213411012099e-03,5.810853874524758537e-03,2.592501743885644583e-03,3.541439473628997803e-01
2.484154836192412896e-01,-1.187283754397653046e-01,2.436566436998919560e-01,1.313902923917580718e-03,7.279258080806558749e-03,3.336981559370362244e-03,3.650583922863006592e-01
2.375364094101228840e-01,-1.350667899053129006e-01,2.428966478676473362e-01,-5.679992155662300785e-03,1.201379373892615685e-03,-2.323660486457404702e-03,3.754682838916778564e-01
2.539498425162647344e-01,-1.329173694050811150e-01,2.585010413590526079e-01,1.410922324140003251e-02,-1.520784744757212696e-02,-2.089412967093751128e-03,3.908347487449645996e-01
2.309307265178862090e-01,-1.327212304146710153e-01,2.543706682090802751e-01,-4.116835393058510331e-03,-1.739726310735092291e-02,-2.695446822622338083e-03,3.772224783897399902e-01
1.631335595383981429e-01,-1.213428072418602371e-01,2.532174954964845348e-01,8.801501540835782178e-03,-9.088926708982415087e-03,7.260302085457458546e-03,3.395688831806182861e-01
1.998349856662511581e-01,-1.256252715906895634e-01,2.488114919285699944e-01,1.279136574293386445e-02,-4.350699842003426243e-02,1.179615154461921556e-02,3.617317676544189453e-01
1.908939980376315182e-01,-1.422378610110787422e-01,2.437148825332289548e-01,1.874774518271145329e-02,-4.518010895946727307e-02,1.487688587667168778e-02,3.731023073196411133e-01
2.383887677681579276e-01,-1.368564757255373576e-01,2.490800689650492783e-01,1.193586086472126721e-03,-9.409481500560490114e-04,-6.451107289154641561e-05,3.807126283645629883e-01
1.794878017772138512e-01,-1.232550431215094638e-01,2.317455447329141438e-01,6.221209897290016708e-03,-1.174398610396541059e-02,3.769318421601242867e-03,3.328321874141693115e-01
2.307821702977712608e-01,-6.927099355880875220e-02,2.302494480163153057e-01,-5.653811075787945270e-03,4.903295912562041087e-02,1.772485865438271080e-02,3.132466077804565430e-01
2.625183997386242862e-01,-1.098795052486098434e-02,2.684302482836832815e-01,1.244197733948462954e-02,-1.391444238151238457e-03,7.612665051831945216e-03,2.776718735694885254e-01
4.483956402644741490e-01,7.437155138666123877e-02,4.520967491357007484e-01,9.493672842104405180e-03,-5.353214107055325778e-03,9.197101988049991711e-03,3.766990005970001221e-01
2.566772102903119857e-01,-9.742969026684974998e-02,2.483997482667336110e-01,8.763469696041532213e-04,1.365957334514173848e-03,1.565604692115867827e-03,3.500633537769317627e-01
2.804796383667290116e-01,3.117670734749625194e-02,2.797786789111237349e-01,-1.819987345869697459e-02,7.948545626345402196e-03,1.077478953813225566e-02,2.520103752613067627e-01
2.385301282731827066e-01,-1.130908290788444209e-01,2.491250353467133194e-01,2.420907469420424327e-03,-8.695459127860042867e-03,-1.463148722295525743e-03,3.573874235153198242e-01
2.414656741809619867e-01,-1.278378883647687259e-01,2.433955031706155347e-01,1.099185940732232483e-03,-7.806925669264334205e-03,-2.866039386240552909e-04,3.705242872238159180e-01
2.178305601548432557e-01,-1.508856623717105550e-01,2.193135945382828633e-01,2.017545361969862866e-02,2.507303691131931161e-02,-1.238348734904571105e-02,3.742563724517822266e-01
2.483575077633859429e-01,-9.796025976074126951e-02,2.423977501200653140e-01,2.713971127969414822e-04,-8.194127971466423632e-03,4.105115923365121669e-03,3.437437415122985840e-01
2.380145848872441960e-01,-9.173427223637528605e-02,2.337473009407982083e-01,-1.808635532327757672e-03,1.067678867930248014e-02,-3.960180154833164946e-04,3.281731903553009033e-01
2.404651773195571329e-01,-1.057966583026308804e-01,2.539514484346461209e-01,8.132375809366456515e-04,-6.928653533029797279e-03,6.175853507459565066e-03,3.535666167736053467e-01
2.503444762092189579e-01,-1.113074334095585649e-01,2.411891508665899020e-01,-1.744883711001115646e-03,7.259280847444916224e-03,-1.019090142787064130e-03,3.574006557464599609e-01
2.443550740913604247e-01,-1.291089489694894343e-01,2.364112340528863321e-01,6.564226540300914514e-03,4.294973803611898053e-03,9.129076691952041529e-04,3.698092103004455566e-01
2.536030197790727359e-01,-6.138919589134367305e-02,2.426758163250258837e-01,-7.001709288894597538e-03,-8.741044190679139042e-03,9.996211182296564635e-03,3.107628822326660156e-01
2.520298461191268213e-01,-7.240431500351954264e-02,2.406988719491890139e-01,-1.798688766773588526e-03,-9.803807465901419327e-03,5.420769946155437613e-03,3.195245862007141113e-01
2.468477385613482011e-01,-9.546235556365870178e-02,2.610796150235170088e-01,-2.278669817697305793e-03,-5.234393635571777011e-03,1.541582572856380583e-02,3.508007526397705078e-01
2.374987584414317010e-01,-1.360523300562778426e-01,2.385527057961185082e-01,-2.810345601135824829e-03,5.284162371783494199e-04,-2.300035878177592572e-04,3.741121888160705566e-01
2.497728051767942881e-01,-7.775612808962306666e-02,2.415316923917874559e-01,-5.602220641082316342e-03,7.339737628173802729e-03,-1.718389113665439220e-04,3.238823413848876953e-01
2.482482244585298703e-01,-1.366924776597571722e-01,2.369653339027123218e-01,-7.588563411018912257e-04,2.981204436492948008e-03,-1.062484304428480729e-03,3.794669806957244873e-01
2.463874899283856057e-01,-1.001969413892797034e-01,2.477545209495306544e-01,-1.197461653252042055e-02,-1.251154810226223595e-02,-7.301422773344260712e-04,3.485653698444366455e-01
2.510059930920021110e-01,-1.279159135272715242e-01,2.418296454899961923e-01,9.822635708113967769e-04,8.810503466856956650e-03,3.418653179742239443e-04,3.747332692146301270e-01
2.071283198361608124e-01,-1.158637694081636332e-01,2.492971115428791462e-01,-8.648974571973003928e-03,8.738930994153999363e-03,8.868003448119889456e-03,3.470039367675781250e-01
2.522846521837483480e-01,-1.008672470089725659e-01,2.385713639762759852e-01,-1.725429329911003142e-03,7.262110258436649257e-03,3.125622580731732009e-03,3.467822074890136719e-01
2.450431884092950652e-01,-1.361921016782485783e-01,2.405538098300931682e-01,-1.643707926050226413e-03,6.910783869077680684e-03,-1.254766978004454806e-03,3.792164325714111328e-01
2.437814953153698005e-01,-1.392207584177069801e-01,2.389698651861239531e-01,-6.515390669312171035e-05,2.018402633841669125e-03,-1.167068494488325125e-03,3.806406855583190918e-01
2.551771896919584059e-01,-1.228634490975667182e-01,2.401946554842765980e-01,-2.531105170557781947e-03,1.128627918579738851e-03,-1.177853297720224965e-03,3.708131611347198486e-01
2.615621218443263674e-01,-1.063993204120261826e-01,2.431260831038661308e-01,-8.143063402586938476e-03,4.617874176434284827e-03,-3.576414407306150595e-03,3.595177829265594482e-01
2.506163929697357573e-01,-1.328194673612027588e-01,2.371786456644541796e-01,3.424648533261330681e-04,3.856587891014473871e-03,5.602013611850642505e-04,3.769575953483581543e-01
2.439096862045570524e-01,-1.404947604068312872e-01,2.385753949871022295e-01,4.914182759857344592e-04,-9.378808808438279842e-04,-1.753245084297205348e-03,3.817817270755767822e-01
2.373575866276598223e-01,-1.352557388009792416e-01,2.352863249968917825e-01,3.371852800623765037e-03,-2.220075146691775220e-03,-4.516378488345712539e-03,3.717301189899444580e-01
2.612334837229008389e-01,-7.933598780466669109e-02,2.581512063618420783e-01,2.804745004506280313e-03,3.350219498803538171e-03,1.955901663101743126e-02,3.408111929893493652e-01
2.774132429251868204e-01,1.436770656857411232e-02,3.090347975975493156e-01,9.356005790550849313e-03,4.461125577835731333e-03,-2.850741385107932908e-03,2.808157205581665039e-01
2.306975417188682487e-01,-1.382199491685690007e-01,2.351534250479628274e-01,3.067169886801899724e-04,-1.998292953993016131e-03,-4.073805990627836385e-04,3.711826801300048828e-01
2.422088285391804097e-01,-1.394730005130677131e-01,2.385103924272560794e-01,9.502616717104732554e-04,-7.478769512136941491e-04,-1.641138350610149956e-03,3.798625171184539795e-01
2.529852342426063272e-01,-4.576682027802961295e-02,2.620101307592029860e-01,5.066538240037318785e-03,-8.551508194916290773e-03,2.439318399348508123e-02,3.067766726016998291e-01
2.562226802512558854e-01,-2.256508702977813585e-02,2.702865693299114080e-01,1.108900204355665539e-02,1.001435936335610781e-02,1.815613364397427806e-02,2.889635860919952393e-01
2.464550324922213931e-01,-1.349081399595308817e-01,2.381355986598824026e-01,-3.362942573456129754e-04,1.660405630896016958e-04,1.029795610960376382e-04,3.772728741168975830e-01
2.639523315088564415e-01,1.012624192840075321e-02,2.657787100794770097e-01,2.649081105137535575e-03,-6.635829307537382052e-03,-8.279601651311647992e-03,2.554474771022796631e-01
2.363155619332386048e-01,-1.296572128671215629e-01,2.560769911551468714e-01,4.564658716181230831e-04,-1.882314315885037694e-03,5.263705732994269915e-03,3.763683140277862549e-01
2.295377360303861025e-01,-1.393269339905994497e-01,2.239839441703534995e-01,6.103631613196101521e-03,2.926796153856333553e-04,-3.814290995213035374e-03,3.663319051265716553e-01
2.364213531965847492e-01,-1.388788408548501663e-01,2.367486799543082887e-01,4.482232299851617550e-03,-1.422918289427695148e-03,3.488264036721262134e-04,3.755528032779693604e-01
2.450115936767087166e-01,-1.265255317626848008e-01,2.427597418468526169e-01,3.711714677769802377e-04,-7.112601798867744171e-03,1.629979245886366485e-04,3.706218004226684570e-01
2.381067538710567033e-01,-1.238012309057302390e-01,2.545204318743332639e-01,2.322827484555535851e-03,-5.520702324516641585e-03,9.277060920280578472e-04,3.705364167690277100e-01
2.475798316820100320e-01,-1.316628244746654575e-01,2.284380194936934672e-01,7.150890985933118157e-04,4.909051864121741389e-04,-5.578897115036816207e-03,3.701724410057067871e-01
3.533501992861554086e-01,-5.779877994723514600e-02,1.421841826463701719e-01,-2.303155133502921351e-02,3.475947357390575532e-02,-3.566573383809435588e-03,3.634116947650909424e-01
2.358992584423335592e-01,-1.315247596524497520e-01,2.513238177068300438e-01,-2.322144275282108955e-04,-4.443062108724572107e-03,2.202704861106404271e-03,3.754725158214569092e-01
2.501085969505525419e-01,-9.758954872191336061e-02,2.567924969149575909e-01,3.373399723818441397e-03,2.381983113628332281e-03,8.168356052620364544e-03,3.514455556869506836e-01
2.382187735054057121e-01,-1.333857334939329564e-01,2.529906430770645365e-01,1.323050212714667155e-03,-1.576291991932666061e-03,-1.353078287878274784e-03,3.792302906513214111e-01
2.378459752043948217e-01,-1.329019139862103183e-01,2.493344647486566701e-01,7.738802808330762055e-04,-4.294674650870399304e-03,7.620684331081353704e-04,3.767017126083374023e-01
2.375255750007878586e-01,-9.641920814731350098e-02,2.528037744364477479e-01,7.621971557188666688e-04,-5.667095982399698514e-03,2.092796144558644851e-04,3.419836759567260742e-01
2.332695943629826685e-01,-1.168094264840997265e-01,2.560081703106983353e-01,1.896213111485074644e-04,-1.669862351738008333e-03,-7.612587860459951207e-04,3.619984388351440430e-01
2.412104199737602483e-01,-1.124814333267888378e-01,2.481897439756472479e-01,1.940404536524854883e-03,-9.174139616338811143e-03,-1.738177415912254111e-03,3.576143383979797363e-01
2.372243153888897449e-01,-1.368063161451263110e-01,2.488901810530098901e-01,9.403819864852314006e-04,-7.217236643311865938e-04,-1.541353896316479777e-04,3.800035417079925537e-01
2.375456977255111235e-01,-1.244070658957236591e-01,2.339979076172676309e-01,-5.662589034907345234e-03,7.413084092659804648e-04,1.906048072370291214e-03,3.603428900241851807e-01
2.402374032186043173e-01,-1.325987546057479927e-01,2.554249853283528937e-01,1.527987507265807883e-03,-2.966984847354441589e-03,-1.656311160599839788e-03,3.807119429111480713e-01
2.192420812781615824e-01,-1.225002786908417907e-01,1.953531382724441323e-01,-1.015604542257313864e-02,4.860668764742390874e-02,6.278463024246486515e-03,3.416287302970886230e-01
2.549182175460118494e-01,-1.239800195191401028e-01,2.386247923618099454e-01,1.392785911464342052e-03,-4.705704058405966485e-03,3.008287029787690007e-04,3.711176514625549316e-01
2.435604437577311154e-01,-1.285974879476654009e-01,2.423546448728420843e-01,-1.679868637579064574e-03,5.694932144014388728e-03,8.701904193151255512e-04,3.717018663883209229e-01
2.523286562607759409e-01,-1.137624516890685111e-01,2.442397215242699815e-01,-4.596966936483400448e-03,6.526333999290993317e-03,4.229235450984174293e-04,3.623790144920349121e-01
2.397702158893318669e-01,-1.406261394826262834e-01,2.372819717690188013e-01,1.704052633566683608e-05,-7.591124521901143922e-04,-1.024094100951422701e-03,3.791647851467132568e-01
2.473262539240898561e-01,-1.371458693583483823e-01,2.388457923283717199e-01,-1.349891044746775928e-03,2.953317879808531592e-03,-2.542213022061372459e-03,3.803699016571044922e-01
3.625909654440374053e-01,-1.469892579823381951e-01,1.189468365549492118e-01,1.114190915434600318e-02,-1.666741057250720887e-02,1.201420776985461653e-02,4.433024823665618896e-01
2.418226413025045263e-01,-1.329333687815221765e-01,2.560463391633780450e-01,4.844765872587765616e-04,-2.599650663904245172e-03,3.608543759629963829e-04,3.820944428443908691e-01
2.359628821201864568e-01,-1.360295612721552638e-01,2.500433009457344591e-01,-7.927978938346362222e-04,3.396783867455381838e-03,-8.022844720553468567e-04,3.792794048786163330e-01
2.244097798930206888e-01,-1.291430345190393569e-01,2.094709478849034467e-01,-7.797949076716008746e-03,-5.274250727301739959e-03,-3.417294526811374446e-03,3.467592895030975342e-01
2.366911458480281671e-01,-1.349186857242455351e-01,2.518361823046165737e-01,7.667428260015909632e-04,-1.789569131683509768e-03,-2.105970909130291697e-04,3.794242739677429199e-01
2.360785378135701329e-01,-1.281816735374443073e-01,2.552357996395688833e-01,3.175283883513444361e-04,-1.818388450241283268e-03,1.745086350598478277e-03,3.742326796054840088e-01
2.327884407931748167e-01,-1.261907881331179315e-01,2.474466662032099029e-01,-1.306294347203921808e-03,1.050707917589017906e-03,-1.643983591099384620e-03,3.665508031845092773e-01
2.304364141701562563e-01,-1.338450777439889050e-01,2.311938270201178980e-01,-3.278332036066068655e-03,5.527475746223750987e-04,-3.758132636981356082e-03,3.647643327713012695e-01
2.424154765744663820e-01,-1.369093953046067735e-01,2.447091105469653138e-01,-2.000940953555838120e-03,7.857928515743680536e-03,-2.028095980109963399e-03,3.807522058486938477e-01
2.505745040799824408e-01,-1.340974023758525480e-01,2.409695790553217920e-01,-6.515059163629910530e-04,5.217443172558263245e-03,-1.047858106256209596e-03,3.800739645957946777e-01
2.374854615330770358e-01,-1.348688811179088176e-01,2.439083226976694052e-01,3.752317317876081165e-04,3.906118576981983440e-04,1.388433912313109288e-03,3.756158351898193359e-01
2.513804898033269453e-01,-1.343979562073978895e-01,2.390785576167855642e-01,-1.128550168265978707e-03,4.526576958755406700e-03,-2.227649618830066132e-03,3.798824846744537354e-01
2.374626114878506944e-01,-5.363828563217235001e-02,2.462738917070799727e-01,-1.610010474668441965e-02,3.623785845917271847e-02,-3.207965197409741887e-03,3.035299181938171387e-01
2.212590813437110837e-01,-4.320514112274095875e-02,2.767752571490632585e-01,-1.289386784246391443e-02,8.485676813192196896e-03,1.752251867925952444e-02,2.989001572132110596e-01
2.400777141513310842e-01,-1.406453333323728350e-01,2.390265550162530006e-01,-4.881705398403936297e-05,1.315215165840593432e-03,-6.880977234003664463e-04,3.802072703838348389e-01
2.366482667698062703e-01,-1.388575203947791659e-01,2.337185598473241477e-01,-7.657325155927055538e-04,-1.350888482431572243e-04,-4.373789065531780845e-03,3.741286695003509521e-01
2.650868463280471321e-01,-8.081066145388948740e-03,2.656921349001322152e-01,-1.644094905243960458e-02,2.178692868667196289e-02,-1.040283643863831181e-02,2.781114876270294189e-01
2.689120089465331098e-01,3.184899658227377528e-02,4.078454103051990520e-01,-3.325563806957113067e-02,-2.167045748014421319e-02,-1.150742844065756262e-02,3.369884788990020752e-01
2.446501428796525879e-01,-1.350941010137680087e-01,2.409762181201163533e-01,5.859684406071300703e-04,-1.882158704558939009e-04,-3.529118233149094574e-03,3.779716193675994873e-01
2.447658525572709576e-01,-1.381195734517188245e-01,2.404427882775400649e-01,2.320645848567612531e-04,-2.339140302169278283e-03,-9.878711276647585138e-04,3.807679116725921631e-01
2.528468975979811240e-01,-3.776716872757651666e-02,2.653077298585659327e-01,-2.649232245590388014e-05,-6.385834548473986669e-03,-6.610783442434208478e-03,2.974668741226196289e-01
2.553189330744908281e-01,-1.164340816082631708e-01,2.344609771112400876e-01,1.606604469235050096e-03,3.209143151072129871e-03,5.881294851129570053e-03,3.619720339775085449e-01
2.410419768632160176e-01,-1.376669195623115294e-01,2.456621936760960412e-01,8.842919100585021298e-04,-2.691370838314005674e-03,-4.356690213602071337e-04,3.810723423957824707e-01
2.425570337214406069e-01,-1.164010507525653909e-01,2.461423296103925629e-01,4.234432998454801256e-03,-5.016957207326371189e-04,-5.919465319410453438e-03,3.609853088855743408e-01
2.336609496899742233e-01,-1.381350003284005368e-01,2.364390745259563609e-01,2.710315958628656523e-03,-1.899988883867519997e-03,-6.455118306522941067e-05,3.732368052005767822e-01
2.407274480947453610e-01,-1.401239454982684263e-01,2.387642555718828830e-01,2.334258543975983207e-04,-7.131722750144283123e-04,-9.902087450181281530e-04,3.798796832561492920e-01
2.250440440353588256e-01,-1.418230571883978275e-01,2.332626108765451511e-01,-6.292997842032050683e-03,-1.417615130827496676e-04,-3.679176223046573438e-04,3.712053596973419189e-01
2.507151952445503817e-01,-1.346828342794000322e-01,2.393252173075871569e-01,-2.706416084092360362e-03,1.630981505273551774e-04,-1.716143938581486455e-03,3.798718154430389404e-01
2.463244621062484763e-01,-1.352818834724441310e-01,2.384139152994020072e-01,2.940123458846784460e-04,-4.240620755686222215e-04,-6.320066633346884538e-04,3.777158558368682861e-01
2.539146854706920697e-01,-6.535840508309315178e-02,2.522914561401933264e-01,2.496421157323683651e-02,1.426578884491330182e-03,9.008403092059248359e-04,3.213998377323150635e-01
2.523632278104224191e-01,-1.335868677071957167e-01,2.400113307318108291e-01,-1.538630774642537648e-03,3.129182766014239770e-03,-1.990834720706880813e-03,3.799884319305419922e-01
2.602229178924140296e-01,-6.168771083872093275e-02,2.529262407524968115e-01,-1.123056939096248041e-02,-5.690201019315602703e-03,-4.353993327575090980e-04,3.190719187259674072e-01
2.420425182063360159e-01,-1.388534160713273125e-01,2.370652994776593081e-01,-1.519981237287345265e-03,2.863489464990786205e-03,-2.531352533200754984e-03,3.784989118576049805e-01
2.390199881700938445e-01,-1.365594780215819704e-01,2.272399510706205883e-01,4.830633650439689064e-03,-1.374326725745448805e-04,-4.212300003634748304e-03,3.699968457221984863e-01
2.455578935827411047e-01,-5.350968269249464782e-02,2.268490261153837950e-01,-4.930339159971510593e-03,5.219599703673238889e-02,7.698455329611162898e-03,3.043356835842132568e-01
2.398857361098570562e-01,-1.369076649793416200e-01,2.504202073450342292e-01,1.397222884952273618e-03,-3.261674815285193520e-03,-1.849028038125757173e-04,3.822191059589385986e-01
2.312766898532191695e-01,-1.374137237003261180e-01,2.375494449613392567e-01,-3.582283724534847825e-03,-6.195246684091565686e-04,-4.616326912807075175e-03,3.720057308673858643e-01
2.378519387310235322e-01,-1.364706496382279144e-01,2.469818686759928661e-01,1.118235956574677734e-03,-1.386727899205883940e-03,-7.759297624481385509e-04,3.789849877357482910e-01
1.940604348730825546e-01,-1.258592274932222033e-01,2.355924173748032424e-01,7.504758192299165569e-04,3.558458836971854691e-03,-7.729376597225419768e-03,3.428983688354492188e-01
1.927695591824770405e-01,-1.181721172088554817e-01,2.360922778097914176e-01,5.912783801951308760e-03,2.411708013182692345e-02,-6.217958742154040472e-03,3.376362025737762451e-01
2.387102312599443665e-01,-1.268563110020345941e-01,2.529002107895243490e-01,1.414440957440802086e-03,-6.583736363588665007e-03,-7.736834468254388981e-04,3.730488717555999756e-01
2.385938206042189091e-01,-1.344117558957449721e-01,2.554996714128074942e-01,1.405186103585211264e-03,-3.092986028439651501e-03,-3.950973600599626549e-04,3.817853331565856934e-01
2.546380351143681664e-01,-5.817256394358671923e-02,2.357307269551778273e-01,1.157729443919158080e-02,7.315214234863643078e-04,-9.390245645165867967e-04,3.044665753841400146e-01
2.373999748057574743e-01,-1.414162305601848746e-01,2.384960792782607752e-01,2.587948430863993752e-04,-9.449389558505380277e-04,-4.047161242309619492e-04,3.793698847293853760e-01
2.334019654148140333e-01,-1.386806833506687986e-01,2.367209285416480014e-01,1.932209651885026698e-03,-8.475562968750549901e-04,-1.120674767699375964e-03,3.737760782241821289e-01
2.054586132896746298e-01,-1.201416112171336120e-01,2.114655090232330226e-01,-4.415682506645448777e-04,4.612312386129439543e-03,1.043398839455554833e-03,3.287477791309356689e-01
2.052143881384024260e-01,-1.171022274207302177e-01,2.125503995366929133e-01,-2.631175125568303613e-04,4.654071123482712846e-03,1.442591790425725318e-04,3.261465728282928467e-01
2.178866824133970925e-01,-1.186618763208576177e-01,2.135908378718983647e-01,-2.332754109282538565e-03,7.319642732559237565e-03,1.891867733975365713e-03,3.347019851207733154e-01
2.420158239642720699e-01,-1.349985842006433123e-01,2.278758719860086990e-01,5.689187189513665241e-03,1.027002624045471281e-03,-3.412074299787672734e-03,3.703296184539794922e-01
2.239738209243147815e-01,-1.374029240805484386e-01,2.185433084670432291e-01,6.733330036685259042e-03,5.371252486145674902e-03,-8.767878175954551059e-03,3.593235015869140625e-01
2.402020000913407116e-01,-1.383380040430286229e-01,2.457227891422421040e-01,-1.077518676794682329e-03,4.373925746736182299e-03,-5.051950567220120196e-04,3.814111948013305664e-01
2.339965256581960362e-01,-1.275533571074227157e-01,2.509020026368496969e-01,3.099898218418526991e-04,7.064647775688253500e-03,-1.305673164598249777e-03,3.705015778541564941e-01
2.214750617462777904e-01,-1.115236792223740780e-01,2.073866172745156555e-01,-2.273238822852917656e-03,1.693935394291046573e-02,2.011111119069135516e-03,3.275418579578399658e-01
2.444357580893121717e-01,-1.389155404150369533e-01,2.393155850974406085e-01,-1.831658720562028561e-04,-5.033561646223114715e-03,-1.386766721885435974e-03,3.809245228767395020e-01
2.353235111318059403e-01,-1.392625217996686371e-01,2.283685125255071058e-01,-4.007968188227623366e-03,5.647289619305564945e-04,-2.171550466388763069e-03,3.712426722049713135e-01
2.380711344785885475e-01,-1.396772658380858456e-01,2.386288769920524577e-01,-1.071900514197192617e-03,6.857385206980289374e-04,-1.934712486661994014e-03,3.780488669872283936e-01
1.844300884212887737e-01,-1.566566192148860504e-01,2.400190911352476641e-01,-7.191296086308580741e-03,1.781718225054571697e-02,8.490274636351820975e-03,3.737843036651611328e-01
2.003606565998859446e-01,-1.167368544744177145e-01,2.186417677534192583e-01,-8.439216275871350105e-04,1.550961905007616770e-02,8.060978347462683952e-04,3.277310729026794434e-01
2.392023958998705235e-01,-1.351325917083016914e-01,2.394177361619244937e-01,-9.936865191003312146e-04,4.423364694235917827e-03,-9.176817906757365518e-05,3.745250701904296875e-01
2.397743532451320214e-01,-1.238747363718122607e-01,2.555960060295809910e-01,-3.621401806780671787e-04,4.114199856615196986e-03,-8.307933994059585282e-04,3.718840777873992920e-01
2.418082674242414409e-01,-1.350557707283877029e-01,2.505770210312836532e-01,-1.999767182669426845e-03,6.358302928624745380e-03,-2.021717029458280565e-03,3.815148174762725830e-01
2.412006036751006555e-01,-1.392069829076477694e-01,2.439748877040946451e-01,-1.417564492610897883e-03,4.456122844814744931e-03,-1.578588765302582500e-03,3.818979859352111816e-01
2.246847688376417129e-01,-1.183413643953548783e-01,2.044424787964099210e-01,-4.268275557529338862e-03,1.374502546896038714e-02,2.583678316314302718e-03,3.343269526958465576e-01
2.089266235831507001e-01,-1.256164670882553014e-01,1.816078265247020040e-01,4.980034086542264610e-04,1.053998290841633503e-02,-6.674180027106194069e-04,3.222754001617431641e-01
2.703344670217460166e-01,-7.542993458460947598e-02,3.137960166968846165e-01,7.952849681209017696e-03,7.891504792343238817e-02,4.107619439124518719e-03,3.941985666751861572e-01
2.402737310204598464e-01,-1.405796275542565144e-01,2.400721290727702573e-01,-5.321495053649902968e-04,1.938266175285125294e-03,-8.516157658071752800e-04,3.807713687419891357e-01
2.393849692105310401e-01,-1.392118189949033136e-01,2.417845007592539508e-01,-6.915859506509588724e-04,7.862988749371746305e-04,-4.700473190542320029e-04,3.798074424266815186e-01
3.648742726833004713e-01,-8.452316947989427232e-02,1.369532857877611420e-01,-1.478828939039113742e-02,-7.635906039057682032e-03,6.168074023597031399e-03,3.904152512550354004e-01
4.747522086047986090e-01,1.087414440170153818e-01,4.756231063668422965e-01,-6.417655416205665826e-03,2.020311547140338226e-02,1.976262752567999395e-02,3.698690831661224365e-01
2.122447082446566879e-01,-1.168646644543469421e-01,2.115238591415676273e-01,-7.504759042265666288e-05,7.764410298311616096e-03,-1.363523658629594605e-03,3.290329873561859131e-01
2.135912432527141414e-01,-1.136360151055038625e-01,2.146554275956702451e-01,-7.946733479309401075e-04,6.947594021769366336e-03,1.587955076428768314e-04,3.279844820499420166e-01
2.377603722569713862e-01,-1.377367685061224312e-01,2.372819195992275365e-01,4.408865054297488040e-03,-1.221643841219944519e-03,-8.112548945109005405e-04,3.753444254398345947e-01
2.387173122436509476e-01,-1.381971812124249133e-01,2.440457494846377529e-01,1.451867983600776697e-03,-1.322932680994945084e-03,-4.598752289121332782e-04,3.796228468418121338e-01
2.246244705537099595e-01,-1.239961087548125396e-01,1.983741275945256344e-01,6.828768268429890979e-03,1.173149733546251586e-02,-6.434627023796583682e-03,3.372698724269866943e-01
2.325900893801806091e-01,-1.314238276042803133e-01,2.240625920606714727e-01,6.143172779038683085e-03,-8.157596982648270293e-04,-6.313076652010467032e-04,3.599876761436462402e-01
2.018478915451643596e-01,-1.164856022050242135e-01,2.178017452466460280e-01,1.010949116589417428e-04,2.095954955477864930e-03,8.699525360610257637e-04,3.266264796257019043e-01
2.828233626518930621e-01,-9.796730354600780011e-02,2.369192963506202287e-01,1.394650672866618859e-03,9.159472549347595291e-03,-1.311712155650639373e-02,3.611129522323608398e-01
2.356739747048622602e-01,-1.394858856214347964e-01,2.333395545003477400e-01,1.546374358866880756e-03,6.138108786761665558e-04,-5.351719774859646506e-03,3.741240799427032471e-01
2.364316888758957458e-01,-1.364942920170676977e-01,2.373363144590746321e-01,8.098554477902082920e-04,1.787473963034690873e-04,6.109229931573382328e-05,3.733818829059600830e-01
1.715052243161501178e-01,-1.235709681800557236e-01,2.356286526437346707e-01,9.637261734873364682e-03,1.643208498501607870e-02,-8.240782856341130266e-03,3.337596058845520020e-01
2.101771694563505655e-01,-1.179305440210466072e-01,2.116886594738062732e-01,1.697586162285754882e-04,2.190685337354394361e-03,-1.241064506113503810e-03,3.288951218128204346e-01
2.092546744518355428e-01,-1.201249454407059686e-01,2.190871097383464694e-01,-2.583768095204975589e-03,3.207437550994892122e-03,4.567317223951260739e-03,3.345738947391510010e-01
2.110126634242096566e-01,-1.197131798157070326e-01,2.102074591364389566e-01,3.456250328654461622e-04,6.071889805584475231e-04,-9.439355269809824190e-05,3.303262293338775635e-01
2.220829602296491290e-01,-1.208847582428169976e-01,1.993240297635622271e-01,-4.278952184312531312e-03,3.554333971994939195e-03,2.661529096512484354e-03,3.323451876640319824e-01
1.969213080552239536e-01,-1.202698194027889689e-01,2.179168590145785234e-01,5.575700566133126330e-04,3.896163943684270280e-03,-1.859537089061719019e-03,3.282795548439025879e-01
1.890048587633165189e-01,-1.205786715412464905e-01,2.154156246264789798e-01,-7.465169671514285436e-05,6.843253861694548711e-03,1.555541604941841540e-03,3.238264918327331543e-01
2.242015402076492636e-01,-1.323781743165134139e-01,2.311687017464326144e-01,6.274204013271345633e-04,1.286650161262543597e-04,-7.396873046412707868e-03,3.603433966636657715e-01
2.398430370689754731e-01,-1.145381258594581064e-01,2.559127892261032766e-01,1.592869407262335196e-03,-3.462201691875949148e-03,-3.406960202166778653e-04,3.627436757087707520e-01
2.727874844095829476e-01,-1.391430653237630821e-01,1.444560658744347692e-01,8.080293823677617976e-03,3.335949236132369766e-02,-1.840183069533200821e-02,3.712713718414306641e-01
2.117634377617985120e-01,-1.166795138222164324e-01,2.156221863670979011e-01,3.034528557971876263e-04,7.232497246106913552e-04,1.927784488443576479e-03,3.304089009761810303e-01
1.928987647131252814e-01,-1.270284114921212404e-01,2.146259186848609446e-01,-1.995021665510461010e-03,6.924470721228423616e-03,4.692980683412793612e-03,3.316601216793060303e-01
1.567129520966881462e-01,-2.138300140121820458e-01,1.674507433440250159e-01,2.917010419672484006e-02,1.168234983633485158e-01,-2.119121425455488400e-02,4.315544962882995605e-01
2.386801997216477789e-01,-1.287870446059400931e-01,2.453045799577689978e-01,9.081045377583061434e-03,-5.675360403654282349e-02,1.093394067637677367e-02,3.844206929206848145e-01
2.083229569044639518e-01,-1.265258253993238602e-01,2.097965120991372723e-01,4.576125057270898425e-03,4.447184581118656527e-03,-2.568457825915845382e-03,3.357993960380554199e-01
1.868352850235566465e-01,-1.291626293687379579e-01,2.156897453330693382e-01,-1.148099038127492651e-02,3.256320283648654612e-02,1.095460129768012665e-02,3.372561931610107422e-01
3.480061556167001191e-01,-8.200692649408750090e-02,1.629617808779013355e-01,-7.150896898358386281e-03,3.191109596985511072e-03,2.002139400712337272e-02,3.754566609859466553e-01
2.129813707522457134e-01,-1.211225367727640362e-01,2.136517859486782855e-01,-2.346179767745305150e-03,6.094634534336593288e-06,9.071471817629195690e-04,3.344680070877075195e-01
2.327483113146928129e-01,-1.344021615032372496e-01,2.047251867532319247e-01,9.552191404620942461e-03,-5.527376789202982990e-03,1.135948042327461147e-02,3.550331890583038330e-01
2.502041922831365062e-01,-1.304130238551815535e-01,2.464755118904728426e-01,1.282547459245216763e-04,3.635191371536927816e-03,-1.695799147670624648e-03,3.788304328918457031e-01
2.081704039195796385e-01,-1.228536086980267922e-01,2.128016014521698085e-01,-1.359328043048719029e-03,4.396911598101399879e-03,2.985264092512992986e-03,3.334991037845611572e-01
2.402501214370763027e-01,-1.372160204820992435e-01,2.500336784878408047e-01,-8.532032163438668356e-04,-3.370354970834045852e-03,-4.831851935504420745e-04,3.825001120567321777e-01
2.405181710600111100e-01,-1.371592942993868636e-01,1.915764868403227461e-01,1.290708870902898715e-02,-1.526206503159920069e-02,2.459990921122281321e-02,3.599519729614257812e-01
2.449176775172096643e-01,-1.211232369200890419e-01,1.846290855091982375e-01,4.218814005403831446e-03,1.128246882152543658e-02,-6.003302652010867463e-03,3.407285809516906738e-01
2.402753663095251180e-01,-1.324500190243815823e-01,2.034522620406759852e-01,9.027478647403455736e-03,-2.247814073618787170e-03,1.026739885711485181e-02,3.565545678138732910e-01
2.419814800792141896e-01,-1.227242460555721532e-01,2.484251242853849906e-01,8.446964126095076819e-04,1.190642794200603071e-03,-4.448309108134697386e-04,3.679793477058410645e-01
2.394690756848563140e-01,-1.371517434256616652e-01,2.454988750766409766e-01,-6.634709986714040254e-04,-3.587554925648308180e-03,4.680181327939269002e-04,3.797250688076019287e-01
2.372603991439592996e-01,-1.408360410321213008e-01,2.394687022681728228e-01,-2.602119998945165696e-03,-1.165190266553588422e-03,1.532820276063352792e-03,3.792468607425689697e-01
2.416833812232037082e-01,-1.375552834846533456e-01,2.397001759715631231e-01,-4.070122962999717965e-03,-3.842580937065180179e-03,1.413292500858330959e-03,3.783831000328063965e-01
2.432439757569053729e-01,-1.343139664942196720e-01,1.952063046164379534e-01,8.656705672595261386e-03,-4.477585787818663676e-03,9.749411814766873255e-03,3.567782640457153320e-01
2.228317503616136785e-01,-1.362108662789325852e-01,2.444656497224281244e-01,8.121725634086553874e-03,-2.684154513420716759e-03,5.149467707945575012e-03,3.707373440265655518e-01
2.484239467949787838e-01,-1.360698566462210379e-01,2.392017290698660870e-01,1.888940019262746106e-03,6.933400266368799567e-04,2.451382454741642559e-03,3.800063431262969971e-01
2.211519400418766323e-01,-1.342007883414137459e-01,2.252431121973679506e-01,-3.794555532397532113e-03,8.454037540255704940e-04,5.699157233910194433e-04,3.574806749820709229e-01
2.367005048540205825e-01,-1.414415333443771183e-01,2.361575451541128856e-01,-8.088621476828924267e-04,-1.768650710706243018e-05,1.068786003817965430e-03,3.778779804706573486e-01
2.449614935331625720e-01,-1.381319615325562744e-01,2.383635115265536342e-01,1.613543682208645963e-03,1.390302895483576558e-03,2.797487744443567532e-03,3.798862695693969727e-01
2.341004178010261394e-01,-1.289638606101256579e-01,2.276089870820200145e-01,-3.848397108910582304e-03,9.108090143387795670e-04,1.396619471080777670e-03,3.599357903003692627e-01
2.490374943425163745e-01,-1.168516102768625692e-01,1.914843018830541532e-01,4.033258086059758780e-03,-6.656640814742370571e-02,1.811257037872620766e-03,3.598347306251525879e-01
2.382681617638788274e-01,-1.416548659679655042e-01,2.398914176592867320e-01,-8.474608100091134610e-04,-9.471145435510730601e-04,3.055374897624496024e-04,3.807439804077148438e-01
2.424097411980927486e-01,-1.215609227563449191e-01,1.854655203024323240e-01,4.827827351289800881e-03,-2.534861469564481801e-02,1.487510544590971151e-02,3.430053293704986572e-01
2.353692542407835875e-01,-1.410925462318452506e-01,2.350879727418184739e-01,-2.226846840664984881e-03,-8.892721881293059495e-04,2.703624109918659202e-03,3.763732910156250000e-01
2.458141677272934755e-01,-1.370987656815269018e-01,2.457918383021981956e-01,-2.361407608818768449e-04,-6.725433110228891398e-03,3.392186325002688658e-04,3.830795884132385254e-01
2.298377205773768361e-01,-1.400235559809913932e-01,2.341997880797518639e-01,-2.881258668088444632e-03,1.969145426985431061e-04,1.058875324644873838e-03,3.720996379852294922e-01
2.285941411640714516e-01,-1.342242949062558144e-01,2.213926130512573198e-01,-6.226980645764929392e-03,2.781738440990297843e-03,4.114302185871944700e-04,3.594666719436645508e-01
2.320017316886829328e-01,-1.173663025276233951e-01,2.556926637247128320e-01,1.447984281455668917e-03,2.968500238411030286e-03,-1.144666574574115846e-03,3.618463575839996338e-01
2.379893282028307244e-01,-1.363285711551777690e-01,2.410908960133666401e-01,4.496303883871234988e-03,-1.231658754294482835e-03,-4.944985064278719766e-04,3.759659826755523682e-01
2.236089462560306718e-01,-1.306459614822959858e-01,2.163469875688121269e-01,-8.807088643377663020e-03,8.768193439902982611e-03,6.801371585054770755e-03,3.515377640724182129e-01
2.163156457681938705e-01,-1.317259578837223777e-01,2.194275037833301467e-01,-5.191810107460583662e-03,2.467218790430383227e-03,2.273094428253399565e-03,3.497718274593353271e-01
2.394043054943482407e-01,-1.328916215809652357e-01,2.414201785220073115e-01,-5.586312886339771938e-03,-3.042274815902198427e-03,4.430932246736752830e-03,3.735493421554565430e-01
2.135620919533780526e-01,-1.331817342872259613e-01,2.074260901897496956e-01,-9.146757693021216953e-03,1.049657445938562486e-02,1.005550992654479295e-02,3.450016975402832031e-01
2.294368186219980510e-01,-4.515209194982183760e-02,2.875640836464580241e-01,1.022199153122153696e-02,-1.282111126605356595e-02,5.632011935554123022e-03,3.092583417892456055e-01
2.296404046367729879e-01,-1.366300733834635017e-01,2.303761391387694479e-01,-6.351959001033625346e-03,2.252261456194952667e-03,5.946023421175179735e-03,3.669692277908325195e-01
2.396805537002084097e-01,-1.391993083159293598e-01,2.433158068051055056e-01,1.146652830180719266e-03,-6.962277698487743562e-04,-6.444525358424131947e-04,3.807192444801330566e-01
1.681965430350665647e-01,-2.193926857517418672e-01,1.543450573825813632e-01,-3.571507300475157409e-02,-1.248984664019483493e-01,-1.922705709304863009e-02,4.436025321483612061e-01
2.367861487265721099e-01,-1.322692272591083074e-01,2.551099789773769722e-01,-6.145588000037659985e-04,5.723078476796807697e-04,4.672215912294463459e-04,3.785537183284759521e-01
2.386039447560354132e-01,-1.375725049978986370e-01,2.452521917983404576e-01,2.650534384759136840e-03,-1.762720231294440153e-03,-1.847643182897745501e-03,3.795977830886840820e-01
3.139379660508918035e-01,-2.117410847774877092e-01,7.731438203700000122e-02,-1.116564879275407964e-02,8.701099385340178849e-02,3.530798918616355475e-02,4.845284819602966309e-01
2.362721669024636650e-01,-1.247470045774601438e-01,2.549494304043737891e-01,-7.707692671525452361e-04,3.280643459689449454e-03,-7.065013341540152259e-04,3.707588315010070801e-01
2.468288619073097934e-01,-1.305477810426950158e-01,2.515001197149262513e-01,3.040348477236505531e-03,1.093821407206693524e-03,4.304782301361921473e-04,3.797757923603057861e-01
2.351589124054933588e-01,-1.359927815801060813e-01,2.296385713017687624e-01,-4.334142861623563325e-03,-2.230442793978086282e-05,1.852572978445792082e-03,3.685129880905151367e-01
1.971913893596597689e-01,-1.328222294768944545e-01,2.137706636137871041e-01,1.043435799873137192e-02,-2.051032672158523140e-02,1.086722527019499951e-02,3.414647579193115234e-01
2.072138302623030004e-01,-1.253606843515584213e-01,2.230491074770197257e-01,1.202587830649394507e-03,-4.263178537872253961e-03,6.253965320345525498e-03,3.410266339778900146e-01
2.195250576677714727e-01,-1.301702326885984529e-01,2.261960679818851849e-01,3.072808147633679376e-03,-1.496778147839429975e-03,4.928839199838246608e-03,3.532308638095855713e-01
2.397648168923633971e-01,-1.320624937264502918e-01,2.401938079379452584e-01,2.532153776594975054e-03,2.750558265332576392e-03,3.416958296461147186e-03,3.721454143524169922e-01
1.964019660552667468e-01,-1.249688385561783244e-01,2.363696974472352941e-01,8.561436761936191617e-03,-7.495114861418562119e-03,7.468797249853244974e-03,3.439140021800994873e-01
2.127040638655161298e-01,-1.200318246312035708e-01,2.119213110098891462e-01,1.857227086759174204e-03,5.487220143347661984e-03,-3.485031508160896588e-03,3.325514197349548340e-01
2.061913534182966135e-01,-1.234985727765068736e-01,2.206678953270000965e-01,-3.532640556260035081e-03,1.404323771903683189e-02,6.561412661367177143e-03,3.382839262485504150e-01
2.450205409091122943e-01,-1.117641466260861777e-01,1.831488960845149006e-01,1.870850865743976799e-02,4.426749716702927523e-02,-4.027146271282898427e-02,3.476244807243347168e-01
2.374489565513936140e-01,-1.342554848540797874e-01,2.490172406403169947e-01,3.064517579033373496e-05,-7.243229698121250379e-04,5.268008458986097415e-04,3.776246905326843262e-01
2.311398077586806488e-01,-1.315738095151667286e-01,2.236373361510756164e-01,8.196284865152359336e-03,-4.000924213584843708e-03,8.339368288652570377e-03,3.596587181091308594e-01
2.085539173350530739e-01,-1.355981939043625628e-01,2.211285808710495293e-01,2.940423970788585972e-03,-4.778839428213958219e-03,5.714633904282094730e-03,3.508829176425933838e-01
2.317556946536834250e-01,-1.230530177320130480e-01,2.057643167657767780e-01,6.923914725123363895e-03,3.122142225175274753e-03,-8.261267990673980223e-04,3.428088724613189697e-01
2.154114719262714972e-01,-1.267912449953520482e-01,2.122546304723955113e-01,4.023201579061236148e-03,-4.849446983699854524e-03,1.229429188339283170e-03,3.408167064189910889e-01
2.346977760398558654e-01,-1.356445635124664817e-01,2.350043919578449492e-01,3.397869104471739395e-03,6.246957661490027281e-04,3.848522968163401066e-03,3.706040084362030029e-01
2.100138443476472494e-01,-1.209976809862613606e-01,2.201564753020536502e-01,3.508372218501352915e-03,-1.360461594549381738e-02,4.618004372081541999e-03,3.371720612049102783e-01
2.265775874205637752e-01,-1.271024939219088656e-01,2.281591071676799531e-01,3.683973299380983654e-03,-6.585555101453488287e-04,4.928660975142962544e-03,3.546355068683624268e-01
2.268144730241413720e-01,-1.229594288339358743e-01,2.117378808567966231e-01,-4.291118264820417347e-03,3.004648307281838817e-03,4.134597246263735262e-04,3.426055014133453369e-01
2.203055245040813903e-01,-1.193861830260500440e-01,1.958171139288713558e-01,-1.661334153650574673e-03,5.891640202702796460e-03,9.468448611005183266e-04,3.283089101314544678e-01
2.287724633780202077e-01,-1.265390291513892596e-01,2.344384514746795101e-01,6.726691462061443715e-03,-3.289106043589034700e-03,7.750171523601003844e-03,3.586641252040863037e-01
2.260690275909880143e-01,-1.280110330169786370e-01,2.260407547307045073e-01,4.343699445845653276e-03,-6.420239445258939422e-03,5.557776501942442854e-03,3.544511497020721436e-01
2.272521880817303108e-01,-1.365673225934777579e-01,2.098360388422793876e-01,8.349622663541039075e-03,-2.059118505029786193e-03,7.413844592110602032e-03,3.559752702713012695e-01
2.424083883826857189e-01,-1.342171506920966095e-01,2.444876725755475710e-01,-2.240947863624497081e-03,-1.339558125607094737e-04,2.644551358255173117e-03,3.777172565460205078e-01
2.547447657805211318e-01,-1.147021999495629746e-01,1.471250748228180028e-01,9.750293975257795249e-04,1.375568407093628008e-02,2.685983261749555809e-04,3.299757838249206543e-01
2.318647691478502582e-01,-1.272477668048626886e-01,1.968119369008198560e-01,-1.112919546944609282e-02,2.248772998999843190e-02,1.409738476794231490e-02,3.465363979339599609e-01
2.408224718882362725e-01,-1.163420276561643041e-01,1.790257181397978681e-01,-7.918942594145148006e-03,1.345896990173777071e-02,4.788110753189606106e-03,3.318343758583068848e-01
2.280433483959350138e-01,-1.405123111779540690e-01,2.319379322425324519e-01,-3.071292550181942312e-03,8.825258996153375170e-04,5.453208872924710134e-03,3.706800043582916260e-01
2.576264982061217124e-01,-1.274555775854456785e-01,2.287452965703480889e-01,1.118272086701575839e-03,1.535568832082035394e-03,1.113632711302054833e-03,3.715040385723114014e-01
2.506000050830847758e-01,-1.199228780487866380e-01,1.556538293348845303e-01,-2.092337365057466564e-03,8.321725341738226561e-03,-1.135826808780365750e-03,3.336870074272155762e-01
2.367177742525477524e-01,-1.373370840533622572e-01,2.542742068784814569e-01,-1.137826669454129486e-03,-2.516210877399208904e-03,-6.270082958710421824e-05,3.831647336483001709e-01
2.549701779149351477e-01,-1.260395359431889795e-01,1.583071054268763156e-01,-3.583876683510919033e-03,2.103600269175520156e-03,1.263093857857783102e-02,3.438211977481842041e-01
2.379882089779883358e-01,-1.359129793465526648e-01,2.378828722743403234e-01,-2.683871637803693540e-03,-8.024865055379049820e-04,4.817101989809382200e-04,3.738809525966644287e-01
2.538156138764720571e-01,-1.177492400598601080e-01,1.802745888668574326e-01,4.180769112252002810e-03,2.685282721334010178e-02,-1.186653038840696298e-02,3.446470201015472412e-01
2.078176701049337938e-01,-1.220022839823239891e-01,2.127373854871328351e-01,8.853064786654072510e-03,1.515081315677882338e-02,-8.739912578390997278e-03,3.340373635292053223e-01
2.345561168345214886e-01,-1.177685262381044928e-01,1.801006305195019253e-01,-2.637706092171362635e-03,2.774127845217879904e-02,5.768493723320947814e-03,3.321768641471862793e-01
2.426080767462087673e-01,-1.208049797855719615e-01,2.295452451682361561e-01,7.224692372060559885e-03,-1.067170712582013806e-02,1.378819070785968458e-02,3.585541248321533203e-01
2.333827443181993311e-01,-1.390071901291989320e-01,2.363897421454785319e-01,-4.509124687049601010e-03,-2.442386447211534464e-05,6.648398196470680678e-04,3.739858269691467285e-01
8.530312973988514458e-02,-1.329773537277733342e-01,3.267805427225541903e-01,9.319635886800752889e-05,-3.817943105258936320e-02,1.475847766501779505e-02,4.045911431312561035e-01
2.397846179439559466e-01,-1.413615321872964126e-01,2.396912845108673529e-01,-1.035255913187911256e-03,-3.292743566546803280e-03,1.155309426449013452e-03,3.811516463756561279e-01
2.353268310462175161e-01,-1.389621186363367011e-01,2.304694684667368265e-01,-7.301479968109456358e-04,-2.106396889538905172e-03,4.925528391128956461e-04,3.719050884246826172e-01
2.385552596489794452e-01,-1.381926774469422192e-01,2.495205791418087793e-01,-1.563653270437453165e-03,-2.203130475038431527e-03,8.049595772237119187e-04,3.823797106742858887e-01
2.383957628319283151e-01,-1.289611292027444678e-01,2.212856106983646098e-01,-5.063610011765709573e-03,-3.752132942525466999e-04,-9.541188368028028334e-04,3.592191338539123535e-01
2.026400885813543079e-02,-1.709556978007957251e-01,2.743013989985004231e-01,1.396509565505542685e-02,2.020247610547009492e-02,-2.162396820490498917e-03,3.892305791378021240e-01
1.774601157473589541e-01,-1.176309384070493846e-01,2.440777282324114172e-01,7.399139740309776045e-03,-5.602272628690631827e-03,3.276830688517358686e-03,3.338645100593566895e-01
2.271421977290503103e-01,-9.009939940247721490e-02,2.500244944162229310e-01,-1.404109683527437081e-03,-6.146340436175509042e-03,-9.284150568766403678e-04,3.294645249843597412e-01
2.380768388160339477e-01,-7.311090228725719564e-02,2.627242171278439953e-01,-1.301785233584400268e-03,4.031015275639385220e-03,5.501549157314522195e-03,3.244378268718719482e-01
2.329859828323699866e-01,-1.314594754330823401e-01,2.235746949034344011e-01,6.657784202842784160e-03,5.702057958384914140e-04,-3.306961145805137033e-04,3.600186705589294434e-01
1.756181540874042213e-01,-1.236442060176149993e-01,2.300835872137977078e-01,4.478733080095850458e-03,-1.365384209135611995e-02,5.398513365263886161e-04,3.308235704898834229e-01
2.355063259068939097e-01,-1.338534962802592765e-01,2.234771670520619979e-01,6.648257716908728861e-03,6.381663114697819477e-04,-3.951103168306732997e-04,3.636792302131652832e-01
1.895209863432106290e-01,-1.291199548994613755e-01,2.238081158375941904e-01,-7.351428896037535098e-03,-3.379772092138196016e-02,-1.354347815450925030e-02,3.431795537471771240e-01
2.039558180969768264e-01,-1.374057067409932276e-01,2.362094511047616030e-01,9.564033308053826801e-03,7.819213450815815439e-03,-6.621898629964519979e-03,3.593988418579101562e-01
2.275908828357881553e-01,-1.308285627114226246e-01,2.293023517030760017e-01,3.118854923453346674e-03,1.786647851031610565e-03,-2.894300820138915372e-03,3.593671321868896484e-01
2.397047027712865264e-01,-1.360383705115163211e-01,2.495695671092992007e-01,1.048336316733956310e-03,-2.603166391022353459e-03,-6.413463205476670724e-04,3.808040022850036621e-01
2.399616862049990251e-01,-1.300309559179298469e-01,2.564014637007260844e-01,9.484088312082893492e-04,-2.513045421812918517e-05,-1.696136609380001102e-03,3.784953653812408447e-01
1.655027760493277267e-01,-1.203055226756552243e-01,2.306668586437347623e-01,-2.460197761738514184e-04,-1.384499081096353737e-02,3.566686596865756374e-03,3.243001401424407959e-01
1.933007669227713166e-01,-1.503871806638975017e-01,1.653065135808285124e-01,1.356299124255261161e-02,5.698569963459654969e-02,-1.430816785131987234e-02,3.466871082782745361e-01
1.618936609410142335e-01,-1.225513398362662876e-01,2.461635239852278112e-01,4.499555058111486677e-03,-9.471288531227752341e-03,3.982556662060837520e-03,3.351983726024627686e-01
1.439738541629283775e-01,-1.207457943037183040e-01,2.487163922100530944e-01,-6.286535793758182226e-04,-8.366031797419612448e-03,-1.761558550763564187e-03,3.301444649696350098e-01
2.559172621800832603e-01,-8.049768234274792822e-02,3.208233635808737105e-01,-1.204435906197970536e-02,-9.125942044252348395e-02,-2.021386536609639378e-02,4.072702229022979736e-01
2.536775726067490577e-01,-1.307595781971398752e-01,2.379293103859159153e-01,1.273172034393603132e-03,1.687746640871579714e-03,8.729765221023487931e-04,3.768307566642761230e-01
1.548218840315086220e-01,-1.151466352895544054e-01,2.561413340069901290e-01,-1.989885091037074736e-04,-9.480912087271652772e-03,-2.561778792689083442e-03,3.328530788421630859e-01
1.480463134554450000e-01,-1.186334036458857599e-01,2.520201511260232730e-01,5.017192527313682245e-06,3.557895419860558368e-03,-1.077439237863034305e-03,3.312065899372100830e-01
2.534929331420155973e-01,-1.253940139399208065e-01,2.354344151526532591e-01,-4.050503792296541311e-03,-1.739094032371760277e-03,-2.711997284701872166e-03,3.702967166900634766e-01
2.385619473063220475e-01,-1.364657754105462195e-01,2.421718767000013428e-01,3.522206716610735110e-03,-2.002263707556348367e-03,-1.430383135281433973e-04,3.769110739231109619e-01
2.513746003148310537e-01,-1.312345555709171219e-01,2.406147626668269091e-01,2.424083404228693540e-03,6.740895848822357457e-04,1.821346066241982115e-03,3.773826658725738525e-01
2.668260454399694614e-01,-1.347437905637793309e-01,1.809602694767941666e-01,6.386524035414672257e-03,-4.533708264818194639e-02,1.699387659398721856e-02,3.759059011936187744e-01
2.408370431443177251e-01,-1.284986798623503068e-01,1.925005971541224048e-01,3.800266362511299685e-03,4.235864409448602402e-03,-2.494868243511249488e-04,3.478365242481231689e-01
2.242706857295085066e-01,-9.972633274613426635e-02,2.553478304398695276e-01,2.395941625252050286e-04,-1.382506470442085170e-03,-5.715413158359307355e-03,3.407530784606933594e-01
2.098431775828688561e-01,-1.217392112774122875e-01,1.882712778043141577e-01,3.990961377324951133e-03,3.306091041961478627e-02,-1.617369951577152937e-02,3.276751339435577393e-01
2.492012073987029397e-01,-7.050415301677448454e-02,2.580217806332254504e-01,-8.563839030013266351e-03,1.462436823121943770e-03,-3.012258388904644028e-03,3.245966136455535889e-01
2.477888996566772195e-01,-1.318661650118476691e-01,2.362936376876648703e-01,-1.987590169834573071e-03,3.429821546720475314e-03,2.054128923010799853e-03,3.741198778152465820e-01
2.336836652624064425e-01,-1.286953804107255350e-01,2.266285329380157421e-01,-3.769061731586122611e-03,-1.501190097704736782e-03,-1.788879747664751021e-03,3.589856326580047607e-01
2.558472802388433998e-01,-1.201094305693966025e-01,2.395764262270127232e-01,3.855062891656518831e-03,4.073163630978208355e-03,5.782967339077332587e-04,3.682205975055694580e-01
2.401527848090504735e-01,-1.186059332710468484e-01,1.668314518768798660e-01,-1.987991828395083583e-03,4.687076809987343780e-03,1.810480947251207919e-04,3.284159302711486816e-01
2.547905047586666027e-01,-1.298950835369989121e-01,2.415248123327422836e-01,1.310315062026487509e-03,6.103666691530132632e-04,1.764806767235397450e-03,3.782478868961334229e-01
2.392128490383030603e-01,-1.378792522104210216e-01,2.449459509130721413e-01,-3.282770464524163451e-03,-2.097087188942763861e-03,1.456399667750764987e-03,3.800593614578247070e-01
2.375003554221614688e-01,-1.339196408711696984e-01,2.055134738027956653e-01,-6.529314002243173133e-03,2.133197531587101986e-02,4.903311377080769862e-03,3.586928844451904297e-01
2.332136248374422349e-01,-1.273921078868416878e-01,1.782816107037030195e-01,-5.991979690592612318e-03,1.520180217750070548e-02,8.057651248847334108e-03,3.379955589771270752e-01
2.395070919721841163e-01,-1.405725292628471901e-01,2.414352927701092777e-01,-3.004397613355214505e-03,-3.570486982461616721e-03,2.524043587295670549e-03,3.811581730842590332e-01
2.387353761490072501e-01,-1.337544153902416877e-01,2.494228511417753147e-01,2.336603472425885877e-04,-3.548185869391115880e-04,2.475499898254352339e-03,3.779719173908233643e-01
2.354585247017991489e-01,-1.282878230485410276e-01,2.552533459372984259e-01,1.045421722836989339e-04,-8.875283332859934798e-04,-2.535660176052354463e-03,3.740657866001129150e-01
7.957176693153227010e-02,-1.582430817968071834e-01,2.668902242947842063e-01,-9.992551593101833829e-03,-4.352877471485852579e-02,-6.734141994796548868e-03,3.772414028644561768e-01
2.359153226968675465e-01,-1.306768768624103350e-01,2.223720173046833115e-01,-6.644108898601161495e-03,1.451963046226030724e-03,1.408072508786134384e-04,3.602043986320495605e-01
1.362863519250047117e-01,-1.430562669479996107e-01,2.724605714456093675e-01,-2.781068960037327842e-02,4.502762469631748851e-03,5.821383912218192763e-03,3.702671527862548828e-01
2.288353892999928363e-01,-1.725002862082590238e-01,1.205222515905371994e-01,1.569439729804320352e-02,9.213568062076142595e-02,-3.193540960267385320e-02,3.982431888580322266e-01
2.380435742099908936e-01,-1.361007613153564222e-01,2.400670805084742510e-01,-4.140448800918112779e-03,-8.627321560381450306e-04,7.327536559589613524e-04,3.752338290214538574e-01
2.728712846669743564e-01,-1.248956418707346666e-01,2.038369175633749641e-01,-2.958906074159505331e-04,-1.412033339237861625e-02,2.420554219743470403e-02,3.713230788707733154e-01
1.312211828028755911e-01,-1.253409306584327421e-01,2.610875560738874501e-01,-1.021837398126052530e-02,-3.904217958567394314e-02,-1.324375142240958106e-02,3.484544456005096436e-01
1.515468729942305859e-01,-9.170240996143518009e-02,2.722912922485742349e-01,-2.291885861917250175e-02,3.730695556044168887e-02,-6.322516282230765915e-03,3.301387429237365723e-01
1.793563031039018263e-01,-1.409114686811683281e-01,2.670415598285139636e-01,-7.673258386558559109e-03,1.149495222647412170e-02,-2.335932350129804689e-03,3.727362751960754395e-01
1.936150925802473943e-01,-1.392597190764091053e-01,2.437491990749530435e-01,2.985213589121129933e-03,4.970140692798394669e-03,-3.138883981270225530e-03,3.607462346553802490e-01
2.344806044250295485e-01,-1.329458650866871539e-01,2.558386573690351051e-01,-3.044847883618505670e-04,8.767757352487743196e-06,5.661040149864139106e-04,3.785592913627624512e-01
1.150307546220889210e-01,-1.674525525273700133e-01,2.431926619817079138e-01,3.288784786523514525e-02,1.004114663145957986e-02,-3.830093557607649416e-03,3.688051104545593262e-01
1.432641376395402677e-01,-1.422641021233875258e-01,2.377667022448957113e-01,1.354242298448905119e-02,-3.044781946735237391e-03,-2.491956798836621016e-03,3.435649871826171875e-01
1.897180736193569417e-01,-1.300625522965980219e-01,2.459831208766249111e-01,-1.967839476359055807e-04,7.747079755116889621e-03,1.341502562464402261e-04,3.515652120113372803e-01
2.373463726914984417e-01,-1.316241375653611212e-01,2.503982981769099503e-01,-7.158138257118474602e-04,-2.971617536553829327e-03,-5.317257755388276382e-04,3.757050037384033203e-01
2.272101894096999197e-01,-1.275916680294777728e-01,2.468134681729682312e-01,-6.006157606244357048e-04,1.484500886739793801e-02,-6.082262314397676034e-03,3.660561740398406982e-01
1.935268464449854675e-01,-1.370521013317156367e-01,2.397431035751279582e-01,4.659696212791604279e-03,2.567577179161820936e-03,-3.754119906543411291e-03,3.561231493949890137e-01
2.019044423706443658e-01,-1.237753930271983244e-01,2.492915957217260448e-01,7.611773716780145718e-04,-2.144310169843010282e-03,-3.787549883398589820e-03,3.518586456775665283e-01
2.421414594374377005e-01,-1.277708834930658677e-01,2.348794973356385096e-01,-7.323894536206621703e-03,2.669271300156935518e-04,9.102140404288149717e-03,3.668940961360931396e-01
3.327492337520749910e-01,-1.653013659843612371e-01,1.214037083856901178e-01,1.963392571162304173e-02,-6.057491855927225888e-02,-1.013189680262086738e-03,4.467975795269012451e-01
2.362771782613129201e-01,-1.393142546905041801e-01,2.394777310464762388e-01,-2.700807881188457653e-03,-1.270059086781999587e-03,1.198190223861747301e-03,3.772430121898651123e-01
2.257179198446584989e-01,-1.404740452013069629e-01,2.344764232498124934e-01,4.065926886931622852e-03,-7.328046901816727583e-04,6.145890775118806153e-03,3.708707094192504883e-01
2.440819373092709133e-01,-1.390941304246075538e-01,2.392844521800610025e-01,2.627104559639386271e-04,4.065550575665266564e-03,5.744033555566034968e-04,3.808666765689849854e-01
2.389609019420590452e-01,-1.388460226493385408e-01,2.438461106657242028e-01,-1.196875180244311686e-03,5.074838451727648261e-03,-8.796575681703584695e-04,3.803833425045013428e-01
2.258586806938017166e-01,-1.408426235936614257e-01,2.326563430506166930e-01,4.569082436880665676e-03,-1.015139870439526418e-03,5.017106537871716260e-03,3.703376948833465576e-01
2.359148354887192212e-01,-1.144253256458953039e-01,2.452296456073214670e-01,-2.352838671862712491e-03,7.090613791518651787e-03,-2.084294029196230059e-03,3.553432524204254150e-01
2.394892815086647198e-01,-1.396277903733608716e-01,2.373487152982942106e-01,1.406117260516640509e-03,1.192283672646696354e-04,2.767285408767462991e-03,3.780896067619323730e-01
2.463642034222975896e-01,-1.328495326799659648e-01,2.410012151923821566e-01,-1.244861772362843705e-03,4.313029380773927488e-03,-7.553975176489303306e-04,3.766434192657470703e-01
2.386069962825400070e-01,-1.332726930470840010e-01,2.209028430405840515e-01,3.760118990099366870e-03,1.515994116173523601e-03,7.804415980790136050e-04,3.634216189384460449e-01
2.662395641142316083e-01,-1.343667807917187651e-01,1.437357273161532500e-01,1.921735400757926260e-02,3.566477872920972847e-02,-1.953726593739676248e-02,3.639859557151794434e-01
2.372209290480516986e-01,-1.381398088477826525e-01,2.381756540529040289e-01,2.252128915631420453e-03,1.836159887216628475e-03,2.465916426683508692e-03,3.758969604969024658e-01
2.958931176755926207e-01,-9.707306232994118711e-02,1.375673825242342552e-01,-2.081045550124344112e-02,-3.287553411983983043e-02,-1.034259984308567686e-02,3.494786620140075684e-01
2.423192078917020820e-01,-1.297003856271047584e-01,2.366035870169356792e-01,-4.296749787475994883e-03,-1.390975090788239580e-03,-2.314888239752565212e-03,3.692995905876159668e-01
2.417002113106387906e-01,-1.327980629049608230e-01,2.456671914289757785e-01,-2.824544199255048238e-03,1.570522087708654769e-03,-4.418753462683728281e-05,3.765390515327453613e-01
2.316557647942297793e-01,-1.341228306709849050e-01,2.437416735812208413e-01,8.440245373409271251e-03,-1.161058750594059965e-03,5.220919106741760476e-03,3.723712563514709473e-01
1.182987727958481061e-01,-2.724990703144419824e-01,2.704467756567662806e-01,1.022922479901896935e-02,9.813959919639415885e-02,-1.000866968521373123e-03,5.143365859985351562e-01
2.615219619815094543e-01,-1.171593701879504179e-01,2.372167053325443531e-01,9.425908206289969251e-04,-1.690127627300880286e-02,-3.444426425024280959e-03,3.683497905731201172e-01
2.511069662697426597e-01,-4.931883529477745776e-02,2.243124209664199009e-01,-3.364252314486808641e-04,-2.329776526632853367e-02,2.505776150650254781e-03,2.908115684986114502e-01
2.037319752421479224e-01,-1.197794923969927317e-01,2.125594086835490559e-01,5.849380596092390019e-04,5.215787885974529359e-03,-1.831685570915415635e-03,3.281555771827697754e-01
1.716469597083462584e-01,-1.280029215160565503e-01,2.407535415867571305e-01,5.693813962365203846e-03,4.393236489476176621e-03,-7.658821758778518868e-03,3.400068879127502441e-01
2.486390860855532681e-01,-4.574114604331969147e-02,2.590673390526881947e-01,2.777303824218326899e-03,-8.792109449183211668e-04,2.236675106771752325e-02,3.022657930850982666e-01
2.959025272138865459e-01,-6.310359672962495559e-02,3.017840053731415395e-01,-8.628710750328907886e-03,1.804372104414591824e-02,5.717079029547735697e-03,3.637713789939880371e-01
3.082807034767370835e-01,-1.093841790288627158e-01,2.340556119686607595e-01,-5.965218538319451945e-03,-1.374925070306939369e-02,-9.376592453692697560e-03,3.871559798717498779e-01
2.258155409872522612e-01,-1.290350590592708180e-01,2.178999564863311478e-01,-5.996890534408699097e-03,1.205769476035875847e-03,1.855303793962665348e-03,3.511343598365783691e-01
2.355757607895100358e-01,-1.386741635951743712e-01,2.271394169387881135e-01,-6.416425856993343384e-03,1.248170695373182915e-03,4.093748976649878510e-03,3.703448772430419922e-01
2.391254256948717738e-01,-1.319760636288089262e-01,2.224003890059025323e-01,-5.881170417541166373e-03,-2.199435877640653421e-04,-2.786016055235376811e-04,3.631714582443237305e-01
2.329917234342682719e-01,-1.375877518163462210e-01,2.024254057549869368e-01,-7.475144314795414101e-03,4.513879526988822527e-03,8.452796197560279168e-03,3.569023609161376953e-01
2.354498312874785670e-01,-1.384776281122090669e-01,1.966263071254265304e-01,7.728799671720766422e-03,-3.602177463527433954e-02,1.090887635679315022e-02,3.622716367244720459e-01
2.424524023175590459e-01,-1.175762313568130130e-01,1.861827119979181377e-01,-5.896651787025732928e-03,-2.956679388972698053e-02,-4.539717920768494841e-03,3.395834565162658691e-01
2.383332990157878140e-01,-1.291955454940675874e-01,2.043152316002410374e-01,-1.822067828974837517e-02,4.442232205102242260e-02,8.177732272726445650e-03,3.617301285266876221e-01
2.443184802075242801e-01,-1.221007999695168239e-01,2.029829438472858238e-01,-6.292213515563367665e-03,2.954803175481682340e-03,5.808532571495120689e-04,3.478096723556518555e-01
2.427241321765279125e-01,-1.306474632278180337e-01,2.493328351189148251e-01,-4.434696639780447494e-03,-8.574549764752088798e-03,-9.672584083849045892e-04,3.770940303802490234e-01
2.283289925209264215e-01,-1.207528986454107084e-01,1.779523764222826765e-01,-2.184337447737990951e-03,-8.061006742465879477e-03,-8.705217983058636567e-04,3.271420598030090332e-01
2.470360012559530416e-01,-1.166252601220688218e-01,2.047694856469507996e-01,-4.301254788115970937e-03,2.576383656061548202e-03,-4.770565532246440004e-04,3.445886969566345215e-01
1.790343007930330077e-01,-1.321434567273478411e-01,2.244897418622967544e-01,-1.434197353683728041e-02,3.085412923842735869e-02,1.104622532346042837e-02,3.418794870376586914e-01
2.431805760568653829e-01,-1.344268043906804710e-01,2.167697662234989164e-01,6.913537246857714806e-03,-8.530165400565026170e-04,-9.291148790449206031e-04,3.653219342231750488e-01
2.397817803209582599e-01,-1.349711931995247749e-01,2.506125375846192105e-01,-2.965280920894259329e-04,-1.718736466424128709e-03,1.803210620716883081e-04,3.802961707115173340e-01
2.383028781874301227e-01,-1.366959143966035573e-01,2.443539811823021712e-01,-3.303399272779895725e-03,-1.687968909773973581e-03,-3.895812510797090622e-04,3.781158626079559326e-01
2.422492042366328202e-01,-1.216793518244035227e-01,2.488060585269752933e-01,-2.328858768989488896e-03,-1.057385146417484136e-03,-8.124157171719891468e-04,3.672803044319152832e-01
2.212052468503822866e-01,-1.262861345366017574e-01,1.996159799052112382e-01,-6.907187667086110705e-03,4.949345911279179680e-03,2.158881258332558985e-03,3.375571966171264648e-01
2.373072088537102609e-01,-1.366752468982364022e-01,2.492438890285497699e-01,1.592048478994114976e-03,-3.156814478598660243e-03,-1.458393321820042722e-03,3.801491260528564453e-01
2.440093330363407031e-01,-8.181198661437580344e-02,2.579254878086558733e-01,1.105068511528058475e-03,-3.558799245639849250e-03,-1.219735316763123981e-02,3.337294757366180420e-01
2.407602072879079791e-01,-1.375900465144609397e-01,2.448015751424224562e-01,-1.517495263768065981e-03,-5.719869505303176727e-03,1.287151099251385589e-03,3.805316388607025146e-01
2.331095900509890240e-01,-1.335773457587941526e-01,2.279908426467934512e-01,-6.513375025509631801e-03,6.051847113179283609e-03,1.044871737333077227e-02,3.649290502071380615e-01
2.420011629836072431e-01,-1.294958614152360576e-01,2.467388310701725818e-01,-4.068695921427600663e-03,-2.997088812414746336e-03,5.570379721202797438e-03,3.741152286529541016e-01
2.411714150630029918e-01,-1.359442118416401279e-01,2.327863198589578131e-01,-1.260592135033682852e-03,1.880897846915014003e-04,-6.812178689625726646e-03,3.731868863105773926e-01
2.399818791934871243e-01,-1.153536536959796910e-01,2.547637065102417719e-01,-1.006090635192853026e-03,-7.819483233513261147e-03,-6.690914077474097513e-03,3.633939027786254883e-01
2.437542188746051330e-01,-1.335999523384550636e-01,2.445459111427304433e-01,-5.026836921390787690e-04,5.124869272565848143e-04,3.170770335367091575e-03,3.777925968170166016e-01
1.571032917099796089e-01,-1.276629337136541142e-01,2.654348060352491601e-01,1.188655916308931776e-02,-4.879724592074564937e-03,-5.125803868030893431e-04,3.523815572261810303e-01
2.350359352571284033e-01,-1.355696612304205795e-01,2.472493172916276349e-01,1.811212735068174493e-03,-3.196752430575566708e-04,-2.200121475098656791e-03,3.768934905529022217e-01
2.632491242037375834e-01,-7.267987375090537161e-02,1.880636986411483025e-01,-2.591565845104845667e-02,4.452726822849799315e-02,5.184253855412370056e-03,3.182573020458221436e-01
2.375862566673438425e-01,-1.088702980144816146e-01,2.528860886900318183e-01,2.888738797724465547e-03,4.722807530731891468e-03,3.546276573019894237e-03,3.545372188091278076e-01
2.480654705037949603e-01,-1.347234112362147296e-01,2.356600487043495895e-01,-5.630478629594620754e-03,3.787806346342694006e-03,2.658154451085545031e-03,3.769508004188537598e-01
2.352870342469634835e-01,-1.306690122037947321e-01,2.119118071532733460e-01,-9.178059906919777688e-03,1.022041729131957857e-02,7.417024061573583397e-03,3.558750450611114502e-01
2.369702685532589781e-01,-1.353977032646523915e-01,2.429537143489688411e-01,-2.498302122692743973e-03,9.801225504656439248e-04,3.102681312437725793e-03,3.754627108573913574e-01
2.304983600031806357e-01,-1.554142587789499319e-01,2.149411140952108834e-01,-7.846559569076726193e-03,5.312529989177480760e-02,4.046071283606124738e-03,3.897018730640411377e-01
2.325238964468167580e-01,-1.356575954774380810e-01,2.414530694825754997e-01,-1.960969235106741707e-03,-1.667392830793569753e-03,2.439376557685133361e-03,3.727769255638122559e-01
2.397698500028543345e-01,-1.338134744130438092e-01,2.152140817876039280e-01,1.140383533756609896e-04,-4.681461637248770938e-04,1.478776082661132068e-03,3.619407713413238525e-01
2.319751321212091821e-01,-1.337727145195482803e-01,2.364666836074028056e-01,-2.087282279357689958e-03,-1.022400199689555821e-03,2.453993523264921643e-03,3.680607378482818604e-01
2.544168452882891174e-01,-1.268771433796461179e-01,1.351171514625187642e-01,-4.377750812106365251e-04,1.188696650163854332e-03,3.037826531737134123e-04,3.378377556800842285e-01
2.498523721617884052e-01,-1.349714528442036987e-01,2.355210786465462003e-01,-7.298032931208951832e-04,-3.972701536049012827e-03,4.507537785176962447e-04,3.779276311397552490e-01
2.262154302162728836e-01,-1.254606916175500242e-01,2.072927350773938193e-01,-6.975148510375131505e-03,5.386597112313761503e-03,7.311819442109571609e-04,3.429491519927978516e-01
2.265285449116933303e-01,-1.409490620781502779e-01,1.766976741428248066e-01,4.613670962375376709e-03,-6.712052464440851351e-02,-4.222387182421977886e-03,3.644777238368988037e-01
2.449330718588803857e-01,-1.331508648379463866e-01,1.802071523702227229e-01,-1.924481069499347325e-04,2.971002978057539837e-03,-2.046807746488127052e-04,3.502738773822784424e-01
2.488642471752449126e-01,-1.330642544662404836e-01,2.395391808623352770e-01,1.878244346729971391e-03,-3.053803354484778670e-03,7.741034226829729848e-04,3.774058520793914795e-01
2.392252230168361860e-01,-1.320547084979150076e-01,2.512343016666502837e-01,-9.584407538911929271e-04,3.724351645828427940e-03,2.004285829490082705e-03,3.775025308132171631e-01
2.401169041344692334e-01,-1.338355337330196515e-01,2.388663698234955168e-01,-3.788561251448550968e-03,-1.529600571691788410e-03,5.388452677603697283e-03,3.735124170780181885e-01
2.390679652927197862e-01,-1.360979227906636280e-01,2.146004437159529377e-01,-3.776872907035824616e-03,-1.697546021004204316e-03,-8.968100993109085102e-04,3.636242151260375977e-01
3.535754798890595740e-01,-5.368552244697796794e-02,2.359408006700821625e-01,1.547175149655451512e-02,-5.971048266241224534e-02,6.844019623289373036e-03,3.786107599735260010e-01
2.408627818434287693e-01,-1.277321794159860247e-01,2.253442705081838970e-01,3.751647321647025735e-03,-1.036406184761071159e-02,4.686034068807886852e-03,3.616813123226165771e-01
2.445246534158030949e-01,-1.364592999530718775e-01,2.379817702306476213e-01,6.775351398684717821e-04,-1.161686848767178168e-03,1.804513774336847240e-03,3.777751326560974121e-01
1.630253933481779494e-01,-1.283543467608310173e-01,2.650234261950035197e-01,-5.865001721579777595e-03,4.675843151032092922e-03,-3.021206560145985607e-04,3.538290262222290039e-01
6.625531819207934603e-02,-2.085425547367649735e-01,2.889923940350088150e-01,2.433767043299723924e-03,-3.560556971551462335e-02,2.524739244714470712e-02,4.382541179656982422e-01
1.404274788333655655e-01,-1.397983283952660694e-01,2.696758624304632646e-01,-1.792894127539135241e-02,2.586475905445943108e-02,-8.048205386702728115e-03,3.669005334377288818e-01
1.668515709627970134e-01,-1.215221419167603206e-01,2.281438144600050344e-01,6.853164479604691704e-05,-1.646142333597219384e-02,-4.143992975893262889e-03,3.247393965721130371e-01
2.514822382520741639e-01,-1.835005626551924618e-01,7.536952115884047732e-02,1.469035034348100364e-02,7.546244377395937286e-02,-1.962032756884509593e-02,4.031200408935546875e-01
6.969634521063239330e-02,-1.644717014968617164e-01,2.809083164300104629e-01,-2.109208746086705527e-02,-3.185495044298890070e-03,1.018312965216883713e-02,3.880469501018524170e-01
2.337481280611062306e-01,-1.196399967980112944e-01,2.305313696978633642e-01,8.364877531197354929e-03,-1.597918957564304493e-02,1.057307706549319437e-02,3.536495864391326904e-01
2.157624571468905184e-01,-1.245136496393618869e-01,2.195586036562606758e-01,-1.103782753232468352e-03,-2.458382999709804798e-03,-3.053196166803522592e-03,3.422626554965972900e-01
9.215111599276687437e-02,-1.552876955985900698e-01,2.812855934637801814e-01,-1.051993573836836407e-02,3.773396962229214752e-02,1.820023905144894927e-02,3.865156471729278564e-01
2.659569076928118281e-01,-5.111151113479436847e-02,1.766077675293549198e-01,-8.788794468109631733e-03,2.661239438447624353e-02,1.094126499683047496e-02,2.879259884357452393e-01
2.345835083405108934e-01,-5.438944008597748625e-02,2.044878665875464741e-01,-1.661501511658346197e-02,5.254612993324837139e-02,2.056306866311548992e-02,2.934182584285736084e-01
2.591007557866348843e-01,-1.212134692143630316e-01,1.775155457333860709e-01,4.101300788374028926e-04,-2.263043360444667287e-04,9.775537159866125921e-04,3.468004763126373291e-01
2.218453143827375795e-01,-1.121326980424409425e-01,2.095398185307609795e-01,3.680175445283563000e-03,1.589790293411734792e-02,-3.707799712644358793e-03,3.292765915393829346e-01
2.131584902345892707e-01,-1.185873675798067295e-01,2.147443780606264896e-01,3.393565864666018336e-03,6.896581883657867951e-03,-3.603788506646169159e-03,3.328665494918823242e-01
2.383546094299318630e-01,-1.337913263406572129e-01,2.543974090344148786e-01,-3.783546974968639395e-05,-4.023462143968590849e-04,-7.045478626409445999e-04,3.804237246513366699e-01
2.369355610840314097e-01,-1.352512832237959817e-01,2.489008618682944096e-01,9.500162012622411726e-04,3.157539843823517576e-03,1.083464237484952838e-03,3.783591985702514648e-01
2.458166234156569374e-01,-1.326490306996053747e-01,2.491656667308166373e-01,-3.934251179925128770e-04,-1.475391064693139243e-03,-9.870503946441309094e-04,3.801642954349517822e-01
2.377260449572917156e-01,-1.390847880832082883e-01,1.923164329501853009e-01,-3.450496314928130828e-03,-7.235954180208617297e-03,8.741320131419816558e-04,3.565567135810852051e-01
2.217380061168632843e-01,-1.278905169026635646e-01,2.270413484896123824e-01,3.646150321499697002e-03,1.545989248209038392e-03,-3.313774780936230412e-03,3.524236381053924561e-01
2.371149561890621427e-01,-1.337374963009064777e-01,2.324650644351805850e-01,7.033281571172791957e-03,6.917108846137117123e-04,6.382518166458751516e-03,3.689183890819549561e-01
2.169454007694179842e-01,-1.250277897882731692e-01,2.147863899890931627e-01,1.050264240153709391e-03,-1.045960323403594128e-03,-8.451445644837904782e-04,3.409116268157958984e-01
1.906688390816593526e-01,-1.215887069566292666e-01,2.156169931777497384e-01,1.295133801895035958e-04,7.828518456876291595e-03,2.459640087661068425e-03,3.257598578929901123e-01
2.363513691359549196e-01,-1.236835509348061246e-01,2.427524890156851911e-01,1.376412430011414965e-03,-3.939735275121565919e-03,-7.527545467466433037e-04,3.633520305156707764e-01
2.394454104988203991e-01,-1.350493667185614921e-01,2.461077989454466541e-01,2.785417439459401262e-03,-2.491447919030656630e-03,1.681008407408324690e-04,3.779255747795104980e-01
2.762050877132176119e-01,-1.105886912662506494e-01,1.425240880891025519e-01,-8.313586151698842269e-03,2.421342378486690886e-02,8.199632270833637736e-04,3.431345224380493164e-01
2.468474629810290533e-01,-1.310537787555290934e-01,2.404437242046275625e-01,8.734153500557184603e-04,-6.301627099781275873e-03,2.048771679921420718e-04,3.749025464057922363e-01
2.372979355735570506e-01,-1.369265048851329714e-01,2.496606003529658335e-01,-1.263080296247077409e-03,1.042740410514996895e-03,4.119103076837395756e-04,3.805676400661468506e-01
2.214209568493475666e-01,-1.510888405409200608e-01,2.228631330862271276e-01,1.141672029953530107e-02,9.951187549889193434e-03,-1.326997616742110753e-02,3.748589456081390381e-01
2.313101576635044065e-01,-1.390436387726470824e-01,2.286626778052661124e-01,-6.483240014175090278e-03,-5.891280668700458112e-04,-4.326386054714236387e-03,3.692854344844818115e-01
2.516730078880845545e-01,-1.395147993597621316e-01,2.293835853584591522e-01,-1.380445214399992487e-02,-3.057596827423202102e-03,-1.445174835000949051e-02,3.821409046649932861e-01
2.353582456171153248e-01,-1.372302301374182520e-01,2.261889410078246621e-01,4.928363823698613498e-03,-1.383763138992107265e-05,-4.663417669698086479e-03,3.682770431041717529e-01
2.360008733472146736e-01,-1.304251161374750112e-01,2.508300485031423888e-01,-5.124377543012917022e-04,-4.597553893977521233e-03,7.140063760677341307e-04,3.741489350795745850e-01
1.838342063070884658e-01,-1.201637830424164416e-01,2.265487121036447449e-01,-3.351484412383258895e-04,-4.219400114133265225e-03,-2.427587119390505442e-03,3.275604546070098877e-01
2.547393983770250281e-01,-1.286555121729311413e-01,2.364709400837853304e-01,-1.725858425890630849e-04,6.444860403789168073e-03,-1.621908684055489150e-03,3.747718632221221924e-01
2.435937287417911379e-01,-1.027639702947168721e-01,2.572757081395477541e-01,-5.640797357021327778e-04,-5.213386226531198722e-03,4.990873744768989373e-03,3.536197543144226074e-01
2.484866519126959772e-01,-1.207216591939995892e-01,1.398676007153062673e-01,-2.307247007442735781e-03,-2.391861761972811137e-03,5.207475974274151627e-04,3.287001252174377441e-01
2.380587596159326746e-01,-1.261848018075342193e-01,2.567872025286940807e-01,-5.656509916938832691e-04,-4.466145702063013118e-03,-1.277047098654715811e-03,3.740474879741668701e-01
2.387123272349363778e-01,-1.358130486810011917e-01,2.385340381991273018e-01,3.126227967182291807e-03,-3.595459967010296558e-03,-2.482037316182973338e-03,3.745518624782562256e-01
2.433492067297525208e-01,-1.234769349428595092e-01,2.469277898738140298e-01,1.071974874368969433e-03,-6.563398243609510838e-03,-3.463632589095489963e-04,3.688088655471801758e-01
2.442292976230994173e-01,-1.370634776571346691e-01,2.385265208921346081e-01,6.580042566941717887e-04,9.395402467295793604e-04,-9.289743449913973744e-04,3.784822523593902588e-01
2.339298245544427779e-01,-1.322718749818639905e-01,2.239435439716568055e-01,-6.725481944636161127e-03,-1.264469114229669396e-03,-9.111444198462373282e-04,3.615098893642425537e-01
1.304565320774722925e-01,-1.118814556129496124e-01,2.281382632643307318e-01,-8.172398332907622465e-03,-5.461215725048677166e-02,6.712362139447861174e-04,3.179474771022796631e-01
2.383863175343704510e-01,-1.346425864010084017e-01,2.458855785068282396e-01,1.751674608804580039e-03,8.161579628600739789e-04,2.951762694627811569e-03,3.768840432167053223e-01
2.412932110064983093e-01,-1.327745576156438290e-01,2.504052108648325836e-01,2.719808357232986890e-03,2.333018587411849702e-03,2.034769788249903358e-03,3.787732422351837158e-01
2.390338889088780838e-01,-1.254364084716508010e-01,2.563841600143922372e-01,1.464966051237605901e-04,5.844158440829626613e-03,1.255956495803385239e-03,3.735914230346679688e-01
2.514872194652856274e-01,-1.228667463201904564e-01,1.415650410238155354e-01,1.971443753732502000e-03,-5.496304360346556013e-03,4.974028053977215189e-03,3.335423171520233154e-01
2.297895830465494782e-01,-1.543635541377522402e-01,1.727621472197279351e-01,-2.101299858059234998e-02,-4.415594993487248487e-02,-3.058971761935110750e-02,3.726923167705535889e-01
2.359536140398042492e-01,-1.356503782199975361e-01,2.487490652173197647e-01,9.417966019196416863e-04,1.319321763565187459e-03,1.208656099735933498e-03,3.781803250312805176e-01
1.585728266955946653e-01,-1.290100928536283276e-01,2.281254050909941045e-01,2.198468649585729601e-02,6.532612479318763987e-02,-2.289679310626977979e-02,3.512391149997711182e-01
2.547838706970874112e-01,-1.628266997075412115e-01,3.086099918254348734e-02,-6.161830208763691748e-04,5.682965442819824797e-02,-6.261847535579840966e-03,3.752799928188323975e-01
2.360596433306183517e-01,-1.284108807557443610e-01,2.552744695926700835e-01,2.517543624423362100e-04,2.022029146477143623e-03,-2.183475544305166736e-03,3.744836151599884033e-01
2.385347601275958074e-01,-1.413918871169324298e-01,2.392059510640596465e-01,-6.596172883389699254e-04,1.818530821642377242e-03,-5.765594488920846705e-04,3.802787661552429199e-01
2.959574315223062468e-01,-1.151239169331379208e-01,2.279689682642795368e-01,5.088764639661244073e-03,-9.445841781799169112e-02,6.868261934108339795e-03,4.155091941356658936e-01
2.386657897222114744e-01,-1.326391038025445668e-01,2.546023374844582632e-01,9.483702051056800818e-04,1.054724330417073416e-03,1.079652766487916929e-03,3.795367479324340820e-01
2.386531334981316088e-01,-1.352739546887513633e-01,2.463894013938821570e-01,5.357923667483434956e-04,7.294748617836585699e-04,-4.662210831062203178e-04,3.778587281703948975e-01
2.449336225849541304e-01,-9.782992605954407561e-02,2.610246154851885159e-01,-1.540416212745971682e-04,-4.138988258561956263e-03,-7.254145541497503125e-03,3.513837158679962158e-01
2.370719017871488754e-01,-1.323405690372736476e-01,2.563736478164769239e-01,-3.443329087199108792e-04,3.614633839682263733e-05,8.720938439949084669e-04,3.794352114200592041e-01
2.850867352484709460e-01,-1.257846296046751799e-01,5.711320886163095273e-02,2.194249571877950750e-02,-1.140060322583224053e-02,6.488854370421328656e-03,3.592771589756011963e-01
2.492998638755018481e-01,-1.286992804986488714e-01,1.566335117248188191e-01,4.673698085139683933e-03,-1.539322247319734223e-03,2.601209410171676298e-03,3.413730263710021973e-01
2.356054739759325112e-01,-1.334561066888659830e-01,1.338010691029229426e-01,3.589232231073025657e-03,-5.851557088864885355e-03,9.834571277317285740e-03,3.308020830154418945e-01
2.181953136421391493e-01,-1.494460192352586592e-01,9.344466141836450801e-02,3.465281884956336253e-03,8.528930479824892164e-02,-2.491692740749035240e-03,3.560011684894561768e-01
2.367949111210860269e-01,-1.357483245126551441e-01,2.513938698953002704e-01,3.578670595378208481e-04,1.759854590260025902e-03,-1.494498319863881341e-04,3.800658881664276123e-01
2.442910889663252316e-01,-1.331616787047706640e-01,2.479721388807058780e-01,2.558681408966908231e-03,-4.918988649586810129e-04,-1.330260616301278450e-03,3.793405294418334961e-01
2.434005649116627035e-01,-1.335815104531955511e-01,2.163525835216226767e-01,-1.384852659940183557e-04,-5.082120710868242176e-04,-7.893471944319307640e-04,3.642158508300781250e-01
2.357977872586282386e-01,-1.350698956190062860e-01,2.530779717094214232e-01,-5.945615250272825428e-06,2.776620195577807139e-04,-4.443396054328965544e-04,3.798038065433502197e-01
2.444482618293111753e-01,-1.198082771475930397e-01,2.443299166701258240e-01,5.075683060190587428e-04,9.696680037831700502e-03,-3.517029941808513197e-03,3.646363914012908936e-01
2.533632127790569344e-01,-5.570614020028599733e-02,2.565137445603706268e-01,-3.089292414059284161e-02,-2.786103495104477398e-02,-1.032642311290740212e-03,3.189083635807037354e-01
2.362279423108617493e-01,-1.372627978978022134e-01,2.456431013731627533e-01,-2.583533625985165449e-04,-7.164407982892702365e-04,-1.349124951056045706e-03,3.782957196235656738e-01
2.404155417399627404e-01,-1.322414618955395915e-01,2.554198942207333012e-01,1.206974435450551900e-03,1.471679927037196833e-03,1.495230104542642833e-04,3.803955614566802979e-01
2.486823570576415787e-01,-9.955319962014738677e-02,2.470187416504753264e-01,-7.097711178319859350e-03,1.929045662925933224e-03,1.591365558499964993e-03,3.476511538028717041e-01
2.414545704367603851e-01,-1.356622243806937522e-01,2.401954630028870774e-01,4.511312151037404766e-03,2.079260522162201320e-04,-1.381715507527528841e-03,3.765776753425598145e-01
1.715763330129236319e-01,-1.299124303959854898e-01,2.052017209260122710e-01,6.166367180090963698e-03,3.175386321279760615e-02,-6.894885079151299133e-03,3.247236311435699463e-01
2.338137072972813479e-01,-1.194434720899883451e-01,2.579930526397229418e-01,-1.184765727426900756e-04,2.293902839414027877e-03,2.264527760918143284e-03,3.659890890121459961e-01
2.370870462706724524e-01,-1.395694847157529228e-01,2.383389093230467437e-01,-2.804829336527269595e-03,7.287087406943758457e-04,-1.800864469245532081e-03,3.773303031921386719e-01
2.398294336985750674e-01,-1.392956100495041649e-01,2.362077921780569301e-01,-1.830142472606887316e-03,2.004417351975805797e-03,-2.991362896495715351e-03,3.773921132087707520e-01
1.804906327810242017e-01,-8.859131676908224562e-02,2.414941024387279866e-01,-1.630323492984079789e-02,-4.768577616169807770e-02,-8.167970628580133565e-04,3.164848089218139648e-01
2.499601276733213195e-01,-1.355777021679100969e-01,2.376320369726407367e-01,2.934843860971927346e-03,-1.182991905439359764e-04,9.662660192117765055e-04,3.795617818832397461e-01
2.548825054198225470e-01,-1.152866370652026046e-01,2.313592485039158153e-01,-4.135271167637334070e-04,-2.783857541653574682e-03,1.724755236813778564e-03,3.590315282344818115e-01
2.350766492363096649e-01,-1.245869880556232101e-01,2.488449739952147133e-01,1.573187261666188219e-02,7.711009666662595359e-03,-4.551596022932052291e-05,3.679949939250946045e-01
2.388917012117177108e-01,-1.394841759863165165e-01,2.453507077089091548e-01,-1.588827584787423901e-03,1.697441276461037494e-03,-2.097437382899864928e-04,3.816677927970886230e-01
2.573941827658322579e-01,-1.044975224043410977e-01,2.345197320980197953e-01,-4.824456439106006300e-03,3.170126701514894892e-03,-1.142580076171020691e-03,3.511618673801422119e-01
2.450132785075890274e-01,-1.129118373366013589e-01,1.667785364897676481e-01,-4.911377642204963444e-04,-5.849985140713143648e-03,1.043955138042877966e-03,3.260913193225860596e-01
2.609192900273742399e-01,-9.820013411562880656e-02,2.418972984996408671e-01,-5.395480722247925770e-03,-6.065109886123507205e-04,7.719894893749569510e-05,3.501226603984832764e-01
2.180608945167997748e-01,-1.295655569045474631e-01,2.265781801363583869e-01,-4.927527201407905233e-03,-1.669935189522555848e-03,-6.064915726439351097e-03,3.522344231605529785e-01
2.486056280649976968e-01,-1.215058971453857328e-01,1.670915639145889309e-01,1.315189137500261422e-03,-4.539031873302521239e-03,2.537088229129579736e-03,3.369630575180053711e-01
2.563451601781449041e-01,-1.325044030290561947e-01,2.363906810839531136e-01,-1.997988150736122390e-03,7.490912680376087245e-04,-7.112117736688887241e-04,3.792862296104431152e-01
2.254797473158227927e-01,-1.343278359550996170e-01,2.239202262470724736e-01,-7.093758423144858050e-03,-2.754183805499869821e-03,-2.120093514449371101e-03,3.592909872531890869e-01
2.435561720326047397e-01,-1.335819821064394841e-01,2.380445549456553789e-01,-7.458245361181200248e-04,1.306570379509541368e-03,3.787655291140494865e-05,3.744218349456787109e-01
3.735801862382733263e-01,-6.236711431544805784e-03,2.609214049297094995e-01,1.534333190025740853e-02,-4.308194292145323123e-02,-1.320337924734430075e-02,3.477938473224639893e-01
2.362787098419724119e-01,-1.303244977564636531e-01,2.248005147730378073e-01,-5.691833480616441052e-03,-9.787201496715457541e-04,-7.903140634941943545e-04,3.611421585083007812e-01
2.530813719278480756e-01,-1.339569066157506594e-01,2.403706673867548882e-01,2.211070883933260339e-04,2.139447988905565125e-03,2.490324662719655986e-03,3.808846771717071533e-01
2.445586969886050510e-01,-1.398529945044179601e-01,2.377703618057275259e-01,4.518101726254356194e-04,1.459288555651324423e-03,-1.194983377588867447e-03,3.810776770114898682e-01
3.310782200829631150e-01,3.787656653588852840e-02,4.158704503143473841e-01,-4.271575437944838405e-02,-3.777878682724915282e-02,-8.370622326502522373e-03,3.577484786510467529e-01
2.212970157337486310e-01,-1.261776690509603394e-01,2.100295992864411043e-01,-6.416527024248688989e-03,3.229877350335466288e-03,4.502623517032912121e-04,3.422073721885681152e-01
2.548311141396716328e-01,-1.205296621258069578e-01,2.365511855606446945e-01,-7.000125288111372053e-04,-3.949837574480131314e-03,2.255138918356201316e-04,3.666288554668426514e-01
2.273106916828089852e-01,-1.384862910091598509e-01,2.345713366008260747e-01,5.220275961387245769e-03,-1.013283429079810116e-03,-2.847203389126324452e-03,3.696284890174865723e-01
2.582461371907179837e-01,-1.152208122461274020e-01,2.556407748825422765e-01,-1.750442660807755707e-02,-2.740611941003057161e-02,2.182050111986174289e-03,3.764280974864959717e-01
2.514755895926515938e-01,-1.197949493168499746e-01,1.591657487372535873e-01,-6.433229871335931194e-05,-1.310476641905918482e-03,2.461833585709538239e-03,3.348347842693328857e-01
2.290586394561980044e-01,-1.281150678437986135e-01,1.915001440859863679e-01,-6.691998898270150320e-03,-3.986904472186652074e-03,-4.605134800457262741e-04,3.402226567268371582e-01
2.549184047919045848e-01,-1.337398474665749681e-01,2.352986141158047717e-01,-1.206171183958147999e-03,2.850283756374976003e-03,-1.630209514610656094e-04,3.792671859264373779e-01
2.530593020702927021e-01,-1.306994961228241381e-01,2.382109620492405822e-01,-1.511170372157821101e-03,3.324511610839273740e-03,4.441863272813665101e-04,3.766081631183624268e-01
2.515807635380554186e-01,-1.353349609160471867e-01,2.368630110014059431e-01,1.047494993803847968e-03,3.284873603763527241e-03,1.080345859667459531e-03,3.798223733901977539e-01
2.538523791238688765e-01,-1.358849800191158086e-01,2.355805922964895327e-01,-8.999201553614675228e-04,9.435897250905505304e-04,9.574037907406420271e-04,3.809405863285064697e-01
2.293184986081431842e-01,-1.367134407812937713e-01,2.396095683754423944e-01,5.009259330388181504e-03,-7.592596476018624108e-04,2.111787769052639666e-03,3.714061677455902100e-01
2.195315512148855175e-01,-1.323859998732186960e-01,2.440693869344113809e-01,-9.894864102692045745e-06,6.064781681500396038e-04,4.569111185077890346e-03,3.648932576179504395e-01
2.099922345855330941e-01,-1.252256685096891919e-01,2.256622865137864475e-01,-6.205128579082257265e-04,-4.663539429673018051e-03,-6.371408189062613935e-03,3.435952067375183105e-01
2.296139310015696822e-01,-1.190210848399640003e-01,1.890346243904740819e-01,1.545399966713333984e-03,-5.849015296889890220e-03,2.370100314731090946e-04,3.303871154785156250e-01
2.153117645369390099e-01,-1.169758506966544764e-01,2.110717135389873489e-01,1.675021700700365197e-03,-1.384623818015637406e-03,5.356606755951805795e-04,3.302107751369476318e-01
2.550528346551804160e-01,-1.332349645269182425e-01,2.390748016449238400e-01,-7.827163553648082504e-04,5.904427319504912614e-04,-4.680889548012575566e-04,3.805550932884216309e-01
2.413268905449046098e-01,-1.265767086471845382e-01,1.738814388568195868e-01,5.624127949677409227e-03,-4.541359669330646484e-03,2.746250171590299688e-03,3.395112752914428711e-01
2.457199687894914275e-01,-1.296864889631029749e-01,2.470196217617537382e-01,-8.152644596768920496e-06,-7.663359822255215101e-03,-1.303811010757715237e-03,3.762989342212677002e-01
2.501771143637075978e-01,-1.179551827140570830e-02,2.500010727283645817e-01,6.510726088248801162e-03,-7.215466083078796687e-03,-7.504835221564551927e-03,2.627468407154083252e-01
2.399686116227316146e-01,-1.355750961756107265e-01,2.386299035203339192e-01,8.151247597776937462e-04,7.118717089933179277e-04,3.966202783362599016e-03,3.749437630176544189e-01
2.844493211865033455e-01,-8.618391055516816390e-03,2.450078766114485718e-01,3.989020163818445160e-03,-2.140395709206886071e-02,-1.344051325567628512e-02,2.790150046348571777e-01
2.392849841804163269e-01,-1.361599060314268583e-01,2.511883362226388083e-01,1.333544371831012470e-03,8.794441050436325969e-04,-6.965863782213910704e-04,3.815478086471557617e-01
1.404614519930968142e-01,-1.806940235350694979e-01,2.352688808558483224e-01,-6.677700479983146066e-03,-5.645245521554538570e-02,-1.803665053399384826e-03,3.902324736118316650e-01
2.823386957769624672e-01,1.661003143779860025e-02,3.185260738727216934e-01,4.681538827098702740e-03,1.175121825368835755e-02,1.448971595507333489e-02,2.874841690063476562e-01
2.393803073520021918e-01,-1.404772314665446165e-01,2.396088675934243684e-01,4.531373597831469548e-04,2.568866002302623314e-03,7.604165158878429479e-04,3.800010085105895996e-01
2.336937767287142753e-01,-1.319562850923270969e-01,2.264736560739380455e-01,6.984870679616897275e-03,-1.039162619349332287e-04,-2.923781880799197330e-04,3.622964322566986084e-01
2.367933953180103024e-01,-1.349750971312548842e-01,2.470613497259794289e-01,-3.019574982485387880e-03,-1.485167203872704653e-03,-9.916486415679818221e-04,3.770563304424285889e-01
2.363669912182676525e-01,-1.392593981478289500e-01,2.385037783298446512e-01,2.482965924417354468e-03,-4.565548643027654048e-05,-1.455163754941472820e-03,3.767323195934295654e-01
2.624241447890882650e-01,-3.572182821954023035e-02,2.958976862120005213e-01,2.642311580212949873e-02,-1.937141966577334007e-02,2.439622254743026297e-02,3.240329027175903320e-01
2.387184161324048259e-01,-1.400494645725054721e-01,2.396952106579743058e-01,4.979524452845994140e-04,3.506465330276222880e-03,-9.768024725423981452e-05,3.793068528175354004e-01
2.373940715465443496e-01,-1.360096111557044518e-01,2.405102778486834236e-01,4.479758983759629665e-03,1.222576698817642816e-03,3.069840115611515184e-06,3.750577569007873535e-01
2.386737711719481569e-01,-8.827565947109447531e-02,2.536283030491838231e-01,4.120412325374240084e-03,4.644152429735687489e-03,-3.407549555565019504e-03,3.349021077156066895e-01
2.435397543261688114e-01,-1.393903697149203036e-01,2.397497497069115968e-01,8.244361447607187173e-04,9.564440234609874721e-04,1.088126712286432984e-03,3.810601830482482910e-01
2.854404011534397712e-01,-4.904010313307724522e-02,2.564685881405192047e-01,-2.073159280329292097e-03,9.659350277495728360e-03,-6.669435946319282084e-03,3.216400444507598877e-01
2.916249435440950721e-01,1.968863225781547488e-02,2.916562167579364040e-01,2.645175083321859872e-03,5.134058642416044777e-04,-1.894181632336620902e-02,2.739635407924652100e-01
2.382964084135337779e-01,-1.397003883341182418e-01,2.368552464268185997e-01,-1.393761306318232586e-03,-9.279431707777617804e-05,-2.907130817247320989e-03,3.773196339607238770e-01
2.372780267441451096e-01,-1.369560320583480817e-01,2.391582653780490730e-01,-4.128552217435586640e-03,7.173513468791614320e-04,-4.808793374636204446e-04,3.752488195896148682e-01
2.369331709954037857e-01,-1.367934880555948252e-01,2.343102216115097169e-01,-2.506392495139045731e-03,7.135341219707410591e-04,-7.533773546256022739e-04,3.724517524242401123e-01
2.386618384342870658e-01,-1.354420793312961502e-01,2.397405106723737300e-01,-3.441506268261410907e-03,6.961729327301603622e-04,-4.962862925569067312e-04,3.746947646141052246e-01
2.695800384983177977e-01,-1.727616336587224910e-01,1.796380331814325104e-01,-1.370083144629673753e-02,-1.127248018321523465e-01,-1.830315574143920668e-02,4.512864053249359131e-01
2.416108118633850110e-01,-1.381759668742995606e-01,2.380624992429108411e-01,-2.258349410541474721e-03,1.627772882120698955e-03,-2.801229256509446194e-03,3.780869841575622559e-01
2.261872545767411313e-01,-1.379168286229779661e-01,2.350311977786155582e-01,-4.611079154173269336e-03,-8.157881030099061771e-04,-6.472448642475743183e-03,3.688652515411376953e-01
1.848906839695972915e-01,-1.255346096752072427e-01,2.331051528110651416e-01,9.106124261796581104e-03,-2.280430833974243440e-02,7.822266670291544086e-03,3.400704860687255859e-01
2.059116417841250213e-01,-1.594251703728254976e-01,2.500037080298150305e-01,1.803237700348358369e-02,-3.431836988663923560e-02,9.526015793193703951e-03,3.953536748886108398e-01
2.095761561932852901e-01,-1.146163376127235789e-01,2.466279555650229549e-01,2.235193489210068191e-02,-5.252903485838891079e-02,6.768559324875526167e-03,3.583290278911590576e-01
1.726712257633837844e-01,-1.168091973100279374e-01,2.365668399621932427e-01,-2.565423659653825756e-03,-6.771609808006290310e-02,-1.780091209637895203e-02,3.480012416839599609e-01
2.267875046242783521e-01,-1.267307020523001093e-01,2.291332595859124632e-01,-4.879228856815714076e-03,-3.490049359238154691e-03,-5.698311672936108054e-03,3.549862802028656006e-01
2.221513845025529788e-01,-1.591483003331827240e-01,1.955218019220776593e-01,3.429795493523616311e-03,-1.182872619184265894e-01,1.136372606022529111e-02,4.223068356513977051e-01
2.087395344783148365e-01,-1.177658463305364944e-01,2.118373941914729330e-01,-2.424998775965969255e-03,-7.100516602290745348e-03,1.345872014727795066e-03,3.283308744430541992e-01
2.253678014976981392e-01,-1.333332577031330346e-01,2.219424828293270480e-01,-1.286902666531086325e-03,1.143789395304467419e-03,-6.199128547092609643e-04,3.570148050785064697e-01
1.881461071739355395e-01,-1.355058206997097892e-01,1.905981047047092258e-01,2.904729220774147913e-02,-1.068091577561416511e-01,7.082513048384522433e-03,3.774340748786926270e-01
1.832551267424529229e-01,-1.270129853478883519e-01,2.474192252385845059e-01,1.550516961097786256e-03,-4.243112254327967812e-03,3.286522915660361390e-03,3.469654619693756104e-01
2.050676536728188726e-01,-1.221500570305552730e-01,2.225780921430189907e-01,-5.625693983106748106e-03,-1.593694929254727000e-02,-4.595215935833023638e-03,3.376803696155548096e-01
2.494288438539457864e-01,-1.291338740306819943e-01,1.641413452167392040e-01,-5.059314318027160681e-03,-4.404832052646408735e-04,-1.012501718560924850e-02,3.445024490356445312e-01
2.553542527210128088e-01,-1.258607039631403079e-01,2.299991575749005812e-01,-2.120931997298581716e-04,1.463698230747414487e-03,-2.384737693188758619e-03,3.692229688167572021e-01
2.334443443245557137e-01,-1.302273321334164180e-01,2.321843179742022756e-01,5.245800254141178703e-03,-6.770000189357716549e-04,2.166258791370092186e-03,3.631782531738281250e-01
2.682434409032833367e-01,-6.779645302423595310e-02,2.657954897958516582e-01,1.331922367504432062e-02,-8.936979968874915470e-03,4.037876061301475319e-03,3.360460102558135986e-01
2.306390833478494384e-01,-1.244691519799390050e-01,2.017833659999929696e-01,5.342561072696623906e-03,-2.763492820268268878e-03,2.022466784848850514e-03,3.417724668979644775e-01
2.290095464046000284e-01,-1.362012646801252780e-01,2.284402867251820735e-01,1.710274561419229808e-03,-7.284196195962511569e-04,3.102027360211323699e-03,3.649802803993225098e-01
2.377482273846390770e-01,-1.386507768766856441e-01,2.405283627794558843e-01,2.674604427311481035e-03,7.446281196061580940e-04,1.579299388842871250e-03,3.778372406959533691e-01
2.365197265467072762e-01,-1.374608650254549591e-01,2.372123270716368082e-01,3.918523223749565028e-03,2.414374085305515637e-03,5.693496538944984708e-04,3.744135499000549316e-01
2.287433368557246494e-01,-1.383285047296429204e-01,2.359799792312201050e-01,-3.294770282460009192e-03,4.985728134323730233e-05,5.832352954048093847e-03,3.709246516227722168e-01
2.414167600678230607e-01,-1.387541975447625087e-01,2.398165902736135446e-01,-1.314918443153198155e-03,-1.476285705787663263e-03,2.796104861046528126e-03,3.794197738170623779e-01
2.296714364880657888e-01,-1.186695844607230377e-01,1.891258810916372768e-01,1.647567967155317810e-03,-5.847488571207500214e-03,2.306049257700994724e-04,3.301099836826324463e-01
2.409414723266841141e-01,-1.409679732102279148e-01,2.402008535977550596e-01,-6.354710676595716045e-04,-3.142583664679509357e-03,7.730099151428706204e-04,3.815824389457702637e-01
2.296211943321714022e-01,-1.384144959934959784e-01,2.344239259766353056e-01,-3.766379003828017585e-03,5.962303138285244761e-04,6.028950975130044354e-03,3.706664144992828369e-01
2.421706504882953914e-01,-1.381177611827436591e-01,2.410616385933247452e-01,-1.662900557590309787e-03,-3.582439358264246591e-03,2.824754573837583421e-03,3.798282444477081299e-01
2.440037572991984871e-01,-1.411351833777732545e-01,2.382422181359845903e-01,1.758289982850639861e-04,-8.720261770535316960e-04,1.122535834824621350e-03,3.822987973690032959e-01
2.502403640581850608e-01,-1.380388513918687221e-01,2.408116795539401167e-01,-3.872963509186681200e-04,-3.371224516473681019e-03,1.204476500253202041e-03,3.837024569511413574e-01
2.382670710838075967e-01,-1.377532760896089670e-01,2.476734582502770898e-01,9.690236181625662285e-04,2.165934718757427276e-03,-3.311656093856041707e-04,3.808332979679107666e-01
2.549516118106011087e-01,-1.322259535182237489e-01,2.346823372295070431e-01,8.369575277267262943e-04,2.842145973836486626e-03,3.766786552540640895e-04,3.774867653846740723e-01
2.391358282014880432e-01,-1.403423806622209058e-01,2.406417886733655809e-01,6.421793137033838996e-04,9.823255657650453113e-04,1.818684654107063264e-04,3.802389800548553467e-01
2.330902884857919966e-01,-1.292420638176576264e-01,2.135376434990022831e-01,-6.695506554703716494e-03,6.376861986072140769e-03,5.474991035162666414e-03,3.534528017044067383e-01
1.527099922454860370e-01,-1.498162353542370484e-01,2.560573321127447843e-01,-5.593278506938238921e-03,-2.418029642552485536e-02,-3.682849084867238863e-03,3.679085075855255127e-01
2.354266529870732705e-01,-1.268283132582228023e-01,2.819620738978981800e-01,-1.883381079597599289e-02,-3.894056801612388874e-02,-1.081745277434739867e-02,3.952419459819793701e-01
2.307449677004474453e-01,-1.341941362053012954e-01,2.499683670592678375e-01,-2.732702761064299476e-02,-2.706170893169120018e-02,-6.629999558122999341e-03,3.809654116630554199e-01
2.370041859916059424e-01,-1.389970580303045156e-01,2.406791869347386648e-01,-3.847886088573304521e-03,2.933905051289867859e-03,-3.281246369874897886e-03,3.779878020286560059e-01
2.051756830029235479e-01,-1.320228549773597715e-01,2.396905625180795196e-01,-8.061820205437091741e-03,-3.661047680744471382e-03,-9.404566701167942772e-03,3.564169108867645264e-01
2.194999708583799392e-01,-1.211227915371229369e-01,2.241884753156523913e-01,-1.069649041332677072e-03,3.688140770563294395e-04,3.964269532379795062e-03,3.430653810501098633e-01
2.386134059628578219e-01,-1.410816906519902492e-01,2.393820005226485748e-01,-1.095110161353703452e-03,1.559146822406353274e-03,3.148774446896176359e-05,3.800943195819854736e-01
2.219236480032913128e-01,-1.326501829033403523e-01,2.409436466036850577e-01,-9.578225017775233324e-05,-2.084606602138297689e-03,-3.764984343631508964e-03,3.645325005054473877e-01
2.533604518158315000e-01,-8.894242252597001075e-02,2.528227600742316561e-01,8.389965493099072955e-03,9.450731103661876367e-03,5.354275725574319730e-03,3.428594768047332764e-01
1.952633377253637226e-01,-2.413517891249730429e-01,1.668489775019417476e-01,1.376342991774161945e-02,1.419534713879347931e-01,-6.925310826150002201e-03,4.901005327701568604e-01
2.217485398880534309e-01,-1.337442330175769856e-01,2.237813461585474450e-01,-3.745705881196421169e-03,-7.277424777236709240e-04,-1.227985299539070645e-03,3.565811216831207275e-01
2.114038624988356929e-01,-1.272362793784708179e-01,2.550901313719970420e-01,-1.676538995960961476e-03,-4.212496381397596266e-03,-6.717118912302055302e-03,3.627348840236663818e-01
2.309843496172709343e-01,-1.332718118193406687e-01,2.309863910966344358e-01,-2.856585830592025307e-03,6.034718785471298577e-04,-1.704091579060013507e-03,3.643042445182800293e-01
2.333599734079059296e-01,-1.065585733330078055e-01,2.607361565092697342e-01,8.189270846492742451e-04,7.158638656122364927e-03,-1.513575267446299645e-02,3.555879294872283936e-01
2.412753372232440130e-01,-1.260969620985121775e-01,2.461984769978741716e-01,1.418381106448310044e-03,6.351648313599911333e-03,-3.172213493309799593e-04,3.700305819511413574e-01
2.432486109244824668e-01,-1.268462477198261107e-01,2.454948883444587338e-01,1.485212557633144382e-03,7.154874227843668714e-03,-1.241584025729443753e-03,3.714450299739837646e-01
2.435153525393740914e-01,-1.271914066952797850e-01,2.415013312767365083e-01,2.359069935540128102e-03,2.069300191652820829e-03,-1.372562124433837009e-04,3.697438836097717285e-01
2.392856515134434980e-01,-1.383937078932842568e-01,2.443597373640243320e-01,8.677049680012209132e-04,2.611451651768675365e-03,-3.061520922868406777e-04,3.802720308303833008e-01
2.435374756022021248e-01,-1.285688100016717517e-01,2.447449115152002530e-01,1.601452359208334797e-04,5.405505809607340922e-03,-2.055245524350515513e-03,3.728461563587188721e-01
2.435502439547732600e-01,-1.340025257430203232e-01,2.464307597116444370e-01,2.705673146655282989e-03,7.036035568890651112e-03,-4.730558109826990082e-06,3.792260885238647461e-01
2.188937637734708341e-01,-1.181703103258093246e-01,2.012670768856487657e-01,2.767260213776299299e-03,-3.392005584530852127e-03,3.226150508458441369e-04,3.286934196949005127e-01
2.685081966690773259e-01,-1.079286083340395552e-01,1.256048920519165502e-01,-3.369767066576079360e-03,-2.334270879158810083e-02,5.333175875946746889e-04,3.316647708415985107e-01
2.290840204900998489e-01,-1.328680898283256251e-01,2.200090656776667042e-01,4.816688917834465941e-03,-5.741070801842166477e-03,4.863410567379469231e-03,3.578357398509979248e-01
2.386389647728184293e-01,-1.339105595447224462e-01,2.295148635745576371e-01,-5.314023183087402194e-03,-7.919755552729579231e-04,-4.893437561136170996e-03,3.682874739170074463e-01
2.609313919240105473e-01,-1.001778567288325456e-01,2.102471837818817579e-01,5.683173889303685293e-04,-7.434674952564328254e-02,3.461061587121566727e-03,3.623333573341369629e-01
2.410150894722036807e-01,-1.334302551375884105e-01,2.387663498576059196e-01,2.267942907939136422e-03,3.099441393653611099e-03,5.780021901111328554e-03,3.735195100307464600e-01
2.552369096517973501e-01,-1.295471340541891614e-01,2.450470058379544958e-01,4.977370506346196800e-03,-2.294052880436612597e-04,-4.782535503082375322e-03,3.799799680709838867e-01
2.348646574122539854e-01,-1.254575465911420273e-01,2.272324176900361314e-01,-6.128319438011355612e-03,-3.818711613578832948e-03,-5.436714218573760263e-03,3.569108545780181885e-01
2.179743842751776239e-01,-1.100747838120675753e-01,2.376507537200360787e-01,1.852514672563626737e-03,8.073367846536238374e-03,-2.969022650107566231e-05,3.386208415031433105e-01
2.199745413289161955e-01,-1.186432502855323118e-01,2.065117854013444054e-01,-1.956521238012617556e-03,-1.409929683691579783e-03,-4.006162894285148065e-04,3.321181237697601318e-01
2.299194069196605072e-01,-8.188975492728454986e-02,1.867960915194462057e-01,-1.763161947529387269e-03,-5.118763776196646326e-02,-3.005903308218242469e-03,3.058353960514068604e-01
2.471323488610989716e-01,-1.321016355533979891e-01,2.073199952027987014e-01,5.771322005209043871e-03,-4.305350355676393174e-03,1.662212505591568329e-02,3.623391389846801758e-01
2.405025743530856686e-01,-5.192175676592244993e-02,2.568638042566224744e-01,-3.415504526320405857e-03,-1.389292309251045432e-03,1.592049506495841343e-02,3.022668957710266113e-01
2.160783693498444236e-01,-1.204047636708795999e-01,2.125145628650003116e-01,3.151750801649281283e-03,-6.333518584425707268e-03,2.776363771760047804e-03,3.349741697311401367e-01
1.650774049467101656e-01,-1.269448869583373329e-01,2.511998954535596962e-01,-9.089866310261818239e-03,1.014682498687715685e-02,6.097287380219811211e-03,3.442558348178863525e-01
2.399952340405876183e-01,-1.353689196361471947e-01,2.503004904786299001e-01,2.683044561802545337e-03,-3.717322813864130070e-03,-8.709112041031009943e-04,3.807072341442108154e-01
2.391519151997179293e-01,-1.156872107832878360e-01,2.589167393940451922e-01,-1.059140880671593891e-03,-3.744383538331324938e-04,4.173035272551195440e-03,3.651996850967407227e-01
2.468069695541489361e-01,-8.016228657059895624e-02,2.572207379909459690e-01,1.387933359506515101e-03,-7.150298937500428227e-03,-7.638084209791556585e-04,3.325405716896057129e-01
2.379910963343364050e-01,-1.320275491502123644e-01,2.555746798152507271e-01,1.425708657103231126e-03,-2.399859252840108072e-03,2.009684931202387794e-04,3.791473805904388428e-01
2.370281997988988865e-01,-1.350257797253697212e-01,2.499384754348072946e-01,3.866766510225535971e-04,-4.216331119901407624e-03,2.622601369466529648e-04,3.787454962730407715e-01
2.379261125646408292e-01,-1.417589861626633307e-01,2.367086448596640025e-01,2.921663914221436743e-04,-5.887363207337707825e-04,1.084622167424346615e-04,3.790795803070068359e-01
2.368611259170273764e-01,-1.417092955528684306e-01,2.379156450501869191e-01,-2.141597500872859919e-04,-5.479973603761487816e-04,-3.979169146879176422e-04,3.791007697582244873e-01
2.156279630387950008e-01,-1.239425124743223222e-01,2.202533087101222753e-01,1.218079770912795573e-03,-1.016741690723129777e-03,3.806587609041429433e-03,3.419812321662902832e-01
2.338956746522327101e-01,-1.308213170436962058e-01,2.300697283641623958e-01,5.664607227569761969e-03,-1.164440632141059426e-03,2.597463667585201037e-03,3.629852831363677979e-01
2.386595601297039626e-01,-1.387445254946250428e-01,2.431374332288917250e-01,1.400053412807372548e-03,-2.070941639131332682e-03,-3.578242364443894258e-04,3.796880245208740234e-01
2.389137602241245550e-01,-1.389833959478286862e-01,2.449973875595839179e-01,1.690066230988641026e-03,-2.349608243971033471e-03,-7.572631209241268216e-04,3.810106515884399414e-01
2.376573966280161043e-01,-1.401152220016251837e-01,2.392242124223531996e-01,1.763656354236372388e-03,-2.224795323306415825e-03,-7.996163510137030851e-04,3.785929381847381592e-01
2.405092350950067681e-01,-1.375528191592888527e-01,2.424370867608637847e-01,1.994262787625520478e-03,-4.486927503318066841e-03,-1.514886463274859891e-03,3.791341483592987061e-01
2.479641562219320194e-01,-1.368191172418387613e-01,2.359379658190144946e-01,2.732414211808622574e-03,1.117844153251619944e-03,1.015760969491553761e-03,3.789519369602203369e-01
2.402854636112899955e-01,-1.409037369664564165e-01,2.389206977686555988e-01,5.901991267036050919e-04,7.658416633428548901e-04,6.592949727040760786e-04,3.805140554904937744e-01
2.373834953685182714e-01,-1.394601152979448311e-01,2.385877874343297067e-01,2.541303298325283712e-03,8.240040787002598577e-05,1.437008909322009219e-03,3.774811029434204102e-01
2.391026874513692280e-01,-1.409693423730271622e-01,2.390904341261778920e-01,2.173934092634766211e-04,-4.279124864602109897e-08,-2.297050235420287564e-04,3.800663053989410400e-01
2.369086041902085937e-01,-1.383335861269300582e-01,2.343168098451757220e-01,4.042271128824548310e-03,1.663846469048771903e-03,6.896840114808110720e-04,3.740315735340118408e-01
2.419739206542621257e-01,-1.399381607508511649e-01,2.372786575525879793e-01,-2.984436013292195069e-04,-3.311754957709665565e-03,-1.784970511523170699e-03,3.796425163745880127e-01
2.181905074962969260e-01,-1.244144778729850409e-01,2.212449308826280325e-01,-1.062942052116484792e-02,-6.707550148317650320e-03,-9.397706001929562875e-03,3.452141880989074707e-01
2.330727362567041328e-01,-1.319384681335631360e-01,2.337061867701108464e-01,2.229033175558029541e-03,1.962480494176229839e-04,-5.868183211319079329e-03,3.654902577400207520e-01
2.029442165064025971e-01,-1.375017988363587129e-01,2.348616514387861787e-01,9.871607862880556195e-03,6.327450679854101055e-03,-7.875246731716276788e-03,3.583111763000488281e-01
2.399497010999309676e-01,-1.407521546399402856e-01,2.384893025941460798e-01,-9.777200964473329323e-05,-1.015051825038752265e-03,-1.271459343007871412e-03,3.799842596054077148e-01
2.715492774159128930e-01,-1.882472798810838621e-02,2.480100278022399907e-01,4.517829763685870734e-03,-5.588759570418973558e-04,-2.193109314823829710e-03,2.794862687587738037e-01
2.357409012016447036e-01,-1.187946036199559879e-01,2.412069858734982031e-01,-8.140193305577602279e-05,8.175076089851398544e-04,-3.742425262183054742e-04,3.573033213615417480e-01
2.141453448222545852e-01,-1.205330385064871668e-01,2.159873221857035175e-01,-5.921685663010068604e-04,-5.018836038272654837e-04,-2.204349448084788436e-03,3.356275856494903564e-01
2.297255170006195502e-01,-1.399696474055902584e-01,2.323550445293861844e-01,-2.971015444245207922e-03,5.365741615565960661e-04,-7.869325475778565998e-04,3.710562586784362793e-01
2.367765379078703714e-01,-1.358545912792357979e-01,2.344937289525462765e-01,-3.231666143279196459e-04,-1.556971875473965334e-03,-1.081347783235230876e-03,3.715099096298217773e-01
2.358132269573244844e-01,-1.426406791842169675e-01,2.377214878854561619e-01,-1.172231645810079600e-03,3.888124854841431654e-04,-6.014002293700226142e-06,3.794176578521728516e-01
2.836978853947208501e-01,2.534336613305782082e-02,2.627855344105513025e-01,-2.412845165978070444e-02,-6.223866961464045305e-03,-4.671968285502928024e-03,2.524080574512481689e-01
2.551308054983425500e-01,-1.329030925029558718e-01,2.344396101674429689e-01,-1.217101164733933743e-04,6.277161640369796972e-04,-9.466402074817084123e-05,3.781147897243499756e-01
2.346570205041865198e-01,-1.375015033044186263e-01,2.353752721835385975e-01,-9.135393996619681212e-04,1.466531398509947999e-03,-2.890805817133302626e-03,3.725638389587402344e-01
2.521214961045619707e-01,-1.023337192831985654e-03,2.431471448792448531e-01,-1.896604186471913950e-02,3.316465480064820139e-03,-6.859895919207921119e-03,2.512853741645812988e-01
2.115766186176926966e-01,-1.198202522395207525e-01,2.113423633386382616e-01,-7.654407398681412978e-04,-1.314005737164176306e-03,-5.119286298319093188e-04,3.312914669513702393e-01
2.499072424610452869e-01,-1.061673902012455484e-02,2.697586538959979574e-01,2.393798524386951676e-02,6.054460991277824805e-03,-8.931660278084063709e-03,2.747853100299835205e-01
2.299581756020634971e-01,-3.244013667393735867e-02,2.679904127238456057e-01,8.142072733279666352e-03,6.521527799884215340e-03,4.060884179116712304e-04,2.839117646217346191e-01
2.142254645392741019e-01,-1.237246654743486135e-01,2.184299317251186534e-01,-3.339690913749617397e-03,-2.224602972884214165e-03,-1.203001791344056456e-03,3.401492536067962646e-01
2.464771630669986835e-01,-3.184868237816257386e-02,2.703070757977450445e-01,-3.312844927532583410e-03,-2.222673888989567040e-02,1.080075532235258602e-02,2.941608428955078125e-01
2.416156215907804272e-01,-1.141852948763107389e-01,2.703579837647915873e-01,-1.252017547460278560e-02,6.321892359425511018e-03,-1.294493172878558983e-03,3.718093037605285645e-01
2.172034031256860342e-01,-1.226938462267834345e-01,2.227014640642613896e-01,1.026157262930822928e-03,-2.342484531762855683e-03,4.301629820243766853e-04,3.427087962627410889e-01
2.142453442686677034e-01,-1.185432335898312511e-01,2.120997315770102309e-01,1.880922803927897709e-04,-1.357035981808106962e-03,-5.133104966630502083e-04,3.317306637763977051e-01
2.532576430771649734e-01,-1.775131698792119239e-01,4.268246015283660988e-02,-4.530192239184643171e-03,5.737655737093206448e-02,6.643944122915302654e-03,3.863495290279388428e-01
1.513254450774789706e-01,-8.709394377635498730e-02,2.840778667149710390e-01,-2.141593066699397710e-02,1.830709491858228954e-02,1.385812401990934965e-02,3.302654623985290527e-01
1.084455451788828434e-01,-1.166677340188375794e-01,3.661983495364055097e-01,-1.871831325217272399e-02,4.216970653004359360e-02,-2.932505786031114076e-03,4.260843396186828613e-01
2.376744864129357038e-01,-1.355900512934688495e-01,2.376814223773348611e-01,-8.027185562284135968e-04,8.120376742132402953e-04,-4.607723820653943439e-03,3.733585476875305176e-01
1.499531809853455466e-01,-1.059610074123850804e-01,2.650463520591812561e-01,2.591796619569387838e-02,3.388716450217311993e-02,1.436903067552854595e-02,3.380416035652160645e-01
2.447833117493245780e-01,-1.173857481512428080e-01,2.850211673906613563e-01,-2.290907962470478329e-03,1.792910771940091005e-02,8.192883832357113335e-04,3.851500153541564941e-01
2.467385750380431397e-01,-1.373040407637740046e-01,2.388629574616832618e-01,1.295223991838155304e-03,3.496413040250934395e-03,2.719120802825110428e-03,3.802500069141387939e-01
2.113942489216777409e-01,-1.194293287116168500e-01,2.098288448720911359e-01,1.344626273574459822e-04,-9.740449793753555270e-04,6.236325106516400546e-04,3.300498127937316895e-01
2.165162249423655816e-01,-1.213177575016962800e-01,2.271742364624702581e-01,1.133217222197512291e-03,-1.534141649277344062e-03,3.954926903663657026e-03,3.433713316917419434e-01
2.399113814295880664e-01,-1.398973699496827150e-01,2.397274988684989228e-01,2.019665730950339234e-03,1.390957872719502742e-03,3.013555134778408712e-03,3.797764778137207031e-01
2.421129542819901448e-01,-1.397109049400580005e-01,2.380633182436420192e-01,2.447919891172263811e-03,3.359489887693211697e-04,3.248749148185312973e-03,3.798810243606567383e-01
2.269344326655330923e-01,-1.313927395283486788e-01,2.282065332256560941e-01,1.066025359503765691e-03,8.035469258576119662e-04,4.051590788242027952e-03,3.590409457683563232e-01
2.478934059381581179e-01,-1.379133205560751918e-01,2.383305100528578802e-01,-2.690434915048186214e-04,2.439033508126939569e-03,1.011849332880823162e-03,3.811430037021636963e-01
2.466190826316813078e-01,-1.365371786989181269e-01,2.410884696141676331e-01,8.984186266213365279e-04,4.752664748416675182e-03,2.437550375442647591e-03,3.805367648601531982e-01
2.284609573873883637e-01,-1.264456236516138810e-01,2.293669043866814194e-01,-3.773734825513598828e-03,2.417041952110121194e-03,5.704407323863566054e-03,3.555824756622314453e-01
2.253441290121416807e-01,-1.231998505750172140e-01,2.108335943244418198e-01,6.870504982228821216e-03,-9.554414299916390990e-04,1.248441224562556141e-03,3.417381048202514648e-01
2.187359198626282752e-01,-1.307606601172757455e-01,2.264560466739583000e-01,-3.553117114629087640e-03,1.179317017022491094e-03,5.767911134875350170e-03,3.536205291748046875e-01
2.416965454539974911e-01,-1.378336526302589293e-01,2.380941116403851310e-01,-1.971402587548557253e-03,-2.872445396223487126e-03,3.172982212468915698e-03,3.778300285339355469e-01
2.382331062214614048e-01,-1.415228631901494505e-01,2.364504075948451467e-01,4.375537255882315643e-04,5.678712038019028286e-05,8.616758791134629131e-04,3.788714706897735596e-01
2.280753165373592128e-01,-1.346570685866590456e-01,2.327658908620395539e-01,-2.738409706456538910e-03,6.949335267751088939e-04,2.968810178553854973e-03,3.651692569255828857e-01
2.120489202801423001e-01,-1.335327913609843375e-01,2.220702185998316147e-01,-5.594134309298882252e-03,4.012137579832405002e-03,6.379519241245201061e-03,3.510763347148895264e-01
2.373714473952939774e-01,-1.371595991158114647e-01,2.366986510960088774e-01,-1.053300120960889649e-04,-2.506519493986669733e-03,3.800936542898068933e-03,3.742782473564147949e-01
2.483777400282576320e-01,-1.357217926610930769e-01,2.358112695262062075e-01,-2.152084997176485336e-03,1.289409802077110282e-03,-8.604865882982661550e-04,3.780009150505065918e-01
2.568736122754940454e-01,-1.269856357223633214e-01,2.355172046212758441e-01,3.777563801119738097e-03,1.920410737494239939e-03,-4.023607791915382670e-04,3.737118244171142578e-01
2.518337356423042683e-01,-1.357278969469642993e-01,2.364191529366170830e-01,4.810033916464076628e-04,1.540920180910271232e-03,-3.413412570231298812e-04,3.800995945930480957e-01
2.574478088945397203e-01,-1.312444036367157452e-01,2.413201656448762944e-01,7.397052008680868188e-04,-3.411043835779572445e-05,-1.717504496990755313e-03,3.808983266353607178e-01
2.343806054113165560e-01,-1.369434247036216412e-01,2.372550529866952751e-01,-8.054603253739980656e-04,7.811734154780883722e-04,-2.561239701686745911e-03,3.728010356426239014e-01
2.209320162010284805e-01,-1.294285362606956424e-01,2.220385379383159052e-01,-2.809055094762875904e-03,-4.481380381366151743e-04,-2.712327731199118235e-03,3.509811460971832275e-01
2.396034729098088234e-01,-1.413662324703156004e-01,2.400970054560114808e-01,-7.565947673184669851e-04,3.136728192949014057e-03,-9.160679906636467204e-04,3.812609910964965820e-01
2.344379765185814479e-01,-1.712941034209141677e-01,9.169375939169631395e-02,-7.375215706368542720e-03,-8.878130517984628156e-02,-9.695077006613476989e-03,3.888059258460998535e-01
3.147705922406076606e-01,-1.493870142202620155e-01,9.888575092448272097e-02,-1.402342377952123589e-03,-9.000469464761506888e-02,-1.656746140716149410e-02,4.324070215225219727e-01
2.245449529088585361e-01,-1.244498086506651002e-01,2.060058712740117648e-01,-4.870637919919566447e-03,-4.659208197320418438e-03,-1.202465222951407554e-03,3.403110802173614502e-01
2.457817264354950904e-01,-1.393019456041426352e-01,9.984761296390591567e-02,-1.181442182051321149e-02,-3.682441352759057568e-02,-1.013364820263137206e-02,3.437794148921966553e-01
2.254523410191615618e-01,-1.322404151057667288e-01,2.264347926825438506e-01,-5.974272082753160316e-04,-1.610026142402174468e-05,-4.182939401373518724e-03,3.582597672939300537e-01
2.556185597480410410e-01,-1.311859186316617631e-01,1.253048803894680763e-01,-5.374276266870760613e-03,-1.009241464683597461e-02,-1.385200371139450048e-02,3.422883152961730957e-01
2.483604633542896845e-01,-1.320308229450093407e-01,2.404346324016931602e-01,1.959169651583059506e-04,1.784184815553656149e-03,-1.413508694860371451e-03,3.765117526054382324e-01
2.045560938072308321e-01,-1.151996205224309761e-01,2.207106202488876567e-01,-1.337868532646556939e-03,-2.894346898946851751e-03,-3.753057663617287171e-03,3.282422125339508057e-01
2.238328913762390737e-01,-1.218311461879168917e-01,2.205509594906401860e-01,-5.902811896014296175e-04,-2.209460970647009713e-03,-1.196924331203091246e-03,3.440638482570648193e-01
2.915702877968995299e-01,-1.291774870533474173e-01,1.187802791469774744e-01,-3.153904788493234156e-03,3.404641031562269382e-02,1.252821354304877940e-02,3.717018365859985352e-01
2.044146627669528038e-01,-1.173072018841774672e-01,2.201597078339931346e-01,4.170612276365765099e-04,-3.596593244392001787e-03,1.791415340819337790e-03,3.299505114555358887e-01
2.296116352244751413e-01,-1.383871379229414944e-01,2.321639794861113382e-01,1.955122409264447528e-03,-1.408120049240649870e-04,4.637671063180510631e-03,3.693845272064208984e-01
2.531580056317485061e-01,-1.339174732122429545e-01,2.351321152323904706e-01,-4.781556287961500414e-04,-1.446818084602324384e-03,1.986290004751958902e-04,3.783940672874450684e-01
2.389599891097040907e-01,-1.285244358593574110e-01,2.509319021467191213e-01,-2.441866151571606830e-03,3.868366234069512289e-03,-2.183346878842322772e-03,3.737173974514007568e-01
2.100764447836057647e-01,-1.219506820670699793e-01,2.333589727363851174e-01,-5.945534602941001962e-04,-2.483602051135104950e-03,-7.684625946267478920e-03,3.445449769496917725e-01
1.705824064203446122e-01,-1.249046930774029285e-01,2.514041272156679607e-01,3.804085586056849769e-03,-4.876800320948439411e-03,2.584481878614154106e-03,3.433094024658203125e-01
2.167534079608282593e-01,-1.260014669113845576e-01,2.152317704774004414e-01,-1.320856526927792658e-03,1.338123491655585692e-03,-4.757986806583342615e-04,3.420130908489227295e-01
2.664083023127616912e-01,-2.844651327609395985e-02,2.182421436250488178e-01,3.382517598320060413e-03,-8.144469694757572320e-03,-5.142327310732346460e-03,2.745359241962432861e-01
2.090103121735490399e-01,-1.240681616681805211e-01,2.301010974838881840e-01,-6.030508362754262355e-04,-2.451886056103273846e-03,-6.404258645049426546e-03,3.443154692649841309e-01
2.170065318218436512e-01,-1.244083586765083183e-01,2.136286999441527057e-01,-4.314789503578793546e-03,-5.796920478584409626e-03,-1.693238226773647725e-03,3.399817049503326416e-01
1.422608520730680448e-01,-1.435141567533411711e-01,2.305278574548250414e-01,1.424806929736973857e-02,-5.934520422527232025e-02,7.102654862293015549e-03,3.549772500991821289e-01
8.920277649876248716e-02,-1.892307425894840245e-01,2.590934198949364498e-01,-1.491365923853917724e-02,-3.609551790765780366e-02,1.246489323696074736e-02,3.984135389328002930e-01
2.127673334015313666e-01,-1.194886477203594977e-01,2.104791228541203485e-01,2.995379861350720620e-03,-4.125657085905155841e-03,2.550064723971213164e-03,3.312649726867675781e-01
1.065529558635048279e-01,-1.441571692604157184e-01,2.583862334200784372e-01,2.241905081774416691e-02,-1.329866444868093960e-02,6.716693827338079265e-03,3.551743328571319580e-01
1.483639353936422878e-01,-1.976483852027335064e-01,2.862239909184542963e-01,-4.261015327196962174e-03,-1.020652439716318860e-01,3.820097843148444021e-03,4.666705429553985596e-01
1.735373347727566795e-01,-1.571808067954713894e-01,2.784712234128209341e-01,2.268047860126367124e-02,-1.539347256481460834e-02,1.981382433322583826e-03,3.966799974441528320e-01
2.083087648790291069e-01,-1.213349647119145447e-01,2.037603884981306623e-01,-3.029959185479636584e-05,-5.550583418570956967e-03,4.628712395834454836e-04,3.275353610515594482e-01
1.400025345857051629e-01,-1.296140727828315464e-01,3.005599741621339804e-01,8.380222068359598903e-03,-6.268735709167505554e-02,-1.894137469401849239e-02,3.934931755065917969e-01
9.516347467613957278e-02,-1.543995804035492858e-01,2.648515378871132975e-01,2.310803808685206809e-02,-3.453295887954462018e-02,9.233665018229501517e-03,3.726378083229064941e-01
2.319983022127659333e-01,-1.298326823080664383e-01,2.279001161335927617e-01,3.640399462387978926e-03,5.205334302417376343e-04,8.252668606564902585e-04,3.598586022853851318e-01
1.332309862199426154e-01,-1.239876206042396789e-01,2.486628142098387118e-01,-7.132798069916427121e-04,-1.644844290215572618e-03,2.788317437650684148e-03,3.304695188999176025e-01
2.148254745588218384e-01,-1.236162184860346985e-01,2.206137639188153476e-01,1.046993360494436788e-03,-2.771449358586957484e-03,6.092829750898944713e-03,3.415742814540863037e-01
2.084158981020141632e-01,-1.244338678327200076e-01,2.100465001502845042e-01,-9.085998893336075764e-04,-4.232689714309120083e-03,-2.456162213653706287e-03,3.337793946266174316e-01
2.404278744964260528e-01,-1.031164005116446958e-01,2.546256945052728371e-01,-1.186875235919985800e-03,5.416280461504670296e-03,5.213642797308106792e-03,3.511062562465667725e-01
2.433938733529723286e-01,-1.302273494166311107e-01,2.468924588193475156e-01,7.988446246459325779e-04,-3.751164063686393589e-04,4.537937561147562253e-04,3.753866851329803467e-01
2.378024217610803237e-01,-1.379013502811395897e-01,2.442359815429995806e-01,-2.712148004938147710e-03,2.115354052507048901e-03,-2.119317088590597867e-03,3.790261149406433105e-01
2.150326448429455417e-01,-1.203513229881269520e-01,2.137245277605656080e-01,2.331428962392522418e-03,-9.121854554014325288e-04,1.510329427580399397e-03,3.347701430320739746e-01
2.335860097703177374e-01,-1.365502336882900569e-01,2.318709459660101002e-01,3.919454974437588946e-03,-1.536934491158033732e-03,5.940593290437655785e-03,3.694969713687896729e-01
2.386796205805152837e-01,-1.372414974487231043e-01,2.502406291391716664e-01,-1.056338823128820728e-03,3.126441227743881682e-03,-5.574197043783587786e-04,3.818769156932830811e-01
2.276603324887203073e-01,-1.200170842777255747e-01,1.639938151435268443e-01,-1.310107057150714741e-03,-1.992057138977351358e-02,3.523609236780171020e-03,3.225375711917877197e-01
2.246661364670480554e-01,-1.344927729818373441e-01,2.213879746254378000e-01,8.868735971229187555e-04,-6.975346507416967275e-04,3.674637181432647247e-03,3.575930893421173096e-01
2.563680732921793659e-01,-1.180586748898773825e-01,1.419556842709635558e-01,-5.824860174331188654e-04,1.613712548686829784e-02,7.978211553284035584e-03,3.337959349155426025e-01
2.350219705149548532e-01,-1.362173015763768480e-01,2.484830108926648906e-01,-1.833286560533087337e-03,1.797903217548869193e-05,-1.932243377455029193e-03,3.781776726245880127e-01
2.310092087582234222e-01,-1.358520912173942496e-01,2.299755613708196478e-01,2.263787214164013524e-03,-5.811451187112706652e-04,9.223101497791785048e-04,3.663714230060577393e-01
2.265968827734067270e-01,-1.332826295367625646e-01,2.262963324776147145e-01,1.432895286954687228e-03,-2.021222813225583698e-03,6.758835014412294638e-03,3.599453568458557129e-01
2.368956306274089263e-01,-1.394503061280533140e-01,2.366841640778910572e-01,2.467369288816873376e-04,8.471637490364902561e-05,8.362682756754980917e-04,3.762432932853698730e-01
1.847513677588838166e-01,-5.039192070432799153e-02,3.856774243104645894e-01,2.699521775997155981e-02,-4.877134443859666713e-02,-3.182399819539349830e-03,3.902083933353424072e-01
2.371978254183453039e-01,-1.379906569086120083e-01,2.523073036090291432e-01,-1.723653089801929685e-03,1.906649122669815989e-03,1.214523208461024172e-03,3.829984962940216064e-01
2.353278759653320285e-01,-1.377990788276890477e-01,2.523286503882429255e-01,-6.242870494799876609e-04,6.292314339040800449e-04,9.398406546855218868e-04,3.819178044795989990e-01
2.405834128064885391e-01,-1.385851028552843589e-01,2.440560882185965896e-01,1.898758772225479698e-03,4.124569486356831349e-03,2.235928943996059147e-03,3.810175955295562744e-01
2.456296941278140189e-01,-1.287579163597986076e-01,2.502700749138020986e-01,-8.893597703111497674e-04,-5.712043341699465172e-05,1.665206175235937761e-03,3.767434358596801758e-01
2.406312272794730311e-01,-1.406810480049666134e-01,2.380114053940663998e-01,5.168658968379808653e-04,2.734470156580122695e-03,9.117963179695049835e-04,3.800429999828338623e-01
2.359747857661069204e-01,-1.354965299115425958e-01,2.326873571937554397e-01,-5.221555709393265604e-03,2.931287261213058864e-03,-4.182475601467632378e-03,3.700548708438873291e-01
2.434149300822033291e-01,-1.396515202918831577e-01,2.394838280130428543e-01,3.076189768705600916e-04,2.399920774911148968e-03,-8.908113576894853775e-04,3.811422586441040039e-01
2.363616465498285524e-01,-1.377632886239106291e-01,2.329193890183088589e-01,-8.170301563840203733e-04,1.672204105743990872e-03,-2.991531249705987622e-03,3.724657297134399414e-01
2.403856561220027721e-01,-1.397742425489858220e-01,2.388188593285516248e-01,-3.740573738714772479e-04,3.004380866362307053e-03,-6.426599467576380679e-04,3.794167935848236084e-01
2.397768598127238415e-01,-1.341876491066616162e-01,2.458550863072833659e-01,-3.331228449864117734e-04,4.378401444808126611e-03,-3.934413511300393403e-04,3.771176934242248535e-01
2.349577148524236991e-01,-1.375560528269768046e-01,2.368487035509374561e-01,-2.314976979535147278e-03,7.209531960303830955e-04,-1.664720628214841217e-03,3.734976053237915039e-01
2.452897057328840003e-01,-1.315389229733872622e-01,2.203096883962330776e-01,-4.862402789821406238e-03,-1.667474029950758623e-03,2.590496232820943372e-03,3.651164770126342773e-01
2.339900806648631260e-01,-1.303276348873444734e-01,2.382043545578631516e-01,-2.356833361256350373e-03,8.991878949836948701e-04,-4.602251246225201597e-03,3.665557503700256348e-01
2.277203661770084153e-01,-1.191802204479289057e-01,1.782040289065240923e-01,-1.933431790100816582e-03,-7.877061556211258780e-03,-1.150562244650883909e-03,3.252936601638793945e-01
2.165995606496747827e-01,-1.394415574310775841e-01,2.373550197505824022e-01,1.178529279581775474e-03,-1.971220748123812122e-03,-4.332456718836065479e-03,3.669577538967132568e-01
2.372113051030600717e-01,-1.389131753348833986e-01,2.386604286029139765e-01,-2.556106431222866272e-03,7.717795353501701169e-04,-1.513259006218346456e-03,3.768886327743530273e-01
1.879304923567130248e-01,-1.286102371666489885e-01,2.058405052372357935e-01,-1.311634527625975266e-02,-2.567570405937765268e-02,-7.231953184968332483e-03,3.299072384834289551e-01
2.321871907550895342e-01,-1.318840520808063355e-01,2.243395269512375445e-01,-5.685900379299750271e-03,-8.766510523808332790e-04,-8.014689321012981142e-04,3.603520095348358154e-01
2.213644975177972984e-01,-1.349586184434389824e-01,2.348646312747550424e-01,-8.052350811736526089e-04,-5.388406216768138260e-04,-7.080299888167150904e-03,3.634721934795379639e-01
2.164087540480912064e-01,-1.188086325171702484e-01,2.095640708747463776e-01,-1.366221174150159933e-03,-1.743934989759266018e-03,-9.116764818785261671e-04,3.318739235401153564e-01
2.136919696852286610e-01,-1.237671946618369712e-01,2.262751709528210975e-01,-4.413266297671949588e-04,-1.958129001116980499e-03,-6.009592391430682370e-03,3.440985083580017090e-01
3.353343986232414364e-01,4.268234720236790958e-02,4.233386864493209334e-01,-4.178486249157983834e-02,2.192705498142820397e-02,7.624869109354200439e-03,3.549638688564300537e-01
2.411130559257330663e-01,-1.331158161213966684e-01,2.509498066800055494e-01,1.892625644546961803e-03,-3.074196255700738754e-03,-1.470915868704678661e-03,3.793030381202697754e-01
2.183165754944404180e-01,-1.290976605024728163e-01,2.259065315243153071e-01,-4.388090835531612520e-03,-1.605671255742818554e-03,-6.688793684539094848e-03,3.515549004077911377e-01
2.345805398685404941e-01,-1.369202347006586162e-01,2.303579538425221951e-01,-4.982257637508956567e-03,7.650158514601661198e-04,-2.894682688392050812e-03,3.695447444915771484e-01
2.496284464276820048e-01,-1.313391810038956331e-01,2.371355414270819861e-01,4.043577773254134465e-04,3.011084416603094713e-03,-4.470046560978907296e-04,3.749150633811950684e-01
2.190380691329649743e-01,-1.317811805679164894e-01,2.336884096074500206e-01,-1.408443347058817990e-02,-4.694104818900685788e-02,-6.359742694864435782e-03,3.684497773647308350e-01
2.395347296251729985e-01,-1.354701627094863081e-01,2.459250179353746901e-01,1.953919674908719331e-03,-1.051091798241034561e-03,-2.539449404211311604e-03,3.782856166362762451e-01
2.293471569459828441e-01,-1.374242045400157763e-01,2.394910697669714872e-01,-4.602206869617399970e-03,-7.334673108727627700e-04,-1.162043560953051561e-03,3.720400929450988770e-01
2.458303084067756661e-01,-6.846142345748737479e-02,2.521583638217247403e-01,-1.057989543134368708e-02,-3.299430038904706611e-03,1.955912752567235888e-02,3.198817372322082520e-01
2.279469178708904975e-01,-1.382350124788714330e-01,2.313711443738231677e-01,-3.338837565818817028e-03,-5.849120048987347786e-04,-5.342801280469512519e-03,3.680692017078399658e-01
2.016475349547031670e-01,-1.168883642926790978e-01,2.206131940373538547e-01,4.217883320240000712e-05,2.900050276775587629e-03,4.228161569156785315e-03,3.285497426986694336e-01
2.167956591359052054e-01,-1.156506708870169431e-01,2.040995581107075685e-01,-1.653267882231520408e-04,1.677244221724120445e-03,-6.816410759403841840e-06,3.262966573238372803e-01
2.481157763412685235e-01,-1.232380584800714524e-01,2.420539799796465052e-01,3.872947868545307138e-03,2.964841936250040347e-03,-1.387313957960349328e-03,3.684650361537933350e-01
2.559866082538585497e-01,-1.065106695105193235e-01,2.419607081360202749e-01,3.907204400308525102e-03,4.742350829793197040e-03,-1.661212029876450887e-04,3.558510839939117432e-01
2.478011823641388389e-01,-1.306208982366464655e-01,2.486855083400891231e-01,-1.352559401257205987e-03,-6.445253872171298470e-04,-5.037922532811501750e-03,3.789743781089782715e-01
2.268171552991095630e-01,-1.310872891653521166e-01,2.327710675591830036e-01,-6.804246990627502894e-04,-3.891424222938828412e-04,-5.926758453111952325e-03,3.610667586326599121e-01
2.552101891130356126e-01,-1.225331341532083507e-01,2.368371777158733704e-01,1.609555721941237621e-03,2.274035509859500528e-04,4.414420501070285044e-04,3.689116537570953369e-01
1.895119449224680341e-01,-1.181803067080591796e-01,2.294068211722566641e-01,-1.455758390268820654e-03,2.724507722883792726e-02,1.334614324265514639e-03,3.328363597393035889e-01
1.838335178050387597e-01,-1.194911703022180915e-01,2.618156234194078391e-01,5.428518134607200618e-03,6.210597357946370106e-02,-2.947873019427297604e-03,3.652764856815338135e-01
2.450990682143157351e-01,-1.262083771932083764e-01,1.861544109269224478e-01,-3.630995352360493356e-03,-8.650375829679518309e-04,1.673407264106267257e-04,3.456862568855285645e-01
1.969361985147753957e-01,-1.359406965169125958e-01,2.406724884688859478e-01,2.849959373291432053e-03,1.382413663801268869e-04,3.603001738895066433e-03,3.568502068519592285e-01
1.943770369125774056e-01,-1.236882276939497427e-01,2.214109300914655631e-01,4.423883143644681201e-03,-5.160124192393085278e-03,7.736582800421673914e-03,3.328859210014343262e-01
2.311912031455041761e-01,-1.348816780608479982e-01,2.453400385087866065e-01,-4.665528943336921114e-03,9.909888379550182459e-04,-6.929719159703398492e-04,3.734417557716369629e-01
2.545760777066459202e-01,-1.288377601346515910e-01,2.352410093717750561e-01,1.976507768869447020e-03,3.388906968863974415e-04,-2.055537660500955655e-04,3.741375207901000977e-01
2.288174329736354928e-01,-1.369234079975392149e-01,2.338982645683477524e-01,-2.689662117236060052e-03,3.361875873447163184e-04,4.957065210835178391e-03,3.684375286102294922e-01
1.858555496177888011e-01,-1.407283326062056250e-01,2.416053145114883116e-01,-1.215049072540410127e-02,4.578182301008599381e-02,1.266465351944913269e-02,3.676738440990447998e-01
2.322945888610626342e-01,-1.362475221668499881e-01,2.356677330593660025e-01,1.894372005084681227e-03,1.630783355150128939e-03,4.569889837626720311e-03,3.703501224517822266e-01
2.290493844836762605e-01,-1.285939053348447991e-01,2.342475234860703082e-01,1.215717328911186971e-03,-6.297218900887579856e-04,3.732292779122362014e-03,3.603362739086151123e-01
2.250952096821485782e-01,-1.338673956808017484e-01,2.230191008248476603e-01,4.752990973762635102e-03,-8.805899393403178585e-04,-8.773571937138250330e-05,3.580270111560821533e-01
2.260347066620607970e-01,-1.271717579328911496e-01,2.198360457678539270e-01,6.204135877925946729e-03,-1.636225300383208157e-03,2.378912759028972441e-03,3.503488302230834961e-01
2.236243177259289727e-01,-1.310667446644047940e-01,2.357457069276449602e-01,2.990608975509329633e-04,-9.939608540071673964e-04,6.361865333790828712e-03,3.610771000385284424e-01
2.380903050440311142e-01,-1.348249918583702689e-01,2.313831235596777169e-01,4.518876695415652810e-03,-5.464763481998869505e-04,5.343448190761028276e-03,3.698072731494903564e-01
1.542421808809757988e-01,-1.255490527962210834e-01,2.315470073617984514e-01,-3.301298463874153318e-03,2.450035904782343205e-02,3.844424699782682687e-03,3.282776474952697754e-01
2.371598720407752103e-01,-1.393845312962267713e-01,2.366120026615992633e-01,1.770435703256058530e-03,-2.480788206536322949e-05,8.776296017047715073e-04,3.762863278388977051e-01
2.032949394644522068e-01,-1.383462783304462707e-01,2.322453002855294768e-01,-9.775784801715831779e-03,6.263069278026687191e-03,8.703685387144062535e-03,3.578814268112182617e-01
2.154540073861271887e-01,-1.265171520177706121e-01,2.251804811210667001e-01,-9.047140835435049655e-03,9.573078432369513946e-03,1.087869345430260079e-02,3.481961786746978760e-01
2.306689177221705467e-01,-1.349323657040717717e-01,2.270891483421836332e-01,-2.176927348909154115e-03,7.139002939190870452e-04,4.848737517837108796e-03,3.639431595802307129e-01
2.489327034816935513e-01,-1.370012274645703854e-01,2.400394387942911267e-01,1.185375074138933938e-03,1.169054570873996179e-03,1.314471309569863449e-03,3.815827369689941406e-01
2.434478208521400067e-01,-1.392718770095515146e-01,2.390603533840904293e-01,7.473192820765806044e-04,3.008221579110447689e-03,1.271009694911592923e-03,3.805891573429107666e-01
2.358800346660552827e-01,-1.389185491970771902e-01,2.331274131728199861e-01,6.164375803671914324e-04,-6.353098303977639503e-05,4.546461362544379839e-03,3.735144436359405518e-01
1.948974312291557043e-01,-1.233275847184521351e-01,2.215103511713107931e-01,-4.401300835267329611e-03,4.363377898584821016e-03,7.294473566081807400e-03,3.327448964118957520e-01
2.372391347403603745e-01,-1.345038461013305930e-01,2.539388824109160003e-01,1.052307832249989783e-03,-2.224383947530773811e-03,-6.937463665244820651e-04,3.803936839103698730e-01
1.891364897302842962e-01,-1.212563532068254152e-01,2.108520440723098133e-01,-4.139989957935165388e-03,2.429313927662915193e-02,2.281838673719235357e-03,3.246431052684783936e-01
2.630261483061681060e-01,-4.132595198443647644e-02,3.776859557768190712e-01,-1.572053732773820434e-02,-4.933093380665666550e-02,3.469465810395378543e-03,3.856840133666992188e-01
2.214956185649024079e-01,-1.328695088908053434e-01,2.329280644055894967e-01,-8.483901419736694476e-04,-5.832456437664804757e-04,-7.148224291651020072e-03,3.604345619678497314e-01
2.367629839632071909e-01,-1.371179130208719510e-01,2.147786387206190306e-01,3.994794222835667749e-03,-1.967503767590881268e-03,-8.726216158176950885e-05,3.634696900844573975e-01
2.167898481022771384e-01,-1.256236009077380811e-01,2.145232118971056035e-01,-1.135997885526483005e-03,-1.251690612653987835e-03,5.828159219908153827e-04,3.412998318672180176e-01
3.890746588410252116e-01,6.548699769246354996e-02,4.274368290044073260e-01,-2.891421720660957914e-02,-2.290396869021427487e-02,-3.482081707025859452e-03,3.503032922744750977e-01
2.421857753627031928e-01,-5.869822181536893391e-02,2.495390847935646805e-01,-8.330190963184425784e-03,-5.066947489537082126e-04,-2.280641719309610058e-03,3.049955666065216064e-01
2.453770963337963407e-01,-1.365163300113291234e-01,2.369784292711930862e-01,9.668168697783403962e-04,-4.151681451179683080e-04,2.440332762393866706e-03,3.777921497821807861e-01
2.492914363972282832e-01,-1.345050836449330767e-01,2.381198425621431913e-01,-1.874812788308590286e-03,4.522491384290425339e-04,6.806677189657387578e-04,3.783510327339172363e-01
2.111842271226051226e-01,-1.357599126479082097e-01,2.370862937271787652e-01,-1.227043357739022317e-02,-1.568213706806009453e-02,-1.216113734615747316e-02,3.628510534763336182e-01
2.526187308458943126e-01,1.010979634331063415e-02,2.653597268740408577e-01,2.853750207114691233e-03,-3.031872144955935836e-03,2.169007614273120443e-02,2.520438730716705322e-01
1.320554378029532294e-01,-1.227226635226157936e-01,2.492064611071355962e-01,-1.846452758321762914e-04,3.060808668868590871e-04,2.251087680549599020e-03,3.293923735618591309e-01
2.192534806160951200e-01,-1.240425768551422780e-01,2.082504429402916579e-01,-5.891123101874863426e-03,3.016160479708667255e-03,1.152874723555848396e-03,3.381291925907135010e-01
2.429610639151355000e-01,-1.358490693891265810e-01,2.413013029714795032e-01,-5.519391163398243731e-04,-1.660644103152810695e-03,3.028600193011909188e-03,3.780315220355987549e-01
2.627088176403389874e-01,-6.015816431995088531e-02,2.466460426866980971e-01,-7.519211120264071742e-03,-4.557626771283485381e-03,8.191839159829811950e-03,3.158293962478637695e-01
2.245773639084119866e-01,-1.322485854348207091e-01,2.313243138596839388e-01,5.960171281901415624e-04,-1.159165595618436278e-03,5.911645649257204517e-03,3.603993654251098633e-01
3.115239062948879090e-01,-8.880208966092237310e-02,2.009089784932341360e-01,1.386742816163173513e-02,1.014630638598065376e-01,2.189763325020092216e-02,4.013903737068176270e-01
2.084118435863960561e-01,-4.503957191416047001e-02,3.709515225857954457e-01,-1.091801100267920238e-02,5.061013891097992240e-02,6.786458254592153336e-03,3.742093145847320557e-01
2.680620258371740894e-01,-4.394618027184751807e-02,2.827991179665882426e-01,-2.501074487219164671e-02,1.436027448576748973e-03,1.210271264305970082e-02,3.232439160346984863e-01
2.754229762981493246e-01,-1.704898695106111806e-01,6.228990579556937385e-02,-6.105864166445633227e-03,4.922808018695993409e-03,-1.563749862855921130e-02,3.874833285808563232e-01
2.720430480429253395e-01,-1.389636382445217921e-01,1.392210961492678645e-01,7.002095875671267115e-03,3.150704440455128798e-03,-3.307535141616971958e-02,3.680166602134704590e-01
1.190553183824076822e-01,-1.253658734396467522e-01,3.618765149839346940e-01,-7.237555520168298742e-03,-7.136052448086250546e-04,-9.389388227538470952e-03,4.224661588668823242e-01
2.524454612181927793e-01,-1.176640001975354510e-01,1.413610539225541585e-01,-5.252207302048020766e-04,-2.216456228057944386e-03,5.838182481756777620e-04,3.289740979671478271e-01
2.063181131394978551e-01,-1.221925363483367666e-01,2.334393471845552792e-01,1.088225500652544551e-03,-2.878400945574731071e-03,6.457792540869163218e-03,3.431004881858825684e-01
2.542580738156743903e-01,-1.262791094529925606e-01,1.834173485581428176e-01,2.137675298633263422e-03,-2.094716665989026453e-03,-7.343186254134754717e-03,3.507963418960571289e-01
2.561253861592477366e-01,-1.467224340256594872e-01,9.292862504755214359e-02,-7.576689166043936580e-03,-5.756200580105277909e-02,5.412636089306912743e-03,3.652072846889495850e-01
2.430991949061074298e-01,-1.400223597818548438e-01,2.379180103570430749e-01,2.534838967127848487e-04,-2.101132658244165251e-03,1.027395501085113464e-03,3.805792331695556641e-01
2.369900054941337375e-01,-1.357171116704833369e-01,2.492572226159245896e-01,8.609407387393681063e-04,-1.084293813062844111e-03,-3.009579892265091096e-04,3.789975941181182861e-01
2.646528198059222570e-01,-1.513110801019594276e-01,1.220103301865914786e-01,-2.134456606855340485e-02,-4.641462270920980460e-02,-1.894979514249300542e-02,3.780816495418548584e-01
1.987884310536435217e-01,-1.273613649377742241e-01,2.501118416295042834e-01,-1.092110127834611429e-02,-1.796936833662887483e-03,-2.023622784228160370e-03,3.551431894302368164e-01
1.889289292435783474e-01,-1.130960812861791787e-01,2.289428362100905667e-01,-9.190427618646009348e-04,-6.194092233738962214e-03,2.801760051336119745e-03,3.241089284420013428e-01
1.481232607678910629e-01,-1.331754082222625091e-01,2.519218891347225764e-01,-1.096644631951717436e-02,-3.597911565909579692e-03,-4.053173516783528489e-03,3.457606434822082520e-01
1.629087521967070573e-01,-1.290793244226950409e-01,2.542151420670554218e-01,-1.126547419642083374e-02,-7.343529896398240907e-03,-9.471046990662677217e-03,3.479452431201934814e-01
1.539710466463154459e-01,-1.318874859095455210e-01,2.497859656663290462e-01,-1.056500175925028512e-02,-2.207580882357089089e-03,-3.673116219037667052e-03,3.444924652576446533e-01
1.622216418194514509e-01,-1.331502083493102950e-01,2.820594629237245798e-01,-1.382864763190530359e-02,-3.135463411250513643e-02,8.648104885772844169e-03,3.751662969589233398e-01
2.383167775827728097e-01,-1.364898768680420649e-01,2.493131375434979591e-01,9.778978943865983438e-04,-1.396077656398708733e-03,-6.808890209564666569e-05,3.804355263710021973e-01
2.064442227419584497e-01,-1.346353412000841909e-01,2.380887755033991304e-01,-1.340452152199540520e-03,-5.687084475419620574e-03,-4.097811448076884439e-03,3.581658303737640381e-01
1.920543824166383584e-01,-1.395691042296808293e-01,2.381358165215673450e-01,-1.493886809826708122e-02,4.364211175503042439e-03,-1.059905912155194568e-03,3.579236567020416260e-01
2.366348107227702613e-01,-1.367861744169910909e-01,2.273946355933660901e-01,-4.504447665881062060e-03,-1.404888364672196273e-03,-3.394006111357472048e-03,3.690250515937805176e-01
2.811196898280419187e-01,-1.346365781755486379e-01,1.993458917786252727e-01,-3.023435435015823375e-03,2.457918436303902984e-02,1.432244931980240429e-02,3.847044110298156738e-01
1.938793863768462911e-01,-1.249819751445654520e-01,2.453032483817034204e-01,1.642616755736192547e-03,-2.519791625459956354e-03,5.430026592120048429e-03,3.476056158542633057e-01
1.580552740543623713e-01,-1.178877911036916165e-01,2.420571872234147381e-01,-2.616727503097676156e-04,-5.312950532260753145e-03,2.775331760049074697e-03,3.263259530067443848e-01
2.700989711614411037e-01,-8.308090614906805949e-02,1.475368748098101479e-01,1.542957306302737350e-02,-1.152406085704772536e-02,1.408707300260442566e-02,3.133352696895599365e-01
2.390782482706171885e-01,-1.381415614830742156e-01,2.368346053890315606e-01,1.121704586680223993e-03,4.861596206261775167e-04,5.003003663603098478e-03,3.762087821960449219e-01
2.457283084530682282e-01,-6.491683994094069043e-02,2.574286717957681159e-01,-2.167889028519084547e-04,3.954892950825485837e-03,-6.852488083234531575e-03,3.169541060924530029e-01
2.499290173675415283e-01,-1.325939769204763641e-01,2.394292979899890483e-01,3.806461248977897568e-04,6.543868673785841784e-03,4.467820361182136776e-04,3.775542378425598145e-01
2.441284093355727269e-01,-1.378526198856040441e-01,2.403472991158137895e-01,3.922106555829199146e-04,5.702420858958417993e-03,8.792019560648468932e-04,3.802365362644195557e-01
2.546272342074002437e-01,-1.338393605659346508e-01,2.390177439605842280e-01,1.266428546641381030e-03,9.735260983959060635e-04,1.100758692066053845e-03,3.809166252613067627e-01
2.437459361908347055e-01,-1.208231722872272484e-01,2.565905516983820744e-01,-1.912060997772200297e-03,-5.495161572133393539e-04,-2.371394620863503163e-03,3.711968660354614258e-01
2.557231751199420255e-01,-1.311985195460502185e-01,2.360328661890240820e-01,-3.342113550203693224e-03,2.871427433558812730e-03,-1.197214871980323714e-03,3.775447607040405273e-01
2.383398810305558668e-01,-1.347468634799046661e-01,2.471600667782445360e-01,2.151311409640730560e-03,-8.127277649902861370e-04,-1.803027227217732708e-03,3.776080310344696045e-01
2.192907157304950228e-01,-1.326093990435822378e-01,2.438267401814140367e-01,6.803215755100127000e-04,-1.282436324411027418e-03,-7.505562188113998681e-03,3.650277554988861084e-01
2.284875069039691842e-01,-1.385216432039315104e-01,2.350128922162941780e-01,-4.599528958186070715e-03,2.920199382390013809e-04,-6.416455742052259970e-05,3.704010248184204102e-01
2.498713560343191753e-01,-1.269600542376202179e-01,2.352037788438733901e-01,2.504983215482915922e-03,-6.618131512658143555e-03,2.235117323756442235e-03,3.699392676353454590e-01
2.391128561533718000e-01,-1.282617553526352872e-01,2.558610666380369825e-01,2.919867220598858877e-04,-2.370145536764693608e-03,1.913790682801609156e-03,3.760659098625183105e-01
2.414230666971886041e-01,-1.233135030489406619e-01,2.428897259262360331e-01,2.334306495865268519e-03,-6.006501333156915277e-03,1.599964709298989495e-03,3.656530082225799561e-01
2.216472745477433837e-01,-1.335018856058440562e-01,2.330717923306126482e-01,-1.434044620781326287e-03,1.407024493279576899e-03,7.133265686786389656e-03,3.612251579761505127e-01
2.477688149886516089e-01,-1.193431211866045616e-01,2.371614527705898645e-01,5.242018729364490010e-03,-6.471049359752644760e-03,2.150394977211392993e-04,3.622123599052429199e-01
2.615874703751741026e-01,-1.342175465253549471e-01,2.120167936310831114e-01,-8.557997863494318930e-03,2.657571972863693750e-03,9.595092990176004935e-03,3.741866350173950195e-01
2.258440553787027238e-01,-1.138052470548703149e-01,2.373613082031550414e-01,-1.920286312379921407e-03,3.594306185270754270e-03,6.267522293137684462e-03,3.457944393157958984e-01
2.425022201527917143e-01,-1.382703571357092875e-01,2.406609990864188586e-01,1.494436878935361803e-03,3.405375846382673998e-03,1.155638289572068211e-03,3.799152076244354248e-01
2.391987547027701333e-01,-1.408135054699173327e-01,2.388853834532776999e-01,8.853701509303141606e-04,7.863894103348432205e-04,1.809563289981825317e-04,3.798613250255584717e-01
2.907988791692790453e-01,2.571609763047214003e-02,4.304800727764475088e-01,-1.481957668073414537e-02,3.924821401016276995e-02,-3.115005948471901917e-02,3.674206137657165527e-01
2.549528040162892806e-01,-1.281309555775755615e-01,2.355168441011206704e-01,2.403757853897403162e-03,8.274946321162204941e-04,1.376862818048871168e-05,3.737709224224090576e-01
2.389307930703039040e-01,-1.402423430916235336e-01,2.388345353009110328e-01,4.370438026192166635e-04,5.681432876052976079e-05,1.605447085459595915e-08,3.791257739067077637e-01
2.390380953814164877e-01,-1.404368069173619893e-01,2.401219260126894184e-01,7.519253878446015629e-04,1.093765246976638374e-03,4.761674158632015646e-05,3.800249397754669189e-01
3.004765141575712617e-01,2.126929604682084585e-02,4.140019653288854462e-01,-3.198121045092403025e-02,3.519036382133465535e-02,-4.231211053498922653e-03,3.596929311752319336e-01
9.104260375151421170e-02,-1.594934322685332417e-01,2.365895941369423605e-01,6.219718224232758177e-03,-8.191194575436210046e-02,-1.600024787226814356e-03,3.750592470169067383e-01
1.869930472249641817e-01,-1.233693325988743650e-01,2.580121997414446255e-01,6.297491494728863024e-04,-3.310114412860871210e-03,-3.634554415461127108e-04,3.513469099998474121e-01
2.180092678936010331e-01,-1.334603003289239198e-01,2.393185684935156821e-01,4.646107926552100901e-04,-8.476738106385811773e-04,3.468899110168520254e-03,3.626478016376495361e-01
1.802268384408741708e-01,-1.278643816678040612e-01,2.382447565282274637e-01,-2.159302255485851321e-03,-4.594487322907051322e-03,-5.333422092454385283e-03,3.410626649856567383e-01
2.429348418829726519e-01,-1.089493932689619277e-01,1.804623456280398108e-01,-5.835062162887209164e-03,4.759873167019664647e-02,-1.156808862129487039e-02,3.362183272838592529e-01
2.109942576684081250e-01,-1.196248795525957503e-01,2.100852390382540735e-01,-7.359270845421110943e-04,1.521150814612612368e-03,3.369345838048721717e-04,3.301790654659271240e-01
2.400256430795967288e-01,-1.401109381273204502e-01,2.386968328744274448e-01,3.450408725801067653e-04,1.211271275316762753e-03,7.685448020516791063e-04,3.794825375080108643e-01
2.369539236974805285e-01,-1.393495212781631909e-01,2.369143753691614340e-01,9.878261288683133981e-04,2.202917818598015592e-06,9.510057468400809821e-05,3.762876093387603760e-01
2.393801574016767575e-01,-4.402258534256994760e-02,2.494396591689048703e-01,9.935497042611679541e-03,3.663833251366500985e-03,1.007474499113781424e-02,2.896724343299865723e-01
2.329284183369321748e-01,-7.974365636176808381e-02,2.449095939036074199e-01,-1.529930363449336691e-03,7.297341931874348243e-03,-5.826050163600241579e-04,3.190945684909820557e-01
1.971490068883834934e-01,-2.507354803997396964e-01,1.989774373132074947e-01,-5.728377079472313921e-03,-1.327828693762825307e-01,-4.751198469826710402e-03,5.044628977775573730e-01
2.408937221461573963e-01,-7.676710329531377663e-04,2.529133690386520805e-01,2.097996501816993208e-04,1.657152170857312734e-03,1.577411315645101120e-02,2.494077533483505249e-01
2.678740109641756240e-01,-3.815738282517355806e-03,2.554227134802014021e-01,5.380738618372807314e-03,3.882351572400367153e-03,8.090661967926323153e-03,2.663004100322723389e-01
2.864152704111022629e-01,-3.078772498415477399e-02,2.797788090510677783e-01,-1.513182209557151041e-02,-1.791306145322013425e-03,1.829039487430161176e-02,3.166336119174957275e-01
2.538386664311731433e-01,-5.772481408233026690e-03,2.642632055723970752e-01,2.458534623385839977e-03,4.317361865492822838e-03,5.479321477416501836e-03,2.652867734432220459e-01
2.469029273719150208e-01,-1.328489892884336110e-01,2.435417039037493792e-01,-7.389370573355192023e-04,1.611890820580285950e-03,-3.386115096047156861e-04,3.780954480171203613e-01
2.480497259544666433e-01,-1.375582074175551728e-01,2.386075347041850536e-01,2.101416266637226696e-05,-2.589181060611482708e-03,4.523903145072491797e-04,3.810018002986907959e-01
2.198821644281238052e-01,-1.212187787887103185e-01,2.091639244187756264e-01,5.549636855110486044e-03,4.165381360541830016e-03,-2.275443767022168259e-03,3.361081779003143311e-01
2.280473661304186495e-01,-1.389163948230859869e-01,2.387776857093873162e-01,-5.207036721148942601e-03,9.791954581995258259e-04,4.144908242631922465e-03,3.726270794868469238e-01
2.444360996224251292e-01,-1.169460372359298894e-01,1.690900184215688440e-01,-1.693336188619524877e-03,-7.524333257192673645e-03,-2.465708457935048871e-04,3.304905295372009277e-01
2.555651802363815284e-01,-1.243221148423550304e-01,2.317773665262141125e-01,3.479069335539144428e-04,-2.037540000783395928e-03,-1.339558574037002202e-03,3.685942590236663818e-01
2.468921324894673974e-01,-1.266407997803642993e-01,2.401413885143500737e-01,-7.369592719984790000e-04,-8.819073821412356726e-04,2.388173019295293173e-03,3.702321946620941162e-01
2.440507587056353345e-01,-1.364697384145836245e-01,2.384644595768058428e-01,-9.962054457349962290e-04,-8.917736894902328348e-03,3.242284354463687685e-04,3.780783414840698242e-01
2.262110895290950774e-01,-1.386772896164335522e-01,2.338025780045447921e-01,-5.225919892523739688e-03,-3.887715985288474102e-04,3.059494863481898239e-03,3.688924908638000488e-01
2.535370184595084342e-01,-1.343374113618414079e-01,2.333764797818851933e-01,5.886798663926539558e-04,1.935192327255999501e-03,2.113767228431334027e-04,3.782137930393218994e-01
2.557985929442700423e-01,-1.262045673937516321e-01,2.405390865354133378e-01,6.518387170442491337e-04,4.703433201131205360e-03,7.965062234611923605e-04,3.746993839740753174e-01
1.381519703858965498e-01,-1.507006181850741866e-01,2.569042012542234743e-01,2.827644532236371633e-02,-4.653061252927711763e-03,4.574163887214250865e-03,3.665599524974822998e-01
1.507799292583542616e-01,-1.228390169585044656e-01,2.521729898120076419e-01,-5.450728925940518874e-03,3.359409909298699537e-03,-8.965196669061528331e-04,3.361790478229522705e-01
2.388751443531442198e-01,-4.720374578782871033e-02,2.506566209431965175e-01,1.264658932311852387e-03,-5.985350275298318388e-03,-1.578193242507302087e-03,2.923527061939239502e-01
1.535830363648462427e-01,-1.180185722215005145e-01,2.542608427317620823e-01,-8.158542955908363930e-04,3.707424100203322598e-03,-1.369490743799758447e-03,3.336113989353179932e-01
1.553172866404805008e-01,-1.345842134963068926e-01,2.559846811898869312e-01,1.232703238479727383e-02,6.085663337071012431e-03,-2.469337008134915752e-03,3.520592153072357178e-01
1.602810915398047709e-01,-1.270172139653116816e-01,2.646302539031105683e-01,4.932674732709474430e-03,-8.421539082958352448e-03,4.598746977039733751e-03,3.517920076847076416e-01
2.453863549092833718e-01,-1.344357265499104837e-01,2.429151316443979858e-01,7.933016837002539499e-07,1.817978541205047616e-03,2.547147484865874487e-03,3.786313235759735107e-01
2.500598154959987052e-01,-1.356585626338691619e-01,2.345177944126782821e-01,2.252196923792251608e-03,-1.788353120791033547e-04,-6.400374278808447807e-04,3.782088458538055420e-01
2.554459664955882614e-01,-1.235859284105627898e-01,1.845245115062544017e-01,3.860250528978170992e-05,2.654003940533858959e-04,-5.020198807703661788e-04,3.490193486213684082e-01
2.410837312065127191e-01,-1.249410344836610759e-01,2.410980134861849811e-01,3.629576752372332214e-03,-3.019402519303402820e-03,-2.859728279399294248e-03,3.661567568778991699e-01
9.786641519890039442e-02,-1.381536513071434102e-01,2.530359525861131664e-01,8.752821238481554855e-03,-7.842596730763668617e-03,2.869920047719684304e-03,3.418263494968414307e-01
2.195255439864228220e-01,-1.323086611994385708e-01,2.415689104776209961e-01,1.480984254885705283e-03,7.309500617058859112e-04,-5.848646782421258739e-03,3.635101616382598877e-01
2.390018012363540056e-01,-1.205002347625545450e-01,1.677673182369253113e-01,2.626252094495816047e-03,2.253308305952866908e-02,-7.176399691128867650e-03,3.322732746601104736e-01
2.228479915467569683e-01,-1.339204585972855743e-01,2.391510890613028906e-01,1.996824146524762283e-03,-1.627973154741272971e-03,1.003557627829530525e-03,3.652244210243225098e-01
2.523127294622773964e-01,-1.147516553134592943e-01,2.394245116261654871e-01,-9.729032528091097198e-03,-8.123579026396217373e-03,-3.133130667980886346e-03,3.615009784698486328e-01
2.478258133539872898e-01,-9.699502448524038867e-02,2.521421355271069586e-01,-5.909045130283271940e-03,-9.081753429629937230e-03,7.297820125611128271e-03,3.477360606193542480e-01
1.911155879591181495e-01,-1.237464149731454105e-01,2.283840803939916619e-01,6.075343506472095575e-03,-4.310395622167595073e-03,8.184260993121660055e-03,3.356022536754608154e-01
2.528196671316474964e-01,-8.390685569883682415e-02,2.463997770988546887e-01,9.630153134662566491e-04,-1.303417285569548507e-02,4.808299102796400118e-03,3.344338834285736084e-01
2.263855310991657599e-01,-1.302182213823045720e-01,2.542292576222778266e-01,2.057686966437746214e-03,-1.193607901292588697e-03,-3.374912773923786913e-03,3.713783025741577148e-01
1.703122267287057456e-01,-1.548188790715792351e-01,2.309125389038481913e-01,4.479408536080303673e-04,-4.801774604320344086e-02,1.517055776923789505e-02,3.697212934494018555e-01
2.154095891830118958e-01,-1.210383486351286203e-01,2.028678016502974690e-01,-3.206705841108410150e-03,3.296656101011730469e-03,6.719675207871925442e-04,3.304537236690521240e-01
4.838166924107054762e-02,-1.399385977787519220e-01,2.751342866122657438e-01,9.556109381637718087e-03,-7.119519141882839179e-03,-1.283980779879457731e-02,3.612533509731292725e-01
2.801331597796943851e-01,-5.033908002716747099e-04,3.225352475222186266e-01,-1.812554580746999350e-02,3.368483455494119400e-02,2.046306635254708378e-02,3.132095336914062500e-01
2.074636284607857817e-01,-1.260724145801871976e-01,2.229232889922864169e-01,-1.492003256563349768e-03,3.810621746556622225e-03,6.125884340830858171e-03,3.417666852474212646e-01
1.736584212862156695e-01,-1.268817673184445827e-01,2.291459146014269144e-01,7.493348001222788733e-03,-9.686705766731858874e-03,1.094823328752110581e-02,3.330000340938568115e-01
1.998514455246700461e-01,-1.263732156096543102e-01,2.438815650724232009e-01,1.405258303145482703e-02,-1.090374668284770608e-02,9.714035349833279737e-03,3.520753979682922363e-01
1.642034602556008971e-01,-1.287485298646597887e-01,2.352314121217985998e-01,5.141559324289137617e-03,-4.693394010872180278e-02,1.319159746281968644e-02,3.447946608066558838e-01
1.609222912490818891e-01,-1.375102089914999048e-01,2.418396018020794180e-01,7.941338590064352457e-04,-4.074774547957052753e-03,1.105046933200671134e-04,3.461353182792663574e-01
1.603547916802155471e-01,-1.261144948508695074e-01,2.444143227619565151e-01,6.327452111164453413e-03,-9.990646716911685127e-03,8.235955013883668185e-03,3.373931944370269775e-01
2.321100827182093762e-01,-1.330723548907180309e-01,2.214521742923914460e-01,7.177576806554488743e-03,1.390318701262660767e-03,-4.758249457439299641e-04,3.601954281330108643e-01
2.391283159414970272e-01,-1.383128762468091577e-01,2.400281820999846660e-01,2.409141812019848991e-03,3.432949038598138818e-03,1.753158527975876881e-03,3.779739439487457275e-01
2.233336626533043157e-01,-1.223117831903363789e-01,2.189896380573288226e-01,3.775524455357780716e-03,4.781811903228393515e-04,-1.062437826460608560e-03,3.435622155666351318e-01
2.198136472757528104e-01,-1.341713910398334431e-01,2.385510187767867496e-01,-7.118351630565325407e-04,5.855965077730324785e-05,3.527963472227828735e-03,3.637693226337432861e-01
2.379437182481046187e-01,-1.378839554144053181e-01,2.445249599289090470e-01,2.085268383450140060e-03,1.692328862940222422e-03,1.481359183170487259e-03,3.791983425617218018e-01
1.344566963673141102e-01,-1.222047923440926082e-01,2.528599077126205685e-01,-6.948312682444129310e-04,-2.827392231712523487e-03,1.265369111797957306e-03,3.321358561515808105e-01
1.928371276249201127e-01,-1.301631483037612447e-01,2.394546608645839458e-01,9.667088551616225467e-04,3.616356215431082953e-03,-4.124214715085569062e-03,3.487877845764160156e-01
2.326106283649189699e-01,-1.347463840828258541e-01,2.440343900633625274e-01,1.012626279250184759e-02,5.783941276470562064e-04,-5.935238451124986991e-03,3.737547099590301514e-01
2.375704901335966568e-01,-1.383318884999291953e-01,2.419512783524897237e-01,2.686935534022198094e-03,2.636944129883980097e-04,1.352311217828204397e-03,3.781479895114898682e-01
2.386781960047295592e-01,-1.392527065673196396e-01,2.431048609683179595e-01,1.414779428570060206e-03,1.858618168080037334e-03,1.827466503673233792e-04,3.801852166652679443e-01
2.392323580252264659e-01,-1.358588704243670064e-01,2.388642682131119632e-01,5.365893612197699704e-03,2.738397215641611825e-03,8.579502916547401912e-04,3.750554323196411133e-01
2.545267918510114580e-01,-1.229838465294055688e-01,2.291989428876209656e-01,1.905515170080843059e-04,3.860943244439664617e-03,-1.863516730796290410e-03,3.655810356140136719e-01
2.512408641853061120e-01,-9.298000331328754031e-02,2.563386819039370490e-01,-6.564108896427018041e-04,3.378812896268179600e-03,-1.191670252129120762e-02,3.474627137184143066e-01
2.382175330802316360e-01,-1.054087975061992200e-01,2.490369786513165762e-01,-5.908241766732698873e-03,-9.862534627788684810e-03,1.897631052151837637e-03,3.497446179389953613e-01
2.476711375274046611e-01,-1.331132405216374215e-01,2.409809168329984930e-01,3.121461225807039153e-03,1.321168439629974520e-03,3.826029283633476403e-03,3.775875568389892578e-01
1.870386211379742869e-01,-1.274075449090414647e-01,2.566784774652831058e-01,1.213401207698216067e-03,1.147142080152254925e-03,5.304058533012742183e-04,3.544478714466094971e-01
2.074645756800601593e-01,-1.229508748469645002e-01,2.490415956715485435e-01,4.534562743866224488e-05,2.621847722460981188e-04,-1.608730555035581191e-04,3.530453145503997803e-01
2.546572490489557028e-01,-1.333198484504779791e-01,2.361316123739590767e-01,3.130167084130901787e-04,-8.983853402012141219e-04,-5.811973133006814989e-04,3.790588676929473877e-01
2.544484803171990217e-01,-1.229044860482358115e-01,1.998592224483769497e-01,2.082548820349718749e-03,-4.207653605231459135e-03,9.117727405363242055e-03,3.536825478076934814e-01
1.910586453595078393e-01,-1.302188526693141835e-01,1.898300848336694213e-01,5.111811976932330998e-03,-4.770726658111973384e-02,9.262540398403734578e-04,3.312626481056213379e-01
2.006706540362729885e-01,-1.369329391192633527e-01,2.399331721809928875e-01,8.698904955330672567e-03,-2.284356818786010754e-03,8.514511813140047264e-03,3.594900071620941162e-01
2.510895663416002344e-01,-1.079509504050248508e-01,1.708571558010806846e-01,4.642755768550809944e-03,-1.893955137406872283e-02,4.156819227921023166e-03,3.282274603843688965e-01
2.088618181774682669e-01,-1.261617281032591520e-01,2.198425966204259896e-01,-2.258255143380495005e-04,2.105888524531772388e-03,4.497186961563544305e-03,3.407554924488067627e-01
2.548336863580821787e-01,-1.228466698487606090e-01,2.366986241600099183e-01,6.633007174731940514e-04,-3.207545527870208496e-03,-5.697937319537754470e-04,3.689921796321868896e-01
3.906882130992742619e-01,5.566851619485110869e-02,3.406091095817554426e-01,-9.565863236956949692e-03,2.876685781638705502e-02,1.169103336787102702e-02,3.180185258388519287e-01
2.423956930266233378e-01,-1.328760234940315477e-01,1.963711971697330583e-01,8.589878395895252788e-03,-3.417013350774650640e-03,9.873961486575792354e-03,3.552805781364440918e-01
2.297192218272080533e-01,-1.266240687926825925e-01,2.938889032837130877e-01,-9.468465248223631447e-03,-3.075863241572807626e-03,-7.199118068272067697e-04,3.927640616893768311e-01
2.527950886394076946e-01,-1.275465341392591767e-01,2.307898413369889601e-01,-1.050817357208776778e-03,-3.927285084403559640e-03,-1.480073618042818031e-03,3.699062466621398926e-01
3.900972965911460588e-01,-9.161709726581146462e-04,2.988788906382989219e-01,6.871560180657168559e-04,3.521418485619507571e-02,2.533434831552072025e-02,3.622039854526519775e-01
2.645892396495974630e-01,-1.445216619648600487e-01,1.485189632597586074e-01,2.269520939333889448e-03,-2.677299898373087725e-02,1.662446823860934397e-02,3.692605793476104736e-01
2.570235531522814254e-01,-1.239061537668398327e-01,1.929763574828889661e-01,3.109398800345559554e-03,-2.987136660082791856e-03,1.077278329384863918e-02,3.538586497306823730e-01
2.441054765347219213e-01,-1.275007639481780530e-01,2.448852850950507254e-01,3.220979230763975319e-03,-2.841062445481365439e-03,-3.983514784589449031e-04,3.720717728137969971e-01
2.574105283863191707e-01,-1.239245811098504679e-01,1.712061308696370687e-01,-1.349688410574436358e-03,8.906839153656791880e-03,1.402651299284233882e-03,3.467337191104888916e-01
2.475279367072366066e-01,-1.328567891565677894e-01,2.445699080625578503e-01,1.002610345722463811e-03,-1.664372321837902366e-03,-1.811883853870778689e-04,3.789294362068176270e-01
2.228211002804924290e-01,-1.305773155577474309e-01,2.359633350177144095e-01,-1.109943909712438146e-03,9.168019951030648021e-04,5.729644578385642215e-03,3.602947592735290527e-01
2.423019948334591001e-01,-1.362521572844476170e-01,2.380359353402853317e-01,-3.695840112292412822e-04,-1.010827857843938195e-03,3.885386910853543419e-03,3.765040040016174316e-01
2.490550825785409206e-01,-1.255677894610647272e-01,1.662056543038245016e-01,4.393790875019775236e-03,-5.202209193568455708e-03,2.824554770129307502e-03,3.410748839378356934e-01
2.431925928000982506e-01,-1.298938879016383052e-01,1.366718074622736978e-01,5.287090032305723566e-03,-9.699509409790136108e-03,7.767288784425785408e-03,3.336852192878723145e-01
2.438414426111016886e-01,-1.303975091036099765e-01,2.417642975874470523e-01,3.602733329428970972e-03,-7.098713577770958232e-03,-3.997810812338582764e-03,3.735235333442687988e-01
2.801888209764357152e-01,-1.134053077513977603e-01,1.693970976322639599e-01,-1.420814399203318423e-02,-5.283404519007218504e-03,2.094268486217566727e-02,3.543858230113983154e-01
2.415355979076512782e-01,-1.363468816401394723e-01,2.385391015613715915e-01,-1.626371031188556123e-04,-1.578840107018327117e-03,4.296314864850311020e-03,3.764767646789550781e-01
2.243755461038383636e-01,-1.293130848101906039e-01,2.450082209582090387e-01,-6.850291967900872404e-04,-9.340881506639947540e-04,4.456135805676183712e-03,3.645305037498474121e-01
1.444315852921024546e-01,-1.212919703722777909e-01,2.408014316743216643e-01,-1.270059259620235931e-03,6.035503233288771335e-03,4.247893733775513856e-04,3.249900937080383301e-01
2.650548573308950662e-01,-1.639514395992835716e-01,1.407764385500910320e-01,8.673771027151484445e-03,-3.196396008597096605e-02,-3.158590188984639752e-03,3.866471648216247559e-01
2.274488030445141473e-01,-1.230265244355533139e-01,2.150549542561405736e-01,6.641466128328348331e-03,8.226198136133380714e-04,-1.496827859351874870e-03,3.446504175662994385e-01
2.072044484865926406e-01,-1.345889326039574341e-01,2.334208067390716734e-01,5.960309129857370089e-03,-2.641411818289443342e-03,7.858697628301970772e-03,3.560665249824523926e-01
2.327447574787049889e-01,-1.350876301471114482e-01,2.197396294368074987e-01,-7.316486868419526911e-03,1.818792564027541317e-03,6.781145160504413721e-04,3.617429733276367188e-01
2.782226155766427400e-01,5.580755593408759374e-03,2.933359102033930021e-01,-9.729953076151511698e-03,-3.520158604915450424e-03,2.056134727849900923e-02,2.833231687545776367e-01
2.157859753948719317e-01,-1.191366579169438195e-01,2.026705352157821549e-01,9.594276698066230361e-04,2.876824186429683371e-03,-1.212113771939699351e-03,3.286100029945373535e-01
2.649883598079761926e-01,2.487586909626926523e-02,2.552057077446732158e-01,1.818431296889681109e-02,7.254585113841601970e-03,2.108920753736887380e-03,2.378318905830383301e-01
1.312661337231095515e-01,-1.538766357523402295e-01,2.703475858700478129e-01,3.407074647365411491e-02,-3.526985321762433380e-03,-4.858028630294131470e-03,3.793398141860961914e-01
1.727847210857422211e-01,-1.734542573802518861e-01,1.477411967791106007e-01,-1.052214950357979045e-02,1.071011857253699878e-01,1.483383301540859393e-02,3.837210237979888916e-01
2.580244614144500681e-01,-3.092907617244261553e-03,2.447543220163244937e-01,7.724720426218222198e-03,6.106357896934200280e-04,-3.678133819408426625e-03,2.551745176315307617e-01
1.477955643088583182e-01,-1.191314682100338557e-01,2.568258896803389812e-01,-1.079562196595813443e-04,2.589439043520943597e-03,-6.201533935582175059e-04,3.350553512573242188e-01
2.555420987008707456e-01,-1.064174976677470519e-02,2.407882906379893162e-01,1.129620938113572517e-02,3.997221176021701684e-04,1.782536107895231091e-03,2.598790526390075684e-01
1.426111923603513576e-01,-1.264683297601557066e-01,2.375747191153073645e-01,-5.612148239740776456e-04,5.620273717707496147e-03,2.585441562065542067e-03,3.272466361522674561e-01
1.870701379067906123e-01,-1.359059557038655996e-01,2.118519074817753478e-01,8.614503788279692306e-03,2.279307605518879690e-02,-8.301997714564256919e-03,3.389979004859924316e-01
2.536482840239309144e-01,-1.284186433985153863e-01,2.371191654396632709e-01,-1.522619351324286570e-04,-6.403036987854426702e-03,-1.111151843093105638e-03,3.742457628250122070e-01
2.458581645348897338e-01,2.591714241622844472e-02,2.497262345448590659e-01,6.967935939233288987e-03,8.154471117101046683e-04,-3.177858951297936677e-03,2.223009467124938965e-01
2.466432418715627239e-01,-1.353285857345516985e-01,2.367513932228536566e-01,-5.115704820579128299e-04,1.228609355723091200e-06,4.531087417405667262e-04,3.771250844001770020e-01
2.120312344237519908e-01,-1.153192954818961086e-01,2.639510015672907883e-01,-2.498600701446680923e-04,4.488988327694631159e-03,-5.468864156725727378e-03,3.563711047172546387e-01
2.311584426912348389e-01,-1.297669432559936942e-01,2.269009864607414717e-01,3.519684092775597888e-03,-8.201978506013484112e-04,-6.323945313090049199e-04,3.588718771934509277e-01
2.497106525116070952e-01,-1.225662653177715944e-01,2.421189058584424791e-01,-1.603142472525651095e-03,-1.603173169589025603e-03,-1.124846534264313004e-03,3.685657680034637451e-01
2.214157636420210074e-01,-1.155878339085881917e-01,2.187598581944920073e-01,2.158901966836702935e-02,3.260181646240831871e-02,-2.354389648196329038e-02,3.448670208454132080e-01
1.052287586880389092e-01,-1.348361002836894751e-01,2.508355533688166883e-01,8.292081660722776595e-03,2.213539910378160835e-02,-3.870087700853065606e-03,3.398656845092773438e-01
9.415486600480862944e-02,-1.469238664868875999e-01,2.514217906758072774e-01,3.042751665292232899e-02,5.907136169518271279e-02,-1.992849760595032105e-02,3.676992952823638916e-01
2.432905082946943132e-01,-5.270450229180359547e-02,2.119839521742634125e-01,-1.946627968714586404e-02,3.636454880684200641e-02,9.785339889522754603e-03,2.910631597042083740e-01
2.583730078570116717e-01,-7.939587076096576990e-02,2.550217408579148470e-01,-3.454410872186084846e-03,-7.179595520545182033e-03,2.397619500662279829e-02,3.389426171779632568e-01
2.737851169165131937e-01,-1.472278841826074602e-03,2.574128832902868869e-01,-1.069694149788981592e-02,-2.343639826657450617e-03,6.559246784098506956e-03,2.683596909046173096e-01
2.514978118179668209e-01,-1.355157125676041407e-01,2.369778964673466271e-01,2.056467652025741011e-06,-1.902431647972896477e-03,-4.098101040607236151e-04,3.799766600131988525e-01
2.846098890895584210e-01,-8.779800573047641388e-03,2.722962304823004498e-01,1.469352353742484248e-02,-4.101809850127272929e-03,1.382066066487547956e-02,2.896336317062377930e-01
2.502708809987255201e-01,-2.802106174446380993e-02,2.475363639119227133e-01,1.286369785195022077e-02,3.692864987065293259e-02,5.332476912425057440e-03,2.852469086647033691e-01
2.457307568214548432e-01,-1.380706927689548391e-01,2.389869090091889525e-01,5.302421582780896328e-04,-2.793838212059638389e-03,-9.600511836213315329e-04,3.805098533630371094e-01
3.821800388901636647e-01,2.055493649663620026e-02,2.884543864595468521e-01,-4.396599086190340622e-03,3.614274389458119879e-02,-6.878936282811626323e-04,3.311222791671752930e-01
2.550831902031964193e-01,-9.425502342281361079e-02,2.278915205168493552e-01,-4.848137941564395112e-04,-5.615027273628832132e-03,-2.818503271190294160e-03,3.367441296577453613e-01
3.076523420990533442e-01,-5.797946990349214791e-02,2.796612222289558969e-01,1.123651931936832729e-02,-1.036938830040168465e-02,6.874466706079974954e-03,3.536648154258728027e-01
2.493800730242786146e-01,-2.265992390351084795e-02,2.564148882039826161e-01,8.743179033362897742e-04,2.239076689687327269e-04,2.256731178329901555e-02,2.783869504928588867e-01
2.666952279433486006e-01,-1.852732213283422857e-02,2.339818354699844116e-01,1.540069174252820319e-02,4.396732097337072848e-03,-9.001289000865664303e-03,2.722206413745880127e-01
2.423973276095024443e-01,-9.019217556978559314e-02,2.544873819823627037e-01,3.362133453666776243e-03,2.229597604449481615e-03,1.085506328764868425e-02,3.393895924091339111e-01
3.484654013292025065e-01,-6.874533689976730644e-02,2.128533486692913423e-01,-1.329681673881026246e-02,6.537926245137745673e-02,2.184492844557041347e-02,3.881520032882690430e-01
2.467827330171248890e-01,-1.384084383427774956e-01,2.389116259006963117e-01,1.210217426524611803e-04,-1.411815275224464388e-03,-1.427773248539440133e-03,3.813324570655822754e-01
2.513027388902860371e-01,-1.344457768379326845e-01,2.386573140720345543e-01,4.166889952296585781e-04,-3.494530128413333384e-03,-1.945456116238683747e-03,3.796477019786834717e-01
2.423717249970924470e-01,-6.879942142970446595e-02,2.571640539087587385e-01,9.233206851211394435e-04,-1.662120232339106942e-03,4.735958120695873616e-03,3.189472854137420654e-01
2.037438076817393862e-01,-1.454179125199269174e-01,1.231675192780153222e-01,-1.474601009383955628e-02,1.052646520077424458e-01,3.684282938086587238e-03,3.663431406021118164e-01
2.327003913204117869e-01,-1.041493133701032192e-01,2.661277474060386172e-01,3.939637437392144378e-03,1.065889551918455108e-01,1.566466718615563969e-02,4.008882939815521240e-01
1.558312185836008557e-01,-1.350490901347062844e-01,2.399916138405048249e-01,8.238943166068449231e-03,7.770646916681867022e-02,1.273603801247687357e-02,3.673963546752929688e-01
2.420969575586649492e-01,-1.110243707010669378e-01,2.444516277575594920e-01,3.303169312902566167e-03,-2.489974204200542593e-03,-1.234367658969082543e-05,3.543769717216491699e-01
2.405453938321242546e-01,-1.241949818459268939e-01,1.524769117376380545e-01,-5.467217365388865775e-03,5.223075411155707337e-03,-3.809552873304508040e-03,3.299765288829803467e-01
2.511936001062852752e-01,-1.384203795454972963e-01,1.161325830432720224e-01,5.578575047869788542e-04,2.521034889195006290e-02,-3.103723457069537672e-03,3.454785048961639404e-01
2.155778244619389605e-01,-1.220818272874396038e-01,2.279385163606056919e-01,-1.829565680298405944e-03,1.367030793040227869e-03,3.864738670394900558e-03,3.440944552421569824e-01
2.671371500858031323e-01,-2.131103198769231377e-01,1.455748669927313665e-01,5.206720076396080185e-03,1.160584086609550702e-01,-5.818565183704499030e-03,4.771023094654083252e-01
1.514192684071338224e-01,-1.173540041052201222e-01,2.515137060720873396e-01,1.506749488896968851e-03,-2.931863713723064421e-03,-3.272527940471590697e-04,3.304445445537567139e-01
2.435872966372962800e-01,-1.389012886202867780e-01,2.371884784836344184e-01,-2.022854166150719196e-03,-1.099527886806218402e-03,2.702397320081705544e-03,3.793794810771942139e-01
2.437487509442987088e-01,-1.043104389986571068e-02,2.471309982822132711e-01,-6.862755266797250855e-03,5.778763860824378054e-03,-3.151499420447749413e-03,2.564171850681304932e-01
1.050783603276694705e-01,-1.924212652787727074e-01,1.633454227412078907e-01,1.256423650149325957e-02,1.167860180141289533e-01,-9.952954160320701127e-03,3.884883522987365723e-01
2.083383234663420402e-01,-1.898763367380265354e-01,8.197214349217046836e-02,-1.240498029559285523e-02,1.057433802749692259e-01,3.003545708712791057e-02,4.011676609516143799e-01
1.807137504294028807e-01,-2.601385951990574652e-01,1.073345717118448783e-01,-3.389876788194673418e-02,1.062673352803122501e-01,1.378702177017583283e-02,4.530803263187408447e-01
2.244397706887228394e-01,-1.306894120173590079e-01,1.640747705779205534e-01,8.850116926389137162e-03,2.158472904194119399e-02,-7.451985342460705139e-03,3.318472206592559814e-01
2.104649817910706489e-01,-1.252421677982746284e-01,2.072396216771646982e-01,3.260264610794200504e-03,5.167805964708006329e-03,-1.334179004195955656e-03,3.342817127704620361e-01
2.609824988305515792e-01,-1.493739816711046609e-01,1.590088433901657716e-01,-1.209611631103538892e-02,-5.495501313828524831e-02,-2.565285950670632628e-02,3.852516412734985352e-01
2.385191298282623162e-01,-1.201681417671910668e-01,2.053382397052461728e-01,-7.539602958870326305e-03,-7.042243775787577521e-03,-6.847041277899742172e-03,3.439708352088928223e-01
2.400483201712654280e-01,-1.350349139561552447e-01,1.547105023636225762e-01,-5.881444392285776340e-03,-4.314912252976428608e-03,-1.218599704586626267e-02,3.414180874824523926e-01
3.043193923214683183e-01,-4.347172287306497185e-02,2.484042253100406383e-01,-5.275866375030051000e-03,5.753470994322864608e-03,2.652562375528269567e-02,3.270045816898345947e-01
2.571188931662847788e-01,-1.206654326569589486e-01,2.358959668258456821e-01,9.247495024564043832e-04,-1.357982198040990707e-03,4.176382923092806913e-04,3.676443099975585938e-01
2.395928201801822421e-01,-1.349354069298030478e-01,2.047908480737918313e-01,-6.449232333332101559e-03,-4.648071034904717501e-04,-6.215048223925252399e-03,3.587332665920257568e-01
2.115419879822557359e-01,-1.371329554747109380e-01,2.239029215451447952e-01,6.968890024810678839e-04,5.798051445541744370e-03,-6.499488598084843249e-03,3.553392589092254639e-01
1.955232781898496031e-01,-1.224349661124801841e-01,2.443956673115798561e-01,9.151219474373126000e-04,3.630618314435048698e-03,-7.218973777126470003e-03,3.452878892421722412e-01
2.474222575195499096e-01,-1.248026255081978730e-01,1.880447587701666590e-01,-4.196358415532112050e-03,-3.459071649643051787e-03,2.743440074922786492e-04,3.465028405189514160e-01
2.389247918813625082e-01,-1.360253398652839230e-01,2.263700794851482845e-01,8.051736167206533434e-04,-1.369920250569694933e-03,-2.497089066712351001e-03,3.688686788082122803e-01
2.901385897732749464e-01,8.735789668769450289e-03,3.106144828838122152e-01,2.273170486739627474e-03,5.732228532133516741e-03,-3.812547473666409812e-03,2.924490571022033691e-01
2.879143123626260459e-01,2.193997294972932499e-02,3.685503471310153101e-01,1.833088787294061186e-03,-4.074630466717483329e-03,-2.728261597971925068e-03,3.142830729484558105e-01
3.229483307865268493e-01,2.338031532190923412e-02,3.859903634931325378e-01,-4.077214487200800375e-02,-2.737008185427476994e-02,2.202255592721117164e-03,3.461931347846984863e-01
2.272913144659796103e-01,-1.301981428974306465e-01,2.390401358340240034e-01,6.867434480997767609e-04,9.752658516392692049e-04,-2.770439347274675571e-03,3.635438382625579834e-01
2.291252454198001998e-01,-1.277462891383772114e-01,2.461910117000583598e-01,6.838800353401237224e-04,9.519195223804529857e-04,-4.996095804019841033e-03,3.658111989498138428e-01
2.073471554779138248e-01,-1.359383528753712045e-01,2.316889393066404734e-01,1.045897360124897491e-04,3.013321108592037934e-03,-7.584197200294270740e-03,3.563614487648010254e-01
2.964117131810025674e-01,9.643828424847233904e-03,3.009337008222653931e-01,1.027488140075092336e-02,8.675690626110961479e-03,6.916378543119179774e-03,2.902396619319915771e-01
2.373913430288235316e-01,-1.356479773424841273e-01,2.369504806758916393e-01,-2.771652901920781649e-04,9.025661654951203658e-04,1.110764860528018613e-03,3.728276491165161133e-01
2.672738077090133224e-01,1.260115344980317076e-02,2.698725934312379837e-01,2.052462804788824507e-02,5.368637729003466422e-04,-2.118873823245714938e-03,2.584663927555084229e-01
2.469770384710199551e-01,-1.338318535684395461e-01,2.390876450400135633e-01,2.097569480124958537e-03,-3.883342110868186724e-03,7.072346620426360432e-04,3.770056366920471191e-01
4.310509574207941341e-01,7.354291886760802588e-02,3.594541111568341218e-01,5.690568240862471476e-03,5.488976300263103542e-02,1.872532504647863444e-02,3.428255915641784668e-01
1.769953569499587986e-01,-1.378916121631487690e-01,2.669438602089679868e-01,-6.901571386965994412e-03,3.764222382374826648e-02,1.381011823146559812e-02,3.748786747455596924e-01
1.198997530296993103e-01,-2.718497614251207395e-01,1.956978424198667077e-01,-1.088245688804317414e-02,1.058870394691022454e-01,1.293754115769691140e-02,4.726526439189910889e-01
2.655128931492804489e-01,-3.807258248344380647e-02,2.710536484240733124e-01,4.325582490870064772e-03,3.982073748389136289e-03,-4.170039579067424604e-03,3.066476881504058838e-01
2.086317178286403173e-01,-1.190661274227285266e-01,2.402017853732251185e-01,-2.921592072599513493e-02,6.957365631221190672e-02,8.499083719658117111e-03,3.688182234764099121e-01
1.963030662623319045e-01,-1.380609477050728784e-01,2.255256671060593132e-01,-8.272198125633893617e-03,1.879869001878323176e-02,8.238229276350513344e-03,3.519847989082336426e-01
2.316773203158304373e-01,-1.408672186719722164e-01,2.317251171263958187e-01,-1.121910075190253597e-03,5.451513763737966161e-04,4.830494565839950696e-03,3.726686239242553711e-01
2.523432078704808124e-01,-1.278862428577615951e-01,2.259903937020350251e-01,4.626201785928236478e-03,-2.269647391762543917e-03,3.383450325981008142e-05,3.678701519966125488e-01
2.071840065964590527e-01,-1.277114472893464137e-01,2.504736375223570732e-01,-2.094165300862323859e-02,4.441031445431156688e-02,2.256023552922906822e-02,3.705210387706756592e-01
9.968617476321872672e-02,-1.394984512133006782e-01,2.252019462726740084e-01,-2.034768927675464391e-03,5.817976265866262042e-02,5.153189434171229211e-03,3.364991545677185059e-01
2.059017073203916193e-01,-1.253039084009160420e-01,2.294207539744427260e-01,-1.503149808116053089e-03,3.443968306418291724e-03,7.824648848370502341e-03,3.438982069492340088e-01
2.319322364590898355e-01,-1.266404671166375673e-01,1.568844023992840842e-01,4.271446121623606942e-03,-2.304813789284753528e-02,6.178308485183097234e-03,3.302413523197174072e-01
2.157818153750926671e-01,-1.264648557340793955e-01,2.111785824812369705e-01,-3.698989024762596237e-03,4.471782551710963907e-03,1.479889608713691072e-03,3.401266634464263916e-01
2.381204190220629069e-01,-1.366784627374486027e-01,2.454923765038697636e-01,2.461067114242620948e-03,2.872905257817321128e-03,1.285590300352298671e-03,3.786019384860992432e-01
1.555525587076815874e-01,-1.373887386076165784e-01,2.023811502040187005e-01,-1.082103498706005369e-02,7.205869295017031106e-02,1.510385039494129521e-02,3.440037369728088379e-01
2.400282160525155084e-01,-1.322039602866478258e-01,2.513221014504340989e-01,7.470813694494516342e-04,3.899767883409593905e-03,-1.935789746314729026e-03,3.780831098556518555e-01
2.391243213650577348e-01,-1.371567522261402661e-01,2.463531875055205989e-01,7.593922759332331950e-04,4.288736222319646657e-03,2.802717326799686846e-04,3.800222873687744141e-01
2.381714936996596754e-01,-1.373518575089418547e-01,2.475981127919080482e-01,1.348196374023238452e-03,2.327716250639201307e-03,7.290999928791669924e-05,3.803528547286987305e-01
2.074554385772564569e-01,-1.273259016481714800e-01,2.188087171867922898e-01,1.710572461380484429e-03,2.330144319113672258e-03,-3.682152704238942937e-03,3.406964242458343506e-01
2.184958686265043581e-01,-1.332630905624005158e-01,2.157596382473126462e-01,3.400970788584552814e-03,3.421842234985673740e-03,-1.572468122733359326e-03,3.505090773105621338e-01
2.629662285849404535e-01,-1.259673431417948353e-01,1.564157016908492293e-01,9.828652133225868927e-04,-9.422624338574161649e-04,1.195128129750887454e-02,3.487338721752166748e-01
2.204970497406735230e-01,-1.344721372335511700e-01,2.214866654070228591e-01,1.007706517610538338e-02,-1.987604135806353770e-02,1.431250744917057782e-02,3.584128022193908691e-01
2.693590875338106594e-01,-1.499057933626569417e-01,1.941971386953612877e-01,3.783327984533006510e-04,-1.470814818062595591e-02,1.432775618493791273e-02,3.888249695301055908e-01
1.850976336919200604e-01,-1.203944200805481118e-01,2.264939885142919773e-01,7.694733139699679817e-04,5.952954840148056044e-03,-2.523670501715149887e-03,3.283481597900390625e-01
2.127295787545162020e-01,-1.158157058120760780e-01,2.076584928392998242e-01,1.336074985438354644e-03,4.353089111375855677e-03,7.445560053908725946e-04,3.261372447013854980e-01
2.789576615677749061e-01,-1.317767421078713252e-01,1.481626606044282590e-01,-1.426831389144591483e-03,8.723267865549565875e-03,1.276738421468185530e-02,3.644331097602844238e-01
2.217571279291683239e-01,-1.279962978817859032e-01,2.059634100725240835e-01,6.311858800731500255e-03,5.082539477659198286e-03,-1.142279586383286062e-03,3.424235880374908447e-01
2.299624143540380805e-01,-1.357677032295544484e-01,2.299396675836773984e-01,-2.010222032534425118e-03,-5.491917491566211586e-04,-9.466241920013163439e-06,3.657365441322326660e-01
2.444296319107402415e-01,-1.179495034197785425e-01,1.596983791901017691e-01,7.696837656647696063e-05,6.784681033746290356e-03,4.288672427492007714e-04,3.285298347473144531e-01
2.386587980955708899e-01,-1.397362085656769781e-01,2.374922293798424899e-01,-2.159991463861308299e-03,-6.620658352957160429e-04,1.515674336381748252e-03,3.778424561023712158e-01
2.418163789655646823e-01,-1.350099930038905494e-01,2.404856248051976952e-01,2.973114651443950658e-03,-1.762085594061085086e-03,-4.251708026787117539e-03,3.762824535369873047e-01
2.386087713266529797e-01,-1.405598035797930856e-01,2.400006614041227393e-01,-5.609838156657587097e-04,-9.580998713543726784e-04,2.363941082713051027e-04,3.798715174198150635e-01
2.399413133909065188e-01,-1.405031458567984615e-01,2.389352462153546686e-01,-3.040337353996540833e-05,-1.377623285184242236e-03,5.849152992479218858e-04,3.799512684345245361e-01
2.441583606553789365e-01,-1.339846462583054731e-01,2.427834072219801631e-01,1.087197471392889817e-03,-5.525752479651710805e-03,-5.163065428690219926e-04,3.775844871997833252e-01
2.124547523558392714e-01,-1.509907798331873718e-01,2.387834464802721657e-01,1.867869852262671326e-02,8.426566417096801459e-03,-1.029569356254759517e-02,3.793845176696777344e-01
2.285687009000317016e-01,-1.316361868965645887e-01,2.174321455863053587e-01,5.817147685193264917e-03,2.549262755813562834e-04,-3.141580792928309971e-03,3.549527525901794434e-01
2.389049863857083955e-01,-1.394828145909871586e-01,2.388158147399057074e-01,1.081755206480287315e-07,2.355862268276723715e-04,7.098927671866691724e-04,3.783454298973083496e-01
2.380930897596134077e-01,-1.410277084362133171e-01,2.355731806858255006e-01,-1.577336263147746144e-03,-1.026411680546407065e-03,2.577096435494461747e-03,3.779075741767883301e-01
2.400027230026729741e-01,-1.404092539241396931e-01,2.391673638646021616e-01,-6.388130617383146670e-04,-4.729694164986357691e-04,5.321320324885591996e-04,3.799985945224761963e-01
2.473713360993668453e-01,-4.162235071165365508e-03,2.478096280064302215e-01,-3.025150444368961220e-03,4.310493762303222592e-04,7.821033975446105638e-03,2.521727383136749268e-01
2.575809022017710448e-01,1.212262273596842466e-02,2.545268950877520586e-01,-1.507478977920107856e-02,-4.874116182662913827e-03,7.945571551188686937e-03,2.458696365356445312e-01
2.672734039685053520e-01,-1.534142348082068175e-02,2.541666414667798635e-01,3.335279264317144148e-03,-2.560384741487029079e-03,-5.484532510281428519e-03,2.765538692474365234e-01
2.593243377022932949e-01,1.260328618134060052e-02,2.550572226896763994e-01,-1.040222638407550804e-02,-3.627130727867800865e-03,1.734892349964830410e-02,2.471917122602462769e-01
2.227199182379038245e-01,-1.420358071760730312e-01,2.580967149420730911e-01,1.407418997768616030e-02,9.001859452544983334e-04,3.090487918653099172e-03,3.844833970069885254e-01
2.341000442457707997e-01,-1.387938673242644916e-01,2.303634628010031715e-01,-6.544135057058007594e-04,9.185438270961840401e-04,2.820408322049622156e-03,3.710770308971405029e-01
2.417592627060501653e-01,-1.405644943612432696e-01,2.377112911844019294e-01,4.847081557503711319e-05,-1.124074383227206993e-03,1.436923007073631284e-03,3.803290724754333496e-01
2.326450523044926721e-01,-1.359263830715389809e-01,2.323276246317071969e-01,-3.049179434101802200e-03,7.671832672123097370e-04,2.650122402683719250e-03,3.684816658496856689e-01
2.219177479268384379e-01,-1.315585003271616538e-01,2.321075577999758832e-01,-1.309036026436563409e-03,2.672106651592314874e-03,4.160701821307163928e-03,3.587891459465026855e-01
2.335765696355549814e-01,-1.366090425403173603e-01,2.371849125573072814e-01,-1.117459394478498378e-03,5.419026402696861498e-04,2.512212085665157038e-03,3.720345795154571533e-01
2.445464701050384382e-01,-1.391749233349178771e-01,2.386168122872567299e-01,3.317970385328382647e-04,-4.190535326650867386e-03,-2.713646543143414906e-04,3.808610737323760986e-01
2.387049916566035823e-01,-1.361643649989151272e-01,2.484926107698176012e-01,-1.317985896119135310e-03,-2.324553106854107629e-03,-5.859056796944248026e-05,3.798859715461730957e-01
2.336194645033652373e-01,-1.383597664819634920e-01,2.354345107383630786e-01,-3.553725471664826319e-03,-3.293032590262286630e-04,4.155190266292818971e-03,3.730107247829437256e-01
2.374680394544266826e-01,-1.402931755017112203e-01,2.385412097316711444e-01,-1.679072856611054862e-03,-1.365102345363428159e-03,1.361994710924345053e-03,3.783248662948608398e-01
2.398868130494981044e-01,-1.362595624867771194e-01,2.460742512093568868e-01,-2.837156914074379088e-03,-3.326986343882479009e-03,1.006600764997064683e-03,3.793575465679168701e-01
2.248825487930965761e-01,-1.323781358707339928e-01,2.267340464181903659e-01,-1.076349361291057283e-03,7.761404908741218736e-04,4.347451703874224971e-03,3.582765460014343262e-01
2.215806296314755397e-01,-1.346554455698047437e-01,2.247509378567330574e-01,-3.497442009846902719e-03,6.514293645029297112e-04,4.991256813678226264e-04,3.578858673572540283e-01
2.078017935015222528e-01,-1.175065995479091241e-01,2.264325624104127077e-01,-7.266527593570626734e-03,1.209211781925004572e-02,7.087671567488299657e-03,3.361267149448394775e-01
2.264082789978786314e-01,-1.331977862226095821e-01,2.265833536931893266e-01,-6.625774785768214457e-03,1.915069012052002554e-03,8.121823475277222546e-04,3.598946928977966309e-01
2.166195482016812501e-01,-1.320728496269306940e-01,2.181595474714461136e-01,-4.933412485771674488e-03,6.091549691015552860e-03,6.015959018839991609e-03,3.498837649822235107e-01
2.117625285124035139e-01,-1.200311971327122640e-01,2.121714646071071464e-01,-3.125228110749026129e-03,8.191412983837060777e-03,1.682902399511143577e-03,3.323582708835601807e-01
2.135829412006094996e-01,-1.248913254214070595e-01,2.203097544338201708e-01,-1.755819189815711586e-03,2.799771840103318886e-03,6.386929122169713972e-03,3.421141207218170166e-01
2.176332105138555906e-01,-1.307108171646131911e-01,2.199352797562579287e-01,-2.422716910366656297e-03,2.392181195948847160e-03,4.315216571943270712e-03,3.496303856372833252e-01
2.147252718265220961e-01,-1.271305441532425418e-01,2.137404824978145212e-01,-9.824838011285362636e-04,1.318737149260916508e-03,2.881444328095348999e-03,3.414128422737121582e-01
2.163009177143613848e-01,-1.222978079559800674e-01,1.838109828386182421e-01,-4.465693771986920316e-03,8.071915852193592422e-03,3.646662903314790757e-03,3.240352272987365723e-01
2.148138408835101876e-01,-1.249827049010739655e-01,2.200744383596958120e-01,-1.712261712564347015e-03,9.555639820022216032e-04,4.127928240002953601e-03,3.425486087799072266e-01
2.386979237480759131e-01,-1.371910279782034836e-01,2.440187006620736510e-01,6.456236021909376403e-04,-4.907706811891328867e-03,4.211010753449332604e-04,3.786751627922058105e-01
2.095885457265068141e-01,-1.186949012676272730e-01,2.116977264338681386e-01,-2.144898918714309552e-04,1.338159253984251822e-03,5.606115350579246462e-04,3.293528854846954346e-01
2.359836233441101327e-01,-1.262226915504053304e-01,2.515935173825838422e-01,1.347326609090237701e-03,-6.761056023280397238e-03,-3.110085192107234480e-04,3.704510331153869629e-01
2.033742333827751048e-01,-1.165828836114757572e-01,2.180569680669475763e-01,4.410031806888664628e-04,3.442398637280060479e-03,2.138055804524565708e-03,3.276214897632598877e-01
2.440836639343061665e-01,-1.035308598651443202e-01,2.607652110895750108e-01,-1.457658295442476089e-05,-5.579675536065305946e-03,6.782432121220256620e-03,3.565729558467864990e-01
2.110110958163216588e-01,-1.169563181962671866e-01,2.155313281991706464e-01,4.459245947148817737e-04,1.377945577135523394e-03,-2.117451216622094189e-03,3.302806317806243896e-01
2.013302538501155481e-01,-1.171431514671794766e-01,2.199623822864976153e-01,1.528273398989660886e-03,2.710116147170545543e-03,-2.799158125788021000e-03,3.282664418220520020e-01
2.000490587034237655e-01,-1.202139231815022163e-01,2.166787241983836876e-01,1.232307734757368857e-03,3.225972583175177981e-03,-1.248561845611945512e-03,3.289547860622406006e-01
2.613798929978823349e-01,-1.183847384095483013e-01,2.349972055085213785e-01,1.158843389880723218e-02,1.387001545104500286e-02,-9.954523124095412609e-03,3.690193593502044678e-01
2.059032591158873604e-01,-1.244149888062210940e-01,2.044284001743511825e-01,3.476294129995700834e-03,1.200829417100688842e-02,-3.688783050476325542e-03,3.303555846214294434e-01
2.192601758844483772e-01,-1.217146964060754760e-01,2.237168330646616965e-01,1.132373852899051184e-03,5.849771722328199995e-04,-3.762235076595459200e-03,3.432938456535339355e-01
2.405164731410797119e-01,-1.169875747397379206e-01,2.501877557872494995e-01,1.235228964030024752e-03,-6.858856222298662965e-03,3.660193816621244971e-03,3.626928329467773438e-01
2.424274267655754378e-01,-1.202973583042655503e-01,2.491447731474633054e-01,-3.680507965563582177e-03,-6.073271483717216333e-03,5.195508325460548860e-03,3.664467334747314453e-01
2.186087574926439681e-01,-1.301572611617807795e-01,2.196974151447184664e-01,2.279455395116924965e-03,-2.140688173492340252e-03,4.132389745595712108e-03,3.494269251823425293e-01
2.091863982799485600e-01,-1.243244105890816409e-01,2.247914328498276382e-01,1.788113031175752763e-03,1.255422354607766506e-03,-5.837692392682435408e-03,3.417513370513916016e-01
2.228501328365052603e-01,-1.278979358187717352e-01,2.220540161252931854e-01,3.193444031899465851e-03,-6.607264688201678433e-04,1.594908521497184761e-03,3.504070937633514404e-01
2.267985661030721412e-01,-1.307450136643008021e-01,2.310713282539537672e-01,7.042223021165846869e-04,-6.468255324489647620e-04,-3.153167747495404672e-03,3.597442805767059326e-01
2.415778428504032904e-01,-1.376099750990021908e-01,2.367626396640668818e-01,2.944440402895328636e-03,-3.778112486199626269e-03,-5.056021641947637361e-03,3.769963383674621582e-01
2.232941939591764346e-01,-1.339876556490600668e-01,2.250975382536000435e-01,9.761648751060069329e-04,4.174871223549890650e-04,-3.947364820239117160e-03,3.582569062709808350e-01
2.345684496246303874e-01,-1.331481128827642912e-01,2.319976997793915530e-01,3.536749686901533105e-03,6.778057567678547274e-04,1.727266081509476340e-03,3.665032386779785156e-01
2.296950667809284918e-01,-1.376389838381478770e-01,2.342421118536919256e-01,2.222873169306515198e-03,-1.658744656284339401e-04,4.093648052707820825e-03,3.697167038917541504e-01
2.273687163283145130e-01,-1.298747536445444273e-01,2.309906865389882435e-01,9.246006142079265210e-04,-1.652821214971961520e-03,2.786667807410286900e-04,3.590834736824035645e-01
2.295065154942400043e-01,-1.364028734733920001e-01,2.299063972249522358e-01,1.003716169720790356e-03,-1.302357407237089888e-04,2.185599889618682415e-03,3.661332726478576660e-01
2.489803103095121484e-01,-2.470427672277647480e-02,2.530847461743890858e-01,-1.417816932035423014e-02,-4.727846988933371783e-03,6.098760238102710236e-03,2.771734595298767090e-01
2.466168660668782708e-01,-1.321477143018304212e-01,2.466415889272419726e-01,4.110653449595297326e-03,-7.180080661785274293e-03,-7.179429678680312663e-03,3.792518377304077148e-01
2.473415902955045653e-01,-9.388226248097755744e-02,2.432398078247904050e-01,-4.145082965612642383e-03,-9.672826814549444208e-03,-1.145517899096405159e-03,3.396867513656616211e-01
2.378181559167534265e-01,-1.365766777522384179e-01,2.367547504617198983e-01,2.349869194285242931e-03,-6.131990292893941879e-04,-6.657523022634014064e-04,3.738897144794464111e-01
2.342150235210244402e-01,-1.393193084715583785e-01,2.366294289380768967e-01,-2.315099068147300182e-04,-5.777731285349171518e-04,-4.417834956984147132e-03,3.748270273208618164e-01
2.440347494141238138e-01,-1.347500705486838757e-01,2.389470040187423039e-01,-1.170329115298652470e-03,5.303425388476159727e-03,-2.403923463692697170e-03,3.764073550701141357e-01
2.484546159035257440e-01,-1.316144471954776574e-01,2.404043469533329591e-01,-3.561523622966412429e-03,-5.888333688738919131e-03,2.651120905899514123e-04,3.762976527214050293e-01
1.970190158538893122e-01,-1.861164255065050899e-01,8.874415191935076941e-02,7.317548311218584865e-03,-1.016165280554027078e-01,1.248071941636283433e-02,3.855359554290771484e-01
1.839868374611758062e-01,-1.235995218477103919e-01,2.569068196926426739e-01,9.435919743239301561e-04,-3.538907172760105474e-05,4.108167387053055213e-04,3.497986197471618652e-01
2.148362904336107437e-01,-1.321152623523949854e-01,2.300040478234635921e-01,8.454878234208318410e-03,-7.094941745129152398e-03,9.037066692370938209e-03,3.556379973888397217e-01
2.679978112117188394e-01,7.840258961823581840e-03,3.800650728012375801e-01,8.872045716073442140e-03,1.708095259905363650e-02,-1.572125948033700066e-02,3.335402011871337891e-01
2.535901591176119574e-01,-9.569393154785618694e-02,2.251989693144911819e-01,1.289183815992703264e-03,-8.690375747780773683e-04,1.727200312707254755e-03,3.360134661197662354e-01
1.467447148035868898e-01,-1.194353273004426647e-01,2.510913571490139273e-01,-2.883225206336612187e-04,-2.697456214332251585e-03,-2.346753604799396795e-03,3.309888541698455811e-01
2.398240031490718738e-01,-1.394066973860003666e-01,2.395054981461449684e-01,5.123590996216420904e-04,2.844584949601538289e-03,3.661974480168941632e-04,3.791051208972930908e-01
2.440287942508299335e-01,-7.038159829839588100e-02,2.488144217088278098e-01,-9.953314927667371304e-03,3.961004455641271849e-03,2.551382758771045169e-03,3.174039125442504883e-01
3.797040266245865769e-01,2.902509775621309185e-02,2.971977911249267246e-01,1.646151878785331868e-02,4.642720959278404808e-02,4.422374121991982932e-02,3.376335501670837402e-01
3.216130096831022467e-01,3.215914790664328726e-02,4.036603646394877343e-01,-2.034291640093784971e-03,-3.420616965456911573e-02,1.760156532887591913e-02,3.445522785186767578e-01
2.565079702288639019e-01,-1.325258699429669451e-01,1.516641253481800233e-01,7.980819366400587170e-05,-1.521021471185989102e-03,-1.756953620580239961e-02,3.499782681465148926e-01
2.621792770945383655e-01,-1.534818657475177928e-01,7.643157978770566408e-02,1.662415729225000943e-02,-4.426432838441790585e-02,-1.783655174939499655e-02,3.711196482181549072e-01
2.565199237058813919e-01,-1.003846304590822192e-01,2.432797876620549915e-01,-2.393288148113863548e-03,-8.053682215202785655e-03,3.061889955055157719e-03,3.508141934871673584e-01
2.386946887592818478e-01,-1.393949955301959642e-01,2.408812533636915942e-01,-4.915171497249740812e-04,-4.096319936815787446e-03,-1.368179470836714310e-04,3.792550861835479736e-01
2.549734257667600756e-01,-1.272578693968783314e-01,1.877223374473646622e-01,-1.511401753041851205e-03,1.963592743005969365e-03,-1.068286092319803166e-03,3.534682989120483398e-01
2.054319572194990839e-01,-1.241514186036861561e-01,2.310235439134548652e-01,1.237543142368915071e-03,-3.242686668506673895e-03,7.525915463627377150e-03,3.433959186077117920e-01
1.450905306804820827e-01,-1.295791433713454621e-01,3.446078110994979515e-01,-1.904767760810670242e-03,-3.210802630719906958e-02,3.431955786566877158e-03,4.161621332168579102e-01
5.904098938076758618e-02,-1.741498372811703388e-01,2.450738513932972928e-01,1.306834727328696870e-02,5.736219867434315389e-02,2.557571165459226852e-03,3.778499364852905273e-01
3.212790302422450228e-01,2.759013810815000300e-02,4.339754238394517016e-01,4.380772676422561157e-02,-8.262301252110800659e-03,1.189898299920780569e-02,3.720728754997253418e-01
2.487787689236219957e-01,-9.387532686589736275e-02,2.468088255210690862e-01,3.916535261142590693e-03,-1.051572165375598035e-02,-6.842139801256664870e-03,3.424308896064758301e-01
2.514258011066194398e-01,-1.155021453791720831e-01,2.604137133339725629e-01,-1.614379995232433779e-03,-2.096443239379124947e-03,-5.228593255505141479e-03,3.716420829296112061e-01
2.594310780832841390e-01,-4.359291546870147638e-03,2.974835544680975441e-01,6.267570941723011289e-03,-2.988882738531078304e-02,7.881739601538151341e-03,2.899232208728790283e-01
1.503855429481283368e-01,-1.284988083955990734e-01,2.786380430479866166e-01,1.250328592831521056e-02,2.843492884248415356e-02,-6.247639629435851674e-03,3.646978735923767090e-01
3.509434197211614981e-01,5.960617732466338969e-02,4.621840710120408424e-01,-4.144094903135841362e-03,1.991521640173616811e-02,-1.287307404998138359e-02,3.624899089336395264e-01
1.337611069215191018e-01,-1.198077203542685515e-01,2.544448636793635865e-01,-3.226832083734526482e-04,1.274214883860757879e-03,1.724102238274818422e-04,3.308604359626770020e-01
2.660308234647896786e-01,-6.933110323523203333e-02,2.958558930852225877e-01,-1.176038153233593259e-02,7.972793146655965391e-02,3.105584753260485012e-03,3.779852390289306641e-01
2.501128630143714671e-01,-1.102034950695264248e-01,2.378746494187885530e-01,-2.972239571419862600e-03,-1.021170679325147067e-02,3.201777907130285653e-03,3.548776209354400635e-01
2.531761329453623977e-01,-9.497223947800287336e-02,2.276736419850477477e-01,-1.246682339501210173e-03,6.665242609504250498e-04,7.133615495274118860e-04,3.361347019672393799e-01
2.413605944462346720e-01,-1.390720184203391996e-01,2.408894427603474053e-01,-4.030937141539456541e-04,-3.173230697107224350e-03,6.528679954440339602e-04,3.802393078804016113e-01
2.358336217149047398e-01,-2.545001296469703855e-02,2.796257739700481748e-01,1.537106812292825427e-02,3.014335555461278640e-02,7.434484816414940744e-03,2.919410169124603271e-01
2.926010385094703903e-01,3.008434605225818181e-02,4.163796996712810783e-01,3.026117374816865956e-03,-2.358560786183861585e-02,-2.697906229298891855e-03,3.441631793975830078e-01
2.582511089408090488e-01,-1.254563986387273178e-01,1.844648705181087811e-01,4.925336851288250606e-03,1.632862865428123160e-03,-4.007737150055393606e-04,3.527673184871673584e-01
2.396511890441875847e-01,-1.347315091904104367e-01,2.334908529777834918e-01,4.085931592986126459e-03,5.723635865940813333e-03,-6.132114787716148527e-03,3.716923594474792480e-01
2.368199594596262225e-01,-1.353550721010226277e-01,2.543671430761454966e-01,-9.894357794069442470e-04,2.061188356947986616e-03,2.337491327368637379e-04,3.812723755836486816e-01
1.855835736973804884e-01,-1.474339170633941487e-01,3.097113232920978843e-01,6.235294302387874021e-03,8.739860984333158722e-02,-1.222789956830555753e-02,4.371793866157531738e-01
2.462113812084733011e-01,-1.158667251088826844e-02,2.360089120255987050e-01,1.046831145062258189e-02,3.359360838970047985e-03,-1.633683621726323776e-03,2.535830736160278320e-01
2.364896342586707279e-01,-1.381517327874313972e-01,2.259507322877156166e-01,4.395865040372601631e-03,2.523590948852733832e-03,-3.307508819356362942e-03,3.696333467960357666e-01
2.368117621615728474e-01,-1.326176394193636643e-01,2.567233607544099905e-01,-1.482263453438733983e-04,-5.160188028152533270e-04,-3.302980776742575164e-04,3.797784447669982910e-01
1.343282488009591713e-01,-1.226517967903737322e-01,2.527604160588786675e-01,-7.173628368828239253e-04,-3.231892764530518419e-03,-1.604418007561412901e-03,3.324759006500244141e-01
2.358446614467727687e-01,-1.356046822485419412e-01,2.545518952140809477e-01,-3.828760265316293629e-05,-1.184495629904504596e-04,5.092648514843226611e-04,3.811485171318054199e-01
2.547622245941479346e-01,-1.337728449584703327e-01,2.368928878754599232e-01,-1.285268043995784772e-04,-2.613516262828293607e-03,9.035361645284964351e-04,3.799459636211395264e-01
2.459035714004850492e-01,-5.651221869170025558e-02,2.384530227779656508e-01,-9.353963700764510517e-03,-4.134147073239358822e-04,-4.637319043830261459e-03,2.993078231811523438e-01
2.549066513583362337e-01,-1.499800955164072302e-01,1.295529364351737656e-01,5.707623731358611036e-03,8.937830684112715168e-03,-3.791680881060090214e-02,3.654356598854064941e-01
9.040371918517479954e-02,-1.597926318469515272e-01,2.690821734047530445e-01,-1.767038486865277203e-02,3.481686958206942767e-02,1.583777328648256627e-02,3.802036046981811523e-01
2.389948230257154804e-01,-1.327322183892908070e-01,2.557424729063257907e-01,1.358819934128378207e-03,-1.477638529097206345e-04,4.929140990557097108e-04,3.803858160972595215e-01
2.355216455704397804e-01,-1.346364312359988602e-01,2.520370309658339636e-01,-5.084242402842293045e-04,-8.846825702375170613e-04,-1.872045711667748736e-03,3.787039816379547119e-01
2.367979223223350971e-01,-1.239643150796489596e-01,2.572279035386180190e-01,6.760292037970281102e-05,8.509888400128150893e-05,-1.632124349708864502e-03,3.714097142219543457e-01
2.358351991979193707e-01,-1.364398620493260939e-01,2.551868481223087404e-01,-1.241365888258091996e-03,1.249670343684226078e-03,1.450632063198489504e-03,3.823388218879699707e-01
2.368306375198192537e-01,-2.581099270092709896e-02,3.379529960769109831e-01,1.062855369996249313e-02,2.463089668434630900e-03,-9.781630135681495045e-03,3.262045979499816895e-01
2.726064135576488634e-01,-4.514019292071946854e-02,3.022465169482478897e-01,4.314529496995163013e-03,8.441194138526302015e-02,4.158685550778057349e-03,3.643395900726318359e-01
2.427456798010607653e-01,-1.337538690549310294e-01,2.399748330253091977e-01,2.722192186732380441e-03,2.725215315028858918e-03,1.448986113041131774e-03,3.751895129680633545e-01
1.188502675807805442e-01,-1.230448432429439992e-01,2.688553867892995441e-01,-1.019997554055515360e-03,-5.062205931397525255e-02,-1.831449089735379468e-02,3.549611866474151611e-01
2.522165185478079663e-01,-1.057857225043784544e-01,2.817231813114664529e-01,-1.469122165477873380e-02,5.048630958685329170e-03,5.107191566350425399e-03,3.747024238109588623e-01
1.603171600018673537e-01,-1.355802758769968919e-01,2.672605464449215318e-01,1.310207591109185596e-02,7.547033006534541004e-03,-4.026360447140506574e-03,3.624513149261474609e-01
2.379370590012582498e-01,-1.348450761696216027e-01,2.445458375272473450e-01,-4.186251344972878596e-03,1.647885167102257787e-03,-3.655787701457815684e-05,3.762107789516448975e-01
1.591600758051932851e-01,-1.281536314414167821e-01,2.471454836633119323e-01,-1.294925718196691250e-02,-7.405435823074503487e-02,3.706317214146131588e-03,3.640967011451721191e-01
2.410864438189525005e-01,-1.311125046394805704e-01,2.493767733721528601e-01,2.850401246396041611e-04,6.051241985568185829e-03,-9.493826520762297348e-04,3.765623867511749268e-01
2.412970525022876678e-01,-1.239537816042562829e-01,2.451051203650745358e-01,2.669036919963893757e-03,-9.459584738529841930e-04,-1.424407144346928004e-03,3.672107160091400146e-01
2.828603159881283857e-01,-1.042637830504045127e-01,2.604189966077107288e-01,-4.852491349787688840e-03,-1.205921716834656727e-03,-1.844579139783341423e-03,3.765186667442321777e-01
2.711817975035764050e-01,-2.723551705467300299e-02,2.233069870455866024e-01,9.917669028191911096e-03,1.718698051902000506e-02,-2.095136244235448102e-04,2.797134518623352051e-01
2.735623226685572340e-01,-1.640271472160828026e-01,1.113193693208858609e-01,1.231811272093582882e-03,-9.594697246577110761e-02,6.707611185774810941e-03,4.178139567375183105e-01
2.375573233090534642e-01,-1.168817774711038426e-01,3.031605253687285062e-01,1.370164709434717500e-02,4.709388291275297725e-04,-5.872650110195556114e-04,3.921072483062744141e-01
2.032209678645510997e-01,-1.006735200358453430e-01,1.511670941723541883e-01,4.836202455413871060e-03,-8.998776554095701263e-02,3.411754292242760722e-03,3.219333291053771973e-01
2.207591175057941890e-01,-1.291400585934967260e-01,2.053837623616754648e-01,-9.348394645397595931e-03,-7.381134217787060220e-03,-6.992015881874986960e-03,3.433049619197845459e-01
2.534436985894302774e-01,-9.074478855354600748e-02,2.366951755108747668e-01,1.025799898459340762e-03,5.757121377876471893e-03,1.787754862849203017e-03,3.362941443920135498e-01
2.404613951820248063e-01,-1.375554492208168333e-01,2.461821559746450727e-01,6.279941933073865824e-04,3.890765278774427609e-03,-1.555107323276962400e-04,3.809707164764404297e-01
2.279403615429723140e-01,-1.344903690454276324e-01,2.329769382900733765e-01,2.626937306495210483e-03,-3.027483594668453236e-04,3.680417466304692405e-03,3.650594949722290039e-01
2.770178688934654687e-01,-4.875712519142427759e-03,2.613228094071902152e-01,-9.544847401137545456e-03,1.416920159634818890e-02,-3.315414784767734772e-03,2.760336399078369141e-01
1.271160771440880966e-01,-1.153665476265696571e-01,2.661606289778828405e-01,-5.426043842341124988e-03,2.966011947853899877e-02,-2.774583628448331306e-03,3.385227918624877930e-01
2.118889373302686174e-01,-4.342060579144407795e-02,2.840653390366927322e-01,2.481931100713576522e-03,1.065649329345051514e-02,-1.267753932504090200e-02,2.994345426559448242e-01
2.728593307699603843e-01,-7.382082289092001259e-02,2.604563353600198861e-01,-3.818769317020185346e-03,2.841241957520627016e-03,-1.146705661664492761e-02,3.413261473178863525e-01
4.533259479806458492e-01,7.433388043885938434e-02,4.336821077836110483e-01,-1.024529805201871910e-02,-9.841366770609607205e-04,1.275165403838134787e-02,3.706502616405487061e-01
2.400328366100297761e-01,-1.340808866626262141e-01,2.468593182001906639e-01,-5.831412605864131444e-04,-8.525926593819233013e-03,9.193398912176503797e-04,3.778666257858276367e-01
2.441364788034404709e-01,-1.239526121007780007e-01,2.410490011080337891e-01,-9.365925046787090683e-04,-3.950461146842248160e-04,4.914888170708907583e-04,3.665603101253509521e-01
2.740287014628391971e-01,3.746995553986781635e-02,2.736446766204506664e-01,-7.049801935586233990e-03,1.548716051525679711e-02,-1.764072338737604842e-02,2.401490807533264160e-01
4.286710501808132512e-01,6.676651742056821659e-02,4.261760205150634251e-01,-1.372275929555527400e-02,3.195117613447306330e-03,1.058367865481596622e-02,3.619527220726013184e-01
2.383080816787404854e-01,-1.361088024066963165e-01,2.476494198075666064e-01,-2.850912858445775987e-03,-1.390041660005292669e-04,2.009854119844746261e-03,3.792220652103424072e-01
4.870004738289284707e-01,1.350422562967073248e-01,4.936828435041368812e-01,1.419030004535124651e-02,-6.134050594500799550e-03,1.951589616662611354e-02,3.579535484313964844e-01
1.490754790696808829e-01,-1.161872896732421695e-01,2.591299209728112340e-01,-3.049181899582553397e-04,-9.004816548673149571e-04,4.765276575364505536e-04,3.341751992702484131e-01
2.315908424569237400e-01,-1.246646857810701642e-01,2.060524800293647707e-01,6.198244998639717250e-03,-2.867210472225839839e-03,5.058696815961945693e-04,3.444019556045532227e-01
4.058629741060258422e-01,4.764362690189091754e-02,3.503446104624294843e-01,2.019444513814650649e-02,-3.947231079097721779e-02,-1.412537811013637838e-02,3.435285389423370361e-01
2.602162828377977410e-01,-1.191976161661610079e-01,1.849450606105088879e-01,-3.897754651064603507e-03,-3.440708867961100349e-03,2.545702380271042120e-02,3.508375585079193115e-01
2.481098442908992729e-01,-1.122963469904268291e-01,2.348586492275783755e-01,3.769001738722138270e-04,7.432276151722497226e-03,1.902589950510897958e-03,3.542166054248809814e-01
4.710524188233133902e-01,1.271109712089280586e-01,4.819254187706847881e-01,2.440894224765529502e-02,-2.005620905963452494e-02,1.942566009824384099e-02,3.553587198257446289e-01
2.352277976655867131e-01,-1.302233527706762595e-01,2.510374847119168917e-01,3.005298075008181087e-03,-8.062909066997674817e-03,-1.569950083819651385e-03,3.739140033721923828e-01
2.375233014786947705e-01,-1.128927452235069240e-01,2.454596049704358407e-01,2.769179259108940226e-04,-4.034038246466272945e-03,-4.851924088697541146e-03,3.546196222305297852e-01
2.719057003476728074e-01,-1.174665328627833016e-02,2.752552514863739752e-01,1.887508526114132709e-02,1.471487312024343701e-04,1.357670825685815437e-02,2.881698012351989746e-01
2.381783410586146288e-01,-1.193632331426638105e-01,2.020144834664102662e-01,-5.890740780461608747e-03,-1.853547427973095685e-02,-1.146983475882834731e-02,3.431372642517089844e-01
2.115667086224120308e-01,-1.585437642868372521e-01,1.745147284132791965e-01,-2.459760644373014220e-03,-1.163278607541633480e-01,-1.201882082960550879e-02,4.070495069026947021e-01
2.297659689876458966e-01,-1.375250992318188259e-01,2.359277318926665812e-01,-7.387807077482658885e-03,-9.739154977225114281e-04,-6.199014168016258979e-03,3.707906603813171387e-01
2.456498869703117593e-01,-1.946127189974627969e-02,2.386855879586734508e-01,-1.198656585555624154e-02,5.770025715338434127e-03,4.362878250423839590e-04,2.627120018005371094e-01
2.305287592761319782e-01,-1.175982700431825040e-01,1.848028012635943851e-01,-2.830159525328926687e-03,-6.234651743225823675e-03,7.416180221275936620e-06,3.278802931308746338e-01
2.144629968226224870e-01,-1.187868492848545982e-01,2.128224004767636512e-01,6.201682026826360172e-04,-1.216608843220699310e-03,-5.820374314472482463e-04,3.324425220489501953e-01
1.131398027728593991e-01,-1.643628880852466834e-01,2.385329222421181394e-01,6.151081494255212362e-03,-8.214928871298579627e-02,-3.629082869449737955e-03,3.846123218536376953e-01
2.092718226076921151e-01,-1.241316042126091590e-01,2.067550112168420329e-01,2.914782644562700399e-03,-4.377826780328245189e-03,9.846566641918182844e-04,3.322814404964447021e-01
3.395341490900534165e-01,-1.926381960920384162e-01,9.823641929341245249e-02,2.663320973665591566e-03,-1.111734383955694828e-02,1.689909952293971616e-03,4.619747400283813477e-01
2.327850970101836836e-01,-1.365150347199190484e-01,2.393245621813877566e-01,4.079586150894230767e-03,2.924812853751690162e-03,5.879039042781869159e-03,3.728533983230590820e-01
3.017348880154502866e-01,2.603650322266287676e-02,2.970150421083479486e-01,-2.592157900868510140e-02,-2.152137176348353602e-03,-7.123137251748705087e-03,2.773310542106628418e-01
2.357397888289934074e-01,-1.990750432488563870e-02,2.687998748683136929e-01,2.167255741476542541e-02,-1.219388628648145588e-02,1.393117061216979369e-02,2.780964374542236328e-01
2.967182657224874398e-01,3.673316505091805961e-02,2.969424777723615461e-01,-6.570873377675321217e-03,1.200172941190038884e-03,2.549726401565808806e-03,2.603919208049774170e-01
2.507791027951641327e-01,-9.285524605736300563e-02,2.741093903599197135e-01,-1.522346100415286618e-02,2.886645917973897600e-03,9.131140868951295730e-03,3.572342991828918457e-01
3.267096417360187410e-01,-2.286095007959462189e-01,7.198792955845675912e-02,-5.584784959768418142e-03,-3.130573644065465233e-02,-2.723876474593664443e-02,4.868985712528228760e-01
2.441198611963493470e-01,-1.365707560420496292e-01,2.378477863630625300e-01,2.118392126151177803e-03,1.328317067810030894e-03,2.153415813042826310e-03,3.776369094848632812e-01
2.338675845542004805e-01,-1.216961468216759962e-01,2.050307371673146806e-01,-6.039504304428696888e-03,-3.528347829741679265e-03,-1.314392670912278805e-03,3.422802090644836426e-01
2.613016911701268596e-01,2.632263994202954649e-02,2.852050446861741917e-01,-6.185332079024766748e-03,5.375516354552490987e-03,3.628829048898324274e-03,2.482826560735702515e-01
1.932224293799500447e-01,-1.422723841810263901e-01,2.794989628260681758e-01,-1.761484017221622705e-02,-2.335515921569939271e-02,-6.514094035029220631e-03,3.894101679325103760e-01
2.384619456709305141e-01,-1.284188914520327518e-01,2.215070192633015744e-01,8.489246990762434539e-03,-3.506807801918263804e-03,4.499029602369527397e-03,3.591412007808685303e-01
2.408014464270420707e-01,-1.302643310739711735e-01,2.508454531016094946e-01,3.112368268294514115e-03,-1.392424183495191009e-03,6.482197843298706345e-03,3.764021992683410645e-01
1.648904869580840593e-01,-1.513182104446413601e-01,2.376746029405268634e-01,-1.752400461080683147e-02,-2.369193095234527202e-02,-1.082648549968878715e-02,3.622944653034210205e-01
3.356713287703992354e-01,1.847471884302998024e-02,2.926939648452721032e-01,-3.080100106090638556e-02,-4.467430700289417439e-02,-1.009043601414890551e-02,3.129974603652954102e-01
2.541267140433367544e-01,-1.293472957507968424e-01,2.357430870027470426e-01,-1.034137552354219298e-03,7.602398537005348620e-04,2.138522127861569382e-04,3.746274411678314209e-01
2.490436403104314689e-01,-1.333983246130807099e-01,2.358218185000029998e-01,-7.683091415826770118e-04,1.574439527970538993e-03,-7.339529013538567421e-04,3.760198354721069336e-01
1.811252069115013574e-01,-1.300958011125715186e-01,2.449208557412935194e-01,-6.443442901414759855e-04,-1.293662733524055626e-03,-4.200148655957828756e-03,3.476235568523406982e-01
1.839636266356480254e-01,-1.264984164153743207e-01,2.557459402780802860e-01,-8.095149211648459010e-04,6.409260020115099864e-04,-6.732276418691621883e-04,3.518943488597869873e-01
2.497581604832716518e-01,-2.994791056687143294e-02,2.521505876831424686e-01,5.500653607005738521e-03,-7.729599345353196753e-03,-6.305501756664732421e-03,2.816019952297210693e-01
2.040940570365792350e-01,-1.335596992485064971e-01,2.331766839989939388e-01,-8.593329034558113561e-03,-4.102627045140064613e-03,-8.824691500772110370e-03,3.538098037242889404e-01
1.513002201831146198e-01,-2.026564993495525435e-01,2.728346210813878958e-01,1.029087821830456046e-03,-9.371824241929396782e-02,2.005389737487202166e-03,4.576444625854492188e-01
1.850765649335453789e-01,-1.315693284563120569e-01,2.436640887051064186e-01,-2.719684753664696267e-02,-2.231071152612262853e-02,-1.196508892570084109e-02,3.555142879486083984e-01
2.399881924193588978e-01,-1.326012454322171852e-01,2.495485325648418851e-01,7.620182390195253579e-04,-3.473505084498780798e-03,1.219998604335973541e-03,3.775165975093841553e-01
2.546210697210721796e-01,-1.253562254320029767e-01,2.454677930021054721e-01,-1.495796672218033772e-02,-2.841390412462539705e-02,-1.442443341020848736e-02,3.804023563861846924e-01
2.686443426250883504e-01,-1.345709094335253431e-01,1.168384868834200507e-01,7.906999831589489602e-03,5.396521889375817393e-02,-1.009323698032560737e-02,3.655776679515838623e-01
1.723423668016584864e-01,-1.429226971568179350e-01,2.467140264358373969e-01,-2.472235363144404188e-02,-6.363083187198952800e-03,-1.048276984390731584e-03,3.610101640224456787e-01
2.281572917073921847e-01,-3.973830915764237082e-02,2.442599958394806869e-01,2.035060944868428284e-03,6.089284564303958959e-03,-1.301183236511189295e-04,2.765228748321533203e-01
3.987463062305433570e-01,-5.949990980059910450e-03,2.428323229088663882e-01,-5.478901129399103842e-03,4.026114972642115195e-03,-2.553896194022142740e-02,3.564910292625427246e-01
2.299529424971298863e-01,-1.231470642264010373e-01,1.882288821819008140e-01,-7.808553677978263136e-03,-4.788793606686720349e-03,-6.373716872339097415e-03,3.347556293010711670e-01
2.275396199498825600e-01,-8.534957433261494697e-02,2.697577705152905958e-01,-1.381239195434812161e-02,-6.463026810968656999e-02,-7.089913307259559146e-04,3.549601137638092041e-01
2.437180650185410968e-01,-1.209829136648589293e-01,1.590935788270115003e-01,-3.814328042272776935e-03,7.541478663626547708e-03,6.422153493083584052e-05,3.309376835823059082e-01
1.695670363823951199e-01,-2.330876124171876729e-01,2.390743064492491521e-01,-2.465874193034597178e-02,-1.182998260978175148e-01,-3.007576775110472854e-03,4.886566102504730225e-01
2.233115650295467991e-01,-1.188331642097061464e-01,2.531346193821457646e-01,-2.237499817862050218e-03,-1.164504881223106005e-02,-9.231472721840692369e-03,3.589341640472412109e-01
1.130016963649521089e-01,-1.686259753479344980e-01,3.577912402108632262e-01,2.118646304361573515e-02,4.261157381390188320e-02,-1.399811372764732213e-03,4.636542797088623047e-01
2.536380762192671501e-01,-8.442763282773052547e-02,2.412323958706584781e-01,1.060940492461967186e-02,2.995221482617784446e-03,1.461776768500549790e-03,3.325949311256408691e-01
2.455276591022895749e-01,-1.306676946000343564e-01,2.227219234506723766e-01,5.983491457954509887e-03,2.693127888379680604e-03,7.073842841066194445e-04,3.655055463314056396e-01
2.696558757946847518e-01,-5.166770996608732736e-02,2.589540032655839319e-01,-1.128917731348786854e-02,-4.863854319082498191e-03,4.645071414378028167e-03,3.169268965721130371e-01
2.441393000955094372e-01,-1.301573686183133960e-01,2.399739198083700176e-01,-2.847719234737463266e-03,5.471328902923764531e-03,-2.124409307507143727e-03,3.724029064178466797e-01
2.228830446400953957e-01,-1.310749451217313455e-01,2.389030222176799501e-01,-5.408752816339119527e-04,1.179740031965105805e-04,6.332422220610159358e-03,3.624010384082794189e-01
1.365406817412784524e-01,-1.220337661299616683e-01,2.544552998616274597e-01,3.427740564840397845e-03,1.398866160437703399e-03,5.456435083550815069e-04,3.336110413074493408e-01
1.554671806614046359e-01,-1.226919256542955833e-01,2.376729846682396619e-01,-5.516050158571533200e-05,7.863615874412654277e-03,-2.162506117467477389e-03,3.274081945419311523e-01
2.551009525712086279e-01,-1.165687644565499143e-01,1.569788325726435008e-01,-1.370355015291730956e-03,1.395767994127019608e-02,-4.448262475754473713e-03,3.345844447612762451e-01
1.871279101214600726e-01,-1.321735117016297201e-01,3.264876409186577844e-01,8.722287774647594777e-03,7.915627702649818964e-02,5.075367353457762090e-03,4.300871491432189941e-01
1.380342482355814970e-01,-1.459910329240785010e-01,2.850136474169207013e-01,-2.334296171871519734e-02,2.503127101511811933e-03,-6.086778471623828686e-03,3.818164467811584473e-01
2.250811639622246618e-01,-1.284258036776247947e-01,2.488031563736778917e-01,-7.769827273866392221e-03,3.947762671290215965e-04,4.396642657463086662e-03,3.662722706794738770e-01
2.647476662490318988e-01,-1.177376693694983240e-01,1.580218902125027358e-01,2.306755173740220304e-03,-7.962213103573092046e-03,-9.256612821377865896e-03,3.425311446189880371e-01
3.568953028166163000e-01,1.082711609926609309e-02,3.217811633507717817e-01,-1.245735547655077782e-02,-4.695892279701636973e-02,-3.569624080668339083e-02,3.460461795330047607e-01
2.425630989677988736e-01,-1.292407721870315052e-01,1.585201327041477204e-01,-7.425394513207205123e-03,-8.894566872531503229e-03,-6.907514722080574168e-03,3.385258316993713379e-01
2.662131574372286202e-01,-1.190963933054893092e-01,1.465523811366137852e-01,-3.768678126775854269e-03,1.437378415533143231e-02,4.734255925944216847e-03,3.426446914672851562e-01
2.899433809962765340e-01,-1.152501439329500915e-01,1.397249312260458454e-01,-9.493031096129490084e-04,-3.737759306470443427e-03,2.085287150105422788e-03,3.548767268657684326e-01
2.742612602947739342e-01,-1.545563863458000453e-01,8.069865105689345841e-02,1.723043381425469174e-03,-1.515555794259483904e-02,-1.892022042664030096e-02,3.743259310722351074e-01
2.537274018943409537e-01,-1.098730321926438824e-01,2.350608606449023086e-01,4.132202191169619815e-03,3.553421945378280183e-03,5.914652899741102646e-04,3.547628819942474365e-01
6.353695261612002376e-02,-2.522072030832861467e-01,3.314270144769447812e-01,-7.439991216876688448e-03,-2.729945090876315095e-02,4.484399625741325099e-03,5.084351897239685059e-01
1.572257632900742053e-01,-1.199551240171154026e-01,2.402418978692485441e-01,-3.286570703924661559e-04,-5.241424908686322971e-03,3.757055128272594399e-03,3.268891274929046631e-01
2.492849707450691399e-01,-1.412656412990220267e-01,1.006223332987566527e-01,5.639227739502592537e-04,2.733246950917804854e-02,1.603386116345249020e-03,3.447026610374450684e-01
2.864039875357725640e-01,2.716149219469177201e-02,2.612645246539699873e-01,7.173042079696699026e-04,2.018131060428732595e-03,3.147564696052078219e-03,2.477194666862487793e-01
1.847466208287694145e-01,-1.281290199054953005e-01,2.451366749089325392e-01,4.155710632634130046e-04,-1.423164901507867255e-03,3.500381934864479558e-03,3.470965921878814697e-01
2.443451187398833768e-01,-3.195383052134748159e-02,2.409061586370659924e-01,-9.038272967294883053e-03,-1.855138860958976087e-03,6.724430068307578334e-03,2.753067314624786377e-01
1.472000042927824603e-01,-1.181162606855845759e-01,2.524358574062529614e-01,1.313964622727180299e-04,3.063248526610463755e-03,2.029436931528391609e-04,3.307815194129943848e-01
1.984643070031040790e-01,-1.386656811236992859e-01,2.390877392532204659e-01,-1.008763986764515432e-02,1.788097027469563944e-03,7.041300853852767473e-03,3.598136901855468750e-01
2.203283706013117738e-01,-1.263588294048098581e-01,2.482792784483831561e-01,-1.827879631795939486e-02,-5.824963589476046810e-03,6.138303826531399214e-03,3.631537556648254395e-01
2.323506448935552249e-01,-1.196935759791888099e-01,2.031831169308941087e-01,6.933474110490254333e-03,-2.834824988713530863e-03,1.431115999095345682e-03,3.386622071266174316e-01
1.884757751565964978e-01,-1.225043888175050277e-01,2.591093399225947724e-01,9.113921357031061054e-04,9.753339467755256162e-03,2.481985646195192545e-04,3.520674109458923340e-01
1.493000139770280787e-01,-1.155124626385607839e-01,2.617560618259868743e-01,2.836171158483969182e-03,6.882178962195966213e-03,-1.125752118739291232e-03,3.357406854629516602e-01
2.647865170176561533e-01,-1.719711288876605293e-01,9.569739155187137469e-02,-1.631861659989437482e-02,-5.590035047363514295e-03,-3.128963619657817996e-02,3.864287436008453369e-01
1.873459984526795186e-01,-1.237228151409063559e-01,2.139857330773735633e-01,9.277784004535599401e-04,8.507133293329180446e-03,-2.206875817895368689e-03,3.255680799484252930e-01
1.870362032337614666e-01,-1.147019674996418853e-01,2.299383623394309906e-01,1.485563116118078985e-03,5.544347126878402567e-03,-4.779369898102676754e-03,3.255750238895416260e-01
2.502807750653823771e-01,-1.315162308769511901e-01,2.365864420521771039e-01,1.794861009133975611e-04,1.948706306890265506e-03,-4.475212491451785414e-04,3.751534521579742432e-01
2.408600882836147705e-01,4.519067096871332012e-03,2.464750004808619055e-01,3.240061861995288325e-04,9.077239182252836054e-04,9.588547657573709025e-04,2.392095029354095459e-01
1.705420893887880651e-01,-2.075731741037398770e-01,2.438198660279916052e-01,1.284950180299109825e-02,1.211850326666189526e-01,-6.561015929179692292e-03,4.698192477226257324e-01
2.277251773807025259e-01,-1.204895908476159155e-01,1.769937974514207424e-01,3.734240331980515342e-03,6.840043585380608214e-03,-5.569104120286553410e-05,3.261042535305023193e-01
2.398686875614957636e-01,-2.652925884661128109e-02,2.388971638481950377e-01,5.341920168499807858e-03,3.422522740130802890e-03,5.982814592479079180e-03,2.663421332836151123e-01
1.705304528807442543e-01,-1.311373098040507501e-01,2.223952517751013325e-01,-4.726858090327606954e-03,1.287669397313592236e-02,8.152222735522190664e-03,3.318179845809936523e-01
2.726473971214581904e-01,-1.113132609685793528e-02,2.794526841690461172e-01,3.602940892450818330e-03,-1.178951633058630388e-03,9.682229183905727982e-03,2.878058850765228271e-01
2.548703117764162807e-01,2.095175920289160665e-02,2.519559438218735292e-01,3.478456635155994202e-03,2.417229350989383296e-03,9.382993970553560326e-03,2.331579029560089111e-01
2.542028242396684456e-01,-1.342135362839332324e-01,2.381095037090818489e-01,4.249546721646166206e-04,3.888266649331341006e-04,-5.507693068761986043e-04,3.806274533271789551e-01
3.164500150006090973e-01,-2.162520011435022094e-01,1.334110068652592518e-01,8.310542531334622757e-03,9.552860485241843058e-02,-2.392789326661007993e-02,4.990705847740173340e-01
8.128067708736373687e-02,-2.557747395621666198e-01,2.352374737562545892e-01,-9.029680124980964812e-03,1.076686412871486198e-01,5.942980217949759419e-03,4.736340343952178955e-01
2.611411665083343547e-01,-1.156310890088781823e-01,1.583583950307692889e-01,-2.060031571165936957e-03,9.292275895704122865e-03,-1.131411779108302748e-03,3.377448022365570068e-01
2.498835327458254763e-01,-1.516364329289105473e-01,1.039542535531243483e-01,-2.390246013017350278e-04,2.447887519171749668e-02,4.337541954343930584e-03,3.546468317508697510e-01
2.491377524599051319e-01,-1.298622668888830267e-01,2.356852587357502193e-01,1.799093930185785041e-03,-6.806718183580417157e-03,-5.450901460675361323e-04,3.726567924022674561e-01
2.920401184394452732e-01,1.374870091024926744e-02,3.115855938783000934e-01,-1.019201217905404966e-02,1.847483050955964906e-02,-1.420236736258376816e-03,2.908764779567718506e-01
2.374165945448939441e-01,-1.388824616912605336e-01,2.491701021749187228e-01,-1.138839127325637444e-03,-1.270560913071744737e-03,-6.234615609618194892e-05,3.823227882385253906e-01
2.401096836502044085e-01,-1.371004322410912524e-01,2.404127438283417129e-01,-2.552753081457865246e-03,-4.054036460243215512e-03,1.931845946121284142e-03,3.774677813053131104e-01
2.398753823679958819e-01,-1.383396890899869502e-01,2.293450488828661649e-01,2.218694633441939314e-03,-1.821602404625296667e-04,6.655395340262288545e-03,3.732593655586242676e-01
2.538040975834718327e-01,-1.343098531332656553e-01,2.359337645114887305e-01,4.379453581365230102e-04,4.266140538206276609e-04,-3.332470906412633781e-05,3.794959783554077148e-01
3.920985910312483336e-01,-1.785512040918479926e-03,2.937498924010987222e-01,2.129400739000314458e-02,-3.774286785470536837e-02,2.849392616861562422e-02,3.662632405757904053e-01
2.452433153322031711e-01,-1.121778904864904891e-01,2.458687414557073625e-01,4.438570444783218258e-03,2.376768584320732448e-03,-3.846690674886521499e-03,3.579026162624359131e-01
2.329208116968419229e-01,-2.716018051161336877e-02,2.439726977959651988e-01,-1.965189487912184272e-05,-1.626565653586917615e-03,-9.062902517629297565e-04,2.657988965511322021e-01
2.587837191307715834e-01,-1.213830799489660217e-01,1.474712292642878786e-01,-2.463424621558002632e-03,-8.970495595819413109e-03,1.175070105600307209e-03,3.389154970645904541e-01
2.740427920409765905e-01,-6.923399282823261558e-04,2.674174073562775034e-01,-5.023311363826951995e-03,-1.396137785417711323e-02,4.773700997144473407e-03,2.728220820426940918e-01
2.374080416756148004e-01,-1.270564059622181219e-01,1.730485196224943178e-01,4.559086233682822613e-03,-5.407856035620661750e-03,2.968799978132501474e-03,3.371887505054473877e-01
3.214139812276179398e-01,-2.063497890915977351e-03,3.515736183697001360e-01,2.482364008668518779e-02,-5.169344249983916229e-02,1.740211831251810282e-02,3.550732731819152832e-01
1.489567244679219638e-01,-1.372108023791589471e-01,2.401157490221941804e-01,-1.318920968215321100e-02,1.719927552130208525e-03,3.119994416911499313e-03,3.418311178684234619e-01
2.389480704946421452e-01,-1.000168783798388306e-01,2.543846681436406909e-01,8.912238512700728938e-04,-6.075394158118734705e-03,2.806368837431264581e-03,3.471379280090332031e-01
2.462339944656030677e-01,-6.884329162978955474e-02,2.380207248306786816e-01,1.018136013313257124e-04,9.638384695931190987e-03,-1.373959790946266283e-03,3.115088045597076416e-01
2.356891106860720120e-01,1.343396605170688041e-03,2.400853216725599149e-01,-2.166085185943275419e-03,-1.308358215918651582e-03,1.982457985310899355e-04,2.366153001785278320e-01
2.454149046848368432e-01,-1.328714192781271786e-02,2.515449693417442512e-01,-5.587880558514035298e-03,2.574030309150258499e-03,-3.886400504007179665e-03,2.621241211891174316e-01
2.432486569883402783e-01,-6.877111677597141925e-02,2.657141137318188018e-01,-9.448853433491413017e-03,4.897879800682743579e-04,-1.713502543284165305e-02,3.256072700023651123e-01
2.502087228713050782e-01,-2.023188798837070590e-01,1.497780297298096919e-01,1.903032193465061667e-02,-1.095049946846622102e-01,-9.300425043714586823e-03,4.546865820884704590e-01
1.778120116065607381e-01,-1.231454205439881794e-01,2.249381487792875278e-01,4.353368635748542173e-03,-7.645903802365463901e-03,4.281226112737858067e-03,3.275155425071716309e-01
2.435210383851800220e-01,-1.331764887481345916e-01,2.469703781511875529e-01,-4.187495929482323853e-03,6.965334254312400240e-03,-2.323969035597192243e-03,3.787170946598052979e-01
2.433399068383763075e-01,-1.240049666575823301e-01,1.915555229307111529e-01,6.462980237928875500e-03,4.124259321798329214e-03,7.202858616180800311e-04,3.446433544158935547e-01
1.597029270155288505e-01,-1.327970373105221424e-01,2.412723270208200765e-01,-1.039908566493359665e-02,-8.151870404381346413e-03,-4.747831175583415095e-03,3.415556252002716064e-01
2.465409523986657470e-01,-2.226976271093253357e-02,2.464686535843132464e-01,5.540893269172906047e-03,-7.612910815770709307e-03,-1.059506436801416554e-02,2.698935270309448242e-01
2.407827479605020859e-01,-1.279134911098168403e-01,2.438456264556628228e-01,5.946194746247327519e-04,-4.859276854211685807e-03,4.850592993936629974e-04,3.703352212905883789e-01
2.538052808108081093e-01,-2.631610257702873823e-02,2.424644784631925232e-01,-2.627112998947626139e-04,-5.673529387040426690e-03,-1.052218353679771614e-03,2.748088240623474121e-01
3.439027888951647904e-01,4.451225436628136745e-02,4.127341235635429983e-01,4.382245368690750736e-02,3.877856936038209107e-02,-1.209565257811308012e-02,3.545297682285308838e-01
2.499931296115106005e-01,-1.057630022368136191e-02,2.520990751132902163e-01,7.099642331617417312e-03,-7.279600075236232828e-03,-8.590422838927462557e-03,2.626427114009857178e-01
2.393283434484095307e-01,-4.922285429414635649e-02,2.440978168349253463e-01,5.270126207693109216e-03,-8.027988509808023712e-03,1.439421488748110316e-03,2.914509475231170654e-01
3.929844395007233149e-01,2.224565367406128313e-02,3.455881450038256752e-01,1.641917721566133609e-02,-3.050670232686332126e-02,4.232647076039362799e-02,3.620736896991729736e-01
2.596838246682865448e-01,-9.560765819030975221e-02,2.353199009368324990e-01,5.538839731754775092e-03,-7.260674882212058128e-04,2.389502337991532277e-03,3.439187407493591309e-01
2.736053650877600107e-01,-1.118667953267355741e-01,2.426603626308345141e-01,-6.200618772128602130e-03,1.518205113026873570e-03,1.305545852659274579e-02,3.718219101428985596e-01
1.502332191128879502e-01,-1.587350815530561565e-01,2.210682117090338183e-01,-4.650657777715812638e-03,3.788570500848686268e-02,6.355724655541999252e-03,3.561696708202362061e-01
2.370887236244255680e-01,-6.762518134613629273e-02,2.551063448641475162e-01,1.895196808589674851e-03,5.577520360958719385e-03,-8.238986773080155673e-03,3.145999908447265625e-01
2.037946398541852222e-01,-1.360711607146077862e-01,2.456078710271853704e-01,9.009307785882514699e-04,1.040159558644151690e-03,-3.601484807306958112e-03,3.626466393470764160e-01
2.441471484515440604e-01,-1.331374668411654527e-01,2.415993116581606481e-01,1.594626015858521774e-03,-6.947043838971100893e-03,-1.557559398124178183e-03,3.762294650077819824e-01
1.936323164042297873e-01,-1.395774233776135298e-01,2.441995046952115667e-01,1.412342009616587325e-02,5.051139279922475670e-04,2.276500542674229650e-03,3.620082437992095947e-01
1.931458033362535853e-01,-1.249065610399244519e-01,2.412104718239197754e-01,1.355071350960922443e-03,-3.304127290340984346e-03,6.407509954126519580e-03,3.448420464992523193e-01
2.182739010737522745e-01,-1.335151905278703643e-01,2.384435613994914105e-01,-1.397288476079005485e-04,-9.650954414410917311e-06,6.188429913748524393e-03,3.624538481235504150e-01
2.476491137974977941e-01,-1.108588588900212141e-01,2.365449917409148672e-01,1.739785182945777220e-03,1.104984527856903674e-02,1.533649302642161542e-03,3.536280393600463867e-01
2.489998775315678259e-01,-3.425705356724606521e-02,2.395205744349785948e-01,-1.647562321015701853e-02,2.374630795620895417e-05,1.821370848994077188e-03,2.801134884357452393e-01
2.513944333199644721e-01,-1.306266158495132668e-01,1.260303958583275374e-01,-1.037257023142101496e-03,3.318447590078753198e-03,6.739796674881914397e-03,3.375456333160400391e-01
2.635546779629038827e-01,-1.240756489155076109e-01,1.369722489041111657e-01,-6.597999512294311364e-04,-5.849168873159339178e-03,3.392734318501951923e-03,3.425663113594055176e-01
2.559921289101489972e-01,-1.238229494116483004e-01,1.529440570921595244e-01,-2.216722600330757725e-03,2.675306629809795153e-02,3.158232434326707378e-03,3.434108793735504150e-01
2.755925016463532384e-01,-1.416838975202135975e-01,1.368375148537326891e-01,1.672396873506809892e-03,4.495264135196461175e-02,1.160651213408018861e-03,3.762286603450775146e-01
2.690893587643010676e-01,-1.462436153700537866e-01,8.739953815300055551e-02,-8.272170675640330706e-03,5.135269403186834558e-02,1.228918556736503971e-02,3.723178207874298096e-01
1.624896153391263698e-01,-1.214869642867778404e-01,2.405819532759899682e-01,7.542023857937603685e-04,7.000902349965073233e-03,-3.520167975354394300e-03,3.303080797195434570e-01
1.362052196276155591e-01,-1.190846600018905521e-01,2.529337269351584760e-01,-4.386911245848216308e-04,4.090114174135101033e-03,2.515747068909793271e-03,3.296480178833007812e-01
2.407347270089646440e-01,-1.236819603592231864e-05,2.480107504344444824e-01,7.018664355599817366e-04,-2.676719627916695349e-03,-1.220280458375184486e-02,2.454251050949096680e-01
2.732317700525164206e-01,-1.145249868487174943e-01,1.360840613255026033e-01,1.801208657225482042e-03,-1.735213443934892699e-02,3.016884922303201318e-04,3.419037163257598877e-01
2.456603251585907643e-01,-1.399005772097355327e-01,1.075603867086354914e-01,6.830901718273059853e-04,1.825293172282384940e-02,1.308361580547020035e-03,3.398365974426269531e-01
2.459569947383541122e-01,-1.605057807873691567e-01,1.048547924742791182e-01,1.280385138243329834e-02,8.859578866951846321e-02,-1.188886488168541811e-02,3.901698589324951172e-01
2.437832824062178827e-01,-1.394064277715071076e-01,2.399073863620335145e-01,-7.386488080023808842e-04,9.837102822297483055e-04,-9.169032700287292484e-04,3.812758028507232666e-01
2.389348913129258900e-01,7.925557151028328473e-03,2.381494798392681800e-01,-1.683069368804580173e-04,1.789794106022823484e-03,-1.393590312900869275e-04,2.306387722492218018e-01
2.443818037280949262e-01,-1.377571696656147981e-01,2.375267229787743628e-01,-2.383583764255460015e-03,1.357637507572581267e-03,-2.587260675129797634e-03,3.788142800331115723e-01
2.301123414824225999e-01,-9.609332820337709857e-02,2.549079445731338156e-01,1.491881588418954427e-03,6.216931499063272672e-03,1.897204036159029755e-03,3.394802808761596680e-01
2.399586883077476085e-01,-1.175146689709695158e-01,2.531069498767228865e-01,8.924780673656001204e-04,7.478380613931019487e-03,-4.385444837383239633e-03,3.645381927490234375e-01
2.372773139183251556e-01,-9.635939640290358543e-04,2.398474165260076063e-01,-4.744606532910396537e-03,-2.178951439447050949e-03,-3.799206113187521923e-04,2.397078424692153931e-01
2.363879103383229596e-01,-1.251108481345861168e-01,2.019306198661375285e-01,-5.711622684862603661e-03,4.140898230750562382e-03,7.326603040399620390e-04,3.457792699337005615e-01
2.470859265251248993e-01,-3.631234772757621632e-02,2.627284042511258688e-01,5.531282578497592056e-03,-4.256021509893619104e-03,-2.455077095286625072e-02,2.948672175407409668e-01
2.560906112446543759e-01,6.503521894343777809e-04,2.510659234635691517e-01,1.342045756369228751e-02,1.369838556573651708e-03,5.329613108863732671e-04,2.540438473224639893e-01
4.372941046149936284e-01,7.576755374663943221e-02,4.519438861433556776e-01,1.391011542046097574e-02,-1.219762580700864407e-02,5.958514817061258753e-03,3.706017732620239258e-01
2.538635276027650933e-01,-7.934124419704507991e-02,2.549909883475721672e-01,1.766896369887042614e-02,3.940856626808958429e-03,4.857675834309378195e-03,3.353450894355773926e-01
3.028518097769494211e-01,-2.020317177315575363e-02,2.616637634508058308e-01,9.085765602295365478e-03,2.592313348138044343e-02,2.272105694157774275e-02,3.107529580593109131e-01
3.737631409524226900e-01,2.537642445820753601e-02,3.028757111716577355e-01,-1.865228209689512306e-02,5.710486222795996963e-02,2.119221452207399603e-02,3.374552428722381592e-01
2.517227588821591144e-01,-1.257912155033871771e-02,2.678758391072436074e-01,1.884447673519559427e-02,9.250164487063851013e-03,-7.354450645150243347e-03,2.754451036453247070e-01
2.461594003616022208e-01,-1.356065003747620734e-01,2.373174592514905590e-01,7.181233291486060306e-04,-6.642021525691871233e-04,1.871968974826778440e-03,3.774403333663940430e-01
1.490945193576392047e-01,-1.139850413500869547e-01,2.561058433678687352e-01,-7.366569526610078356e-03,1.686449116087757050e-02,5.262412197271214287e-03,3.315326273441314697e-01
2.514696644913754220e-01,-8.399836016133371830e-02,2.317645310090490629e-01,7.339964593581094036e-03,1.594186539856727938e-03,2.718686460205033475e-03,3.263557255268096924e-01
2.182731051142702272e-01,-1.324338019485701290e-01,2.432225862020956364e-01,-1.138119409605556061e-04,7.174179711722906234e-04,5.864011662453396528e-03,3.639677166938781738e-01
2.375573033447055948e-01,-4.519675899172292954e-03,2.458694409966771244e-01,-5.357613394617822579e-03,-4.111159928565094254e-03,-1.296165628597029107e-02,2.476355433464050293e-01
2.342198941866483197e-01,-1.581234702998091102e-02,2.354237265933169787e-01,3.666333323070917810e-04,1.615852329031813601e-03,-3.398672365497407231e-03,2.507218718528747559e-01
2.421566717171568239e-01,-9.624889045993906267e-02,2.550402837732781425e-01,-1.733777357280212074e-03,7.337413049897472533e-03,-2.316544537048836200e-03,3.452981710433959961e-01
2.428053615720042191e-01,-9.061454173291264014e-02,2.540062395606047518e-01,-4.430243532283268185e-03,8.582853024536582498e-03,-2.088029148919988680e-04,3.395716249942779541e-01
2.581185301729675419e-01,-7.649344489069087594e-02,2.551650827634913132e-01,7.053074765601946745e-03,-8.195888392909971617e-04,1.530527473756169987e-03,3.333825469017028809e-01
2.389682243656213734e-01,-9.589310398982595074e-02,2.514118320340085200e-01,5.697958923314461709e-03,7.666983621051258642e-03,7.315350727721249557e-03,3.418890535831451416e-01
2.520024161940851992e-01,-1.006720787567632891e-01,2.490124785659568740e-01,5.769194098521231162e-04,6.143656048618270377e-04,2.436409424930896517e-03,3.512174487113952637e-01
1.805175875136605934e-01,-1.211161419655798072e-01,2.291183886753422327e-01,-7.488313290359450969e-05,5.752822354216222643e-03,2.332890442455617941e-03,3.288163840770721436e-01
1.714971559416803848e-01,-1.536779833575195042e-01,1.899055242034065616e-01,-1.674337111682482060e-02,5.085230607672245468e-02,1.367953786615099671e-02,3.481723070144653320e-01
2.368825557828511674e-01,-1.420498344495339238e-01,2.506864640063583005e-01,7.211855838755184753e-03,4.606812732900993773e-02,-2.658768588409980704e-02,3.970574438571929932e-01
1.482601827588841958e-01,-8.726550985701839180e-02,3.259544756806571075e-01,-3.175848557610335288e-03,5.764946962330871200e-02,6.232553564453117978e-03,3.728489875793457031e-01
2.573575104421707005e-01,-6.499572598429778636e-02,2.459951836101478273e-01,1.332575778586980210e-02,3.410806959755589840e-03,2.811300974068020337e-03,3.177567720413208008e-01
3.638394752145276412e-01,-7.066944433612010190e-02,2.050122371245896580e-01,1.416053628254289320e-03,5.498706643293754803e-02,4.978478079717614177e-03,3.926363885402679443e-01
2.504836225029131724e-01,-3.604205563010942637e-03,2.604041084587389587e-01,1.627545836602432155e-02,2.117675737428609782e-03,1.542983867791146088e-02,2.621108293533325195e-01
2.369423271075868365e-01,-1.292535278174268554e-01,2.436913113560841559e-01,2.353878400920699204e-03,1.049016042214180426e-02,8.369737904393534378e-03,3.703691661357879639e-01
2.787316144417976704e-01,2.194923556268976728e-02,2.762535246929622712e-01,-7.746333410034705186e-03,-4.700992310033836469e-03,-2.117424053142036647e-02,2.586471736431121826e-01
2.548165702210687389e-01,-1.312239009833495729e-01,2.365924400732236366e-01,1.992741156555205507e-04,-3.914507468116409038e-04,-3.992401575530223111e-04,3.772600889205932617e-01
2.024114902125541959e-01,-1.465585469658047257e-01,1.735619991114939475e-01,-3.364776508797004406e-02,8.604273083700141045e-02,1.251952372965392871e-02,3.723191618919372559e-01
2.296879834160685807e-01,-1.147619401213140211e-01,1.886283997230405463e-01,-2.796871873324292476e-03,6.709069291365795003e-03,-4.887035496600234969e-04,3.261102437973022461e-01
3.357907799596917542e-01,2.588478658827947365e-02,3.497327593311035931e-01,8.490107925317440934e-03,-7.243904899004213749e-02,5.093242325027424675e-03,3.414573371410369873e-01
2.429701828884326953e-01,2.208227656611738698e-02,2.446035855310812190e-01,3.303343284010685447e-04,-3.199773577259082923e-03,7.866513084757047192e-03,2.221972644329071045e-01
2.573151507230662105e-01,-1.242162216389782747e-01,2.356138415491523530e-01,4.991264741981113300e-03,-6.230273024435887923e-04,-6.461276968641894026e-05,3.712590932846069336e-01
2.455637491847906806e-01,-1.313051107498172665e-01,2.220257927879339122e-01,-3.927668161113609044e-03,1.009374973256543014e-03,-1.768863435839720943e-03,3.657487928867340088e-01
2.410691888946815964e-01,-8.929514144529068775e-02,2.555367705547554880e-01,1.375583005912013081e-02,1.004064524233469133e-02,-2.210331180071679544e-02,3.412700593471527100e-01
2.492217677752796567e-01,-1.027954608680937965e-01,2.529889050893349145e-01,3.263244685252748530e-04,-7.503314838893324241e-03,-4.589298086773429923e-03,3.542440235614776611e-01
2.311768378399160495e-01,-1.262775288415058372e-01,2.036447535103086959e-01,-6.691248405525585669e-03,3.710707993104612589e-03,1.361619783643235482e-03,3.447772562503814697e-01
2.438827487938226568e-01,-1.405427189873518223e-01,2.391348968742155190e-01,-1.090848194890246467e-03,-5.578634658677754550e-03,1.546760311687832333e-03,3.822098970413208008e-01
2.486161966375897980e-01,-1.367227285918942714e-01,2.386358038613764498e-01,-5.799497690839444924e-04,-1.742941887773825612e-03,1.369661150840151449e-03,3.804676234722137451e-01
2.471332220816966352e-01,-1.450165452904550456e-03,2.491729181332610343e-01,-7.443305198296550941e-03,-4.050029746907086656e-03,4.615557560960142219e-03,2.501683831214904785e-01
2.696379070489435814e-01,-2.038414657482165437e-02,2.572381952318487652e-01,-5.669728969646369021e-03,-1.282295135111986839e-02,1.984202613470477990e-03,2.850822508335113525e-01
3.450922422044668259e-01,-1.552572796142012712e-02,2.497359555191855374e-01,-2.480622216346080669e-02,-2.539912497112853731e-02,2.307189792405781037e-02,3.318573236465454102e-01
3.027651664583316249e-01,5.239565601806400741e-02,3.018608678910526533e-01,7.814840794906904387e-04,1.214699190736934350e-03,1.340243464531199781e-02,2.510068416595458984e-01
5.019908950887774779e-01,1.422548318566034531e-01,4.654286377187590307e-01,-4.099545461609356220e-03,1.776502685683378768e-02,5.299167622325192534e-02,3.563925325870513916e-01
3.774834557763178111e-01,-6.499875290485176982e-02,2.010657813884686451e-01,-1.134362128436736464e-02,2.616519743210382262e-02,5.123217737095168978e-03,3.890638053417205811e-01
3.545211020322134865e-01,7.701969867470417896e-02,4.603478986992887712e-01,-1.050771610912504218e-03,-2.141008021385603158e-02,-2.312164928999461966e-02,3.472113907337188721e-01
2.700114193577983768e-01,-5.917201495718366067e-03,2.935302229522310236e-01,1.156859892781330473e-02,7.363690155884717453e-03,-2.284248081797933538e-02,2.920766174793243408e-01
2.376641235804881069e-01,-1.205377070474411144e-01,2.465499819025742112e-01,-8.474788749502087590e-03,-9.648103924453704447e-03,6.702235672188370413e-05,3.634077310562133789e-01
4.186676934152671059e-01,5.497135921718890317e-02,3.200513041355300126e-01,1.079466578904761734e-02,8.627764927346988702e-03,-6.457558849739152701e-03,3.268513083457946777e-01
1.906659129588036405e-01,-1.584391237013005882e-01,2.831001713184089774e-01,-1.200710800767708364e-02,-9.199105179678024324e-02,-5.381760197633204262e-03,4.342742860317230225e-01
1.714751970535445535e-01,-1.276030065807039759e-01,2.637931930981707307e-01,1.104483946730834901e-02,1.183165885525267608e-02,-3.609306935795753880e-03,3.555357754230499268e-01
2.464004468076689269e-01,-1.229408312022959165e-01,2.450260595401537178e-01,2.159339037682994449e-03,9.446150425718060142e-03,2.391378813720618658e-03,3.690610826015472412e-01
2.400689355917085821e-01,-1.348287845703396715e-01,2.310869731141954597e-01,5.933632365230367967e-03,-5.721719378103610597e-04,4.394710427502335204e-03,3.707104027271270752e-01
2.385590710106731960e-01,-1.367650015755869641e-01,2.366391629675564656e-01,5.602430842719518123e-04,1.704325008376127940e-03,4.481227791471018018e-03,3.744611442089080811e-01
2.441634092908938902e-01,-1.359849760624984305e-01,2.379074363559101901e-01,-1.199918058295951602e-04,8.758939008852599300e-04,4.079983636023745523e-03,3.771286606788635254e-01
2.354644908424877725e-01,-1.337539082030270166e-01,2.263789297011606916e-01,6.949493689689960688e-03,-3.170764701103888339e-04,-8.645014621022735696e-05,3.649594783782958984e-01
2.408711419589855129e-01,-1.353791568361813746e-01,2.500003843825634453e-01,1.572845006796007783e-03,5.394534492618989312e-03,1.549426824769498372e-03,3.810307681560516357e-01
2.526728145014136562e-01,9.827067195553956802e-03,2.479242615288817786e-01,-5.253479200139136301e-03,-5.321049384131130988e-03,2.619736547551732367e-03,2.408978343009948730e-01
2.495167802875551399e-01,2.608461897665051432e-02,2.475233942744454740e-01,-1.391368781113613493e-03,-2.136334505504741514e-03,7.376924681126411330e-03,2.228525876998901367e-01
1.686036931792779248e-01,-1.378434724160447211e-01,1.713584820380954499e-01,-1.235768184800396709e-03,-8.556117197272690433e-02,7.917656385844813044e-03,3.419304788112640381e-01
2.182592993408905002e-01,-1.270205334207181735e-01,2.087239172396669340e-01,4.258007074920430388e-03,-2.211849413448321693e-03,1.108655863956753418e-03,3.407190442085266113e-01
2.758556177060587644e-01,-7.780101902176875250e-02,2.746542416851811552e-01,2.282265429596974649e-03,-7.982006648260349391e-02,8.291121737219650165e-03,3.794537782669067383e-01
2.493868833131265283e-01,-1.360344384948907748e-01,2.393135404605344352e-01,7.910380005299170233e-06,-1.008406648408151710e-03,6.432540245346449366e-04,3.804903030395507812e-01
4.242160640763831259e-01,2.717698555997036247e-02,2.881147776302468988e-01,-2.657646047978460234e-03,-2.013679666489315290e-02,-3.608135118574568034e-02,3.567482531070709229e-01
2.452380606000004182e-01,-9.450723848839204244e-02,2.307398503465393214e-01,1.873738713836047573e-03,-3.585142343097556372e-03,-2.134414126437038633e-03,3.328274786472320557e-01
2.402488489854163467e-01,-9.692944089157470855e-02,2.561324110503243601e-01,-5.051098363881016858e-03,-5.495398901994189705e-03,8.178300704211764749e-03,3.459261059761047363e-01
2.005670396008389922e-01,-1.212307904158623079e-01,2.519570994378931839e-01,8.623680523201608661e-03,1.626184593580220052e-03,-3.081577506229030757e-03,3.507014513015747070e-01
2.374305718451838465e-01,-1.357948606870873487e-01,2.380237988619121614e-01,4.503410282243896666e-04,7.733304522327055178e-04,2.645152608262895354e-03,3.735537230968475342e-01
2.399239386958581799e-01,-1.020512778705034429e-01,2.565915637085450784e-01,-4.279633912924116212e-03,6.907219720937810351e-03,-4.684177632577217476e-03,3.509824275970458984e-01
2.835263831277489155e-01,1.725551787521870106e-02,2.573293480507458098e-01,1.057666868588180188e-03,-2.809556792154616154e-03,3.854215351674320118e-03,2.543276548385620117e-01
2.440576350551620921e-01,-4.099232067578201244e-03,2.529070835456910249e-01,-2.276663862001806257e-03,-1.455903048256758110e-03,1.236576148199956121e-02,2.536470890045166016e-01
1.862944473908311749e-01,-8.114535267986439093e-02,2.706616687851256531e-01,7.325022152531349140e-03,-3.502453567530657008e-02,2.105056802225047791e-02,3.261526226997375488e-01
2.657251669705259500e-01,-2.167641170806805517e-02,2.424861721895895383e-01,-1.156901081362192787e-02,-1.701450392236922987e-02,-7.263483097802045374e-03,2.790861427783966064e-01
1.551627043264563466e-01,-1.014988947346583265e-01,2.726399512910075984e-01,2.274085104672976185e-02,-2.866058485821803420e-02,1.568123495929451411e-02,3.384987413883209229e-01
1.658822967565852513e-01,-1.244645007137546722e-01,2.341106426749726688e-01,1.037669365836427221e-04,-1.584457097333773212e-02,5.878328701632306447e-03,3.310937881469726562e-01
4.203083959597584407e-01,9.394776191973625012e-03,2.838571082891355735e-01,2.134899595961597257e-02,8.436009946376872223e-05,3.141931789760335492e-02,3.684130012989044189e-01
2.298017578803132899e-01,-1.357742153425894605e-01,2.085602944101603573e-01,9.158813933344566588e-03,-1.770235338060839299e-03,7.270717497067233186e-03,3.560214340686798096e-01
1.219269002265800511e-01,-1.214124392787386680e-01,3.483409196729937429e-01,1.540110559250345255e-02,-3.329597745670714870e-02,3.916023106594773186e-04,4.118381738662719727e-01
2.366642755647112295e-01,-7.299416320661639146e-02,2.439658114952988066e-01,-5.708109420292352409e-03,-6.442260906044382750e-03,-1.936681017996422054e-03,3.137453496456146240e-01
1.265191389392635868e-01,-8.694002303985026714e-02,3.301551855841595162e-01,1.932490134434834694e-02,-1.553196356664910023e-02,9.405652789520051356e-04,3.637954890727996826e-01
1.401311686372207488e-01,-1.411383423863797337e-01,3.313353548754710554e-01,-4.102112440722726315e-03,-8.090127606785492420e-02,-2.523107609715103880e-02,4.370890557765960693e-01
1.721639026994122856e-01,-1.169449350355501321e-01,2.226490341314275589e-01,6.712760683182055106e-03,-5.724885199288023280e-02,-3.571582067298268316e-03,3.327673673629760742e-01
3.564328104019977017e-01,-1.041210954287113688e-01,1.820351321797587796e-01,8.279781906571222552e-03,8.291479363958538518e-02,9.214825103113104265e-03,4.281237125396728516e-01
4.212261771767204510e-01,2.126047659117172306e-02,3.042876567626431883e-01,-7.715043841011964484e-03,1.173108922304718846e-02,-3.447645480095336279e-02,3.619849085807800293e-01
2.045190656841127386e-01,-1.151531324303824433e-01,2.180535188847787520e-01,-1.175663814048811130e-04,-4.152433571789889387e-03,1.765187895954733457e-03,3.267433345317840576e-01
2.503509689088007084e-01,-1.324887092574494052e-01,2.395555151298880969e-01,-1.243952186841446603e-03,7.467760643558398782e-03,3.644063550866833822e-03,3.778380751609802246e-01
3.791706264274431470e-01,1.295236013814021758e-02,2.962139725990345918e-01,2.697001804540569841e-02,2.712046609206477873e-02,9.151630788158560126e-03,3.394957184791564941e-01
2.449536250537003301e-01,-1.361076180653732481e-01,2.385815434646312849e-01,-4.994263171273615604e-04,4.698221764046130330e-04,2.053863828632629049e-03,3.779340982437133789e-01
2.164625730267646375e-01,-1.310287017635181073e-01,2.492442050456065705e-01,-5.975928758292550205e-04,-5.362742080941882740e-03,1.456246818931322944e-03,3.651162385940551758e-01
6.748330547067753205e-02,-2.561288868946552943e-01,3.344315646773814987e-01,-3.424764502204830086e-03,-3.187259621239905971e-02,-1.105530349904227522e-02,5.155805945396423340e-01
2.057586624382317098e-01,-6.469680920801665347e-02,2.551607594659242584e-01,-1.747450013662722040e-02,3.013919457871773108e-02,-8.856225396415893722e-03,3.046707808971405029e-01
2.005415530901294430e-01,-5.088321566124179296e-02,3.692412890222456223e-01,2.595238750348372730e-02,-5.335425701875785159e-02,1.829051385268414985e-04,3.803288340568542480e-01
1.465390477661757951e-01,-1.360155172105164123e-01,2.456813090469237570e-01,-1.419777625751014044e-02,-2.544211537268794426e-02,-5.827439460232529400e-03,3.468830883502960205e-01
2.659155734431036811e-01,1.246848360881447348e-02,2.716464875384309585e-01,-5.846009818327219457e-03,6.641928757646462129e-03,2.271852409700696879e-02,2.598153650760650635e-01
3.378707006793156831e-01,-2.263101074553677261e-01,7.007430269216985419e-02,-1.146211022547744332e-02,3.252690921447071171e-02,7.965909949644734561e-03,4.926335513591766357e-01
3.267426573512741128e-01,-1.940814476992152593e-01,1.051678472711235213e-01,1.066713780264227094e-03,7.165829792952102539e-02,-1.151916668513395213e-02,4.698487818241119385e-01
3.060708221702923559e-01,-2.074435007153199728e-01,9.415169866294742507e-02,4.583168908829893598e-03,-8.653777226875351836e-02,-3.016542447024797569e-02,4.743863344192504883e-01
2.512099043170712420e-01,-1.293312742361869550e-01,2.238800655985070942e-01,4.644432840680876680e-04,-1.034806839216439707e-03,-3.623110477613427131e-04,3.676446974277496338e-01
2.792399740757940951e-01,-1.654720374325778787e-01,1.562943321509027983e-01,-8.042757505043424821e-03,9.226921863680216662e-03,9.440924062801461791e-03,3.986550569534301758e-01
1.212121188075813288e-01,-1.103798216273622068e-01,3.732821746251498984e-01,-8.375084500337397035e-04,8.405364584346321786e-04,-3.864367402698242870e-03,4.190472066402435303e-01
2.840746465347016581e-01,-1.680827218401048928e-01,3.603519401215068974e-02,1.670585055206238274e-03,-2.021592819613649353e-02,3.451991036862174511e-03,3.938110768795013428e-01
2.244088002701652429e-01,-2.602192737622152641e-01,1.539701034365183185e-01,-1.464363140445670061e-03,1.303350353669757711e-01,8.267618395478733978e-03,5.068160891532897949e-01
1.920239995802790200e-01,-1.292650778701233127e-01,2.116161177463886101e-01,9.729724023628615048e-03,2.359983020561199143e-02,-1.096218705738974224e-02,3.349934816360473633e-01
2.654170700314989473e-01,-1.213680547068359816e-01,1.799449547178079423e-01,3.956563553172419943e-03,1.017512471182092752e-02,-1.486754309742202573e-02,3.533688783645629883e-01
2.427452251827738605e-01,-1.138283425239778185e-01,1.668021232811034427e-01,3.156113342970800085e-03,6.363913971103018000e-03,4.172919937295424737e-04,3.255528509616851807e-01
2.639760558992124695e-01,-1.421504859226544459e-01,1.711903861363116286e-01,-4.120452785556447291e-03,1.784738852884376267e-02,-7.890203153784126205e-03,3.702141344547271729e-01
2.531317759680545842e-01,-1.138095280495190487e-01,2.000463557765309874e-01,5.091152808929685220e-03,7.653162356329025126e-03,-1.995897796869158802e-02,3.455912470817565918e-01
2.681520340824450899e-01,-1.584953877605133066e-01,2.043623733646940943e-01,1.037406452709872806e-02,1.279868562381940578e-01,-1.671463566706281670e-02,4.573667645454406738e-01
2.433068668298605242e-01,-2.315688154062628401e-01,1.689402265445208995e-01,-9.132408114854315357e-04,1.409879172661839264e-01,4.960414996788503963e-04,5.053300261497497559e-01
2.467732174500640308e-01,-1.360019144699229354e-01,2.363833759372538368e-01,1.610387910679505347e-03,-1.932221476103220513e-04,7.240999387728256102e-04,3.776999413967132568e-01
2.623812563114281127e-01,-1.200213279279848388e-01,1.521511716374348566e-01,4.205609213617836871e-04,4.046239742759178901e-03,-9.974881266151404413e-03,3.414356112480163574e-01
2.571458925410309293e-01,-1.296867920507368821e-01,1.488072512414050919e-01,4.943795089565498208e-03,4.637703501042160850e-03,-1.042297187721616739e-02,3.463114500045776367e-01
1.523987507543058950e-01,-1.354102430391908030e-01,2.530413415330404758e-01,-1.508999352655930777e-02,-1.526341400323419362e-02,-1.179526182161310874e-02,3.517502248287200928e-01
3.236536480165290719e-01,-1.186095675297635932e-01,1.891118267045907853e-01,-8.921372036587733173e-03,8.765951932897780852e-02,-1.758282936891721049e-02,4.223910272121429443e-01
5.662932476358317063e-02,-2.483331071600298756e-01,3.329489312779030374e-01,-7.142622828339778226e-03,3.709369445146738081e-02,1.728672584991756533e-03,5.078499317169189453e-01
2.457737362251527502e-01,-1.220609865639280395e-01,1.948961394280341319e-01,6.569612573833532622e-03,4.104083367623309955e-03,-3.786641233148831717e-04,3.454805314540863037e-01
2.545315846537692939e-01,-1.222206842265670945e-01,1.301553523934882717e-01,2.228221141804051855e-03,1.515520546693661930e-03,-3.245273516980982887e-04,3.325278759002685547e-01
3.437834104266110358e-01,-1.283002761644007894e-01,8.799699929021270739e-02,-1.787641987004592870e-02,-6.577111767254795183e-02,1.294700492309172786e-03,4.260027706623077393e-01
2.454183843897019823e-01,-1.330568725268884978e-01,1.525693041735360911e-01,8.048595665083523379e-03,5.085650621893532050e-03,-1.232534397124250732e-02,3.427113592624664307e-01
2.511170807039299624e-01,-1.447932330263675960e-01,1.356667252590074424e-01,2.800377330498827685e-03,4.849658377321793001e-02,-2.872268203529374214e-03,3.625876605510711670e-01
2.421978658856552002e-01,-1.205658269821773820e-01,1.667541017379488011e-01,-1.978899446681846135e-03,4.139564247581627165e-03,6.892744950517926648e-04,3.316407501697540283e-01
2.819873185153269346e-01,-1.285667088001072322e-01,1.356857603232873855e-01,6.110260284472646998e-03,-1.168444201914381475e-02,8.107646627501054193e-03,3.614040017127990723e-01
1.042562768113796251e-01,-1.282421106589367588e-01,2.779823300847686918e-01,3.360952208296627552e-02,-7.748338785686225728e-03,-9.401067647855917281e-03,3.584150075912475586e-01
2.447576164179485758e-01,-1.240548218965824429e-01,1.928609228314745461e-01,-5.382915345618749167e-03,-2.388921975196933202e-03,-7.722199402980009075e-04,3.459502458572387695e-01
2.789703467438269802e-01,1.859422889621561992e-02,2.823601892873827124e-01,3.140705217283440518e-03,4.324367200981737297e-03,2.347252879705014755e-02,2.653835415840148926e-01
2.922152968134154039e-01,-2.562757647219570112e-01,1.135352326188723976e-01,1.248018867671270987e-02,1.166616613581468870e-01,-1.334382309164264258e-02,5.259237885475158691e-01
2.520076257309609158e-01,-7.181275623200644720e-03,2.500780822618745014e-01,3.980221044218348533e-03,8.277813583118658362e-04,-3.629696331280331256e-03,2.584020197391510010e-01
2.494200439334914310e-01,1.527556324835613322e-02,2.509570977861071972e-01,-4.479262373735124793e-03,1.331252070894558886e-03,7.971803327829685886e-04,2.350602149963378906e-01
2.396909341280985262e-01,4.661206132588274764e-03,2.400621765325280099e-01,-3.904191363877089916e-03,-1.592903341022375600e-03,-2.547143056755672187e-03,2.353702783584594727e-01
2.468373064610993040e-01,-1.272489398044483466e-01,1.567983848529495572e-01,4.204542385102334918e-03,1.212957415024511904e-02,-9.672102174153977827e-03,3.393232524394989014e-01
2.601768456537263408e-01,-1.281068369513435889e-01,1.177499221026346299e-01,-7.294325470458860666e-05,9.886804206058141808e-03,-1.678902198462412648e-03,3.406601250171661377e-01
2.695887633563999741e-01,-1.174235100093958123e-01,1.632489582502834047e-01,1.402908096920249190e-03,6.575960739189821817e-03,-9.393671114606209210e-03,3.468893170356750488e-01
2.548777837623015796e-01,-1.328527349990485384e-01,1.100279985436635327e-01,-7.757138732042443384e-03,2.984919643459190211e-02,1.125096467509711581e-02,3.440740108489990234e-01
1.179609014984418502e-01,-1.554096392980790775e-01,2.573257440078465796e-01,2.565033657796202821e-02,-3.847281884615880859e-02,2.187783748722058053e-02,3.743026256561279297e-01
2.213036917950783611e-01,-1.303033165630519408e-01,2.570792321130295210e-01,-4.053330876703195237e-03,-2.181035198808958016e-03,-2.516595376647404181e-03,3.709027767181396484e-01
2.747634210097558705e-01,-1.301838844239129045e-01,1.280926625156028065e-01,-6.207535374884923587e-03,4.284865006281778077e-02,1.006867017849421425e-02,3.633572161197662354e-01
2.521717507016942861e-01,-1.176425214351660142e-01,1.524884499238806090e-01,5.076880257723789119e-03,3.046306351814073374e-02,-6.664666939298353153e-03,3.359012007713317871e-01
2.502153151458857971e-01,-1.408352173879097724e-01,1.039712316226401589e-01,1.144921869096254190e-04,7.145517258649928399e-03,-9.988578247620644168e-03,3.428870737552642822e-01
2.557662509836136633e-01,-1.403291537025541935e-01,1.093982803842869500e-01,8.177076246615471887e-04,1.284032807507260593e-02,-5.809133175291031001e-03,3.477604687213897705e-01
2.266316389165526912e-01,-1.384851404218800375e-01,2.278843809176402946e-01,1.990319964245956894e-03,1.175697275758361745e-03,-1.439702961316962834e-03,3.657751679420471191e-01
2.715329754376206717e-01,-1.214691006287585279e-01,1.649450188447038057e-01,-1.977060151039365145e-03,-2.985643474426643434e-03,-1.224769125416406458e-02,3.527191877365112305e-01
2.963235539919633066e-01,-2.586916090541444557e-01,1.158187342570686507e-01,-7.545247181516606151e-03,1.137384339573407760e-01,6.987214934772697020e-03,5.287414193153381348e-01
2.291612751938957582e-01,-1.301643538084752416e-01,1.734518078052935119e-01,9.055530851991625690e-03,-1.190844185201295723e-02,9.035562081180156802e-03,3.363286852836608887e-01
2.543360070241436066e-01,-1.243230945752993033e-01,1.314949685569939686e-01,2.794041353218531528e-05,8.852128158222405136e-04,2.137633123239817551e-03,3.346248865127563477e-01
2.466003681889756549e-01,-6.881269874434092770e-02,2.586161962571226769e-01,1.875100534681439085e-02,4.463673975678651012e-02,7.352535634253985156e-04,3.323453962802886963e-01
2.589793864938352286e-01,-1.399749626516144652e-01,1.386771520122387358e-01,4.674897439763046197e-03,-1.707603278926053333e-02,6.340604633739753936e-03,3.559537231922149658e-01
2.627622337888174675e-01,-1.181847890895716124e-01,1.617754554196969563e-01,-3.717024241848394480e-04,6.931612575293229044e-03,-9.023539797229262333e-03,3.423991501331329346e-01
2.531883838962283861e-01,-1.242868742064918014e-01,1.521609440656013224e-01,1.215750727165236696e-03,1.296364716229939876e-03,-7.866882656021478848e-03,3.387534320354461670e-01
2.512186520694107417e-01,-1.225154707222389228e-01,2.189126586885476733e-01,9.948399727107960777e-03,-9.423819097430003247e-03,5.684739527841963999e-03,3.595932424068450928e-01
2.602146507690568100e-01,-1.178956187305853637e-01,1.561859207087917256e-01,-1.544529150644178769e-03,-1.683996441165176543e-03,-7.881946154293476350e-03,3.386105000972747803e-01
2.441993380459910323e-01,-1.289912213438768607e-01,1.250045553419135425e-01,-2.173042929449209466e-03,-1.637267779859039041e-02,1.451019808901184323e-03,3.313923776149749756e-01
2.770922538737311536e-01,-1.203598042378534738e-01,1.248338638383461319e-01,-1.001081188294278409e-03,9.487399859962123956e-04,-8.265288576295450572e-04,3.473371565341949463e-01
1.547105070881399647e-01,-1.408032254451805909e-01,2.216507351655747637e-01,1.681394383984229079e-02,-4.855265898763841403e-02,-4.091755609084776410e-03,3.457767367362976074e-01
2.410343666576253152e-01,-1.405709287145066599e-01,2.403617758970265639e-01,9.394626121795078902e-04,-1.977945502113648453e-03,-1.165717142300086353e-03,3.812936544418334961e-01
1.580880737609643427e-01,-1.358849047246505348e-01,2.023432688542611269e-01,7.528542912779438885e-03,-4.774188810343833050e-02,8.253578199297980159e-03,3.295462429523468018e-01
2.224547088631548819e-01,-1.122516259394500254e-01,2.052655987038563834e-01,1.471948871083207568e-03,-1.722095118240031184e-02,9.073601965763209353e-04,3.278248608112335205e-01
2.276031338428776696e-01,-1.282978312539913568e-01,1.574993935686215263e-01,-5.173782833950923976e-03,-1.813024407427671000e-02,-7.192066941377893603e-03,3.284077346324920654e-01
2.207999611934018669e-01,-1.196228276209465036e-01,1.838538983165263763e-01,2.399213704109625939e-03,-2.628231115762052345e-02,-4.202784483255603276e-04,3.267498910427093506e-01
2.344123860900849121e-01,-8.615990046067098507e-02,2.212847527913708312e-01,6.109723921103355979e-03,5.730285577403183145e-02,1.108632123555008606e-02,3.302455544471740723e-01
2.499191242677528124e-01,-7.208557450704430880e-02,2.578498294384347078e-01,1.286138965108376588e-02,8.423985952451928244e-03,-8.931742360665226093e-04,3.271317481994628906e-01
2.063324683574766505e-01,-1.203231237578096663e-01,1.952855336111216922e-01,-3.560940690411184943e-05,-4.252099850878318654e-02,-2.956204527492655929e-03,3.296478390693664551e-01
2.142702686627731001e-01,-1.267535988031338601e-01,1.646597051036117754e-01,3.265653673385210745e-03,-1.721040028053938409e-02,1.887509923372057523e-03,3.205797374248504639e-01
2.158451594419502906e-01,-1.197236214632945578e-01,1.871468041531451632e-01,4.306346748582429618e-04,-8.518992246932295329e-03,2.733033979172487613e-04,3.225185871124267578e-01
3.305394562747468457e-01,-1.170289946586260676e-01,1.733322214230436087e-01,-5.816002976898308361e-04,-8.872422735094859236e-02,5.615010597814399686e-03,4.223531782627105713e-01
2.460487196659520426e-01,-1.146933416000189554e-01,2.511506619903758897e-01,-4.669839621662293105e-04,-8.777676234205902166e-04,2.586352678661717631e-03,3.633515834808349609e-01
2.711184841539310275e-01,8.494710516749881535e-04,2.621615800395481477e-01,9.960606312159888537e-03,1.115221596482300192e-03,-2.684689824974263381e-02,2.704966366291046143e-01
3.674312350279013151e-01,-1.256636559184829971e-01,8.043211240568998166e-02,1.111070440276558380e-02,1.758062482539207716e-02,1.021816674981264328e-02,4.308179318904876709e-01
2.422382292325048758e-01,-1.251860860515858209e-01,1.708623396155780627e-01,-2.093179531868689849e-03,-2.887105581111027927e-02,-7.325264879537607410e-03,3.413863480091094971e-01
2.605531123733155763e-01,-8.751133237014704913e-02,2.536687842341228682e-01,-1.647644346002385962e-02,-1.488451573253073113e-04,1.706139255508234108e-03,3.458659946918487549e-01
2.734759395613511335e-01,-2.850951647574670456e-01,1.593745960857766847e-02,1.063798182803026807e-04,-3.226581768894665886e-02,1.820604606297666211e-02,4.884586632251739502e-01
3.553185053090781587e-01,-4.709607723481581965e-02,2.083066505393006973e-01,-1.489148422006732024e-02,-5.128007291076851215e-02,-1.234402322873423899e-02,3.652418255805969238e-01
3.501896525794163106e-01,-2.316137158992710443e-01,7.235224542647548940e-02,1.375366746400304326e-02,1.746881104251108568e-02,2.735240118412799425e-03,5.055170059204101562e-01
2.155895334040483224e-01,-9.226219067813046237e-02,1.881388872079285124e-01,-8.093167062175578991e-03,-6.345550494945988163e-02,-6.185605769765441762e-03,3.153832256793975830e-01
2.824820412266210723e-01,-1.173853629328145826e-01,2.001010829566726712e-01,-6.683005311152816728e-04,-8.921998067571007551e-02,-1.259695472698049018e-03,3.970211744308471680e-01
2.997008200185344862e-01,3.808242557275509643e-02,3.826882314946662977e-01,1.967365887198178204e-02,-1.091411320971023488e-02,-1.900885593489711964e-02,3.156653940677642822e-01
2.487065373523408562e-01,-9.290683873039307095e-02,1.555489666801431192e-01,-8.447659252386535006e-03,-1.922680517380357876e-02,-1.834509780906968049e-02,3.096560835838317871e-01
2.439149372756188594e-01,-1.310309427160506468e-01,2.231464009148958205e-01,-4.752953912837335967e-03,7.800820368835440465e-04,6.423390257989673637e-04,3.651020526885986328e-01
2.674899066617342780e-01,-1.273574111066225201e-02,2.637018797074344167e-01,2.253103056604289015e-02,7.686379012378567049e-03,1.522125760545514281e-02,2.826207876205444336e-01
2.475498678403644792e-01,-8.299275525127031150e-02,2.513451409310613061e-01,-5.433205865494885808e-03,-1.023968395508170412e-02,1.564522425742840422e-02,3.341627717018127441e-01
2.963261504469505980e-01,-2.483471519630898183e-01,8.516800631459880977e-02,1.330501410864567448e-02,-9.385086647976710605e-02,2.934086116727508547e-02,5.057491660118103027e-01
2.656565925701465103e-01,-2.707437020930719695e-02,2.383122941603612044e-01,1.163473780587884546e-02,3.118257883903852168e-03,-7.064298339142293997e-04,2.808404862880706787e-01
2.390407329203850240e-01,-1.384599578530996133e-01,2.362822174885775284e-01,1.039425128172218353e-03,-4.386794885767853988e-04,-1.759249297515305200e-03,3.761464357376098633e-01
1.890391817336042612e-01,-1.417845410662424976e-01,2.538795124498824940e-01,5.631181155375743382e-04,-1.039003892234246773e-01,1.055524407082158956e-03,4.092547893524169922e-01
1.195778432359728416e-01,-1.477884250726938520e-01,2.452148019320695149e-01,-9.140337963174680752e-03,-8.930900908478457689e-02,8.214933915186139329e-04,3.808430135250091553e-01
1.750212492901728201e-01,-1.149296516815633412e-01,1.812798268703964821e-01,1.374572859467685509e-02,-9.835546319601776166e-02,-1.019072832530604558e-02,3.403309583663940430e-01
2.422560919129156387e-01,-8.312107311271305088e-02,2.468255619148150282e-01,2.694691125970532543e-03,4.640796921171590379e-03,1.733808541047716922e-02,3.291902244091033936e-01
4.082624621405596121e-01,6.627846527510020125e-02,4.294505003785261121e-01,2.295812593113163991e-02,2.397585545195145967e-02,-9.278895376862467126e-03,3.580670356750488281e-01
2.152632195778894642e-01,-2.135807132099433736e-01,1.753892173524498332e-01,-1.807200491396347697e-02,1.408585085388879832e-01,3.582452589942732024e-02,4.824424088001251221e-01
2.495860800984290029e-01,-1.284093006169257090e-01,2.353950490172421472e-01,-1.770964988674215285e-03,-7.430121703783172833e-03,1.282878947894510163e-03,3.713458180427551270e-01
2.608858052056305943e-01,-8.931669911834100306e-02,2.679234195232036986e-01,4.340826888373132755e-03,6.169536473811227870e-03,1.561448246719599267e-02,3.550465703010559082e-01
3.840355964246242593e-01,2.498103577624030680e-02,3.291961804631501343e-01,6.924618969337078059e-03,4.132598079463434271e-02,-2.841666121657209984e-02,3.463048934936523438e-01
2.295305138436712078e-01,-1.137560772378719137e-01,2.090648505004888968e-01,-5.700233545941849750e-03,-1.188491368195005067e-02,-6.442499055716218934e-03,3.344916999340057373e-01
2.318532652489274093e-01,-1.294913140348779856e-01,2.399963842388493362e-01,2.602084966061523588e-04,-5.194426827909452184e-03,5.723793791495767821e-03,3.657295703887939453e-01
2.537804159601966258e-01,-1.350010021072098332e-01,2.357535021748615178e-01,5.602735674821743370e-04,-3.885630263605368271e-04,-3.971934566026238782e-04,3.800911605358123779e-01
2.554455575508741694e-01,-1.246219485581197273e-01,2.375011955275218578e-01,-5.562559976706748805e-04,4.334288179979668698e-03,6.476235571352325368e-04,3.714993596076965332e-01
2.507635669678633383e-01,-1.206927554229830640e-01,1.685728768816877610e-01,-2.632627023861898365e-03,-9.297909775211045348e-04,-6.736337548845615884e-03,3.381780385971069336e-01
3.014793577542719261e-01,-1.243210628822496999e-01,1.779357296729895677e-01,1.147453643438357124e-02,-7.071696196995429229e-03,-2.285094982929784975e-03,3.801641464233398438e-01
2.763788123519925199e-01,-1.346586003950828725e-01,7.877556879960381786e-02,3.993462078903825888e-03,-1.918801778462031135e-02,9.045517853630653457e-03,3.580144047737121582e-01
2.568091872462713865e-01,-1.311357486115526938e-01,2.369213000982260953e-01,-6.879220453893063452e-04,-1.096668041763116454e-04,-1.068380242480104693e-04,3.783951401710510254e-01
2.442613263629931086e-01,-1.366597958694585058e-01,2.253894569734782305e-01,-9.854010766880854678e-04,2.774888882841444250e-04,-4.031221433309532115e-03,3.719142973423004150e-01
2.569064208100123592e-01,-8.741021468668963568e-02,2.515831122330275393e-01,1.127752412306616027e-02,-3.668852321075405528e-04,-7.310119354826428995e-04,3.422468900680541992e-01
3.679037471132335924e-01,6.522881672355346216e-03,3.122606602668229758e-01,3.273010512722818177e-02,-7.028907573045592438e-02,2.650940954248826725e-02,3.656878769397735596e-01
4.439483126781331723e-01,5.791596727553291468e-02,3.563044644924542315e-01,7.412436096663737456e-03,-1.998533958637615723e-02,4.875342631113141478e-02,3.624400794506072998e-01
2.440048076590283221e-01,-9.523085388730226364e-02,2.558747796176580880e-01,3.440227247116286764e-03,-7.276477643629152524e-03,1.768512608021138074e-03,3.456185460090637207e-01
2.387826136225898455e-01,-1.377322550969132253e-01,2.366665366245638835e-01,4.004557402717762518e-04,1.060177967024410021e-03,1.612827866651920638e-03,3.754768371582031250e-01
2.193715908012672244e-01,-1.252074458627962239e-01,2.134246582189842645e-01,4.253702286732351234e-03,-1.006517726215400924e-03,7.552236587832321379e-04,3.417307734489440918e-01
2.571863684774164938e-01,-1.330564176525114717e-01,2.255712816809750387e-01,8.669159301818357699e-03,-8.629441372258843390e-03,1.171095666585341560e-02,3.765789270401000977e-01
2.378094347458457603e-01,-1.382599472068658797e-01,2.399749094590814258e-01,4.048033338108545862e-03,1.868495159569782049e-03,3.537619688045350822e-03,3.772855997085571289e-01
2.816938952805831953e-01,-5.022262641755925738e-03,3.588701519600590029e-01,3.638972229943162034e-03,-4.244928305896440018e-02,1.037556427980178622e-02,3.406736254692077637e-01
2.520686595705562416e-01,-1.273971333716585330e-01,1.585942942557041491e-01,3.718175260677493259e-03,-3.123978061377318503e-03,9.857740155938200105e-03,3.429631292819976807e-01
2.014349181764001906e-01,-1.301624617057916544e-01,2.457632928096354918e-01,5.772798395239843450e-03,6.788023422680731361e-03,2.585528657743835224e-03,3.562011420726776123e-01
3.176030294753514061e-01,-8.942276469739698919e-02,1.570226001085073819e-01,2.193700164402674277e-02,9.486295523296196797e-02,5.659942897921225492e-03,3.932332992553710938e-01
2.511035075765419844e-01,-1.202304248384549468e-01,2.434447328400659305e-01,-3.952930759958970218e-03,-7.913479379163115141e-03,3.021975346773705332e-03,3.679208159446716309e-01
2.517904985057397571e-01,-1.334048376652047785e-01,2.383458732975530792e-01,9.897225819856130848e-04,4.210876690005640847e-03,-5.370480660633377822e-04,3.787273466587066650e-01
2.493215123570321767e-01,-1.371465095386818767e-01,2.344712086247448535e-01,-2.695189689999259296e-03,-3.795422411262056104e-05,3.132669777726771474e-04,3.792901039123535156e-01
2.404648815863692501e-01,-6.838856951234878467e-02,1.877277880720596426e-01,-2.522963468585007543e-02,-5.561383520492983040e-02,-4.623871028567740071e-03,3.051820099353790283e-01
2.526993099388327169e-01,-1.339036481892944275e-01,2.331606853237379318e-01,-4.294054948799581385e-04,2.112507657608542287e-03,-3.248950972893754072e-04,3.772322535514831543e-01
2.442379687862393234e-01,-1.135965090488346985e-01,2.484836949967883513e-01,-2.499958372077251863e-03,-8.015548225393461651e-03,-1.538102720509907555e-03,3.602796196937561035e-01
2.007590796283717505e-01,-1.788834664423064602e-01,1.410888322373024528e-01,8.719694474633365652e-03,1.089460565960458927e-01,-1.971672828899168062e-02,4.025390744209289551e-01
4.308913067660823382e-01,5.313938853127012085e-02,3.814055656135212358e-01,-1.992444734908467574e-02,-1.897152782834123086e-02,-3.548653841016455313e-02,3.640063405036926270e-01
2.585895633633822910e-01,-9.845851215872164497e-02,2.355823927607363921e-01,7.184718336404021487e-03,2.868265324570763546e-03,4.477830436077449567e-04,3.463785946369171143e-01
2.549591984629230312e-01,-1.285727538288494454e-01,2.355310717664431119e-01,-6.555320764141897658e-04,4.721574219183074551e-03,7.216667318913896553e-04,3.742895126342773438e-01
1.619205299815581478e-01,-1.162990506256836726e-01,2.539680602667891973e-01,-6.511624711646554764e-03,-1.635929942590393267e-03,-2.830891490662784150e-03,3.341370820999145508e-01
2.420856473616675442e-01,-1.835025899656732573e-01,6.841859741090705604e-02,-7.707738080426204327e-03,9.407638006125326746e-02,2.481754001527993608e-02,4.073720574378967285e-01
2.382885061617230349e-01,-5.465107119837844807e-02,2.569723823280247732e-01,8.975170444647685838e-04,-4.288762692228336934e-03,1.384781711346014244e-02,3.037578165531158447e-01
2.373691334612591242e-01,-1.365921879191323296e-01,2.413051027951424732e-01,4.569299386400453925e-03,1.114329003678488127e-03,-2.819436256219802137e-04,3.760333359241485596e-01
2.374284454808952005e-01,-1.351855885093322662e-01,2.488808183476262093e-01,-1.579489261386361992e-04,-1.136329987740625774e-06,-1.233313814631228781e-04,3.784703612327575684e-01
4.577668107407401044e-01,7.600763048476000261e-02,4.731522972744131028e-01,-3.830104593802655111e-02,-1.372091688764434311e-02,-1.118340918196844905e-02,3.964734971523284912e-01
2.969619277851482941e-01,-7.833040464218121723e-02,2.129564421961924192e-01,2.532169298788408858e-03,-8.283693642084219433e-02,-8.528645500579757829e-03,3.704024255275726318e-01
1.046363982273050552e-01,-1.380550221829537072e-01,2.557608701609121460e-01,-1.125316850348284312e-02,-3.184394278736999741e-03,-2.402169966182100044e-03,3.447346389293670654e-01
1.858033696740267748e-01,-1.440848549946187607e-01,2.708068159867034197e-01,-1.006226188129092161e-02,1.954544439857405433e-02,-4.334550580163812122e-04,3.815020918846130371e-01
1.465007407783770477e-01,-1.139473632411388271e-01,2.618629531907882280e-01,-1.375614434874761465e-03,8.358766384526934712e-03,7.734758576685043900e-04,3.337732851505279541e-01
9.972723676222799982e-02,-1.366376851972713746e-01,2.563187237954321906e-01,6.612993154609865878e-03,-3.721927211915373578e-03,2.292694010148443786e-03,3.429147601127624512e-01
2.349875922548482765e-01,-1.170403189027014179e-01,1.802715300292488387e-01,2.649102695032116463e-03,4.153181683562176194e-03,8.076386378431383954e-04,3.282234966754913330e-01
2.199533843161035063e-01,-1.467898269239844289e-01,2.513420538375681357e-01,-3.177649283537195297e-03,1.079663117650120491e-01,-2.703925576701906100e-03,4.266377985477447510e-01
2.005982904425086810e-01,-1.373361403763477540e-01,2.392456480429974441e-01,1.086915203522651786e-02,2.584130960655235936e-03,-6.828789248349816446e-03,3.595384657382965088e-01
1.496835274732871424e-01,-1.329791300983989843e-01,2.500049179912990360e-01,-1.197748189850469241e-02,2.645565563236519386e-03,5.847961236293294437e-03,3.447805643081665039e-01
1.089976535353365250e-01,-1.507718726390492314e-01,2.506304327658896436e-01,-1.751054608608521371e-02,1.876513911659628484e-02,9.795787861677890743e-03,3.558034002780914307e-01
1.534664642798714840e-01,-1.156235608994095054e-01,2.634530451528571682e-01,3.575983339696025675e-03,-3.904857292236712119e-03,2.114103707264834795e-03,3.379353582859039307e-01
2.357369099432228832e-01,-1.401882148994685884e-01,2.356648065926027491e-01,-1.280665742110886256e-03,3.807338635680327450e-04,1.628368472357937967e-03,3.759067952632904053e-01
2.437698572189892499e-01,-1.321507494796312632e-01,2.398337196336443045e-01,-6.489667267300380793e-04,6.352237678341541953e-03,-3.958537777441044087e-04,3.741322159767150879e-01
1.329107570670275684e-01,-1.179583036499850940e-01,2.511828251602345463e-01,-1.811392373124399297e-02,5.195871722459543401e-02,-4.945661915335334072e-03,3.402222990989685059e-01
2.486838618144084356e-01,-1.491189442920871633e-01,2.111156748571285102e-01,-1.708629135593390039e-02,1.732978676285478609e-02,1.356449379084160960e-02,3.834612071514129639e-01
1.611115013229774129e-01,-3.013675913829034214e-01,2.027117445762093850e-01,-1.077554680634998721e-02,1.485738898813607489e-01,1.960284736009552248e-02,5.500731468200683594e-01
1.421745485205890280e-01,-1.560128189124267983e-01,2.503209149386709798e-01,-1.641119036383342084e-02,1.078762080053502076e-01,1.352994383765410450e-03,4.105904698371887207e-01
1.212213989847976264e-01,-1.314759036425646177e-01,2.527522969545754061e-01,-2.591170741105626452e-02,2.626657099424465139e-02,-5.530529162493882673e-04,3.442074656486511230e-01
1.265741477842428075e-01,-1.282666139026666929e-01,2.555983650813887786e-01,-5.667486427442753293e-03,1.300933128514831366e-02,-1.509279199103754189e-03,3.392382860183715820e-01
2.087843042416071548e-01,-1.231791965368886355e-01,2.151452407992587856e-01,2.162419353783221962e-03,3.892600846695061685e-03,-4.099859684439011512e-03,3.353531658649444580e-01
2.254862251035826826e-01,-3.845256043015998770e-02,2.842342139306532900e-01,2.007146535832779639e-03,8.520840083281709665e-03,2.102365912874870450e-03,2.981007099151611328e-01
2.954607499838545204e-01,-2.562536553043922583e-01,1.002606227012718398e-01,2.205648251291934814e-02,1.110071845586257655e-01,-4.318236401024517362e-02,5.280327200889587402e-01
3.214526922072352688e-01,-2.888710876336615385e-01,4.630206089841872041e-02,-1.657155127911730252e-02,6.828146492301817583e-02,3.913285551600541312e-02,5.474277138710021973e-01
2.433617093665303432e-01,-1.382237973377933304e-01,2.393584690341708232e-01,9.263718413636534959e-04,5.468034432725003488e-03,1.213408812515887926e-03,3.797270655632019043e-01
2.214868027535771555e-01,-2.660455837377278532e-01,1.749121323727086397e-01,3.011658899364921902e-03,1.381964715391949539e-01,-1.347184206036823075e-02,5.244204998016357422e-01
2.971198941705956997e-01,-2.745357511104426496e-02,2.340165740099577896e-01,6.752855648500592084e-03,7.819856748013128897e-03,7.158572107252640128e-03,2.988683581352233887e-01
3.387032489877342956e-01,-7.092501569820552909e-02,2.192302047019998590e-01,2.182785988990041878e-02,7.817454753980439264e-02,2.921042823255256497e-03,3.910477459430694580e-01
1.674562534000308411e-01,-7.828690106926428083e-02,3.280549807772648596e-01,1.529886405639903878e-02,3.791701959856169646e-02,-6.412019294208458299e-04,3.614750206470489502e-01
2.514782316055719225e-01,-1.297185818035139215e-01,2.170685306196956654e-01,3.732915951575321856e-03,1.074783772299016160e-04,7.272272224328158678e-04,3.652692139148712158e-01
2.448280797914925699e-01,-1.539679125313908603e-02,2.891514186842250589e-01,1.429948364494518231e-03,1.421414184332688707e-02,-2.273359919448934841e-02,2.887529730796813965e-01
2.513186119305262367e-01,-5.444375133993159532e-02,2.827327646342140954e-01,-1.092082221799770339e-02,-2.987987927750092570e-03,7.935104939312438710e-03,3.235061168670654297e-01
2.915599910069087697e-01,-8.770469210752868117e-02,2.709250924489374213e-01,-6.851490411228021264e-03,-1.196047459740417866e-02,-2.317311304420208509e-03,3.701722621917724609e-01
2.429495682853020921e-01,-1.386424622046828203e-01,1.257500549373380683e-01,5.472426042564887232e-03,4.021430469540112490e-02,-7.474627178858520189e-03,3.460271954536437988e-01
2.477355184544244304e-01,-1.358423578888762751e-01,2.394097050511652669e-01,2.682586296184061043e-03,1.791144448945441742e-03,-1.381342977522645758e-03,3.795321285724639893e-01
8.810583244394272484e-02,-1.961531113881747612e-01,2.288855258916443203e-01,-1.821585463079340023e-02,-8.398195892233105420e-02,-1.010119268043909412e-02,4.038569331169128418e-01
2.471864408918580946e-01,-1.237304457927510953e-01,2.369713268652983151e-01,-1.311481432033109349e-03,-3.677683531641420724e-03,-7.209492328327140719e-04,3.659808933734893799e-01
2.568004646226654253e-01,-1.322559282476151732e-01,2.365263135490403845e-01,9.115614636969573189e-04,-2.736285118787022295e-04,1.920141207244138184e-04,3.793296217918395996e-01
2.533420523950224990e-01,-1.351060611491222696e-01,2.354836409797442243e-01,-4.185236091687842270e-04,-3.693648600964670936e-04,-9.743419048804757940e-05,3.798351585865020752e-01
2.540529130372537470e-01,-1.341389182034083694e-01,2.383370696223849061e-01,-4.434533059940384955e-04,-6.146146485671761823e-04,-9.760333736440994501e-04,3.805833756923675537e-01
3.615382095007575458e-01,-1.590620268625254630e-01,1.096143052126324624e-01,-1.071824849213592196e-02,9.447309818216821642e-03,1.754390737261153632e-02,4.526305198669433594e-01
2.284019379479454437e-01,-1.367551202868208526e-01,2.437874968392924058e-01,-4.984281674479824550e-03,1.660430142938651866e-04,3.238374623720202683e-03,3.732299804687500000e-01
2.469416732608121223e-01,-1.237627647486769927e-01,2.437404468951065439e-01,-2.101555589182964312e-03,8.017359941326957298e-03,-1.650365216506290535e-03,3.694043457508087158e-01
2.218613966270739091e-01,-1.235605660778507087e-01,2.859948904856674523e-01,-1.683672831798636166e-02,-1.486608364121643454e-02,7.960810349013302221e-04,3.835334181785583496e-01
2.380970936070435640e-01,-1.360938188751827926e-01,2.452725021898958802e-01,2.955296002583436554e-03,1.564876687240260343e-03,1.941004669855299347e-03,3.778890669345855713e-01
2.388110632197971150e-01,-1.370326492330816992e-01,2.453855206224940522e-01,2.821433456112827989e-03,1.031103080153276171e-03,2.451830444801162377e-03,3.792331516742706299e-01
2.372623886361896473e-01,-1.329914787611644056e-01,2.511650902330011537e-01,2.752524809708834820e-04,4.165387459918918484e-03,-1.526425137054082150e-03,3.774758279323577881e-01
2.356287067562039539e-01,-1.378671003152725227e-01,2.475059236592732359e-01,1.742000526533855420e-03,1.093517913782342341e-03,2.724442853834220871e-03,3.796198666095733643e-01
2.539650185136958505e-01,-1.311659638047031895e-01,2.250791092930930215e-01,-5.327341573811397030e-03,2.591187812685714518e-04,-7.728087724199882158e-03,3.718869686126708984e-01
2.073344059687967644e-01,-1.262746007390981307e-01,2.100873145285995225e-01,1.989628033119947119e-03,4.569073289500705411e-03,-3.882595138830532977e-03,3.351725935935974121e-01
2.315764115617740260e-01,-1.209417165580329856e-01,2.630567330327306941e-01,1.526514278809099805e-03,-8.383850483426386058e-02,-5.971428706299278591e-03,3.969358503818511963e-01
1.853411535256964393e-01,-1.486304604120569084e-01,1.772166089227388830e-01,-2.175347611019748037e-03,-7.845074982562935673e-02,1.003387470358278050e-03,3.568899929523468018e-01
1.883589917285600768e-01,-2.695385714533143906e-01,2.020953087293358152e-01,8.216810160180231665e-03,-1.394180569808937675e-01,6.839065075482924239e-05,5.240834355354309082e-01
1.350675845987154011e-01,-1.523545725032157128e-01,3.636658623228644083e-01,1.090018736549164084e-02,-8.307011158481716895e-02,-1.345815359188454142e-03,4.707830548286437988e-01
1.698638195115828031e-01,-1.645553012505103219e-01,2.566260462447383928e-01,1.385938247506196368e-02,-9.765578767587176565e-03,1.325580063171525984e-02,3.869990706443786621e-01
2.385665908238842892e-01,-1.345686281624998426e-01,2.374315658944581853e-01,-1.303460269173852687e-03,1.585626821479156102e-03,-3.729536278490859155e-03,3.726419508457183838e-01
2.270158264268314907e-01,-1.239044678090184676e-01,2.072789903735413053e-01,-7.337872359487231273e-03,-1.127402178052815465e-02,-6.287498418152792645e-03,3.424470424652099609e-01
2.358654204184165160e-01,-1.468699179379323316e-01,2.660045228625266267e-01,5.998171480229338992e-03,-2.223579685853999295e-03,9.404903720535325029e-03,3.991467356681823730e-01
2.682312444348491920e-01,-1.689868217884491486e-01,1.603888384080380813e-01,-1.594551926185433944e-03,-3.362495429338134556e-02,3.787805154950221482e-03,3.988502919673919678e-01
1.963041648541097028e-01,-1.426193136823671881e-01,2.038939472137553943e-01,-1.657715813007217334e-02,-3.610392150123514776e-02,-1.959919878571580315e-02,3.512639403343200684e-01
1.778169629944934549e-01,-7.621047035588279783e-02,3.638977966229588468e-01,2.815793691098624537e-03,-3.888065486499406309e-02,-1.256447472941219293e-02,3.891762495040893555e-01
2.563481947744965517e-01,-8.490159838192889996e-02,2.749524721232403657e-01,-1.044777932563638323e-02,-1.622122053160238858e-02,2.008615722435231916e-03,3.525268733501434326e-01
1.351151191884173985e-01,-1.525806117686309971e-01,2.612894275803320232e-01,-1.594619386358112761e-02,2.437710135845164855e-02,-2.193375550389618442e-03,3.708754479885101318e-01
2.203311265313901424e-01,-5.761274250263243024e-02,2.646334862266643828e-01,2.579651753182059595e-02,-5.343427188150456225e-02,1.563837874087643841e-03,3.195284605026245117e-01
1.540333335365506873e-01,-1.329149754270692041e-01,2.510385424657242126e-01,-1.361947592547866487e-02,2.566186882819164374e-03,4.298886268376969980e-03,3.467224836349487305e-01
2.193386943292579550e-01,-1.208914861940867114e-01,2.077696672206532091e-01,5.265784488595181591e-03,-2.063265212272253919e-03,1.043681779837600174e-03,3.347439467906951904e-01
1.906167325027776638e-01,-7.482718161239085286e-02,2.550681677426244742e-01,1.607378399610070313e-02,-3.081177463640098410e-02,1.955065360827593079e-02,3.106325566768646240e-01
2.225024893990954766e-01,-1.281315378471923339e-01,2.067042227880653282e-01,-9.860340401608363309e-03,-1.140171899124734281e-02,-6.946997156259912022e-03,3.442104756832122803e-01
1.699770792914105655e-01,-1.148612363335957953e-01,2.362852736668643872e-01,1.499152586157018879e-03,-1.742060952761484774e-02,1.285218130370121680e-03,3.245595395565032959e-01
2.217642268550379103e-01,-1.264833003250159515e-01,2.598341044580312342e-01,5.477945035248056767e-03,2.306607737064880932e-03,-2.759747010108884544e-03,3.689339160919189453e-01
1.740136122285422249e-01,-1.259093344216343779e-01,2.414309433697251484e-01,5.881120481051954011e-04,-4.755475846177082940e-04,-6.056610852762329966e-03,3.388667106628417969e-01
2.378629164310340771e-01,-1.390157507598498710e-01,2.445057807822577922e-01,1.152161048023795081e-03,9.830782128279877321e-04,-2.567189841893440265e-04,3.802529275417327881e-01
2.225273909387729399e-01,-1.310514784980585656e-01,2.448258506643053722e-01,2.229237304869354820e-03,-8.159555024515999233e-03,7.150584359143312939e-03,3.657424449920654297e-01
2.576312145864817493e-01,2.517506751174355961e-02,2.584301451934079008e-01,1.025659301238983009e-02,-4.722378977451563431e-03,-1.076494897964929559e-02,2.344191968441009521e-01
2.476561146685340720e-01,-6.384759854995825101e-02,2.496241504136812450e-01,3.133205983227463440e-03,-3.297912459136953322e-05,-1.605553460382197440e-03,3.125518858432769775e-01
2.234413439934208601e-01,-1.244723184772806301e-01,2.399134284094752712e-01,-8.328325223846504838e-03,5.002576166959400196e-03,9.543775913880104406e-03,3.572149574756622314e-01
1.500778429326384833e-01,-1.573219571891812385e-01,1.702645577879134398e-01,-1.437341521674888670e-02,-9.355020703421035311e-02,-1.228356122082562701e-02,3.583781421184539795e-01
5.642103064299824194e-02,-2.276131985418893278e-01,3.711495459789025952e-01,1.705012423098827695e-02,-2.541566801890339511e-02,-2.517119819978599297e-04,5.214722752571105957e-01
2.521377457323891180e-01,-1.597274624797945242e-02,2.490668334416861474e-01,6.385338138184045755e-03,-1.674967439833940615e-03,-3.839228636633042376e-03,2.669162452220916748e-01
2.431729619034783130e-01,-7.232200926743295732e-02,2.401017506600507667e-01,7.766526347621378890e-03,4.824171226298302508e-03,-5.997411628624637822e-03,3.145413100719451904e-01
1.687950208139547548e-01,-1.225932890052246205e-01,2.306616314434846993e-01,8.507972706781619923e-04,1.038151679570913956e-02,-3.355930013888451177e-03,3.272936344146728516e-01
1.728041589930928712e-01,-1.357433120969699369e-01,2.237213920747688212e-01,-1.155549477334792685e-02,-1.595031867819085222e-02,-8.194628219964864707e-03,3.389244377613067627e-01
2.441414948425021381e-01,-2.365563406619425324e-02,2.398102784475279747e-01,7.416144898637692419e-03,-4.971808397367742313e-03,-8.062484749380312982e-03,2.664738893508911133e-01
8.078663903197076668e-02,-1.260823547888258456e-01,2.704735671836567823e-01,-6.427203281014930332e-03,-4.920472560678528645e-02,-1.361449501936044630e-02,3.549078106880187988e-01
2.486093934658329396e-01,-1.726238387242515215e-02,2.476024858431132847e-01,1.212693301816667249e-02,-6.558247035600288681e-04,-4.843831908816627688e-03,2.663343250751495361e-01
2.487941511112662929e-01,-1.375276533982546234e-01,2.378293460441258111e-01,1.340384412103028371e-04,-1.204661374396596507e-03,1.340183714687932966e-03,3.809706270694732666e-01
2.391312710825344579e-01,-1.389227267586247705e-01,2.376308449977673209e-01,-1.838890928777704627e-03,-1.923840948012304575e-04,3.184918134665691482e-03,3.773599267005920410e-01
2.559859733749004218e-01,-1.228243194471053262e-01,2.389107652722402553e-01,8.376828069449419314e-04,-4.872105306777325603e-03,1.183079270820389193e-03,3.706724345684051514e-01
1.252979542160287951e-01,-2.518506335345635505e-01,2.488444676961241997e-01,-1.124064436529247438e-02,1.113213589575298978e-01,7.444477081542027162e-03,4.917548596858978271e-01
1.870579927169022660e-01,-1.222906393166909716e-01,2.115377311479633149e-01,2.187401179661507301e-03,-1.232759591406908453e-02,-9.684391050127465748e-05,3.230153322219848633e-01
7.398279533550053411e-02,-1.331880433643723161e-01,2.952893309793832577e-01,-7.301974351470286173e-03,-1.004459554919056967e-02,-5.093089797918271683e-03,3.718670010566711426e-01
2.169374180862939927e-01,-1.311762272050452927e-01,2.261751399096306181e-01,-3.099343616064210993e-03,4.409224992923266718e-04,5.594866464761000940e-03,3.529979288578033447e-01
2.091471498225113690e-01,-2.516062824136217624e-01,1.713438555653871154e-01,-2.086689594739129378e-02,1.411890903122457186e-01,2.619861580064656442e-02,5.093851685523986816e-01
1.874331489617653002e-01,-1.630319219970977618e-01,1.243492322186740551e-01,-6.719145997247199034e-03,1.202220104270540213e-01,5.260275589651108342e-03,3.850650489330291748e-01
2.158538448877477811e-01,-1.233025743238703870e-01,2.298102623204761330e-01,8.866423935229100772e-03,9.608375331247734699e-03,-9.871312943520527475e-03,3.475059568881988525e-01
2.360062800731729249e-01,-1.370026609163859099e-01,2.319292326778622793e-01,-4.913099658193408395e-03,-1.297279414160559070e-03,2.029307181683564620e-03,3.711082637310028076e-01
2.236631157243495482e-01,-1.341217020587218700e-01,2.309543250116839197e-01,-1.079047208707742747e-02,1.494838404239126096e-02,1.601249200422744448e-02,3.639515042304992676e-01
2.379737000062503438e-01,-1.510698128389749151e-01,1.471770670808792980e-01,-1.062421123166934489e-02,-3.016036780204051429e-02,-2.202322464189029882e-02,3.588839173316955566e-01
2.535972710447720879e-01,-1.180413691364388395e-01,2.507276293338390749e-01,9.559644669508095619e-03,1.106607528036801652e-01,1.175927020777443530e-02,4.177121520042419434e-01
2.792444018327571165e-01,-1.536488508678202081e-01,8.457636936911223924e-02,1.230499723550902268e-03,-6.433507929493348376e-03,2.306600210925544708e-02,3.778181672096252441e-01
2.344356713462390496e-01,-1.379668179641558023e-01,2.369189734483758969e-01,1.028662884903348146e-03,1.304452351078062020e-03,4.258610290910756768e-03,3.737342059612274170e-01
2.251868827079451796e-01,-4.978777456232844068e-02,2.281998415482795195e-01,-4.797486342546083624e-03,-3.793516329904433881e-02,1.959752252309441070e-02,2.863338887691497803e-01
1.283222056187089399e-01,-1.411036549859449596e-01,1.888476861199172852e-01,4.214804590052745326e-03,9.070589122923404524e-02,-1.067783443944547890e-03,3.424910902976989746e-01
3.295939017448635266e-01,-1.278049667724470706e-01,1.045581089910437439e-01,1.772998413675594409e-02,-5.776527127649688786e-02,-5.463595025432137209e-03,4.098375439643859863e-01
2.440199916644492095e-01,-1.393795910743758082e-01,2.393005848156262161e-01,2.093757641962317199e-04,2.343836866971014260e-03,1.747168077219237630e-03,3.810956180095672607e-01
1.383147688480890203e-01,-2.462862408184252894e-01,2.435809909464199396e-01,-2.487282985695960305e-02,1.098610197031962415e-01,1.196441752019857842e-02,4.878300428390502930e-01
1.175870828463563278e-01,-1.303208475588059356e-01,2.813432133605319185e-01,-7.221239845683066066e-03,-3.156187813277326962e-03,2.712856238510168681e-03,3.592760264873504639e-01
2.607627975870070447e-01,-1.264406946048469149e-01,1.730097746392686986e-01,-5.071842408830294288e-03,-2.741886232038311111e-02,-9.287276739070359291e-03,3.553029298782348633e-01
2.356132117248371238e-01,-1.377083142425645224e-01,1.094507019586595242e-01,-3.164788132686491978e-03,-3.236522068456408607e-02,-5.415058017157854502e-03,3.338372409343719482e-01
2.395194081633166827e-01,-1.587099534165352099e-01,9.921845423478273251e-02,8.270013358055850264e-03,-7.886443624174800660e-02,6.982744251961501072e-03,3.760442435741424561e-01
2.472088447107758935e-01,-1.218360824404575993e-01,2.430531452263306469e-01,2.631302851829735515e-03,-1.068904235845053938e-02,-3.955658788372860835e-03,3.675435483455657959e-01
4.514312779199863152e-02,-2.326116682685308856e-01,3.643838544125089229e-01,-1.152944028314455485e-02,-3.931644405677070520e-02,-5.082149489754241717e-03,5.223472118377685547e-01
2.460124079128455099e-01,-1.181661485930056016e-01,2.320436962037736583e-01,4.044406634695863964e-03,2.149278873653771849e-03,3.711559134610249939e-04,3.574875891208648682e-01
3.439458416658967010e-01,-9.004434881806480662e-02,1.520367011279535885e-01,8.987633388925374625e-03,9.552848348048682825e-03,-2.605526240112939623e-02,3.800561130046844482e-01
1.969684172851934312e-01,-1.309043839379579188e-01,1.736934959956070446e-01,-1.355302626354176060e-03,-3.283933500932669641e-02,2.453585930462222559e-04,3.219503760337829590e-01
2.446755165299246693e-01,-5.643134884169848098e-02,2.439968983115979317e-01,-1.197640356019043489e-03,8.011345338743803418e-03,7.932346321052188148e-03,3.014084994792938232e-01
2.373152856210364869e-01,-1.384915058525675313e-01,2.357451869421111068e-01,2.842343966909365721e-03,-5.256724895893083623e-04,6.753627252499235824e-05,3.750576376914978027e-01
2.290359087034680718e-01,-1.393291518177610377e-01,2.361157383070899562e-01,3.526662059427332265e-03,2.380246034986393101e-04,-4.948366385723153120e-03,3.721046149730682373e-01
1.884047753842500172e-01,-1.230761938834898650e-01,2.296486187960799508e-01,5.750123361534995731e-03,-2.232570958592296206e-02,7.035727988110160834e-03,3.366171717643737793e-01
2.507361381635416775e-01,-1.332399328370288960e-01,2.392391111821322858e-01,-1.556115678320614364e-03,-3.402320836646541020e-03,-3.018249395701283130e-04,3.784144520759582520e-01
2.468571357605306438e-01,-1.362801856788428689e-01,2.378540333285095731e-01,2.005010936620620250e-03,-9.143738942360291467e-05,-2.093602127276357819e-03,3.787493407726287842e-01
2.478400299155029685e-01,-4.591292069086616578e-02,2.370542844044210007e-01,-8.436589009655316024e-03,-1.664152111832814182e-03,2.742102535483130227e-03,2.889345586299896240e-01
4.143725194557396629e-01,9.424979110876416377e-02,4.417297440598035307e-01,2.137326844049610222e-02,2.042738606974119422e-02,-1.086196955163173244e-02,3.390588164329528809e-01
2.316154473334221531e-01,-1.266193088017660284e-01,1.953372741143768465e-01,6.432294101783467798e-03,7.742794824042264872e-03,-4.464522045019354195e-04,3.419893383979797363e-01
2.332886065176297263e-01,-1.238396640378686131e-01,1.850916854113635879e-01,7.457943991238856485e-03,1.901830640441730391e-02,-1.024550850693328567e-02,3.379614353179931641e-01
2.508371141295659412e-01,-1.298279134698518411e-01,2.133507980098645895e-01,-3.012315855563464477e-03,1.143910408243862947e-01,1.346369917111793837e-02,4.145700335502624512e-01
2.389591447670867119e-01,-1.360269113661859430e-01,2.414558159232689238e-01,3.012335926405795925e-03,-1.179254818498383459e-03,-1.585937710617485582e-03,3.762923479080200195e-01
3.266979522360980437e-01,-1.952157784114132710e-01,1.353177527088433862e-01,-9.181485908217948411e-03,9.703313930276805110e-02,3.475588605330177938e-02,4.911817014217376709e-01
2.534065955441653917e-01,-1.322663792159411433e-01,2.548015267628827019e-01,-1.023458109732750757e-03,-1.322345561727292880e-03,-3.193681083014458886e-03,3.864227831363677979e-01
2.457541959423737987e-01,-1.064795461857280801e-01,2.458298396482682946e-01,-9.121949146237673086e-04,-8.166883450294915719e-03,1.279368851290937394e-03,3.525659739971160889e-01
2.482148925445886167e-01,-1.239985989818155609e-01,2.560147718078191192e-01,-1.060280115622619368e-03,-1.582674097321021744e-03,-4.475479619573964271e-03,3.762684166431427002e-01
2.498624960305903531e-01,-1.308943906703555760e-01,2.177194259705569901e-01,4.196661115879303191e-05,4.342037596830780442e-05,-8.193572513846297421e-04,3.657489717006683350e-01
4.760756328877675525e-01,8.155119305070235303e-02,5.074124824421872848e-01,-3.631237240778785458e-02,-2.198946954673930421e-03,-1.171049923683475588e-02,4.163848757743835449e-01
2.422859652327388202e-01,-1.083120102076386981e-01,2.430360371475455694e-01,3.223364705821530826e-03,7.265827330766538167e-03,3.196557794467944167e-03,3.512871861457824707e-01
2.345821238851789614e-01,-1.295227227168515294e-01,2.545408426606066143e-01,-3.663300527060891652e-04,-5.420707289266850359e-04,-2.199497521749182831e-03,3.745044171810150146e-01
3.408606287217341713e-01,-2.497853515759785592e-01,5.272049161580111276e-02,-5.709138751128695587e-03,9.279722255126083685e-04,1.439729964224499906e-02,5.122702717781066895e-01
2.409497940195813870e-01,-1.323239576393142047e-01,1.577171580151048302e-01,-6.888086104202616015e-03,9.490600083145081176e-03,1.148220876972155802e-02,3.405884206295013428e-01
2.415305473021528426e-01,-1.310194808365570673e-01,2.026714618676508928e-01,8.302711835657505812e-03,-1.460955108644757579e-03,9.657449593662614101e-03,3.554146885871887207e-01
3.505095090503251298e-01,-1.275418064803177931e-01,8.463278486592024086e-02,-1.978232639536362664e-02,2.437581524006417893e-02,1.912309591346993132e-03,4.184355437755584717e-01
2.622263941030913426e-01,-1.229306036848853562e-01,1.779856977713374366e-01,-4.361108637611136457e-03,8.542247585234041124e-03,1.126361614646051272e-02,3.516434133052825928e-01
2.804385855594586641e-01,-1.394325433452754115e-01,1.816001014132427316e-01,3.754953094671531141e-03,-1.045206496203325737e-03,3.295032800308438786e-02,3.845310509204864502e-01
2.127236504825736896e-01,-2.988637292803763557e-01,7.175154577370215780e-02,-1.744477478108707319e-02,-9.453361778802538140e-02,3.059761535672007524e-02,4.899047315120697021e-01
3.508613890054878004e-01,-9.609227898911487653e-02,1.216745991206272526e-01,-3.940922994381114257e-03,-2.036016914433163780e-02,1.656182650682325175e-02,3.898350596427917480e-01
2.437191620210525933e-01,-1.319425129697018861e-01,2.228356853482054145e-01,2.621046153454755986e-03,2.400384634250358595e-03,-1.314080302673995048e-03,3.657263517379760742e-01
2.542120579713224027e-01,-1.299578181779561248e-01,1.965839583365578958e-01,-3.243314636129753653e-03,7.687807118163436561e-04,9.275907928793916679e-03,3.592491745948791504e-01
2.498063855981717818e-01,-2.719910911943584919e-01,1.279846971743026918e-01,-2.494180158461378749e-02,-1.287691558665849945e-01,-2.523674882376238451e-02,5.263727903366088867e-01
2.536650040949409712e-01,-1.430630513147953531e-01,1.194854696487067797e-01,-1.721071833819691477e-02,-8.149424703174609763e-02,-3.356185533050620382e-03,3.781677782535552979e-01
2.103705735494034168e-01,-1.304047386637537387e-01,2.233541805042160433e-01,4.445088247472719217e-03,-5.569939818094725957e-03,7.858380060744987045e-03,3.479346036911010742e-01
2.770700478123114263e-01,-1.401405615689518269e-01,1.006731454306473844e-01,2.381089988874896674e-02,-2.057037644716191299e-02,2.149503892809876554e-02,3.687035441398620605e-01
2.469925374816003272e-01,-1.430871518433443623e-01,1.841652751062376470e-01,1.030842741528264009e-02,-1.204748573905580766e-01,2.032485449310298710e-03,4.188980162143707275e-01
2.400477290956119225e-01,-1.243376092681971468e-01,1.919294256337138183e-01,-6.600180830428842640e-03,-3.263030973294151968e-03,-5.025429258857096008e-04,3.431061506271362305e-01
2.471743864556931458e-01,-1.269456924062633829e-01,2.433350882358639167e-01,-1.518498412089629634e-04,7.615078296641753647e-03,-1.285008243859387354e-03,3.724556565284729004e-01
2.367110408288530810e-01,-1.277235500661774714e-01,2.391660857516733907e-01,-3.619948556407445728e-03,1.595506212671505848e-03,-5.236595673470345602e-03,3.658449351787567139e-01
2.442189022360014561e-01,-1.214988492937856407e-01,1.930993186907453141e-01,5.443948553414674867e-03,-2.634307499862059004e-02,8.125053304528328038e-03,3.464623689651489258e-01
2.464708545817858587e-01,-1.048899541584517869e-01,2.469360364635507232e-01,1.189165080138077004e-03,8.942610451488626142e-03,1.603515970942609318e-03,3.519516289234161377e-01
2.532199897726252757e-01,-1.149995391964138552e-01,1.523374707811124829e-01,7.899378642154871464e-04,-1.149585671136932156e-02,-1.421966052916197017e-04,3.301732540130615234e-01
2.438627095035515446e-01,-1.411413279122858966e-01,2.378798945655064001e-01,-8.379096572379797145e-04,8.191115154764184655e-04,8.790676409447357401e-04,3.820561766624450684e-01
2.467408058899762668e-01,-1.320786418119123673e-01,2.388867267673677186e-01,-5.433618615733934627e-03,2.006884358297571745e-03,-4.867657149171531090e-03,3.751830458641052246e-01
2.373956533309974914e-01,-1.168401467018672230e-01,1.731157741677980533e-01,1.723562905698272987e-03,-9.103279650423009434e-03,6.208943570225765232e-04,3.272664844989776611e-01
2.531395506877167079e-01,-1.342654994385905631e-01,2.512364272953745981e-01,-1.523379151989984887e-03,-1.436606198152252847e-03,4.077657126674004776e-03,3.865385353565216064e-01
3.167480316118677086e-01,-3.367458910725062982e-02,2.969300827804203236e-01,-1.537918249017720430e-02,-6.698134482203321749e-02,-1.918779194442679636e-02,3.626536726951599121e-01
2.169853875140557720e-01,-1.528540686434694262e-01,1.704286968028993765e-01,-5.093045126548984003e-03,-6.980697328427679094e-02,-1.030672497207974457e-02,3.697915375232696533e-01
2.402557845435902562e-01,-1.342258896233790022e-01,2.483223995041967391e-01,-4.741282275912627690e-05,-9.613909332869819942e-04,-1.331831542382614416e-03,3.785901367664337158e-01
2.031218277753664148e-01,-1.200495998554017285e-01,2.720135715126421050e-01,1.209192458662188344e-02,-2.554143310960214214e-02,3.233404833979045163e-03,3.658917844295501709e-01
2.312167913616482717e-01,-1.241354050549814125e-01,1.771757285366504509e-01,4.412609573675380266e-03,-1.260083109615399606e-02,4.841248573348210307e-03,3.325614035129547119e-01
2.564109706032753899e-01,-1.185266088640505033e-01,1.631936692739364703e-01,1.166293173454491326e-03,-1.378485013754849296e-02,3.017682833927816388e-03,3.389962315559387207e-01
2.436296127395968236e-01,-1.159733398182979935e-01,1.628245867712417305e-01,4.279744015213466160e-03,-9.380553090196801225e-03,-1.647820562729339399e-04,3.272690474987030029e-01
2.497193387365247430e-01,-4.422310952751482005e-02,2.506793279817702280e-01,-1.698184357414227880e-02,-6.655736312710977542e-03,-3.557822576934239079e-04,2.961143255233764648e-01
2.394945394575466180e-01,-1.073459007236054752e-01,2.575484927501199839e-01,3.167663227343570868e-03,6.024488993755613107e-03,5.657243815861444543e-03,3.565404415130615234e-01
1.599291931675233536e-01,-1.204774215091244105e-01,2.654039461862902627e-01,1.063255150061673607e-02,-3.544192582570383776e-02,-4.113738477424929048e-03,3.514070510864257812e-01
2.838578852281889997e-01,-1.223461552134504637e-01,1.346063513357216301e-01,4.044801318421197174e-03,-1.335623520717273312e-02,9.845922074209619360e-03,3.571081757545471191e-01
2.001427020294892500e-01,-1.514812232082961563e-01,2.695124539790418883e-01,1.368200064841178405e-02,-1.183637848310988561e-01,3.351770859264059654e-03,4.421186149120330811e-01
3.154063187366557552e-01,-2.189976305712684201e-01,1.020731873518114785e-01,1.588008533146636992e-03,-8.306900274069452250e-02,1.967309739005772273e-02,4.888379871845245361e-01
1.395042125857584581e-01,-1.201847614207967457e-01,2.679701844564713609e-01,-1.069632885408513048e-02,-7.575881318659065389e-02,1.470111485434539081e-02,3.681207299232482910e-01
2.334344839498401769e-01,-1.447973702741406909e-01,1.093852347633407773e-01,4.747257628594360977e-03,-3.231167475269548783e-02,9.494384531818843981e-03,3.391140699386596680e-01
1.772762062223171009e-01,-1.176339325920812834e-01,2.282164365228723235e-01,-4.883715205289386463e-03,-3.140646504042741982e-02,-3.254821907913175386e-03,3.281038105487823486e-01
2.307888980453121908e-01,-1.280239132989409723e-01,2.342908440371268552e-01,-1.009579217685752615e-02,-4.639921507449909326e-03,-9.336360686283963831e-03,3.614516556262969971e-01
2.454380344958163596e-01,-1.221302323360452108e-01,1.604305643806165360e-01,5.195209705120853311e-03,-1.428914787734365116e-02,3.894492592629694282e-03,3.344034552574157715e-01
1.023240506281261064e-01,-1.855854257011170794e-01,3.223590434894946233e-01,1.927354135833885852e-03,-5.047787473709581391e-02,2.140645390191750486e-03,4.498070180416107178e-01
2.374854860863283568e-01,-1.263008397782992009e-01,1.429750846814594745e-01,-4.657435985575728368e-03,-4.407415720271781051e-02,-3.693464358384941984e-03,3.358938992023468018e-01
2.746941718896137585e-01,-3.055711697544855054e-02,2.689381549074022493e-01,-4.625853117299107142e-03,-4.259892315130948612e-03,-1.539505166643621685e-03,3.026221990585327148e-01
2.594582702073029434e-01,-4.208595996075115142e-02,2.627938858652006937e-01,2.747834853444582406e-02,3.496290068029584558e-02,-8.862382455321997365e-03,3.132313787937164307e-01
2.453715382744789952e-01,-1.068456016253076235e-01,2.468269377979211976e-01,-1.424497713291871144e-02,3.754573067460078087e-03,2.854583708357210075e-03,3.539027273654937744e-01
3.023471699357036524e-01,-2.800945056998532801e-01,8.822338351467778894e-02,2.490066042036011805e-04,-8.135627576785564585e-02,-8.929298039353966709e-03,5.295928716659545898e-01
2.774488439433221432e-01,-5.131851156921368728e-02,2.888914860286412867e-01,-7.072203979340511461e-03,5.605474124166234633e-03,8.511375957003878548e-04,3.350035250186920166e-01
2.083736317335873889e-01,-2.448278079986366262e-01,1.050137157410039462e-01,-5.724593569275131417e-03,1.053033946122196030e-01,3.684308747868902945e-02,4.546085298061370850e-01
2.468686491230843716e-01,-1.283140232910530421e-01,2.499961735595328804e-01,3.536987243290353258e-03,9.205233928731153563e-04,-8.693917122683145551e-03,3.771101236343383789e-01
2.403190208543255213e-01,-1.082878777105420742e-01,2.483527932968473129e-01,-1.313091063722168599e-02,-3.968862596403378157e-03,-3.318982539376968922e-04,3.534922599792480469e-01
2.416437429828530714e-01,-1.188488537880800083e-01,1.610150688968224886e-01,3.929547938410550036e-03,8.196443031798866796e-03,-1.591753060998545629e-03,3.280934691429138184e-01
2.499558422759886323e-01,-1.187012156346307912e-01,1.454670768700183359e-01,-3.836593726792097980e-03,-1.097291764923771784e-02,-2.770541553358575170e-03,3.297480940818786621e-01
2.722471920019996494e-01,1.037732205304645050e-02,3.932049271460887341e-01,1.503123242978343307e-02,-3.243444443137290245e-02,-2.008959964441175625e-02,3.463038504123687744e-01
2.555354421884536431e-01,-2.563545550529627848e-02,3.318903410997680603e-01,3.847585732645683598e-02,3.087699063625632886e-02,1.514712911520977798e-02,3.381502032279968262e-01
3.089298995541820414e-01,-2.841962522378220224e-01,7.234347869670443298e-02,-9.075745165520458096e-03,8.058092985080715642e-02,7.697253136994467023e-04,5.358870625495910645e-01
2.251992201205193223e-01,-5.916579455119214126e-02,2.871033634359196340e-01,-1.928406058242610951e-03,1.303752179842383382e-02,-1.302989157357810346e-02,3.214488625526428223e-01
1.951753726384690968e-01,-6.422902184669285197e-02,2.705793192671235858e-01,1.529847666581714803e-02,2.791506518975381962e-02,-1.617455725551267612e-02,3.104210793972015381e-01
1.244603625501270044e-01,-1.387675649471069028e-01,2.499148785901015302e-01,-2.534100121567305075e-02,-1.320447802570368957e-02,-4.643554944116936797e-03,3.472249507904052734e-01
1.227782304748323561e-01,-1.736926745882506062e-01,2.870484080808559657e-01,6.225002031186422681e-03,-8.169542473085187467e-03,5.960665202118338099e-03,4.049741625785827637e-01
2.349415261513493336e-01,-1.306873026817415018e-01,2.555632745871818656e-01,-1.129786126059438795e-04,-5.630548197390883969e-05,2.885728632130514330e-03,3.763968944549560547e-01
2.557152864225420430e-01,-1.082446427218619611e-01,2.366794040636685248e-01,4.409928563181703121e-03,-3.115358835689664534e-03,-2.811479741949780885e-04,3.549487292766571045e-01
2.280667772440689023e-01,-1.976778594610387185e-02,4.041505096375466177e-01,-3.374052300927700421e-02,5.827097661142485209e-03,6.557494433187224456e-03,3.737823069095611572e-01
2.342357343650565416e-01,-1.375749745531456014e-01,2.294443171789870006e-01,-5.765932195116983856e-03,-1.460808873645709884e-03,-3.656334440849497332e-03,3.696361780166625977e-01
2.205163868751700562e-01,-1.296004053857551797e-01,2.250383014066147380e-01,-4.852594690093380882e-03,7.667623272498073732e-03,6.538907087553240752e-03,3.529315888881683350e-01
2.262666922596381636e-01,-1.324713911850464165e-01,2.264699287502849323e-01,-3.770575859740001815e-03,-9.378616798394929805e-04,7.305712640456658207e-04,3.589050769805908203e-01
2.354241726922612632e-01,-1.231214962535533697e-01,2.681896568110954115e-01,-2.208728086089068593e-02,2.816987191037592653e-02,1.018060528604598433e-02,3.814860284328460693e-01
3.014445349137650498e-01,1.315357563347716030e-02,3.775901217773700025e-01,-2.437483675455567531e-02,-4.367930558404104630e-02,-2.149367133860501100e-02,3.460547626018524170e-01
2.394456895847421329e-01,-1.372158264896309876e-01,2.451606353163081620e-01,-6.499049068988428917e-04,-3.669681761937701025e-03,-1.950686756908729194e-04,3.796063065528869629e-01
2.200899205978015249e-01,6.856656169047570248e-03,4.422204877396566092e-01,-3.242814921294809305e-02,-3.865756360077871046e-02,9.522837744380351771e-03,3.874094486236572266e-01
2.393134219256237705e-01,-5.479293404711230164e-02,2.560816188597920817e-01,1.594902346754513596e-03,1.829025676284691190e-03,1.251577259890801312e-02,3.036428093910217285e-01
2.384570905666220653e-01,-1.401912508656663614e-01,2.393612772202759753e-01,-7.272880892122673274e-04,-1.291003144277705654e-03,2.821012553914031633e-04,3.791102468967437744e-01
2.345043511690116378e-01,-1.395608279471402258e-01,2.269901631579234191e-01,-4.582127819771566676e-03,-4.683928059304366285e-04,4.288321034872168841e-03,3.705256283283233643e-01
2.387606330780989716e-01,-1.358690539050211865e-01,2.281116905404017847e-01,8.757008881756954063e-04,-2.399870705351795329e-03,-7.242911758918905464e-03,3.696597814559936523e-01
2.464378812363789417e-01,-4.569924445498838028e-02,2.391968626030573364e-01,-1.099662970081018121e-04,-3.595736917508490608e-03,-4.614993408213073005e-05,2.886520326137542725e-01
2.414223014649997112e-01,-1.392157305736328177e-01,2.413825754512463895e-01,-5.107221009294203324e-04,-3.301449061328247305e-03,7.249187793089957674e-04,3.806642293930053711e-01
2.857276601523204285e-01,3.163597126196687759e-02,2.766062939702547130e-01,-6.955212080571392119e-03,-2.864686402922071978e-03,2.196497414916384616e-02,2.528739869594573975e-01
1.832619602513682333e-01,-2.452375957166158249e-01,1.989842877129687493e-01,-1.945979115984061703e-02,-1.500156122928380797e-01,-2.686717465201570593e-02,5.112843513488769531e-01
1.509364030411225466e-01,-1.273785684774036975e-01,2.405448471091111151e-01,-1.673905838190431830e-02,-3.817602734521614860e-02,-1.612174208238550954e-02,3.412049412727355957e-01
2.380033378077085482e-01,-1.365123494132322035e-01,2.432979938207572856e-01,-3.701916110062593562e-03,-1.345499392394742567e-03,-2.764306699980798379e-04,3.772528767585754395e-01
2.576726609962994852e-01,-1.166424898469825555e-03,2.567477507232850398e-01,-8.739882892770989981e-03,8.127975903960945117e-05,9.815952272776030246e-03,2.593787908554077148e-01
2.179324665454867582e-01,-1.264321071475583147e-01,2.043905507304803471e-01,-6.969984589272657828e-03,-3.473392312464774166e-03,-1.346692841106560731e-03,3.380745053291320801e-01
2.561413387738031844e-01,-5.671826154301792822e-02,2.387403456448837780e-01,1.207566570829935598e-02,1.875140467560158959e-03,-4.160419262143558866e-04,3.052677214145660400e-01
2.617211736616744111e-01,-1.513344766651436024e-01,1.829249970736206432e-01,4.281725030004317721e-04,3.764675074752630614e-03,-3.226096975506619752e-02,3.839817345142364502e-01
2.693722243849103193e-01,-1.314736575855045830e-01,2.043820495008614735e-01,-6.985259999701971118e-03,2.318437406141370116e-03,-1.801663174947542380e-06,3.728439509868621826e-01
2.529854988412711947e-01,-1.173603535145475996e-01,2.351712450517215169e-01,-1.226872602265517004e-02,-4.218672517063155880e-03,-4.545022608313554167e-03,3.625505268573760986e-01
2.588396254058447088e-01,-1.380815124897940283e-01,1.497279093376860382e-01,-5.634863183567479297e-03,-1.768028659687247844e-02,-2.460925965553362529e-02,3.591558039188385010e-01
2.028799573573314974e-01,-1.195184029975419893e-01,2.168015062213345390e-01,-8.692511041610337776e-04,-3.471680801742948064e-03,-1.750276323718149120e-03,3.296519517898559570e-01
2.537689553293477340e-01,-1.157136220201805954e-01,2.469663893117932663e-01,2.711793703782768711e-03,-1.100201517065006740e-02,-2.939323973712108535e-03,3.666896820068359375e-01
2.359401370784171559e-01,-1.190441045196481418e-01,1.948378509538957470e-01,-6.722137198030468316e-03,-2.503943484757348292e-02,-5.891881058730334686e-03,3.394601047039031982e-01
2.351842884604724848e-01,-2.039370573586498647e-01,1.832804185868681379e-01,3.514769052020120903e-03,-1.180291043463350120e-01,5.995636791930371474e-03,4.633216857910156250e-01
2.259801385371943971e-01,-1.319304528413573763e-01,2.268019436301544900e-01,-1.036705360186343603e-03,-4.051533606924232508e-04,-3.273324035761994693e-03,3.583722412586212158e-01
2.739127532657695818e-01,-1.651648165909218868e-01,1.867943195665389966e-01,-1.962934535713013046e-02,2.538102064987170919e-02,1.638040159794917211e-02,4.074560701847076416e-01
3.028918661964330461e-01,-1.784058462776746401e-01,1.340304051605294977e-01,1.150169413386144777e-02,9.374275302861373449e-02,4.212592707489861213e-03,4.535441100597381592e-01
3.473204392618449710e-01,-2.189590310289513952e-01,8.016701892251484884e-02,1.195998905731881015e-02,4.482012210450968953e-02,-1.202583440069983009e-02,4.976438581943511963e-01
2.978121301095401630e-01,-1.696604954108250074e-01,1.186510423631240568e-01,-1.468737891665244412e-02,4.752635314622601082e-02,4.624614844475902382e-03,4.175691902637481689e-01
2.520470563357593008e-01,-1.207770621374087000e-01,2.278349582539564988e-01,1.303339606922664096e-02,4.624280000276448713e-03,-2.474281238159176111e-02,3.646471798419952393e-01
1.894316579270971523e-01,-1.134117062720741698e-01,2.258746603971175937e-01,7.988878286615241561e-03,6.978699552252159988e-02,-2.685684312076513751e-03,3.448224067687988281e-01
2.883734089444390802e-01,-1.380879353582792068e-01,1.911608844201075907e-01,1.060196813625801683e-02,1.285317670852421414e-02,-1.047503079197578159e-02,3.886182904243469238e-01
2.009180407560460235e-01,-1.360009885138941943e-01,2.282096378373977275e-01,-6.701049323629955888e-03,5.565874007419185227e-03,7.865792917411310037e-03,3.519482612609863281e-01
2.332491205246100541e-01,-1.622005776152175005e-01,1.979993796629962999e-01,2.606891708077675555e-03,1.316158261596954704e-01,-2.957681085652629285e-02,4.453048706054687500e-01
2.542193458236506262e-02,-2.831897191433418448e-01,2.700827606073345488e-01,7.222894706892631772e-03,-4.884572998758521939e-02,-7.979628537274704872e-04,4.877718687057495117e-01
2.528905069850934106e-01,-1.583878952895362291e-02,2.529776825666603113e-01,-4.311440815176336740e-03,-5.698288906211666609e-03,8.380701732258088316e-03,2.694489955902099609e-01
1.504519633862864691e-01,-1.742780086128925543e-01,2.780490656231723312e-01,2.235810334291366691e-03,9.343017321523550134e-02,-7.701442558198890939e-03,4.353684782981872559e-01
1.735741892919865081e-01,-7.742379767509824373e-02,3.643202540904842412e-01,-1.226570659092541746e-02,3.845741363076596309e-02,1.505946199267149850e-02,3.909341990947723389e-01
2.377571337299785315e-01,-7.590382859745961608e-02,2.515571068586342496e-01,-5.585245362381165840e-03,-3.463283097483124164e-03,1.011074903615908835e-02,3.214628994464874268e-01
5.218062980825925734e-02,-2.821856559866486869e-01,3.183683782318548205e-01,-2.497100903835300367e-02,6.785464116623932118e-02,6.360622379963739095e-03,5.361583232879638672e-01
2.137300243486917051e-01,-1.684776789771644245e-01,1.768369615086343161e-01,6.431050852456665808e-03,7.423265388608023263e-02,3.223075452514769304e-03,3.873367011547088623e-01
2.468822102515996486e-01,-8.321874496382103414e-02,2.556698067775754479e-01,1.569818090785041545e-03,-9.962498431809711438e-03,1.251802260387934254e-02,3.357378542423248291e-01
2.370857028272030098e-01,-1.340527337304907030e-01,2.381612742219783585e-01,-3.815523064682441179e-03,9.351633850464798666e-04,5.086503719466635605e-03,3.718440532684326172e-01
1.066323289871678737e-01,-1.395081818236624249e-01,3.558660949056182132e-01,-1.603312067169346961e-02,3.030136835111689117e-02,4.199035447107909991e-03,4.331601858139038086e-01
2.558322730859925453e-01,-5.683377229267713715e-02,2.383312479381781424e-01,1.165994147315140353e-02,-2.589947736180906162e-04,-1.287625899661186835e-03,3.049711585044860840e-01
2.437144447204520059e-01,-9.995106399236824979e-02,2.531331773637536253e-01,-2.799630244587848239e-03,-8.993310697251784974e-03,-1.199233624360473115e-03,3.488582074642181396e-01
2.517083669586983596e-01,-1.319903574537535929e-01,2.262675557548991245e-01,-6.625763725454824260e-05,-3.873576379773687427e-03,-8.968656035285269695e-03,3.720170259475708008e-01
2.452622439394803178e-01,-1.385802345124451107e-01,2.383565653271228491e-01,4.167258271368223647e-04,-1.166235785762455594e-03,1.142284322798376925e-03,3.804478347301483154e-01
1.668193673862436721e-01,-4.597088031421284193e-02,4.167565848818522434e-01,-7.399125861504772354e-03,-3.118059529390894771e-02,2.288646994358652792e-03,4.050051271915435791e-01
2.351016353170644058e-01,-1.369569997633724445e-01,2.363884003766915654e-01,-2.551220636780748667e-03,-1.031187746990126471e-03,8.243210474794034764e-04,3.727369010448455811e-01
2.000556492700216599e-02,-2.691763102630872484e-01,3.652795280139289891e-01,3.949544998530672701e-02,-3.344260358008189354e-02,2.309087831029444943e-03,5.574389100074768066e-01
2.413170417777722732e-01,-1.271174856378181062e-01,2.512839861262418095e-01,-8.821944329834122437e-04,7.299991953352043608e-03,-2.848516341458071283e-04,3.737351298332214355e-01
2.451003587293386632e-01,-1.392093421732716885e-01,2.382364610181655906e-01,4.724786610555981449e-04,-1.160444966815051037e-03,1.320615380288905644e-03,3.809371888637542725e-01
1.718188982077960558e-01,-1.273665942101962212e-01,2.728060552773422520e-01,1.547597188402989946e-02,-3.359473478962125836e-02,1.738702203023976753e-02,3.673357069492340088e-01
2.398551657869276710e-01,-1.405073523116677769e-01,2.389041969047960290e-01,-1.377458938325171398e-05,-1.647302702478393825e-03,8.286436163105728898e-04,3.799013495445251465e-01
1.926983323829120076e-01,-1.404427156718650038e-01,2.361331019990906555e-01,1.054953488054119828e-02,2.800931298713432455e-03,-7.952138106184530875e-03,3.576123118400573730e-01
9.800654030851001230e-02,-1.103697495931187933e-01,2.862268806950739597e-01,4.731925325694998855e-04,-1.333995749932194962e-02,1.552955379288563538e-02,3.454363346099853516e-01
1.255025108559572888e-01,-1.117280676741252837e-01,2.575631400811557725e-01,3.869000259579495529e-03,2.644957321994234091e-03,5.084196100197895148e-03,3.243310451507568359e-01
1.551176884326977978e-01,-1.277988496032325672e-01,2.640938680932792271e-01,8.416782461644354077e-03,4.856716376782261278e-03,-1.290508146634610376e-03,3.507663309574127197e-01
3.256876938191640702e-01,2.757975901765077897e-02,3.766904070668233850e-01,3.727818468047346123e-02,-4.545542634997044862e-02,1.214545455079346116e-02,3.427594602108001709e-01
2.225294173820493160e-01,-1.247554721193901150e-01,1.874753977021436924e-01,-6.773629749145556114e-03,1.420867417096245353e-02,6.737002302088824189e-03,3.324775397777557373e-01
3.302654130607517863e-02,-2.876663110955068881e-01,3.389976568145978697e-01,-3.507042855719704443e-03,-3.627336015990014623e-02,-8.033182378601660262e-03,5.465919375419616699e-01
3.364034916132584152e-02,-3.064876228350685849e-01,3.628587413884086232e-01,-1.877189447049134111e-02,-1.963209041970350593e-02,-1.020529909884838188e-02,5.818711519241333008e-01
2.348778465389297632e-01,-6.002305981215250164e-02,2.522244686923927892e-01,-4.418698832045491083e-04,-3.970713770733106524e-03,1.833075488999488800e-02,3.056778013706207275e-01
2.418902279175426107e-01,-1.369194859190571156e-01,2.396254737622256215e-01,-1.690782703676269212e-03,-3.831145328929640680e-03,2.652225933028560471e-03,3.777799904346466064e-01
6.839144689128932864e-02,-2.397083842293426803e-01,3.534864480899975736e-01,8.766919609640606847e-03,4.238431956463035305e-02,1.134043187236184053e-02,5.196614861488342285e-01
1.532913588180139786e-01,-1.175233539116815190e-01,2.500628217065505865e-01,-1.735784470072015691e-04,8.889324099746454683e-03,-1.558135304575822234e-03,3.303889930248260498e-01
2.424589121556575688e-01,-1.367066564152621955e-01,2.421926470303207291e-01,-1.823852473185435218e-03,-3.431720542852934996e-03,1.132207201509195273e-03,3.790973424911499023e-01
2.408271523011237536e-01,-1.382183773417354489e-01,2.378555133111142916e-01,-1.513374274308473995e-03,-1.084961418963737356e-03,3.175933126181138162e-03,3.776223361492156982e-01
1.225866129788329845e-01,-9.135529426993205249e-02,3.777792632664619399e-01,2.478638918115286943e-02,6.890973781652660890e-03,-2.094254467075197870e-02,4.108432233333587646e-01
2.422560254854092543e-01,-1.395418003761565440e-01,2.392590609971148030e-01,-9.062955721517466915e-06,-8.603509738558873850e-04,8.328657725913881250e-04,3.803138434886932373e-01
2.336087064218141940e-01,-1.236516840753953822e-01,2.565305885360417704e-01,5.487995063725617517e-03,-3.583044092638905387e-02,7.233716412535956194e-03,3.747642934322357178e-01
2.954338078285505542e-01,5.723668792455838261e-04,4.005745489243509594e-01,3.819212871210290322e-02,-3.107001445601445880e-02,4.328291365417070470e-03,3.692261576652526855e-01
1.600063186417582939e-01,-1.602539485586080836e-01,3.085725407979761914e-01,-1.871526379865869321e-03,-8.677908701040683292e-02,1.546412770898915323e-02,4.421969950199127197e-01
2.171296345650605142e-01,-1.182647563417693615e-01,2.039043953081162153e-01,-2.399482999921288221e-03,-1.622506709422850968e-02,-3.911792795915107132e-03,3.302749991416931152e-01
2.521667448652684662e-01,-4.788017975137079385e-02,2.702194746151567184e-01,-1.013919127059097897e-02,-3.835470655010276165e-03,1.679063527664542699e-02,3.113985359668731689e-01
1.220237935193478340e-01,-1.447953449870119647e-01,2.290594952794074435e-01,5.663785416752394053e-03,-7.975178194641643903e-02,-3.944909510184472709e-03,3.611540198326110840e-01
1.548022989499450164e-01,-1.349611690258930574e-01,2.400441688633098425e-01,8.270214373336309474e-03,-1.671663731088196200e-02,4.343318100475362931e-03,3.420952260494232178e-01
2.458974406508690480e-01,-1.355822045657136821e-01,1.382489764378809771e-01,5.320671040912649911e-03,-7.710738701199503810e-03,1.157936411319103812e-02,3.416354060173034668e-01
2.496838662561891575e-01,-1.097109450063971925e-01,2.407277517724015770e-01,3.902764769554684489e-04,9.474323808165799679e-03,1.013642878336837652e-03,3.553855419158935547e-01
2.266043140325158523e-01,-1.337357990191340718e-01,2.432591951757336335e-01,4.419243378351022386e-05,-3.568339287969863466e-04,-4.667103258037349003e-03,3.690386712551116943e-01
3.095776116255974930e-01,-9.907130554407536649e-02,2.518390232877226742e-01,9.131760239270213936e-03,6.181966205461092911e-04,2.010429216274774514e-02,3.849632740020751953e-01
2.166182080523673115e-01,-1.311069646469039673e-01,2.502836188859552946e-01,-1.140086497159505195e-03,-1.091536098972519355e-03,1.543658743806648487e-03,3.657418191432952881e-01
2.236917105723079113e-01,-1.268765352560462523e-01,2.073243011833732219e-01,6.185104545221798561e-03,-4.056241106871874558e-03,5.283416451322640048e-04,3.429184257984161377e-01
4.698144612082497673e-01,1.287019700428821967e-01,4.541176461487593796e-01,4.234351952170180289e-03,1.051191069958889654e-02,-2.621633928076737632e-02,3.371897339820861816e-01
1.560232620198336861e-01,-1.213468938928241175e-01,2.706314220564221551e-01,-1.176502350323708687e-02,-3.145898710815592941e-02,-1.244669956782686743e-02,3.545520007610321045e-01
2.437152905697845262e-01,-1.257067906961387149e-02,2.507650301603293608e-01,-4.276118490297778482e-04,-6.172529396798330688e-03,-1.476645362181114481e-02,2.613578736782073975e-01
5.076864446655217078e-01,1.642724205808130111e-01,5.339524805388745632e-01,1.762159384405624987e-02,-4.190629350754371263e-03,-1.550503386826949936e-02,3.596507906913757324e-01
2.420444315597833906e-01,1.863050827936421627e-02,2.388254561950055033e-01,8.219997964206240612e-03,-4.228514123879662445e-04,5.705902178776240882e-04,2.222817987203598022e-01
2.375505140373720403e-01,1.697240659367332816e-02,2.426665798672781871e-01,6.172456917079517571e-04,-9.106018123847611648e-04,9.765178688119331707e-03,2.238282263278961182e-01
3.240668912428412152e-01,-1.189479538367010925e-02,3.345900125536950820e-01,1.941610500855585342e-02,6.920934383366970921e-02,-2.912184818363190014e-02,3.668260574340820312e-01
2.408913842702901098e-01,-1.374105935771209874e-01,1.950520425555600235e-01,-2.548293328166501004e-03,6.847439102877376192e-03,1.156707434877696575e-02,3.583769798278808594e-01
1.830745833018418978e-01,-1.168133081229015963e-01,2.399032348272962523e-01,-6.478177313553783526e-03,9.320757660642130238e-03,8.002445500907520715e-03,3.328409790992736816e-01
2.554144800102476354e-01,-5.951963540965732324e-02,2.375194353790285873e-01,-1.483134688921486713e-02,-6.788455845564717733e-03,2.504380040162819258e-05,3.076786100864410400e-01
2.527960177007373410e-01,-1.420481153103388960e-01,1.394290571171815651e-01,3.418520956394041632e-03,-4.153365270947607241e-03,8.485272220098412019e-03,3.525542318820953369e-01
2.426016933090036076e-01,-2.892047786816151489e-02,2.515823449878032414e-01,-6.158673388483983189e-04,-3.581228507080700882e-03,4.120802701037032910e-05,2.761937975883483887e-01
2.794190799726407604e-01,-1.515863511919224027e-01,1.606040673873481706e-01,6.748388502738730116e-03,1.519223029670413797e-02,1.473494420403327620e-02,3.874960243701934814e-01
2.351763232897631228e-01,-5.720717628437754776e-02,2.318522661822802200e-01,-1.337986288977734313e-02,-4.159579691959595926e-02,5.044402501036228045e-03,3.005516529083251953e-01
4.814763399308741865e-01,1.268032264021897448e-01,5.092092309085595181e-01,-2.423059627470650762e-02,-6.997889698685098685e-03,-3.466053911454067271e-02,3.767102062702178955e-01
2.251885021907087947e-01,-1.204668475156472351e-01,2.117654296104584943e-01,-6.183157836402107185e-03,-1.643371470322422742e-02,-9.922044417884742090e-03,3.409373462200164795e-01
2.351958224780691942e-01,-2.241822053376882340e-02,2.411590699827265150e-01,1.075223686336035031e-03,-3.132096468097443631e-03,7.801101882048546571e-03,2.610598504543304443e-01
1.351693369322083671e-01,-1.213014967988440551e-01,2.516662855111693187e-01,-7.722017183470286129e-03,-1.277876121575493955e-02,-2.420191974436296765e-03,3.315316736698150635e-01
9.318277901983799960e-02,-2.279239785002764862e-01,2.591669295890935976e-01,1.620533124618126625e-02,-9.407441787788239917e-02,1.519771278049750207e-02,4.604233503341674805e-01
2.184921845552809661e-01,-1.327668672738982480e-01,2.459555915674119242e-01,4.196696414309442416e-03,1.813415523267536151e-03,4.177287895234492454e-03,3.659220933914184570e-01
6.617308092265827835e-02,-1.881176290136740148e-01,2.663260794706591716e-01,-3.001301832966168752e-03,-1.731971628052686452e-02,1.143775867107371322e-02,3.961583673954010010e-01
4.649148768576646940e-01,1.082920378973104003e-01,3.979533991886046174e-01,-1.002963889594999866e-02,5.476357146000395207e-03,-4.454351297808849947e-02,3.378280997276306152e-01
2.427724188948211514e-01,-7.124171426706787935e-02,2.566644491397618300e-01,-7.345864804830161410e-03,3.876236485302223238e-03,-6.094307016251211727e-04,3.215093016624450684e-01
2.424258048861271941e-01,-8.546358159685155109e-02,2.547894389627210487e-01,-7.354748174136971697e-03,-4.620386136104252632e-03,1.192204392160277696e-02,3.352177441120147705e-01
1.617483816612715342e-01,-8.760306842372253544e-02,3.654332743993959909e-01,2.603983093592102810e-02,3.749246221902705761e-02,-5.045289667414770696e-03,4.009743630886077881e-01
2.535944963733491875e-01,-1.329998832229071226e-01,2.369573385652391506e-01,2.556363621373564012e-04,1.970698538300701976e-04,-8.974450108827271982e-04,3.785537183284759521e-01
1.217934669803303616e-01,-1.243772606855382962e-01,2.567074156288056686e-01,9.773829986071101011e-03,-6.078311128680365279e-03,3.900152471385876125e-03,3.353456854820251465e-01
2.450478814756797963e-01,-1.303681975786376013e-01,2.401070877700183237e-01,3.023595687993568815e-04,-5.312410902958682700e-03,-4.747082883834723849e-03,3.731746673583984375e-01
2.480883962746954219e-01,-9.548828572862586017e-02,2.282565666572826113e-01,1.523354782981671020e-03,2.015130378303044666e-03,2.943182180591725518e-03,3.341700434684753418e-01
2.397397620002172935e-01,-1.364622254585036720e-01,2.390494687154134934e-01,-4.339625721537662901e-04,2.000282562685612008e-03,3.898612705545835382e-03,3.759346902370452881e-01
2.750106966571576050e-01,-7.271897444833835822e-03,4.051370036179123835e-01,2.750263269429703561e-02,3.646275095476701755e-02,-4.289352819647419997e-03,3.737133741378784180e-01
2.405154792659887353e-01,-6.337630141826222641e-02,2.535840612017720708e-01,-4.049267564119106086e-03,4.501471535786895697e-03,-1.205014227948653614e-02,3.115092813968658447e-01
3.173931505604608017e-01,-9.456156873741461411e-03,3.354220554174622837e-01,2.623815406648970922e-02,6.093716199737105044e-02,-3.153037313981160022e-02,3.594941794872283936e-01
2.405875067478593365e-01,-1.276342139772716489e-01,2.429593938134625153e-01,-9.208415045054268435e-04,-2.088018274976743277e-03,-1.547883015772884470e-04,3.694346249103546143e-01
2.478682190446236944e-01,-1.337842023139120262e-01,2.403735474449500420e-01,1.461709011388052665e-03,1.405985044442141594e-03,9.492951355860767193e-04,3.779807090759277344e-01
4.060167729577426887e-01,1.117652671918664131e-01,4.782553456004674519e-01,4.041618491275471986e-02,4.660969900085858326e-03,-5.125046097522220623e-03,3.436612486839294434e-01
1.592562524763028731e-01,-1.404786308212032375e-01,2.794519566698011603e-01,-1.648400976151330813e-02,-1.771490132308377319e-02,1.753963245440028854e-03,3.769359290599822998e-01
1.581433591140576911e-01,-1.907995005587899418e-01,2.882182037392166940e-01,4.649609520538066504e-03,-8.490077009194602065e-02,7.835846867779394610e-04,4.536081850528717041e-01
5.649179102168350869e-02,-2.185110379025010097e-01,2.415752566870637275e-01,-2.763179562215144214e-02,8.357837552972932627e-02,-4.093141063663623645e-04,4.289848506450653076e-01
1.589436230760954971e-01,-1.370555570143201785e-01,2.701219947834234691e-01,4.095880700937575697e-02,5.310178686106162282e-02,-1.439090593369018664e-02,3.834037184715270996e-01
1.571104702150683541e-01,-1.562432089373729793e-01,2.414680932484408737e-01,-4.972115309882137462e-05,5.711797183251824533e-03,-6.748918063839903433e-03,3.632836937904357910e-01
6.368319145007268756e-02,-2.087088372688498672e-01,3.060806018492479019e-01,3.219219341162760095e-02,-6.673742439866060805e-02,-3.050529619354996197e-02,4.671653211116790771e-01
1.457779182812871110e-01,-1.184189392949660108e-01,2.515192999756896142e-01,8.457168775035557584e-03,4.779099223164403470e-02,-5.266588274810152064e-03,3.406867682933807373e-01
2.765752126738119099e-02,-2.778354682946433951e-01,2.682499201424149438e-01,6.463333501507272268e-04,5.034923785647679034e-03,-2.210603343220558792e-02,4.756608903408050537e-01
1.621937673373032851e-01,-1.450319509807976859e-01,2.487164055145950903e-01,8.232233255131246250e-03,-8.543170855787615703e-02,4.011174696108099277e-03,3.880761563777923584e-01
1.934973477470890157e-01,-1.425466731052938973e-01,1.974760218493549768e-01,-5.619813179559568148e-03,-8.965424062620783174e-02,9.073335017453911877e-04,3.721414804458618164e-01
1.486274350509908526e-01,-1.379254746506061169e-01,2.398421129840316579e-01,8.622323013650583581e-03,2.627610526402961166e-02,-2.234124120789028611e-03,3.447895348072052002e-01
2.358833029579698870e-01,-1.402820372423526640e-01,2.381553599010111932e-01,-2.116117394791911660e-03,8.303356667951023937e-04,-1.482233626370837477e-03,3.773357868194580078e-01
2.322750922730681955e-01,-1.335417010939828897e-01,2.106324803380302535e-01,-8.800833741458069515e-03,-2.181686989808463012e-03,-6.714817819087573469e-03,3.560267090797424316e-01
5.720609777422030334e-02,-1.819747654057428110e-01,2.477521183983603659e-01,-1.522660436197655759e-02,8.122099683367145495e-02,7.393440744241855898e-03,3.996752798557281494e-01
1.809727089771327735e-01,-1.171740397190347699e-01,2.430215475402252023e-01,7.758283145042684827e-03,3.181963573734352020e-03,-6.682154545824406551e-03,3.340450525283813477e-01
2.185151404237304917e-01,-1.300701455606452783e-01,2.432848007536246859e-01,-3.954763580034175233e-03,-4.592275211900544792e-05,5.130289125738913538e-04,3.616729080677032471e-01
2.914224282385892151e-01,-1.429891777768981243e-01,1.930152126809504542e-01,-5.821046967682380266e-03,-8.950216827135895614e-02,8.959105304998479791e-03,4.242906570434570312e-01
1.738132188991508009e-01,-1.283039655255327482e-01,2.593957099072048411e-01,1.165106142610309800e-02,1.757642288929999949e-02,-8.998218058099857058e-03,3.550099134445190430e-01
2.383020788792125089e-01,-1.145489271602282422e-01,2.574264566054071390e-01,-1.012378938399357626e-04,7.353105504076008769e-04,-1.152048065826145667e-03,3.627991974353790283e-01
2.509766184046648974e-01,-1.283263423525180247e-01,2.501938129577291337e-01,5.286614788938068113e-04,1.496883707796337884e-03,-3.852747368538515793e-03,3.789809048175811768e-01
2.458352373465658713e-01,-1.262465121722237682e-01,2.331813828368394792e-01,-4.036022804791570412e-03,1.317825302758147228e-03,-1.905054483244158657e-03,3.660077154636383057e-01
2.407104126173240100e-01,-1.309382243458243056e-01,2.260486965173991725e-01,9.719373001571707943e-03,1.116410775746067702e-02,-1.667326462280076943e-02,3.665787279605865479e-01
2.370560110213050797e-01,-1.414284430405151061e-01,2.396827706347062770e-01,-1.601763017559939368e-03,-8.144879394423011013e-04,4.199371341595143367e-04,3.798180818557739258e-01
3.174455947501712560e-01,-1.964852045191155250e-01,1.158119243861621406e-01,5.151846555057952581e-03,-6.121472331004564754e-02,1.225035223528392857e-02,4.614399373531341553e-01
2.291161684494974482e-01,-2.700712518362809456e-01,8.483866536614845244e-02,-3.155089429143196483e-02,-9.480680697598242723e-02,3.124167997701147569e-03,4.774549305438995361e-01
1.985169050234540655e-01,-1.422847278263158211e-01,2.440357471499778885e-01,1.344043718294654979e-02,3.934577249214525618e-03,-7.081142431793789431e-03,3.667007088661193848e-01
1.986885967537940501e-01,-1.159137422410281837e-01,2.202791209260477889e-01,4.102570207673785982e-03,8.085168797768669049e-03,-2.223854490381871329e-03,3.263351917266845703e-01
2.095270267609758152e-01,-1.198950957291270020e-01,2.049918598119239710e-01,-1.992958014028461521e-03,6.418289546282086172e-03,6.480003353034355460e-04,3.273870348930358887e-01
2.342966343657810757e-01,-1.127748462392502427e-01,2.746199261642071621e-01,7.437668373131691921e-04,-1.066400505427906459e-01,4.346677707355773961e-03,4.126188158988952637e-01
2.215371704038947009e-01,-2.103301635450246510e-01,1.440036507036574209e-01,-4.335541145457116191e-02,-1.596599174118183972e-01,-1.824214959282648152e-02,4.920852780342102051e-01
2.171994212409518454e-01,-1.180987316721314739e-01,2.116659302765469541e-01,2.215262127799695700e-03,1.180765319394601331e-03,-1.802750730190818607e-04,3.325945138931274414e-01
2.436136585859166037e-01,-1.352685660299162151e-01,2.390251294666790871e-01,-1.444641168143376807e-03,4.685736472673100771e-04,5.405646871391070040e-04,3.766192793846130371e-01
2.537151208984263495e-01,-1.324412595695155792e-01,1.950832777148072128e-01,-2.048728146269754302e-02,-1.391030802753380202e-01,1.440860512101364149e-02,4.357113540172576904e-01
2.372863348445781173e-01,-1.380139469274426212e-01,2.370611417868528081e-01,-1.321068141787649875e-04,7.363236459542975287e-04,4.207029475689588564e-03,3.752607405185699463e-01
2.285052774648663743e-01,-1.353105964562766328e-01,2.095313781466210945e-01,8.799696770861061695e-03,-3.455462120167443561e-03,6.563716071070659595e-03,3.552694320678710938e-01
2.569719550184207946e-01,-2.842180944367815321e-01,1.269245850466441394e-01,-1.920706644193966505e-03,-1.303972078053749484e-01,-5.776971322908467862e-03,5.390177369117736816e-01
2.040501545506079872e-01,-1.144097836578863575e-01,2.223236276117467325e-01,1.102241360895605182e-03,1.695426266813931243e-02,-3.265885384329749504e-03,3.293448090553283691e-01
2.108865522126110448e-01,-1.179398208454929681e-01,2.156839245491431745e-01,1.433806068831579576e-04,2.255379518479402705e-03,-2.876545776814877498e-04,3.312746286392211914e-01
2.320293196721274764e-01,-2.794570789903995101e-01,1.657595074153437320e-01,9.802216999706258194e-04,-1.350789012971806979e-01,-6.592289569353248016e-03,5.357108116149902344e-01
1.448867414683338017e-01,-1.780181970283691573e-01,1.871998196216581867e-01,8.288625296995415226e-03,-1.167214747701116606e-01,1.653222179202129549e-02,4.020184874534606934e-01
2.129378688042622425e-01,-1.166000103319701220e-01,2.143800211786339449e-01,6.330011472726069848e-04,7.894541325988650715e-03,2.669814255455715563e-04,3.305464088916778564e-01
3.093033533949589020e-01,-2.450345422806772255e-01,1.021925623378699549e-01,-1.344475474546515288e-03,-8.503062942306831296e-02,1.279143404969349234e-03,5.070275664329528809e-01
2.163307257272038819e-01,-1.349799796752590431e-01,2.020312554062942967e-01,1.501684224219242483e-02,-2.541868914389479317e-02,1.193270725466909210e-02,3.487723469734191895e-01
2.116052608076537389e-01,-2.194261077713026697e-01,2.045314486483079675e-01,-1.213399369882271761e-02,-1.408408193439675549e-01,-6.845141633429063441e-03,4.928282797336578369e-01
2.347859788971120298e-01,-1.191996411218878282e-01,2.122700990648279107e-01,-6.861926067988909604e-03,-3.213782876435720103e-03,-7.256383573177707484e-03,3.437625467777252197e-01
2.840865706897645615e-01,-2.440174884424448076e-01,1.090215555764174338e-01,-8.706485806117563245e-03,-1.198372124406490158e-01,3.873264241704045627e-03,5.103375315666198730e-01
2.147765937766922817e-01,-1.219972908335814343e-01,1.922055003804988282e-01,-3.484681628309903995e-03,-1.064239916572748239e-02,-1.848081219843204521e-03,3.266668021678924561e-01
2.419543636712397083e-01,-1.369121303070059692e-01,2.381142439435615099e-01,2.776406938629998739e-03,2.387674700102102488e-04,3.329532754217526171e-03,3.770360946655273438e-01
2.346000753498418967e-01,-1.324005641850724835e-01,2.264517946504770174e-01,8.672537482626280865e-04,-8.205682709792510091e-03,3.297458878991005489e-03,3.633212149143218994e-01
8.656986424357822341e-02,-1.585109169458040479e-01,2.598520084633196836e-01,4.767436191590380609e-03,-4.333077107775035880e-02,5.847212291671149975e-03,3.719715476036071777e-01
2.503037536781689831e-01,-1.379050424104922568e-01,2.406436507510197886e-01,-3.835908460163823348e-04,3.431408318721252456e-03,9.543165969378563252e-04,3.835202157497406006e-01
2.666349920787137728e-01,-1.375369845696215454e-01,2.028328750214092868e-01,-1.158465914583210396e-02,-2.835249162021046335e-02,-4.059773755197431527e-03,3.801346123218536377e-01
2.263261875402246548e-01,-1.353180890789047464e-01,2.317900657288438082e-01,1.102816896813539616e-02,-1.488420802758313143e-02,1.402838354890899655e-02,3.666228055953979492e-01
1.890677194580890064e-01,-1.422182545335863024e-01,2.440113820686229673e-01,1.434398069329160912e-02,-7.971735783486361051e-04,5.076657026866332120e-03,3.628605008125305176e-01
7.712208221540581277e-02,-2.907710549529092803e-01,2.784641142029899430e-01,-6.155889943671779066e-03,-8.751902394127021589e-02,3.443784651830632520e-03,5.225747227668762207e-01
1.108210474501891418e-01,-2.196808467015229083e-01,2.551990896162767419e-01,-1.868164492266558008e-02,-1.143341610263448604e-01,-1.113804638625716381e-02,4.673647582530975342e-01
1.427025990833795666e-01,-1.233355317218453595e-01,2.303235328212037414e-01,5.407696322394167816e-03,-5.758395786787404158e-02,-7.708941931297953222e-03,3.346311151981353760e-01
2.268980841055904529e-01,-1.321757087959198884e-01,1.792040594911100126e-01,-1.079018184030073810e-02,-1.865851252426980675e-02,-9.307301890245350123e-03,3.402008414268493652e-01
1.296156808308102648e-01,-1.449278286164317753e-01,1.875146312451320130e-01,7.154147002482590112e-03,-6.289877264840032511e-02,9.746231687218737810e-03,3.270007371902465820e-01
2.285591912655220437e-01,-1.208967091102111091e-01,2.141549083839539847e-01,-5.338091447664812007e-03,-6.690029654408564778e-03,-5.074318626367891119e-03,3.429143428802490234e-01
2.460279310422881782e-01,-1.352981079788530550e-01,1.594915803604332050e-01,-1.050901166127973655e-04,-6.382396737327195035e-02,-1.901832152921118207e-04,3.634833693504333496e-01
2.426921308197355076e-01,2.230641341137806766e-02,2.431662243410013524e-01,2.775921068126562755e-04,2.513371997814260175e-04,-1.008155423459848599e-02,2.213140428066253662e-01
4.511566162781094347e-01,9.751801254370118244e-02,4.996342056429664558e-01,3.742136239177698553e-02,1.400086122458476558e-02,-1.207190610762252925e-02,3.870145082473754883e-01
2.398645639969916865e-01,1.122054265340372003e-02,2.472602742405514975e-01,1.120396794553284696e-04,-6.862163826194327913e-04,9.938297110077946341e-04,2.324396371841430664e-01
2.467079203237370622e-01,-8.136268496129356320e-02,2.558105816916184660e-01,1.272704955889775256e-03,-7.420327554617487352e-03,-1.437803815969078847e-03,3.329800963401794434e-01
2.423182356800316073e-01,-1.521002908430931500e-01,1.196015105633613518e-01,3.471526839488095744e-03,1.923359017349735717e-02,-3.266835541288402867e-02,3.557685017585754395e-01
2.404491195118089175e-01,-1.386542904625642225e-01,2.445017228379607888e-01,-8.406765007443157489e-04,2.629954249867805152e-03,-9.259920050955464758e-06,3.811758756637573242e-01
2.382242400805965610e-01,-1.377316056053070059e-01,2.383019942099911526e-01,-4.909363421559968712e-04,-6.642017190243958017e-04,4.123829058651643301e-03,3.760652840137481689e-01
2.390990888045261831e-01,-1.400868947372875262e-01,2.403358815646680080e-01,-8.044425518652041900e-04,-4.471543630215255006e-04,4.981748753633743337e-04,3.798102140426635742e-01
2.408798447997883008e-01,-1.339917929104215699e-01,2.502733493661628561e-01,-1.531973179390485598e-03,-7.361552616840981444e-03,1.046897556976040785e-03,3.798831999301910400e-01
1.408818897880005916e-01,-1.285567229614162366e-01,2.713497478222290926e-01,-1.245308919126028591e-02,-2.921848843092183373e-02,-8.042183183899571030e-05,3.574891984462738037e-01
2.361991026563148577e-01,-1.318642910064586060e-01,1.942962407631997346e-01,-1.531911523532183267e-02,2.041049235067052270e-02,1.481745545833986454e-02,3.527266085147857666e-01
2.356356154979386275e-01,-1.387943561411741078e-01,2.273922207869226719e-01,5.134691516723594723e-03,-1.216633149939867764e-03,3.867330548237909050e-03,3.705503940582275391e-01
2.375940741884500218e-01,-1.407245295004789232e-01,2.374610880341975760e-01,1.595009133883697845e-03,3.994114044321736112e-05,-1.348562096871066054e-03,3.782694339752197266e-01
1.854479458263759151e-01,-1.238582604966463330e-01,2.495401397792946507e-01,-1.021048859572262942e-02,6.318534128015121723e-03,3.995099675745063424e-03,3.465294539928436279e-01
2.341896979429780035e-01,-1.307772758734218610e-01,2.541578089515999506e-01,5.138593793521833205e-04,9.343363106021456950e-04,3.407939181323990131e-03,3.754005432128906250e-01
2.430361089045319778e-01,-1.378350580814732274e-01,2.413291398554355260e-01,2.367862163171208408e-03,-3.980048109377650953e-03,-1.902362438509000268e-03,3.801194727420806885e-01
1.908723282305951341e-01,-1.248386501002834437e-01,2.496107935039980352e-01,1.069438751715524492e-03,-2.464185143768739782e-03,-8.401965408608011096e-04,3.488434851169586182e-01
1.945667142218354129e-01,-1.408823745046886011e-01,2.365598454201290335e-01,-1.362367597633129361e-02,-2.124490720771274408e-03,-4.498648782649835947e-05,3.590911328792572021e-01
2.435147670492306127e-01,-1.336108906746364955e-01,2.382849634557212271e-01,-4.028771567799420764e-03,-2.137096447251667346e-03,1.534296803696081138e-03,3.746308386325836182e-01
1.175465513519960287e-01,-1.394655875155307312e-01,2.271820507435318715e-01,-1.208939274195499659e-02,8.369927666993984272e-02,-8.499898727328881673e-03,3.576656877994537354e-01
1.327984251288713280e-01,-1.382077261431245707e-01,2.508439041602690822e-01,-3.767768086328759924e-02,4.634395259369755021e-02,1.676132067793836833e-02,3.618218600749969482e-01
2.276715489880500320e-01,-1.254015936564334410e-01,2.363785163857739513e-01,9.756734438861915104e-03,-1.890076425257989929e-03,1.009061888972989478e-02,3.583467900753021240e-01
2.872663926045542215e-01,-1.366359149299967157e-01,8.191797731534927740e-02,3.438276893690574328e-03,3.833163125787009823e-02,2.854620727919457424e-02,3.764326572418212891e-01
2.733852785618449133e-01,-1.384694274641426470e-01,1.561808119233631387e-01,5.204920333719702946e-03,5.460358596259472924e-02,-1.166176829692400219e-02,3.801629841327667236e-01
2.498454353386734272e-01,-1.430260514063797506e-01,9.548960876344508852e-02,1.125051787658356249e-03,1.200065023855710102e-02,-1.336617530584613411e-02,3.442434072494506836e-01
2.120473110959894547e-01,-1.569543646923837465e-01,1.151959979304520432e-01,-1.006137230091921908e-02,5.356209112646296427e-02,1.418845191329920659e-02,3.454250097274780273e-01
2.336380699102209857e-01,-1.348416388404529154e-01,1.686150149386999308e-01,-4.322738118940227039e-03,8.958922984510515886e-03,1.478751870389775729e-02,3.420504033565521240e-01
2.241508950439997372e-01,-1.223418925330821139e-01,1.603056830373373598e-01,-1.632629829849675546e-03,1.378157152266676518e-02,4.929932595108361612e-04,3.202968537807464600e-01
2.617518431596266293e-01,-1.227846867969352995e-01,1.624918805866695792e-01,-7.133273746985833302e-03,6.823250748201493271e-03,1.195863032379104567e-02,3.468042016029357910e-01
2.541213160217925537e-01,-1.075075042560287297e-01,2.391990084384762461e-01,2.990441317571312929e-03,6.074796182457556371e-03,1.244808529237979638e-03,3.546039164066314697e-01
2.313138650882268776e-01,-1.335581332283257705e-01,2.241695628394698714e-01,6.268067415885316199e-03,3.849453689104578814e-04,-5.035029731840327816e-04,3.615175485610961914e-01
1.198537815185978794e-01,-1.283781778920984884e-01,2.979646388870407225e-01,2.095645620239212914e-02,-5.505972767046136279e-03,-3.083000318584517077e-03,3.728168010711669922e-01
1.145862029107719560e-01,-1.327067386081127731e-01,2.605192739452322215e-01,1.797279845815150101e-02,3.984886099744573695e-02,-2.380334026672637198e-03,3.525454998016357422e-01
6.962822231029813791e-02,-1.289087692234640037e-01,3.543293761903655859e-01,6.957039619416406119e-03,6.200360606102492400e-02,3.264159835704306956e-02,4.380300939083099365e-01
2.408108167235908370e-01,-1.408149152922286707e-01,2.393875779110157254e-01,8.201892739826798905e-04,-5.431498310615392880e-04,-5.398394616017304377e-04,3.809210658073425293e-01
2.262291239714324109e-01,-1.367163670405997511e-01,2.265233010679106318e-01,-3.843542690762194111e-03,2.254056400534403329e-03,4.646202530126873273e-03,3.632638156414031982e-01
2.406141655254050993e-01,-1.374715929584010010e-01,2.443117904465052503e-01,1.574504534726796270e-03,7.089076620053658302e-03,1.554356575460768674e-03,3.801657259464263916e-01
1.841977846718526046e-02,-1.873123918559805867e-01,2.983192846220517058e-01,1.318686477490723166e-02,1.331287333428076737e-02,1.391964709776558583e-03,4.234536290168762207e-01
1.715327633154097864e-01,-1.374230050048954044e-01,2.705766175243888294e-01,-2.415784994459567112e-02,-9.914168653612172311e-02,-2.908563173371219151e-03,4.088115990161895752e-01
2.423277991811256804e-01,-1.107734052778433925e-01,1.864779988022369217e-01,2.202163038417648440e-03,-3.078536985842917142e-02,6.492664012687535905e-04,3.330736458301544189e-01
2.136528127413470091e-01,-1.205394043048365199e-01,1.881151321224140416e-01,1.144179054233372835e-04,9.208595100554675672e-03,7.520903554207868406e-04,3.225806057453155518e-01
2.134363590498322139e-01,-1.153508890690600891e-01,2.275243400353881285e-01,5.896058224069022913e-03,-1.081134256065174708e-02,7.596233199250406083e-03,3.369859457015991211e-01
2.191468026081309639e-01,-1.168027289598949775e-01,2.122463479659054408e-01,4.001721400540945647e-03,-1.440695257415091496e-02,1.984972650195638427e-03,3.335776329040527344e-01
2.788631150738555275e-01,-1.786077568649735436e-01,9.701027382914462205e-02,-8.148685970779667720e-03,8.364381803032223950e-02,-6.629315501109231575e-03,4.248265326023101807e-01
1.613034123286535837e-01,-1.395499555752384713e-01,2.446642751644115821e-01,-1.621352670873817126e-02,-1.520009108486525609e-02,-9.114033006004749332e-03,3.525225520133972168e-01
2.071720557578256294e-01,-1.221062675502784384e-01,2.195961134020385508e-01,2.500819379625388895e-03,-1.783348281202626860e-03,5.193599550798729675e-03,3.358255028724670410e-01
2.385086394657167652e-01,-1.403359146817582115e-01,2.390768939829313044e-01,-1.860637152798514456e-04,6.646263431088706092e-04,-7.433686300230887140e-04,3.791330754756927490e-01
2.133202108587956003e-01,-1.243978529241210884e-01,1.779221548755992033e-01,6.930117794770362764e-03,-3.251996700819502484e-02,9.301872428776247672e-04,3.266056776046752930e-01
2.320206337269899166e-01,-1.349406826024050210e-01,2.421033157304160188e-01,6.354591175835721563e-03,8.444617370082701862e-04,1.112567886305808112e-03,3.722757399082183838e-01
2.311084425877996396e-01,-1.340152214158638055e-01,2.405283567360234076e-01,3.697866415852426019e-03,3.720328980939687185e-04,-2.572966498984083535e-03,3.700064420700073242e-01
2.402087261931389883e-01,-1.402856121101140330e-01,2.393164854224155147e-01,-3.949206521103673802e-04,5.405481872708105826e-04,-4.868223969340674650e-04,3.800517022609710693e-01
2.321627938459232543e-01,-1.051993601310788617e-01,2.593771798688305208e-01,-1.391026866514684292e-03,-5.933207989157597648e-04,-3.693805417190552595e-03,3.518277108669281006e-01
1.571502458378521982e-01,-1.359655751773107268e-01,2.736847829437535351e-01,-9.618833456093104500e-03,-1.382034342023547545e-02,-3.595275539222483711e-03,3.668032884597778320e-01
2.355888344772274767e-01,-1.196841305528309890e-01,2.492200974522613688e-01,-3.911746047354595739e-03,1.302585702406105356e-02,9.605413906846470458e-04,3.630498647689819336e-01
2.441031383973287783e-01,-1.388424058817253615e-01,2.383591279725734702e-01,-2.624765485779226564e-04,-2.197287552878709853e-03,1.117623774825808212e-03,3.801303505897521973e-01
2.536736278534864608e-01,-1.199667834874615369e-01,2.458969730254761399e-01,-4.077211416608177499e-03,-9.363118325550067941e-03,2.854454315673282845e-03,3.702692091464996338e-01
2.414987847273668831e-01,-1.366788472987014169e-01,2.400680342978551152e-01,-8.805616582567119162e-04,-1.443376263915166101e-03,-2.477673684040012682e-03,3.775000572204589844e-01
2.376103881699302978e-01,-1.369579310358572943e-01,2.403349505533116104e-01,4.299721681807135328e-03,1.124834222189986148e-03,1.843301688588485266e-04,3.760169446468353271e-01
2.386604342650112676e-01,-1.403598136329233803e-01,2.391516841763265400e-01,2.997705049184048141e-04,-6.521347352738287619e-04,-7.942823701484113749e-04,3.792706429958343506e-01
2.448447365112024487e-01,-1.278695337163246459e-01,2.429254031046397810e-01,-1.779085488411881162e-03,-7.487116519072515262e-03,-1.305222085484419002e-03,3.720040619373321533e-01
2.379120373696075041e-01,-1.386788265966384381e-01,2.405470856551695236e-01,2.793130394393653591e-03,7.024423648213710914e-04,1.494131764782165653e-03,3.779570460319519043e-01
2.433798058560111555e-01,-1.355386663774307276e-01,2.384556126279624988e-01,-2.704081768566325272e-03,-6.479986617110236255e-03,3.855791954596394892e-03,3.767361044883728027e-01
2.009991283900529058e-01,-1.357821882167572214e-01,2.486443070401454514e-01,5.216453308561031996e-03,7.213737519178722380e-04,-4.808469865593452061e-03,3.631670176982879639e-01
1.300606813359180269e-01,-1.308920616474258114e-01,2.646717703028095281e-01,3.478645129755442156e-02,2.235639714484394941e-02,-1.426162023305639235e-03,3.556394577026367188e-01
1.795417090131529725e-01,-1.184602403985488134e-01,2.262233515513855098e-01,-1.227000311955383192e-03,-7.308137548541798929e-03,-5.648477267277492511e-03,3.242776989936828613e-01
1.578254267886934903e-01,-9.379269551066272970e-02,2.306264568568361373e-01,-3.228987973310233628e-02,6.496338790747013814e-02,1.067807031271635239e-02,3.210302591323852539e-01
5.850842930482594295e-02,-1.959368195066534812e-01,2.600206219378603523e-01,2.715294731215161378e-02,6.146868535576621717e-02,-1.896042017842849287e-02,4.138223230838775635e-01
1.635193593706892323e-01,-1.288072941660526327e-01,2.388003909681754300e-01,1.977230196992765116e-02,3.437176296056254632e-02,-2.013591469226866382e-02,3.450539112091064453e-01
2.121032644528055289e-01,-1.256900199148271446e-01,2.197232736255016472e-01,-3.299238823892806536e-04,-1.058567129044779478e-03,-3.999546368669024653e-03,3.417426347732543945e-01
2.501420098114832125e-01,-1.330992347198836079e-01,2.355935534062199577e-01,-1.191883264095370924e-03,-4.106901625923049624e-05,-6.688369101695549766e-04,3.761855363845825195e-01
1.946145318548349601e-01,-1.406938817892462446e-01,2.187538083032918301e-01,1.576909070694256301e-02,4.271692438549169746e-02,-7.460898687871176348e-03,3.570654392242431641e-01
1.307399275186251764e-01,-1.533769150153495575e-01,1.637827279301857231e-01,1.651433347650747147e-02,1.088727172327785403e-01,-1.112688845838465460e-02,3.577032685279846191e-01
1.792904675378865498e-01,-1.466804506878076897e-01,1.932458106641474216e-01,6.921727894867508134e-03,1.071065741767666113e-01,1.977987343371839270e-03,3.815386593341827393e-01
6.826833292048936630e-02,-1.752529762048645745e-01,2.525306787469751013e-01,-7.242834491510176387e-03,2.648662474744313197e-02,3.433629348030333393e-03,3.747324645519256592e-01
1.126421996234597822e-01,-1.585540949083983076e-01,1.871031161761737283e-01,-1.678832159093882753e-02,-1.173114248792157394e-01,-1.683128619609311483e-02,3.771826028823852539e-01
1.662513847145458690e-01,-1.578215488193330240e-01,2.309337763457425252e-01,-2.019619971273110826e-02,-7.988562246736934103e-02,-1.507949660899630083e-02,3.888699710369110107e-01
2.397302469508327261e-01,-1.398780987483527194e-01,2.408493902638567663e-01,8.689078177773424056e-04,1.691151970938548424e-03,5.179344898112220232e-04,3.801844716072082520e-01
2.380684709142879829e-01,-1.397473034689102056e-01,2.384415141022639406e-01,3.371975063869079008e-04,4.974562885012879252e-04,1.470523977676434224e-03,3.780124485492706299e-01
1.372849617673074785e-01,-1.213635225419884694e-01,2.488355976722740337e-01,-1.216357078964495474e-03,-1.610682693099402610e-02,-5.842069190787170865e-05,3.301177322864532471e-01
1.660640767780110771e-01,-1.219270440668093064e-01,2.240909527492072062e-01,1.214439554897067848e-03,-1.930180980593305604e-02,-3.633371503223814438e-03,3.227676153182983398e-01
2.359730330281328559e-01,-1.347984892656845235e-01,2.204278075960220684e-01,4.638135322598694113e-03,5.628754502161011693e-04,1.943548547633816570e-03,3.633542060852050781e-01
2.427873800097238854e-01,-1.345706598591321912e-01,2.143890139690975416e-01,6.089662726679362544e-03,1.527579701681236381e-03,5.324539647872327496e-04,3.641542494297027588e-01
1.875624366021267919e-01,-1.268570529876749120e-01,2.276560104354352632e-01,-3.335947191561642548e-03,-6.219742704539663915e-03,-7.039521256428426209e-03,3.367067277431488037e-01
1.387904517393027393e-01,-1.282036665767960493e-01,2.298106827424215570e-01,2.550408878467553576e-03,-5.434097921305058171e-02,-1.001540034563885590e-03,3.357882499694824219e-01
2.370136055548877074e-01,-1.350154064561827627e-01,2.368299064442820345e-01,-2.925297196934471648e-03,7.728142553365304878e-04,-4.084708431596680532e-03,3.720414042472839355e-01
2.405215156799363763e-01,-1.378338184660532761e-01,2.504281426122232368e-01,-1.486630702339040728e-03,1.421902958320753760e-03,-1.454003021738627327e-03,3.834294676780700684e-01
4.488713760314475554e-01,7.511373777913873950e-02,4.399529732778733049e-01,-2.081901617081944114e-02,-1.210329281267463752e-02,-1.968134631261716713e-02,3.732865154743194580e-01
2.330203767246259439e-01,-1.356216723121304590e-01,2.210394539323809193e-01,6.760822730202656686e-03,1.089187132395379957e-03,-3.530357527173013141e-06,3.629938364028930664e-01
2.480166389548093819e-01,-1.121784922063415735e-01,2.433423274052634866e-01,-6.094041525889510452e-03,-9.639793222956081348e-03,2.319708014992570740e-03,3.584481179714202881e-01
2.459684504819522610e-01,-7.281532801845541636e-02,2.400839239938497571e-01,1.346077717656318090e-02,7.474733036074221633e-03,5.966815460885616443e-03,3.171747624874114990e-01
2.690303753349715943e-01,-2.239451088508911947e-02,2.444364700020066894e-01,1.272338737940783421e-02,-2.139707173648008887e-02,-9.194245155728961172e-03,2.836878597736358643e-01
2.519116906064288175e-01,-1.310803716991512657e-02,2.468298046990188566e-01,1.540439235830965868e-03,-1.988320441146289655e-03,6.660868459367634553e-03,2.628051936626434326e-01
2.435560726865301506e-01,-2.278986965659782205e-02,2.479607176805331825e-01,4.175188007436086285e-03,6.338522602053756538e-04,1.411914933382760542e-02,2.697856128215789795e-01
2.732867737384880868e-01,-1.674847795527492633e-02,2.860319860686591498e-01,6.978932245092960007e-03,-2.596821273816345491e-03,-3.480138087511370788e-03,2.969547510147094727e-01
1.511178830239765514e-01,-1.410456484859102244e-01,2.360132071920785779e-01,1.444919865561337946e-02,1.180815381216561780e-02,-3.299139896834920541e-03,3.441618084907531738e-01
2.348342433389788986e-01,-1.274659601775025575e-01,2.550861937706972449e-01,-2.256928101923023195e-04,9.117297892269737164e-04,3.851466648564445643e-03,3.729021549224853516e-01
2.220865696226754227e-01,-1.309166595395029609e-01,2.461871898471381936e-01,-1.825243458714579606e-03,6.614550982801082994e-03,1.377135875837723561e-03,3.658505976200103760e-01
2.405410072861839388e-01,-6.974153055242071630e-03,2.379050971599134812e-01,-9.826008220220984468e-03,1.403059517088083843e-03,5.943459009548146890e-03,2.470218688249588013e-01
2.348127801568699879e-01,-1.538060393882809129e-02,2.821096191570846012e-01,-1.124564171166238594e-02,2.817799852747127076e-02,-4.342750567658629560e-03,2.819309234619140625e-01
2.950982586690445997e-01,2.778728593049736850e-02,3.028723833530483356e-01,-3.561195350768620385e-03,-1.340866245459379491e-02,-1.577093374875222428e-02,2.737102210521697998e-01
2.827730726822872409e-01,8.049886682170132035e-03,4.345500691300808738e-01,-4.813553762331951313e-02,2.445033439538441336e-02,1.186385895528867078e-03,3.859462440013885498e-01
2.337016072229440855e-01,-1.383301650577912767e-01,2.323726849997858890e-01,-1.824355461310850140e-04,-4.870194596411775434e-04,-3.679716959604228087e-03,3.714248836040496826e-01
2.506309186205035178e-01,-1.337440731670243854e-01,2.373678846026054390e-01,-1.277291412227838079e-03,-4.371534212168643602e-03,-4.028275258956694302e-04,3.780010342597961426e-01
1.749685447720626119e-01,-1.162197307988875328e-01,2.320605310792905884e-01,-4.472366543402003894e-05,-3.523485922851748997e-02,-1.306577474667218030e-03,3.292479813098907471e-01
2.732665934216377268e-01,-1.075632634361570195e-02,2.711748430329160575e-01,-1.312782950204434938e-02,6.257114681404278740e-03,5.921407527283090513e-03,2.842867374420166016e-01
2.564309909523166953e-01,4.392574541621868667e-02,2.537030759592748819e-01,1.000476950272128664e-02,1.357927677497190603e-03,-1.025044309218573835e-03,2.118848562240600586e-01
1.622568007751350183e-01,-1.517279897829637569e-01,2.648957953538844112e-01,-1.076082576783790948e-02,-3.901142184393766033e-02,-1.186105743492794212e-02,3.829927146434783936e-01
2.732778825423467506e-01,9.004992268203143579e-03,2.751336864498962198e-01,-2.876643940220422369e-04,9.265402862377316098e-03,-1.732209765058855683e-02,2.673798799514770508e-01
2.731301677740043399e-01,-3.349921385107929028e-02,2.838540477119960714e-01,-5.058965314036122096e-03,-4.522690347051074727e-03,-8.682261013274385208e-03,3.127125203609466553e-01
1.966326917113880857e-01,-1.221503139648632830e-01,2.473534070606456248e-01,-1.041787301728133329e-03,1.606043111879090768e-03,4.661802914077721113e-03,3.470450937747955322e-01
2.533967639313243758e-01,-1.656987588788089161e-02,2.529973603803370441e-01,-4.735767691234998270e-04,5.822808225223694359e-03,-1.420227599717447178e-02,2.710753083229064941e-01
2.946506318823908233e-01,-7.778785964455950386e-02,1.604584365350379405e-01,1.313578555755368256e-02,-4.056724374696836499e-02,-1.459991093847928280e-02,3.359075188636779785e-01
2.816273464493943557e-01,-1.624601678896011592e-01,2.069800550977236586e-01,1.090881484871762674e-02,-1.092994634231302803e-01,1.238993248808881176e-02,4.541945159435272217e-01
2.738587395961385451e-01,-1.759175994590254921e-01,1.180704586970248299e-01,6.623478894573190182e-03,-1.277056993083706682e-01,2.061749762066930614e-02,4.547878205776214600e-01
2.554043998593652498e-01,-1.299134756102817145e-01,2.397998630400355879e-01,-8.024568847603330340e-04,4.403106046641609359e-03,-6.300771156552192800e-04,3.778385221958160400e-01
2.488766681622045507e-01,-1.941396576784797934e-01,1.785350206788849925e-01,-9.788279485679991440e-04,-1.291958698346885592e-01,1.054221748302430241e-02,4.695315957069396973e-01
2.412715565581373123e-01,-1.408946638056019496e-01,2.378684109169742489e-01,-5.184495423883574627e-04,2.877824736928207873e-03,-6.589482064651338558e-04,3.805114924907684326e-01
2.150706265950640406e-01,-1.185945176997716538e-01,2.159364983461088128e-01,-6.254681779731624753e-04,-1.896977888127337293e-04,-1.626101307132481579e-03,3.341127038002014160e-01
2.221163606524295120e-01,-1.234106256570849380e-01,2.172317191057847319e-01,-1.547397641276436302e-04,-2.587571653262020748e-03,-9.087506599819833962e-04,3.431437313556671143e-01
2.514269700048213374e-01,-9.795739235646269694e-02,2.271309620516814842e-01,1.063351168561745864e-03,-5.035413045975893967e-03,-2.192132302463245595e-04,3.380098938941955566e-01
2.629166295367326156e-01,-5.073993542658511435e-02,2.495687305458691718e-01,8.874674667825914942e-04,-2.103592632665214103e-03,1.574403231950742554e-02,3.084334731101989746e-01
2.516410273791367946e-01,-9.536658793603830508e-02,2.343459662465671167e-01,-6.191330731505417968e-03,7.349301799334361646e-03,4.428532751564203881e-03,3.391869068145751953e-01
2.540821156839077055e-01,-1.337421892667448597e-01,2.370248652662770850e-01,5.346655489591109478e-04,-1.312231337809560130e-03,-1.098061055474166495e-03,3.795959353446960449e-01
2.480279031724682837e-01,-1.850333451387464745e-02,2.550900297606716882e-01,5.680167047989712753e-03,3.176691793565070143e-03,1.627835138296105169e-02,2.718327939510345459e-01
1.862089113716824396e-01,-1.254728119074439430e-01,2.436832289640010474e-01,-4.259304164761941718e-04,3.476677016138445681e-03,-6.443899229184038395e-03,3.442729413509368896e-01
2.301585618785894072e-01,-1.349838312240095872e-01,2.471336652358502028e-01,7.246772530517436688e-03,1.298242741331484822e-04,2.427979062734124567e-03,3.741533458232879639e-01
2.248185923390723095e-01,-1.338815859552850429e-01,2.123616053353633015e-01,1.462849937451471405e-02,-1.747008167335543233e-02,1.186380590212117447e-02,3.554328382015228271e-01
2.552048560936595045e-01,-1.036328271856261640e-01,2.381216018458743311e-01,-4.275677624775602211e-03,-6.572234755479239646e-03,4.101069430900433979e-03,3.509431481361389160e-01
1.386102162406908089e-01,-1.376029008276878352e-01,2.597724112145407549e-01,-2.203888136480765952e-02,-4.539641886214011018e-02,4.484826039424946731e-03,3.635113835334777832e-01
2.116427258257691235e-01,-1.363662622754795994e-01,2.360539731372361671e-01,-4.196392374565251172e-04,2.940011419699642197e-04,4.135382575467447946e-03,3.609066307544708252e-01
2.298464006469249643e-01,-1.334082962778928017e-01,2.398170240936679520e-01,8.393789464894128860e-03,7.684733633957876228e-04,4.706492046448570304e-03,3.687205612659454346e-01
1.515457367372173292e-01,-1.270749823768934639e-01,2.637116036089879323e-01,1.245250914045828265e-02,2.393754222680609736e-03,-1.760598009167389007e-03,3.492192924022674561e-01
2.514659871667840330e-01,-1.268160164827117353e-01,2.370107783373689714e-01,-1.181818961724517576e-03,-4.284744632591798441e-03,1.603061838451211047e-03,3.713557124137878418e-01
2.261210047801125445e-01,-1.325538622040244585e-01,2.390054287498690200e-01,-4.604830404005866057e-04,5.486869236893900017e-04,-5.392806136052064568e-03,3.654090464115142822e-01
2.300970809955367735e-01,-1.378618083522858973e-01,2.385009920958072738e-01,3.771577062293266815e-03,9.403475780584201558e-04,-4.414541782043869024e-03,3.723714053630828857e-01
6.776959207558291842e-02,-1.695595184179553572e-01,3.572040580128074683e-01,-2.355487174925020161e-02,-3.354024983519655889e-02,-2.192627718034516338e-03,4.624309837818145752e-01
8.360644782878866310e-02,-1.920237421759841412e-01,3.616379981728830018e-01,-1.494946259679357826e-02,-2.315140159513902687e-02,-1.994277580401294762e-03,4.818690419197082520e-01
2.530706735287143738e-01,-1.168515580461270686e-01,2.396688339192480366e-01,-5.050384429586581361e-03,9.059315097634752789e-03,8.125492071948664909e-04,3.638531863689422607e-01
1.552727966735980847e-01,-1.160900090067851498e-01,2.568398667118631518e-01,1.315538238250979052e-03,-6.134886158835698051e-03,2.814084050222244449e-03,3.341512084007263184e-01
1.920393869116914232e-01,-1.409919075309533087e-01,2.440512668148437370e-01,1.509548506223839723e-02,5.656723360518160684e-04,-1.525060409192052161e-03,3.628060519695281982e-01
4.950505619903756288e-02,-1.676915798720612083e-01,3.822234659125054446e-01,-1.837552063533692825e-02,-3.302615467117369502e-02,2.030394066730123112e-02,4.854514896869659424e-01
3.969554111852238165e-01,1.453467341651723532e-02,3.296914964033862416e-01,-1.445605531402077877e-02,-4.594474452877216758e-02,-2.505093754896885877e-02,3.659088313579559326e-01
2.476622023194710032e-01,-1.375844334306893790e-01,2.381339304689439884e-01,1.036199045884501647e-04,2.135001217884429769e-03,-1.004678751769232971e-03,3.805939555168151855e-01
2.488354496928815718e-01,-1.123569109871145333e-01,2.396907103928309635e-01,-1.779309465882552123e-03,8.097146448578415243e-03,-9.883058257980381102e-04,3.570009171962738037e-01
3.071009134092382853e-01,-1.711270116929233809e-02,3.267485505681970714e-01,-9.339666825379889376e-03,-5.726841473648796449e-02,-2.514895956283767775e-02,3.519497811794281006e-01
2.383880837655955598e-01,-1.382295494884097087e-01,2.414165005397761465e-01,-2.748148391783262687e-03,3.149040832301170777e-03,-2.174991637291013614e-03,3.782289922237396240e-01
2.363204006331763307e-01,-1.369098142499238224e-01,2.372628748549601707e-01,-2.144089106096182251e-03,1.315493138400583573e-03,-6.758609327076317477e-04,3.737295866012573242e-01
2.445040000321909990e-01,-1.390338018689391275e-01,2.411566790171879582e-01,-6.717134223713035115e-04,4.315574986590514986e-03,-8.998601066636302331e-04,3.819532394409179688e-01
1.927477698876987611e-01,-1.231321899384844876e-01,2.593768346821604398e-01,1.485539267390076357e-04,2.348336894260763009e-03,3.933487223089979917e-03,3.540189266204833984e-01
2.193302744054812514e-01,-1.300058960215525194e-01,2.263246049386042069e-01,-2.514965948677822145e-03,-6.621535864107888116e-04,-5.344198186311608159e-03,3.530354499816894531e-01
1.949774591252205480e-02,-1.866180898999744153e-01,3.082576491455497059e-01,2.012438566360856725e-03,-3.809942465085474120e-04,3.760367797352408628e-03,4.306263029575347900e-01
1.132692588863708771e-01,-2.826772141907356040e-01,2.497793941458247013e-01,-5.909384054829698238e-03,-1.091574764777623330e-01,2.532687892089087109e-03,5.151013731956481934e-01
1.379812719546149036e-01,-1.343222280006635128e-01,2.750238598142669133e-01,-2.207427673653998557e-02,-2.498517876266108384e-02,-5.148656759718918570e-03,3.655970096588134766e-01
1.892221266040585159e-01,-1.265930962498513779e-01,2.472469579414010021e-01,-8.292749348208005984e-06,-7.810367129197816859e-03,-5.624976083793213968e-03,3.488684296607971191e-01
2.390878402685757964e-01,-1.390165671427460725e-01,2.424279137107897553e-01,8.588311320983072318e-04,2.469432166996448491e-03,4.742022547595216493e-04,3.798133432865142822e-01
2.339840497156920329e-01,-1.371681783073952499e-01,2.395767926616937937e-01,3.315088317043086985e-03,2.055292791169801778e-03,6.284107051247664463e-04,3.740425705909729004e-01
2.308478261856328762e-01,-1.372768183532978581e-01,2.386730639109694019e-01,-4.787549411202802162e-03,1.350966804044983907e-03,-5.124006951182532438e-03,3.723045289516448975e-01
1.173235575452644674e-01,-8.974848775753745123e-02,2.885498310792142251e-01,6.168272871162084128e-03,-4.837162292771274297e-02,-2.704536840045444063e-02,3.420253992080688477e-01
2.420703604832009637e-01,-1.128656784811327696e-01,2.462789338312415532e-01,3.714145267978634368e-03,2.135514245447949974e-03,5.472389373937550441e-03,3.572617769241333008e-01
2.090220714450956585e-01,-1.120175259308513194e-01,2.604916646408620418e-01,-1.644730156046820754e-02,-3.297982591633355672e-03,-1.286749107827290508e-03,3.508396446704864502e-01
2.308880187241570958e-01,-1.327852563119821250e-01,2.280328348214565870e-01,-1.062365687240699255e-02,-1.388866088077727462e-02,-7.635856007663642184e-03,3.637585043907165527e-01
2.523767475516716097e-01,-1.153458843002766188e-01,2.436788522558105408e-01,4.447832110240827405e-03,5.716169976969102083e-03,-6.884111420241898188e-04,3.636701405048370361e-01
2.450096991907648736e-01,-1.222200851456057835e-01,2.516049439804098897e-01,-1.384765476333986401e-03,-8.207413142268376108e-03,3.305108668663740874e-03,3.708959221839904785e-01
2.241642138429819076e-01,-1.300167449858397051e-01,2.187597598903923690e-01,8.285522823142038931e-03,6.488367545288933023e-03,-9.271982203487627583e-03,3.523483574390411377e-01
2.474107647997262904e-01,-1.307462610829212002e-01,2.217847535056689523e-01,1.130551214244331787e-04,2.268818293826819349e-03,-5.760373072820591626e-03,3.661745488643646240e-01
3.757805838150585220e-01,-5.729487785108114406e-02,1.581848456989129459e-01,-1.646218058877257917e-02,2.053107738164609841e-02,-1.493311014053663038e-02,3.786996901035308838e-01
2.520696615197001167e-01,-9.024387639642611481e-02,2.586827327463125936e-01,-2.705546701368709284e-03,-3.265745233054919133e-03,9.548212374699969335e-03,3.461408615112304688e-01
2.393436509738697815e-01,-8.478107982779053975e-02,2.416803939329890127e-01,2.192992670137427699e-03,-7.149622757376084166e-03,-1.622630681169767849e-03,3.255693018436431885e-01
2.501405819958674170e-01,-2.201074412473427722e-02,2.532459138814435740e-01,2.013446621355077792e-02,9.400199770574869246e-03,-1.176747808288573999e-03,2.764173448085784912e-01
2.458426336056495076e-01,-1.292065741351268171e-01,2.407566006270821513e-01,-1.899379840713442307e-03,-5.028092037305341606e-03,-1.028313431692001907e-03,3.726527988910675049e-01
2.385850398320137067e-01,-1.286299725893532697e-01,2.479502122999959202e-01,1.309376543785505239e-03,-5.167992306914619312e-03,-1.194288598753253956e-03,3.721063733100891113e-01
2.452195268531520422e-01,-9.841712212775649560e-02,2.309462433722059838e-01,-3.686540158959631351e-03,1.492481779820924344e-02,1.270781261818844897e-02,3.384945094585418701e-01
2.323720125852349605e-01,-1.402159092159144804e-01,2.352569382930199127e-01,-5.066276997515719097e-03,5.368348746425661948e-04,1.173236525798565522e-03,3.741483092308044434e-01
2.469361747611785729e-01,-1.205714794563195191e-01,2.408618528467941222e-01,6.807711472045170457e-03,-5.340633770749872791e-03,-3.488668613049170780e-03,3.648664653301239014e-01
2.460756282311364618e-01,-1.307503552756550114e-01,2.421336622142575001e-01,-6.066101354897266915e-03,-5.855445891702876389e-03,3.188475734084154651e-03,3.751955032348632812e-01
2.383965012052494392e-01,-1.370329046889459390e-01,2.414262184137779266e-01,-4.327482927907577714e-03,-9.264866334518366857e-04,3.489549353816443801e-04,3.770318031311035156e-01
2.333209657210686405e-01,-1.511806894691928305e-01,2.367475326521962797e-01,-1.822936744790456046e-02,3.599752293498401090e-02,9.462457437953026781e-03,3.928406834602355957e-01
2.391021857696006836e-01,-1.209010321428875684e-01,1.449747166360253192e-01,1.759327496714906819e-03,-6.939435088138565244e-02,-5.182222445019354917e-03,3.451270461082458496e-01
2.040006829536110677e-01,-1.202602510301463423e-01,2.094757628220340062e-01,4.228315164079837893e-04,5.417420362095627835e-03,-1.382219397650560552e-03,3.271770179271697998e-01
2.796066212887110547e-01,1.614991121495154558e-02,2.851642115512810771e-01,2.249914702125984517e-02,-6.584499121932024107e-03,-5.941375345969644034e-03,2.695535421371459961e-01
2.549702141892660201e-01,-1.299916597752954761e-01,2.389137797117140971e-01,1.469742725830599627e-03,-2.102150920569477964e-03,5.783491902215015160e-05,3.772162199020385742e-01
2.349868291862213521e-01,-1.317502662033728789e-01,2.383724215647567979e-01,-2.252081711886011906e-03,-1.527604864858506540e-03,-7.392023946123679572e-03,3.686940670013427734e-01
1.289067332598262672e-01,-1.430986764947300427e-01,2.815706092479610678e-01,-3.601558306406783816e-02,-4.245062120371554532e-02,-1.513052609433013923e-02,3.857498466968536377e-01
2.580778504308087751e-01,-1.021750779602466630e-01,2.266941956411665515e-01,-8.567035211137996598e-03,4.453253769323326297e-03,-1.947179096214258836e-03,3.460521697998046875e-01
2.489648799886078900e-01,-1.322424316428378321e-01,2.440893955815804650e-01,1.654807914927624007e-03,-1.535122040184671655e-03,-1.930670655521106796e-03,3.788280487060546875e-01
2.557622967913429912e-01,-1.104778287463329955e-01,2.381751805261527188e-01,5.220554278453330352e-03,-2.795854146923034030e-03,-1.458047958795264179e-03,3.579268455505371094e-01
2.618289821865632527e-01,-1.105498250763430335e-01,2.274534148448274229e-01,-1.326390665323953257e-03,9.202416358186613771e-03,1.999295979827819120e-02,3.584765195846557617e-01
2.396305179919551442e-01,-1.365416141512093007e-01,2.492683133266104245e-01,-2.870630548362132928e-03,1.345263878165279181e-03,-3.145920427474422579e-03,3.811609447002410889e-01
2.482778399217640264e-01,-4.977263077903026911e-02,2.365450509903519738e-01,-1.089079238923479701e-03,1.170047804440682918e-03,8.818989935035595777e-04,2.923777997493743896e-01
2.353142980985745425e-01,-1.374749593944941672e-01,2.278265598306414841e-01,-5.277905597959750561e-03,-7.349655887010610655e-04,-3.479529547103476107e-03,3.692669272422790527e-01
2.312699469253411411e-01,-1.331329263144664099e-01,2.233345951732239043e-01,-6.395700604450848571e-03,6.018346069935826600e-04,-8.187285070909510560e-05,3.606724143028259277e-01
1.773052460903380145e-01,-1.553378601567270145e-01,2.387253299412222529e-01,-2.310677957909157421e-02,-6.285408530492883269e-03,-3.862611994766531470e-03,3.696212768554687500e-01
2.244326749230184659e-01,-1.253171699825021412e-01,2.036221234912383715e-01,-6.387499136450371442e-03,-3.017214351007906602e-03,-1.181066887112824752e-03,3.400491774082183838e-01
2.368245832230518599e-01,-1.363346298055273798e-01,1.546683728706217953e-01,-6.665722719169032279e-03,-6.988795221004312844e-03,-1.319763672116084502e-02,3.407967984676361084e-01
3.609426764781413777e-01,-5.179893066125329515e-02,2.132499448841330691e-01,-9.107752101548325513e-03,-5.787272516495130248e-02,-1.224043155181074594e-02,3.767704069614410400e-01
2.292735869040729846e-01,-1.369739667310498343e-01,2.356596185906603136e-01,-2.547237650847725479e-03,8.135168903754651107e-04,5.821757627250160119e-03,3.696485459804534912e-01
1.498653421658563412e-01,-1.348862396757139481e-01,2.449898045791584766e-01,-1.173834005359487842e-02,-6.642665119607781866e-03,-2.641113284112054684e-03,3.431991040706634521e-01
2.520471731807362170e-01,-4.491047598674144381e-02,2.422470190067730067e-01,5.556187918554129218e-03,1.264376913699183803e-03,-8.964915196428731303e-03,2.927595973014831543e-01
2.827420627210640025e-01,-9.391164165586246559e-03,3.008654844892974523e-01,-2.357271356241578096e-03,-6.302145427311526974e-04,1.461049409909775942e-02,3.026929199695587158e-01
2.376600898187720134e-01,-1.363212242539480756e-01,2.441914306791694578e-01,-3.885453228407333495e-03,-6.856895242236296347e-04,-3.671052030834819459e-04,3.773518204689025879e-01
2.419272502887628573e-01,-1.347346548423279111e-01,2.452925723607938535e-01,-2.515648254235442697e-03,-1.473900378439541633e-03,-3.098673280119349080e-04,3.783898651599884033e-01
2.461411427740419489e-01,-1.326458477264157165e-01,2.394942847405345243e-01,5.062437176846649230e-04,-8.760969772402139172e-04,-1.757091822439415033e-04,3.755118846893310547e-01
2.276994469312416391e-01,-1.308433106330671725e-01,1.921281258199279696e-01,-8.614462404085677927e-03,4.879703738681834442e-03,1.790206680867450226e-03,3.425902426242828369e-01
2.439610864751814989e-01,-1.381347665252211088e-01,2.385506317111429908e-01,-1.902550377284285442e-03,-1.054254253495668595e-03,3.305529960597656299e-03,3.794814646244049072e-01
2.481549024071956489e-01,-1.376269422181992386e-01,2.371231807747990195e-01,-1.581092847379222434e-03,-2.822517919140035431e-03,8.094602617295834461e-04,3.804298341274261475e-01
2.382842362770139499e-01,-1.335053915748495856e-01,2.409680174823193577e-01,-4.673104947899428194e-03,-2.534634985721598548e-03,3.888473048189523915e-03,3.733130991458892822e-01
2.351999391965448050e-01,-1.353066943932124677e-01,2.497051136091750778e-01,5.731989769002316304e-04,1.625756302852350631e-04,2.390221348378538356e-03,3.779920935630798340e-01
1.591910192102602983e-01,-1.460952262232932952e-01,2.532534552936437922e-01,2.287609843870770654e-02,6.349362466688820983e-02,1.388567209464246222e-02,3.807966709136962891e-01
2.398907020019455938e-01,-1.276477688446990832e-01,2.450388234716641411e-01,-3.634356159081375288e-03,-1.657145847318862268e-03,1.247673279409259976e-03,3.702103495597839355e-01
2.457105810256899336e-01,-1.311198742931046768e-01,2.243122210573995634e-01,-4.435105775805383427e-03,-1.015797020988291974e-03,-1.348123290610736872e-04,3.666847348213195801e-01
2.031480500236312325e-01,-1.222949954173317699e-01,2.188050110910426671e-01,-4.833344066142403021e-03,1.552797415919486904e-02,4.471658215302277625e-03,3.348241150379180908e-01
7.569391610667799974e-02,-1.508183125164812566e-01,2.718155170502116746e-01,2.154879479328984659e-02,9.819123557613581091e-03,5.601321152899822395e-03,3.687435984611511230e-01
1.281159882568121966e-01,-3.012724315537498865e-01,2.362779514048195251e-01,-1.503358546826291837e-02,1.241868633247215081e-01,1.449147663631230633e-02,5.386019945144653320e-01
1.897209927064482105e-01,-1.137692400038079615e-01,2.286975743714097509e-01,1.189119192841849894e-03,5.425865956966708335e-03,1.976621533225354083e-03,3.248981237411499023e-01
1.457856163550656503e-01,-1.379186762662499843e-01,1.977238657849301751e-01,-2.465094481809144804e-03,5.580808664664604901e-02,8.438344100839881984e-03,3.278662562370300293e-01
5.873067566357383085e-02,-2.418421638798806672e-01,3.318284081538465102e-01,-3.079756194453326865e-02,2.679299702006035511e-02,-1.094076611174625699e-03,5.020107626914978027e-01
6.786173601000353162e-02,-2.310086816714747304e-01,3.439617622355954363e-01,1.659646316637154728e-02,3.573762273441511567e-02,3.720790470312857531e-03,5.027646422386169434e-01
1.369185360089611447e-01,-1.160102002606893390e-01,2.631873490831083129e-01,-4.247172066380506573e-04,-5.842135884440323099e-04,4.337617374581839388e-04,3.344486355781555176e-01
2.509546376918458388e-01,-1.597017715277826433e-01,2.022419469682908422e-01,-2.454713031692602396e-03,3.334309686374606341e-02,2.876564556826480268e-02,3.960343301296234131e-01
2.307094757491363057e-01,-1.187639773951074534e-01,1.935410319195988160e-01,4.440618692770240822e-03,-5.558412934990585377e-03,3.635790479953640488e-03,3.327390849590301514e-01
2.459034094333507336e-01,-1.209209893320074003e-01,2.428341772685918831e-01,1.567303401292313974e-03,-9.323306037822196718e-03,-2.255985658680177523e-03,3.656871616840362549e-01
2.481998891066681534e-01,-1.311680898834954589e-01,2.322554030804163394e-01,7.567574134688431937e-04,1.928058397883810606e-03,-6.227300859146398838e-03,3.718261420726776123e-01
2.382090097059080813e-01,-1.388908230979907787e-01,2.438024120786275173e-01,1.168698762740929360e-03,-1.258921630548250634e-03,-3.807202071098000950e-04,3.799396455287933350e-01
2.671038822186758699e-01,-1.679228026240344729e-01,5.756653055189214774e-02,-2.499693695820858624e-02,5.508263605931134482e-02,2.103485186044492042e-02,3.928154706954956055e-01
2.406053577520670672e-01,-1.392983608834633680e-01,2.418470040240470464e-01,1.165769288274577913e-03,-3.631211490201285454e-03,-1.306029988605637892e-03,3.805901110172271729e-01
2.401289518855038163e-01,-1.378066813882677377e-01,2.443030894639397488e-01,1.271983711759358017e-03,-3.958052356095264485e-03,-7.880601473907429891e-04,3.801105618476867676e-01
2.378435707902646912e-01,-1.387226214758931486e-01,2.418060500118618394e-01,3.017091883934444260e-03,-2.246910523998424045e-03,-1.148898377901827212e-03,3.786242902278900146e-01
2.398805752548868742e-01,-1.371622900134406575e-01,2.493503611417302035e-01,1.298258230255096290e-03,-1.163923869476705345e-03,-1.935764514928318926e-03,3.818925023078918457e-01
2.377082970097778025e-01,-1.344612906422561482e-01,2.385447409329491952e-01,1.071205317214491423e-03,-1.825595671396669061e-04,-2.919418633273586795e-03,3.726275861263275146e-01
2.624093899452570877e-01,-1.242515476543247233e-01,1.642308725990230256e-01,6.147995926562400439e-03,8.988189685588097305e-03,-7.186014535656182721e-03,3.488475084304809570e-01
2.476117216648638930e-01,-1.294887619574690563e-01,1.829876060572698804e-01,4.099263532151778064e-03,6.610441321957601958e-03,-5.063441275287518164e-04,3.495619297027587891e-01
4.193400945703117388e-01,1.870559338123173321e-02,2.786625247660411420e-01,8.068192584433610953e-03,-1.445597536947090811e-02,3.586847853896787952e-02,3.586359620094299316e-01
2.385900104211703676e-01,-1.348769073633916127e-01,2.173641203256561627e-01,1.922575076903106485e-04,-1.416280151595376889e-03,-4.825193640754361869e-04,3.633286952972412109e-01
2.480351327223396241e-01,-1.303700904768205771e-01,1.892851453009206097e-01,5.677480348250888570e-03,2.972989728261898803e-03,-1.100526921935041438e-02,3.534081876277923584e-01
2.360804986469876576e-01,-5.303579167642158421e-02,2.490539599242700408e-01,-4.608491960711219929e-03,6.261530543229369868e-03,-1.172883451607565318e-02,2.968188226222991943e-01
2.381904077651545437e-01,-1.115308100415182413e-01,2.490010157438069804e-01,1.265288350807045135e-03,1.062344893778510886e-02,1.612244159175182023e-03,3.557438254356384277e-01
2.399723127775209297e-01,-1.276374467115837241e-01,2.560516588248696324e-01,9.048475575583731336e-04,4.683179930441467784e-03,2.069995600597457873e-03,3.760153055191040039e-01
2.394041528660075802e-01,-1.334418213163939548e-01,2.498071615533968282e-01,6.357992649959030851e-04,3.590043872780636618e-03,-1.109097803770976720e-03,3.782124221324920654e-01
2.451093637525873503e-01,-1.338319797548139789e-01,2.295879987284694668e-01,6.131434997527449374e-03,-3.354278099765499281e-04,5.013294391588686560e-03,3.716776669025421143e-01
2.459823469761165393e-01,-1.289899702425818528e-01,2.436257563651381131e-01,1.131063664711209980e-03,5.398569458900102577e-03,-2.297049423131112297e-04,3.739218711853027344e-01
2.445623921897718267e-01,-1.312722991834091024e-01,2.362074845659225542e-01,-2.018259941129021615e-03,5.216752265145208588e-03,-3.648489147389186345e-03,3.719075918197631836e-01
2.545282715462208190e-01,-1.162288175354829756e-01,2.482625937413188710e-01,3.722340859656944785e-03,9.038341787639139757e-03,2.976827632289400123e-03,3.680900037288665771e-01
2.599172933909573713e-01,-1.081327373995336627e-01,2.463028216914519009e-01,-2.066988178757185948e-02,-2.435230912920343174e-02,-4.603914868888876397e-03,3.657318651676177979e-01
5.017019877741821787e-01,1.378236118633378859e-01,4.845018647926497279e-01,-8.704422739451751420e-03,4.776007393290343517e-03,1.590547486864852395e-02,3.570703566074371338e-01
4.342803405088140889e-01,9.847645472141744460e-02,4.435203829449020918e-01,4.177235291151715907e-02,2.214825952133052389e-02,-2.055265027502811703e-02,3.520314395427703857e-01
2.423693939957554111e-01,-4.688836370983509583e-02,2.361825032014386871e-01,1.376850405760239419e-02,9.305766021376075860e-04,-4.298992029810478482e-04,2.872117459774017334e-01
2.608007420248684705e-01,-5.914854498496630031e-02,2.504170721040670511e-01,1.343115059827494455e-02,6.643076739875665437e-03,2.649046002770908022e-03,3.159869611263275146e-01
2.502383453140241132e-01,-3.579562204053227115e-03,2.406847092728542914e-01,1.348008310307301748e-02,-2.288758605639908128e-03,2.005627855416905014e-04,2.503015995025634766e-01
2.522279039068336393e-01,-1.287026435560157944e-01,2.340744780134272063e-01,8.267018075789428445e-04,6.134292290176666940e-03,-1.319642577604585032e-03,3.723474144935607910e-01
2.496090535395911192e-01,-2.726948521742544873e-03,2.383272042561406789e-01,-2.098121322669421751e-02,1.645167167276155064e-03,-1.238728543543691878e-02,2.504855394363403320e-01
2.421732549153569614e-01,-9.441949690428136366e-02,2.575491966379562792e-01,-3.065605573983847323e-03,7.500713165409144713e-03,2.168577061494410350e-03,3.448443412780761719e-01
2.404838668760980736e-01,-8.989055445432864166e-02,2.600266955141941061e-01,5.883325848263728803e-04,1.335517564456810110e-03,2.909188771881599921e-03,3.406132757663726807e-01
2.428501409236787367e-01,-1.138380553128737205e-01,2.469627787036372257e-01,3.101880960232596997e-03,4.082016528592117069e-03,-2.027734968554965184e-03,3.588892519474029541e-01
2.323006493743141332e-01,-1.333260463257856521e-01,2.388130386195501109e-01,2.638970356578042298e-03,1.954718438396159906e-03,3.028024361672539827e-03,3.690071105957031250e-01
2.405563636869491317e-01,-1.323885534935091146e-01,2.389023801470174513e-01,1.573569165509996256e-03,2.368384980623589996e-03,3.791649208826344472e-03,3.722112178802490234e-01
2.385431686955551966e-01,-1.343890835374435544e-01,2.550160739708168811e-01,4.557130400660691747e-04,3.943712414246303101e-04,-7.272175563359671493e-04,3.814390897750854492e-01
2.373146470170305056e-01,-1.286419320054204007e-01,2.553566890622333552e-01,2.000582537198535997e-05,1.057428159412645858e-03,-1.272626415927755571e-03,3.753139376640319824e-01
2.369355869024517558e-01,-1.319943723037213523e-01,2.564776710928399761e-01,1.576523625234517835e-04,4.210466653656888222e-04,4.545764928879642139e-04,3.790805935859680176e-01
2.185170257662668869e-01,-1.310075466368082198e-01,2.538073848395442922e-01,-8.237792645030501959e-03,-7.254493173024957739e-04,-2.975162032723114094e-03,3.687538504600524902e-01
2.530791285475339492e-01,-8.846163587706395992e-02,2.441489055315633760e-01,7.999046835344896661e-03,1.197377270291703592e-02,-8.666053276246047472e-04,3.380889296531677246e-01
2.446588715731354002e-01,-6.021078966668230725e-03,3.910267871527765005e-01,-2.512519067639689893e-02,5.850727940292295426e-02,-2.675554829650383243e-03,3.648836910724639893e-01
2.512629951026787989e-01,-8.695211796159646456e-03,2.484967219726904319e-01,9.825234344048963328e-03,-7.052695838407457005e-05,-8.905319588212703887e-04,2.591501474380493164e-01
2.519363380077271897e-01,-8.297929228416955905e-02,2.447356171577419748e-01,1.201539696461854934e-03,-1.248293201778120920e-02,3.925895251756777310e-03,3.321546912193298340e-01
2.726681828685121323e-01,-3.239057563117905825e-02,2.761130664667457713e-01,-6.107915424108278230e-03,2.121427734542312611e-04,1.173725688450359683e-02,3.076506853103637695e-01
2.501816543324603126e-01,-1.232558036705166254e-01,2.422598782035848552e-01,4.724587554926890608e-03,-7.388399352312740101e-03,-1.249739842485571035e-03,3.698586523532867432e-01
2.449328602564336266e-01,-1.252984405834966786e-01,2.412519402028745208e-01,2.526055384382684568e-04,-6.110136242397252830e-03,9.721489762537004285e-04,3.685607016086578369e-01
2.522749179602465919e-01,-1.070117197021714650e-01,2.407571156759805153e-01,-5.216602407676715174e-03,-9.084975319328374849e-03,8.692824337058305565e-04,3.541367948055267334e-01
1.746561730631586706e-01,-1.182250340430157226e-01,2.444489198215819004e-01,-1.245495210667037222e-02,4.227697814650327977e-03,4.035607633309875979e-03,3.341545462608337402e-01
2.417728226253596513e-01,-1.298336505856936829e-01,2.422365736622808519e-01,2.535600575315444423e-03,-6.481149168608278666e-03,1.166157471994441492e-03,3.720393776893615723e-01
2.404416012239610489e-01,-1.374831444013558668e-01,2.439258392544157716e-01,-1.419496695207793369e-03,-5.616056010983715152e-03,6.778645755518631407e-04,3.798132240772247314e-01
1.808454301064937320e-01,-1.287206420594707856e-01,2.427134356477525512e-01,-1.745307827843632382e-03,-3.747099086736047427e-03,-6.183242698411899746e-03,3.449304103851318359e-01
2.151718586994281757e-01,-5.386947885148393733e-02,2.931996079467739102e-01,1.885260415174035706e-03,1.977069344386751110e-02,2.169563208846450597e-02,3.194677829742431641e-01
1.784069007073142421e-01,-1.269230941183148720e-01,2.297615980703213157e-01,-5.951648713137250996e-03,-9.589594503915100515e-03,-9.118084493598455770e-03,3.349259793758392334e-01
1.867548389968957945e-01,-1.458827834329160245e-01,2.421700204900797682e-01,-3.794022758685003036e-03,-3.307730375191593464e-02,-2.055830470924312897e-02,3.697908222675323486e-01
2.259641989792304240e-01,-1.280848996036068610e-01,2.205101075123704901e-01,-3.603210072292629268e-03,-2.764441269933061440e-03,-2.341349939901492955e-03,3.514652550220489502e-01
3.659180052000021721e-01,-9.321152452171105329e-02,1.695777540316805998e-01,-1.706289574437622539e-02,-5.871658953238041712e-02,-3.967357726967284462e-03,4.128769338130950928e-01
2.425850512918036050e-01,-1.332155726236789461e-01,2.450870737648628284e-01,1.831636230285001339e-03,8.904020899335431116e-03,-2.387759350241226795e-03,3.774091303348541260e-01
2.457552061420616996e-01,-1.150929272446047091e-01,2.445190394317821592e-01,3.518024487705517702e-03,4.291257835989334760e-03,1.499721631689422685e-02,3.612948358058929443e-01
2.411192459395118115e-01,-1.322105131037679959e-01,2.276625258237451599e-01,-3.368877134749568864e-03,-1.522707054728490716e-03,-4.166156117209747836e-03,3.669134378433227539e-01
1.900420236105017091e-01,-1.238959052955381362e-01,2.485524238830100208e-01,-3.967394544055929603e-03,-3.414435941787670459e-02,-1.559673450079256812e-02,3.530207276344299316e-01
2.408146590472057258e-01,-1.308037249926788381e-01,2.529373906190356958e-01,1.335900317720840197e-03,-1.815483456035248957e-03,-3.548864168827929166e-03,3.778958022594451904e-01
2.441498046881481199e-01,-1.149883064273160005e-01,2.489050283328617663e-01,3.394290926988177519e-03,7.244777177807823140e-03,6.539118574598750972e-04,3.618064224720001221e-01
2.513259776415223135e-01,-1.283123265734997798e-01,1.881895855265157125e-01,7.879800410775252527e-04,1.030801655641297356e-03,1.239915545289006077e-03,3.523522615432739258e-01
2.244504656645542884e-01,-1.311977953701780053e-01,2.139898553574231532e-01,-6.905953887244748422e-03,-2.509252992764652614e-03,-3.908113732410882328e-03,3.508313000202178955e-01
2.277848561370129921e-01,-1.235335400587705690e-01,2.136222521535193208e-01,-6.095505228213040673e-03,-6.800292555554916622e-03,-4.756723993056034133e-03,3.449169397354125977e-01
2.334068283479211470e-01,-1.347232629326918785e-01,2.067710447355220194e-01,-7.291176624547128331e-03,-3.310096556568756145e-03,-5.304716236347822508e-03,3.559502363204956055e-01
2.343530040979753259e-01,-1.412158145855870739e-01,2.340945257709827754e-01,6.953638031722429638e-04,-4.155416465209572788e-04,-1.583918860599551606e-03,3.754522800445556641e-01
3.224786378549563404e-01,-2.421057294229768952e-01,5.553861516170694596e-02,-2.988449811084406896e-03,1.377050768759566094e-03,-1.713818593496003670e-02,4.901182949542999268e-01
2.379010282932415843e-01,-1.370124415032848153e-01,2.392164501537610288e-01,4.277215732724057654e-03,-1.894135276088829449e-03,-6.919117073926116333e-04,3.756622076034545898e-01
2.385873584902638844e-01,-1.396970708176255294e-01,2.417226336953054999e-01,7.948597398825226271e-04,-2.464725557773969448e-03,-1.089150363763405756e-04,3.798882961273193359e-01
2.340791481666811280e-01,-1.374715151057532836e-01,2.487778385304097450e-01,-5.089133021436322956e-05,-4.740154097434142247e-03,-2.236707947876710387e-03,3.792224526405334473e-01
2.312843017707398863e-01,-1.356996351168603399e-01,2.307124321931217636e-01,-2.345981975635518413e-04,9.491974199498593779e-05,-2.236453785289325112e-03,3.667190670967102051e-01
2.319384107585079347e-01,-1.296659343444974688e-01,2.291903267836465918e-01,-3.797937466011169359e-04,-9.155621878148452464e-04,-1.013495126484650552e-03,3.602465391159057617e-01
2.155074311167305412e-01,-1.304897946579130774e-01,2.174581317990315621e-01,-4.791018777276985149e-03,-6.049592855227868028e-03,-5.962101451723910046e-03,3.473875522613525391e-01
2.264110471816559444e-01,-1.267681600248071749e-01,2.171255296998051976e-01,-6.716508375444033008e-03,-1.791419540983837629e-03,-3.507391176278462207e-03,3.488899469375610352e-01
2.181151320400878113e-01,-1.302130653906848623e-01,2.198170048558475420e-01,-1.134771354759486241e-03,-1.859029597627956778e-03,-4.541711783899051932e-03,3.492912054061889648e-01
2.395530502854774091e-01,-1.366555788812266192e-01,2.371355300931127785e-01,-5.894824608051335308e-04,1.668769175728508636e-03,-4.189241615352021740e-03,3.750884234905242920e-01
2.237919421015522325e-01,-1.326347453873098214e-01,2.311055783545979958e-01,-1.146607155443282820e-03,-1.683791252897987077e-03,-6.131341226855067938e-03,3.603130280971527100e-01
2.700973567144009935e-01,-1.180747281832000006e-01,1.773511267689558690e-01,-2.184415177511033965e-03,-4.416544492402674736e-03,-7.429022848686515565e-03,3.514489233493804932e-01
2.473767243306564390e-01,-1.316497315319409833e-01,2.362982391576099739e-01,-1.529742531893216271e-03,2.732556482491719889e-03,-3.232389658625108887e-03,3.736917376518249512e-01
3.110528198449633019e-01,-2.535837020070982328e-01,7.631924487058500128e-02,1.349154280600737416e-02,-6.326964520124112035e-02,2.897768701229142679e-03,5.039399862289428711e-01
3.561834411019380031e-01,-1.762308394716283200e-01,1.072157163185599588e-01,-3.793269657410777446e-03,-2.521355705190435337e-02,1.429160193947463103e-02,4.641756117343902588e-01
2.699806903282677140e-01,-1.625725796130009226e-01,1.325017036632265555e-01,-6.822440864546052731e-03,-8.951907902440558312e-03,-1.683011995475867245e-02,3.844029307365417480e-01
2.388827988825362458e-01,-1.402155017900732492e-01,1.912016392253803598e-01,4.334299671738373362e-06,-6.148025357978923952e-04,-1.199252991224413097e-02,3.582537770271301270e-01
3.507617646624128227e-01,-9.308878173011495005e-02,1.626741760247477631e-01,1.171687935493366355e-02,2.515117014894558203e-02,1.394550901252646124e-03,3.888610303401947021e-01
2.401417972113284449e-01,-1.261153489066670907e-01,1.760137282702201600e-01,-5.126856373347378135e-03,3.302107600144284401e-03,9.250718306024181478e-03,3.393193781375885010e-01
2.505846245722748167e-01,-1.287853808977551529e-01,1.339352298826569920e-01,-1.902043237339909191e-03,4.478159574148483099e-04,2.426369671931657664e-04,3.365813791751861572e-01
2.670970015933030184e-01,-1.489097952399925928e-01,2.039435577937717126e-01,2.556889683561593303e-03,-4.230220831936838785e-04,-6.295567008133417727e-03,3.884801268577575684e-01
2.325165996642225563e-01,-1.351163077623956932e-01,2.297977445470068547e-01,-6.418500392580056731e-03,-1.487613428841585332e-03,-3.219026905862068782e-03,3.665011823177337646e-01
2.521058454373342750e-01,-8.879162850302729781e-02,2.458997291639660188e-01,6.756923282202288196e-03,8.772586415863009579e-03,-4.181746117465545611e-04,3.383819162845611572e-01
2.394707387186740533e-01,-1.356523758247304146e-01,2.395680550760056482e-01,-2.342157861143494713e-03,3.435785023125794910e-03,-3.427770780944095104e-03,3.752878606319427490e-01
2.501639358111705236e-01,-9.309008768212745366e-02,2.496138267467989391e-01,1.475301522198254299e-02,1.080064464039690204e-02,-9.551072187679114081e-04,3.444422483444213867e-01
2.450226997549687646e-01,2.404905022374592694e-02,2.489337076961027906e-01,1.609915105471903390e-02,-1.648064301682869784e-02,7.844457550805475007e-03,2.269049733877182007e-01
2.442004569696690497e-01,-1.355888343066176394e-01,2.386844694574525860e-01,-8.566058581685941043e-04,7.850319758305304750e-04,-3.137894818342831446e-03,3.771061003208160400e-01
2.389239464031098770e-01,-1.385169228861591328e-01,2.381158922723971283e-01,-2.079297610093552417e-03,1.021026780765857747e-03,-1.062148278090853468e-03,3.770633339881896973e-01
2.109768583195780756e-01,-1.325836858010190633e-01,2.312019663468016795e-01,-4.810851389242061862e-03,-2.075063279729044870e-03,-9.013348161094400859e-03,3.545666635036468506e-01
2.111471920785977230e-01,-1.313383771111794884e-01,2.344718708098502413e-01,-3.390246987649201543e-03,-1.377156698398992974e-03,-7.270083489373305868e-03,3.550035357475280762e-01
2.251415603277132360e-01,-1.323555590689073636e-01,2.244696418568188356e-01,-4.233254353417436472e-03,4.184032550550145150e-06,-1.562423790286140198e-03,3.572471439838409424e-01
2.222590084506193553e-01,-1.360594939861385078e-01,2.171735779819292111e-01,-1.074560795537715489e-02,-1.022588322811913975e-02,-9.560464956415375137e-03,3.571135997772216797e-01
1.866537270731492282e-01,-1.260059716821720077e-01,2.286304553752663837e-01,-1.232183683537725442e-02,-6.847601731208695364e-02,-1.306933406454987949e-02,3.573196828365325928e-01
2.507835594287478598e-01,-9.094652568408689852e-02,2.473374932407834959e-01,-1.198568640900058574e-02,5.216674171053551669e-03,-1.296357226305736021e-02,3.415120542049407959e-01
2.324809084831334915e-01,-1.419160773598522884e-01,2.396699357756971183e-01,9.092676240741098120e-03,-4.739764374807511893e-03,5.855701795105808932e-03,3.785955905914306641e-01
2.349767722382932744e-01,-1.235384957307260195e-01,1.947357503102637999e-01,9.088305986825369331e-03,-1.400175821416718529e-02,6.292517169812961511e-03,3.415848910808563232e-01
3.475073956569435518e-01,-8.519355097618233619e-02,1.961218962445696046e-01,9.159830598402215682e-03,-8.117554517134681347e-02,2.996411303980647985e-03,4.058202505111694336e-01
2.444718216567678681e-01,-1.241932473253254121e-01,1.967572118372971635e-01,6.952239916542883071e-03,-3.586313729110127135e-03,5.205134305012748281e-04,3.475403785705566406e-01
2.393607276923025440e-01,-1.327531293221292930e-01,2.409823378779228364e-01,5.073381575561426715e-03,9.513737498458880049e-04,3.184122082468518727e-03,3.730752170085906982e-01
2.324511562822153543e-01,-1.216155590430716693e-01,2.535580364861362845e-01,8.118471053286206978e-04,3.051185708056005849e-03,-1.241267105698136766e-03,3.651253283023834229e-01
2.328057717549880390e-01,-1.313504095545653394e-01,2.248292914706749301e-01,6.564116968021059192e-03,-4.956574816091944072e-04,3.414173860549872953e-04,3.604150712490081787e-01
2.659041821984328147e-01,-3.366072291946040074e-02,3.129677451444016767e-01,1.229778653697780055e-02,-8.770169121022275416e-02,3.829692235636449060e-02,3.660343289375305176e-01
2.150476433417151667e-01,-1.257671091400210384e-01,2.111763342436690505e-01,-3.789829283884275663e-03,-4.383277302083653758e-03,-1.880208602830982798e-03,3.390598893165588379e-01
2.264085642782515118e-01,-1.267321467444869065e-01,2.291461930016337467e-01,-3.445159276201416928e-03,-1.104920633196351809e-03,-5.154726428838571524e-03,3.546852171421051025e-01
2.192026537756325555e-01,-1.295939426013132667e-01,2.275889766714798146e-01,-2.408363254257191426e-03,-5.741696667213424393e-04,-5.592114789084081522e-03,3.532233238220214844e-01
2.149033622320624670e-01,-1.224305604819376364e-01,2.089743039842558159e-01,-1.874291577675585253e-03,-3.116788431356103724e-03,-3.708982743008950797e-03,3.345298171043395996e-01
2.242774378671900937e-01,-1.286903269255941784e-01,2.255056906795472882e-01,-3.133606874771983734e-03,-7.208234476139722263e-03,-5.166324961658262487e-03,3.539586067199707031e-01
2.158576088047005626e-01,-1.297892812842814103e-01,2.200710153298189586e-01,-5.009070245484180742e-03,-2.790693200150097791e-03,-3.109919900088395795e-03,3.479562103748321533e-01
2.098730226773821705e-01,-1.209774295557884405e-01,2.175146933452327680e-01,-2.923763777644276460e-03,-3.775229696454925586e-03,-5.452482677348298792e-03,3.349720239639282227e-01
2.435415149828757952e-01,-1.466940720293995470e-01,1.031150836102705387e-01,2.967469111343511590e-03,-7.167961480402143537e-02,-1.393139133329867815e-02,3.650021553039550781e-01
3.937777514811863777e-01,2.647658317140333395e-02,3.081151964721711711e-01,3.370295063341705293e-03,-3.272356948129667015e-02,2.112383483670538312e-02,3.396608531475067139e-01
2.408452179878673438e-01,-1.625825789962679901e-01,6.684929285865476301e-02,-2.995649207386796506e-03,-6.773145287012666271e-02,-5.044519740750688999e-03,3.697292208671569824e-01
2.392264608259570546e-01,-1.350406270245981810e-01,2.395764719809318211e-01,1.583228966123848567e-03,1.857019941953102224e-03,3.447186443184814889e-03,3.745136559009552002e-01
3.187820006289291408e-01,-3.900628957513099793e-02,2.377550101606654420e-01,-1.425478644530692174e-02,-2.204765888509988697e-02,2.175746279543378306e-02,3.302656114101409912e-01
2.342571235159940368e-01,-1.251573299687574747e-01,2.470905198363729238e-01,1.939219556396389304e-04,-1.731407199376811413e-03,-1.245149765454477662e-03,3.660187423229217529e-01
3.342495139582197794e-01,3.647640337043669967e-02,3.682115790658871401e-01,6.268621787178171000e-03,3.307196170873415164e-02,4.466860827601090711e-02,3.306361138820648193e-01
1.996629347451454040e-01,-1.196264235887659760e-01,2.156970598301525266e-01,9.381213647035374290e-04,-4.446396625172491061e-03,1.894748150452537283e-03,3.277118206024169922e-01
2.402934072396859522e-01,-1.159858416427711342e-01,1.617569568234265565e-01,1.667871646892683324e-03,-6.327293569210291208e-03,3.673313391512747017e-04,3.244238197803497314e-01
2.175948910688516036e-01,-1.187174530591067895e-01,2.008239769952362974e-01,2.043709691482932436e-03,-4.585125382159811400e-03,8.811219298460098775e-04,3.283670544624328613e-01
1.725821221962779428e-01,-1.257845964745575862e-01,2.044925612372932855e-01,6.255090768840215060e-03,-3.403606225164126919e-02,7.342352653009625446e-03,3.214287757873535156e-01
2.308837380775449755e-01,-1.349796650132584763e-01,2.080982018167920333e-01,8.607357458962523744e-03,-2.347323363426563701e-03,6.577003991842615520e-03,3.555381596088409424e-01
2.449069508727056699e-01,-1.331552274295324523e-01,2.462464857884553437e-01,2.059623410211786857e-03,6.979196209746183974e-03,1.485780076115419002e-03,3.789521157741546631e-01
2.192489829162495574e-01,-1.275715183992979229e-01,2.428431526589183154e-01,1.109036324556588599e-02,-1.656333887797473148e-02,1.149672309972645315e-02,3.614037036895751953e-01
2.229397766535262670e-01,-1.339258519606170150e-01,2.149475817769426755e-01,8.226066963201321414e-03,-6.946582485761181036e-03,8.401386988448909798e-03,3.537291884422302246e-01
2.489997893744360646e-01,-9.078343105696654036e-02,2.289147938956978268e-01,6.524645148335722969e-03,8.122577329290910477e-04,-4.074385968090564773e-04,3.303962647914886475e-01
1.881112635478856543e-01,-1.303047516770798608e-01,2.305697478165051051e-01,-9.585375344923692835e-04,-1.155619399687356219e-02,-8.176873931195677292e-03,3.425126671791076660e-01
1.522733455077699416e-01,-1.310162316585727904e-01,2.412635936702192674e-01,3.820278014419679728e-03,-2.026052046674463314e-02,6.020658404988629350e-03,3.387716710567474365e-01
1.503715658897231688e-01,-1.290275033243162284e-01,2.613878400159654891e-01,9.905691953675025557e-03,-2.876934811075402415e-03,4.840977644878277295e-03,3.489925563335418701e-01
2.522938671445607017e-01,-1.405944662363766695e-01,2.063500991966344122e-01,5.067694825286287418e-03,9.616068979701413279e-04,-1.594616093286868250e-02,3.731808662414550781e-01
1.264928513282138345e-01,-1.193726258140790780e-01,2.902789207149563122e-01,5.911098533595500297e-03,1.468953482800045181e-02,-5.919597796466906066e-04,3.581874668598175049e-01
8.762306166151734299e-02,-2.603951604323169189e-01,3.202908934773643357e-01,6.499486801129026464e-04,-7.310876127496264421e-02,-3.299350842294074271e-03,5.218163132667541504e-01
1.263321080285781939e-01,-1.327967657386397160e-01,2.392387936097885581e-01,1.934269734970800545e-03,-2.257650457397531243e-02,5.583564474952837538e-04,3.327075839042663574e-01
1.568534004915693725e-01,-1.205674308196121036e-01,2.413258333750350204e-01,-7.859779937127581162e-04,-5.546117154621008419e-03,-1.957305072495238874e-03,3.280822336673736572e-01
1.128726872481518595e-01,-2.249938946375756865e-01,2.641344134797516952e-01,2.125251238412152049e-02,-1.050156187062116497e-01,9.749647678406862111e-03,4.720860421657562256e-01
2.483942794335029514e-01,-1.319436285670527731e-01,2.338508192979106282e-01,-2.335053260194798128e-03,-5.618022515445964850e-03,-1.325779480940550599e-02,3.741328120231628418e-01
2.400775168855503461e-01,-1.168141348805901841e-01,1.884379948248067205e-01,-2.536113302787813481e-03,-1.014882455740269279e-01,8.240776046045363490e-04,3.775307834148406982e-01
2.511726248018619212e-01,-1.251254378680412560e-01,2.429924509964034862e-01,2.616503996768268893e-04,6.244913176051815860e-03,-3.259112295771168018e-05,3.724327683448791504e-01
3.241099262825776206e-01,-4.548923803751353523e-03,2.618546785248646036e-01,-3.654380389068347113e-02,-2.572107430243747092e-02,2.114613043271868723e-03,3.121475577354431152e-01
2.153519962005129018e-01,-1.332309032257907311e-01,2.171114067618561405e-01,-6.302481683985203080e-03,-4.474068394677707498e-03,-4.165764516748902968e-03,3.497966825962066650e-01
2.420983470126580328e-01,-1.104205633884973448e-01,2.554654375094079222e-01,-1.618528322360470069e-03,-4.092110330841383301e-03,1.809403396473180034e-03,3.594834208488464355e-01
2.412995230574175032e-01,-1.247953438473333454e-01,1.730172911098394883e-01,-7.392320049750067748e-03,-4.239831624510902522e-03,-6.668635484421376290e-03,3.377001881599426270e-01
2.292514294713257073e-01,-7.943853868034475574e-02,2.272217367040204050e-01,3.257491571123368596e-03,-4.749595958595165951e-02,4.894232071435883347e-03,3.186508417129516602e-01
2.552543654483979685e-01,-8.142142583901423869e-02,2.461421835515525958e-01,5.098092131883747227e-03,8.457946445782876799e-03,1.488701512532614266e-03,3.326635062694549561e-01
2.533726621392872747e-01,-6.841869769201586182e-02,2.604354508463049278e-01,-6.290754523626033989e-03,-9.723758669763049589e-03,9.826177291536581510e-03,3.264419436454772949e-01
2.486913934887215460e-01,-1.326809383964759892e-01,2.435668172623536853e-01,1.213799029290456370e-04,-7.047787505853774469e-03,-5.575831745864910476e-04,3.790339529514312744e-01
2.405600466780336011e-01,-1.272773724412149254e-01,2.486071909079178022e-01,1.950271933017556176e-03,-6.470555004830471323e-03,-1.706642837175020898e-03,3.721221685409545898e-01
2.616936741702160507e-01,-8.744086269224066177e-02,2.551915078932299741e-01,-9.210865663469434278e-03,-7.619749612993443645e-03,7.877963056470187880e-03,3.468168973922729492e-01
2.417934496466827565e-01,-1.348739903955437358e-01,2.464991799177560505e-01,3.838879601388254202e-03,-3.965916798436412358e-03,-2.387839895317233653e-03,3.791853189468383789e-01
3.355000201221279843e-01,-3.910817613948805449e-02,2.695404690186917196e-01,2.079955679985824590e-02,6.871866837827403374e-02,-1.664083012567021957e-02,3.691454529762268066e-01
2.748469228935472852e-01,-1.121726820303708128e-01,2.453340982837348694e-01,-5.566862444922114454e-03,1.191812285191062859e-02,-6.519909596308662118e-03,3.740050196647644043e-01
2.381903971390569863e-01,-1.370626484824855884e-01,2.458201251079276395e-01,-1.200041936563366789e-03,-2.618063404461039214e-03,9.645835208485935882e-05,3.791583478450775146e-01
2.503307550146122717e-01,-1.406584984530265259e-01,1.708533934451646474e-01,2.424653994449196305e-03,-2.843987770827135489e-04,1.932327192074315830e-02,3.595170378684997559e-01
2.514220991738889133e-01,-8.546932578198088160e-02,2.527635388957546470e-01,1.782588357916421729e-02,-5.860001712757378391e-03,-2.150969875871339143e-02,3.411654531955718994e-01
2.341835143680096876e-01,-7.948465470342261363e-02,2.530984734482243370e-01,3.472803909831069860e-03,-2.806498090374906929e-03,-1.030298501670638342e-02,3.241246342658996582e-01
2.394401324181789914e-01,-1.337698293400134131e-01,2.407606294923462786e-01,-6.017696372475050265e-03,-2.579915294980219837e-03,2.209117384542682878e-03,3.740634918212890625e-01
2.158433884537995784e-01,-1.280471694312139419e-01,2.337779204220832296e-01,-4.284758355011676796e-03,3.710333198133659340e-03,6.913570366377326873e-03,3.535387516021728516e-01
2.325903640273407902e-01,-1.209684236577661803e-01,2.433084230189994090e-01,-1.742856664880728041e-03,-7.156547414189606048e-06,6.128786529554709761e-03,3.592073917388916016e-01
1.856286709062221485e-01,-1.380412342480928367e-01,2.577764345401474255e-01,-1.556726186014027735e-02,1.059665248125601228e-01,-1.797484164307271148e-04,4.095526635646820068e-01
1.044299877343740912e-01,-2.259228997874026812e-01,2.417109541498245751e-01,1.971168757565348179e-02,9.581227681682108477e-02,6.117405974985536989e-03,4.496088922023773193e-01
2.261198218137449034e-01,-1.193514877509487676e-01,1.847526524522726254e-01,-4.738466102833086002e-03,8.863493870654532911e-03,2.863383988968745599e-03,3.272585272789001465e-01
2.543829717108377353e-01,-1.336106922737541058e-01,2.385819528559287306e-01,9.495221341178109939e-04,-8.041279450899784659e-04,-8.095085483891252499e-04,3.803480863571166992e-01
1.451380010403341136e-01,-1.083133530155953178e-01,2.453885265935369375e-01,-4.263379443460781418e-03,4.927653359547443795e-02,-3.107309605518781322e-03,3.272069990634918213e-01
2.330903184832057440e-01,-1.341343957374389606e-01,2.304677038976936654e-01,5.085581468464144689e-03,2.937979157524269521e-04,-1.456649698254449451e-03,3.660355210304260254e-01
1.933242288274655274e-01,-1.239379026379211629e-01,2.277665598612518827e-01,9.654785523540242555e-04,4.790565781755615204e-03,-7.549284653884390933e-03,3.361716866493225098e-01
2.223856649108878480e-01,-1.357699238872170644e-01,2.294269672107322466e-01,-4.482492488499437329e-03,-5.059167643044534118e-03,-7.352575163301009083e-03,3.621410429477691650e-01
2.408715194171781038e-01,-1.390470361032052349e-01,2.391503715631437821e-01,-1.812519769032554500e-03,3.152719798651237165e-03,-2.074013504650625526e-03,3.791302740573883057e-01
2.519750940089193203e-01,-1.239720210101365599e-01,2.313382217559012410e-01,2.209828527651236125e-03,2.796310748463593822e-03,-6.536421400835750167e-04,3.661189973354339600e-01
2.185589789239640868e-01,-1.276381626653715351e-01,2.519412475277429952e-01,-1.439809770841928363e-02,-1.495690123364827075e-02,-8.448970968717814389e-03,3.661022782325744629e-01
2.392144761160274191e-01,-1.374259181802909846e-01,2.380463474078862163e-01,-4.989379843020069066e-03,3.190072960425814792e-03,-3.822319522168224695e-03,3.762558102607727051e-01
2.470063353925773253e-01,-1.349841319162662368e-01,2.390466935937032855e-01,1.131982540178710483e-03,-1.534804048000443157e-04,-3.162132091526235816e-04,3.780790567398071289e-01
2.434808896376215170e-01,-2.434913703021640563e-02,2.390062297037123529e-01,8.468727630377499010e-03,2.871381326168123867e-03,3.393391089991027159e-03,2.661370635032653809e-01
2.503779222487484413e-01,-1.297694686589057900e-01,2.376365196441151684e-01,-8.576562668953386639e-04,5.551590557941040067e-03,-1.274954482002508237e-03,3.740726113319396973e-01
2.439014348723341219e-01,-1.379208346027321341e-01,2.413145839461074971e-01,-1.230074722369037038e-03,5.584732082970833567e-03,-2.140897429565814455e-03,3.806823790073394775e-01
2.503942334457229801e-01,-1.320757718847066775e-01,2.371582210626823062e-01,-6.415349245934238239e-05,2.216298962816714603e-03,-8.366168089602239906e-04,3.760491609573364258e-01
2.567582809904644381e-01,-1.286822110374815087e-01,2.377047750896801037e-01,1.849861181923808219e-03,2.611518308335488391e-03,3.480856777800718526e-04,3.763170242309570312e-01
2.467893932157463333e-01,-1.365284187046614806e-01,2.384852774274841547e-01,-2.497844474424718193e-04,3.856528185162718184e-03,7.469153254525484967e-04,3.792952299118041992e-01
2.335218168920915049e-01,-1.387589540243065744e-01,2.283379105215338767e-01,5.504526531106865121e-03,-2.179550019665215733e-04,4.121560894253554694e-03,3.699080646038055420e-01
2.375794708723141246e-01,-1.378617781742088599e-01,2.350802452410221677e-01,3.013243950515088164e-03,1.742304355628640543e-03,2.605928702587965214e-03,3.742736876010894775e-01
2.334297786996887836e-01,-1.279694574509805949e-01,2.511924165473287118e-01,-2.212521586549686704e-03,7.840818484769258856e-03,-8.656745798041920502e-04,3.708715438842773438e-01
3.210748342743617867e-01,-1.299212980309410737e-01,1.128512622365680090e-01,1.961517862114693644e-02,-4.919599922351487742e-02,2.041445598547598356e-02,4.031275212764739990e-01
2.601448966228547821e-01,-1.213603984482859721e-01,1.429072490851509558e-01,-3.313788689880451180e-03,-1.848864426538961853e-02,5.875393412813279675e-03,3.401854932308197021e-01
3.069075597662282440e-01,7.844370442747577998e-03,2.864926124304397748e-01,1.203049157783024625e-02,1.765005081814989508e-03,-2.347653240157616776e-03,2.901900708675384521e-01
2.507846736277456468e-01,-1.346504610554102865e-01,1.940135793008085918e-01,4.771578636009353100e-03,-6.261157622472418062e-03,2.355457260975140493e-02,3.629765808582305908e-01
1.450180605236964793e-01,-1.245128829604248560e-01,1.727422250672425164e-01,-2.033312666038286642e-02,-1.181460114574618692e-01,7.221835436577925954e-03,3.523638546466827393e-01
1.203044140737645484e-01,-1.587459128275910958e-01,1.845320178422571455e-01,2.078361754351652248e-03,-1.048802185697613465e-01,1.942044878152499911e-03,3.646105527877807617e-01
2.234270393406839195e-01,-1.259140286159938227e-01,2.109291741965220734e-01,1.179979530631200535e-02,-1.188729193714276391e-02,9.690983146848365301e-03,3.448952436447143555e-01
2.492034189928219179e-01,-1.188406265397154438e-01,2.596924890271889441e-01,-3.048467571639870005e-03,5.243996005146515926e-03,-1.930524426060201094e-03,3.735618293285369873e-01
1.882104308919268776e-01,-1.167741356052583446e-01,2.296388233601290019e-01,-2.687723561015750609e-04,-5.876738925105704989e-03,3.550726653179621210e-03,3.278850018978118896e-01
1.901410988942819902e-01,-1.249099677037999734e-01,2.266821932280037866e-01,-6.788206809190173822e-03,-3.015854810969205956e-03,-7.108234102920764526e-03,3.352936804294586182e-01
1.934202638946291852e-01,-1.251247781115301660e-01,2.228264200506002157e-01,-5.921242404991680988e-03,-4.760925926672621503e-03,-6.473056173837885528e-03,3.346666097640991211e-01
1.973424349310369530e-01,-1.277908644204612809e-01,2.159433292038766550e-01,-2.379354029694761164e-03,-2.817421787664458124e-02,-4.362744340327111975e-03,3.384684324264526367e-01
2.267760071954267875e-01,-1.429119256903884638e-01,2.366606049170956183e-01,-9.189129632711012796e-03,-1.654426111832612905e-03,-1.069771405538983561e-02,3.755342066287994385e-01
2.447672222594919345e-01,-1.267956784958229610e-01,2.232534005378092323e-01,-6.484775676030759065e-03,-3.077265106387019021e-03,-5.733657302980135415e-03,3.616369664669036865e-01
1.807667420661039359e-01,-1.188223986355391865e-01,2.343683568068062328e-01,-6.749285689987977177e-03,-1.043524729902742428e-02,-5.975191777767716039e-03,3.305385112762451172e-01
1.764654823050552379e-01,-1.901947413324776848e-01,1.806434495031969956e-01,1.541225046544875653e-02,-1.149301346777443500e-01,-4.521704059295236777e-03,4.199878871440887451e-01
2.310704896414783605e-01,-7.118536281786108644e-02,2.759309264715253951e-01,-4.136145817210309765e-03,-6.793952318069781948e-02,-2.393762566989044577e-02,3.500686883926391602e-01
1.807497367170806668e-01,-1.267039766036309745e-01,2.274336123596758519e-01,-4.072173038870851094e-03,-2.029791624072476569e-02,-9.431933368028656145e-03,3.355785310268402100e-01
1.895309722874639058e-01,-1.731552034448086697e-01,7.501110366528847273e-02,7.068583936809706009e-03,-1.036757228424257382e-01,7.174514029255618652e-03,3.683362305164337158e-01
2.392993470220339258e-01,-1.391287955236408802e-01,2.434706993509471173e-01,-7.264642850260030326e-04,2.851785647011678953e-03,5.882537667037438217e-05,3.805651068687438965e-01
2.396073124964523127e-01,-1.399170608441099029e-01,2.439767792395524659e-01,-1.113995700638483431e-03,1.155831427279029825e-03,-1.132387160512215388e-03,3.817430138587951660e-01
2.396024005093554676e-01,-1.396428799238737806e-01,2.440355644113563482e-01,-1.789349562011277334e-03,1.902310533918670499e-03,1.104161425325054918e-06,3.815079927444458008e-01
2.371203353865999064e-01,-1.364715506827373359e-01,2.384031266565082297e-01,-4.211605868130984844e-03,1.100078949575625589e-03,-1.140196256734375056e-04,3.743109107017517090e-01
2.311688152637764171e-01,-1.387179175998201897e-01,2.213596244802806257e-01,-6.929696255056113328e-03,-3.730820449208728084e-03,-4.269510400762201868e-03,3.654102087020874023e-01
2.394355129571109908e-01,-1.375839203495713980e-01,2.316847834188592858e-01,-4.247474040741081730e-03,-9.864428565793115222e-04,-7.093398400107243235e-03,3.734830021858215332e-01
2.484985852771970927e-01,-1.353369262234515036e-01,1.457954088706802098e-01,-7.868211454130287800e-04,3.152368526869998595e-03,-1.301551189495897543e-02,3.449585437774658203e-01
2.401887830354216269e-01,-1.409565705792585333e-01,2.404295587200701023e-01,-8.794041401814850977e-04,2.001780457297662724e-03,-5.733991798170159221e-04,3.812859058380126953e-01
2.513974735446165010e-01,-1.320553783628050648e-01,2.366899277870680718e-01,1.647206989833031746e-03,-4.092810630552806694e-03,2.774720624562538891e-04,3.763925731182098389e-01
2.502625287733703519e-01,-1.339414143278789271e-01,2.389801834680007064e-01,-4.138410160400854626e-04,5.730586209702968718e-03,-7.149826118374362580e-04,3.788216114044189453e-01
2.478672656153350917e-01,-5.271509289198728077e-02,2.380590550531955785e-01,-8.229163319970575919e-04,1.588582874985624161e-03,-3.645879040308874601e-04,2.958171367645263672e-01
1.482350747750511011e-01,-9.895487511327656638e-02,2.791822733398137690e-01,-2.007106369287606825e-03,-1.236342388083195784e-02,-2.136979998127722189e-03,3.333214819431304932e-01
2.600491037104227798e-01,-6.406054430391741605e-02,2.411864704430179418e-01,1.405330041621099917e-02,-4.058555367429505373e-03,-3.848744274067686377e-03,3.161892592906951904e-01
2.433971159167354070e-01,-5.623940276875902256e-02,2.568858303625223272e-01,-1.490934830629851108e-03,3.082098673647288255e-03,1.147370952671347352e-02,3.073040843009948730e-01
2.551621098910785146e-01,-1.251399844556225771e-01,2.369100921332694121e-01,-2.355273008767754764e-04,-2.912212680477389241e-03,1.257308961773203183e-04,3.715470433235168457e-01
2.706747847753107061e-01,-3.125912150670404066e-02,2.722541312598817931e-01,1.591302051709562321e-02,3.705678415765448555e-03,2.077820307305905043e-02,3.061690926551818848e-01
2.712735694356347427e-01,-1.499522513554325809e-01,1.762441318445598093e-01,-1.069819153645195850e-02,5.727964725057409223e-02,-2.218769083278748430e-02,3.976129293441772461e-01
2.549462922780990626e-01,-1.283399454493890368e-01,1.546040588861439802e-01,5.531880970429595493e-03,3.202952181540594852e-03,-1.117275276574695650e-02,3.449843227863311768e-01
2.225107237072518895e-01,-1.200783420936869794e-01,1.987130047280330492e-01,-3.839288723142022554e-03,2.445851210451524451e-03,1.305488493151942507e-03,3.314333260059356689e-01
2.513232351664745901e-01,-1.329930600768449711e-01,1.897483812521518209e-01,-9.316995927775201941e-03,1.858350466874819293e-02,-3.555055970976805577e-03,3.593892455101013184e-01
2.345908116767132789e-01,-1.175158177503719537e-01,1.808485119842348776e-01,-2.975321025647274624e-03,2.799886063916327480e-02,5.465860005186232856e-03,3.322834372520446777e-01
9.573202587955852161e-02,-2.041786557261925372e-01,2.457532522476550407e-01,1.129618392230486747e-02,-6.704350778508125219e-02,-6.648750410495394116e-04,4.139014184474945068e-01
2.228740444629503936e-01,-1.318271285071076493e-01,1.693686815456916794e-01,-7.489957846583749496e-03,-1.451827561786422222e-02,-4.777085878194168786e-03,3.325152993202209473e-01
2.243365562615451114e-01,-1.232300952360868840e-01,1.677572837447933729e-01,-2.951331938710097247e-03,-1.580168528662110466e-02,-2.477452459627240791e-05,3.242127895355224609e-01
1.680373485294461844e-01,-1.288144294362184028e-01,1.993803959023036088e-01,8.123404629129795870e-04,-3.699291053521458483e-02,1.194216856986284785e-03,3.201863467693328857e-01
1.727551963977538574e-01,-1.294359980349473749e-01,2.524901673869575092e-01,-1.100667472568862652e-02,-4.233514678114828900e-03,-9.770102365603498124e-04,3.495603799819946289e-01
2.170700381372733523e-01,-1.170184935057566600e-01,2.032908584264915275e-01,-2.311056832978319268e-03,-3.834087169583307378e-03,-7.946434615567069657e-06,3.275082707405090332e-01
2.399121733740922913e-01,-1.350801414894388652e-01,2.456785098330485639e-01,-3.463255335485266890e-03,7.975300177086055292e-03,-2.485776406264678887e-03,3.782329261302947998e-01
1.572212066824510979e-01,-1.575098457233069515e-01,2.260655662769667229e-01,-1.872949897440413444e-02,-5.896405201234344862e-02,-5.317009614322559113e-03,3.701757788658142090e-01
2.524588281186420091e-01,-1.527777530026254160e-01,1.588596774145752955e-01,-1.187500456955952702e-04,-2.213704725386573743e-02,-6.822128678167594350e-03,3.696721494197845459e-01
1.931402059738978605e-01,-1.244580968885418276e-01,2.428251288078825953e-01,-8.801950423036577944e-05,4.058050510765376720e-03,6.515818063737065582e-03,3.453895151615142822e-01
1.626042019227497692e-01,-1.589943689947778127e-01,2.277977244267234136e-01,-1.458109181743924565e-02,7.731064125975177503e-02,1.069387724202184795e-02,3.841271698474884033e-01
7.756129978387413249e-02,-1.476344642422997566e-01,2.849545705772511539e-01,-2.588560385968238786e-02,-2.101007199575941065e-03,7.477942279602669585e-03,3.776511251926422119e-01
1.731703298471202468e-01,-1.233461279057853632e-01,2.248618603357274426e-01,-4.138460940843056296e-03,1.640915579513309991e-02,4.443878282240763811e-03,3.268636167049407959e-01
2.197844477943576291e-01,-1.332415038997686318e-01,2.431900710966698465e-01,9.066061443531815483e-04,-1.073395826587095420e-03,2.565812892621026353e-03,3.653267323970794678e-01
6.530657060098797595e-02,-2.935277042328339747e-01,3.462881555698699709e-01,-9.380376949600777517e-03,4.508868958020239431e-02,3.691593173251210211e-03,5.611972212791442871e-01
1.949556574846820767e-01,-1.623340218790582934e-01,2.375511102444816114e-01,1.851175561421918025e-02,-2.327029572518727468e-02,3.314227566096999457e-03,3.838941752910614014e-01
2.229893575578301146e-01,-9.525210535970207726e-02,2.635065722268700172e-01,-2.952991461982238351e-03,1.659812228329375899e-03,8.252173169367252661e-03,3.406644165515899658e-01
2.357725372085593130e-01,-5.469783259608673731e-02,2.545792219229560116e-01,2.473024425113343498e-04,5.669636610807520481e-03,-1.393943602385460528e-02,3.014449477195739746e-01
2.383249925672871750e-01,-1.313745815277398699e-01,2.422293655560259218e-01,-2.206604050000168966e-03,3.337097778401825442e-03,-3.797893074851726048e-03,3.717899322509765625e-01
2.544816409681764924e-01,-1.172498357781107114e-01,2.453453089565408030e-01,3.956712487227961351e-03,9.138236737747934893e-03,2.615379503631895010e-03,3.676812648773193359e-01
2.657598273348505957e-01,-4.086567189789910848e-02,2.644485694315705793e-01,2.257898320844252404e-02,-1.006978944194767463e-03,2.563056899162958341e-02,3.116441965103149414e-01
2.578651907644823327e-01,-8.017030098537331062e-02,2.820743346955432163e-01,5.582937414387303607e-03,2.002582153927495463e-03,1.821189783506497713e-03,3.509317934513092041e-01
2.475932972966665979e-01,-1.118974560084286807e-01,2.453404658762639301e-01,-1.298309131808592131e-03,9.147256839266190709e-03,2.462589505684144569e-03,3.587521016597747803e-01
3.663921508433210517e-01,6.002272887318158001e-02,3.339538754594827408e-01,-2.370610807493653965e-02,3.826121046037388868e-02,-3.345916210949748809e-02,3.072663545608520508e-01
2.782074228532538385e-01,-1.285387123014292421e-01,2.556844229184666029e-01,-9.948278794931745064e-03,-2.252745189851314278e-02,-5.161729868202804238e-03,3.983564376831054688e-01
2.486908968376611573e-01,-1.004805712974186638e-01,2.457499951577630237e-01,-3.052616175921207473e-03,7.951893587634002031e-03,-4.428237309181490972e-04,3.480240404605865479e-01
2.915658379067107564e-01,7.629113049124974788e-03,3.059685001772911583e-01,1.191806835218521543e-02,8.612850928628169173e-03,-2.266043741587488863e-02,2.951374053955078125e-01
2.492307826245121483e-01,-1.354506495896793949e-01,2.389406458365319064e-01,-1.465317600420145945e-03,2.133721290643071991e-03,-3.294647890084834337e-03,3.797103166580200195e-01
2.010405555576831593e-01,-1.407913714365313096e-01,2.361334279486678178e-01,7.668764804966744526e-04,3.170615035467570179e-03,-1.793474176872817912e-04,3.607054948806762695e-01
2.578703347248305633e-01,-1.112513932160324459e-01,2.382252658766148556e-01,-1.120468610430639311e-03,-4.399321305330423579e-04,3.549738971320065594e-04,3.597083389759063721e-01
1.389223881562779983e-01,-1.177256840417409689e-01,3.479190448308012718e-01,-5.944913864279035946e-03,4.401604394398483250e-02,8.962350961627105206e-03,4.115162789821624756e-01
2.589266519503534703e-01,-1.015564816243285928e-01,2.436134773571011491e-01,-5.423453548022448556e-03,4.143925944718502771e-03,-1.613882767270844918e-04,3.532736599445343018e-01
2.203652607034531363e-01,-1.185904043608701358e-01,2.078926879584419296e-01,-3.202285587055363550e-03,1.577871644966623082e-03,1.588794127865892063e-03,3.329634666442871094e-01
1.966438677059134665e-01,-1.307325028354625052e-01,2.181460311343191294e-01,1.591969134370212159e-03,6.827238108249793040e-03,-5.667663442117840469e-03,3.389995992183685303e-01
2.285767964105988315e-01,-1.206863081127843851e-01,2.022130444134395688e-01,4.601410845806402569e-03,1.361435675606827850e-02,-4.992475710827827713e-03,3.378849327564239502e-01
2.535578641648363885e-01,2.030714513043696545e-02,2.570372166449788054e-01,-7.699554851985106543e-03,5.085443898841830214e-03,7.588200359845432555e-04,2.355562150478363037e-01
1.079461255959351662e-01,-1.800973270450494101e-01,1.642097696521409300e-01,1.451862493012977826e-03,1.172443960962564063e-01,5.387971053188633265e-03,3.790424168109893799e-01
2.314707794331269941e-01,-8.409445961961231619e-02,2.500682309562982653e-01,-1.358092945129575711e-03,1.039827020488025017e-03,-6.019614197563621233e-03,3.254435062408447266e-01
2.550313082445415103e-01,-1.649437553070679519e-01,2.076005713851141743e-01,1.902726764040316154e-02,5.244104749721620329e-02,-2.746677841524940156e-02,4.126845896244049072e-01
2.513842301907310839e-01,-9.973043213439664045e-02,2.393123832934705986e-01,8.973662523558179754e-03,-4.312017493070095624e-03,-1.218537689879686369e-03,3.456739187240600586e-01
2.571113027993626177e-01,-1.234990356346951229e-01,2.369587762549014154e-01,-1.057487037337373828e-03,5.138382058073179878e-04,-3.550047488357837644e-04,3.709509670734405518e-01
2.555408318276282675e-01,-1.020886753305922101e-01,2.410955262893827999e-01,-2.760364901243332961e-03,6.843108995033468471e-03,4.424351059213204088e-06,3.508629500865936279e-01
2.317755717409030747e-01,-1.351575307167094397e-01,2.441306126091650763e-01,-4.674528094002913803e-03,-2.095358846587530837e-03,8.116140541366925233e-04,3.733721077442169189e-01
1.818394126437622438e-01,-1.368350764072144288e-01,2.442240427783641254e-01,-6.351208538245285695e-03,8.462345304127191770e-03,1.536465377698336245e-03,3.544976711273193359e-01
2.322101368800226773e-01,-1.338673220593649127e-01,2.453788669731318262e-01,-6.226909094551766680e-03,1.263004260712552538e-03,-5.683441227319141822e-03,3.731285333633422852e-01
2.201513852965877038e-01,-8.521971463635719113e-02,2.436409987766044727e-01,1.552927433633076275e-02,-4.616069807240837097e-03,6.688862887223315061e-03,3.192145824432373047e-01
2.519316452067070777e-01,-3.144434094066031471e-02,2.462629805062142574e-01,1.601054881024245070e-03,5.838774326855214469e-03,-9.604342065695409270e-03,2.812728583812713623e-01
2.480040799717062594e-01,-1.296265119994878257e-01,2.493328232410430001e-01,-1.048361177282567058e-04,-1.180157413823726626e-03,-2.398189311057920096e-04,3.783025145530700684e-01
2.403172451493223449e-01,-1.155783914956366176e-01,2.525342044334242253e-01,-9.520773528082728974e-04,-7.081315781866327243e-03,-2.873167708053372699e-03,3.624042570590972900e-01
2.862598018231523600e-01,4.975537157028669943e-03,2.586789341925108676e-01,1.764716013287600388e-02,-2.657864896290631357e-03,-1.793551107049682486e-02,2.721102535724639893e-01
2.498221635846164801e-01,-1.196848477076753459e-01,2.522396950081578493e-01,1.752703547092862156e-04,-8.540227748307444716e-03,-1.771420723402693980e-03,3.710294961929321289e-01
2.483949332930677212e-01,-4.714157510415720176e-02,2.445219291817600782e-01,-1.825139686395553388e-03,-6.703797454898531225e-03,-2.885472660216545100e-03,2.939081490039825439e-01
2.400288192829178324e-01,-6.506471676025199491e-02,2.533810738627900738e-01,-8.158522511922255971e-03,5.041713796623616649e-03,-1.298456232877203548e-02,3.132343590259552002e-01
2.451475748234092089e-01,-1.124149476065880726e-01,2.498379229308851646e-01,1.767934557839077317e-03,-1.048905704131571776e-02,1.484663753095041405e-03,3.604110181331634521e-01
2.367723846560385592e-01,-1.271367812143832654e-01,2.231525041388083830e-01,-8.341308300277454346e-03,-6.280660045481662249e-03,-6.948864462243894979e-03,3.579537868499755859e-01
2.286940753161909590e-01,-1.266406937637515051e-01,1.913381412793974112e-01,9.042846656096704960e-03,-5.609663088387234139e-03,4.982592168136283639e-03,3.388194143772125244e-01
1.877589363971633452e-01,-1.209152768857686688e-01,2.180984939087994290e-01,3.341651411753108775e-03,-1.322007985284964077e-02,4.499386640668503676e-03,3.258586227893829346e-01
2.338916688673425837e-01,-1.246651969104441288e-01,1.978456214800665691e-01,-4.917877960792946257e-03,-5.738516230879910605e-03,5.356582455399373408e-05,3.422121405601501465e-01
2.230895704800046897e-01,-1.244532940982579772e-01,1.642549630082979495e-01,-2.481667713562849334e-03,-1.484982931559807040e-02,-1.621036939527989874e-03,3.232459127902984619e-01
2.388305081681222630e-01,-1.405258207387676261e-01,2.403829221360699320e-01,1.145416775611538766e-03,-1.776354118449084696e-03,-7.936159516204170259e-04,3.801550269126892090e-01
3.963788622030420261e-01,3.463263267386504363e-02,3.605923364898382943e-01,-3.448431241197337516e-02,1.975751949672308397e-02,-1.304518947492165973e-02,3.527669012546539307e-01
1.292147872331703973e-01,-1.239554120068002002e-01,2.540969174659461483e-01,-6.557103086981418485e-03,-2.431993924311968459e-03,-4.510117714893236199e-04,3.338479697704315186e-01
2.520808150631871358e-01,-1.326749212006195222e-01,2.371678784821519004e-01,4.604139776477648386e-04,3.605806093145014733e-03,-2.145868492674993786e-04,3.775729238986968994e-01
2.299298444214408210e-01,-1.381400666227776408e-01,2.410991233800672540e-01,-6.554435892653356563e-03,-2.947757145626126243e-03,-2.012616697136139672e-03,3.740032017230987549e-01
2.539522074569139365e-01,-9.970356524153775601e-02,2.457572398793650970e-01,1.318145515100810649e-05,-5.730617453452456272e-04,-1.725242129744083627e-04,3.496318757534027100e-01
2.500735073181732382e-01,-1.355246570823005758e-01,2.365870915474196645e-01,2.604995857005376310e-04,-1.204558094726294404e-03,9.898368172323486480e-04,3.790448307991027832e-01
1.713667887677599588e-01,-1.224031494597147135e-01,2.310521532256053501e-01,-5.800276537359173694e-03,2.068445871892981430e-02,3.523503644163586065e-03,3.298766314983367920e-01
1.182476035381652413e-01,-1.300896699394596401e-01,2.746776925360188137e-01,-3.584360291332018382e-03,-7.859788374941622385e-03,-1.187547788593465437e-03,3.538605570793151855e-01
2.470443852866472945e-01,-1.374021470776656817e-01,2.380569349092683251e-01,-1.407307527662270000e-04,3.751427521542145837e-04,-4.744354233338179722e-04,3.800340294837951660e-01
2.375055975584204060e-01,-1.387589978191373641e-01,2.388060918376699315e-01,-2.167584632400654590e-03,-5.286205464940542647e-04,1.224388049938217055e-03,3.769423067569732666e-01
2.011400284098500968e-01,-1.401792406484526632e-01,2.693981859652111455e-01,-5.174522169630197885e-03,4.335085984061302911e-02,1.142780051717682925e-02,3.880281448364257812e-01
2.364475577222205360e-01,-8.958806092414187128e-02,2.565017079428586477e-01,-2.252347478751382751e-03,-1.135899799820743600e-03,-3.948253729160274461e-04,3.365402221679687500e-01
2.162477573146007193e-01,-1.185801004284458837e-01,1.880150813275611732e-01,-1.316003427618907783e-03,-9.338711410705208965e-03,-5.496273955754102250e-04,3.220581114292144775e-01
2.436369312806852261e-01,-1.144406760706118409e-01,2.510016222897336613e-01,-2.764542371284545684e-03,-5.022680602899552618e-04,3.630631228578658221e-03,3.619035482406616211e-01
2.530609024009718433e-01,-2.053476949935520435e-02,2.567441890394947523e-01,9.397841891940615644e-03,7.596453443318552413e-03,8.037795363023330503e-03,2.766004204750061035e-01
2.438163059646354935e-01,-5.266238161963296416e-02,2.466763305259805916e-01,5.479566125562187334e-03,8.364515845159316981e-03,-2.054074044466824779e-04,2.984222173690795898e-01
2.412397500590429122e-01,-1.285441853510128074e-01,2.485275038075906995e-01,-4.075645627056883767e-04,2.338403324123478240e-03,-2.177536196268174337e-03,3.735228180885314941e-01
2.363907987746852180e-01,-1.374916153936332208e-01,2.363180033716982265e-01,3.593473413099475223e-04,1.690305897401203281e-03,3.589056288404789824e-03,3.739096820354461670e-01
2.412112428085367855e-01,-1.400803287074797732e-01,2.389799752014418743e-01,2.168036973425824189e-04,3.108286573852002844e-03,8.169474947715722876e-04,3.802217841148376465e-01
2.409288135368347350e-01,-1.388088822394866750e-01,2.450824545952580147e-01,1.320887943620029526e-03,2.562769491459031355e-03,6.565689063418191475e-04,3.818657994270324707e-01
2.392649911726266732e-01,-1.391519125534388945e-01,2.447175311081061233e-01,1.196265544918825516e-03,2.407715302278171186e-03,7.131109032955617027e-04,3.812028765678405762e-01
2.379245459417683173e-01,-1.367262724286786024e-01,2.434759489610568151e-01,3.057856381521858666e-03,4.219852583083251885e-04,1.593289408714201058e-03,3.775050938129425049e-01
2.381926008041952703e-01,-1.364500141113807186e-01,2.408691273489181606e-01,3.688842583734620005e-03,1.078213870717142009e-03,5.008801451828859925e-04,3.760479390621185303e-01
2.544114525963159235e-01,-8.859897303987993022e-02,2.397582678299737258e-01,-6.811756438864746167e-03,9.601711011206401011e-03,-6.885255929225133319e-03,3.367531299591064453e-01
2.473140763667695530e-01,-9.711768981515903065e-02,2.480549335500154551e-01,-7.615624163196738766e-03,8.572792353600960230e-03,-9.376766246752328560e-03,3.457559943199157715e-01
2.279355747425640955e-01,-1.264219702866281880e-01,2.271049882672291353e-01,4.579316448615832792e-03,-2.333208869264809682e-03,4.159634622653391248e-03,3.541282117366790771e-01
2.588337587475586510e-01,-9.026481141042472234e-02,2.340080754056186318e-01,-1.020856460543223239e-03,-3.030014416732521032e-03,-7.255271038345981541e-04,3.374192714691162109e-01
2.306228311622612881e-01,-1.292593278457891126e-01,2.148964370458417150e-01,-6.779258453884453271e-03,1.233087071069458160e-03,3.502185699945869167e-03,3.525366187095642090e-01
2.393459518408905251e-01,-1.324989614833711749e-01,2.389372154062944231e-01,-1.222376157888348074e-03,6.788288821476504186e-04,9.694525649528328752e-04,3.716523945331573486e-01
1.914390746221210637e-01,-1.273618068037710438e-01,2.295626174220166682e-01,-1.515197018409000264e-02,2.190509834717266693e-02,9.037362985984596225e-03,3.429496884346008301e-01
2.538480190722062213e-01,-7.944936293765497703e-03,2.483919776638802424e-01,1.406396406677851499e-02,1.680584503762585190e-03,-5.000174576576363501e-03,2.604108750820159912e-01
2.540451630034043506e-01,-3.304688802845079376e-02,2.624999728977361335e-01,-1.524604523347868881e-03,4.547907430004369950e-02,2.962780230956343214e-02,3.062124550342559814e-01
2.386001503714225147e-01,-8.021941072093100034e-02,2.483855063414313336e-01,4.131850256013497140e-03,-9.109381612835740216e-03,-3.081914845788804279e-03,3.243302106857299805e-01
2.337755155441049171e-01,-1.398961678545256881e-01,2.298670713234365337e-01,8.523941349076520234e-04,-7.360119625503719386e-04,2.743915861893145812e-03,3.717683553695678711e-01
2.359227256603587120e-01,-1.360289989254812038e-01,2.372830903694662097e-01,8.484750427806926273e-04,-7.312462436112285866e-04,7.555356221384068138e-05,3.726388514041900635e-01
2.375412885503375149e-01,-1.359424468974333444e-01,2.358640393208018549e-01,2.447287913480561405e-03,1.566390808390620689e-03,6.757721129617615206e-04,3.726837635040283203e-01
2.377968313985678317e-01,-1.401969672227981190e-01,2.370950413582694205e-01,8.628105060522326579e-04,3.424700243324491880e-04,1.838013678237713925e-03,3.776602447032928467e-01
2.390225773379355823e-01,-1.365793905106461592e-01,2.463569529766888033e-01,4.533604664087720684e-03,7.790024863803465816e-03,1.103418865700450235e-03,3.796482682228088379e-01
2.407434564733500482e-01,-1.408195686068940411e-01,2.374640672989963286e-01,3.297107111372679818e-04,6.279754060005681435e-04,1.569079523313429399e-03,3.799456655979156494e-01
2.479117096088622463e-01,-1.340832918152485009e-01,2.400451386078613636e-01,1.037891415128178998e-03,8.702024996530477105e-03,8.412260635367479512e-05,3.784276843070983887e-01
2.256164511576333742e-01,-1.345478915189627089e-01,2.275333022344099565e-01,4.432776287133040685e-03,-1.507607464330694338e-03,3.798675582191105710e-03,3.612775504589080811e-01
2.409300210478311499e-01,-1.223826912932905187e-01,2.518253727789983576e-01,7.526314044410435059e-04,-5.212603816650808290e-03,-8.739818638916342468e-04,3.689969778060913086e-01
2.122022404671971563e-01,-1.802170490129930691e-01,1.152853158801363520e-01,-4.222999986030497553e-03,9.658569328115873542e-02,2.805306717003224967e-02,3.946574926376342773e-01
2.072000275924431034e-01,-1.292996621726877904e-01,2.314244856518860027e-01,1.417296128098022821e-02,5.208941471268474510e-02,-7.636095172335321223e-03,3.617842793464660645e-01
2.169190651047301632e-01,-2.543137012258911422e-01,1.086306118833249845e-01,4.108995861978216937e-03,1.179854613933120494e-01,1.612135366102894485e-02,4.747101068496704102e-01
2.436710728736902754e-01,-1.284951102212402163e-01,2.235041436589865482e-01,8.675289619534704011e-03,3.926486855655447403e-03,-1.001970557163014974e-02,3.632934689521789551e-01
3.851618847128245315e-01,1.515047081022832809e-02,2.962683622021912710e-01,1.756256325204729601e-02,4.407124187234071760e-02,-2.650082104770541680e-02,3.475311696529388428e-01
2.340838211407075264e-01,-1.405002841081035569e-01,2.015157909855718743e-01,7.157234035527056289e-03,-2.598513680992093223e-03,-1.417387729549355636e-02,3.604873120784759521e-01
2.545407951896268561e-01,-1.333401606357375035e-01,2.378826449752008687e-01,5.815239543805201649e-04,1.925108296438910772e-03,1.028024967926346274e-03,3.798460960388183594e-01
2.427001469653066734e-01,-1.363279779750616316e-01,2.383855078180313336e-01,-1.342621826498655247e-05,1.954938363395508812e-03,3.862644289099851410e-03,3.769639134407043457e-01
2.503017528954796234e-01,-1.373831809738619569e-01,2.374375988178737962e-01,-5.602285457554504518e-04,1.339547102777814648e-03,1.436918516992386537e-03,3.814319968223571777e-01
2.487696500218770645e-01,-1.367396496191689015e-01,2.387674761535599766e-01,2.112605849591006146e-04,2.693352394993394315e-03,1.250405459097026677e-03,3.806417286396026611e-01
2.320226593846034802e-01,-1.321876842566583887e-01,2.287304844322095576e-01,6.281583754760548637e-03,3.458161336945832741e-03,-8.108019531813222963e-03,3.630598187446594238e-01
2.474556182986379360e-01,-1.368972528211676587e-01,2.382668776657740906e-01,2.183925496824543067e-03,1.789089670716479969e-04,2.764427092062596986e-03,3.798910081386566162e-01
2.532284979489577981e-01,-1.128683068496906527e-01,2.403281562338057120e-01,-3.312369634688984432e-03,6.815006583321561381e-03,1.044780694065868291e-03,3.600639402866363525e-01
2.497945699727094349e-01,-1.294162556814156817e-01,2.180165665748142745e-01,2.660797597467870869e-04,1.793779630349249317e-04,1.498557278549736849e-03,3.643723130226135254e-01
2.633886943697008043e-01,-4.487190796743736887e-02,2.885748232199875085e-01,7.449198797494274368e-03,-6.175545736492653315e-02,-3.433795112516378756e-02,3.443367481231689453e-01
2.269141968864224479e-01,-1.118561510389010361e-01,1.522099733999732751e-01,6.256155024322042867e-03,-6.382966728465273853e-02,-1.062068825120171880e-02,3.282026648521423340e-01
2.378299129465895057e-01,-1.364576024617729644e-01,1.527091495274754407e-01,-1.605471553495038564e-04,-3.568687475222625215e-03,2.082907376066979802e-03,3.398946225643157959e-01
2.448321335262237941e-01,-1.356593522719650724e-01,1.949752565769978796e-01,5.197712297809328579e-03,-1.238679238700460782e-03,1.154756090066765342e-02,3.588524162769317627e-01
2.470555891417571814e-01,-1.078340490898213322e-01,2.671381059627517818e-01,2.529068288103736295e-02,4.799654096431630462e-03,3.331979119883388477e-03,3.681009411811828613e-01
2.243966823114975917e-01,-1.477615359989286892e-01,1.078671933800112726e-01,-9.977818860864032247e-03,7.798651246722346220e-02,1.143494437826276730e-02,3.572815358638763428e-01
2.581701092947363274e-01,-2.352588247398585131e-01,5.557261331827501732e-02,2.328657065532159856e-02,3.751781733271322000e-02,-3.373467156474501327e-04,4.363488256931304932e-01
2.534795658554509501e-01,-1.255515046286089786e-01,1.732117113063888492e-01,-6.026854089528845167e-03,-3.929151645018274554e-03,-6.600912971074074029e-03,3.463660776615142822e-01
2.754171002190302087e-01,-1.686584405962488764e-01,4.337527396077558994e-02,2.529344004128994666e-04,3.929990068771226780e-02,1.369668386078982947e-02,3.914062380790710449e-01
2.643753987599667399e-01,-1.203010433546031210e-02,2.742442671815807920e-01,1.074564347006661327e-02,7.518210035432447771e-03,-1.895971244080765783e-02,2.842878699302673340e-01
2.040094066632291980e-01,-1.109154619364830230e-01,2.237821737399502409e-01,-5.796026124213721903e-03,-1.762912014492990995e-02,-5.202485088339111816e-03,3.269708156585693359e-01
2.471125150889237898e-01,-1.262738510929853897e-01,1.968803716243175406e-01,1.019444463079396436e-03,-1.860580166389629638e-03,9.959088550632606840e-03,3.514195680618286133e-01
2.456403360425361004e-01,-1.178972021609357990e-01,1.767299420921565889e-01,2.147366956671930421e-03,-3.468599056457327690e-03,1.715993940054172601e-03,3.345376253128051758e-01
2.286626849239979387e-01,-1.434157887164087264e-01,1.041633927406655225e-01,-6.269987512513198850e-03,-9.736309979809390502e-02,1.619125862947334155e-02,3.700838983058929443e-01
2.385591425599137561e-01,-2.478631087349634221e-01,1.595031344569494969e-01,1.077419454108187458e-02,-1.252268433424678917e-01,-3.499515499389880060e-03,5.018287897109985352e-01
1.179488431871258125e-01,-1.870771494434980420e-01,1.562933436376174601e-01,-8.177353547048132540e-04,-1.184774021633586416e-01,-4.485184029842266269e-04,3.851240277290344238e-01
2.574737466027385846e-01,-1.208381529073312699e-01,2.358821710253241055e-01,-7.585935413961989934e-03,-8.522651718257293063e-03,-1.109541421295564059e-02,3.690225183963775635e-01
2.286083113829722735e-01,-1.175681691077093832e-01,1.815078770504242600e-01,2.306721217884340203e-03,-6.446478568346616575e-03,2.346362999463119745e-03,3.254361748695373535e-01
2.489652163565072018e-01,-1.317711751447695478e-01,1.564361550403657597e-01,-6.899675617203915659e-03,-2.885290165113214757e-03,-1.186088709390814219e-02,3.447933793067932129e-01
2.823217491548759006e-01,-1.716968142728760305e-01,6.400975435096561972e-02,1.096006034731831710e-02,-4.324923462808617433e-03,-1.341192563958666997e-02,3.945014774799346924e-01
3.111562317048411352e-01,-1.174448597232556207e-01,1.308637377449432537e-01,-1.065986665147767957e-02,6.991665970790691964e-02,8.932071132066860680e-03,3.926524817943572998e-01
2.766685636181094310e-01,-1.123194155094678348e-01,1.201264826912685907e-01,6.435143356761784984e-03,-2.730656294084956442e-02,-1.389675856114550197e-02,3.433141708374023438e-01
2.394772405061210141e-01,-1.414714553659087715e-01,1.475699168247682491e-01,-5.755157427269270640e-03,2.523304914750115757e-02,1.836493251257438619e-02,3.486806452274322510e-01
2.709432424498897651e-01,2.424074987251567670e-02,2.761303241008702392e-01,5.749549734303767597e-03,-5.414358805470671256e-03,-1.453988617156561428e-02,2.509781420230865479e-01
2.436245615347790439e-01,-1.419313522296967167e-01,1.047281390095158721e-01,-1.171842286300146981e-03,1.247925314566275534e-02,1.487491382230771327e-02,3.398946225643157959e-01
2.977739516006846499e-01,-8.410093023775858101e-02,2.191126033691631059e-01,2.924606129792024518e-03,7.225233717801793354e-02,1.488175661290906844e-02,3.719253838062286377e-01
3.254228494134255856e-01,6.854466930096739241e-02,4.751876668000678539e-01,-3.816037094555470299e-02,3.863602433422931928e-03,-2.538784020226192081e-02,3.650127053260803223e-01
2.255342930239936372e-01,-1.643605472464305106e-01,9.813301328598918183e-02,2.075251402902588554e-02,-6.429868507842922964e-02,1.921860744355706821e-02,3.652108907699584961e-01
2.430708873002888071e-01,-1.266440773604630698e-01,2.342110858244496330e-01,4.786247237357190744e-03,-8.345928860822171211e-03,1.457776494498345260e-02,3.666159808635711670e-01
2.503048965964089212e-01,-1.035235312136180419e-01,2.557924193492084886e-01,-4.067604308605173372e-03,6.220521846217204505e-03,-2.970008803149293275e-03,3.568732142448425293e-01
2.079024669269454728e-01,-1.265118944457748196e-01,2.323997297794310191e-01,5.342069233064115387e-03,2.531808668794415657e-03,-1.002280410204304216e-02,3.478958606719970703e-01
1.991982315242247781e-01,-1.264851541592735829e-01,2.204422192047540419e-01,8.030219639318026585e-04,1.043346544517406889e-02,-7.208820726382812738e-03,3.375265896320343018e-01
1.514686148447079717e-01,-1.313149981978695147e-01,2.500623568524187879e-01,1.174858159418752310e-02,3.139136374538858097e-03,-2.890509305493952057e-03,3.435647189617156982e-01
2.282027916013435465e-01,-1.365052351245490958e-01,2.295089997141760429e-01,2.724015201750071280e-03,-3.091667179370585316e-04,-3.591070493099429804e-03,3.654466867446899414e-01
2.150148538231659578e-01,-1.244215595472903668e-01,2.278291806606909664e-01,7.850942089050804568e-03,3.793455782811473893e-03,-1.036483802593669845e-02,3.468159437179565430e-01
2.333512829205854622e-01,-1.257938175839936334e-01,1.785103020175924926e-01,6.924887989236365796e-03,1.146501603007716100e-02,-9.277588898455087912e-03,3.362934589385986328e-01
8.048375229820356469e-02,-1.515284047215446073e-01,2.837608894211708366e-01,-3.334940578837286909e-03,4.070561877300241799e-02,1.349000653502082335e-02,3.845310807228088379e-01
2.109805556358019529e-01,-1.154672800458815124e-01,2.077606275185106544e-01,-1.355246432998495837e-03,5.729859154846821470e-03,-1.113659145687100754e-03,3.250156044960021973e-01
2.330409544790628673e-01,-1.198931412578362055e-01,1.786970563955678770e-01,4.166457542136283929e-03,1.276102061853511341e-02,-4.821112578464260660e-03,3.300700783729553223e-01
1.689477570903922810e-01,-1.392701763679857208e-01,2.196132814953932477e-01,-1.533119532967116075e-02,3.363495352685322293e-02,1.415291947501158207e-02,3.433384597301483154e-01
2.446833159661948587e-01,-1.299677284340780004e-01,2.441966667409875003e-01,-2.274301812014044386e-03,-5.959846600877877383e-03,7.835943501345697540e-04,3.745734095573425293e-01
2.785674385228248950e-01,-6.761585439732212266e-02,2.564273533743000599e-01,1.904508271121987256e-02,-7.418432139422571903e-02,-8.203867635920240181e-03,3.612042665481567383e-01
2.571526712664805592e-01,-9.020924700325130829e-02,2.375087985707165505e-01,1.769432034255389089e-04,2.543610848005151311e-03,3.235135771249014617e-04,3.379977345466613770e-01
2.245851240047240238e-01,-1.590331494111503763e-01,1.434210943891660595e-01,1.285970028214493237e-03,-8.863725017870222045e-02,1.726723338237424674e-02,3.835149109363555908e-01
2.523417849265137125e-01,-1.079311725775850273e-01,2.477127430924109530e-01,-5.480571017704963417e-03,6.053403123780211510e-03,-5.969857103333652253e-04,3.582616746425628662e-01
2.233794321405351835e-01,-7.376849683877566288e-02,2.180687350874070396e-01,-8.955924883870362840e-03,-4.610980587050313856e-02,8.730963679261568439e-03,3.059324920177459717e-01
2.455318449141631054e-01,-1.014130187504411196e-01,2.448235996219476351e-01,-3.578737856354840575e-03,-3.232647222101303012e-03,2.049446604863839044e-03,3.467100858688354492e-01
2.505830791081394282e-01,-4.107981919319880770e-02,2.461380800359501408e-01,-1.871513142202874125e-02,-3.645595718990763800e-03,-1.973408405232231905e-02,2.933419644832611084e-01
2.396530813663549364e-01,-1.155825144981991737e-01,2.644548269318493516e-01,-6.805513803543328244e-03,-9.174047602744100569e-03,-1.398597701428558673e-02,3.695892095565795898e-01
2.424164356605463255e-01,-1.331969608515438663e-01,2.405556897383608894e-01,1.863328902953940601e-03,-4.504060384170384575e-03,-2.877273418689018855e-03,3.748147189617156982e-01
2.369677724665162077e-01,-1.316396847555085514e-01,2.227095590886708776e-01,-5.094993597206268730e-03,-1.111656350267649015e-03,4.539477869164170202e-04,3.618028163909912109e-01
2.363963235805421337e-01,-1.353892175930891395e-01,2.293051501988629115e-01,-7.028048465501631446e-03,-8.241599927056470279e-03,-1.344096316593215972e-03,3.687760233879089355e-01
2.542581636532801892e-01,-5.199097735532490216e-02,2.783921008524974372e-01,-4.761583444732877049e-03,-7.084878192039524222e-03,-6.315621491649952082e-03,3.195312917232513428e-01
2.885593160991337669e-01,-7.426242109080477549e-02,2.139284529715886063e-01,-1.489005387940362836e-02,-7.785327451775372887e-02,-1.012341208010626020e-02,3.595659434795379639e-01
2.446958543397970143e-01,-1.226512194027148672e-01,2.588376044051778901e-01,4.668821452308407824e-03,-3.370807080983574851e-03,-1.171511351055100000e-02,3.752999007701873779e-01
2.459381470399180092e-01,-1.340044996479634598e-01,2.326113705188498360e-01,-2.384315150942717225e-03,-5.123677014613908266e-04,-6.957297486322769689e-03,3.736758828163146973e-01
2.568603661824503392e-01,-1.378070563433311801e-01,1.589427006971488310e-01,-1.148839149566593942e-03,-5.812768361141286422e-02,-1.671537949228608239e-02,3.710579276084899902e-01
2.231359809705282804e-01,-1.511535650018892007e-01,2.120733769605778196e-01,-1.365041550640267408e-02,-2.846576272120283913e-02,-2.731798729306729456e-02,3.759030997753143311e-01
2.377633196302619267e-01,-1.540781047711525797e-01,1.292081931153431507e-01,-5.587949013325145715e-03,-5.961076931651483612e-02,6.533174381279800366e-03,3.656085133552551270e-01
2.228494488316757338e-01,-1.267443719654557377e-01,1.869600703888182891e-01,-8.519298140336042935e-03,3.234236655715391068e-02,1.331925757836128349e-02,3.388881981372833252e-01
2.006377759151054541e-01,-1.482755528637132447e-01,1.633384602934866425e-01,-8.117919723192080356e-03,8.361993128206537951e-02,5.621965158725704056e-04,3.623438179492950439e-01
2.310253540075341006e-01,-1.200725793856831924e-01,1.949351226831687600e-01,-7.634661696091733785e-03,4.296162108322542847e-03,5.399232761620962814e-03,3.349906802177429199e-01
1.998322488348756587e-01,-1.207423516532910579e-01,2.153046831459893840e-01,-2.310293052517552149e-04,2.065176170582906472e-03,2.000821928050352562e-03,3.286221325397491455e-01
2.677174660095909542e-01,-2.250562836328494909e-01,7.883033148407703194e-02,1.007485738631767012e-02,8.522076126057100132e-02,3.012356477374633634e-03,4.555712342262268066e-01
2.246999200282327469e-01,-1.744849347029781006e-01,8.373631082326006558e-02,-4.402532525459664295e-03,9.386660434844580625e-02,1.715959861971998179e-02,3.877151906490325928e-01
2.438395884073128461e-01,-1.768265063947782600e-04,2.427868050603903260e-01,-1.221481486469696599e-02,2.756627922889423512e-03,-7.735992528105870361e-03,2.448227107524871826e-01
1.913534362246361031e-01,-1.746743262756390858e-01,1.589554204295748896e-01,-2.205331988306782204e-02,8.000379209323885132e-02,5.697704326128312340e-04,3.792482316493988037e-01
1.170578898676295637e-01,-2.572567202048988144e-01,1.556624143695825857e-01,-3.887606576717302781e-02,1.319374133954986372e-01,3.620501668706591070e-02,4.655543565750122070e-01
2.422217552525921525e-01,-1.289183480392124825e-01,2.520395495615412318e-01,-4.549650767645271811e-04,7.088033320176931502e-03,-1.325058126093833994e-03,3.763532340526580811e-01
2.356170891164705572e-01,-1.350147246240202825e-01,2.509154699692658363e-01,-1.813019659098908396e-03,2.521201555862332550e-03,2.365570208567035495e-04,3.785513937473297119e-01
2.384770704982251965e-01,-1.456525649082752727e-01,1.860084491561808662e-01,-1.131221966453991451e-03,1.338050015990052731e-03,-1.512798662826615563e-02,3.617313206195831299e-01
2.472197208171556249e-01,-1.267374205742164694e-01,2.294240283301847150e-01,-9.514360704666473961e-03,-1.200336111647441577e-02,-9.139372173287859530e-03,3.666881620883941650e-01
2.353750709809530606e-01,-1.291090223471141885e-01,2.547905320655612371e-01,-9.397173924334508495e-05,1.203067754278678951e-03,-2.555911482979335465e-03,3.746013939380645752e-01
2.395553992849851488e-01,-1.346248465253347959e-01,2.506513826530186728e-01,-1.241162096495833107e-03,-2.318116940564767404e-04,2.442652626189575904e-03,3.798796534538269043e-01
2.390484361275251601e-01,-1.334245903331413852e-01,2.544901831582934149e-01,2.581167906122645329e-04,-5.619196565759747124e-04,-6.175910391136071181e-04,3.804320394992828369e-01
2.385991790885039210e-01,-1.268573741969283852e-01,2.577523508188559465e-01,5.341258917972892674e-06,-7.680941168120837504e-04,-2.698145611353990753e-03,3.754312098026275635e-01
2.377314358934836946e-01,-1.334022599250567764e-01,2.540105681038909990e-01,-1.114858201549601049e-03,-1.863236842098624224e-03,4.862167484628944535e-04,3.795547485351562500e-01
2.491531276332814016e-01,-1.358150505701500865e-01,1.959092374078647558e-01,-7.782610892892613498e-04,-2.425344450465888833e-03,1.562164320326532444e-03,3.613377809524536133e-01
2.445202518115369150e-01,-1.318595189543661506e-01,2.481311481588129864e-01,2.839999935545976795e-03,-1.041241950491874268e-03,-8.605949062059106659e-04,3.782373666763305664e-01
2.360444832293587258e-01,-1.355432883845427983e-01,2.534934839345281965e-01,-9.300250154014010886e-04,-7.936618535654368402e-04,-6.802986525173237813e-04,3.806200921535491943e-01
2.464047845775790835e-01,-5.588264656105301764e-02,2.411003523948718752e-01,1.475304058077801014e-03,5.939170041532264299e-03,-6.954522999792985688e-03,3.000996708869934082e-01
2.364880551015714205e-01,-1.014253290196286961e-01,2.565438233733940976e-01,-2.704894273425851518e-04,-3.289925902647357001e-03,-5.321037440360454514e-03,3.485432863235473633e-01
2.507491654232629763e-01,-1.343229186630464367e-01,2.439785000642962220e-01,5.603373772795924510e-03,-1.858589667998452807e-02,1.694108236076840440e-02,3.843314349651336670e-01
2.477512086796072044e-01,-1.131407966067610182e-01,2.637104461891310869e-01,5.932684455937994742e-04,-9.137041039803969408e-03,-8.043111879415792281e-03,3.697335422039031982e-01
2.485099153320561860e-01,-8.246343666933134142e-02,2.544621134094100512e-01,-1.523667738496150333e-03,2.572558449675564976e-04,-8.239989248130116795e-03,3.343047499656677246e-01
2.464545995238101861e-01,-1.128478954462671657e-01,2.502022433772139731e-01,-3.170382834035216559e-03,1.058732933306409142e-02,1.590828427013733044e-03,3.617082834243774414e-01
2.545760495113584820e-01,-1.215359309891878847e-01,2.371058358272323252e-01,2.073130261855593050e-03,3.621133801657970379e-03,6.636812517079976022e-04,3.677611052989959717e-01
2.206867101642393525e-01,-1.319528442061363993e-01,2.442371362000802515e-01,3.424662807585586108e-05,3.573680333165195713e-04,-5.225668929004684992e-05,3.649855852127075195e-01
1.371469050524867783e-01,-9.038324490617129225e-02,2.574087609320364622e-01,-1.086870386474148367e-02,6.513226656203137399e-02,-1.306009768770804817e-02,3.273970186710357666e-01
2.215830958907261117e-01,-1.305709815864662671e-01,2.226930347625525886e-01,-3.273730939402157928e-03,-4.367554109195493847e-03,-4.998611138506921237e-03,3.529432415962219238e-01
2.042183670838494114e-01,-1.690360126353365744e-01,1.708683129446925686e-01,-2.247679294938770712e-03,-7.654912445446475366e-02,1.410928739383117587e-02,3.823279738426208496e-01
2.440056084565200289e-01,-1.340844506696338145e-01,2.410999382397851498e-01,3.979104267033455045e-03,6.896775252585954710e-03,1.065367796075242929e-02,3.773494660854339600e-01
2.270504945204676883e-01,-1.413913698884875503e-01,2.297263661889625275e-01,-4.927033179730559362e-03,-1.920152111331992944e-03,-6.280587184197162533e-03,3.700603842735290527e-01
2.500385522615428679e-01,-1.310672125781529584e-01,2.356120637392418171e-01,-1.081124667519733906e-02,-1.933215583772817693e-03,-9.681435476373160057e-03,3.749596774578094482e-01
2.381645732412047689e-01,-1.371082201253597532e-01,2.510714108294447300e-01,-3.734208897405122581e-03,3.056943749002900401e-03,-1.175821366240997886e-03,3.819867372512817383e-01
2.664963622614114902e-01,-3.584022504043077317e-02,2.641801130572157819e-01,1.984912766887556024e-02,-1.885962253642818913e-03,1.115606847124864069e-02,3.037737607955932617e-01
2.132212930893580549e-01,-7.675858677174027256e-02,3.080592127463440688e-01,1.640579927610624766e-02,6.059514348011951074e-02,-4.153849223876095870e-02,3.709214925765991211e-01
2.406651601147415942e-01,-1.374115824559533072e-01,1.781272184012753224e-01,2.329462835693471220e-02,3.872916735903351310e-02,-2.574830300826110030e-02,3.623887002468109131e-01
1.548191038056895841e-01,-1.715612578100301766e-01,2.582845906663883695e-01,2.585571520273304696e-02,1.080858322950877803e-01,1.401978839532300788e-03,4.336559176445007324e-01
2.521517563438926413e-01,-1.335444179317135105e-01,1.878344326859995861e-01,1.065331962121965521e-02,8.324329136255328304e-03,-1.963137966209150750e-02,3.602719008922576904e-01
2.430908548218856935e-01,3.172617563581170419e-03,2.470058822666885978e-01,-9.560310127058761764e-03,1.764044473228363165e-03,-1.121529510249222317e-02,2.432617098093032837e-01
1.867745448364988847e-01,-1.084342683730084994e-01,2.403618392831047834e-01,5.537491821306301035e-04,2.633099144427298796e-02,7.258191469089458892e-04,3.285144567489624023e-01
2.395549313522020995e-01,-1.375252981919094508e-01,2.450991343508140408e-01,2.655381304306862755e-03,-4.386383887197580801e-03,-1.587957870778887231e-03,3.799964189529418945e-01
2.508931707278955203e-01,-1.142856348207380857e-01,2.514463265392757885e-01,-3.083840833871224693e-03,2.773801418759129500e-02,-6.857680819227682766e-03,3.688301444053649902e-01
2.122996419436354310e-01,-1.316486478244008052e-01,2.273043167825365973e-01,5.360609963140965106e-03,3.978606841721273393e-03,-7.872831089101209323e-03,3.521449267864227295e-01
2.213529001406436825e-01,-1.351786550656167984e-01,2.491311453753664584e-01,1.981897010465231632e-02,-3.268167018197571045e-04,-6.095125290594557380e-04,3.727868199348449707e-01
1.175661524009374015e-01,-1.407625024851026085e-01,3.089331585557142379e-01,2.741572024923075515e-02,-1.262030559258863101e-03,-1.054652713798564335e-04,3.937642574310302734e-01
2.054063547715067328e-01,-1.375433066565773799e-01,2.323027373201371759e-01,5.866017220654790726e-03,2.380745201251752759e-03,-7.384940876776794824e-03,3.575553596019744873e-01
2.405763574152401940e-01,-1.328282352491878815e-01,2.430339944459485035e-01,2.157048939805582266e-03,-5.441428770340655738e-03,-3.818234866136800947e-03,3.748349547386169434e-01
2.353752028580465561e-01,-8.258952002620778554e-03,2.393186098047089816e-01,8.807060654060727906e-04,7.156501524583283071e-03,9.387257880184169670e-04,2.459522634744644165e-01
2.229129003217255600e-01,-1.218523236485136579e-01,2.196233002206209317e-01,-4.189749150900579457e-04,2.011761167147539230e-03,1.349596648687207898e-03,3.431586623191833496e-01
1.983783808375474966e-01,-1.181661430736041934e-01,2.150189583562241435e-01,-1.308232126841892776e-03,2.123337442762198227e-02,1.904349170972476036e-03,3.272818624973297119e-01
2.259723005750649549e-01,-1.331910728176722292e-01,2.226274377967619733e-01,-2.009540133606761052e-04,-1.516626258218417003e-03,7.172978731274600762e-04,3.575146496295928955e-01
2.124593668527572088e-01,-1.260488253684622917e-01,2.168476249047589233e-01,-3.942861359129361427e-03,1.715220256923373791e-03,1.366057260301216294e-03,3.408131003379821777e-01
2.365796099895104421e-01,-1.314682307771286307e-01,2.361566161884693371e-01,3.723742632962114083e-03,1.180084434122103711e-02,-4.910386122666457812e-03,3.685585856437683105e-01
2.355880867816099178e-01,-1.383658093460424787e-01,2.283465608922238266e-01,5.317531182910425862e-03,2.137601443757385371e-04,-4.757501651334207840e-03,3.705925345420837402e-01
2.355696169722104605e-01,-1.378284530455484158e-01,2.289783967486983540e-01,6.540623191969639587e-03,6.617379063685799312e-04,-4.401376511550535685e-03,3.704000413417816162e-01
2.299943937598214472e-01,-1.234237730732036659e-01,2.093596622605046753e-01,6.307677587401424625e-03,5.427529248625338580e-03,-9.082301203804745739e-04,3.438716530799865723e-01
2.388464882382234089e-01,-1.375027949908604330e-01,2.276962054238473865e-01,4.942490672188801920e-03,8.877547521827427795e-04,-4.519978717830327314e-03,3.710844218730926514e-01
2.403039409701165363e-01,-1.161320957740775706e-01,2.517142749730548745e-01,2.453235979497032427e-04,-6.658976369379921226e-03,-1.300365168223842349e-03,3.624667823314666748e-01
2.423605566825998148e-01,-1.318305572916131374e-01,2.522180590152962587e-01,1.335892366731518182e-03,-6.722592640742262524e-03,-1.295702474418171336e-03,3.794083893299102783e-01
1.678130858172438566e-01,-1.427635538009419114e-01,2.556707049852097735e-01,2.886727739811249804e-02,-1.167016121489201641e-01,-1.960284335220824695e-03,4.181299209594726562e-01
2.468631486124096275e-01,-1.421760815805808986e-01,2.399015344443596875e-01,2.096978288875497518e-03,-2.021414487788649600e-02,1.452571643262228103e-02,3.880253434181213379e-01
2.293209634120794704e-01,-1.240927332708620656e-01,2.256648428712916266e-01,6.643456062751952780e-03,-5.670736057384189420e-03,4.635706775134346320e-03,3.520168066024780273e-01
2.063689182757865170e-01,-1.245553469718246042e-01,1.793163166926409757e-01,9.565062601835122580e-03,-7.653579220835748931e-02,8.705059543417277557e-03,3.454928994178771973e-01
2.429103261666837876e-01,-1.368696638142697930e-01,2.054527969448291524e-01,1.007201643373615077e-02,-1.241924566234207418e-02,1.234341012485009118e-02,3.641900718212127686e-01
2.367977913070641316e-01,-1.306604929131752191e-01,2.081279793978328407e-01,7.079844715368106833e-03,-6.413639338381798768e-03,1.037092406573600356e-02,3.548366427421569824e-01
2.372110081483739807e-01,-1.351675098822029131e-01,2.205245626271737924e-01,6.080677113107951434e-03,-4.305278031002389080e-03,-5.381662393336404410e-04,3.645516633987426758e-01
2.138361259502258860e-01,-1.228765085861453499e-01,1.932871234263180416e-01,-2.528406007892380729e-03,-9.755721331936065624e-03,-1.984918347549254579e-03,3.274065852165222168e-01
2.150612897248116995e-01,-1.158521397503188416e-01,2.305974313298779221e-01,-6.595217856737526849e-03,-1.118065390157103357e-02,-6.763582568222338727e-03,3.398954868316650391e-01
2.225891710810355417e-01,-1.331482303373713871e-01,2.266248143843089813e-01,-6.335398773989124425e-03,-2.315724204585985907e-02,-1.108335638275003386e-02,3.606919944286346436e-01
1.708171825935064780e-01,-1.255586324901625805e-01,2.388554218763538906e-01,-9.604163296179520776e-03,4.159689158581032255e-03,6.770726983486998786e-03,3.363017439842224121e-01
2.176758528352268351e-01,-1.273152801759221131e-01,2.171952634337058763e-01,-4.410473014860827670e-03,-4.303621036819547073e-03,-2.936309688987452822e-03,3.449537754058837891e-01
2.309186035914969626e-01,-1.339053450404145418e-01,2.083377807360403122e-01,-8.670907666923785562e-03,-2.867741979640719280e-03,-6.654619449011968738e-03,3.546145260334014893e-01
2.365482582384569599e-01,-1.253869167405143592e-01,1.922567588194070143e-01,-6.687058358694631353e-03,-3.719960089141636801e-03,-4.702110392608261453e-04,3.422053158283233643e-01
1.503293077810646805e-01,-1.179373821634627506e-01,2.424108576578716534e-01,3.814249711006809009e-03,5.335223664500887523e-03,-1.293413485832015227e-03,3.244726359844207764e-01
1.522273983704681699e-01,-1.299747728975738925e-01,2.239612900531821327e-01,-9.576741306680620295e-04,2.702837507795062197e-02,7.945949603007356615e-04,3.274500370025634766e-01
1.955190366867837481e-01,-1.157615336721013327e-01,2.311748046759456998e-01,3.560481974681980414e-03,4.297007947301141433e-03,-6.017432224302461663e-03,3.308593630790710449e-01
1.482116523440793476e-01,-1.268960950096879037e-01,2.306746514188390274e-01,-3.578248601462565102e-03,3.511075857306074355e-02,5.870166466309441160e-03,3.301677107810974121e-01
1.121253006332609131e-01,-1.741577500502190512e-01,2.245196687562667770e-01,1.772611552644475993e-02,1.000584165761498473e-01,-1.246356694069288701e-02,3.977572321891784668e-01
2.255765127039244533e-01,-1.299063979051374162e-01,2.415833844215253823e-01,-5.909812550251990638e-04,9.300868265381875008e-04,-1.366705259675352578e-03,3.637633025646209717e-01
1.863716331874635257e-01,-1.175908738660513403e-01,2.276744003454601595e-01,-1.373697522865882214e-03,2.919253410693605985e-02,5.161504197573715987e-04,3.304794728755950928e-01
3.697909068634125385e-02,-1.705605112543941981e-01,2.757383243543788387e-01,-1.730748189218656377e-02,1.563600306638974341e-02,2.684214964821069263e-03,3.889529109001159668e-01
2.257617167402239666e-01,-1.291722362527175094e-01,2.330571019881932382e-01,1.208898523637990090e-03,-9.517360734478053563e-04,-6.967404924571581580e-03,3.588501811027526855e-01
2.570798635147630296e-01,-2.606595195282407351e-01,3.938787120931535463e-02,4.874037769792920714e-03,8.377282959142039187e-02,4.066369299165487061e-02,4.783531129360198975e-01
1.676712412724486179e-01,-1.211516225713243078e-01,2.482176070888782449e-01,1.081932583480042787e-02,2.461513788864051755e-02,-9.120006205206150629e-03,3.399829566478729248e-01
2.514509565491843679e-01,-9.299191844263834938e-02,1.411181398360250860e-01,-2.005584140064931714e-02,-3.836826517761195848e-02,-9.188978575130676146e-03,3.141452968120574951e-01
2.640829271189520933e-01,-1.304177157784759122e-01,2.529178640054817184e-01,-2.888486133746029447e-03,-1.992787436935480883e-02,-9.377361573632728847e-03,3.909360468387603760e-01
2.451282564220149673e-01,-1.345884661061943488e-01,2.227496722014343511e-01,-9.945759215535462938e-04,9.282658243778909874e-04,-3.885933954198035091e-03,3.691055774688720703e-01
3.244935837406748291e-01,-1.202724884899216279e-01,1.280867727270013634e-01,-4.595129461031386559e-03,-8.656196382128354683e-02,-4.542334750194967864e-04,4.142225086688995361e-01
1.206895628653441299e-01,-1.266042611989012800e-01,2.634577635992971234e-01,-1.238742607349108821e-02,2.711413547903086460e-02,-3.706994735933029708e-03,3.457597196102142334e-01
2.271734560228603206e-01,-1.375352949035968386e-01,2.349236574011589196e-01,3.764617909481450704e-03,-9.559288966665403743e-04,6.397138102883879497e-03,3.688727915287017822e-01
2.307106291974213574e-01,-1.273881397495723322e-01,2.463038201946682326e-01,5.265972653641317995e-03,-8.815020764344816406e-03,9.914069779557846407e-03,3.669781386852264404e-01
1.818345655292039065e-01,-1.260053909051614962e-01,2.071360888872472161e-01,7.652406443989507971e-04,-1.216153153979563674e-02,1.001439206251382528e-03,3.219361603260040283e-01
2.481195138419292068e-01,-1.265278499212326713e-01,2.492413700232001816e-01,-1.267385832919686560e-03,-2.590289132376165544e-03,7.898092481493290337e-03,3.754920661449432373e-01
2.013782384656842284e-01,-1.254315682130418552e-01,2.158432788534787594e-01,1.397247985227874703e-02,3.786804437095897535e-02,-1.123099047805776671e-02,3.420632481575012207e-01
2.800023974913794511e-01,-1.401317388785608409e-01,1.528294909448220662e-01,1.110866752240423014e-02,4.354597575490302269e-02,-3.285428977618283161e-03,3.812444210052490234e-01
1.945830102028120734e-01,-1.462137244152841853e-01,1.977529372675612684e-01,1.190309429067654481e-02,4.238842370249794322e-02,-6.810529235121527344e-03,3.509804904460906982e-01
2.354673296152796635e-01,-1.412398870395736861e-01,2.356579375639706320e-01,-2.015789266886609636e-03,9.082964661188859534e-04,-1.280499591043153702e-03,3.768285512924194336e-01
1.761693800991905312e-01,-1.391121813083316394e-01,2.355764814520947548e-01,1.149410971312625832e-02,-4.873962269631479383e-02,1.153206143328762770e-02,3.599772155284881592e-01
1.879128840359743369e-01,-1.265757001516067681e-01,2.465975422074560275e-01,2.757911981981474043e-04,-4.324534514359457474e-03,3.876228879110522017e-03,3.477125465869903564e-01
2.555341830804320757e-01,-1.155600078989766633e-01,2.324570830734384308e-01,-1.967381566720581251e-04,1.714520297676311094e-03,-1.645044522906552063e-03,3.601343035697937012e-01
2.407668510308686449e-01,-6.856871607487152742e-02,2.686951934223089644e-01,8.071459854378709720e-03,5.198382464888035709e-02,-9.014952413344776497e-03,3.371259868144989014e-01
1.567716740963298605e-01,-1.353715797639722107e-01,2.475858361576075417e-01,-6.638140692219364133e-03,1.992635758323686376e-02,1.419033325486625165e-03,3.485040068626403809e-01
1.569595605717226672e-01,-1.302056478147763374e-01,2.512263650619092625e-01,1.025263618452826320e-02,-3.918247603546023625e-03,5.784364241631798943e-03,3.447927236557006836e-01
2.531870019442795661e-01,-3.455207469351789795e-02,3.643924398583438529e-01,1.681122328516052034e-02,5.944431058533241469e-02,5.578049780640428022e-04,3.723012804985046387e-01
1.120372149876623091e-01,-1.650006897302081499e-01,2.501754746340478786e-01,2.391025379752985403e-02,8.651087031379750547e-02,-1.821329876253724531e-03,3.978431224822998047e-01
1.428561607979271231e-01,-1.306435400491748333e-01,2.405112544669134045e-01,-1.782488337492626335e-03,6.586765013856721307e-02,6.587302055149247756e-03,3.524238765239715576e-01
2.442639979390484051e-01,-4.908758172576144219e-02,2.143392067770978349e-01,-2.078292482617191683e-02,3.605605262089472962e-02,1.182973294103296935e-02,2.894613742828369141e-01
2.409887890587881221e-01,-1.333896653832719603e-01,2.389090733628344287e-01,-4.036503665618627369e-03,-2.928247260087323348e-03,2.708067204922361398e-03,3.734723031520843506e-01
2.280993021146139887e-01,-1.099185846818208773e-01,2.156853341939575786e-01,-1.098398468696784938e-02,4.954415556020309169e-02,8.664752138187015174e-03,3.437515199184417725e-01
3.255779680653848596e-01,-7.148217465751932620e-02,2.068176204839636267e-01,1.535886235695186654e-02,7.092978656019538475e-02,6.129175642799488712e-03,3.748590052127838135e-01
2.410404530090752284e-01,-1.091888784442333615e-01,2.500848399060247029e-01,-7.301254026497125968e-04,-9.226918082818025627e-03,-2.245730607268318565e-03,3.552212417125701904e-01
2.496011022223226516e-01,-7.976910280880064597e-02,2.462916433395868354e-01,5.682870365355996781e-03,-7.008653486987810426e-03,-1.549703927586327341e-04,3.281005322933197021e-01
1.832503875204148369e-01,-1.368824101660063852e-01,2.317124936862240969e-01,-1.657453711647739400e-02,5.500199527882724398e-02,1.215450513359313603e-02,3.615119457244873047e-01
2.496387675489191715e-01,-1.266384523899060643e-01,2.428169893854379147e-01,4.027502118594965957e-03,-5.869534814950595758e-03,7.048139360983757783e-04,3.731189072132110596e-01
1.991693721791432947e-01,-1.409662804761616650e-01,2.477008892006637431e-01,-9.134420967803591473e-03,5.572119076310763641e-02,9.492892918710447298e-03,3.799869418144226074e-01
1.254157152965594546e-01,-1.753088441871434033e-01,1.805352403530317007e-01,-1.664657053316077190e-02,1.041569134185816869e-01,1.336168705196773623e-02,3.794234097003936768e-01
2.610428297676146703e-01,-1.197898311444376002e-01,1.465197138544270805e-01,7.440319679793267176e-04,2.719561498480767628e-03,-9.785987236318885799e-04,3.384695649147033691e-01
2.235596201231117575e-01,-1.285761072205810762e-01,2.241833205635317128e-01,6.488209193476921106e-03,2.646040974183147456e-03,-5.711886122819819639e-03,3.527956306934356689e-01
2.363396836068311635e-01,-1.345598035250738511e-01,2.205257635604865873e-01,4.450463628673057177e-03,2.240562754093453242e-03,9.729794970680013524e-04,3.633571863174438477e-01
1.926459280386091655e-01,-1.212033998761406772e-01,2.340623727938192233e-01,-1.582484926135778458e-02,2.309231682153115375e-02,1.415038050723262629e-02,3.408327996730804443e-01
2.556154910197249164e-01,-8.320284894311388846e-02,2.553433022328244206e-01,-6.958264297313747869e-03,-1.773584334707029378e-03,1.923035224092551482e-02,3.405434191226959229e-01
1.771444076595495853e-01,-1.178482122468751808e-01,2.396639125776190427e-01,-6.362413310125030613e-03,2.619104870545496330e-02,3.394709470255957966e-03,3.340449929237365723e-01
2.525419289433857850e-01,-1.267909418896485119e-01,1.512618423501029818e-01,4.657795644069656280e-03,1.320379775751075353e-03,-1.446654575892606341e-02,3.412189483642578125e-01
2.768606160645830094e-01,-9.641443476671812673e-03,2.296709177685459513e-01,1.045592029476632989e-02,1.690229226578279439e-02,-8.280524497737487555e-03,2.686654031276702881e-01
2.452746643528294634e-01,-1.282737156449514360e-01,1.566372581855156598e-01,9.284812863891121759e-03,1.719361509213326172e-02,-6.778071085304685287e-03,3.399528264999389648e-01
2.560515239325852899e-01,-1.237973072864327478e-01,2.265637389128863921e-01,6.443643376017747088e-03,7.839896464055291650e-04,-1.055842146318754227e-02,3.666259944438934326e-01
2.529812023623076445e-01,-9.639430930275341702e-02,2.458761960665765689e-01,1.593903478172706972e-02,-1.367907497105920250e-03,-1.055600417275486674e-02,3.474672138690948486e-01
2.184772996912127396e-01,-1.293424076738732276e-01,2.562377909489617078e-01,-1.831034931032882781e-03,3.157213037167329404e-03,-2.188548266265051036e-03,3.682289719581604004e-01
2.617101095864245996e-01,-5.647704213785634253e-02,2.466984960571985686e-01,1.380277055073370930e-02,-3.100240841018194089e-03,-6.863606353217742830e-05,3.119171559810638428e-01
1.927665969780420763e-01,-1.412896512845055741e-01,2.341715912360271823e-01,-1.059735380095656355e-02,-1.663700688370443274e-03,-3.802589214725924857e-03,3.571108281612396240e-01
2.598544604339885211e-01,-9.154711545075147616e-02,2.379241390729247840e-01,3.355144978840285744e-03,-2.092539261249692483e-03,-4.472809806554893519e-03,3.411225378513336182e-01
2.481806227591841219e-01,-9.534669368336176620e-02,2.485405040249218933e-01,9.686733828563944340e-03,2.052781616139326675e-03,-1.415349689364057582e-03,3.441437482833862305e-01
1.338731066611675291e-01,-1.317899229585029475e-01,2.711737020892093231e-01,2.278034246618074188e-02,-3.043584694278390554e-02,6.539765571139923885e-03,3.610652983188629150e-01
1.746804970009416813e-01,-1.162759242567572432e-01,2.292167898698630468e-01,8.726810585265132141e-04,-3.450241641613183141e-02,-2.125585995246813929e-03,3.272378742694854736e-01
2.136541616297208401e-01,-1.283410991571788951e-01,2.083596752425522503e-01,-8.153382105871648938e-03,-9.679965619283078387e-03,-8.427195349316919312e-03,3.403993248939514160e-01
1.942780210051049117e-01,-1.147285045237843026e-01,2.376089625727150767e-01,-1.178455882664316764e-02,-2.720904726997506323e-02,-1.318542471680516498e-02,3.375075459480285645e-01
2.126654048402144004e-01,-1.216811228122717525e-01,1.884604108316104698e-01,-1.166576049088661332e-02,-2.488128440653521872e-02,-1.157549243726952934e-02,3.270292282104492188e-01
2.109541544442076200e-01,-1.199761983880257843e-01,2.146743188618343567e-01,5.083393155442405761e-03,-8.106806641973727037e-03,5.929377192585598075e-03,3.333766758441925049e-01
2.076473636500155151e-01,-1.210541554594136704e-01,2.195523716272855252e-01,-2.783780768364679196e-03,-2.210034171925184636e-03,-5.536089365072115881e-03,3.350066542625427246e-01
2.331306079956679544e-01,-6.879331300310412289e-02,2.425739428948034404e-01,-4.010789618075539381e-03,4.654578523513522824e-03,3.292744884126394544e-02,3.121927380561828613e-01
2.097679720126675584e-01,-1.183064912451917972e-01,2.126343730003742438e-01,1.116917802874188830e-03,-2.039290131317768318e-03,3.869851693840169670e-04,3.295423090457916260e-01
2.055457861024300170e-01,-1.256204534578286847e-01,2.243180747958245513e-01,1.120472258356592157e-03,-3.670945721418097246e-03,6.140447062116569099e-03,3.411708176136016846e-01
2.189598391681764067e-01,-1.249214701598484606e-01,2.146837229523652357e-01,3.748036726205494339e-03,-1.936388439010028242e-03,1.007777091239032453e-03,3.418458700180053711e-01
1.330806918635959457e-01,-1.314654549873106593e-01,2.753401066468594838e-01,2.517110783899490639e-02,-3.062361871366810206e-02,1.068236098657355387e-02,3.645724952220916748e-01
2.404763149464232419e-01,-1.380294573987276840e-01,2.285391503308870365e-01,-2.144703731156021552e-03,1.169953342514808018e-03,5.527851143393793659e-03,3.728275895118713379e-01
2.461219090903993822e-01,-1.210055256427441106e-01,2.030641401404986168e-01,-6.419907530208809020e-03,9.744339271673556346e-03,-1.240587444710931951e-04,3.481915891170501709e-01
2.237880441111059771e-01,-1.237435302491822903e-01,1.733902818866859818e-01,-4.409099971986076352e-03,1.646779569777317986e-02,3.923385995450627897e-03,3.266823887825012207e-01
2.420031853810413192e-01,-5.374916497898069023e-02,2.451734872986159885e-01,-4.881344732466446137e-03,6.275713428225309851e-03,1.465861551157049414e-03,2.976797223091125488e-01
2.474449417289590336e-01,-6.634165965184757319e-02,2.597628708138699505e-01,-5.889993350724936124e-04,-1.193321069303984738e-02,-1.798744854226383416e-02,3.223008811473846436e-01
2.796480534925628869e-01,-4.075760139025830231e-02,2.606333391371725705e-01,-1.486928957181559048e-02,-4.263233997912925640e-04,1.403028105723946352e-02,3.133421540260314941e-01
2.536065855094729038e-01,-1.269153487443341055e-01,2.518730997865700205e-01,-9.258842271159050492e-04,-3.022049112932840339e-03,4.162747239687274755e-04,3.796983063220977783e-01
2.665429712480372193e-01,-1.975531728078824822e-01,9.276645946629058503e-02,3.224635509393344347e-03,-2.989085774179529864e-02,1.901605789513185953e-03,4.094593226909637451e-01
2.723281562807162715e-01,-1.736150179704500085e-01,5.872396820781730642e-02,7.821393464486806058e-03,-2.315734866597691784e-04,2.017821137357252159e-02,3.881261348724365234e-01
2.545731980274948403e-01,-1.415479622996584363e-01,1.619855261488983289e-01,-1.439355036341241796e-02,5.023182238156137513e-02,1.938051111432002177e-02,3.716538250446319580e-01
2.403786140153064133e-01,-1.326852013724502677e-01,1.639267901989736043e-01,-5.438763930170099903e-03,1.983089704796675221e-02,4.331592456811047100e-04,3.431751430034637451e-01
2.732657506951603477e-01,-1.817423559770177666e-01,2.725132592734230697e-02,-7.453897602959853180e-03,4.188363187961526186e-03,-8.239786418282823988e-03,3.950188755989074707e-01
2.351100526491668730e-01,-1.871507359249587055e-01,1.290200104117308344e-01,1.720060467096231303e-03,-1.066948329519784994e-01,-2.572408677148420308e-02,4.253316819667816162e-01
2.559189331995975758e-01,-1.162274635032182618e-01,1.506673798935966313e-01,3.543049367777000198e-03,-1.303380351534483110e-02,1.376338075545462201e-03,3.330988287925720215e-01
2.040087613844577819e-01,-1.231419844127251972e-01,1.976150275107405041e-01,-2.838260118802860346e-03,-1.498122518770008370e-02,-2.638121195333295761e-03,3.251078724861145020e-01
2.033713434966206157e-01,-1.233265006527844571e-01,1.903850017574203468e-01,-4.990215415521491449e-03,-1.751865462567425702e-02,-3.612187795236506196e-03,3.220125436782836914e-01
2.404543909460890028e-01,-1.289134114833592748e-01,1.722461614637258442e-01,-7.918811285252298771e-03,-6.321067311438002649e-03,-8.636797938174758243e-03,3.412078320980072021e-01
2.573880219785328882e-01,-1.271992769473171414e-01,1.330533695670781946e-01,3.299697070651976330e-03,-5.651084837089337745e-03,-4.613126995173475256e-03,3.402076959609985352e-01
2.374522885318500198e-01,-1.382164878093937177e-01,1.366235964179140505e-01,-6.925800004308114597e-04,1.894642200405650262e-02,9.781850634813134271e-03,3.387929499149322510e-01
2.788425111325047445e-01,-1.108881101873229469e-01,1.310754070245405689e-01,1.543924802891028999e-02,3.790071599468781971e-02,9.269172777101992999e-03,3.484508097171783447e-01
2.215418687842970469e-01,-9.663939911400060145e-02,1.778246088239027745e-01,2.027915084990340039e-02,-7.412040942537176380e-02,1.735070841467149100e-02,3.284187614917755127e-01
3.081065779153122630e-01,-1.201364780128127974e-01,1.720448303491316500e-01,1.763451118919052985e-02,-1.089473454920242418e-01,-6.156845031404251795e-04,4.244762063026428223e-01
2.389031553542168007e-01,-1.374629739147339436e-01,2.281745168657550726e-01,-6.075154407406893955e-03,1.723107948521273496e-04,3.660125245436536296e-03,3.713215291500091553e-01
2.380804812252138303e-01,-1.359736047218760291e-01,2.456117460740950831e-01,-2.383414177443200256e-03,-4.755196432754428266e-04,-4.484896951784443186e-04,3.779002428054809570e-01
2.334814240284645570e-01,-1.413425708409932757e-01,2.259990008402483208e-01,-2.396275561319135931e-03,-5.061467943834685804e-04,5.460113423443938713e-03,3.712840676307678223e-01
2.092607247723610731e-01,-1.493656274859728739e-01,1.674208557651082618e-01,-7.620358464649658846e-03,1.025213697827926512e-01,-1.664424030338148425e-02,3.845721781253814697e-01
2.406967974110420516e-01,-1.401767852607559151e-01,2.374321455817434423e-01,-6.900656385672599563e-04,-2.731245684698836024e-03,8.997411862068738306e-04,3.792863786220550537e-01
2.370264125116496867e-01,-1.350429341386035209e-01,2.520088736523931616e-01,-1.527687690100670414e-03,-3.274436340296558653e-03,1.241710113089214028e-03,3.798399269580841064e-01
2.567624266920590648e-01,-5.698551092107484450e-03,2.518605026907365096e-01,9.354458897782998508e-03,1.426324930228964685e-02,-1.544283709809811563e-02,2.630808055400848389e-01
2.399205117884546101e-01,-1.373121615489667491e-01,2.454852255561604246e-01,-6.367064389567994153e-04,-3.200893759735673038e-03,-4.873988020408772867e-04,3.800885677337646484e-01
2.376028051599293200e-01,-1.372202645415547262e-01,2.452935117614511440e-01,-8.397176364042786920e-04,-3.475067074948428626e-03,2.528878182512629496e-04,3.787778615951538086e-01
2.399827154154234587e-01,-1.334897603901973040e-01,2.531359535905539082e-01,-2.756396969352572536e-03,-2.575273809524686753e-03,7.302548993365221962e-04,3.802779912948608398e-01
2.182124523253521908e-01,-1.146219797299567467e-01,2.013894228683900389e-01,3.297869070128783137e-04,2.711435050024699981e-03,-1.954777562201761264e-03,3.248019814491271973e-01
2.048592040954095861e-01,-1.270738448581392455e-01,2.106079187619284143e-01,-4.566648465457597353e-03,1.291099332220132200e-02,4.960190505841696393e-03,3.357934355735778809e-01
2.276337371325322101e-01,-1.195449595582879637e-01,1.984822206023991731e-01,-5.907153353786893935e-03,6.803102934840481175e-03,6.641965421471274222e-03,3.341226577758789062e-01
2.273899833268065995e-01,-1.390824710671256792e-01,2.349254239613272621e-01,4.843916645756795453e-03,5.214549213375783586e-04,2.558630446152228982e-03,3.704203367233276367e-01
2.190359031739687046e-01,-1.320355442421007053e-01,2.176924962716856315e-01,-5.718064526713213976e-03,6.524470845085782698e-03,7.266694644068021763e-03,3.509494960308074951e-01
2.167885774341164473e-01,-1.291463268791649410e-01,2.020211828782162433e-01,-6.475828534625106651e-03,6.377937977822856729e-03,5.876214981609255081e-03,3.393109440803527832e-01
2.151365557780314242e-01,-1.194839506563514370e-01,2.145613138795408048e-01,-1.335142381512217967e-03,5.368015258477615466e-04,1.006017595115807003e-03,3.343470990657806396e-01
2.067240586761821541e-01,-1.206574963215228252e-01,2.200270581296560612e-01,-2.348509746519547060e-03,1.338610668802061752e-03,5.041714456182047957e-03,3.343785107135772705e-01
2.227326562143228661e-01,-1.306125646204820412e-01,2.144405828911767620e-01,-8.106718148702106788e-03,3.980737057044804461e-03,4.933852506199912571e-03,3.497275412082672119e-01
2.164507278385666145e-01,-1.201495981642434208e-01,2.107202817049533827e-01,-2.571546129529028203e-03,3.273982755109328298e-03,1.448657752317477308e-03,3.338593244552612305e-01
2.167809594926633499e-01,-1.243793685848023495e-01,2.219642094907504082e-01,-8.970992608524383342e-04,2.247813331015072972e-03,2.393845231815784744e-04,3.438070714473724365e-01
2.222586200254424993e-01,-1.290684807292397929e-01,2.215258553210899262e-01,-3.079168048001468434e-03,2.751129665534414416e-04,7.099949716289572291e-04,3.510043025016784668e-01
2.398321048699868785e-01,-1.315496943167418498e-01,1.571650877636870669e-01,-6.730223679603065251e-03,4.948417538563853330e-03,1.240905335752334748e-02,3.387160301208496094e-01
1.509949747811898391e-01,-1.379329717256810306e-01,1.850277683409411733e-01,1.023696285336836344e-03,6.080203710299147274e-02,-5.715494725557134989e-04,3.249082863330841064e-01
1.743287339286058168e-01,-1.974278497534248666e-01,1.515706099051890854e-01,5.240028943638640191e-03,1.005214345044415647e-01,-2.034112745808403563e-03,4.008352160453796387e-01
2.317452808215181292e-01,-1.286060444883822818e-01,1.962458675754629178e-01,6.512726233576772439e-03,-7.944072611700046457e-03,6.380972348166351164e-04,3.444398641586303711e-01
2.565795177522977033e-01,-1.258554720317189290e-01,1.841881571424478503e-01,3.666422454572043979e-03,-3.165852363611622831e-03,1.097679882342597726e-05,3.519693613052368164e-01
2.308529416631842635e-01,-1.284591269156711291e-01,1.839065609980212179e-01,9.145574733152641092e-03,-8.486371261242037917e-03,5.410652382194619005e-03,3.391098976135253906e-01
2.354143185508049130e-01,-1.336411150756715571e-01,2.183818686014741273e-01,6.371047480036528231e-03,-2.931361865267630932e-03,5.213745512578434223e-04,3.610463440418243408e-01
2.537240901614497002e-01,-1.169510494583375776e-01,1.601390837176154824e-01,-1.325377729672275705e-03,-1.020708259924740444e-02,1.930275453132352889e-05,3.343447446823120117e-01
2.455602440392476993e-01,-1.314404963917815139e-01,2.234170341806070437e-01,3.792429510358479592e-05,3.352634933324433425e-04,5.156174929831875160e-06,3.664317429065704346e-01
2.360022361494663046e-01,-1.234973531155420662e-01,1.935269208717818601e-01,8.413878149222701539e-03,-1.886448027420346840e-02,1.207388265728003007e-02,3.427704274654388428e-01
2.395326153278197756e-01,-1.354283944531219919e-01,2.287849306145340877e-01,4.961349943679034535e-03,-1.035550007996225742e-03,4.725751701469682944e-03,3.698991239070892334e-01
2.356585285533463747e-01,-1.263148619800826267e-01,2.296660164396662762e-01,4.824674974084947401e-03,-9.961731018174051384e-04,3.333008321205409210e-03,3.591624200344085693e-01
3.988260306648498399e-01,2.728696043575612462e-02,2.919605524330676216e-01,-8.693551156208324804e-03,-3.423862444964863305e-02,-9.916807453228090180e-03,3.373357653617858887e-01
2.515456096472198921e-01,-1.342531610910225881e-01,2.367098260170244495e-01,-1.685669990107312426e-03,3.599519328546700939e-03,-7.745767465451643564e-04,3.786639273166656494e-01
2.443458517551846676e-01,-1.386339677946936133e-01,2.397281947447053585e-01,-1.893703581176325651e-04,5.352039318194543038e-03,-4.784544490242238464e-04,3.808058798313140869e-01
1.780397222801481660e-01,-1.810053680476871596e-01,1.727517401968910460e-01,-2.971826552437267267e-03,1.535694384445616956e-01,2.370007886616990952e-02,4.466598331928253174e-01
2.064196124399970134e-01,-1.119969134560841600e-01,2.215558006411784409e-01,-3.284039847380024104e-03,1.468644252473338789e-02,2.008023910500067108e-03,3.273061811923980713e-01
1.847494183183471250e-01,-1.325606364277263916e-01,2.338848274384774939e-01,2.552061250957524813e-02,2.200333233725470378e-02,-1.290479889092776070e-02,3.501386344432830811e-01
1.960043376980558083e-01,-1.519326172326860291e-01,1.340240771819066756e-01,-1.326267891681377070e-02,1.173107879865547681e-01,5.336738169906396620e-04,3.809861838817596436e-01
2.071974663912224401e-01,-1.232547684719907666e-01,2.107557174873186390e-01,-8.537266123441104946e-04,5.091777795105677067e-03,1.945679938524214145e-03,3.323830664157867432e-01
2.592719625084551893e-01,-1.221804976630393169e-01,1.880328768053337041e-01,-1.093379595760431448e-03,-5.471877338438327701e-03,9.817597810273127196e-04,3.514298796653747559e-01
2.183970923075249648e-01,-1.308229014058707729e-01,2.254055935919648812e-01,2.771467582618567221e-03,-6.838840089791940703e-04,5.539192694828535060e-03,3.529415428638458252e-01
2.261242156225947708e-01,-1.384418184292990350e-01,2.386878237523848978e-01,5.470279163922472584e-03,-6.511123493797138766e-04,4.913940880034181266e-03,3.712276816368103027e-01
2.106059077065988439e-01,-1.313618749293906096e-01,2.300986377802097804e-01,-6.273476969997436592e-03,-1.272580435781287943e-03,-8.363642836627242436e-03,3.525912463665008545e-01
2.290543648738272986e-01,-1.217253762458460897e-01,2.265854432457964363e-01,-7.707900966431285861e-03,-5.625359653423232104e-03,-4.105817564300733198e-03,3.500145971775054932e-01
2.118219238875169996e-01,-1.298346974791176889e-01,2.334938259093681800e-01,-6.334675333374814414e-03,-2.057969228958053676e-03,-8.214619481351949012e-03,3.534668385982513428e-01
2.127428899286973596e-01,-1.159824168920604720e-01,2.241530540495259571e-01,5.707164085959212652e-03,-1.001014723604609288e-02,4.605027895947574196e-03,3.352659642696380615e-01
1.635294079886725760e-01,-1.231482073017433621e-01,2.236216247583893701e-01,-2.323292362385744156e-04,-1.915898765048450539e-02,-3.934192468354628935e-03,3.227538168430328369e-01
1.819033895652749089e-01,-1.166432941464243811e-01,2.266857717975936937e-01,-2.558568644589196903e-03,-6.811591052882010923e-03,-2.567892350923473878e-03,3.235487937927246094e-01
2.017538222686559579e-01,-1.162517514014194397e-01,2.167958065688969094e-01,-3.913621333950842831e-04,-3.529433448013516699e-03,2.451174635893721226e-04,3.258454501628875732e-01
2.162071476135962178e-01,-1.208695816270712459e-01,2.114289885192953689e-01,-2.538260243429225210e-03,-7.682304756149247425e-03,-2.775855830100875873e-03,3.350409567356109619e-01
2.703271300130443144e-01,-1.067711610858586013e-01,2.195524494329156862e-01,1.216461065449067017e-03,-1.227587295733247874e-01,-1.725297998689433177e-02,4.144161045551300049e-01
2.382821585056915936e-01,-1.190898248189345143e-01,1.783702703602748352e-01,9.052351205048028617e-04,-1.053008609814397659e-02,2.190935865291353084e-03,3.320283889770507812e-01
1.654626217588135439e-01,-1.384108804983493202e-01,2.109016370361020964e-01,-3.425946271193460943e-03,-4.379136431897558829e-02,-3.696152709435718362e-03,3.376992344856262207e-01
2.416860794073019958e-01,-1.317974367988502815e-01,2.141924523621303589e-01,1.725763283478757432e-02,-4.889273110138719902e-02,3.070059079488506731e-02,3.753264844417572021e-01
5.223396009128120077e-02,-1.850043276644142420e-01,2.342278679790794349e-01,4.394594149133235206e-03,-6.746154689233162249e-02,7.058416762217721747e-03,3.826751708984375000e-01
2.106774838817215556e-01,-1.336584586906568450e-01,2.317091171856047183e-01,5.685630980467624301e-03,-1.848551229678230788e-03,8.624502994420132213e-03,3.557834923267364502e-01
2.445146165218232692e-01,-1.265009446520806158e-01,2.422245370298185541e-01,1.065803413535008903e-03,-8.042166022376086992e-03,2.032548776172135585e-03,3.701593875885009766e-01
2.454484748676570849e-01,-1.306914109758132991e-01,2.582930868591679641e-01,-1.974244556913162460e-02,1.601380715493001122e-02,-4.880608879418330513e-03,3.853409588336944580e-01
2.504427438098323355e-01,-1.246983076313876171e-01,2.400924203290966397e-01,-5.830643906708737542e-03,1.714022142862385166e-04,1.920877996640057029e-03,3.702273070812225342e-01
2.391880330987473102e-01,-1.244756365556803357e-01,2.457261267648383485e-01,-1.422827149971322026e-03,-5.553603500658008812e-03,2.414214665712471723e-03,3.671345412731170654e-01
2.572612243970411328e-01,-1.208282776771869849e-01,2.552305846219030672e-01,5.981598288389294513e-03,1.454618530865338204e-02,1.280794947421919593e-02,3.787113428115844727e-01
1.999367330728780701e-01,-7.113017347620456676e-02,3.129845947804654749e-01,-8.068579711009113767e-03,6.718280816045059389e-02,-2.393371928331228336e-03,3.614605069160461426e-01
2.279468012658710796e-01,-1.380772208187629746e-01,2.382127018744656655e-01,-4.595296482759356378e-03,6.516797781509912945e-04,5.236240343748366222e-03,3.714611828327178955e-01
2.200458018117482650e-01,-1.315802610372183434e-01,2.427544073112598566e-01,4.115622504018498365e-04,1.023457467825857449e-03,3.278591521959178107e-03,3.635621070861816406e-01
2.024538095197505050e-01,-1.112905382688308131e-01,2.498164914531768588e-01,-9.412800494323744077e-03,-9.511734075734194077e-03,-6.741238965614167709e-03,3.408989012241363525e-01
1.515962975963089376e-01,-1.320991730899182537e-01,2.558991661023475306e-01,-1.401103951625843301e-02,2.005858473254087948e-03,4.355317326583675944e-03,3.487267792224884033e-01
1.319463939723793389e-01,-1.421253768577684373e-01,2.191638051385824404e-01,1.211114817072049196e-02,3.872663281356366477e-02,-6.048296788358339428e-03,3.341782093048095703e-01
2.495636119795174301e-01,-8.655793082179089049e-02,2.554298608208149801e-01,-1.613797728176999749e-03,1.056255870741521462e-02,1.003118939277903177e-03,3.396018445491790771e-01
2.571099871456925534e-01,-6.712613084920349138e-02,2.442940847344813315e-01,1.112733525395894971e-02,-6.121457840603835091e-03,-7.020969702850911320e-03,3.190135955810546875e-01
2.402536800337922163e-01,-1.328184121926263284e-01,2.391459634478966256e-01,2.559879050327228643e-03,2.447719056360936861e-03,2.172162852910837060e-03,3.725889623165130615e-01
2.577127036774639057e-01,-6.521230904296246300e-02,2.455944556532138334e-01,5.904534248476304981e-03,-5.483953952836674757e-03,1.425268300867105252e-03,3.173563182353973389e-01
2.708331495066758077e-01,-1.641569833206919238e-01,1.545513355155880841e-01,-7.836787342757589245e-03,2.258908411375596222e-05,1.134151025607191277e-02,3.908024728298187256e-01
3.500632980506200864e-01,-3.386781962397197865e-02,1.978820082449055384e-01,-8.176065500981773149e-03,3.964084921380817833e-02,2.971825095758532601e-03,3.421642184257507324e-01
2.398478827007060610e-01,-1.352792496213690576e-01,2.289842741509291457e-01,-3.823503855194199108e-03,1.729053060477569060e-03,4.824735905586859108e-03,3.699808120727539062e-01
2.894554191024185652e-01,-3.681930192887891695e-02,2.781470739436556761e-01,-1.707557123279531547e-02,1.078421456799846939e-01,7.041151203135878611e-03,3.725676834583282471e-01
2.229932317284101795e-01,-1.304952415230467289e-01,2.217997834733294316e-01,4.345482815341863807e-03,-3.508067733224157735e-03,5.597766457957483247e-03,3.531589210033416748e-01
2.388592193685464549e-01,-1.372792618809554610e-01,2.421327143422081773e-01,-3.418834865962673466e-03,-2.160366109273519422e-03,-5.059460310492074325e-04,3.778518140316009521e-01
2.181497964987107463e-01,-1.296470249653927653e-01,1.599229180936312389e-01,-1.158731254088380194e-03,1.626965275829571345e-02,1.143700079688713843e-03,3.238887786865234375e-01
2.498493503769680379e-01,-2.764991839811312135e-01,4.881541691750487799e-02,4.136853492299625429e-02,-4.115717749887580490e-02,-1.609294069025669904e-02,4.718434810638427734e-01
2.406215002059919894e-01,-1.363933905177792116e-01,2.474773618661232910e-01,3.258552370004780567e-04,4.245472847502805916e-03,2.367824860070182752e-03,3.805827200412750244e-01
2.235409790839416599e-01,-1.422863893945010005e-01,2.269673644079043817e-01,6.502105184627810647e-03,-9.503146962287913058e-03,5.846759893807575680e-03,3.682325184345245361e-01
2.475208658956610241e-01,-1.364989392640550969e-01,2.382502041355986921e-01,6.420708849012644708e-04,3.372289155389171685e-03,2.737601635260032609e-03,3.795456290245056152e-01
2.410557994244222624e-01,-1.304674330475392441e-01,2.497594520947948871e-01,-3.184846872857915469e-05,5.945131165156101669e-03,8.925046490348929060e-04,3.760948181152343750e-01
2.093959580314961322e-01,-1.292891511799126869e-01,2.410415476228157383e-01,5.712101999681199610e-03,-2.818980540628760086e-03,6.420152070769690605e-03,3.559105396270751953e-01
2.237110525426318774e-01,-1.296383135410103249e-01,2.433010650131226527e-01,2.502170398855458277e-04,-3.264490900004671150e-03,5.663967912976465915e-03,3.637170195579528809e-01
2.689366662065688640e-01,-1.224167427748323878e-02,2.659688956363745471e-01,-6.439734280690889712e-03,-1.817662675654800261e-02,8.124479710843223249e-03,2.820446789264678955e-01
2.476856901882854844e-01,-1.342531778934917541e-01,2.384625532735006326e-01,-9.255101553202970364e-04,3.044565928277378954e-03,5.026248444811000837e-04,3.774530887603759766e-01
2.535186088038742236e-01,-1.130242455295684401e-01,2.404075218979688233e-01,-4.121608196478970809e-03,-7.119320615954638151e-03,-2.535456601230519098e-04,3.604483306407928467e-01
2.494834661622680472e-01,-1.088573628359435219e-01,2.477442613749731015e-01,1.111598873085615190e-03,-9.123522062334646354e-03,2.218196511111772667e-03,3.578492999076843262e-01
2.205430527604530511e-01,-1.322112240863784483e-01,2.436246410898932346e-01,-1.350397717719234881e-05,-1.338511557436594272e-05,1.643048014367500063e-03,3.648541867733001709e-01
2.278280378128071382e-01,-1.323799565981888804e-01,2.503781877748759710e-01,-8.994058941537607516e-03,2.674938690220110635e-03,5.192103944293029183e-03,3.724595010280609131e-01
2.462555750232299778e-01,-1.353233287867893764e-01,2.380382265563548150e-01,2.988749202771284535e-04,-7.214277914742731274e-04,2.708794362081674584e-03,3.775688707828521729e-01
1.293139530110143098e-01,-1.531585247298400398e-01,2.923190531569227479e-01,-1.387042998341387647e-02,1.406910516654601845e-03,9.169067267631237847e-03,3.914602696895599365e-01
2.205823030173110766e-01,-1.353726190849980915e-01,2.349033248064675006e-01,-8.827269221450327261e-03,-8.293818939180346668e-04,-5.186489961857518620e-04,3.636526763439178467e-01
1.770223465710167865e-01,-9.368079593367086011e-02,2.436168295615722124e-01,-4.134285907920903780e-02,7.534766075850071743e-02,1.880791777132037254e-03,3.433838486671447754e-01
2.321155240771868855e-01,-1.326332528416043210e-01,2.336589284549022427e-01,-9.640631296542080805e-04,-5.841987289435235636e-04,3.003044855177453877e-03,3.655651509761810303e-01
2.337365618456133387e-01,-1.376032782707066193e-01,2.363087270244925153e-01,-3.516279326799979198e-03,-7.704241103530204719e-04,3.534827917247131482e-03,3.727350234985351562e-01
2.215433048312996367e-01,-1.294761181592173627e-01,2.216663242302700232e-01,-1.338883386312216938e-03,1.445442214718482431e-04,2.455344989600983553e-03,3.511144518852233887e-01
2.316742192975071446e-01,-1.338433743687421074e-01,2.310479614907585688e-01,-1.850996524255931895e-04,1.353282538206795243e-04,2.058351027595916802e-03,3.652224838733673096e-01
2.112951401411776453e-01,-1.265972772466942287e-01,2.294418323743080690e-01,-8.009608087776374369e-03,1.077848810243073330e-02,9.667564147869591590e-03,3.485019207000732422e-01
2.380520575036392250e-01,-1.333052702204516049e-01,2.428541150635669943e-01,-2.648851218751044866e-03,-4.245241733222623534e-03,2.356928347883021323e-03,3.739042580127716064e-01
2.421790539547392096e-01,-1.237560571897730055e-01,2.420165540874719412e-01,-3.277145930217506727e-03,-6.027749721928097812e-03,-1.503054218222585597e-03,3.660560846328735352e-01
2.458328684563221289e-01,-1.168728151493519662e-01,2.541607480334511227e-01,-3.969621100752327922e-03,1.419202058968223800e-03,-7.236922327035286671e-03,3.672271370887756348e-01
2.383787111408787740e-01,-1.341448851975611256e-01,2.449383517404507549e-01,-2.426629266177794675e-03,-1.078945376184443829e-03,1.681646766380640555e-03,3.758857846260070801e-01
2.266221301452834569e-01,-1.330111357036267150e-01,2.309093653249803813e-01,4.386930073359471965e-03,1.318763348221026698e-04,2.609596068062382604e-03,3.619040250778198242e-01
2.387876583607235759e-01,-1.354612539680807304e-01,2.489565511855470481e-01,-2.811903437819123983e-03,-7.137144274070473127e-04,1.838076701024571194e-03,3.794821798801422119e-01
2.025182252796220717e-01,-1.363715547739234313e-01,2.320498699898606021e-01,7.144009347760126895e-03,-5.490952515466478862e-03,8.381186868462330367e-03,3.552191853523254395e-01
2.556017027141130882e-01,-1.201070846449481810e-01,2.394939203060091892e-01,-6.793669496994224431e-04,-4.656616468145319959e-03,-9.058007536121335341e-04,3.680130541324615479e-01
2.520884847003080353e-01,-1.316505253888811677e-01,2.386069027865309056e-01,-2.374875598154169674e-03,4.466264568655859551e-03,6.804978291367549817e-04,3.772825598716735840e-01
2.450184644290113178e-01,-1.378444035558826775e-01,2.378778505528937326e-01,1.956422748762984103e-03,1.653415796380590689e-03,2.663444215291264038e-03,3.793969750404357910e-01
2.413930692781232346e-01,-1.393943479092089321e-01,2.393753056159746706e-01,3.295095737146367439e-04,6.271189976091860914e-04,7.834345481574277138e-04,3.797869682312011719e-01
2.508944325368939188e-01,-1.346550031526962954e-01,2.391317497947105242e-01,2.108268071788375607e-05,4.804275493390310590e-03,1.601850910791574037e-03,3.799059987068176270e-01
2.454564902344499033e-01,-1.386063287942485289e-01,2.390653507248693688e-01,-1.614409951914548108e-05,1.222984639787853649e-03,1.368033303605551559e-03,3.809207379817962646e-01
2.434313236716658391e-01,-1.394148681044710403e-01,2.391598393168634651e-01,-5.855177533350013660e-05,1.904192681864517404e-03,1.229981396789587948e-03,3.807486891746520996e-01
2.508707795480814573e-01,-1.352226152532653436e-01,2.389865348216773933e-01,-1.410261786824480029e-03,4.876053974408988377e-03,-3.324916783019527715e-04,3.803926110267639160e-01
2.462585719314918098e-01,-1.380134624570565349e-01,2.406810296542433170e-01,3.754104275630617096e-05,4.794706100833382584e-03,4.571469913900655445e-04,3.816050589084625244e-01
2.362579543430196605e-01,-1.370833266759965974e-01,2.354926840222592022e-01,5.551205027686291222e-04,1.586138142813935982e-03,2.440577979745272089e-03,3.729945421218872070e-01
2.465351979413622496e-01,-1.371196101303604475e-01,2.383690937003944410e-01,1.603695891786303474e-03,3.841722474316858899e-03,2.607896639455838279e-03,3.797329664230346680e-01
2.282913165516798903e-01,-1.376985029926933168e-01,2.386559321600721928e-01,5.557001670588342448e-03,-2.413838569865313973e-03,4.893804222387389616e-03,3.715256154537200928e-01
1.918728162272733406e-01,-1.431046739122135703e-01,2.392277998612512835e-01,1.403735477737616880e-02,-1.442369440447868485e-03,4.177492418449892456e-03,3.618908822536468506e-01
3.530528677752367561e-02,-1.993845343839126816e-01,2.912022531084658139e-01,-2.216822020912959795e-02,-2.719384528700107342e-02,1.987880890894961131e-02,4.306939542293548584e-01
1.694285918542420000e-01,-1.197887814280229890e-01,2.253377487366680643e-01,-4.615228586164183897e-03,6.690071108662888621e-02,1.243567535965538554e-02,3.419025838375091553e-01
3.645850552801079003e-02,-2.296889120152902919e-01,2.982983378271127362e-01,-1.128622066744864108e-02,1.012076137599631984e-02,-9.756859994463077529e-03,4.583203494548797607e-01
1.789563893442933928e-01,-1.191316278636255083e-01,2.457766845812042189e-01,8.282018640206438576e-03,-4.875471341899796814e-03,4.764465253915977500e-03,3.370236456394195557e-01
2.268031985485202129e-01,-5.196715518002151257e-02,2.834937436121097720e-01,1.973844562002936148e-02,-1.371659086014807676e-02,2.234486084716528001e-02,3.161668777465820312e-01
2.039701287924348405e-01,-1.249450795324243413e-01,2.765443330548728040e-01,1.784587944510819535e-02,8.149775046215966545e-03,-3.584164735216010828e-03,3.721776604652404785e-01
2.495322884139405395e-01,-1.286734390945467044e-01,2.324592723429912411e-01,-1.618690234801563712e-03,-7.622677628713155767e-03,1.750896707329215865e-03,3.702233433723449707e-01
2.270657483656754461e-01,-1.278338143621661760e-01,2.508320409120712302e-01,8.246442229036664295e-03,-2.259144880595336923e-03,6.374153686231025370e-04,3.676598072052001953e-01
2.470539008305748796e-01,-1.304921514231835999e-01,2.444561354180059820e-01,8.264973639870044214e-04,5.121418412647089653e-04,-4.253696441498532564e-03,3.763297796249389648e-01
2.487856489426418238e-01,-9.635862487785176733e-02,2.762413032618631359e-01,-2.687486652959298131e-02,-5.425919499214964040e-03,-1.017008700414133958e-02,3.632078468799591064e-01
2.390167223827784349e-01,-1.366063879253293367e-01,2.451501763206527795e-01,2.728895299912457127e-03,2.846412547623551961e-03,1.419752859583589457e-03,3.787966370582580566e-01
2.504413170546316847e-01,-1.145271935982521416e-01,2.817112881365835819e-01,1.571045651022208792e-02,-1.090987895469786896e-02,-5.673461622646965106e-04,3.830024600028991699e-01
2.018097333124970749e-01,-1.400727743044468676e-01,1.958170398202099260e-01,1.544501123576084989e-02,9.939573566546892891e-02,6.477841646938921946e-04,3.810855746269226074e-01
2.469777866535689814e-01,-1.389437128923051989e-01,1.913486343439259330e-01,5.813389370831588063e-03,5.995983641221985967e-03,-9.380896159476515006e-03,3.619872331619262695e-01
2.461302367441524086e-01,-1.242648883125263143e-01,2.079286836442633679e-01,3.254675207414922319e-03,1.195271249358248605e-01,1.745009897490853610e-03,4.091495573520660400e-01
2.146563502331866324e-01,-1.430283325680146989e-01,1.756043309436158828e-01,5.118993819525997045e-03,1.394197982434557392e-01,2.639259114117392668e-02,4.194961786270141602e-01
2.383336839545270869e-01,-1.402360927529510692e-01,2.363534685064582197e-01,-9.811600243560033435e-04,8.383203413899818594e-04,-1.189778968560743170e-03,3.775958120822906494e-01
2.059662063474722582e-01,-1.297734008782219783e-01,2.235929891568680106e-01,6.483748336811624713e-03,6.962365691892287434e-02,-2.198730748996638451e-02,3.675168156623840332e-01
2.246063267455732926e-01,-1.291510629976340141e-01,2.149721001670270859e-01,8.593953338940635636e-03,9.600435873060067862e-03,-5.232144062399756573e-03,3.498701751232147217e-01
2.386094626507762884e-01,-1.340684323983455384e-01,2.197722217048944660e-01,6.873769377559985072e-03,2.057339698442902759e-05,1.513618500437589800e-03,3.638297021389007568e-01
3.467567675619661616e-01,-4.683226947610805158e-02,1.859832069009710598e-01,2.606508096062261706e-02,1.932306573433261593e-02,-8.503089343478525269e-03,3.476448953151702881e-01
2.459240186819866558e-01,-1.320721369533233436e-01,2.194366840276374409e-01,1.438915321669972372e-03,2.710032809753123734e-03,2.237030985036418847e-03,3.655322492122650146e-01
2.446583689483178836e-01,-8.215830810258120676e-02,2.517166012247805673e-01,1.308934147467184610e-03,-9.339641615698385593e-03,5.358889207195552742e-04,3.308071792125701904e-01
2.456784299499246704e-01,-1.394615075205045129e-01,1.974090218281234765e-01,-5.698619360350773780e-03,-4.457467233667519041e-03,-1.164504564405038217e-02,3.641923666000366211e-01
2.455899556920372040e-01,-1.391668971670665389e-01,1.918028244302572849e-01,5.655256649328910951e-03,4.752660025260717043e-04,-1.158310293932717644e-02,3.615730106830596924e-01
2.385206675904963103e-01,-1.182314755160732561e-01,2.534327467254174904e-01,1.679968458598906462e-03,-1.021832978561641389e-02,3.429983078280373233e-03,3.649265468120574951e-01
2.163495267319341386e-01,-1.299008763789588627e-01,2.300137531860509399e-01,6.317212932721871961e-03,-9.042563996262480489e-03,5.540637513211635681e-03,3.539271354675292969e-01
2.760837459411166206e-01,-1.312169918407711799e-01,2.073295639668171209e-01,-4.521606011162657666e-03,-3.942037232088876214e-02,-2.621746019129040511e-02,3.865264654159545898e-01
2.288067668762354123e-01,-1.382581546678979256e-01,2.037177195106680272e-01,-6.916411254440304676e-03,1.416621003946216817e-02,1.166023360359415376e-04,3.562336266040802002e-01
2.450394566944719132e-01,-1.269305798884385328e-01,2.411490567617500247e-01,6.782225563520279501e-04,-2.773172559601494881e-03,2.199905711717879773e-03,3.700928390026092529e-01
2.437484011495675840e-01,-1.340728716081875938e-01,2.180827599792218852e-01,4.724135859866021234e-03,9.063849363529261722e-04,-8.798571420680664605e-04,3.657627105712890625e-01
2.398628019051950999e-01,-1.239041093926828291e-01,2.558469141073793085e-01,-5.005934211153601287e-06,-5.933619258421315816e-03,2.100320653157990505e-03,3.721763193607330322e-01
2.359685431117813925e-01,-1.344872035889368989e-01,2.382024742299276854e-01,-3.676974644237807153e-03,-1.203184982513740659e-03,7.443325250696597797e-03,3.718617260456085205e-01
2.581356432420153224e-01,-1.307341747389621223e-01,1.065425476033009800e-01,-3.517869743707920408e-04,4.042216184476869062e-02,1.752262984446222027e-02,3.479562699794769287e-01
2.435331847460167620e-01,-1.384811886673018022e-01,1.897274505288092938e-01,-9.375270073532386344e-04,7.168863715249530755e-04,1.358662225397393349e-02,3.589337468147277832e-01
2.350858160293710364e-01,-1.391547807314446328e-01,2.212993425486774468e-01,1.905844821186981203e-02,3.583170200849611353e-02,-7.347106693420396573e-03,3.744195103645324707e-01
2.510286323198160918e-01,-1.314808513843764570e-01,1.143989422941480150e-01,-3.069532243917385671e-03,5.489183644607508600e-02,-3.474549962502008170e-03,3.490312993526458740e-01
2.344255435776710361e-01,-1.251598669094965421e-01,1.968847424155299453e-01,5.597424817493130630e-03,7.470063617682423315e-03,2.305543209228677907e-04,3.427439332008361816e-01
2.034112973856013751e-01,-1.179961456942654890e-01,2.200241372082405999e-01,4.728013083812513908e-05,2.956380516186487856e-03,2.014519446744319695e-03,3.300857841968536377e-01
2.103170843780685084e-01,-1.259855911021224018e-01,2.238924747985533981e-01,6.569204265238686412e-03,1.066194946544051468e-02,-9.184055341878480383e-03,3.443439602851867676e-01
2.144435145044691626e-01,-1.221222234872952200e-01,2.126424384142983626e-01,3.136965420631385431e-03,1.014875338496930724e-03,-1.275341208554820697e-03,3.357246518135070801e-01
2.116026363364337248e-01,-1.173467596488116937e-01,2.106883808155103899e-01,6.879564024636947335e-04,7.555155837015249459e-04,-1.503387598735067036e-05,3.284980058670043945e-01
2.098232747144855859e-01,-1.191748206081579553e-01,2.116300816155791686e-01,5.460120318919229297e-04,7.119542717693440022e-04,-6.394919902945297085e-04,3.299107253551483154e-01
2.129150997283004720e-01,-1.226207536671386489e-01,1.827354808360141247e-01,3.278935697558209728e-03,1.173705580188569297e-02,-6.078219341191789605e-04,3.222039937973022461e-01
2.115837928074635055e-01,-1.193582040525981852e-01,2.062065787334422806e-01,2.507324157968584405e-03,5.545742282058448852e-03,-4.422984280567731729e-04,3.284565210342407227e-01
2.283709226065912534e-01,-1.287113745297935874e-01,2.163297578704452551e-01,-6.534933078330848466e-03,9.205731015330411403e-04,2.401479664285702600e-03,3.514271378517150879e-01
2.295959073825660779e-01,-1.289357979406795807e-01,1.801674594363404658e-01,7.751377407293128310e-03,1.117093309650395161e-02,-6.137729216491706261e-03,3.375412821769714355e-01
2.423533786785176947e-01,-1.366184253541742888e-01,2.406575705029899148e-01,1.455361675746040355e-03,-3.515902535435410422e-03,-4.737412292897709432e-03,3.782731890678405762e-01
2.413594818165324396e-01,-1.315482363760757667e-01,2.437599094295404001e-01,6.791682203238489680e-03,4.681674139362144473e-03,6.223653875673411384e-03,3.745415806770324707e-01
2.257294488605879890e-01,-1.376341704158908219e-01,2.242237998326483961e-01,3.190682157681698234e-03,-2.002587616957015541e-03,4.739490952104864416e-03,3.627647161483764648e-01
2.535778386578877441e-01,-7.330041693420227822e-02,2.514659563185379643e-01,-1.435553066963030176e-03,6.609364355825743387e-03,-6.474090904689022534e-03,3.262307345867156982e-01
2.378229546708781617e-01,-1.397183932418735175e-01,2.390506469425234259e-01,1.504288349179595721e-03,4.529439532196912529e-04,2.822963304393552846e-03,3.781980872154235840e-01
2.395508799281771406e-01,-1.343715979001790795e-01,2.508568356078654249e-01,3.168216003290087127e-03,4.001637692697658510e-03,-3.225404409210300594e-04,3.798050284385681152e-01
2.473988324783236992e-01,-8.896795209854413411e-02,2.390150541431302067e-01,-1.772287310092877585e-03,7.011864502966345253e-03,-1.328043901816773056e-03,3.324982523918151855e-01
2.397997374104725576e-01,-1.404356105723436055e-01,2.406972271927612650e-01,1.123231523467217198e-03,3.382459440487881833e-03,6.180761382617980162e-04,3.807364404201507568e-01
2.343484964778766444e-01,-1.357905028140964920e-01,2.530064695129333741e-01,5.967673215990401507e-04,-1.299943119294010886e-03,-1.335195234451256978e-03,3.798269629478454590e-01
2.432196578956911104e-01,-1.197074958097482517e-01,2.505115686929422214e-01,1.964719538172373173e-03,3.073905728042529949e-03,3.688476803084885045e-03,3.667376041412353516e-01
2.039529885584841773e-01,-1.803479210850870151e-01,1.546754729062230493e-01,2.718635575515165534e-02,9.015602557466480260e-02,-1.417489457824356106e-02,3.979729413986206055e-01
2.708566184926451403e-01,-1.616638091913034647e-01,2.027548843815139556e-01,6.002470411126243494e-03,1.764713810490071977e-02,3.441188397036937241e-02,4.084742963314056396e-01
2.290490602734661651e-01,-5.205408708238484783e-02,2.157104824726173153e-01,7.289342863288899438e-03,7.367286689615741568e-02,2.623091245398600710e-02,3.065192401409149170e-01
2.382203427637375193e-01,-1.343201045524261006e-01,2.405715556518194520e-01,-3.420356537148642236e-03,-2.785601407953041970e-03,3.924271479347264148e-03,3.738614916801452637e-01
2.246978290380306498e-01,-1.317599731750670466e-01,1.493752822438630945e-01,-3.919825948637907856e-03,8.741425277440965924e-02,2.052501900959052827e-02,3.607215285301208496e-01
3.113421261968648546e-01,-1.050780036696524755e-01,1.935525060218548643e-01,-2.370538790336653573e-02,1.175299443611160233e-01,1.012380277260535415e-02,4.262198209762573242e-01
2.506808271184984283e-01,-2.935001904325490463e-02,2.506799893699306891e-01,1.245077981629147922e-02,-4.185412415229502157e-03,-1.719300322610586851e-02,2.825269103050231934e-01
2.423565534733956306e-01,-1.183123400174716094e-01,2.399758336786578794e-01,1.479580085870704515e-03,-5.452473987406637572e-03,6.481447208249538914e-04,3.596193492412567139e-01
2.484854184777113839e-01,-1.136306151102970119e-01,2.457941946013482704e-01,6.463055262726238002e-04,-8.592705570162385148e-03,-3.919962908149138281e-03,3.611503541469573975e-01
2.554430023724429399e-01,-1.252079950392178676e-01,2.385893705274024224e-01,-9.318207923817346415e-04,-4.405469201728599501e-03,-1.171293786930939284e-04,3.725919425487518311e-01
2.401154301100057453e-01,-1.390175452806973744e-01,2.376935396385008170e-01,-4.237676339315095235e-03,-1.457148580502602925e-03,5.220378912895265802e-03,3.781156837940216064e-01
1.960537107511801658e-01,-1.240350791731122809e-01,2.479512257274649190e-01,-1.688277988782891856e-02,1.054894463529069439e-02,1.201609052217739344e-02,3.512606918811798096e-01
2.450340769690205200e-01,-1.368579563100123520e-01,2.378061512703265046e-01,-3.651437382854258278e-03,-2.606802978418742370e-03,4.240191647639060361e-03,3.784809112548828125e-01
2.194437135948399398e-01,-1.319002603444437427e-01,2.438748784519360890e-01,-6.279577849406541359e-03,8.361049097857256541e-04,-1.041484353451021562e-03,3.643444180488586426e-01
2.583785756397153910e-01,-8.294364086916422574e-02,2.506544632575382625e-01,1.231721851413577346e-02,-9.648526916774640945e-04,-4.522450673879083410e-04,3.382050395011901855e-01
1.940402713997255169e-01,-1.214080478467796376e-01,2.282161489413326860e-01,-4.194917656585108595e-03,3.265572275671322147e-03,7.711633720115464510e-03,3.342447280883789062e-01
2.279051162202737624e-01,-1.379914287417425833e-01,2.400009079491033925e-01,-5.525684944248001294e-03,1.703525758106436843e-04,1.708518911311859975e-03,3.722268640995025635e-01
1.970779595594569500e-01,-1.322232563589583743e-01,2.441881553181047548e-01,-1.097428167638891949e-02,-1.675736507081617679e-04,3.953965744894845716e-03,3.557813763618469238e-01
2.528146169763134110e-01,-6.231707744410275307e-02,2.679000240942711608e-01,3.833525286198860571e-03,1.783156296214946385e-03,-1.470001783826755358e-02,3.240236639976501465e-01
2.644319305116085150e-01,-3.067978577301561094e-02,2.665386259391329116e-01,2.310301387836998649e-02,-1.523620470089081863e-03,1.450364149525612222e-05,2.988733649253845215e-01
2.553541114308842119e-01,-2.060747770494025799e-02,2.509452462343945145e-01,1.399574809290997542e-02,-5.019722631465463152e-03,-1.019905621832991466e-02,2.755591869354248047e-01
3.900640213867587747e-01,6.084166589412548509e-02,3.543742413449387230e-01,1.209811125786244140e-03,-3.974789675245957860e-02,2.051180947506973939e-02,3.223624229431152344e-01
2.688186746185283749e-01,-3.380090925822476500e-03,3.901993199463298367e-01,-6.532554431479946702e-03,-1.680943668932328300e-02,-1.077031824338082339e-02,3.509826064109802246e-01
2.468477836393689062e-01,-9.265428870424616270e-02,2.434225010507651277e-01,-4.476424296878772115e-03,-1.083029272287544705e-02,6.193090005809595046e-04,3.384134173393249512e-01
2.569548649267601181e-01,-1.709488483357282651e-02,2.525802477652492883e-01,-3.039460785167786595e-03,3.171423028396386928e-02,-1.096234616694663835e-02,2.780812084674835205e-01
2.499254776723529026e-01,-1.690477413790442140e-02,2.558425856169728174e-01,-1.142043080562500992e-02,6.099873686028986670e-03,-2.782211326998958439e-03,2.708106040954589844e-01
2.543204814411654802e-01,-9.587632322951886166e-02,2.401125377308966913e-01,1.580405896284907841e-03,-6.786039825460294522e-03,2.379856862066283447e-03,3.435501754283905029e-01
2.503138642615371778e-01,-1.344831483070016986e-01,2.359738397187368386e-01,4.855941403272628844e-04,-5.015750121252659198e-03,-4.313865875250770169e-05,3.779319524765014648e-01
2.377037090081631221e-01,-6.759530275829597756e-02,2.550238959175120668e-01,4.655325006661551607e-03,1.038538965048385262e-03,6.450543988973083537e-03,3.146242201328277588e-01
2.513431622597067649e-01,-1.091047143584461532e-03,2.536712064816956103e-01,-1.592851752833276350e-03,2.932300042962486530e-03,1.090901102651970107e-02,2.543748319149017334e-01
2.995541097864939939e-01,5.008094304726257162e-02,2.964671078442173702e-01,-3.524550587184977716e-03,3.514353559861064635e-03,-2.019721075164554111e-02,2.505481243133544922e-01
2.691729154362211829e-01,-2.326799154766051592e-03,2.628939961196462005e-01,-1.115094779853523406e-02,1.449075900885690195e-02,-3.990072563787174604e-04,2.702780961990356445e-01
2.042267899815222720e-01,-1.318833817450850154e-01,2.414200654489584430e-01,-9.274908564877459155e-03,-1.705340233097866380e-03,-8.425828011746332863e-03,3.568391799926757812e-01
2.443492509905287047e-01,-5.682582968829422154e-02,2.447410842347731152e-01,1.537690089050082606e-03,-8.841495649866099732e-03,-2.938853931571764125e-03,3.018147051334381104e-01
3.330998005696463871e-01,5.654319990111167371e-02,3.922892501448459468e-01,-2.754545723693916856e-02,-1.389599406322717485e-04,4.512097183780471032e-02,3.236359059810638428e-01
2.520227458439056600e-01,-3.857063710622579689e-02,2.475196646436318981e-01,-3.641354407501387613e-02,2.406757124877893089e-02,1.996435433179097330e-02,3.001125454902648926e-01
2.455924520769596220e-01,-2.150822270013735826e-02,2.425439449214967513e-01,6.513728189147791059e-03,-5.814391740126747567e-03,-3.383091852846909810e-03,2.660842835903167725e-01
2.659189243522812607e-01,-4.370247195565096776e-02,2.644219531586856631e-01,1.171836982795148099e-02,-5.032320415543975814e-03,-2.679726491761313598e-02,3.131235539913177490e-01
2.858833454662208506e-01,3.851387461899150044e-02,2.592597655768690834e-01,-4.108416663761965681e-03,4.092981436469083842e-03,8.069092357661797679e-03,2.358194887638092041e-01
2.350895657268325667e-01,-2.285932506156998500e-02,2.454987771015773590e-01,4.959966806343203694e-03,-1.373667154893439294e-03,-8.499031956429418944e-04,2.634628117084503174e-01
4.102743733209599508e-01,1.112976123713090848e-01,4.588291174767362146e-01,-3.897073295624269018e-02,3.806898193759148535e-02,1.708843178945106123e-02,3.406484127044677734e-01
2.658757860785235239e-01,-2.804314049644573981e-02,2.609028409350567790e-01,1.300738182717086537e-03,-4.256224372336428474e-03,-7.477612423259206997e-03,2.918537259101867676e-01
2.424591860533799326e-01,-2.936938380555872974e-02,2.374433949296347601e-01,1.468146659806931348e-02,1.620577499082599682e-03,-6.921463027530363283e-04,2.705706059932708740e-01
1.304799990827116840e-01,-1.730568335829681115e-01,3.146206121838597269e-01,-4.510921207117700796e-03,6.575354922433956917e-02,4.366298128252655252e-03,4.416159689426422119e-01
2.218734570729847533e-01,-1.322894843981984314e-01,2.242805351397086644e-01,7.524885941500509320e-04,8.536619756545109827e-04,8.205695554091975256e-04,3.553808927536010742e-01
2.308411170784238908e-01,-1.302349796090922496e-01,2.263034303232636102e-01,3.349832566158470002e-03,8.478525894559925478e-04,8.172251183966615980e-04,3.588814735412597656e-01
2.230139660076395636e-01,-1.328540651671437645e-01,2.306331992743727299e-01,9.205664277580534200e-04,-1.091957173627231253e-03,5.978192676737895984e-03,3.598956465721130371e-01
2.379023777296165598e-01,-1.372953547552625275e-01,2.352775488894658096e-01,2.372881589767847701e-03,1.027320707538081478e-03,6.834689856864516319e-04,3.739209175109863281e-01
2.300944441786368366e-01,-1.391554944110726943e-01,2.335111915026006346e-01,1.152743140897813184e-04,1.954289102540999676e-03,5.190073753971691196e-04,3.709867000579833984e-01
2.278093943749062156e-01,-1.278080492586758932e-01,2.320794142891922651e-01,6.636688915697594102e-03,-4.627430294037885271e-03,8.079504180406314393e-03,3.583192825317382812e-01
2.473134311519553652e-01,-1.076673211086627280e-01,2.433082158975079790e-01,-1.235338945946160179e-02,8.561846564280875191e-03,-1.511417309369332378e-02,3.549206256866455078e-01
1.731506348476268831e-01,-1.395740058544720497e-01,1.751116038823503640e-01,8.176370591358164339e-03,-6.238367753903269197e-02,6.300196665622370684e-03,3.322778940200805664e-01
1.640376206590259400e-01,-1.224886088452794147e-01,2.224087726081783734e-01,7.626219159483501545e-04,6.858806912827325464e-02,-6.649737311475089827e-04,3.410943746566772461e-01
9.169032507900473639e-02,-1.145093409610358492e-01,3.586497566813517945e-01,-2.707022101768894427e-03,3.522292133200964626e-02,-7.146845443950811637e-03,4.156076908111572266e-01
2.361808768456394036e-01,-1.406483741536856125e-01,2.389892485288948876e-01,-6.085114212360428479e-04,-2.638985594544558493e-03,1.692838059923973664e-03,3.782817125320434570e-01
1.912044294873230244e-01,-1.278388087025595365e-01,2.346035093980023967e-01,-3.925980102696017356e-05,3.945330312193481501e-03,6.754464412212921737e-03,3.430770039558410645e-01
2.151571829963399851e-01,-1.292898481997162841e-01,2.319112764790966508e-01,-3.845750083660932125e-03,1.808765977235677084e-03,7.499527319550538564e-03,3.534377813339233398e-01
2.146466853491760252e-01,-1.246547742257215624e-01,2.185427924271184930e-01,-9.303030007300742586e-04,3.988337509588528278e-03,3.664266518395061477e-03,3.413988947868347168e-01
2.213832079578338941e-01,-1.287284739370651854e-01,2.261779202308921155e-01,-4.915744396082793836e-03,5.453510157876374255e-03,4.493643212826555280e-03,3.528486192226409912e-01
2.014295391144855230e-01,-1.299305819480530422e-01,2.155880397258970460e-01,-7.461620586723827046e-03,6.807863232506117246e-02,2.132790724623277734e-02,3.607316613197326660e-01
1.155757048079565363e-01,-1.306337579308383401e-01,2.718711316381579035e-01,1.992871423927677910e-02,4.836167245297299383e-02,-4.408600626989814600e-03,3.630359470844268799e-01
2.177258198020122215e-01,-1.311939213784611424e-01,1.954515443228180827e-01,-7.529099377601054625e-03,4.457131224303778269e-03,4.715670495956347102e-03,3.387706577777862549e-01
2.322440348645232744e-01,-1.312664152588216004e-01,2.115865205292253026e-01,-8.079394806984378785e-03,2.311098773911195690e-03,5.436383620687025575e-03,3.540591299533843994e-01
2.310264548361546932e-01,-1.321111864837525851e-01,2.230356959431366026e-01,-5.609459070115955376e-03,1.763779287559447649e-03,7.247587646609743393e-04,3.593554794788360596e-01
2.179537918190413148e-01,-1.306291529894479941e-01,2.185615391210806169e-01,-6.394291404961685577e-03,1.526297901154523295e-02,9.197476384092830026e-03,3.504248857498168945e-01
3.237365908391078295e-01,-2.639966376617288168e-01,6.233285388811750372e-02,-2.774771277115417080e-03,-1.233914060134236497e-02,-5.207112988487782798e-03,5.105759501457214355e-01
2.501734290972292274e-01,-1.196422396690771522e-01,1.411981282606845634e-01,1.895677466093024979e-03,-2.641876445946417414e-03,-6.304229602353307593e-04,3.291980922222137451e-01
2.473339397548312002e-01,-1.254958040481512493e-01,1.942433058379947064e-01,3.828299458456542979e-03,-2.452759757149962621e-03,-5.391111172689919302e-04,3.494134545326232910e-01
2.538342579325316706e-01,-1.202488266196343886e-01,1.607197507394323432e-01,-5.135138575587368595e-04,-3.094491159385059833e-03,5.452643775216189925e-03,3.374827504158020020e-01
2.287173388160591569e-01,-1.373203004135774008e-01,2.661063677225428137e-01,-1.498317027995458260e-02,3.054649283148333852e-02,1.096964208064879660e-02,3.910256326198577881e-01
2.208679028822865265e-01,-1.332208792423752730e-01,2.431861472995834605e-01,1.483259149271912332e-03,-1.453955589822291967e-03,4.153785144376680215e-04,3.657773435115814209e-01
1.904437576453985037e-01,-3.024541239467942177e-01,7.582422206272573795e-02,-1.036996254648225868e-02,1.115515540766576358e-01,-4.586883652847185966e-02,4.935138821601867676e-01
2.274940812407945101e-01,-1.255734888219807721e-01,1.820229040148086397e-01,7.810481485659069578e-03,3.971726775854029536e-03,-1.308632272634685859e-02,3.337874114513397217e-01
2.372659798353247695e-01,-1.352205230862159047e-01,2.368900618520354273e-01,-4.989645239619661804e-03,-1.398798140496869489e-03,3.532070858448047024e-03,3.724571168422698975e-01
1.980106623500147434e-01,-9.652310022045705595e-02,2.099389060841824750e-01,-1.691027066473284324e-02,6.773364768453483953e-02,2.626880681305704054e-02,3.272571563720703125e-01
1.472494538507417572e-01,-1.417076467585804134e-01,2.428147876407455164e-01,-3.692049856763285343e-02,6.750136672418467765e-02,5.243015552717360771e-03,3.715970516204833984e-01
2.596558464802439237e-01,-2.285934247689827559e-02,2.585050873678969019e-01,5.078037878480899658e-03,2.394540884660852076e-03,-3.527041296091171403e-03,2.821753621101379395e-01
2.411658422908207200e-01,-1.177896587610225698e-01,2.400604582913091201e-01,-2.291343068251298215e-03,-9.214549170822549512e-03,-1.018373300662511966e-03,3.587855696678161621e-01
2.391708690060000697e-01,-1.332096475408254821e-01,2.472954368146036974e-01,-8.565895204596377837e-04,-7.683345974623671977e-04,4.024773735650875981e-04,3.765144646167755127e-01
2.454834213891008421e-01,-5.450564056223883291e-02,2.451638416700447631e-01,-1.881696712798296058e-03,-7.244587730185526875e-03,-6.075036391353677567e-03,3.002939522266387939e-01
2.489171026440098189e-01,-1.040182992406545881e-01,2.526267460960281985e-01,-6.822574502950024163e-03,-6.632833394704140337e-03,2.381428721238729000e-03,3.552112877368927002e-01
2.386426646088427306e-01,-1.229540985030018047e-01,2.559105459272095762e-01,2.020316420733856040e-03,-9.089211028563921662e-04,-3.951596373478622197e-04,3.705531060695648193e-01
2.369842564512256444e-01,-7.243534576178922713e-02,2.563445117850642330e-01,5.255213169919543612e-03,-3.418997913051205397e-03,-1.421895671773356663e-02,3.206714987754821777e-01
2.253771535890942146e-01,-1.390914563874555698e-01,2.348560284913865370e-01,-3.579702594786706143e-03,2.603169362025924225e-03,4.910498145284599575e-03,3.694767653942108154e-01
2.353399470165329910e-01,-1.371536360052404979e-01,2.312037020642423446e-01,-4.798310384343093885e-03,-1.321729106000264992e-03,2.429311767852972148e-03,3.705669641494750977e-01
2.717490698498816748e-01,-1.272936590848952609e-01,2.288120927576578478e-01,1.082327902619623777e-02,2.964142180311113081e-02,-9.220662167970961054e-03,3.836500048637390137e-01
2.424428740735898313e-01,-1.062351535874452857e-01,2.527632650572412265e-01,-2.663370930712455429e-03,-7.819570887010223598e-03,3.853774687551887301e-03,3.543030321598052979e-01
2.407917069161455981e-01,-1.232775980579119829e-01,2.359887552243739584e-01,-5.743461890443330234e-04,-3.353546634636727936e-03,-5.095208428990445106e-03,3.618474006652832031e-01
1.887695946457056684e-01,-1.348432088514084637e-01,2.171998887346224816e-01,1.683940210581134217e-02,3.874455933027014243e-02,-9.965222509039559778e-03,3.469668030738830566e-01
2.372986445735627004e-01,-1.374946749372677191e-01,2.436613255199346073e-01,2.510332988662589832e-03,-1.116314378535178658e-03,5.352958284520586670e-04,3.780459165573120117e-01
2.356974130185882088e-01,-1.396440124660555948e-01,2.375348427122251083e-01,1.933119197025298490e-03,-5.284747004263946413e-04,-1.196772685138414562e-03,3.762852251529693604e-01
1.928091739519457171e-01,-1.415147655877153077e-01,2.364710051330990992e-01,-1.374195413727097130e-02,2.172486780094903119e-03,5.860109988887206344e-04,3.589676320552825928e-01
2.450330616685222063e-01,-1.118195984500064133e-01,2.488657356395904685e-01,2.719181797897905067e-03,8.656979630124265676e-03,-1.800399874376709978e-03,3.591419458389282227e-01
2.425754053439928559e-01,-9.194058547413708204e-02,2.523904260696799851e-01,-2.623991986427075002e-04,1.084795582392698680e-02,9.691161353743038553e-03,3.404637575149536133e-01
2.362692680119746758e-01,-1.309149380395103202e-01,2.518489824963137114e-01,2.265703078847699733e-04,3.784672318908044713e-03,2.258983272882659609e-03,3.752945959568023682e-01
2.524851452874723456e-01,6.609393140707131575e-04,2.503260049759673533e-01,-5.718277422633253823e-03,-2.842595814205370179e-04,8.219347485127533742e-03,2.513511180877685547e-01
2.567006046936814445e-01,-1.022820343439674595e-01,2.358269252554884565e-01,6.216745760118457843e-03,3.261137519799135048e-03,-7.719192235388278901e-04,3.492285609245300293e-01
2.678019184919171458e-01,-2.092182007253087783e-02,2.680416747946474110e-01,1.374161876574565150e-02,-4.007310115864813442e-03,2.101283443474419657e-02,2.921814024448394775e-01
2.418105851213472879e-01,-1.262929436032445563e-01,2.438622535720016693e-01,-4.157081210679017605e-03,6.948431711768445970e-03,-3.213697445788724245e-03,3.694418966770172119e-01
2.532881942274536335e-01,-9.468358435970783415e-02,2.527181665959842283e-01,6.689281348813418300e-03,1.117696333180218798e-02,6.972502932938790671e-03,3.486275672912597656e-01
2.234420601202058987e-01,-1.260025442966197784e-01,2.385071947091194633e-01,-2.669597727535753112e-03,-4.371734116065020825e-03,-7.163366700926523424e-03,3.575410246849060059e-01
2.424325400482835180e-01,-1.235502379558820057e-01,1.941012620985913539e-01,-4.070756106661056750e-03,-2.051092591417551930e-02,-2.160124280416737125e-02,3.482851386070251465e-01
2.286913014410083822e-01,-1.220534112486139633e-01,1.589501295083155796e-01,9.735123372316877022e-03,-1.673613018683928894e-02,6.974448155208244106e-03,3.235658705234527588e-01
2.547222334213157802e-01,-1.230090848928291208e-01,1.847006677596956248e-01,-2.489226585828754494e-05,8.952393751976176427e-05,-1.983607306211257384e-04,3.480442166328430176e-01
2.393923779251068140e-01,-1.294113500087977209e-01,1.727825000362629426e-01,8.952336478924113883e-03,-5.045483326479784959e-03,1.093281430855051056e-02,3.414124846458435059e-01
2.747344668418240099e-01,-1.307041537648445384e-01,1.715300170399480240e-01,-1.481106165445523169e-02,-4.596708666611575705e-02,-1.879322753227745044e-02,3.758259415626525879e-01
2.905103658167988989e-01,4.672634050070528788e-02,2.672911121577069005e-01,-1.694102924586660770e-03,-1.264325780979775292e-02,-2.496726382200554518e-03,2.341285347938537598e-01
2.364905578983170775e-01,3.623039257628773990e-03,2.410565519562514747e-01,-1.633023913007717329e-03,-3.736091220300363867e-03,-2.650736509435537049e-03,2.353345602750778198e-01
1.464644596146121303e-01,-1.186520729476337882e-01,2.493942973853891520e-01,2.146124996608555352e-03,-8.928819950892620885e-03,-1.611669682443208100e-03,3.292878866195678711e-01
2.265090142737374856e-01,-1.305675527820727988e-01,2.232388336878280977e-01,-8.447699515574981499e-03,-7.066139323780844944e-03,-7.283156992573024471e-03,3.561877012252807617e-01
1.834155036343956824e-01,-1.182785637340157542e-01,2.337867659767589590e-01,-4.923624110413346577e-03,-2.101810313368805347e-02,-5.666854165903937104e-03,3.320356011390686035e-01
1.669556572088595758e-01,-1.150426451162679942e-01,2.537916378198152301e-01,-6.579598836280164779e-03,-5.641311644876349785e-03,-1.569154590303212899e-03,3.343409299850463867e-01
1.739264005756414044e-01,-1.180171669408774798e-01,2.437584424911616865e-01,-6.969710657104246504e-03,-3.142426472272557680e-03,-5.151020465253350680e-03,3.327905237674713135e-01
2.073211728468883630e-01,-1.721785716283363854e-01,1.705308758224526877e-01,3.220585730062979889e-03,-1.212153904900635654e-01,-5.937483750138517619e-03,4.190800189971923828e-01
2.312187815508754407e-01,-1.375820077811390763e-01,2.376748052597013050e-01,-4.285307355362203557e-03,1.677501162430010059e-03,-5.720292085097007651e-03,3.722880482673645020e-01
2.242609946656530240e-01,-1.228849625376586957e-01,2.435373241352765117e-01,-2.047558319337692764e-02,1.782999859539183621e-02,1.437959782021201900e-02,3.611168563365936279e-01
2.535689861635894715e-01,-9.808842731931499692e-02,2.454529302755180387e-01,8.919263298815750113e-03,-2.719543810511225890e-03,-1.587145821101623418e-03,3.480562269687652588e-01
2.373571049745970551e-01,-1.376314564960385567e-01,2.380746007538884490e-01,-4.238114174821191668e-03,-3.376514269461737376e-03,3.532403318211067671e-03,3.755149841308593750e-01
2.617948447277036461e-01,-2.644045882992653307e-01,3.312742365126536415e-02,-3.676329561233574600e-02,5.782367204368635272e-02,1.284889541110018074e-02,4.726844727993011475e-01
3.224433354269927166e-01,-1.591836713738548070e-01,8.270843538434925757e-02,8.397449550376245853e-03,8.730950944186682827e-02,-1.795416733614717264e-02,4.449966847896575928e-01
1.962034188185833861e-01,-1.549895960375172743e-01,2.386988127804859916e-01,-4.746297796116412393e-03,7.172346018478717444e-02,-1.148859057970437469e-02,3.949212431907653809e-01
2.589306563359404234e-01,-1.187028020871291195e-01,1.421119621199065652e-01,-4.149994120657133322e-03,1.045943683370998724e-02,7.082749156004658139e-03,3.356625437736511230e-01
2.149602834841350951e-01,-1.194245552256382181e-01,1.953764859329696346e-01,4.576852397596237361e-03,7.493428634033762886e-03,-3.096813783333178180e-03,3.254355490207672119e-01
2.504381812651058636e-01,-1.461642309361710357e-01,1.509940468800917146e-01,9.565176021127318531e-03,7.247088204535863387e-02,1.268300716068855929e-02,3.798104226589202881e-01
1.904724556449858830e-01,-1.188917820365651135e-01,2.510077414729503520e-01,1.163054719059310529e-02,-1.524779940693919353e-02,5.564648055136631535e-03,3.453902006149291992e-01
2.044052975842645115e-01,-1.624224221977362825e-01,1.592261758862547616e-01,-1.052620180937180591e-03,6.443548277258803747e-02,-7.469225140819721678e-03,3.642214536666870117e-01
2.251881199398464428e-01,-1.336727150083105164e-01,2.366820036248685755e-01,-3.461114894757771508e-04,-8.105269463520154132e-05,-5.158169873361529573e-03,3.648535609245300293e-01
2.243120053033293981e-01,-1.266362834401732751e-01,2.779858855836551124e-01,6.761549006398828027e-03,1.453835393647746020e-02,3.180793592638909636e-03,3.816856443881988525e-01
2.493877622371436509e-01,-1.308346457835555254e-01,2.466270768599194696e-01,-5.181455821711091923e-04,1.769176662510911057e-03,-2.862819843905343130e-03,3.788955211639404297e-01
1.371181074399664412e-01,-1.348025337994095685e-01,2.519370592067466941e-01,3.765781053185188187e-02,-4.310577454565265448e-02,1.518246823211586057e-02,3.589791655540466309e-01
1.894630840048864284e-01,-1.271135901015087444e-01,2.550657560199006135e-01,-4.091808086244205517e-04,1.499696394035544660e-03,-1.203400708150724778e-03,3.539835810661315918e-01
1.971654064638193871e-01,-1.364828922577726034e-01,2.454274918819004392e-01,1.250028182555441153e-02,-1.300084061798728423e-03,3.643555472768126875e-03,3.609247207641601562e-01
2.202119638970332638e-01,-1.356221991788947867e-01,2.355591710837141584e-01,8.836859533096104447e-03,5.431958777412523539e-05,3.910821762017372034e-03,3.641355633735656738e-01
2.384792153808325266e-01,-1.375247458622020080e-01,2.289899061379918610e-01,-4.823345455444516885e-03,9.434184911247323665e-04,4.168360416170477714e-03,3.715179562568664551e-01
2.339703780724521898e-01,-1.310517043943563997e-01,2.029646113395868756e-01,-9.539125844772657070e-03,7.514875271154421686e-03,6.011522357802136923e-03,3.513338863849639893e-01
2.412358415110076870e-01,-1.326184458561593393e-01,1.998498348663513280e-01,-7.288807175253575119e-03,1.534752743382477008e-03,7.747177312780865500e-03,3.554630875587463379e-01
2.378683978497828089e-01,-1.338925527599988952e-01,2.391428713224608704e-01,-3.568087099425650173e-03,-2.090320930588350848e-03,2.148616389593731302e-03,3.724872767925262451e-01
2.423261482184010940e-01,-1.319685428487599732e-01,2.452996170796563069e-01,-3.320080238682261448e-03,-6.491619836151175764e-03,1.379843068959770358e-03,3.760100007057189941e-01
2.404630305240980093e-01,-1.338963491794136484e-01,2.215013067292498916e-01,-3.942096059874236613e-03,1.181335508051654937e-03,-5.982135932323907283e-04,3.653188645839691162e-01
2.552077239084444282e-01,-5.913709619528126349e-02,2.656385177574021039e-01,6.008776166186353268e-03,-8.857855622755761438e-03,-1.139595916550362881e-02,3.208327293395996094e-01
2.902028735230667289e-01,-9.642340229876697477e-02,1.591406315205306510e-01,1.252691373241789606e-02,1.206561008219878689e-01,2.469747548785141550e-02,4.024418294429779053e-01
2.577893393597445737e-01,-1.233980431858887616e-01,2.102291287323154456e-01,-6.241895415607342720e-03,3.121737335100648048e-02,2.371618294260623844e-02,3.662844002246856689e-01
2.666591840335880148e-01,-1.997365000755243203e-01,9.034936499232695817e-02,-2.515902773555598465e-04,8.679194886284343977e-03,-1.025941152508604709e-02,4.085607528686523438e-01
2.397451678235537620e-01,-1.386331637944069883e-01,2.215538027659263443e-01,-8.701405468957102915e-03,2.729870400503658576e-03,1.118303337789273988e-02,3.704626262187957764e-01
2.425206683757065163e-01,-1.252467589464000830e-01,2.207429149784083666e-01,-6.254531519428472262e-03,3.397785131453314334e-03,4.848696854021806828e-03,3.576877415180206299e-01
2.733020625014642158e-01,-3.473739298084657645e-02,2.725246644618780079e-01,-8.850943338220170625e-03,5.289881352705046343e-04,7.434761367616534236e-03,3.083036243915557861e-01
2.486217378032612446e-01,-1.205706143233231248e-01,1.672440510752130072e-01,7.408268149019316823e-03,2.887456791516243917e-02,-1.432535353256093706e-02,3.408266603946685791e-01
2.300258548450495322e-01,-1.339031756541039508e-01,2.093344411880183609e-01,9.179370990553558513e-03,2.315875684840558620e-03,-7.223678830437069674e-03,3.546373844146728516e-01
1.952472224956296465e-01,-1.312112990493054243e-01,2.409861638542261097e-01,9.331074830613066140e-03,4.080276873633020135e-02,-1.282823420503181530e-02,3.596506416797637939e-01
2.429366259609004874e-01,-1.303049202248867666e-01,1.553501400494595730e-01,8.322806191456335462e-03,1.215958062661206922e-02,-9.685221023466531604e-03,3.394444286823272705e-01
2.341229433495949919e-01,-1.184843884051920843e-01,2.522799315175076051e-01,-1.395922657791463621e-03,-5.514847134297180820e-03,4.856652657338697294e-04,3.621625304222106934e-01
2.302557868996026880e-01,-1.281024215454825421e-01,2.345365274197316885e-01,-1.344218310807202346e-02,1.635598457014784957e-02,1.479716436111545505e-02,3.632829189300537109e-01
1.899107046971493240e-01,-1.235979716336030321e-01,2.498608369486003955e-01,1.619393998865475905e-04,4.992400814760193477e-03,2.778322583046390418e-03,3.475264012813568115e-01
1.823128064945093441e-01,-1.398600345064428541e-01,2.815652945680723884e-01,-8.160347912775853252e-03,1.080581093299554617e-02,9.133038073255512340e-03,3.826527893543243408e-01
1.828762240711675480e-01,-1.346278248065782557e-01,2.459782717528885554e-01,-6.753757885043798655e-03,5.720196423476406160e-03,6.565493349347126251e-03,3.538222312927246094e-01
1.978863892286132631e-01,-1.383156014460646122e-01,2.385917661293187886e-01,-1.078791180233611147e-02,2.269825358008004373e-03,8.092104369690465010e-03,3.590751588344573975e-01
1.982575206067099804e-01,-1.262730588854655278e-01,2.342490908879482081e-01,-9.959867269318735568e-04,5.032306559311563489e-03,7.246329198721945287e-03,3.442852497100830078e-01
1.710206614693943195e-01,-1.364651635798831975e-01,2.363749769189612548e-01,-1.998239785940938984e-02,3.069677851436578703e-02,1.249497714571251930e-02,3.512938618659973145e-01
2.006622204466890491e-01,-1.533269128410445215e-01,2.627070027500794103e-01,-5.669062121712983328e-03,3.050022081957601619e-02,9.300996035015159785e-03,3.927693665027618408e-01
2.099897832725136082e-01,-1.354614292678774645e-01,2.351889175886656136e-01,-8.514265661622791304e-03,1.140701461567236209e-02,8.365359833793184832e-03,3.598532676696777344e-01
2.510445811428966278e-01,-8.314857656033736166e-02,2.437765465063704839e-01,-9.430928615886492727e-03,1.088026663223607207e-02,1.553015550313998402e-03,3.315692543983459473e-01
2.473409920854323929e-01,-2.850161922770438894e-02,2.482378434989410687e-01,-1.084524302536902032e-02,8.759969710210480098e-03,-7.481720821790358933e-04,2.773483097553253174e-01
2.712855065440469282e-01,-5.604864865112810235e-02,2.735285823746997913e-01,-1.494493544900923811e-03,-2.571055432024985381e-05,-7.482116881975065491e-03,3.287271857261657715e-01
2.489556754888515577e-01,-1.155661150815865956e-01,2.456248067714565386e-01,-1.769459272369893485e-03,8.209537587302868922e-03,-3.921100416830384724e-03,3.632227480411529541e-01
2.273428678071707232e-01,-1.167986819492402156e-01,2.125421290236617911e-01,8.621005474040920394e-03,-1.146144957717554203e-02,7.295354503650082131e-03,3.381355404853820801e-01
2.292811265952817146e-01,-1.375277128127754822e-01,2.358024122519860599e-01,3.417761889642675129e-03,4.542489445715719790e-04,5.324421760368795026e-03,3.702756166458129883e-01
2.565951656028389039e-01,-8.239307814321711332e-02,2.387196579624164816e-01,-6.635932481514914515e-03,3.464059687434441204e-03,-1.243839251302491459e-03,3.306746482849121094e-01
2.492834477308469299e-01,-1.117159945791787179e-01,2.465916831252654151e-01,1.553492256127738010e-03,1.044768011284051383e-02,-3.128478637013701845e-03,3.601668775081634521e-01
2.375326904753430890e-01,-1.232176244504190749e-01,2.574347686424413584e-01,2.202966455766329490e-02,-2.670684659005726283e-02,1.492536769361922123e-02,3.768030703067779541e-01
1.945795877241847105e-01,-1.348474503847947037e-01,2.419484696133175627e-01,-8.458880354839076743e-03,-4.934222631705119898e-03,-7.231058282381893319e-03,3.561111390590667725e-01
2.385173697245100422e-01,-1.466007788593430283e-01,1.995413158723954306e-01,-6.521095478104772976e-03,2.910725754118483229e-03,9.570470750064362375e-03,3.677669167518615723e-01
2.727354659211839172e-01,-9.431498931146641007e-02,9.983277583975611047e-02,-1.431952215611489651e-02,3.833692140722733122e-02,2.093619708144717206e-02,3.278668224811553955e-01
2.373754532874742806e-01,-5.257896798763744828e-02,2.613416368690202884e-01,9.943205819985755610e-04,-2.760887583072350448e-03,-1.538868018836669557e-02,3.038639724254608154e-01
2.372727568248231000e-01,-1.015507811773277980e-01,2.577799859930030579e-01,1.501690338192269731e-03,1.121427547325171874e-03,-5.858191532012550773e-03,3.496909439563751221e-01
2.439033429667015751e-01,-2.734541930865286297e-02,2.401665534311653305e-01,-8.253849615465151668e-03,6.082971046585138909e-03,-1.319024087866339876e-03,2.699941992759704590e-01
2.557570292453404392e-01,-9.754923664150225160e-02,2.421656448825697527e-01,1.932911150733280506e-03,7.792538403240425321e-03,-1.953497114002537664e-03,3.470056951045989990e-01
2.577611727280193499e-01,-8.806623231588686651e-02,2.504502340568727226e-01,-8.947875501317406957e-03,5.777198293053571743e-03,-8.704852657599784424e-03,3.430588245391845703e-01
2.674015602810216885e-01,-2.841252121924786600e-02,2.529358491301925138e-01,-3.089732523505796594e-02,2.254667806037721073e-03,-3.219671091776722411e-03,2.938475012779235840e-01
2.517550723301036353e-01,-1.035198479017557238e-02,2.652173893635329516e-01,-8.248843319047578782e-03,-6.005798194364158141e-03,-5.430515679965157438e-03,2.698346078395843506e-01
2.490990059905780485e-01,2.119631936441421227e-02,2.733810595559616474e-01,5.500076391396580087e-04,-6.972880938229935460e-03,9.840684826346698250e-03,2.418687343597412109e-01
2.550790882452810826e-01,-6.647670301067254428e-02,2.786841197938310644e-01,-9.476586813515429017e-03,-5.027366714796963933e-03,-1.363369081089438328e-02,3.353334665298461914e-01
2.516729590958523000e-01,-1.190870286388077820e-01,1.289495761993368350e-01,1.168060909058121159e-03,-4.532321751387293624e-02,-1.269978836349248789e-02,3.371551632881164551e-01
2.384887785025230356e-01,-1.337639041977141396e-01,1.998367677139208931e-01,-7.494104877811374500e-03,-2.863257020926973824e-03,-9.307317273217109374e-03,3.551488220691680908e-01
2.407652638570046966e-01,-1.301522305512100020e-01,2.463709844843220143e-01,-9.741110229575001569e-05,2.561934957255144162e-03,3.849012884165225155e-03,3.738377094268798828e-01
2.278298601383652588e-01,-1.351117504618520870e-01,2.102851988786795800e-01,-8.732492405797069243e-03,-2.050802453702920726e-03,-6.885026912244253047e-03,3.550356924533843994e-01
2.525282615726411883e-01,-1.269586126014641825e-01,2.008606771087901310e-01,3.568975623204135705e-03,2.191211374589580041e-03,-1.025639461859492035e-02,3.569885790348052979e-01
2.596347169533682053e-01,-2.180967254280872791e-01,6.211750811641941761e-02,4.272167515886014788e-03,6.244824766338462341e-02,-5.676012365386392394e-03,4.298034012317657471e-01
3.859352511861905421e-01,-7.966446930529358372e-02,1.293370992935792274e-01,3.621933923564386870e-02,4.810018502461400197e-02,1.378181935771890382e-02,4.178515374660491943e-01
2.557447228267449857e-01,-1.250547672614027717e-01,2.375581776192034200e-01,-1.125321591448281717e-03,5.075622298002729384e-03,-1.761158927121330743e-04,3.721488416194915771e-01
2.357534451978015866e-01,-1.466182386799907422e-01,1.853036463262485167e-01,1.461731547150484827e-03,5.613808085721719949e-04,-1.515014235534514059e-02,3.607750535011291504e-01
2.411849463546855976e-01,-1.431555266291636430e-01,1.889979620388177461e-01,-6.432917754872741374e-03,-9.988063596367408731e-03,-4.913760381744996381e-03,3.617725372314453125e-01
2.518173644244015019e-01,-1.445032709765262657e-01,1.440614251669183887e-01,-1.066701474551323345e-02,3.755108106752479830e-02,-1.942128531924482843e-02,3.628755211830139160e-01
2.682687211462985166e-01,-8.197186855905895519e-02,1.631861774605339876e-01,-3.852735778682297822e-03,3.752209565961689419e-02,-1.442527439557218620e-02,3.190598189830780029e-01
3.819405501636104483e-01,3.560096108000246340e-02,3.039637558598758948e-01,3.499144215399665157e-03,4.595974023716506581e-04,-1.422406495509706895e-02,3.157045841217041016e-01
2.947274036051442669e-01,-7.702483407731097742e-02,2.629857994922112363e-01,-6.371588510252362142e-03,-8.532057947585085927e-03,-1.582748594124922577e-03,3.574282228946685791e-01
2.715783408523401721e-01,-2.637841911431926256e-02,2.102411013966183351e-01,-1.584086095982809028e-02,1.038672216952781120e-02,7.343165133376126572e-03,2.747778296470642090e-01
4.041147305362616793e-01,1.868934486011061824e-02,2.657171711913359768e-01,4.551832677628640106e-02,6.663468138012127416e-03,9.122189410840780832e-03,3.477977514266967773e-01
2.537144402777101737e-01,-3.154708874837264254e-02,2.901992547348847262e-01,3.299903487056399243e-02,-1.056175522912509990e-02,2.028017432763207228e-02,3.129669427871704102e-01
2.576795573268257367e-01,-6.078885198303646265e-02,2.491204631317892049e-01,-1.249171684075771858e-02,-5.526143407240391436e-03,3.283466132434832707e-03,3.152168691158294678e-01
2.454240190029173818e-01,-1.345004771187079951e-01,2.386253258886296691e-01,2.554168458598318932e-03,-2.008924762362768873e-03,-1.834170568445438274e-03,3.766266405582427979e-01
2.263271285095193597e-01,-1.093070355570828212e-01,2.738964549196973852e-01,7.885618317977972566e-03,1.207908395061109419e-02,1.039183101301908649e-03,3.626382946968078613e-01
2.555544293972102921e-01,-2.301759957302479398e-02,2.528020254442352455e-01,-1.143070790275465404e-02,-7.500993752886972454e-03,9.488289184783503180e-03,2.787006795406341553e-01
2.457704945357336856e-01,-8.428785292950799479e-02,2.512473164171507012e-01,5.890185159334765039e-03,2.399297837171547685e-03,1.630426680539485279e-02,3.342080414295196533e-01
3.269643927828257968e-01,-9.555820949135929165e-02,1.661465167384447439e-01,-6.196336748910106010e-03,6.494019212629065230e-02,-1.146724232439474966e-02,3.867814838886260986e-01
2.399517604710094676e-01,-1.382292538326345965e-01,1.994340909540245621e-01,6.464142105632579051e-03,3.048288068501008811e-03,-7.569629012277188408e-03,3.600898087024688721e-01
2.423181327262058093e-01,-1.334410918014346525e-01,2.295867295550644560e-01,1.013224677692340682e-03,-1.120351659534933727e-03,-5.255884744904928269e-03,3.696793913841247559e-01
2.909459014552773781e-01,-1.429745281362674314e-01,1.161993923600228018e-01,-1.161670892333616437e-02,-1.979540025043216231e-02,-2.381431327886013305e-03,3.802559971809387207e-01
2.097497139014774248e-01,-1.181796432234250432e-01,2.121593197964876665e-01,4.638474557352309448e-04,-1.883662724461367555e-03,1.045811330685789305e-03,3.291628956794738770e-01
2.171279702823147306e-01,-1.299479197205220260e-01,2.205236366535562875e-01,5.148901770882694483e-03,-2.284702068898971598e-03,2.924091221391718082e-03,3.489593267440795898e-01
1.764663957148361884e-01,-1.211955113208912638e-01,2.432129301576076152e-01,5.746218631323339945e-03,-5.633627789555795302e-03,8.715734209780874250e-03,3.366716206073760986e-01
2.052100232843977190e-01,-1.201809188929015421e-01,2.089780444556474381e-01,-1.840943891431201691e-04,-4.384127402281496125e-03,-1.444038830150988235e-03,3.273890018463134766e-01
2.106065673992722487e-01,-1.176571963586206110e-01,2.124241730306773990e-01,6.653692556363090694e-05,-6.949328833948588847e-04,-3.778256677701558302e-04,3.291791975498199463e-01
2.109313516696871837e-01,-1.196642384774152940e-01,2.120362990885727716e-01,-3.021981661577144819e-04,-3.130417851256169859e-04,-4.780281589055580417e-07,3.311502933502197266e-01
1.875281608501528363e-01,-1.293455373831453870e-01,2.113665017061839291e-01,5.712166277546881603e-03,-2.424468526358981510e-02,7.279335479440961383e-03,3.324924409389495850e-01
2.102405262201791913e-01,-1.181414725590601844e-01,2.148711036483454684e-01,3.731358684582505424e-04,-2.137341427992876883e-03,3.881267113403923824e-04,3.307436406612396240e-01
2.134309690679558058e-01,-1.186607939487982627e-01,2.121233484469759734e-01,2.828888667192988246e-03,-7.273146667866668517e-03,3.074931078022201045e-03,3.317581415176391602e-01
1.540096033723921676e-01,-1.404687212722367518e-01,2.728477603920748118e-01,2.871340523421799656e-02,-1.551655840099365295e-02,2.582256335297147039e-03,3.728953301906585693e-01
2.250957082601867387e-01,-1.271648720387744957e-01,2.219699000148542822e-01,3.234357938941476857e-03,-8.451459321081654461e-04,1.609117187814008455e-03,3.507669866085052490e-01
2.191326116323741857e-01,-1.402513466734640613e-01,2.162343862909131831e-01,-2.234473094570653406e-02,-6.659537911592627868e-02,-1.897272882622795878e-02,3.794815540313720703e-01
1.658370434956785155e-01,-1.166077962114913658e-01,2.807545015807170752e-01,6.880777766733092195e-03,-1.094067283726095352e-02,-1.237220466540689357e-03,3.548868596553802490e-01
2.676587153078924808e-01,-1.182346055162540877e-01,2.677293564865966813e-01,8.066036662802652558e-04,-1.395566730184218118e-02,-7.472739400448456457e-03,3.869039714336395264e-01
2.210159133777273577e-01,-1.324541663188921192e-01,2.387892293163112467e-01,-2.044384688399539848e-04,-2.335436316648713522e-03,6.345198461586293304e-03,3.628726899623870850e-01
1.961230550428976205e-01,-1.266178756755922397e-01,2.330554781920291529e-01,9.825562008811735554e-04,-6.020015642674480562e-03,7.248731151070162033e-03,3.430955708026885986e-01
1.944272917315165716e-01,-1.138009759455099329e-01,2.301014816702228183e-01,3.720883327308701326e-03,4.068257505010928511e-03,-4.149135371826024807e-03,3.277437090873718262e-01
1.714205024736121796e-01,-1.168731971779452122e-01,2.283265003647138580e-01,4.393976083629132223e-03,1.879843139185342210e-02,-4.365656333665401609e-03,3.223855197429656982e-01
1.988946767179761432e-01,-1.257546678412893582e-01,2.304271425435316378e-01,-4.792920345451033223e-03,5.329150837811274730e-03,9.577625811721694402e-03,3.421370983123779297e-01
1.947635169409294154e-01,-1.138663482224735873e-01,2.318944023314529757e-01,-3.332043334431812349e-03,5.204808068181377215e-03,4.383417554683938233e-03,3.290334641933441162e-01
2.023381561948651153e-01,-1.247330650067872970e-01,2.190276770709950749e-01,-2.010805409252088873e-03,2.594632269098705486e-03,5.046586900736204848e-03,3.358891308307647705e-01
2.014035248802230615e-01,-1.181155374786502787e-01,2.203534098878556780e-01,2.883753491444518945e-03,1.736774280115965796e-02,-6.047534226350214856e-03,3.309772908687591553e-01
2.084528499635397991e-01,-1.164713447224692139e-01,2.207617445035913450e-01,4.503515043910432183e-03,2.946779838686046024e-03,-2.784988998158985547e-03,3.314164578914642334e-01
2.198529806155604671e-01,-1.429069481431840538e-01,2.400846550875691543e-01,-1.111412495565192171e-02,-4.917210512208062406e-03,-6.770034158705538589e-03,3.740640878677368164e-01
2.204296845330203647e-01,-1.336446702240247919e-01,2.423847687977666587e-01,1.641192175666476242e-03,-8.762817952352866058e-04,-5.844751254029748868e-04,3.655623197555541992e-01
2.402602970582183861e-01,-8.243437603349504372e-02,2.377514114013137836e-01,-3.940889835000854421e-03,1.016767691901270150e-02,-3.119389008453157808e-02,3.265033662319183350e-01
2.267003567781666340e-01,-1.250160790629343543e-01,2.182572392057434141e-01,8.635355849456304717e-03,1.107468831650068077e-02,-6.219850015568510748e-03,3.485884070396423340e-01
2.380153143208305899e-01,-1.367915030011202238e-01,2.411383015006514363e-01,4.397629869611321442e-03,-2.815783724120544430e-03,4.475101345893298913e-04,3.764874935150146484e-01
2.371763916278462059e-01,-1.347283303564049128e-01,2.368058952421294716e-01,5.348843553282849918e-03,-1.323678664302272486e-03,-6.383393082985766923e-04,3.718437552452087402e-01
2.468339610964911668e-01,-1.233281616914027878e-01,2.412168542620292955e-01,2.449295793031066801e-03,-6.073231010694696112e-03,1.614244229758910929e-04,3.675609230995178223e-01
2.325560862517564997e-01,-1.351088768828892506e-01,2.005300907265679389e-01,8.376292408041094428e-03,6.871923607417868007e-03,-4.910399677780273066e-03,3.533452153205871582e-01
2.311997911954845608e-01,-1.305929024741760980e-01,2.129032751419113467e-01,9.415074443313057109e-03,2.437017382298619066e-03,-7.204643628782074309e-03,3.536221683025360107e-01
2.079566524239469527e-01,-1.640607200171921021e-01,2.282724387651376696e-01,2.403877778074099691e-02,1.754189576358138047e-02,2.002159295293903687e-04,3.860367238521575928e-01
2.494635902444287123e-01,-1.288087947162250835e-01,2.429458764239802726e-01,1.020068642900516086e-03,-6.361924364924872143e-03,-4.813017249918004857e-04,3.752229213714599609e-01
2.390860790113278345e-01,-1.401087668551507792e-01,2.390577291709085617e-01,-3.135368167075604538e-08,-1.064619344180542132e-04,4.554340406117983789e-04,3.791815340518951416e-01
2.365651301177915111e-01,-1.416967230514326048e-01,2.382674481884352602e-01,-9.675174950344476651e-04,-1.025582470092031606e-04,4.567764091926093130e-04,3.791204392910003662e-01
2.387012660523107899e-01,-1.417184868407362353e-01,2.389208487448943319e-01,1.165080220979843479e-04,1.353048707126834546e-08,1.355392794446290893e-04,3.805297315120697021e-01
2.400294524403349117e-01,-1.402535600447126218e-01,2.391565265934301743e-01,-3.257419160369594453e-04,-1.033783805227098031e-03,1.011945020816230889e-03,3.798559904098510742e-01
2.392071830069783245e-01,-1.386512258782376661e-01,2.380782266093874333e-01,-1.968501243444816494e-03,-5.346873379279705983e-04,8.133007433362767370e-04,3.773143589496612549e-01
2.355046604761967810e-01,-1.419588935500466498e-01,2.367013166325007134e-01,-3.498204543735185549e-04,-5.528506926865223116e-04,8.153864080085495561e-04,3.780676424503326416e-01
2.374204014996303402e-01,-1.284503851239027494e-01,1.945186215210339964e-01,-1.831863182418529135e-02,-5.180406129625558798e-02,-2.400507869851264964e-02,3.616516590118408203e-01
1.657404076900456102e-01,-2.034994571983345935e-01,9.978541786904006339e-02,1.357544936851508982e-02,-1.098542062315121526e-01,1.037748498863989149e-02,3.916819095611572266e-01
2.092912625924919778e-01,-1.639524988736125732e-01,1.782987277359119882e-01,-1.494384083481353417e-02,-1.261704235405769481e-01,1.215893501695756128e-02,4.213953912258148193e-01
1.866111965881850354e-01,-1.684046048929771777e-01,1.231323522915580004e-01,-1.269633027167140632e-02,-9.706048441616535460e-02,-1.804227527561200195e-02,3.704755902290344238e-01
2.299167225130104575e-01,-1.155507803896011487e-01,1.839030733119459415e-01,-1.810209567805795344e-03,-5.787880452761990681e-03,-1.763772716378797875e-05,3.250833153724670410e-01
3.030181102794250458e-01,-2.514080676929701386e-01,7.832795463645611522e-02,-5.794972247106987447e-03,-6.946440117152292981e-02,-1.351974932055000078e-02,4.984224736690521240e-01
2.504607892915209355e-01,-1.386416440543664919e-01,1.884025063749772133e-01,-5.603042885016671845e-03,-6.976501527116568679e-04,-1.221041563552298717e-02,3.628330528736114502e-01
3.489756626659500927e-01,-1.221846994392929570e-01,1.301675421761079310e-01,-1.926283151363041013e-02,-3.700145205230061934e-02,-2.148084740378642526e-02,4.163894057273864746e-01
2.541617831921653692e-01,-1.351901197194894100e-01,1.930362791353670837e-01,4.835614347666848667e-03,1.815678256015007541e-02,-2.900075551287702516e-02,3.675788044929504395e-01
3.085455364193464556e-01,-1.031573006529564185e-01,2.310195910972337729e-01,2.146010046718529931e-03,1.713432509700215170e-02,-3.301507327074393577e-03,3.801566958427429199e-01
2.487019528882014330e-01,-1.321877050408612198e-01,1.812027193082507703e-01,6.727786028360130573e-03,7.863447121210422747e-03,-8.035286969997772200e-03,3.527581393718719482e-01
2.396220355887768161e-01,-5.773451957345959729e-02,2.585659215382414833e-01,2.029121075013490694e-03,9.187021809565412830e-04,-1.339525045005889731e-02,3.081656396389007568e-01
2.740067407580582537e-01,-1.021839007677897287e-01,1.143308309898986158e-01,9.712587256367716942e-03,-1.158337588755116269e-02,1.798499331223915327e-03,3.280890882015228271e-01
3.034573333429952946e-01,-1.158500017123363923e-01,1.568825395708408899e-01,1.949432765723823832e-02,1.912506755630877589e-02,-1.818840996464646254e-02,3.729246258735656738e-01
2.327610070012873789e-01,-1.045494020715501127e-01,1.181994594139178650e-01,-3.217122680910466243e-03,5.685169615825487466e-02,-9.184661023276362714e-05,3.130291998386383057e-01
2.457588734678352593e-01,-1.869919368698741147e-01,1.049818220176761963e-01,-6.801215451112018612e-03,-4.891104634904850507e-02,7.125392281937777302e-03,3.919668495655059814e-01
2.921316995061936650e-01,-1.241201065210196797e-01,1.876900937553431792e-01,-3.937199673648116298e-04,6.176390071036806130e-03,-1.395791445827192223e-02,3.760305643081665039e-01
2.383918584498919135e-01,-4.053339852103093888e-02,2.463045008763059263e-01,-5.022795770699065368e-03,-4.773016174144250820e-03,-1.980211122001827168e-02,2.852881848812103271e-01
2.141348877552617380e-01,-1.260368429474621743e-01,2.158038819236604011e-01,4.196318863809878215e-04,4.800058497445078135e-04,1.053245298694197377e-03,3.410159647464752197e-01
2.148343750742223446e-01,-1.263458196141651335e-01,2.138683131993907027e-01,1.044916796801366541e-03,-1.354552869934470133e-03,3.437756536273473690e-03,3.407630920410156250e-01
2.235089942625113069e-01,-1.220244961804136247e-01,2.183498175468863156e-01,3.617758533877574092e-03,-3.114344513374882437e-04,1.047527617150095271e-03,3.430454730987548828e-01
2.189024243426461735e-01,-1.177252779997107340e-01,2.209677193499207104e-01,4.281996888913274305e-03,-4.094689157360643927e-03,4.623353455216866990e-03,3.379158675670623779e-01
2.201049652092089137e-01,-1.179316301882674944e-01,2.078791054968786578e-01,4.019227476888223571e-03,-2.073050444407579639e-03,2.011232406043244984e-03,3.322031199932098389e-01
2.248365311619975049e-01,-1.253242369340440421e-01,2.050193183971686928e-01,6.605676616131740675e-03,-2.777095430615844889e-03,9.733012066627709730e-04,3.409148752689361572e-01
2.282699565215579596e-01,-1.387573467775378155e-01,2.305265840677684919e-01,3.842699723540280408e-03,-1.391555650668484636e-03,5.893926211238053811e-03,3.683703243732452393e-01
2.452560262867913843e-01,-8.493412413593826038e-02,2.429461485476425153e-01,1.011124013925979517e-02,-8.570508024568657124e-03,4.070986388072246609e-03,3.299165964126586914e-01
3.697145578056910131e-01,3.034904288906226100e-02,3.198775841963638622e-01,-1.180251517290750729e-02,-4.966680664005901358e-02,6.099048582699698531e-03,3.296507298946380615e-01
2.543861456777709029e-01,1.119173021883299035e-02,2.704958343744828797e-01,-1.271649705743915955e-02,3.625876610406216123e-03,1.887543746354719554e-02,2.547827363014221191e-01
2.551999273668491552e-01,-8.531016717037695485e-02,2.644594468018768851e-01,1.344686874303684630e-02,5.218668014015013200e-04,-9.843744678255005737e-03,3.464387357234954834e-01
2.650578611560009401e-01,-9.077454364757170380e-02,2.666891070396717467e-01,1.570008506788515487e-02,8.623341636213116557e-03,-1.085942187139381926e-02,3.584915101528167725e-01
3.118357980064556667e-01,-1.548195093730955763e-02,2.739740700224597703e-01,-6.166818248183762730e-03,2.627716388862667840e-02,-4.952346063331595008e-03,3.137463033199310303e-01
2.601315858330117692e-01,-1.427227539619386754e-01,2.482669805123252638e-01,-1.140317207696370932e-02,2.151013283214261648e-02,1.686410128523710503e-03,3.992985785007476807e-01
2.496109249847963119e-01,-1.372202891297366611e-01,2.389351825102853377e-01,-3.415266682739608907e-04,9.291901453186907685e-04,1.161155279129087985e-03,3.816145062446594238e-01
2.538054362225135030e-01,4.857288035979290264e-03,2.478686483950657826e-01,-1.258036056906370291e-02,5.533845793305500194e-03,-7.887482284342552455e-03,2.475596517324447632e-01
2.503499684028270278e-01,-1.353462808229524694e-01,2.375934148179407179e-01,2.138789767646120379e-04,1.205502999649907779e-03,1.141817534003744701e-03,3.794898986816406250e-01
2.539396755510386350e-01,-1.300998684171091879e-01,2.381229156975493699e-01,1.642144285662456530e-05,1.686550959406176668e-03,5.242726670579357954e-04,3.763929307460784912e-01
2.410469262677951141e-01,-1.411343850607635897e-01,2.386335341092056805e-01,5.373720356890080005e-04,1.451104522077030631e-03,6.623497063230569110e-04,3.809914886951446533e-01
2.564491773468085545e-01,-1.321756984276579727e-01,2.380828676889322204e-01,1.694161637659479924e-03,2.005835188950080925e-03,3.551650638182005668e-04,3.798026740550994873e-01
2.404871143540636691e-01,-1.369896299781336590e-01,2.384776938507926769e-01,-1.599774514740336063e-03,1.080940858886156710e-03,1.243546787714664217e-03,3.764970600605010986e-01
2.617617624919056363e-01,-1.177620838959020921e-01,1.432451473710963930e-01,-2.080371650961955823e-02,-4.599300377046717375e-02,-3.361297495200644969e-02,3.523330986499786377e-01
2.907612188400138797e-01,-1.693074349162413117e-01,1.172124920134874904e-01,-1.454507717405802581e-03,-4.033642807753567983e-02,-2.555898828742863421e-03,4.084666669368743896e-01
2.263725764025258658e-01,-2.902062180116726786e-01,6.769271669142708225e-02,1.611168687637348773e-02,-7.529782100584288262e-02,-1.223929143909870641e-02,4.778072237968444824e-01
2.842339122614589986e-01,-1.508131881873317481e-01,1.141515286045715616e-01,7.829512435073563608e-04,-1.740399430456990998e-02,-3.945440191513269190e-02,3.870150446891784668e-01
2.452917708754387971e-01,-1.323461818843360560e-01,2.191928611479149747e-01,7.779578332506817970e-04,-5.042227462839408113e-03,-5.595298123601982233e-03,3.655237853527069092e-01
2.504002152592799679e-01,-9.387907596469741156e-02,2.546848754016463046e-01,2.403098393293957510e-03,1.706279951790214133e-03,5.235693330611052888e-03,3.465977609157562256e-01
2.430252739559670416e-01,-1.212283373001703246e-01,2.495752679423575704e-01,2.182696053664367683e-05,-1.121971812784431375e-03,-5.566274312423900514e-03,3.677039444446563721e-01
2.283705699192151717e-01,-1.180505650188467953e-01,1.851544787710124873e-01,-1.029793667176450572e-03,4.988410322776804830e-03,1.178748374462607919e-03,3.270875513553619385e-01
2.093891135695547523e-01,-1.409416774996595234e-01,1.976529343816661455e-01,2.264115400960690135e-03,6.640676168658594947e-02,5.241172672701159205e-03,3.634352982044219971e-01
1.992431303772176920e-01,-1.440693387396657643e-01,1.263963817567010373e-01,-3.768934402780709219e-03,6.179408552463740156e-02,6.723911961094520759e-03,3.313528001308441162e-01
2.406122622709415404e-01,-1.223953782042662142e-01,1.588672035357755752e-01,-7.123725001249031283e-03,9.300871760057810578e-03,3.187996219000780850e-03,3.304920196533203125e-01
2.216707991547672285e-01,-1.528046688843327505e-01,1.870109879319352963e-01,-2.206895375571459386e-02,3.019561912320296512e-02,2.190868431518503551e-02,3.661834895610809326e-01
2.276596036474964058e-01,-1.527440398306540992e-01,1.769449886585583165e-01,-1.536042518152687560e-02,3.215266300775725117e-02,3.148775419651858587e-02,3.671110570430755615e-01
1.773587618561239809e-01,-1.263784973515802434e-01,2.122097058970777717e-01,-5.292158717450475697e-03,3.717536420429776167e-02,5.414310483429659454e-03,3.292027115821838379e-01
2.450485159988272099e-01,-1.295264628465586654e-01,1.756845199698668369e-01,9.437934746198351627e-03,-2.523565700751626006e-02,1.749611870406263259e-02,3.496167063713073730e-01
3.960725256343409217e-01,-2.221883776184607751e-02,2.230295304119521704e-01,1.895134844511713740e-02,-1.104321578724041554e-02,2.558503241279075358e-02,3.686953485012054443e-01
2.650828632325709089e-01,-1.247139936821466955e-01,1.384102646698015526e-01,9.625720505483698237e-04,-4.296883808389306836e-02,4.044562232371623489e-03,3.524227142333984375e-01
2.421944042581600232e-01,-1.340183871781310265e-01,1.571170714868292406e-01,7.020041933012428036e-03,-1.063974863991171485e-02,8.892005613560589189e-03,3.427706062793731689e-01
2.428333464294340216e-01,-1.250513159109894468e-01,2.568173158595370986e-01,-4.806599794542327597e-04,-3.948008523767634545e-03,-3.704752512435718383e-03,3.751903474330902100e-01
3.330930308516871219e-01,-1.595638529986447840e-01,5.042091840170079969e-02,-9.909388820960167779e-03,-2.436744318027701806e-02,-8.967491561079653836e-04,4.306184947490692139e-01
2.787936703074938571e-01,-1.493193961007718007e-01,1.304062786462278911e-01,-8.454090020979361519e-03,7.640665814013936595e-03,2.859441354662828338e-02,3.802834749221801758e-01
2.803653656149893703e-01,-6.226427265057499216e-02,1.804688135925719972e-01,3.621910271444950171e-03,-4.419350853406861512e-02,3.160233947724729042e-02,3.194394409656524658e-01
2.347794631524313391e-01,-1.374208103387807856e-01,2.263683292686048953e-01,2.922911278661316503e-03,4.492108172248085668e-04,5.075281145328063015e-03,3.682073950767517090e-01
1.769365483888476476e-01,-4.842422918404290511e-02,3.376020851452241622e-01,-4.478639071541621122e-03,-1.696388706048614081e-02,-3.741301383470707620e-02,3.434112668037414551e-01
2.430831876371354616e-01,-4.131600055977405206e-02,2.603003399653517902e-01,1.260433481588662911e-02,-3.538748828472984553e-02,-7.162550318228782902e-03,3.007710278034210205e-01
2.492108400881888342e-01,-5.394511988805775204e-02,2.897879802450598064e-01,-1.042469437405985858e-04,-8.027888062095767108e-02,-2.099486400777096987e-02,3.556792438030242920e-01
1.174699031146852479e-01,-1.097570530678062539e-01,2.571570628786306045e-01,8.426265807993415721e-03,-6.854848051667537800e-02,-9.371134778586991468e-03,3.427220880985260010e-01
2.265199007847541468e-01,-1.305964337935722197e-01,2.394797472453117360e-01,-6.525731631662492170e-04,1.177110748916607857e-03,-5.726907503974546822e-03,3.639121353626251221e-01
1.770614038149027902e-01,-1.376388566737543062e-01,2.883056692971635027e-01,-6.372275232589832972e-03,-5.995994414268166796e-04,4.614384599851823615e-03,3.828928172588348389e-01
2.157079610022595850e-01,-1.285019520895684941e-01,2.329360710468096618e-01,-3.490199714435844505e-03,1.199787408778247482e-03,7.153937196237597322e-03,3.534144163131713867e-01
2.225239444770741315e-01,-1.357044852233066368e-01,2.386444822139400235e-01,-9.619875658822132219e-03,3.648760917286634261e-03,1.061085537577415201e-02,3.674474954605102539e-01
2.197843082560199113e-01,-1.189402014854071682e-01,2.350186317167633487e-01,-6.851299888054380831e-03,1.417480474561846893e-03,8.530852265377853599e-03,3.471192717552185059e-01
2.188556418737641063e-01,-1.350204198772316511e-01,2.350825405119497113e-01,-3.030192514931770936e-05,3.572216362068314152e-03,6.210898513190475645e-03,3.624746799468994141e-01
2.430760363389516954e-01,-1.372555513266078830e-01,2.384525958292993963e-01,-2.237722317506483059e-04,-2.172583069464825885e-03,2.856032598644094034e-03,3.780923485755920410e-01
2.130861637756104043e-01,-1.316499256795091721e-01,2.249941075548880509e-01,-4.139390881651118168e-03,2.874549654624723900e-03,8.741123119817287984e-03,3.512766361236572266e-01
2.209842801002889767e-01,-1.298092469093723444e-01,2.282747478545268938e-01,-2.507284039526111799e-03,1.729628039301596952e-04,4.073371785894542262e-03,3.545919060707092285e-01
2.519254596403445179e-01,-1.322204197650092838e-01,2.404793197268304816e-01,1.968807495938433485e-03,-4.189781129741698348e-03,9.656000218068439532e-05,3.786375522613525391e-01
1.868314426485455093e-01,-1.173894138549075178e-01,2.274151250636698984e-01,-3.826427730401781892e-04,4.374457423090170535e-03,8.869546177646673484e-04,3.265026509761810303e-01
2.231917442073454994e-01,-1.196468583702879479e-01,2.015811139207396019e-01,5.768836073557352326e-03,1.712113345688705268e-02,-8.451879646835632615e-03,3.343499898910522461e-01
1.647188041812280013e-01,-1.527886083237144088e-01,2.533482025169205842e-01,1.411937547228110656e-02,5.002261487420504860e-02,-1.003654169368559113e-02,3.810691237449645996e-01
2.271872736501527323e-01,-1.426699949361543429e-01,2.182582053149509649e-01,8.787081627261997957e-03,8.839454392151975884e-03,-1.242356282753646901e-02,3.667434155941009521e-01
2.489452188622812701e-01,-1.053431767449909129e-01,2.400060050316578653e-01,7.128982698817695404e-03,-5.741675272423938346e-03,2.379025011689156477e-03,3.502876758575439453e-01
2.538273566589406838e-01,-1.082130370358850013e-01,2.397616193203145063e-01,3.870876507260625522e-03,-6.665564324670173249e-03,-5.866511478778650007e-04,3.554686903953552246e-01
2.546233764128502108e-01,-1.020088486478564205e-01,2.415074033364573158e-01,-1.879023769303057954e-03,-7.022968145255799668e-03,2.450306851435870778e-04,3.504849970340728760e-01
2.520236845007739479e-01,-8.179634568410643070e-02,2.421594467834733422e-01,6.352882211702681227e-03,-9.999728606667101366e-03,1.187408174602241993e-03,3.296445310115814209e-01
2.440625833238049824e-01,-1.376915198808911778e-01,1.945461631481084364e-01,-2.092859163000048654e-03,-1.393033929807055036e-03,-1.095435639860366933e-02,3.600887954235076904e-01
2.490501418951210355e-01,-1.387150558492391550e-01,1.928500326427286526e-01,5.750803835913767537e-03,-1.357694498683436344e-03,-1.078716611753869487e-02,3.635680079460144043e-01
2.507621829125279977e-01,-1.354111351969792265e-01,1.943437627595825945e-01,1.181052755984065314e-04,-6.256756101905553260e-04,-1.181588133602821250e-02,3.618641197681427002e-01
2.387114621812358728e-01,-1.369020125636362661e-01,1.997880846559775825e-01,-8.346126332893813796e-03,-2.395682992794968737e-03,-7.894267407262078179e-03,3.583204150199890137e-01
2.511707608901866950e-01,-1.327031828203397157e-01,1.945085823857020946e-01,-3.687582423524815925e-03,-1.840094623770843763e-02,-3.577029347163853453e-03,3.604353368282318115e-01
3.454485056483102001e-01,-1.141456173273819874e-01,1.216021045843956594e-01,-2.366352332846348092e-02,-3.166574670417252046e-02,-4.127799627019334595e-03,4.039735496044158936e-01
2.823914571018211195e-01,-1.375956031579123051e-01,1.289314200174114522e-01,-7.742112504806279022e-03,-8.508016731432686526e-04,-2.357933772778228465e-02,3.705911934375762939e-01
2.429689707971034729e-01,-7.753394262827859040e-02,2.516150070485191348e-01,8.241497409093653673e-04,7.886085990532950077e-03,-3.256158982027813117e-03,3.252512514591217041e-01
2.466453223560330921e-01,-6.190818022558627898e-02,2.316966056141768204e-01,7.088995488088787982e-04,-2.601173580181317946e-03,-8.849397234852032085e-03,3.017830252647399902e-01
2.628131898090634855e-01,-4.138064054138065884e-02,2.435372602131778419e-01,-2.782154990088572116e-03,-6.240722564785192335e-03,-8.107309277018275332e-04,2.952691316604614258e-01
2.525000115067719264e-01,1.696551276956861920e-02,2.515959630029013239e-01,4.791334140585658849e-04,7.623514772190709884e-04,4.889648422997278608e-03,2.352414578199386597e-01
4.521968778142998469e-01,9.384358379389673432e-02,3.795598417769839861e-01,2.722740269957843809e-02,-2.446217943693860739e-02,3.186904186932217053e-02,3.387175798416137695e-01
1.979634285498020896e-01,-1.308909992695517777e-01,2.502936161133773596e-01,-8.559833076469614693e-03,-3.712913634299287551e-03,-1.017364444756370910e-02,3.586981594562530518e-01
7.793005048707540849e-02,-1.643896892308327473e-01,3.639674231841424357e-01,1.163162068342610267e-02,-3.209167898408413211e-02,1.606977586717201617e-02,4.627299010753631592e-01
1.004697189645407801e-01,-9.957531454420102957e-02,3.702359708903790736e-01,-6.339229407663727472e-03,4.832478671937883233e-03,9.458111885733158641e-03,4.089208245277404785e-01
8.441891969927557693e-02,-2.032425867797476859e-01,3.401598706040985798e-01,1.421099081694739315e-02,4.441138668911272930e-02,-6.130266329817789066e-03,4.778651595115661621e-01
1.679055010054394947e-01,-1.373836789788644430e-01,2.484627155339050320e-01,-1.659485991664937099e-02,-8.134814408377087636e-02,-5.509466949831468008e-03,3.808595240116119385e-01
2.714658998898484832e-01,-1.382064128482874688e-01,1.302171254682641111e-01,-9.863140591362157435e-04,3.951320426481880199e-02,1.753425469371049268e-03,3.668963611125946045e-01
2.268463137567872379e-01,-1.372978192388906449e-01,2.282466635515439934e-01,-3.030533173670610196e-03,7.691827637782605630e-04,8.958080793022786103e-04,3.648898005485534668e-01
2.320579736451410524e-01,-1.366264177684586856e-01,2.309050483964279477e-01,-4.734461698901969856e-03,-1.122765058075968908e-04,1.650530534843771798e-03,3.682117462158203125e-01
2.014528124005783294e-01,-1.272994303131237681e-01,2.005012634522223003e-01,-4.117957028707371764e-03,1.462275092356868193e-02,2.665909920103471872e-03,3.293626904487609863e-01
2.053838846186788469e-01,-1.289563563386377787e-01,1.735945900752856597e-01,-4.231138626201431593e-03,3.053042974247525271e-02,6.156652077255766325e-03,3.242364227771759033e-01
1.072681533977666163e-01,-1.327392160637952956e-01,2.535251147419577689e-01,-1.125616005158470642e-02,1.168319094524878331e-02,3.599997959249308203e-03,3.390071690082550049e-01
2.404867812462045118e-01,-1.243664976715003478e-01,1.986550642849232717e-01,-4.928680810031400850e-03,3.358206141088109701e-04,3.270973880713556788e-05,3.459459245204925537e-01
8.994904565372258132e-02,-1.485610791149965526e-01,2.931887357149371987e-01,2.594878972155749419e-02,-2.825474714665812681e-02,6.094271882144898858e-03,3.888375163078308105e-01
1.552852372592968822e-01,-2.310892426659019172e-01,1.772849886278173304e-01,2.178156613213493020e-02,1.152408436727618696e-01,1.967617918942679567e-02,4.479905068874359131e-01
1.696410512877700727e-01,-1.325399714052590827e-01,2.280347996418373713e-01,-1.044481259338803439e-02,7.817530507614814383e-03,9.869790062500242642e-03,3.364097774028778076e-01
1.738027162202535614e-01,-1.186485275826397456e-01,2.299480986813350059e-01,8.290726021503284394e-04,1.056745988374301927e-02,2.379487213966647793e-03,3.247366249561309814e-01
1.469446348250912915e-01,-1.408344172379049630e-01,2.435834443859907217e-01,-1.567413523563414290e-02,2.160539803955156303e-03,3.134626396892996065e-04,3.474446833133697510e-01
2.228800134737647931e-01,-1.140499823440716265e-01,2.019276683602861944e-01,-3.950534574862669956e-03,1.679705154890173344e-02,5.049815242812119402e-03,3.284373581409454346e-01
2.443521755840426524e-01,-1.394032179428887630e-01,2.180000878434135148e-01,1.855093450995808123e-03,7.464346346990462797e-04,3.281811338743624660e-03,3.713410496711730957e-01
2.406071497656364355e-01,-1.337586138208830544e-01,2.523089495954324302e-01,-1.549963850817326436e-03,1.113343621958246335e-03,-2.751938114777530142e-03,3.803959190845489502e-01
2.497229798037982340e-01,-3.668912337483537511e-02,2.616036718736232114e-01,-5.203100663946961212e-03,-1.943506272424109322e-03,2.284327731089209890e-02,2.953537106513977051e-01
2.843484323913459955e-01,-8.202965176296353467e-02,2.411417653042588483e-01,8.168991511726432508e-03,4.694071728325509459e-03,1.352893956577526889e-02,3.479728996753692627e-01
2.438976018225226250e-01,-1.326625114554969564e-01,2.163359519130556019e-01,8.806518964717598716e-04,-6.933188046732538154e-05,2.031031119388277892e-03,3.635839223861694336e-01
2.381657488962699576e-01,-1.349841088342113027e-01,2.387722817112321594e-01,2.145849412639756586e-03,-2.542997824329503928e-03,-1.469889496211638884e-03,3.735066354274749756e-01
2.416061851620090462e-01,-1.337899637371650352e-01,2.304558862714644607e-01,2.456266546551159717e-03,1.440744304095763423e-03,-5.435598404665110267e-03,3.700996935367584229e-01
2.407019568229252782e-01,-1.285958474370436644e-01,2.497848858719649567e-01,1.843216035493960153e-03,-1.540982980222774896e-03,-5.982605147293277616e-03,3.740887045860290527e-01
2.405247466285585500e-01,-1.407694786136469145e-01,2.391895003389240548e-01,-2.926145580730212946e-04,1.239539737436213878e-03,-1.611183790423883436e-03,3.806449770927429199e-01
2.392431043003414026e-01,-1.402119978671078626e-01,2.412340839563935635e-01,-8.442991451219870880e-04,8.019276139350096227e-04,-2.006771143270626992e-04,3.804599940776824951e-01
2.331995943442314867e-01,-1.400674956228921131e-01,2.432085434247465705e-01,-2.349458766959167631e-03,3.276311111073371379e-04,-1.091941085525833946e-03,3.783979117870330811e-01
2.368392311617772972e-01,-1.419267334078150311e-01,2.404356193029096866e-01,-1.814740003237997126e-03,1.156895913542029149e-03,-1.027540134364965163e-04,3.805952072143554688e-01
2.438951424901409371e-01,-1.376320870498236038e-01,2.411279152583525598e-01,-7.826348014759959646e-04,5.200105524965310810e-03,-1.089047592156491048e-03,3.802649378776550293e-01
2.406708186983834707e-01,-1.385995906127667210e-01,2.441975321650387554e-01,-1.152391773811793077e-03,5.200566457401873538e-03,-9.383828091665119813e-04,3.811611533164978027e-01
2.372017333998355237e-01,-1.392568510630903256e-01,2.381605128853853670e-01,-1.690556664003481065e-03,6.377090938921001250e-04,-1.802748247679878627e-03,3.769648075103759766e-01
2.441488817290123903e-01,-1.395488982268222600e-01,2.412933126004560003e-01,-4.001726406141812393e-05,2.412585741534536542e-03,-9.244076011016506876e-04,3.823041915893554688e-01
2.294409661900207453e-01,-1.366414439278452186e-01,2.324489654281499118e-01,-3.986446861470366657e-03,-1.358671336344206924e-03,-4.617415811104551293e-03,3.677549958229064941e-01
2.546763938842856456e-01,-6.206494074197324573e-02,2.364994051516645379e-01,-1.265152607188738121e-02,-3.844848336478221256e-03,-9.878437264910057761e-04,3.089102208614349365e-01
1.613707858583610932e-01,-1.147945919391391567e-01,2.443111883695582021e-01,-1.537672317440317215e-03,-6.049803051022628261e-03,-1.707199776867305142e-04,3.258353471755981445e-01
2.616939273754918527e-01,5.995092998123535688e-03,2.534669688655721842e-01,-1.629001219843059095e-02,-1.539879200836796053e-03,5.083209958773990747e-03,2.534298300743103027e-01
2.488044965564233935e-01,-5.906394058512173806e-02,2.390508554206841330e-01,6.654907996757540274e-04,1.334385868983264901e-03,5.084107760496130515e-03,3.032482266426086426e-01
2.586708455719343713e-01,-5.554126875622170112e-02,2.448927596990228828e-01,-1.237333373514745358e-02,5.749583147926604944e-03,5.750343952867045295e-05,3.084612190723419189e-01
2.555090754351875826e-01,-4.001838082322309309e-02,2.608182305943781421e-01,-6.201980562088324836e-03,-1.064145408762646355e-05,-1.187525904352968852e-03,2.984179854393005371e-01
2.579734786395382340e-01,-5.593647387686381811e-02,2.398760198253672149e-01,-1.104373926001769694e-02,4.323879393145028775e-03,8.863894022724882289e-04,3.059580624103546143e-01
2.516637418900816159e-01,-1.123207775009111148e-01,2.339951215367179205e-01,-1.344945979209892506e-02,1.252662533460704086e-03,-2.585417850807796188e-04,3.562490344047546387e-01
1.777591620491931479e-01,-1.238644688295056362e-01,2.444823380180332628e-01,-9.755616005573893718e-03,-6.703841414350067418e-02,1.279999508954836676e-02,3.602964878082275391e-01
1.481263714071283100e-01,-1.498421295719144786e-01,1.569439889494994300e-01,1.752551887877602105e-02,-1.073464343457977282e-01,9.076353891355396289e-03,3.566913008689880371e-01
1.437130127520717671e-01,-1.480094379631063661e-01,2.387222849330522811e-01,2.814343672650682429e-02,-6.807626047484224840e-02,4.120753617498372316e-03,3.717194199562072754e-01
1.477338032496597897e-01,-1.259093162831542434e-01,2.419155282099308413e-01,6.390949023872452561e-03,-2.577473729806921410e-02,1.774396190101041812e-03,3.341375887393951416e-01
1.437273406168239342e-01,-1.299063976040466528e-01,2.265784617381766120e-01,6.530602235555718095e-03,-4.574338290586525690e-02,7.226385383511406760e-03,3.331254720687866211e-01
1.686458868384781151e-01,-1.316088311928350629e-01,1.930163995396921850e-01,-6.113213307712635908e-03,-3.744467275730085226e-02,-5.488661564030302212e-03,3.201140165328979492e-01
1.672237141742866084e-01,-1.215436457934140069e-01,2.290496617737245999e-01,1.036573735619503622e-04,-1.597045881538938783e-02,3.962390272592894100e-03,3.253838419914245605e-01
2.428795731917648415e-01,-1.358761624591656725e-01,1.578667837681100861e-01,4.974630925820308289e-03,-4.707996777326506344e-02,4.251640978832941890e-03,3.539237678050994873e-01
1.271413548200569232e-01,-1.231072864659775862e-01,2.543007334498403327e-01,-7.284180356150007397e-03,-3.884676814328652788e-03,-2.377585998454077865e-03,3.329215645790100098e-01
1.332889069207406907e-01,-1.429450768493264745e-01,2.411215157751182003e-01,-2.547865323769696322e-02,-2.451969860277095417e-02,-2.558208542970544577e-03,3.485554158687591553e-01
9.752692458346287618e-02,-1.689374856897052912e-01,2.376545475850556643e-01,-9.847323137709168561e-03,-2.919697446208720237e-02,-6.035753346528534638e-03,3.618503212928771973e-01
1.466588746440945501e-01,-1.391509344972490236e-01,2.411443911274207541e-01,-9.014095135372296452e-03,-2.246837221123501593e-02,-8.106244646252785957e-03,3.457962274551391602e-01
1.039277360633921593e-01,-1.559582323156175621e-01,2.792419729689300523e-01,-9.680347679324848714e-03,4.717285215203725207e-02,-8.869500423840109707e-04,3.883256614208221436e-01
1.883750957475915366e-01,-1.473370156365138572e-01,2.416334114435355618e-01,2.403934486170634238e-02,-4.368937712585056754e-03,5.575998154282540281e-03,3.678351938724517822e-01
1.362292011369883038e-01,-1.160534787369655318e-01,2.677038743609769234e-01,4.877216489909075303e-03,2.666947618323497679e-03,1.635308424755728234e-03,3.379373252391815186e-01
2.376324878276088182e-01,-1.024104808510223480e-01,2.123446433932139332e-01,3.162252664888807151e-03,2.109719145703452259e-02,-6.215511654285235318e-03,3.303799629211425781e-01
1.618729019749105547e-01,-1.458914050406667495e-01,1.660115148234490579e-01,1.931826166947716444e-02,9.783722886823799370e-02,3.712513629948468140e-04,3.547479212284088135e-01
2.779699281828822421e-01,-1.432742544777685922e-01,1.753476327985960537e-01,5.735399809131892096e-03,1.143233755876718778e-02,-1.807471938887749568e-02,3.823870122432708740e-01
2.424873419678407194e-01,-1.390090523109443199e-01,1.940614069817874487e-01,-6.626731722666760922e-03,-4.448140548521770272e-03,-1.362574555226029292e-02,3.607746362686157227e-01
2.460587022696111847e-01,-1.356476045748005177e-01,1.819054872126351363e-01,3.432897009950196775e-03,1.161958757897724182e-02,-8.659473736872414645e-03,3.549549281597137451e-01
1.465951039820299617e-01,-1.501394763512807762e-01,2.073906418026919551e-01,-2.291686777981643414e-02,-4.536553472132107828e-02,-1.207981754126173646e-02,3.434749841690063477e-01
2.400750893135346897e-01,-1.348073676629095718e-01,1.984871135560955513e-01,8.200261249584138434e-03,2.618370621165167552e-03,-9.806684130532636323e-03,3.566323518753051758e-01
2.479245090347250713e-01,-1.293053171966257464e-01,1.782004551692410454e-01,4.481167458482608959e-03,8.584197393881359828e-03,7.056898384096032574e-04,3.480583131313323975e-01
2.628251142518482353e-01,-3.811376837612545643e-02,2.430430631886436599e-01,1.151282747666690018e-02,-1.221873070076439499e-03,-2.513699507584994750e-04,2.922407388687133789e-01
2.593324377777921907e-01,-1.163688375561855448e-03,2.644525223150931970e-01,1.331675514407504486e-02,1.621613823597093729e-04,-2.484469390351737045e-03,2.641378641128540039e-01
2.626820907569722419e-01,-3.563876346567448894e-02,2.437551454756485825e-01,2.498946482314623116e-02,4.414944199986241616e-03,-2.787899919502105466e-03,2.926815152168273926e-01
2.383674559869843335e-01,-1.093221447231550181e-01,2.782394643407990475e-01,-4.166795759355095344e-03,-4.555196664851227963e-03,1.708111835276042087e-02,3.705813586711883545e-01
2.229387852945454163e-01,-1.218380682495959627e-01,2.463711692111073548e-01,-1.004324084221949395e-02,1.664572276028260592e-02,4.124146323491740531e-04,3.586550652980804443e-01
2.417925654569243743e-01,-6.685056246639706212e-02,2.811649997582259530e-01,3.315778467099243093e-02,-1.163227231560789933e-04,1.259656877099872389e-03,3.350610733032226562e-01
2.552841105630202501e-01,-8.959710507783144595e-02,2.414179124935116327e-01,5.445398398449839694e-03,5.463826344104875422e-03,1.046279816923348171e-04,3.384253084659576416e-01
2.852085046045570449e-01,-1.899910180961883466e-02,3.359902392560384365e-01,-3.327222891636674729e-02,-4.662680476348669834e-02,1.558232702690502333e-02,3.480531275272369385e-01
2.500481597499344955e-01,-2.247306017983144444e-02,2.735708669254408587e-01,1.625877183375279336e-03,-2.067513641858878884e-02,-1.450396623328698877e-02,2.883625924587249756e-01
2.812675408232493401e-01,5.390764053225721719e-03,3.114964365629355747e-01,-1.674591275101334348e-02,-7.037933092006194886e-03,1.552363422440571940e-02,2.950831353664398193e-01
2.426291253981605611e-01,-1.154219428091588229e-01,2.587083488424534172e-01,2.041673382287632465e-03,7.301030863223489670e-04,1.049405796595284527e-03,3.663791716098785400e-01
2.367611706285357165e-01,-1.037652958309829843e-01,2.581077416851093598e-01,-4.472946175249983575e-04,-2.866229565281654471e-03,6.254659285084640877e-03,3.518886566162109375e-01
2.425570275800137121e-01,-1.258723303836653540e-01,2.509507574512321870e-01,4.510424266018181298e-04,-4.631943073532264823e-03,1.158576301482042810e-03,3.727896809577941895e-01
2.689433728229521092e-01,-5.129331320408522799e-02,2.855318349682890999e-01,-5.830875893420088898e-03,8.701012077587777505e-03,1.094377685920656929e-02,3.298899233341217041e-01
1.763110903802249108e-01,-1.500781411019577183e-01,2.934061075694260334e-01,-2.591323118618801130e-02,-1.820354662442148774e-02,4.184004348011197832e-03,4.018965363502502441e-01
2.423253036650470649e-01,-1.225839093206175096e-01,2.474680101082779027e-01,7.711801412543313645e-04,1.101467071927545805e-03,-7.030324625168772558e-04,3.675169646739959717e-01
2.385766835696069843e-01,-1.217726921875255247e-01,2.540330702039741428e-01,-4.868556503219709567e-05,-5.049974181584530007e-03,-2.033870565354000282e-03,3.684415817260742188e-01
2.336391920105529152e-01,-1.334626818930929049e-01,2.537642758686299294e-01,-1.575682444256048089e-03,1.167076278919729074e-03,2.059427855112668567e-03,3.775990307331085205e-01
2.384997521936374487e-01,-1.038620439637517046e-01,2.619837760612220290e-01,1.208556333286074690e-03,3.253269939921160040e-03,7.539986513134904617e-03,3.549786210060119629e-01
2.353698289860798321e-01,-1.230282607573714021e-01,2.550092965564043079e-01,2.403350136194778010e-04,3.137427623340547939e-03,-1.373394412738787596e-03,3.686583936214447021e-01
2.338813732391504807e-01,-1.385316839327556671e-01,2.267090810093802533e-01,4.367629918595733809e-03,-9.805648278682658689e-04,-4.519363203877226065e-03,3.690437078475952148e-01
2.466591712850083606e-01,-1.387275151336605505e-01,2.385178153657764311e-01,5.684630191520440544e-04,1.613192063068153185e-03,1.344561461858031614e-03,3.813998103141784668e-01
2.361428568152664775e-01,-1.404617341935509578e-01,2.371198352305413093e-01,-1.227130984624847255e-03,2.602798693100210389e-03,3.528362335478028768e-03,3.771764934062957764e-01
2.468959070929534483e-01,-1.381180790516302603e-01,2.390973601241457303e-01,5.835697449394382967e-04,1.634158696118130074e-03,1.622892342820524050e-03,3.811967670917510986e-01
2.399320779606627652e-01,-1.412318449908187556e-01,2.384888554699702568e-01,1.009093767500023899e-04,1.363658997186732724e-03,7.951923614974416941e-04,3.804542422294616699e-01
2.500964863755945622e-01,-1.371521726579193190e-01,2.384707200061859655e-01,7.668924015561656270e-04,1.816993669156083228e-03,8.754104646780438417e-04,3.815869390964508057e-01
2.417848525184701780e-01,-1.338200267023830214e-01,2.398120035184834742e-01,3.350726902672819790e-03,2.791004482163812923e-03,3.677508029110200700e-03,3.747526109218597412e-01
2.296448101993817659e-01,-1.378750544086300156e-01,2.365107052854065750e-01,8.341339363527707634e-03,-8.882749885619129794e-04,6.688016691275676211e-03,3.714655339717864990e-01
2.485563375040023282e-01,-1.267061837170337379e-01,2.429395455103174895e-01,1.623712689353020225e-03,7.995747878447239526e-03,1.276257289458726345e-03,3.727604150772094727e-01
1.334339745967184632e-01,-1.224496909500321640e-01,2.505926370093768396e-01,1.015192063925761390e-02,-1.283845151636887200e-02,3.285427634151370357e-03,3.316890597343444824e-01
1.256097141523284111e-01,-1.239846605390369783e-01,2.539004863245153398e-01,1.080788626352690435e-02,-4.032133160641198505e-03,3.377594183067505855e-03,3.334815800189971924e-01
2.027600515554852656e-01,-1.318381688519811579e-01,2.405908986470054467e-01,5.048488334526228180e-03,-1.570485967461925179e-03,6.570768086531792417e-03,3.553289473056793213e-01
1.563081685427249456e-01,-1.307254637458989954e-01,2.496368646453155371e-01,1.070138700338307304e-02,-1.852221419416947602e-03,3.006545836243424991e-03,3.439011275768280029e-01
1.068431834647275425e-01,-1.461272843938944688e-01,2.544446132653007675e-01,2.500870550645940132e-02,-7.238018939940177483e-03,5.324780040062874337e-03,3.538892269134521484e-01
1.774370922563511810e-01,-1.285177893198837795e-01,2.273994318656775704e-01,5.635482236671420994e-03,-1.141277242139370623e-02,7.075009310430539072e-03,3.347043991088867188e-01
1.375157826079976831e-01,-1.205639811195646782e-01,2.559801949786092434e-01,7.169036160393799529e-04,-6.044067771089099012e-03,-1.157846752617851423e-03,3.336576223373413086e-01
1.830900232155039387e-01,-1.249996251319745871e-01,2.536070157184133755e-01,1.202200704997992767e-03,3.367834760706856986e-04,-3.223253875502320740e-04,3.487440645694732666e-01
1.938857209676680404e-01,-1.382722879861272292e-01,2.524610204746882136e-01,1.556820174815696199e-02,2.837092582386719052e-05,-2.564844239443471278e-03,3.660097122192382812e-01
4.239713878225795374e-02,-1.615483683218816024e-01,2.885404882692814144e-01,-5.103854296834506310e-03,-4.365200971783934208e-02,1.132892274432008642e-02,3.981957137584686279e-01
2.378446427232313587e-01,-1.354137915609991971e-01,2.502763174713274474e-01,-1.461850948751953951e-03,2.722910034030837220e-04,2.512638838075004991e-03,3.796606361865997314e-01
2.390077280242818292e-01,-9.224329063610831048e-02,2.578839152916782007e-01,-3.244655569034271460e-04,-1.242311231990063294e-03,2.822285207190017645e-03,3.411233723163604736e-01
2.426582746912419042e-01,-6.454697433514541838e-02,2.608544116635203025e-01,-1.809647941959533434e-04,-6.191531950219254961e-03,-1.003623518520831842e-02,3.173537254333496094e-01
2.345570499500309047e-01,-1.299587740679496173e-01,2.457215443383530540e-01,-2.022119152293314851e-03,-1.195954250277479671e-03,5.472013656109753947e-04,3.702479302883148193e-01
2.443799309883286641e-01,-3.076270927192112370e-02,2.520752289636180032e-01,8.093877583731690778e-03,-1.988686907723106675e-03,1.701255492837315487e-03,2.794585525989532471e-01
2.488220965064517620e-01,-8.397573729271740062e-02,2.563002610261218561e-01,9.793615387446341809e-04,1.050062376825932223e-05,-1.055900661298722273e-02,3.370999693870544434e-01
1.896196265299708861e-01,-1.217627045752852077e-01,2.179311085075983367e-01,4.916514471835322416e-04,1.130270936535946076e-02,3.376236843401088459e-03,3.270999491214752197e-01
2.210712543775564254e-01,-1.232716465211416007e-01,2.165159761046838161e-01,-3.511374468239346434e-03,2.806336588400548324e-03,1.191430681621790527e-03,3.421828150749206543e-01
2.276347645821081844e-01,-1.315855343255085685e-01,2.264329577044851272e-01,-4.682073824261558451e-03,1.727793463118493082e-04,9.909021413769189546e-04,3.587168157100677490e-01
2.318775982810101222e-01,-1.358333145353965987e-01,2.358866170982533705e-01,-6.282369046953662634e-03,1.291449148141521688e-03,4.694619261386189304e-03,3.699879348278045654e-01
2.375337467917524870e-01,-1.340405341288727070e-01,2.548426956217084149e-01,-3.629113833688850268e-04,1.889517846282316423e-03,-7.574262974309952604e-04,3.805409669876098633e-01
2.394450099292878276e-01,-1.164932875408122986e-01,2.501849504387604894e-01,-9.887444343223256681e-04,6.788228655134830383e-03,2.232786087239062821e-03,3.616438806056976318e-01
2.383369421620711304e-01,-1.251486617053048089e-01,2.552231058857852286e-01,-3.104755633516328647e-04,4.629801426268879798e-03,-1.355130197050094954e-03,3.723102211952209473e-01
2.549178720879499149e-01,-1.111696987230991890e-01,2.280027773257881640e-01,-7.037096750198391752e-03,-1.905482359014939423e-04,-9.214269347352587423e-04,3.536134362220764160e-01
2.381148404078449188e-01,-1.378461746624628226e-01,2.443953050134339000e-01,-2.742827735417811483e-03,1.709467332954359067e-03,-1.758829233397257415e-03,3.791938126087188721e-01
2.373725635276261459e-01,-1.373388878268469171e-01,2.506115901606373875e-01,-1.657430727205685310e-03,1.466286523077666056e-03,2.888639799288590746e-04,3.815228641033172607e-01
2.422178858166340043e-01,-1.292735114226523652e-01,2.452965601279028518e-01,-7.921561861557326707e-04,7.110666155272408508e-03,8.943302496896746818e-04,3.732492625713348389e-01
2.390766397389026410e-01,-1.391520531208306211e-01,2.449182920327449553e-01,-3.950116317608952420e-04,3.348633333898208726e-03,-5.562875295427973429e-04,3.812290430068969727e-01
2.398184887019537415e-01,-1.318354204049842215e-01,2.388559910029465494e-01,-4.565825974899717296e-03,2.359695027119689393e-04,-2.926165599777305615e-03,3.712926506996154785e-01
9.686787384747039265e-02,-3.150079282098329214e-01,1.682626442053015703e-01,-5.958175842588532382e-03,-1.121153540296697115e-01,6.930297072467165274e-03,4.920414686203002930e-01
2.375928825029461899e-01,-1.270753067749068599e-01,2.557153873493350771e-01,1.196011508044679972e-03,4.975292308695470310e-03,-4.434865409224542782e-03,3.742426633834838867e-01
2.847130552856191321e-01,-7.289187626598545022e-02,2.721970256800917420e-01,-8.761698488642272534e-03,5.936233221786363541e-03,-3.931448375353472843e-03,3.520575761795043945e-01
2.365980094531561218e-01,-1.003867821207503619e-01,2.575950915825041543e-01,1.207680983775434851e-03,2.409919870258494991e-03,-6.832173024228808608e-03,3.481912612915039062e-01
2.451548900892960292e-01,-9.966419496221165519e-02,2.599891735942137516e-01,-1.820603968669306941e-03,4.399848017990133295e-03,-7.252801993566233320e-03,3.527906239032745361e-01
2.867562734727578944e-01,-7.088638139568811947e-02,2.755664333621619111e-01,4.637320659539921272e-03,4.754599828478442945e-03,-1.997434811076451155e-02,3.540632426738739014e-01
2.416657984213534394e-01,-1.491163319854332814e-02,2.570132554887533116e-01,-2.351058632017800996e-03,2.666207370072440873e-03,-1.360967801156322526e-03,2.646673321723937988e-01
2.402188543117193265e-01,-1.412645031576237609e-01,2.387767115272864948e-01,1.364040402721067389e-04,-4.398672395481479009e-04,6.847243288226462481e-04,3.807670176029205322e-01
2.432535514673048738e-01,-1.395821347811483371e-01,2.391083531621445435e-01,-4.059182542276123899e-04,-1.877106241610053058e-03,1.571580385071533843e-03,3.808042705059051514e-01
2.402693128032941938e-01,-1.411726534345454087e-01,2.389504968175607258e-01,-2.043124013221251950e-04,-8.062374474244484151e-04,7.469627705759889717e-04,3.807891905307769775e-01
2.361975193809943696e-01,-1.416450666745751596e-01,2.360654038519465203e-01,-8.885506692177328738e-04,-1.865172269087407965e-04,9.871267450356638676e-04,3.777836859226226807e-01
2.489949309408086009e-01,-1.098846394542507265e-01,2.470949699335652783e-01,-1.668144462798222582e-03,-1.029407114946585475e-02,-2.938040040851469178e-03,3.584249615669250488e-01
2.393187481113913107e-01,-1.374600981651666887e-01,2.379898384791445387e-01,-6.127699719199498907e-04,-1.471109249489386791e-03,4.369065322385901930e-03,3.762024044990539551e-01
2.371758649975719835e-01,-1.370987812495275127e-01,2.362979283987074741e-01,-8.439017355551209180e-04,-1.008818512965343681e-03,2.511192360554382989e-03,3.738687038421630859e-01
2.366660275313385853e-01,-1.367073023344048677e-01,2.449665964076969682e-01,-1.897264134329748348e-03,-1.778333269239573775e-03,5.854905903192055526e-04,3.776202797889709473e-01
2.015288044986572602e-01,-1.263271621968337366e-01,2.907924708978980033e-01,-5.697285285930315732e-04,1.163569259847307101e-02,-1.212809094889321032e-03,3.809655010700225830e-01
1.785749503934171978e-01,-1.207258866780972772e-01,2.254591768563873055e-01,5.299636118013862501e-03,1.356328098768853560e-02,-4.517590287777702857e-03,3.263571262359619141e-01
1.772058719878051858e-01,-1.111220140976088011e-01,2.397863352163989992e-01,7.601416083159146832e-03,2.631490486644844085e-02,-2.374714277505748840e-03,3.276593685150146484e-01
1.806568614876851719e-01,-1.212357250961899058e-01,2.472746311573471856e-01,8.430939668007318005e-03,9.153334341725386653e-03,-4.430484497988670424e-03,3.408987522125244141e-01
1.173535962350482909e-01,-1.638090912644151742e-01,2.495985633844268192e-01,-1.190217874076182625e-02,9.295315441600017145e-03,6.200818580179963402e-03,3.667738735675811768e-01
2.375242759643797774e-01,-1.337186723706264013e-01,2.381915219424733388e-01,4.922162230396405838e-03,2.205934175681507643e-03,-3.877717202504851572e-03,3.717551231384277344e-01
2.385795389884493023e-01,-1.345489497352221897e-01,2.395960461891780413e-01,2.918251469438228919e-03,-1.534818191369763428e-03,-4.227160429419274217e-03,3.737531304359436035e-01
2.500113564142598666e-01,-1.325401800232131333e-01,2.361223385267523511e-01,1.740769454545499631e-03,-4.042113433161736470e-03,2.502952404860080485e-04,3.758771121501922607e-01
2.549303550041635003e-01,-1.245625566500577069e-01,2.390895634037429884e-01,-1.842329119256805141e-03,-4.772232650353788568e-03,1.114972513734778991e-03,3.719362318515777588e-01
2.514838927885693076e-01,-1.131507904096399619e-01,2.392934588021509434e-01,7.600226580361541667e-03,-5.498652447086544576e-03,2.168175412003851658e-03,3.590823113918304443e-01
2.574946670200617405e-01,-5.626450299654067733e-02,2.376812541214209373e-01,1.250416971434154152e-02,-8.923169551366815378e-04,7.282117003717562343e-04,3.051127493381500244e-01
2.466499776086960583e-01,-1.245750349028000581e-01,2.451929004119330902e-01,-5.783878354648388891e-04,-3.941582533244931616e-03,-1.659774205184831293e-03,3.705740272998809814e-01
2.566928846196011027e-01,-5.772394262702471024e-02,2.372848893605847831e-01,1.199784036234805007e-02,-5.875972414257941024e-04,1.446035825752576155e-03,3.058947026729583740e-01
2.110555327670755599e-01,-1.393949987314852534e-01,2.474345414321465486e-01,-1.774590440360693244e-02,-1.658218275799060865e-02,-3.762891228847187707e-03,3.724247515201568604e-01
2.563801432079031994e-01,-6.767887329549923670e-02,2.496335481544312840e-01,1.131091309892226504e-02,-9.869121399153952742e-03,-1.100431211190515055e-02,3.223550319671630859e-01
2.515947306257192984e-01,-1.090000720803373235e-01,2.444444774425216238e-01,-2.769417723664601913e-03,-8.172147031740916584e-03,-2.515134066293531027e-03,3.574125468730926514e-01
2.378335921877510750e-01,-1.390770848994354048e-01,2.444512002147617158e-01,1.298941951897730849e-03,1.275647065991831336e-03,2.623231216610510952e-04,3.802760243415832520e-01
2.386814132368551555e-01,-1.386545454850943160e-01,2.446921184153090234e-01,1.594342373204083417e-03,1.357163156274803200e-03,2.662007694512186348e-04,3.803944885730743408e-01
2.388821262732427619e-01,-1.361611323814362895e-01,2.490321523535283244e-01,1.174831654050698462e-03,2.382100775659152202e-03,3.613472077099565832e-04,3.802482485771179199e-01
1.452263761345504722e-01,-1.390264190402007438e-01,2.455537907952017318e-01,1.432470666912157888e-02,1.628600296287385047e-03,-1.721722404835540707e-03,3.464333117008209229e-01
2.459184656595854723e-01,-1.198442848502384028e-01,2.543020143516606657e-01,-2.308827626917495622e-03,9.282961923501529752e-03,-4.922756662122220253e-03,3.704946339130401611e-01
2.346243444826674462e-01,-1.391196951878169996e-01,2.284639538420150662e-01,6.184733808733374090e-03,-5.524599760260016012e-04,3.573452981527261776e-03,3.709098696708679199e-01
2.382944076918102339e-01,-1.361468079051856850e-01,2.467579579989577776e-01,-4.235399127485623175e-05,1.170122354672264433e-04,-1.166849049531465485e-03,3.787493705749511719e-01
2.101733851037098089e-01,-1.343273394075900073e-01,2.292138072057753884e-01,6.117687283190851970e-03,-1.413567238420678288e-03,7.981539686526336816e-03,3.548409640789031982e-01
2.077211978123920944e-01,-1.210767235911717060e-01,2.194993082008941943e-01,-3.733362373474253745e-03,-1.652369024987868779e-02,-5.571443082654440292e-03,3.362639546394348145e-01
2.207697040039023340e-01,-1.250669105293407690e-01,1.919895927293953086e-01,-6.599228850140893832e-03,-7.771174403480247961e-03,-6.594438614888118930e-03,3.330470323562622070e-01
2.313382473631947212e-01,-1.381752014904411574e-01,2.321202483025393282e-01,-7.136877555210312425e-03,-2.751047823957773926e-03,-1.024385124797195373e-02,3.705672323703765869e-01
2.501151790816904530e-01,-1.110422750069634951e-01,2.306469129853954692e-01,1.389122440438116807e-02,-2.774199603167833844e-02,-2.620798196881434471e-03,3.559367358684539795e-01
2.397610384936823547e-01,-1.312839573070071764e-01,2.284742220721749373e-01,-7.784809075520928226e-03,2.213969344983779917e-03,-1.379098312638991995e-03,3.658088147640228271e-01
2.270694391065425921e-01,-1.336223660292061022e-01,1.705911478155289485e-01,-7.616110233576606561e-03,-9.136269304349652065e-03,-9.172817092437324932e-03,3.370370566844940186e-01
1.221856342584715233e-01,-1.664435274254985608e-01,1.577735213194199626e-01,9.626508869396114762e-03,-1.059733241633188938e-01,-3.214164406589241699e-03,3.589498996734619141e-01
1.863312695102816163e-01,-1.284361283364019723e-01,2.038220322549087193e-01,-1.127205044289896797e-02,-2.817077633915510484e-02,-1.016418759890627341e-02,3.285754919052124023e-01
2.123565414810233420e-01,-1.183203350523628766e-01,1.968743590814260869e-01,-5.230416344643419591e-03,-2.266619803437477237e-02,-3.506030581119182546e-03,3.257721662521362305e-01
2.122614225414171663e-01,-1.288017964098020496e-01,1.889484104046745272e-01,-5.916267850184374517e-03,-2.361494410836680047e-02,-5.948941624895271937e-03,3.328672051429748535e-01
1.876746834977077727e-01,-1.334576366567639671e-01,2.037044531467988584e-01,-6.914121094379403233e-03,-2.708638622398644100e-02,-7.575481071161922070e-03,3.332374393939971924e-01
2.325266511225838051e-01,-1.301576204341126086e-01,2.104611565872906431e-01,-1.420892114810639976e-02,-1.359503275911829942e-02,-1.314027071260544070e-02,3.545449376106262207e-01
2.264785942897381277e-01,-1.469955250955535531e-01,1.323577564454752054e-01,-5.128330029146289069e-03,-7.373838703377028070e-02,-1.859803612524508001e-02,3.614118993282318115e-01
2.396966131713850756e-01,-1.376944360679211443e-01,2.407295553804806310e-01,-1.846385250054637019e-03,-4.274232149665585685e-03,3.359110416041948509e-03,3.780393898487091064e-01
2.192369096528056227e-01,-1.320666715925939427e-01,2.185054555429668810e-01,-4.961174250973402269e-03,2.539108291967381685e-03,3.311785448299848014e-03,3.511180281639099121e-01
2.374074777421502636e-01,-1.338061280828578004e-01,2.387693863577497466e-01,-4.780593193761168216e-03,-2.000005573866344213e-03,2.063148016116759294e-03,3.720218837261199951e-01
2.268980199464916414e-01,-1.313299473806233408e-01,2.289348448675903036e-01,-7.892202730368577538e-04,4.503754720900707406e-04,4.526341099850209396e-03,3.593396842479705811e-01
2.182174116105718431e-01,-1.328127194806235645e-01,2.164719672503330195e-01,-5.120913416265652530e-03,3.023240982003685354e-03,7.536954232778775645e-03,3.505552709102630615e-01
2.254818654831653169e-01,-1.309704111768761614e-01,2.141367638408902818e-01,-6.412666007528535980e-03,2.129970722609769891e-03,3.816926653505491041e-03,3.511746525764465332e-01
2.266432149527969342e-01,-1.326636403170594058e-01,2.130160530886288650e-01,-8.505116392799546426e-03,3.068588538400235551e-03,5.189762131072686233e-03,3.531527221202850342e-01
2.350112276321324190e-01,-1.378444554815873857e-01,2.263165648103221128e-01,-7.041015416485243289e-03,1.242363345110378227e-03,3.908238183782062128e-03,3.688553571701049805e-01
2.435688453487389327e-01,-1.393162962522519477e-01,2.385479292129060180e-01,-6.020953838225854508e-04,2.847387411592491261e-03,-1.141418757300400287e-03,3.804380595684051514e-01
2.087367787538014774e-01,-1.322099054106891936e-01,2.688051668573228081e-01,1.231679275629587317e-02,-2.599320420257377959e-02,9.833350087585202362e-03,3.782923519611358643e-01
2.433753388394744310e-01,-1.289458423859752290e-01,2.461493039242194092e-01,1.533634853045168223e-03,5.466173060251803932e-03,3.894257524195662064e-03,3.739060759544372559e-01
2.409061150558582109e-01,-1.339546137457554575e-01,2.417510930494154442e-01,-3.817977795009135089e-03,3.322108286205959372e-03,-5.015759874123935404e-03,3.754868209362030029e-01
2.402944555288994144e-01,-1.407437150017544492e-01,2.407679869177707377e-01,-2.317250635731871145e-04,3.181994227810130190e-03,-4.727358456069427639e-04,3.813160657882690430e-01
2.409366929795285495e-01,-1.398415208185902758e-01,2.390028986030505453e-01,-1.849401333729313581e-03,1.228344754134246507e-03,-2.950672340068490399e-03,3.798688650131225586e-01
2.486331017452807490e-01,-1.371185155880561835e-01,2.397415066672087258e-01,-1.000430715565752120e-03,1.066490718643367053e-03,-1.157083999260046826e-03,3.813972473144531250e-01
2.031090631294542592e-01,-1.285483913893193386e-01,2.011805121233739002e-01,-3.995217774675528279e-03,-1.572869594170270627e-02,-4.832831966620621325e-03,3.319953382015228271e-01
2.505344116509069519e-01,-1.192723059820391396e-01,2.537690676621607300e-01,-1.243315352077961622e-02,-1.858283688609945611e-02,-2.834094592882532848e-02,3.766603469848632812e-01
2.156271989661743549e-01,-1.246632114242366141e-01,2.200214892816549916e-01,-1.143389093510185353e-03,-5.750745422537710365e-04,-4.295644764351602349e-03,3.425966799259185791e-01
2.110500221589147740e-01,-1.161034710138410392e-01,2.243627460511301852e-01,3.432955763734803819e-03,1.218991104094775853e-02,-3.736765116924505199e-03,3.347909450531005859e-01
1.348338475852678964e-01,-1.477058469363348170e-01,2.003923174381567196e-01,-9.434032837729972379e-03,4.990390554412937885e-02,5.946760789538348482e-03,3.324060142040252686e-01
2.272094689288703118e-01,-1.439836489849937451e-01,2.005972420428356329e-01,-1.683990211062142556e-02,6.414589660128383608e-02,2.486825272869337689e-02,3.790308535099029541e-01
1.819457639944124516e-01,-2.086937484490454520e-01,1.804257920145438399e-01,1.002260984861256740e-02,1.402549776317510433e-01,-1.756139482102161628e-02,4.607045948505401611e-01
2.355568419896881538e-01,-1.372753403304726727e-01,2.313098996255140427e-01,-2.895865055341744279e-03,1.545405857316214677e-03,-2.813810787506870834e-03,3.708025813102722168e-01
2.282619426345560421e-01,-1.378147938225300351e-01,2.280178936050942240e-01,-1.254680766656895725e-03,-1.562779870136139608e-03,-3.405723199104432851e-03,3.660187721252441406e-01
2.218657648850244080e-01,-1.282876085235453156e-01,2.219893767197342327e-01,-2.328495877360709128e-03,-3.614543951895618328e-04,-1.025755959363849803e-03,3.502434790134429932e-01
2.272697413935450550e-01,-1.315756982318616597e-01,2.278059368311311506e-01,-1.410788270006067911e-03,5.636836303045832157e-05,-3.930835599973045782e-03,3.591867089271545410e-01
2.242653069336729144e-01,-1.337680721363590786e-01,2.231640869900515800e-01,-3.725313349712543274e-03,-2.216151245308634055e-03,-8.982129954927265672e-04,3.575662672519683838e-01
2.366798752272468165e-01,-1.370446111698001568e-01,2.385376587372522728e-01,-3.915841835145240923e-03,7.287611693498678668e-04,-2.580614643017553438e-03,3.747470080852508545e-01
2.293474487331072231e-01,-1.278752440708836313e-01,1.571107902391561950e-01,5.142229144088319298e-03,-2.064103795685176546e-02,5.111093449634257491e-03,3.293288052082061768e-01
2.472952775635005596e-01,-1.266400685959783168e-01,1.749379193976224323e-01,6.748590911773252876e-03,-1.824417192886648026e-02,7.059744730143968465e-03,3.453852236270904541e-01
2.577057841868479748e-01,-1.261186222144242697e-01,1.305960114031488872e-01,3.050971836525018938e-03,-9.793710272265134659e-03,7.001983473184654472e-03,3.393419981002807617e-01
2.467325511529436244e-01,-1.205984596961263283e-01,1.609566738535744834e-01,3.666828806358080148e-03,-2.305170632748007944e-02,6.077277151581602158e-03,3.354500234127044678e-01
1.537268920008426354e-01,-1.267693837751184549e-01,2.428424887750660344e-01,2.366045312357074014e-03,-1.997826545120090502e-02,3.150946674983617565e-03,3.359468877315521240e-01
2.412663469775134795e-01,-6.865775520762695816e-02,2.473364951579369864e-01,3.164518780765590046e-03,8.829419402653127663e-03,9.816198977878850748e-03,3.138854503631591797e-01
2.617067194943680231e-01,-5.929383283176728470e-02,2.502613587194130740e-01,1.520004499980003379e-02,-5.883107689368737708e-03,-1.597484908723206202e-03,3.167064785957336426e-01
2.502432607180021806e-01,-4.292258941260365668e-02,2.396631784783013197e-01,-1.603672151506532143e-03,-8.866560420408135280e-04,1.084838828436417418e-03,2.880451977252960205e-01
2.540424796561717158e-01,-1.698182396421399343e-02,2.573878138655739112e-01,1.309471552142668811e-03,4.986234947091587426e-03,1.561967867385113604e-02,2.741964459419250488e-01
2.695682458656810665e-01,-1.929889691565991883e-02,2.522083172379753768e-01,1.328613220811207529e-02,-1.020557435080673460e-02,-1.931471040077838847e-02,2.840635180473327637e-01
2.370835455443264794e-01,-7.827928464854905233e-02,2.460588745971385993e-01,2.113581806532534562e-04,7.434249482686556935e-03,-5.906594923228245409e-04,3.202057778835296631e-01
2.629957370350884394e-01,-6.156573551730049054e-02,2.476347875983413993e-01,1.427006980312170784e-02,5.421227611734599425e-03,1.675962288849877201e-03,3.182735145092010498e-01
2.488309398124312344e-01,-1.352656642281902799e-01,2.405760265167513068e-01,-2.516019673649234033e-03,2.539871255884421693e-03,5.085019063863849623e-04,3.800878524780273438e-01
2.586730920987148075e-01,-6.154037230390335678e-02,2.460192235031904706e-01,-1.125465694243211155e-02,7.546925449913997018e-03,-7.109099828021419459e-03,3.151941299438476562e-01
2.495297974845319122e-01,-1.282778665280933095e-01,2.356024189819723724e-01,-5.160652109667704336e-04,2.027189935879546157e-03,-1.012375218542019371e-03,3.710618913173675537e-01
1.837860185256626477e-01,-6.769904525622624791e-02,3.594973454413855629e-01,2.386765656774840136e-02,-4.022471076934513307e-02,6.997346421827116414e-03,3.808122277259826660e-01
2.597822738888554972e-01,-9.301151331028351121e-02,2.401372011453118960e-01,-5.254757723348345289e-03,2.182262323971254688e-03,2.841413598961262631e-04,3.435347080230712891e-01
2.288121990049493126e-01,-1.326814740707878970e-01,2.353206369904252138e-01,6.841113970811493056e-03,-4.711098147854072236e-03,8.680298413564123622e-04,3.650781214237213135e-01
2.451377273594698702e-01,-1.285927036753474750e-01,2.365275818227717264e-01,1.077898774545556475e-03,-4.392850862012866696e-03,-1.057923891475640813e-03,3.695881962776184082e-01
2.570913032313673074e-01,-1.008736006392479123e-01,2.386377318859758678e-01,-7.052655525293383999e-03,-4.945214887677401930e-03,-9.784954430492984363e-04,3.494268655776977539e-01
2.502765019668690138e-01,-1.228932635093703957e-01,2.129563661428542920e-01,6.551876819723590102e-03,-8.183802104924919885e-03,1.464307011161180248e-03,3.564517498016357422e-01
2.547797435925008847e-01,-1.408657083165532342e-01,2.114830267023648513e-01,2.696541307112100723e-03,1.491070626364460238e-03,7.980116678050219042e-03,3.761639297008514404e-01
1.647150128845512040e-01,-1.156627112912091138e-01,2.542870241310697388e-01,3.210510470898273253e-03,-8.068396275156073522e-03,2.589596345531144927e-04,3.346270024776458740e-01
1.703273049343811407e-01,-1.461154940004072145e-01,1.646560363432707785e-01,9.633099564951156171e-05,-9.320947379208195660e-02,-4.184356214397873773e-03,3.528316020965576172e-01
2.504446101792918711e-01,-1.324740527983538085e-01,2.299254852083252865e-01,1.336694740685604246e-02,-4.970823636638566079e-02,1.801524469457067151e-02,3.848544955253601074e-01
2.332495010017642256e-01,-1.297533705844383101e-01,2.226651217249431269e-01,1.707426213439514062e-02,-1.306443697827231257e-02,1.189819242449551701e-02,3.603502213954925537e-01
3.305945383940595561e-01,-4.112975601681762017e-02,2.423459865828223037e-01,-1.301436745593876829e-02,-6.413425174728187850e-02,2.032537323308676244e-02,3.567207753658294678e-01
2.863956066916257814e-01,-1.189825092116065242e-01,1.364996117330026792e-01,-6.628242257293698834e-04,-3.244754069295541915e-02,5.598217957689650970e-02,3.722868859767913818e-01
2.282811154310478985e-01,-2.155104509861122952e-01,7.908977062984756667e-02,-6.328338297340871735e-03,-8.088610343458192686e-02,-3.347446330108413276e-02,4.196529388427734375e-01
1.688089270984919898e-01,-1.360794848174799454e-01,2.068896815887356078e-01,1.828169469199772412e-02,5.547685671206805530e-02,-9.277531701766206229e-03,3.413376510143280029e-01
2.256112838177986579e-01,-9.129187588306598988e-02,1.819568804263598794e-01,-5.798201251177857382e-03,-5.294365949742812355e-02,-6.104962125090191913e-03,3.116421997547149658e-01
2.402204019633119025e-01,-9.788256641720971540e-02,2.488731918238231700e-01,-3.998847455180181559e-03,8.959359439147152743e-03,-7.925830458563033060e-03,3.432073295116424561e-01
3.260260883044109326e-01,-1.046774086123847675e-01,1.335414166975532613e-01,1.884046152843663058e-02,-5.183532874148048808e-02,-7.937107225513218012e-03,3.859619498252868652e-01
2.414744947994710289e-01,-1.301227309833553059e-01,2.404818967070664337e-01,3.823570886417478575e-03,1.564869343194231913e-03,2.377164817635508531e-03,3.711937367916107178e-01
2.682654915089731640e-01,-8.648110034766146037e-02,2.526842187440477283e-01,-1.268390308747445114e-02,-6.479519417250521884e-03,-6.579775052541678854e-03,3.482800424098968506e-01
2.032157053150673853e-01,-1.814363898826355515e-01,1.297611435390484402e-01,3.738455121776428254e-03,1.045345977497276202e-01,-1.729139652941417277e-02,3.985219001770019531e-01
1.269789884857900342e-01,-1.377783580696039789e-01,2.460774904497453064e-01,-2.005231776100207391e-02,7.297537767918896301e-02,8.882473215056477939e-03,3.650100231170654297e-01
2.219465420869027317e-01,-1.270074163538392753e-01,2.336559864117810359e-01,-6.352805149151266421e-03,7.562567365621348375e-03,7.852651590670766193e-03,3.556257486343383789e-01
2.172524473456177718e-01,-1.324660250637443581e-01,2.217773062476032786e-01,-1.398581083210584559e-02,1.266621960973101160e-02,1.318414806813238312e-02,3.542534112930297852e-01
2.423737376646000474e-01,-1.390909231388399447e-01,2.064351288318382327e-01,-1.813563248277782688e-02,4.696725642851681121e-02,1.686591855943492257e-02,3.762384951114654541e-01
2.078971713362970930e-01,-1.197121643586539080e-01,2.075625428772848169e-01,7.626118808967041664e-04,-3.632872460130082571e-03,-1.754214863916794690e-04,3.275054097175598145e-01
1.125172669358856514e-01,-2.146954645587559607e-01,2.293292181212260028e-01,-1.059538941517539773e-02,6.967769053378342070e-02,-2.534565862000558861e-02,4.192427694797515869e-01
1.825019665046271333e-01,-1.462130211345996078e-01,1.778787159494746861e-01,-4.443983018947089865e-03,1.102800480202349720e-01,-2.349878070042037137e-02,3.804682493209838867e-01
1.530992302636815794e-01,-2.832143954020819310e-01,1.481845398439136374e-01,-2.911318693390782530e-02,1.161238633629613354e-01,-1.672989282339120212e-02,4.817530810832977295e-01
1.773760311760611552e-01,-1.165765025135625799e-01,2.421085924981609405e-01,-5.280751994045967262e-03,2.770201179877802497e-02,4.225193629658004907e-03,3.347627818584442139e-01
2.359027341998566618e-01,-1.347999560961347654e-01,2.539945537001119247e-01,-1.826640955931099774e-04,-1.242412357442722803e-04,-6.292147146443882733e-04,3.800734281539916992e-01
2.392620753665855304e-01,-1.336282590813731019e-01,2.510096208546834795e-01,1.124028195334070539e-03,5.227343923048435176e-04,1.461146536697628586e-03,3.789152503013610840e-01
2.407347774727542911e-01,-1.381347601506616729e-01,2.270800808983584607e-01,-1.565364842120765777e-03,-2.385953681852737477e-04,5.483300924386343492e-03,3.723613023757934570e-01
2.365265750131060052e-01,-1.367206917724109738e-01,2.375559432378893110e-01,-2.443535794308801610e-03,-1.547363517981670961e-03,1.021101853404233735e-03,3.738007545471191406e-01
2.377110237390026859e-01,-1.352138727389367856e-01,2.454472566152306745e-01,-2.239592138891471559e-03,-1.682826002935139875e-03,-2.110707073145209965e-04,3.768839836120605469e-01
2.366335849963336901e-01,-1.232877050617536829e-01,2.578124953002149944e-01,-2.415561740884724544e-04,-2.734142652980809025e-04,1.390582682903751793e-03,3.709728121757507324e-01
2.378412225335182484e-01,-1.332946110738834067e-01,2.550355326175068882e-01,9.260617106831917078e-04,2.516228302936533625e-03,1.274782387448170897e-04,3.800532817840576172e-01
2.715597057139220727e-01,-7.951264282035511166e-02,2.349393816109228705e-01,7.508592163759940201e-03,-9.159451541372924666e-03,-1.106076843781694623e-02,3.354464173316955566e-01
2.373484162578575751e-01,-1.344959673930817279e-01,2.550186982180523976e-01,-3.201757037914568791e-04,-1.253589623066443323e-03,1.112313985721896875e-03,3.809984326362609863e-01
2.365572211993589025e-01,-1.323815166749678918e-01,2.553549318073127239e-01,-6.882217785932498054e-04,-4.413115113180254671e-04,3.814762323719742606e-04,3.786908984184265137e-01
1.069272257197046161e-01,-1.557031426013779918e-01,1.881256372268738652e-01,9.034291075544112481e-03,8.810622857601810298e-02,-7.118634290989402265e-03,3.472435176372528076e-01
1.765632366956492172e-01,-1.301471992217888562e-01,2.258993235792321475e-01,5.297933634222252303e-04,1.530016584045395048e-02,-6.790197434081061446e-03,3.353784084320068359e-01
2.397818293489578090e-01,-1.344896693785381792e-01,2.390545173488940467e-01,2.124292800741215369e-03,-1.071109560192401791e-03,-4.899207642874830668e-03,3.740273416042327881e-01
1.594940029319499852e-01,-1.293248558549387472e-01,2.469424264876944886e-01,9.720163701824458338e-03,1.183491327881417907e-02,-5.399485580227715575e-03,3.422154486179351807e-01
1.530278225250445989e-01,-1.244515615797942287e-01,2.247323376117483507e-01,6.391138762616769414e-03,3.163761466676633105e-02,-7.071654767880793807e-03,3.245123326778411865e-01
1.660891866522248850e-01,-1.164024981109738899e-01,2.431141908523446471e-01,-1.200341078194536951e-03,1.085507284146897122e-02,2.092858695952745911e-03,3.284269869327545166e-01
1.514306829324200410e-01,-1.361063415580725244e-01,2.445627172427771445e-01,-1.326331598212063777e-02,4.511359460603915628e-03,3.394648729774419390e-03,3.446061611175537109e-01
1.938746679248540272e-01,-1.421693697966244230e-01,2.437311479560986538e-01,-1.464666885002371445e-02,7.497209402086297539e-04,4.767136634298858172e-03,3.645252585411071777e-01
1.931444814975731283e-01,-1.374181053431156041e-01,2.453639915482292988e-01,-1.039440113601188334e-02,-1.262216283843197893e-03,-4.171922434359772759e-03,3.600575625896453857e-01
1.559697051560714753e-01,-1.366314514778648459e-01,2.450051293960656407e-01,-4.899826638002056055e-03,5.073168156181039317e-04,3.941720590424556588e-03,3.459971249103546143e-01
9.039052183646227590e-02,-1.175107643373229371e-01,2.791450750192824848e-01,-5.188397325526150280e-03,2.868087095983095844e-02,4.160029339386875358e-03,3.474104106426239014e-01
2.362970193220876314e-01,-1.356674994618744523e-01,2.482295629977606111e-01,-9.694633917892537612e-04,-1.149602132268908068e-03,1.598887773118966207e-03,3.780911564826965332e-01
2.378415782469302797e-01,-1.334180821874899614e-01,2.510254511123199417e-01,-5.248160511189168230e-04,-1.454535807199883505e-04,1.681807644633868644e-03,3.780364692211151123e-01
2.430862299771854862e-01,-9.815804019629456589e-02,2.603070553775024831e-01,2.177072472856576705e-04,-7.520688379840013591e-04,-5.015481870599670933e-03,3.502827584743499756e-01
2.391649498008029950e-01,-1.264033191050089600e-01,2.568158512652879422e-01,-7.746227850686418070e-04,-1.920442872439276491e-03,-2.226559121712738329e-03,3.747426569461822510e-01
2.361754626520570777e-01,-1.327184115339204440e-01,2.545711992983077931e-01,-4.386622393292827194e-04,1.112389732754220234e-03,2.223394110842787867e-04,3.784330785274505615e-01
2.332988527160800574e-01,-1.341025813242302522e-01,2.533028712325934295e-01,-9.294091813291693090e-04,-5.447818603623371878e-04,-6.058200617049393048e-04,3.778069019317626953e-01
2.351053870929969980e-01,-1.346972765908238945e-01,2.501116870797818192e-01,-5.745399342923461754e-04,4.777549344525379655e-04,1.717671363069489662e-03,3.775435090065002441e-01
2.435884707190711096e-01,-1.367720333486224515e-01,2.188259713067956524e-01,-5.332217730171817313e-03,-4.085889185527165346e-03,-7.661476739807051087e-03,3.690258562564849854e-01
2.407748223822334666e-01,-1.354831399560163518e-01,2.521155078058429089e-01,-2.874966004202802669e-03,4.156884680410427232e-03,-9.396817204212493937e-04,3.821583092212677002e-01
2.417920009561007333e-01,-1.294461685881569402e-01,2.527002049266646178e-01,-1.077096254936581789e-04,3.054105647895194627e-03,1.792748796020981377e-03,3.768606781959533691e-01
2.329191685412966284e-01,-1.351407691858739768e-01,2.543438802243383479e-01,1.227810106742009731e-04,1.712127777895267218e-03,-1.284446434908768139e-03,3.792446553707122803e-01
2.373208933405689114e-01,-1.324182990738369536e-01,2.576654780804942257e-01,1.773686475184403828e-04,-4.692755159962198820e-04,-1.314647142656988170e-03,3.803276121616363525e-01
2.396612669148525665e-01,-1.346631313430319277e-01,2.481286577345404587e-01,-5.858027141007193794e-04,5.936975538912564465e-04,9.054337458278310295e-05,3.786318898200988770e-01
2.404546109794630238e-01,-1.377749291850077218e-01,2.263930646963520088e-01,-2.682165545903210033e-03,-5.542643369886418028e-04,-5.696558049985556496e-03,3.715597987174987793e-01
2.679919474602081020e-01,-1.006940346069107872e-01,2.717512324265324297e-01,3.093601667731169045e-03,1.601641095750273858e-02,6.931148710927255256e-03,3.718492984771728516e-01
3.063576546078800034e-01,-1.629634257064221936e-02,2.669669046601688689e-01,1.097655852478879833e-02,7.961576568948445370e-03,-3.008427637836028415e-02,3.101845383644104004e-01
2.235921394369406734e-01,-1.401929793126744928e-01,2.209186633127437072e-01,-4.453285882430720044e-03,-4.017120633339857014e-03,-5.565964697757528473e-03,3.627327382564544678e-01
2.400405716598262851e-01,-1.324678464939272327e-01,2.357427707969306230e-01,-6.997727080648192578e-03,2.712817563060140359e-03,-4.440885022099877802e-03,3.706860840320587158e-01
2.424011699267411557e-01,-1.322310132746804812e-01,2.411592933226670288e-01,-7.827161979378629425e-03,2.619260900368590873e-03,-3.375789300767473994e-03,3.743315935134887695e-01
2.459220104499253157e-01,-1.282176115195924615e-01,2.425314071269087379e-01,4.552346496674502608e-04,7.007298765446501668e-03,-1.144075617891859029e-03,3.726596832275390625e-01
2.429279400931512733e-01,-1.374759629309901254e-01,2.397515721433275127e-01,-1.609464614264015858e-03,2.432480601599861826e-03,-2.121518657538525986e-03,3.788772225379943848e-01
2.391109968638717720e-01,-1.389890580879213910e-01,2.390957998570681364e-01,-9.194341191483501553e-04,1.374329616851640602e-03,-1.021324553270391193e-03,3.781074285507202148e-01
2.470407893902356045e-01,-1.367723222879246303e-01,2.397319733878848780e-01,6.354676894534780525e-04,4.191390108709881941e-03,-5.684557274619108508e-04,3.802835643291473389e-01
2.328016216521263948e-01,-1.333994302935088694e-01,2.321158687924252950e-01,-5.731324401512305489e-03,-2.779718760261385238e-04,-2.256286052667435225e-03,3.660144805908203125e-01
2.386252108401064609e-01,-9.149015635627821830e-02,2.493463017396581605e-01,2.294996373344910644e-03,4.125621497892025674e-03,-1.580141739567557380e-02,3.368177711963653564e-01
2.472898880872451133e-01,-6.047422377265382343e-02,2.564714598078788876e-01,-2.819452735753507668e-03,7.566266541177856311e-03,-1.229520873220341440e-02,3.134931027889251709e-01
2.631637061028455626e-01,-1.521723204372672500e-01,2.519933353397820208e-01,2.643737526242485522e-03,-2.499664232438210051e-02,2.737494493465350651e-03,4.121980965137481689e-01
2.401732980590701727e-01,9.574411323804848939e-03,2.442829052446262306e-01,-2.188457442047382357e-04,1.314344263144573682e-03,-3.556203162151925969e-03,2.327738702297210693e-01
2.428636495014896979e-01,-1.292000578484226447e-01,2.451681640319546274e-01,8.813009831750193796e-04,6.990998195501449235e-03,-6.981531439130316333e-04,3.734227418899536133e-01
2.426880431716866571e-01,-1.298954992891213633e-01,2.504571732638604109e-01,1.789341628255425179e-03,-5.250923596892037755e-04,2.356269514154909431e-03,3.765642046928405762e-01
1.580576653654182095e-01,-1.173438275209794796e-01,2.421600146749650628e-01,-8.548741684867686326e-05,-4.553889440654958903e-03,-2.506571050728458157e-06,3.257964551448822021e-01
2.557131887835751849e-01,-1.007714702561912645e-02,2.399724599768790489e-01,1.460232340114136877e-02,-4.337402246800312576e-03,1.647026257009605007e-03,2.596397399902343750e-01
2.346186755703780769e-01,-1.546320095988690246e-02,2.442708264658677575e-01,-3.958650439717473235e-04,3.361142238770926331e-03,-7.348281151811490372e-03,2.554296255111694336e-01
2.454963853879929547e-01,-1.812775840504102232e-02,2.392467502069943464e-01,-1.404040357017386810e-02,-4.530100440990588243e-03,-6.846281338995503611e-04,2.618082463741302490e-01
2.420441543237382143e-01,-3.053187842126497964e-02,2.416598897097396170e-01,-7.200201590612686185e-03,5.570227710158598237e-03,-3.023101036776689159e-03,2.728903293609619141e-01
2.649133753918549994e-01,1.167841192376337101e-02,2.600555052635384889e-01,-1.709805135910766327e-02,-3.594390495789542492e-04,-3.138235670337850402e-03,2.526426911354064941e-01
3.571849581014632236e-01,3.963786573102492938e-02,3.107035688085184599e-01,2.764052291800209518e-02,7.481249558589581419e-03,3.360227954916508025e-02,3.067309558391571045e-01
2.617557987577050493e-01,-1.789900056698351394e-02,2.666829310463921798e-01,2.215164446841384402e-02,3.692729529967129706e-03,-2.070754669178877846e-03,2.848417758941650391e-01
2.683248609741500368e-01,-3.391981057079887507e-02,2.608647698896846556e-01,1.406910845030815219e-02,3.478154707028945081e-02,-3.341427071710231789e-02,3.110069930553436279e-01
2.399966445500781587e-01,-1.313758440349631629e-01,2.443324790452327533e-01,1.979264451799161995e-03,-3.154029551116545229e-03,-2.372757628052188025e-03,3.736375570297241211e-01
2.257607799099193846e-01,-3.448681548361717808e-02,2.605239347885547341e-01,1.343298734977437306e-02,-1.731325366328137841e-02,1.037609944896170089e-02,2.823966741561889648e-01
2.385377002905482713e-01,-1.287069298279374663e-01,2.416069397680450648e-01,-3.508963994872204943e-03,-1.250190462406899732e-02,-3.883903805366165866e-03,3.695352375507354736e-01
2.267314042053200640e-01,-8.117485758727252532e-02,1.791129723341830515e-01,4.166451841169684089e-03,6.315948022556111541e-02,-1.930159364727212709e-02,3.091097772121429443e-01
2.496659991367291553e-01,-1.407786386417497204e-01,1.849395854744798062e-01,-6.397281882142808775e-03,-1.385025735304648564e-02,-2.392009606728208448e-02,3.657584190368652344e-01
2.504446984325351955e-01,-1.366207496282978995e-01,1.896291963399157343e-01,4.517464844104686003e-03,3.571548055967325996e-02,-2.171548877177167242e-02,3.678060770034790039e-01
2.501517704490710536e-01,-4.809002379029092555e-02,2.454866875250951985e-01,1.798001626353183972e-03,-6.990638684827720981e-03,1.131182542368823832e-02,2.968480885028839111e-01
2.392843262777879509e-01,-1.392051033204029231e-01,1.939237352066430220e-01,2.416999705946127480e-03,-9.847285019006116018e-04,2.108345121587704065e-03,3.580182790756225586e-01
2.454322317096461203e-01,-1.318135190679260993e-01,2.058389894202088677e-01,-5.672273219939136593e-03,5.149445655831036070e-03,8.444729037960493900e-03,3.596326112747192383e-01
2.481829824435118348e-01,-1.538970881186618178e-01,1.251283266517148329e-01,-6.222714307549726855e-03,1.192111218989033196e-02,2.541893048051087345e-02,3.602969348430633545e-01
1.550870188084464973e-01,-1.338258742823377478e-01,2.397591047591715041e-01,1.113622973464124984e-02,-6.115749014494853419e-03,5.752684456556939052e-03,3.401270508766174316e-01
2.233732090508630530e-01,-1.691559060949074933e-01,1.889373084705306405e-01,4.726075838746760351e-05,-1.310071847590739691e-01,4.436421744945556050e-03,4.396539032459259033e-01
2.533839295125346336e-01,-1.397086692726603463e-01,1.261210289402696083e-01,7.161581096303902929e-05,-9.273496044059074961e-03,9.073497065131500700e-03,3.481329083442687988e-01
2.588177468976528006e-01,-1.000467790329927498e-01,2.553608969906241422e-01,-2.264891556238024387e-04,1.321657441590762434e-02,2.982774995233529111e-02,3.615915179252624512e-01
2.799124262067763103e-01,-9.918408854444309142e-02,1.082350335413066605e-01,-2.573591657193125513e-03,1.194228677868021499e-05,3.847928505526672632e-03,3.288909792900085449e-01
2.756122415243248414e-01,-1.996748947796541940e-01,8.691800950533785930e-02,1.592545813391988210e-02,6.097145813181265722e-02,-1.290410287662744661e-02,4.292230308055877686e-01
3.163522434779728609e-01,-9.821883059663130688e-02,1.385169176958399029e-01,-2.056437195402643220e-02,4.189148032452286868e-02,1.617157054125769461e-02,3.702527880668640137e-01
2.574677350125308961e-01,-1.257736075559700850e-01,2.361595827689056126e-01,-3.775957695916044334e-03,-1.336344611758446231e-02,8.019253060694763943e-03,3.740765154361724854e-01
2.416351025335002622e-01,-1.282240176491614703e-01,2.099898976577343479e-01,4.109939544308646719e-03,-1.590688832302929873e-02,2.145004620549507274e-02,3.581661581993103027e-01
1.058607894601193977e-01,-1.259371407764398598e-01,3.357525883075112572e-01,-2.695401048947903937e-03,-3.592024253267005196e-02,-3.120755453736565044e-02,4.082686305046081543e-01
2.379196682498817550e-01,-1.362017383335644150e-01,2.335742134802692993e-01,5.448858393197335802e-03,1.953503905905578514e-03,4.159838365057797263e-03,3.721725642681121826e-01
2.075342803257942403e-01,-1.112728155011426523e-01,2.427703553615727650e-01,1.726984205837956560e-02,-2.213191322247511778e-02,2.307551545850010724e-03,3.413110673427581787e-01
2.533894636833632363e-01,-1.149550819515573474e-01,2.408910077303259012e-01,3.475588554722899501e-03,6.395267935315477464e-03,-7.683524981079751463e-04,3.624788224697113037e-01
2.528055815319006361e-01,-2.038157537310739120e-02,3.881887704781276649e-01,3.137942340617187048e-02,-2.416560384292488345e-02,3.725246727994325179e-03,3.670045435428619385e-01
2.289458067001722552e-01,-1.325674285260326490e-01,2.410390338432977231e-01,5.620880821669942129e-03,-2.614619575395102976e-03,4.555271619636550029e-03,3.679503500461578369e-01
2.471157993764365179e-01,-1.366400996873916029e-01,2.382539534489142574e-01,1.928103847767176143e-04,3.660859489940939630e-03,-5.369294350165074170e-04,3.794568777084350586e-01
1.936618768675166247e-01,-1.361250029172055842e-01,2.487416622123018173e-01,-1.056554217752555917e-02,-2.581501753417976813e-04,-4.328206853943944443e-03,3.610388636589050293e-01
1.560207752052814589e-01,-1.085349600595890973e-01,2.580993178466334248e-01,-5.993143043493686338e-03,-3.943536015874490180e-02,2.303999393402308277e-03,3.349691927433013916e-01
2.596380827560548776e-01,-1.280151483139377322e-01,1.644982309306687318e-01,2.101926105204263151e-02,-5.584778922466397677e-02,1.932066543345505386e-02,3.663980960845947266e-01
2.491686980647926375e-01,-1.284401437258752554e-01,2.176165118428667333e-01,8.334420418237563008e-03,-8.811776240121561854e-03,6.096298584663753170e-03,3.636240065097808838e-01
2.956923686501480297e-01,-1.010058652144678881e-01,1.711519466449571980e-01,5.309393904813967599e-03,-1.006786512917684923e-01,-3.596105177211081794e-04,3.923880457878112793e-01
2.461851822428968717e-01,-3.565025352801637348e-02,2.368664355097072627e-01,1.972305220469965786e-03,-4.156859384757336656e-02,1.774286316902217928e-02,2.881520986557006836e-01
2.810690583689722799e-01,-4.118934474435981263e-02,2.404891091496730304e-01,3.607771733037674899e-02,-4.974321121786433320e-02,-7.038801953491873910e-03,3.223299384117126465e-01
2.107484387757196931e-01,-1.169442084680896304e-01,2.131094490503090966e-01,5.454547113261632406e-04,-1.229539535963998205e-03,-3.731242576532970952e-04,3.288883864879608154e-01
2.186578000316896642e-01,-1.172618495913246711e-01,2.197516393547873925e-01,-4.326890990794146283e-03,-5.539630512610122133e-03,-5.458748276684543578e-03,3.368208408355712891e-01
1.895356684797664948e-01,-1.297503115284594777e-01,2.114433718982066668e-01,-3.171070569646048439e-03,-9.905314752257350294e-03,-5.839899441521245738e-03,3.314289152622222900e-01
1.889071658601841897e-01,-1.211715908426168331e-01,2.143944241083854396e-01,-5.702683206176468751e-04,-1.038252064636837821e-02,-2.246167851564511916e-03,3.241002857685089111e-01
2.076197266906236183e-01,-1.239192067470965553e-01,2.081234856328079419e-01,-1.853665671894010915e-03,-4.917458879925450631e-03,-2.639145248840134555e-03,3.319474160671234131e-01
1.851403300220569592e-01,-1.195327141946828375e-01,2.139628427983151782e-01,-1.473852889076073935e-03,-9.757580270466506903e-03,-2.032097309298206041e-03,3.205345273017883301e-01
2.593301443674443929e-01,-1.013122678436626789e-01,2.427925258249945539e-01,6.699081537817615055e-03,3.650129731203626948e-03,-2.646437327501771110e-04,3.529123067855834961e-01
1.554626442196010427e-01,-1.316222172083679753e-01,2.477247291185862288e-01,1.040660093834324881e-02,-2.642707900511064804e-03,2.690719839006440982e-03,3.431976437568664551e-01
1.624851997332902864e-01,-1.376201098971988612e-01,2.422065364630622830e-01,8.354157322747940428e-03,5.165081599723687564e-03,-2.477339556457338818e-03,3.473489582538604736e-01
1.215919982455581916e-01,-1.464330477765057870e-01,2.390368323303819764e-01,2.516534052083863049e-02,-3.635588402199068508e-02,9.169715628214804987e-03,3.510359823703765869e-01
1.937449920353341848e-01,-1.124366172092329808e-01,2.359489580497227401e-01,3.807599219326437273e-03,-2.297918917104544920e-02,2.768309969032998856e-03,3.318147659301757812e-01
1.497701570328186238e-01,-1.289529776604374511e-01,2.562134939901854480e-01,1.534047090969436165e-02,-5.575996007315620062e-03,-1.868666637765066399e-03,3.456800878047943115e-01
1.545542547322851790e-01,-1.340399164749111471e-01,2.411029545680952735e-01,1.067471075380369352e-02,-1.837258259110690836e-03,3.081633058795184722e-03,3.407861292362213135e-01
2.076513490681214380e-01,-1.327620252016593061e-01,2.131047033879448493e-01,3.249308902951979043e-03,-3.119570710274159608e-02,8.722702911769505962e-03,3.477741181850433350e-01
2.206675720503215588e-01,-1.288040323167698731e-01,2.369924678886501379e-01,5.722543463537503594e-03,-4.100679593640906700e-03,7.764198212897814762e-03,3.583734631538391113e-01
2.484451660930142025e-01,-1.369317602560202740e-01,2.384208253658292587e-01,-2.352183506094471114e-04,2.264352372006517462e-03,-1.127161584464514551e-03,3.804892599582672119e-01
1.449161408852029376e-01,-1.198894945488078595e-01,2.470623691041779479e-01,-1.244782400413970260e-03,1.181714786384137003e-02,3.508490797444748866e-04,3.286772370338439941e-01
1.434849242070870834e-01,-1.160584086757924377e-01,2.639236144388404925e-01,7.312875559421048045e-04,5.339430671812033999e-03,-1.002003769855221247e-03,3.364779651165008545e-01
1.341789444591772185e-01,-1.188378947462533364e-01,2.616024375734377072e-01,5.055770015113210392e-03,3.960689428421851691e-03,-4.536804550772343390e-04,3.355874121189117432e-01
8.788881112027127629e-02,-1.362181021200324915e-01,2.519102196906207736e-01,6.918470293816512268e-03,6.658459704278031979e-03,-1.246934276961158107e-03,3.378853797912597656e-01
1.561629541618388406e-01,-1.170661302022589362e-01,2.669514393467030122e-01,-7.585431047194301536e-03,1.784868022034692865e-03,1.596359431352238536e-03,3.426203131675720215e-01
9.342714271700412743e-02,-1.604556002714288832e-01,2.931980983985522093e-01,1.727416625833486791e-02,4.174107385127814873e-02,-7.358480475077674825e-03,4.017061889171600342e-01
1.451673961070802377e-01,-1.185769863086368198e-01,2.484410044680657736e-01,2.729316435116213753e-03,7.741367122947588608e-03,-3.938860319146099279e-04,3.281264603137969971e-01
1.024913599967314792e-01,-1.437409745019481155e-01,2.611148004341284357e-01,-2.543591726331815434e-03,4.774440220981003048e-03,3.232749235592304385e-03,3.535097241401672363e-01
2.410945153444113975e-01,-1.358320350632152840e-01,2.469492789005462430e-01,3.993111792218081643e-03,6.271773562128390295e-03,9.497367474506122160e-04,3.801095485687255859e-01
2.389964879934446673e-01,-1.398922298822631027e-01,2.379047480713642748e-01,1.178628874698566540e-03,1.428814221081273986e-03,1.122796465444926431e-03,3.783626258373260498e-01
2.360756581443514690e-01,-1.377635399090155199e-01,2.359794558723755376e-01,2.231647414493713455e-03,9.942560098391730987e-04,3.969956376309143747e-03,3.738783001899719238e-01
2.404312312625565828e-01,-1.406095805257208398e-01,2.393821684284451468e-01,8.257996030619983415e-04,1.948704820860195242e-03,1.088995599983804113e-03,3.805396854877471924e-01
2.337941755584135861e-01,-1.378243768155334448e-01,2.341929376009524999e-01,2.747674063254510433e-03,2.088817661342356300e-05,9.723136344498491427e-04,3.718523681163787842e-01
2.244624899569989118e-01,-1.336033704548990619e-01,2.244076710184205736e-01,3.274472080387229485e-03,-1.907069637080305779e-03,6.522967556016640456e-04,3.581003844738006592e-01
2.435137204036188496e-01,-1.165531096140392381e-01,2.446903419605389318e-01,-4.974257120502293197e-03,-9.807870819477192484e-03,2.490402864033351878e-03,3.611849844455718994e-01
2.617842717070885117e-01,-6.562006939742670575e-02,2.571956306262791481e-01,7.466087757103800383e-03,-4.988831843133071167e-03,-1.373085059416635952e-02,3.263737261295318604e-01
2.264607594604420848e-01,-1.327204809801621477e-01,2.313186679355531128e-01,-6.407372380498802325e-03,2.230801420432059964e-03,8.174032345606332961e-03,3.621024191379547119e-01
2.904537919773279575e-01,-1.394011231776428328e-01,2.141722121646287558e-01,-7.773749285582323351e-03,6.550251333532645936e-03,1.454726271864403148e-02,3.984331786632537842e-01
2.861610089601344109e-01,-2.768375338567802268e-02,2.238726893241522464e-01,-2.168651546053819087e-02,-6.691198812281070078e-04,7.740089040634235903e-03,2.905537784099578857e-01
2.381769944219987445e-01,-9.417531286032232440e-02,2.511992023732991797e-01,-3.543725289852639026e-03,2.508609266600254645e-03,-8.633201449254314375e-03,3.394639194011688232e-01
2.567345473623147134e-01,-1.244410455569608387e-01,2.528649898070247648e-01,-4.039291637820635258e-03,3.313589439140824430e-03,-5.436138373444410893e-03,3.794803917407989502e-01
2.553959204682785256e-01,-1.448925076997110151e-01,1.918435213460036315e-01,1.126221560128175671e-05,-2.155549115192144111e-03,7.218286471740885044e-03,3.728279769420623779e-01
2.450419821057980563e-01,-6.627916812524672907e-02,2.592589381611631327e-01,5.104878530213996166e-04,-4.205605436680878370e-03,-7.343139190340526590e-03,3.190056979656219482e-01
2.367510117567133143e-01,-1.016782842308422974e-01,2.569984598565451805e-01,-9.756706130589636082e-04,-4.441960374359071309e-04,-5.108476566283189427e-03,3.491109013557434082e-01
3.584896576457190509e-01,-1.365677534965711870e-02,2.548105185548769080e-01,-7.970329935060437021e-03,1.301451244171518938e-02,3.249091652753610237e-03,3.337497413158416748e-01
2.381108064108946876e-01,-8.805174652190458917e-02,2.517463489145683186e-01,-4.033867950194814332e-03,-3.914201621922774529e-03,3.484986889156254297e-04,3.333323895931243896e-01
2.261440496221694962e-01,-1.333844870494017565e-01,1.536620445624561349e-01,-5.734365560830135752e-03,-1.783228983389063133e-02,-4.932741030979815103e-03,3.310297131538391113e-01
2.446092448343461512e-01,-1.317408514762885008e-01,1.619578448008097138e-01,-5.465321615363445511e-03,-1.489191701034489092e-02,-9.390387763725208115e-03,3.440701067447662354e-01
2.543988302623005904e-01,-1.223048490156111029e-01,1.591099018196504566e-01,4.051463116035706373e-06,-2.588384687248622591e-03,3.599805893047071381e-03,3.393360078334808350e-01
2.920595187595323439e-01,-2.073894599871726196e-01,7.562902299428075903e-02,1.284234064686083469e-02,-3.405531549996461405e-03,7.468852743682766193e-03,4.346174895763397217e-01
2.546700420303086299e-01,-1.303131196956107685e-01,2.203800013922211365e-01,-2.331197751777786854e-03,-1.815638328615074015e-03,-9.853761492461999075e-03,3.694647848606109619e-01
2.351034381992372357e-01,-1.369265269026364584e-01,2.036783021003482075e-01,-6.936382589718161941e-03,-5.920441715743926178e-03,-8.331742586406370998e-03,3.579950928688049316e-01
2.903617966179231624e-01,-1.436906199561944208e-01,1.043720680901293607e-01,2.515142019977808716e-02,-2.103971236515295683e-03,2.988693781243739397e-02,3.832168281078338623e-01
2.342778715709078197e-01,-1.566531799119585677e-01,2.024740777462136765e-01,-1.926889648043616371e-02,-2.471464314351390010e-02,-2.081847081483751555e-02,3.816438317298889160e-01
2.773468028829834120e-01,-1.494854313845736526e-01,6.178628043601312736e-02,-9.816944164339071188e-03,-4.734303412981390180e-02,1.367913026101273601e-03,3.790286779403686523e-01
2.340219996714213435e-01,-1.145759573688805155e-01,2.583762911260508721e-01,3.938028972440299827e-03,-4.549266278765158253e-03,-8.334229645248051460e-03,3.618294000625610352e-01
1.536946552807174349e-01,-1.247383217221066376e-01,2.427925821773155302e-01,-7.815375681497389176e-03,3.078927579721787294e-02,3.018161214544168996e-03,3.366387784481048584e-01
1.778390225889739940e-01,-1.317924725270178676e-01,2.021294387381144531e-01,-3.512683871333331653e-02,7.823928709992476749e-02,2.832540484531849770e-02,3.584070205688476562e-01
1.977240322045480669e-01,-1.281890637031085078e-01,2.004511799438569719e-01,-9.076841359863091138e-03,1.877440572055083870e-02,1.271885381669295503e-02,3.300083577632904053e-01
1.981710938059615956e-01,-1.399730854589340823e-01,2.454914594608222089e-01,-1.407038019911839404e-02,6.112558974344262964e-03,5.981093663506541203e-03,3.652330040931701660e-01
1.622459228245333729e-01,-1.238659889728684349e-01,2.237944970881509399e-01,-1.089804827070586920e-03,1.497921040880900896e-02,3.118209392794636919e-03,3.224343359470367432e-01
2.534740317336029447e-01,-1.335747915837482980e-01,2.372082040149092186e-01,-4.101489583928142105e-04,2.086041771075945565e-03,-8.576613797829163921e-04,3.791984617710113525e-01
2.554569804693404556e-01,-1.133092401797794468e-01,2.432854309862784448e-01,-1.204615723920722872e-02,-2.341027206975181216e-03,6.526904041301673058e-04,3.634573817253112793e-01
1.992985406634280587e-01,-1.653898116623929715e-01,2.674357306301871628e-01,-1.797080134547571900e-02,3.242460694346049888e-02,6.771475708046465099e-03,4.083498418331146240e-01
2.024278597834524018e-01,-1.253633282877033017e-01,2.232457092823464939e-01,2.452389789978102271e-04,1.239267995733913004e-02,7.116332491254030029e-03,3.395838439464569092e-01
1.988849302785871132e-01,-1.160255975505958687e-01,2.211681831417162125e-01,-3.492694141119115706e-03,7.615379223636618150e-03,4.103492557670096116e-03,3.270221948623657227e-01
2.039936108544680438e-01,-1.329278606697799625e-01,2.346324730635226397e-01,-8.850704828780458361e-03,2.235668585968888112e-03,9.478900084304780344e-03,3.539735376834869385e-01
2.275475879562978143e-01,-1.235214043115843846e-01,1.836076679532976930e-01,1.868651237584030827e-04,2.893275845870418514e-02,-5.380734659429308765e-03,3.351902365684509277e-01
2.386419771540082002e-01,-1.388255269752892151e-01,2.413734454381413763e-01,-2.792952052225866014e-03,-4.119237246520777301e-03,2.387502395026904964e-03,3.789612352848052979e-01
2.379743933791799715e-01,-1.413322665776481357e-01,2.384076924875753734e-01,-3.425629812666917398e-04,-1.458306685297946353e-03,5.522974388573701366e-04,3.795335590839385986e-01
2.390508752568366868e-01,-1.396165767953464198e-01,2.404096074841157449e-01,-8.138485366991935963e-04,-7.198085724275322993e-04,2.195149233799806581e-04,3.793534934520721436e-01
2.373965702118860932e-01,-1.368747709691792991e-01,2.398182891639424608e-01,-4.038616030276135846e-03,-2.200078883831154374e-03,1.583457333151914233e-04,3.755726516246795654e-01
2.370307646545179447e-01,-1.391052104676410162e-01,2.406693016687069808e-01,-2.217067615713085634e-03,-3.020194391995306791e-03,1.201051466662888091e-03,3.780297935009002686e-01
2.356028636971165824e-01,-1.390151955829369013e-01,2.333504418863809882e-01,-1.370285914952269063e-03,2.166313853729347964e-04,2.821128288980180934e-03,3.735366463661193848e-01
2.359308268581603030e-01,-1.360190071652132016e-01,2.373458194308503966e-01,-6.811066833665676591e-04,2.126113405233225669e-04,5.194891461629837746e-04,3.726624846458435059e-01
2.371488478340331163e-01,-1.398589497935375792e-01,2.357515597027494414e-01,-1.996811452476961960e-03,-1.404788008303616388e-03,2.902636046858028847e-03,3.763684332370758057e-01
2.542881435300479720e-01,-1.008203002463435305e-01,2.421092933426380600e-01,1.655557420714819095e-03,-7.659799252492792421e-03,1.482497743572818490e-03,3.494515120983123779e-01
2.433981514513067212e-01,-1.385286323165093592e-01,2.188126807266631002e-01,2.431176838683518637e-03,1.714653764409809983e-03,-7.779613506364916470e-03,3.705277144908905029e-01
2.497548021909805349e-01,-8.503308368246378923e-02,2.505900333244698852e-01,-1.385895925259068330e-02,7.461441546448069166e-03,-2.613983853203257889e-03,3.363435566425323486e-01
2.532797344126442862e-01,-7.863057548158924881e-02,2.525194920891869477e-01,1.949240684650582409e-04,-8.158866292517819724e-03,3.879415879944994898e-04,3.318327367305755615e-01
2.722258805374813129e-01,-5.444665895338984818e-03,3.102643964388457909e-01,6.515563587709746751e-02,-1.430686816370423629e-02,-9.569297088771631585e-03,3.205223679542541504e-01
1.163781004374564165e-01,-1.179228255976118300e-01,2.323669351590416099e-01,1.372762109935373766e-03,5.268445863798944251e-02,-1.074770904118866124e-02,3.228091895580291748e-01
2.386366790313095287e-01,-1.363098330560496563e-01,2.500970282497267938e-01,1.199055178184805538e-03,1.213086740928295652e-03,1.900368682773220927e-04,3.808176517486572266e-01
2.372987707901824950e-01,-1.360900992115742225e-01,2.499149393498217298e-01,9.473006836585801463e-04,1.080642918812918258e-03,2.557651226025779126e-04,3.798625469207763672e-01
2.378375944477335024e-01,-1.338118401383033840e-01,2.547530588657772599e-01,3.189898290667098069e-04,1.716249689942747451e-03,1.067706654828669017e-03,3.804058730602264404e-01
2.413675154212160390e-01,-1.264702021447117464e-01,2.462572189522517496e-01,1.926658687161971893e-04,5.873685396055814030e-03,5.889022103278665401e-04,3.704480528831481934e-01
2.386077861411030898e-01,-1.171764812292265812e-01,2.505625522635562263e-01,1.045853665024362202e-03,6.809754077673646488e-03,-2.593855409561062961e-03,3.621343076229095459e-01
2.536491829087722527e-01,-1.341118472573339382e-01,2.389047449231133102e-01,-1.167258329185407026e-03,9.012736419919825399e-04,-1.024637851993872271e-03,3.806157708168029785e-01
2.358666801440452709e-01,-1.307841903377090775e-01,2.516244321131507755e-01,-2.397263694007091604e-04,4.184934723004945373e-03,-2.102469738898452879e-03,3.748662769794464111e-01
2.367903891864259203e-01,-1.226429529376694694e-01,2.577821556886207843e-01,-1.171978491923415366e-04,6.734686027540831739e-04,1.068428400798123162e-03,3.703821599483489990e-01
2.460242070802021175e-01,-1.263079477240776627e-01,2.441777845587603246e-01,-7.323343733466008802e-04,7.256810898313018413e-03,1.626758583879035248e-03,3.716378509998321533e-01
2.548684891298583222e-01,-1.093384822233069986e-01,2.546172855313690864e-01,-5.878801489803524467e-03,8.809622059964199864e-03,-1.145971723289525897e-03,3.645486831665039062e-01
2.468535672406250714e-01,-1.365543562869025451e-01,2.402715788641456851e-01,-6.239738897989136925e-04,4.230994234214713670e-03,7.487541337814364708e-04,3.802340328693389893e-01
2.392218857468197124e-01,-1.400844742632296469e-01,2.359966527898587629e-01,1.137783005724546555e-03,4.358378215657628574e-04,2.114011828080006317e-03,3.777277171611785889e-01
2.417908156624010152e-01,-1.394017343428103350e-01,2.392639695503643305e-01,2.056863734165021232e-03,3.356954007272519927e-03,3.042037610451008359e-03,3.800331354141235352e-01
2.187766816211645371e-01,-1.326198723463982709e-01,1.836750497039185137e-01,1.356457926812184266e-02,-6.707173569103523636e-02,6.263907971993612316e-03,3.557282984256744385e-01
2.379619140772081809e-01,-1.388625830309307418e-01,2.396638998187389236e-01,2.728300542357535961e-03,2.654096671431822353e-03,1.773569465994873128e-03,3.777483999729156494e-01
2.388811827197072635e-01,-1.347583486178981771e-01,2.470499507640324388e-01,2.697802274044217453e-03,1.576897122291502781e-04,2.233334607508865276e-03,3.778389394283294678e-01
2.371479717303298651e-01,-1.394141590568981626e-01,2.365376163581742464e-01,5.351942172991740014e-04,1.151992824478624680e-04,1.124815998069582205e-03,3.762635588645935059e-01
2.413956446294982516e-01,-1.391034242064274618e-01,2.365964910476995864e-01,1.309362734321598866e-03,2.550215636423442799e-03,2.504373076448520967e-03,3.781798183917999268e-01
2.500438969414627843e-01,-8.433659023216519279e-02,2.638592998569092574e-01,-2.325010956475142328e-03,-5.326239250403883366e-03,1.372123472176562525e-02,3.424717783927917480e-01
2.461905363870578456e-01,-6.223688811889183103e-02,2.582575791011991750e-01,7.063123815409222926e-03,5.330599973135639012e-03,1.200109369960968356e-02,3.156926929950714111e-01
2.490617332561632646e-01,-9.788872049079960780e-02,2.513238001632472352e-01,-1.004585217783707587e-02,-5.974467252061669946e-03,2.117103160871845052e-02,3.505981266498565674e-01
2.340363160150837341e-01,-1.007504915159675440e-01,2.579580463185638939e-01,-2.198544057136274203e-03,-1.618117306244986264e-03,8.012149270952713051e-03,3.476752340793609619e-01
2.368912646292414825e-01,-9.877165827019412925e-02,2.534674568175840359e-01,1.684997460930367152e-03,7.526505489469288192e-03,-2.322971529295385362e-03,3.445330560207366943e-01
2.403066620839185707e-01,-1.127779674272980093e-02,2.503406611378777291e-01,9.388773566808046459e-04,-1.247554536622608656e-03,1.098307982918989532e-02,2.574665248394012451e-01
2.477459657708243612e-01,-1.220805326814582981e-01,1.847413828140826164e-01,4.209929395839199368e-03,2.293609111037657466e-02,-8.069271698857585773e-03,3.453507721424102783e-01
2.137783279305081052e-01,-1.295654971562712476e-01,2.299834892410573262e-01,6.569866110652004647e-03,9.764557317346185886e-03,-6.490180445973493285e-03,3.524959981441497803e-01
2.012229116664618900e-01,-1.150727877092176943e-01,2.200632929998402321e-01,-1.200742535863002711e-03,1.509896288578272197e-02,1.516189225353601049e-03,3.271883428096771240e-01
2.272883088685302144e-01,-1.231332562622385884e-01,1.777112012689605614e-01,6.097723633388415707e-03,4.287401880854605982e-03,4.658837179988683120e-04,3.287059664726257324e-01
2.312847166662986842e-01,-1.144387023319881069e-01,2.047611604804481789e-01,7.600230246263672135e-03,1.132597844309301757e-02,-4.249273801913548178e-03,3.341715931892395020e-01
1.799825937241415208e-01,-1.195377110661810238e-01,2.338411498699679569e-01,4.494262716731048379e-03,1.336297194461551034e-02,-3.217968023662605166e-03,3.307147622108459473e-01
2.559609206472657772e-01,-1.376318621340946735e-01,1.511949556136349682e-01,3.724589705571881675e-03,6.373889206586086376e-02,1.944431198427123194e-03,3.699958920478820801e-01
2.083824730032296790e-01,-1.345859919617327649e-01,2.311568176918763762e-01,6.867395495595956731e-03,-2.405113908538015176e-03,8.886935797187387603e-03,3.554612398147583008e-01
1.682902336609772009e-01,-1.225983496133254969e-01,2.314206839087681322e-01,7.875714322404437804e-06,-1.747119552840704568e-02,5.404118093099036582e-03,3.285861909389495850e-01
1.801242865150274874e-01,-1.209688821410847548e-01,2.254819674824628528e-01,2.595807870263060289e-03,-7.125873819117488697e-03,3.940142093659915537e-03,3.264818787574768066e-01
2.194666742687215177e-01,-1.256796166587516583e-01,2.262596313868733833e-01,2.697452887108209296e-03,-1.395570372540330673e-03,6.643815176549750477e-03,3.488219678401947021e-01
2.246292726294871755e-01,-1.327881274463877936e-01,2.545297346715458264e-01,1.214629970120015973e-02,5.016834881733118340e-03,1.943508659677282459e-03,3.739754259586334229e-01
2.350663853621979271e-01,-1.321507204209455555e-01,2.137571870192446766e-01,9.223227856979709927e-03,-7.646914730114377258e-03,9.715237628250088936e-03,3.580379486083984375e-01
1.860485593863438203e-01,-2.881497353484030466e-02,3.655871689220719922e-01,-3.551427026557449351e-02,-2.678432229023756592e-02,2.258945124999017784e-02,3.527656197547912598e-01
2.298657683492191794e-01,-9.794064253472228865e-02,2.791730018807668801e-01,-3.380626869380742167e-03,1.373507012683673279e-03,1.068575242656575816e-02,3.555755615234375000e-01
3.003701833946407218e-01,-1.539697071886725332e-02,3.279862816953147409e-01,-2.992470629730714649e-02,8.257565228591551287e-02,1.503205785781997449e-02,3.647086024284362793e-01
2.640178262897436845e-01,1.323653376672687121e-02,4.031569166266109061e-01,-3.085180199073227214e-02,4.048965978078983979e-02,-3.662551553484391653e-02,3.590855598449707031e-01
1.609035379566042812e-01,-6.083913269051810513e-02,2.916924360203911881e-01,-6.901443377163196669e-03,-6.848377857400506606e-03,-1.479177737097517147e-02,3.101886510848999023e-01
8.708450297844519405e-02,-1.015476500349862810e-01,2.834763881215177639e-01,-1.746170640730744170e-02,1.061964077127612940e-02,1.235976982884576594e-02,3.360193967819213867e-01
2.596407391690085387e-01,-4.947794808022115687e-02,2.847730910561289686e-01,1.204460114772044899e-02,-1.478206493379998886e-03,-6.504798441248789680e-04,3.231066763401031494e-01
1.751526949725182858e-01,-1.198494445357862342e-01,2.327698720905772567e-01,6.230308023438406104e-03,2.466716086017105639e-02,-6.595437667010408712e-03,3.307802081108093262e-01
1.631260635790194313e-01,-1.346047408672660928e-01,2.310728181559842942e-01,1.730324081137301143e-02,3.080959458024096903e-02,-6.675332635851661221e-03,3.425927758216857910e-01
2.252206081648443214e-01,-1.253066380290289716e-01,2.005188143185350769e-01,-6.008339233594607760e-03,-6.005450318122267095e-03,-8.447775667259763751e-04,3.391747474670410156e-01
2.175516620620546737e-01,-1.179690274637456016e-01,2.036195586023219761e-01,-1.859843280498726589e-03,-3.420444320950282759e-03,-6.768083072412739692e-04,3.288473486900329590e-01
2.263985343355751079e-01,-1.237033347835113650e-01,2.157070426210428993e-01,-6.816951148635197813e-03,-2.518490823214429748e-03,-3.594556874152534266e-03,3.451662063598632812e-01
2.751202635539893859e-01,-2.594093696626478818e-02,2.764291484456468107e-01,2.796549423261387914e-03,2.465624021740807532e-03,-7.121205045051572091e-03,3.020388185977935791e-01
2.544231999870460448e-01,3.775264462437002977e-02,2.537915456139075987e-01,-1.111928199566467393e-03,1.272084723412259715e-03,-7.584085431956828988e-04,2.163791954517364502e-01
2.661869425388481702e-01,3.484065277182174514e-02,2.890813819300096510e-01,-7.577524231642138175e-03,-9.539506333298589796e-03,5.689309416859931155e-03,2.447124272584915161e-01
2.408241224971402472e-01,-4.830472132057617163e-03,2.742689927765608049e-01,-1.683096329836670374e-03,2.115540331798868370e-02,1.179472506096119339e-02,2.672996819019317627e-01
2.451230689720468314e-01,-5.118595056821051426e-02,2.417350705812398026e-01,6.671205280782492239e-03,-5.170193661649681235e-03,-4.891264384608153687e-03,2.951137125492095947e-01
2.703710710033344622e-01,-3.985760916498840012e-02,2.870135891455986021e-01,1.410458507200001294e-02,-3.365562674828516745e-03,-4.847911125619724579e-03,3.199735879898071289e-01
2.093030794482316770e-01,-1.300623706385052869e-01,1.744101852095190641e-01,8.830928677689441064e-03,3.097081098682942513e-02,-8.843823482605619318e-03,3.284678757190704346e-01
3.978080583586951491e-01,8.867013258756134553e-03,3.096597816473174447e-01,-1.760555558900595702e-02,-1.270906927637098331e-02,3.159401145036636396e-03,3.552536368370056152e-01
2.409060705058571894e-01,-1.837981500910948474e-02,2.530181679780094117e-01,-6.669906599672498909e-03,3.754338806085304181e-02,-1.079137834313803439e-02,2.742767035961151123e-01
1.936957057444665398e-01,-1.376359750673342985e-01,1.390270137737568967e-01,-5.407511631757909269e-03,8.196198940598521665e-02,-3.613393630468047894e-03,3.390222489833831787e-01
1.210238576143414374e-01,-1.825845368794307144e-01,2.554977668412290459e-01,-5.838558561424997406e-03,1.223980802336741419e-01,3.859816451707556630e-03,4.429215788841247559e-01
2.322437892152708072e-01,-1.449341973053788757e-01,2.339590371132430624e-01,8.275414680717074756e-03,1.739169606945092754e-04,-9.215797574326931030e-03,3.786468803882598877e-01
2.252235537429612411e-01,-1.364666787928692782e-01,2.412856997911429491e-01,6.309211127956004632e-03,4.710366524817397884e-04,-4.475314371307726954e-03,3.702262938022613525e-01
2.323256710513147416e-01,-1.233725220473347040e-01,2.680722959119564708e-01,1.108860901907113630e-02,1.392234027851896143e-02,-1.077962891238549992e-02,3.765806853771209717e-01
2.328643585470621946e-01,-1.278671960090819737e-01,2.388587535663375117e-01,7.172696188363324177e-03,4.403629985266622028e-04,-9.826661451465093164e-03,3.643764257431030273e-01
1.559066596975876295e-01,-1.422988098850508365e-01,2.758777537570294425e-01,1.984541441463322925e-02,3.288419189979877033e-02,-9.635463551033824833e-03,3.792093992233276367e-01
2.395937524754034875e-01,-1.376821092142882508e-01,2.403044630601626208e-01,-2.023983001839797444e-03,-1.731394325470287255e-03,1.173184996784205382e-03,3.776653707027435303e-01
2.381943731471636572e-01,-1.394646691017659978e-01,2.453579675974843777e-01,-1.718113161596361788e-03,-1.591816538542134953e-03,1.898699301526092943e-04,3.813130259513854980e-01
2.381146049464659131e-01,-1.400572002424879392e-01,2.440822106754553522e-01,-8.499045626131234744e-04,-1.077300708408228131e-03,-5.445046787140247774e-04,3.811992108821868896e-01
2.396762127728857550e-01,-1.395750366678157051e-01,2.444595197757123695e-01,-1.323844615390210380e-03,-2.489326357488060460e-03,7.686490057866112542e-04,3.816989362239837646e-01
2.371880674087913921e-01,-1.405536541269193362e-01,2.409670068060004167e-01,-3.001518652541952659e-03,-2.561523053420819104e-04,1.516945567248781596e-03,3.796902298927307129e-01
2.367126308713549954e-01,-1.369747026276245949e-01,2.388992856582471402e-01,-4.427070355651243662e-03,-1.691599305928977257e-03,5.911407926299345420e-04,3.748767375946044922e-01
2.364987900652912867e-01,-1.357116259699361893e-01,2.518029167989433992e-01,-1.968399868915193557e-04,-1.128033262432878020e-03,7.848038294931426176e-05,3.800988197326660156e-01
2.395698533762746774e-01,-1.334510040341111980e-01,2.516686588648411882e-01,-1.788140563442082399e-03,-5.129539417277233400e-03,3.334301924428067642e-04,3.793321847915649414e-01
2.444762944931689330e-01,-1.172969987886381682e-01,2.494108141368392983e-01,2.446190424402027407e-03,-7.928132784974298297e-03,-2.278089521804123850e-03,3.645703494548797607e-01
2.432239928693459285e-01,-1.268935842219549859e-01,2.466093091419724881e-01,-1.300353881060856620e-03,-7.415284686787925426e-03,-8.516810719641303672e-04,3.720532953739166260e-01
2.389134537437413441e-01,-1.389512405070214285e-01,2.435119875517507693e-01,-1.139870373564820429e-03,-2.287955421824553522e-03,2.255561224868835306e-04,3.802107870578765869e-01
2.384732573992419669e-01,-1.367838141154514020e-01,2.453295103997363003e-01,-2.662444431547448306e-03,-1.436511483815519890e-03,1.730582168851364788e-03,3.787798583507537842e-01
2.300256398375791766e-01,-1.398237479226945301e-01,2.290874854743281674e-01,-5.993133201409486625e-03,3.247537133364693848e-03,4.523599549337245507e-03,3.696528971195220947e-01
1.843739959710921084e-01,-1.425892280973590776e-01,2.006075568693895250e-01,-1.581942308720143964e-02,4.184073512277704243e-02,1.061688897935708642e-02,3.446985781192779541e-01
2.423940881615619380e-01,-1.304486485302026044e-01,2.436471998873999401e-01,1.990838114915650166e-04,-5.748351652073338536e-03,-2.487056146316233510e-03,3.736285567283630371e-01
2.387889654027678943e-01,-1.383192838316235629e-01,2.453184621681351318e-01,-1.298415626137933414e-03,-1.161322716208360202e-03,-5.967558773289079828e-05,3.804270029067993164e-01
2.659827402257228246e-01,-1.187991266331858697e-01,1.412901128280195095e-01,-3.351056524769616043e-04,7.280255864827936928e-03,1.535633117306290773e-03,3.402826786041259766e-01
2.479655371158914767e-01,-1.243503735370012353e-01,1.757790241909059914e-01,4.324505355855318492e-03,2.972530273440231185e-02,-6.271754058332345075e-03,3.460906445980072021e-01
2.425200574556399258e-01,-1.336248748378782991e-01,1.551948913191847912e-01,7.290531437285382652e-03,1.411741492532417319e-02,-1.014258611576036168e-02,3.425343036651611328e-01
2.663577667421576090e-01,-1.149597853986160101e-01,1.407853855677715649e-01,4.134162418432027453e-04,7.920540875184851892e-03,-1.805589791948271090e-03,3.368783891201019287e-01
2.459302973299533623e-01,-1.268741595776716746e-01,1.328113037319328948e-01,7.277787157660029101e-03,2.255044734703664719e-02,-3.791766652183176187e-03,3.336696028709411621e-01
2.482006003927795246e-01,-1.320267050246688445e-01,1.563310299384294555e-01,1.069020809370200805e-03,1.933031779701591037e-03,-1.322125744281742350e-02,3.444133400917053223e-01
1.630583887066435200e-01,-1.267247863269503894e-01,2.671138382840981262e-01,1.146664190643257100e-02,1.539044699579084595e-02,-6.815014752065572459e-03,3.552460074424743652e-01
2.074180313653478380e-01,-1.175358058773707942e-01,2.104628443269659088e-01,1.480863388367459951e-03,-5.260136852369978744e-03,-1.680892497121481803e-03,3.266370296478271484e-01
2.373530577038301947e-01,-1.409419452618270452e-01,2.403647554384504836e-01,7.858015119366931582e-04,9.692354691588117750e-04,2.964594917689203737e-05,3.798159658908843994e-01
2.395126198346271829e-01,-1.388868317703725597e-01,2.438962464916763773e-01,1.030128786209972939e-03,8.848314534750553436e-04,9.933061087476760184e-04,3.806213438510894775e-01
2.387079748965565407e-01,-1.395544608871218117e-01,2.436060893149474271e-01,1.366990087514681484e-03,1.776074426320328531e-03,2.219677954968222479e-04,3.807550966739654541e-01
2.373905246969742200e-01,-1.397172945126769761e-01,2.383310534353109689e-01,8.605860802202508963e-04,4.663302948143697372e-04,1.465059764773872378e-03,3.775912821292877197e-01
2.151936574375901690e-01,-1.209674430205852774e-01,2.103723628994685069e-01,5.643671410708610628e-03,-8.116711722489939815e-03,4.980061328029849847e-03,3.343267738819122314e-01
2.385495679596138230e-01,-1.409727878133221479e-01,2.368855053175063230e-01,9.716880905494574292e-04,1.204387365606275411e-03,6.315896230385778694e-04,3.787041306495666504e-01
2.873672458960401244e-01,-1.330912097421061424e-01,1.598554362989365041e-01,2.612773693285211016e-03,-1.867811462087557578e-02,1.662880336623403371e-02,3.759359121322631836e-01
2.660306383619386872e-01,-1.481498388948893352e-01,1.578809918941466717e-01,-3.220458926912942062e-03,1.079442353540907562e-02,7.907322860368260625e-03,3.728492856025695801e-01
2.526584341900230957e-01,-1.340647888349439931e-01,1.936269407230641337e-01,-5.951477205244643919e-04,-2.382048668015676954e-03,1.334499431128020712e-02,3.616117537021636963e-01
2.457683203403081551e-01,-1.366372892847750875e-01,2.290272539077611025e-01,-2.926855369921165656e-04,2.763165140812965173e-03,1.338440083659540002e-02,3.750640153884887695e-01
2.539596314777441410e-01,-1.176117478254863624e-01,1.854153553832355583e-01,-8.981980458653903571e-03,2.055469649220593997e-02,7.329507980416281876e-03,3.449133038520812988e-01
3.271873211258027880e-01,-5.559217322901247038e-02,1.916717327070319998e-01,2.738207672553039443e-02,4.487043574164746584e-02,9.081885723039008484e-03,3.486385941505432129e-01
2.782316787787855739e-01,-1.313099062987485577e-01,7.338466527130571571e-02,-9.229719518423783881e-03,2.783066353792554987e-02,-6.994269543638783303e-03,3.584957420825958252e-01
2.187975005899434611e-01,-1.205283633136203097e-01,2.236010472794622839e-01,3.731270018364740790e-03,1.076070408187112040e-02,-5.363342997224689220e-03,3.424478471279144287e-01
2.168590705589552581e-01,-1.214009536889130020e-01,2.020715868673350069e-01,1.683882802570139513e-03,3.442375114608953526e-03,-1.245468739389270522e-03,3.311875760555267334e-01
2.017754001108762463e-01,-1.275988696901665387e-01,2.040947710114883462e-01,-4.594679794958195576e-03,1.599020810663032144e-02,5.194573205891391682e-03,3.319157660007476807e-01
1.839673899306876748e-01,-1.186906010436076381e-01,2.361760355433073499e-01,7.661159427858962520e-03,6.368008498461180840e-03,-5.451139138626127749e-03,3.324392437934875488e-01
2.323342436018160928e-01,-1.342761201019183614e-01,2.388751725174965979e-01,3.648451725746121223e-03,1.746300114263855811e-04,-2.206430118548961990e-03,3.699980378150939941e-01
2.217792709165211651e-01,-1.356563580694138960e-01,2.464844390883235148e-01,2.525631279642729949e-03,3.102868544363346880e-03,-1.823659492127387930e-03,3.704849183559417725e-01
2.557275260018084251e-01,-1.324731997332435074e-01,2.409196136715384684e-01,-1.390031015340735098e-03,-1.750186797937596569e-03,-2.106627965626249772e-03,3.810497820377349854e-01
2.533894516718425693e-01,-1.346876260926529456e-01,2.379242592536466860e-01,-4.008479708245767819e-04,-5.897909993392733098e-04,-3.156128932104826281e-04,3.805826306343078613e-01
2.537844722645525297e-01,-1.255037206937189564e-01,2.315386354553442549e-01,-1.771709926669158509e-03,8.522685701142943080e-04,-5.958827592518383732e-05,3.686847388744354248e-01
2.611797229708863188e-01,-9.911519483147016030e-02,2.361533261340868495e-01,-6.327810250412273935e-03,2.345026389955452532e-03,3.465954847910533276e-04,3.486528992652893066e-01
2.375277678565896333e-01,-9.833759928346694212e-02,2.609606387651105530e-01,3.604643225136016640e-04,8.999753166315378446e-04,8.926584025110276266e-03,3.485208749771118164e-01
2.383932568182593748e-01,-9.464783807030616170e-02,2.552633190120152107e-01,-6.142129782022261912e-04,3.783477818044115020e-03,9.840666736185034458e-03,3.422776460647583008e-01
2.471413256755025656e-01,-4.988948566844114696e-02,2.611872136582663040e-01,-2.894170614782367104e-04,-1.659262349630958623e-03,1.333055541097465102e-02,3.051856458187103271e-01
2.481492716633024453e-01,-5.707374647574806059e-02,2.596562772017530496e-01,1.105117926946390166e-03,5.604952911011230714e-03,1.378426680779493672e-02,3.122076690196990967e-01
1.265696209850779574e-01,-1.328329517225855794e-01,2.575015064974892076e-01,-1.977891944428731424e-02,9.986574530642236547e-03,6.528139221016434398e-04,3.462239205837249756e-01
1.944450397470761371e-01,-1.397180088584010771e-01,2.504433017352183932e-01,-1.457222780851115222e-02,-7.404009894793255140e-04,4.788123200220206765e-03,3.663615286350250244e-01
2.393693428305166959e-01,-1.148610667920492712e-01,2.736172988098029002e-01,-1.737446269027988904e-02,3.848165497718673313e-03,1.317522636631729763e-02,3.745057582855224609e-01
1.406629757878713749e-01,-7.371471157279467501e-02,2.926526059071807850e-01,-2.970779561428477447e-02,-1.071280614191664517e-03,9.072092232479473523e-03,3.233262002468109131e-01
2.586323006723679763e-01,-1.632158310075665364e-02,3.272649609294865369e-01,-2.838328360301180936e-02,8.452780154140231844e-03,2.635135528515846620e-02,3.223278820514678955e-01
3.267607173757973715e-01,3.421524495258831955e-02,3.307589721390830073e-01,-4.057282798227325460e-02,-1.225937669668205514e-03,1.326492628370195583e-02,3.037093281745910645e-01
2.462750464149506824e-01,-1.291527867723070711e-01,2.428639548029617456e-01,1.247388527940988443e-04,-5.749906261201065058e-03,5.065717215501834222e-03,3.739696443080902100e-01
1.898585927022834463e-01,-5.265092591974809833e-02,2.980517334755211634e-01,-3.898549960986186225e-02,2.435847750881691212e-02,3.120955406167764609e-02,3.256013095378875732e-01
2.460130680947283932e-01,-1.235208166842080846e-01,2.539761808363674156e-01,-1.814498436128553303e-03,5.220544162061031834e-03,2.104908467581769697e-03,3.737195134162902832e-01
1.261062179856590748e-01,-1.248431921747534812e-01,2.533032727680092355e-01,-1.883635892312962579e-02,6.156601302696738248e-02,-2.532781967506007609e-03,3.514676690101623535e-01
1.155359904791655179e-01,-1.459047313698133563e-01,2.649363107034002907e-01,8.904529072330639311e-03,2.060816840383586368e-02,6.941533052317244235e-04,3.622767329216003418e-01
1.403634847058725932e-01,-1.185822898161065092e-01,2.536891622745005015e-01,3.252920096854400658e-03,3.089645041648362081e-03,1.255174727744627649e-04,3.306074142456054688e-01
1.323341906914372590e-01,-1.281697385561275659e-01,2.292287570483266257e-01,-2.650194449262578342e-03,2.953493609980558862e-02,-1.577214336096929978e-03,3.242495059967041016e-01
1.487126086614191656e-01,-1.322408705967887399e-01,2.491154590821528791e-01,1.858793376206754194e-02,-2.461421152829541131e-02,1.238638442899048404e-02,3.471865355968475342e-01
1.555267588555445113e-01,-1.323392259233844848e-01,2.466747865463074507e-01,1.310237545041480038e-02,6.616677658848589029e-03,-4.668234499321808131e-03,3.436930775642395020e-01
1.881625604319658862e-01,-1.213167363833918821e-01,2.542044312678385376e-01,-7.266932086793492351e-04,4.513596497905315863e-03,-4.985287364529930251e-03,3.474403917789459229e-01
1.999224380416538827e-01,-1.247160978574233109e-01,2.481837053502028434e-01,-1.266596176472361245e-02,1.195589417946492025e-02,9.775051730013119278e-03,3.529639542102813721e-01
1.847692276827648805e-01,-1.169666221584623744e-01,2.713279514064019793e-01,-1.520493042170334430e-02,4.071699928349373221e-02,1.208385714045442753e-02,3.616076111793518066e-01
2.052858745451182632e-01,-1.300093682731268685e-01,2.415572636911427762e-01,-9.051630527474567242e-03,1.935310613486461049e-03,8.281745139760739519e-03,3.554756343364715576e-01
1.616828567872296563e-01,-1.187194782179277069e-01,2.533902392694842853e-01,-5.751418143742506942e-03,8.989132386805168129e-03,2.076938212073449908e-03,3.363112807273864746e-01
1.630841966145248068e-01,-1.302451364218734642e-01,2.486408446459274502e-01,-1.208800864590347038e-02,1.242105207366584439e-02,6.220817444612682622e-03,3.456524610519409180e-01
1.482643068268788278e-01,-1.186112128892202050e-01,2.417558804811243411e-01,-5.639398361203643711e-03,3.507272385291870104e-02,5.157237316565655913e-03,3.298170864582061768e-01
1.853694704909551183e-01,-1.491170526936695384e-01,2.396085073898382711e-01,-2.630918915756281368e-02,1.593422311411859041e-02,5.889480243482515288e-03,3.686564862728118896e-01
2.805707014560623325e-01,-8.809483260240977276e-02,2.723011103601613581e-01,-2.107936725675891264e-03,-5.102022660805147040e-03,4.587273412593590588e-03,3.648129701614379883e-01
3.238967704426089500e-01,-2.768482168961333700e-03,2.762779125086158860e-01,-8.244569607884015897e-03,4.628007829178033827e-02,-2.561674402721306545e-02,3.194063603878021240e-01
2.658251933934259181e-01,-1.838503231195065535e-02,2.560978508827002065e-01,8.892153528517320049e-03,1.604723379504412661e-03,-3.807864473976968998e-03,2.799890935420989990e-01
2.430865400402315024e-01,-4.538170311365338772e-02,2.603181966142260606e-01,8.867072290807907417e-03,-1.759266645759191940e-04,1.528804698806592553e-02,2.990297377109527588e-01
2.440961414335563184e-01,-3.032024493009863320e-02,2.493809778000111999e-01,-8.206538505320232907e-03,3.171550992546832027e-04,2.502502854240311672e-02,2.808266878128051758e-01
3.800393042474038974e-01,3.115255899743121781e-02,3.113172804990770315e-01,1.466098773104913995e-02,-2.987026490116838351e-02,-1.093358523402325824e-02,3.258045911788940430e-01
2.545106169773157512e-01,-7.000062788045607887e-02,2.576545886833437327e-01,8.949658165860815626e-03,2.090024192567149514e-03,7.872828779187563547e-03,3.267675340175628662e-01
2.093481766211030271e-01,-2.643920453734704967e-01,9.951099982379325859e-02,-1.459889586705372631e-02,1.140980846634187112e-01,-1.902051270102528974e-02,4.745940864086151123e-01
1.984523904480851586e-01,-1.230399568015051182e-01,2.012446472023106114e-01,1.002044263266922263e-03,1.733324401972056311e-02,-2.496713794447319792e-03,3.243236839771270752e-01
2.069339733542020776e-01,-1.172394140468442231e-01,1.670897401888625788e-01,-2.117849343293294606e-02,6.189800991608492009e-02,2.890103843439133582e-02,3.303104639053344727e-01
2.362079051187576106e-01,-1.599658150266439205e-01,1.224456682291563819e-01,1.912800625240309443e-02,1.056578303158716009e-01,4.450850302265656200e-03,3.993415236473083496e-01
2.726073746592743152e-01,-1.451808910010476128e-01,1.804822038432626896e-01,3.080530625664397101e-02,1.332143180383403847e-01,1.561500071276484755e-02,4.487335681915283203e-01
2.558113836314335199e-01,-1.340577071741731185e-01,2.349475776130405813e-01,-4.534493168535187659e-04,-7.270967503273934171e-04,3.957678603330256261e-04,3.798706829547882080e-01
2.558886689200465803e-01,-1.317653594653356020e-01,2.379874696235471099e-01,1.255476909821032477e-03,-2.549180977049877051e-03,2.402521613316406686e-03,3.790754079818725586e-01
2.496313990602615496e-01,-1.276314206735229828e-01,2.350335647145843088e-01,-7.986447622666521893e-04,-7.439907457029085527e-03,1.536449466362311677e-03,3.704161942005157471e-01
2.492247286661871675e-01,-1.300425866916858908e-01,2.486976657878052777e-01,-1.215529195361699389e-03,-2.719375396603317710e-05,3.886254591265916880e-03,3.790696859359741211e-01
2.278674030299436826e-01,-1.356501742562895296e-01,2.399178348433480545e-01,-5.298361629380654927e-03,6.181246764289235682e-04,1.752828698134608612e-03,3.698180317878723145e-01
2.263968461163328727e-01,-1.398305155073800987e-01,2.398801524787111672e-01,-6.283139268901813228e-03,-1.966755631600607091e-04,-2.426748688723695101e-03,3.733342289924621582e-01
2.546389660685280942e-01,-1.339503057490900040e-01,2.364143766466468566e-01,-3.204835531159212162e-04,-8.107135369340087716e-04,5.462293232262610413e-04,3.798092305660247803e-01
2.448022491156864044e-01,-1.403126105282397618e-01,2.393434155852474099e-01,-1.128520014666544932e-03,-4.138003628906122833e-03,8.779058193312959564e-04,3.824898302555084229e-01
2.499651306609594337e-01,-1.355189740122419439e-01,2.374782925272526102e-01,-2.943988103426878854e-03,-5.668180021242411786e-04,1.050399824176972800e-03,3.794347345829010010e-01
2.465807044286011662e-01,-5.139362037369979430e-02,2.460148395787158382e-01,8.099314716126060180e-04,6.682018397153135537e-03,-6.266789630981071252e-03,2.981176674365997314e-01
2.447301207297306325e-01,-1.302940876213873889e-01,2.451133524339890735e-01,-2.133034121452403000e-04,6.040304804030676052e-03,-1.195890535942083482e-03,3.753677010536193848e-01
2.551232923431017707e-01,-7.063506750823861369e-02,2.560376624549934865e-01,-2.030957787554540147e-03,6.638266197589718330e-03,6.673865838171758741e-03,3.266426324844360352e-01
2.522778471884590812e-01,-9.685032342448951503e-02,2.380958760513573469e-01,1.268131805124551263e-03,6.353862902126576617e-03,-2.893208914758656387e-03,3.424782156944274902e-01
2.710319838834751027e-01,-1.460551440546253854e-02,2.690953453590955169e-01,3.505522106108723002e-03,-4.870311261673159267e-03,-2.271503190791449023e-02,2.875679135322570801e-01
2.655434112201968122e-01,-7.340968317314330860e-02,2.837193762704437461e-01,-1.074704330537012281e-02,-4.604911983667775432e-03,-1.368490849827745486e-02,3.497889339923858643e-01
2.498192530334368833e-01,-1.132418562300851195e-01,2.459533887401147145e-01,7.655723880901903634e-04,1.048691315843943220e-02,-3.070934277273892204e-03,3.616417348384857178e-01
3.282446824324834478e-01,5.217313440427148730e-02,3.980495993279351552e-01,2.555824224525730937e-02,3.700285829430745993e-02,1.653759279061565307e-02,3.274861276149749756e-01
2.943057055133529998e-01,-3.065626813520133664e-02,2.805751138550150459e-01,-6.088946296682882717e-03,-1.373750600930111199e-02,-4.809767012531081590e-03,3.194897174835205078e-01
2.385655325987399711e-01,-1.408290291751905787e-01,2.389753401222651230e-01,-7.062578866901556094e-05,8.923980716989728794e-09,-1.475100652955347420e-04,3.795997500419616699e-01
2.385980287531875299e-01,-1.404631276892882585e-01,2.386878500979546236e-01,8.534319570966893383e-09,-7.658490157634671161e-05,-1.723733013516895582e-04,3.791062235832214355e-01
2.405679143319843782e-01,-1.395564652465520195e-01,2.406076254098746259e-01,-3.532563455578562354e-04,1.037283175203351565e-03,-3.445203530312466664e-04,3.801494538784027100e-01
2.362888471914207367e-01,-1.398145055604215203e-01,2.368026691519604654e-01,-1.918530404376103237e-03,2.154107006026264429e-05,-9.019700785174571698e-04,3.763784468173980713e-01
2.362591777418628636e-01,-1.401714716540070904e-01,2.368525309443836047e-01,-1.473422149334286529e-03,-4.993977535546110743e-05,-1.387709984571349354e-03,3.767440021038055420e-01
2.405360353459284339e-01,-1.376910187101417771e-01,2.391383475400022940e-01,-2.104684131490014085e-03,1.719759635017808043e-03,-2.105319355672442480e-03,3.775770962238311768e-01
2.289182244277397360e-01,-1.322515668252521592e-01,2.208769383892397464e-01,2.520201086822707569e-03,-4.170061885511504264e-04,-7.624489211428765907e-04,3.572468757629394531e-01
1.329473710568161993e-01,-1.379297795412531835e-01,2.012923414562575730e-01,9.074411447197144875e-03,5.160788038327054905e-02,-3.597448100723925346e-03,3.237816095352172852e-01
2.198630641964637866e-01,-1.311784252250476068e-01,2.181331693243155623e-01,5.504364325599543292e-03,3.316550951646950185e-03,-5.988761548851876705e-03,3.505101203918457031e-01
2.268327886308426911e-01,-1.348227748195436615e-01,2.100948969921981879e-01,8.440218187380641585e-03,2.645719978594210809e-03,-7.563852773332244844e-03,3.541580140590667725e-01
2.302212639611706801e-01,-1.325867984867214189e-01,2.230310421461741410e-01,6.139202046906029261e-03,1.574567478623510586e-04,-6.198731339031594541e-04,3.594259619712829590e-01
2.358341618280579977e-01,-1.382592860470345242e-01,2.271823298130485891e-01,6.329507980266262969e-03,-2.534722434329641908e-04,-4.242184706362211316e-03,3.700791001319885254e-01
2.354940868238745155e-01,-1.335026849074634203e-01,2.214125204239252298e-01,4.032313081271698615e-03,9.971174580603540255e-04,-1.701337073461204382e-03,3.622448146343231201e-01
2.226596964559260927e-01,-1.317635957716455364e-01,2.212538321243679995e-01,4.638389050479518709e-03,5.314602176937631081e-03,-4.977744791894854470e-03,3.540383875370025635e-01
2.164137349776171226e-01,-1.328221715359719224e-01,2.440484906369058127e-01,-1.050755600261394848e-03,-2.194463564728730588e-03,-1.435574681539510383e-03,3.638741374015808105e-01
1.736618558595060535e-01,-1.497085391467183335e-01,2.746758934876413205e-01,7.425118092355005237e-03,-1.617841844614615471e-02,3.010889622089279061e-03,3.852466940879821777e-01
2.016319658228544753e-01,-1.323594205939513102e-01,2.564567878731423001e-01,3.541056602791360555e-03,-1.160674425729148109e-03,1.222776416820983182e-03,3.645725846290588379e-01
2.526397305586934872e-01,-9.011283886942328403e-02,2.361752344539434501e-01,-7.884706121736482012e-03,-2.077221120443963585e-03,-1.412119088891702900e-03,3.351306915283203125e-01
1.827940890924509842e-01,-1.316908936850670897e-01,2.202011586645227226e-01,1.330190139541126415e-02,-3.573766447133742974e-02,1.427816721266775800e-02,3.421081900596618652e-01
2.135508484690495090e-01,-1.303745691044569943e-01,2.351620315643919712e-01,3.520499225329480186e-03,-8.656770416692653736e-03,8.756036541814948837e-03,3.559162616729736328e-01
2.143514212185906598e-01,-1.295840625220390230e-01,2.073167225520797241e-01,1.043285423938525650e-02,-9.221879400113298930e-03,1.006119780280092038e-02,3.417703509330749512e-01
3.359658994636366414e-01,-4.246844922145248669e-02,2.152599301504238005e-01,3.434780605996978764e-02,-6.649287142111366677e-02,1.769536748388457481e-02,3.603412210941314697e-01
2.938494976313301699e-01,-3.741067451496019047e-02,2.241674210061831429e-01,-1.691738956544975442e-02,-5.091771297550478324e-03,9.231135897797162039e-04,3.040475845336914062e-01
1.821309819088906545e-01,-1.275659417688375097e-01,2.051271972195774507e-01,3.138267002245494729e-03,-7.442738613209612386e-02,1.052140560251357132e-02,3.471927642822265625e-01
1.362132410428579243e-01,-1.670603701480524728e-01,1.739133726430790727e-01,-7.214324262648731147e-03,-1.265886443665542038e-01,-6.167590757170229865e-03,3.913744390010833740e-01
2.751907099940053558e-01,-1.305266189498689999e-01,1.521600730368911913e-01,1.257805765101291731e-02,-2.766520755552515434e-02,2.971589309552176081e-02,3.677597641944885254e-01
1.405271782207925813e-01,-1.586529203577788372e-01,1.843449635962672306e-01,-3.665047581197580784e-03,-1.048551768044621163e-01,-8.355518434077155443e-03,3.711761236190795898e-01
1.567760058409141122e-01,-1.288583979774112209e-01,2.682873189462979813e-01,-2.500385261224111200e-02,-3.999102183467750232e-02,-4.343367001285828970e-03,3.641473352909088135e-01
2.024259074287310667e-01,-1.335059613994060146e-01,2.866838216787804816e-01,6.983741664801495011e-03,4.683417971035786116e-03,-6.484254112205232144e-03,3.854773640632629395e-01
1.478570394116492936e-01,-1.174510520729324797e-01,2.524277888951748094e-01,1.092740041251186959e-03,5.985843268109031744e-03,-3.177958994594393648e-03,3.304667472839355469e-01
1.275911892224337318e-01,-1.374456309439267554e-01,2.284923921282684678e-01,1.309908106830353497e-02,4.108244948811870523e-02,-1.122592862978926721e-02,3.363394439220428467e-01
1.858598709402920213e-01,-1.316955231529631787e-01,2.495516963384101228e-01,2.289854422354168501e-02,2.040480270213507544e-02,-1.798964296041822772e-02,3.590497672557830811e-01
1.190101309736203566e-01,-1.108359807365134203e-01,2.577761206180864684e-01,-1.885260200850926967e-03,5.661520476330181295e-02,1.219483149667393868e-03,3.370623588562011719e-01
5.155251406747955734e-02,-1.733167390002831598e-01,3.154031921826199736e-01,-1.674597616854770063e-03,5.347919695775527060e-02,-1.992278037930575885e-03,4.337230324745178223e-01
8.924393311946349217e-02,-2.335722465577240448e-01,2.315968996435550376e-01,-9.621053752843495080e-03,6.009685860551553654e-02,1.021740503929199732e-02,4.264437556266784668e-01
2.538698361078314814e-01,-1.409429388989731358e-01,1.496220403002823107e-01,-8.725280521521037265e-04,5.737023754609629073e-03,-2.175215644593569975e-02,3.565205037593841553e-01
2.926892236539232472e-01,-1.386531714212850264e-01,1.832547552450462525e-01,-7.982309206878373089e-04,2.746024751679527337e-02,-1.645351598566729967e-02,3.923068940639495850e-01
2.548766882139039125e-01,-1.240342573776712226e-01,1.868714869278391699e-01,7.750831010763432373e-04,-2.656956860015083553e-05,1.000981201009362330e-03,3.499072790145874023e-01
2.489940421040190699e-01,-1.274245965266760094e-01,1.996211142566153840e-01,4.391099248918013676e-03,4.119211777379142188e-04,-1.062883195133635522e-02,3.548817634582519531e-01
2.443143216842984522e-01,-1.388486086185689028e-01,1.927391057304875810e-01,-6.542576704760299199e-03,-1.078885268146032202e-03,-1.366708879023060229e-02,3.611154854297637939e-01
2.223445237317375756e-01,-1.291196415491961402e-01,2.213112867077585977e-01,-3.593402467951868975e-03,-6.093592859861365375e-04,-1.980069499324986406e-03,3.510222136974334717e-01
2.308838971766185577e-01,-1.299921746239185161e-01,2.262123153480435911e-01,-6.696502331011340309e-04,-1.634001730078368580e-03,-1.201381640796352459e-03,3.585821986198425293e-01
2.277725246128015635e-01,-1.298048302174726332e-01,2.312238821745078166e-01,-1.288943258419175241e-03,9.711033419518999175e-04,-3.647787230404289389e-03,3.593818843364715576e-01
1.957432005532989128e-01,-1.260951175460149343e-01,2.185319844687189095e-01,-2.354599917923602334e-03,-7.911229608654047826e-03,-4.543692780257610475e-03,3.342153131961822510e-01
2.246541214791700214e-01,-1.379709348279110903e-01,2.279992088262985384e-01,-5.019004095122885784e-03,-1.229999223174624030e-03,-2.586240995026731215e-03,3.644465804100036621e-01
2.171858256630057049e-01,-1.320614699336560005e-01,2.181988429738949686e-01,-2.468014837679229946e-03,-2.951915414804527800e-03,-2.383515207708329815e-03,3.498427569866180420e-01
2.238798435582475266e-01,-1.323048829547420480e-01,2.321803061439370597e-01,-1.036607890016196746e-03,-2.744067045589919634e-03,-6.708174267331458093e-03,3.606296777725219727e-01
2.481757844857834239e-01,-1.354407494965328140e-01,2.356427474519847964e-01,1.983833631862030530e-03,-9.885117167939354819e-04,-1.058094981261200425e-03,3.775300383567810059e-01
2.455196753655919939e-01,-1.347102930976485369e-01,2.385961793287889599e-01,-3.703274832044393993e-04,-1.034399748753686739e-03,-2.101021253033806373e-03,3.768382966518402100e-01
2.434953375724522029e-01,-3.615018321249519051e-02,2.892076951684833253e-01,-9.436724232588821967e-03,-2.525768007690312733e-02,1.092305652994522182e-02,3.092142343521118164e-01
2.454053890331425736e-01,-1.360862625393126635e-01,2.385657885187300875e-01,1.782684623986396282e-03,-1.244658105411046694e-03,-2.652561652114446104e-03,3.781649172306060791e-01
2.437682576069765961e-01,-1.374092063893760096e-01,2.431386642342922288e-01,1.902736137525814445e-03,-6.724591217151018770e-03,-3.351079619767552680e-03,3.810995519161224365e-01
2.523451493728899320e-01,-1.354585167239381327e-01,2.363182550394427595e-01,-2.936852940674113902e-04,-9.417288912193003646e-04,-7.204040777992503416e-04,3.800496459007263184e-01
2.511406930645750379e-01,-1.304635624776677716e-01,2.373157564907891204e-01,-3.915237795612193546e-03,-5.217246618764874444e-03,-2.120337924335343534e-04,3.750534057617187500e-01
1.987106754047183732e-01,-1.367395627055624230e-01,2.526445775736588795e-01,1.357063290314894366e-02,5.131667335572959524e-03,-2.805658363115386654e-03,3.663099408149719238e-01
2.483581063455766735e-01,-1.052365254316823540e-01,2.504377717348367227e-01,-1.747504882217609714e-03,-2.901294390491723166e-03,8.478480426940193312e-03,3.549914360046386719e-01
2.563044370435234032e-01,-1.065132475039336502e-01,2.361219915327349983e-01,-4.526654479407293125e-03,-3.414180917418203204e-03,-1.164155599825103564e-04,3.532958328723907471e-01
2.582121617395706226e-01,-1.052928054963216398e-01,2.436307351525448250e-01,-4.752301176368303216e-03,-4.502953573488935671e-03,1.181948722893357093e-03,3.566242158412933350e-01
2.266327697384200313e-01,-1.355496212511225484e-01,2.454516962574817274e-01,4.547302908033931494e-03,-6.446033658346643686e-05,1.423628434996167475e-03,3.720406591892242432e-01
2.550862940558924485e-01,-1.045317148346386338e-01,2.403830854090917013e-01,-4.005444010808951322e-03,6.434800990395186070e-03,-2.412910503123697967e-03,3.527656197547912598e-01
2.144281736169477148e-01,-1.260565873106124501e-01,2.547357396973720656e-01,2.403491644286684555e-03,-1.306859008551322122e-02,1.724035824020729102e-03,3.630665242671966553e-01
2.559111000706669192e-01,-7.134807470433615628e-02,2.487825900599781037e-01,-7.103466511060444084e-03,8.630889272858250846e-03,-3.731243650098890058e-03,3.243965804576873779e-01
2.991468177161755726e-01,4.145158480619559604e-02,2.951996976035164977e-01,-2.629023297924081709e-02,3.111935484259523241e-03,-7.455187296817508344e-03,2.601433694362640381e-01
2.243715243230312573e-01,-1.272814407005193604e-01,2.210097511659631087e-01,-3.325853698846654299e-03,-6.222232924418716988e-04,-1.331553663442037495e-03,3.500408530235290527e-01
3.207809626564478434e-01,2.690018461321422305e-02,3.810113890395766534e-01,1.675603115559794491e-03,-1.139547277538283457e-02,-2.930202702070026921e-02,3.326680064201354980e-01
2.319958707313638513e-01,-1.289720769280386925e-01,2.252118914983717579e-01,-8.578408946523129880e-03,-3.567187498199565678e-03,-7.217758184436895777e-03,3.582042753696441650e-01
2.249161119361025030e-01,-1.264041843203776438e-01,2.218955289737445380e-01,-3.096805096668406136e-03,-2.363008563807181273e-03,-4.384182150117328647e-03,3.499672412872314453e-01
1.522349713181282427e-01,-6.962324155967235251e-02,2.725337391750097815e-01,4.352017918479257619e-02,-1.735575234516431933e-02,-1.025748986639093453e-02,3.119029700756072998e-01
2.483080234629673200e-01,-1.139678105706233291e-01,2.444259760973126472e-01,8.748017196196950255e-04,-9.253701386237612667e-03,2.380460337328597822e-03,3.607335090637207031e-01
2.366987466267509443e-01,-1.334455021285856913e-01,2.573268305204087225e-01,-3.901898592966088989e-04,-1.483643075739124158e-04,-1.162122305962416452e-03,3.808834850788116455e-01
2.515336371899349888e-01,-3.311785158910698912e-02,2.405349444324215158e-01,6.552989798382818139e-04,1.951219194043892630e-03,-5.664408233878983137e-03,2.795096039772033691e-01
2.413163940868826018e-01,-1.533812679605286999e-02,2.324019302215383220e-01,-9.575065926825297724e-03,-1.306570478035689979e-03,8.538294853792846302e-05,2.528700530529022217e-01
2.525844060767250543e-01,-9.996689585817547519e-02,2.508734740460943913e-01,-1.192751044066988481e-02,9.339376489381245525e-03,4.812548201388565372e-03,3.527748584747314453e-01
2.542573449054832402e-01,-9.759979961110373803e-02,2.348357850548703496e-01,-1.342306878094875599e-03,-4.776560179891069062e-03,7.383939093041922211e-04,3.426696956157684326e-01
1.943142097058932205e-01,-1.384224253880041444e-01,2.460571338335164060e-01,4.294795940455948050e-03,3.673747861881476989e-03,2.663415317593269640e-04,3.615297973155975342e-01
1.934387984660298487e-01,-1.402749001447136101e-01,2.868659280868056105e-01,8.083390582955284065e-03,4.612559166694527339e-04,-4.270997478516962717e-04,3.891896605491638184e-01
2.117130934566936462e-01,-1.307688519540002869e-01,2.928864694361450471e-01,8.551793404753687405e-03,1.537279736657121837e-02,2.150034750245830191e-03,3.906733393669128418e-01
1.544737383517773011e-01,-1.432793942350887306e-01,2.754139288076830061e-01,2.713332466498549755e-02,3.203636944505381529e-02,-9.583369896605402338e-03,3.806007504463195801e-01
8.693187561303608590e-02,-1.915942369865308859e-01,3.336064184213597961e-01,-3.239483624560854369e-02,-5.736173309329928999e-02,-7.155990737050437270e-03,4.693649113178253174e-01
1.244630072437077212e-01,-1.072459142137407728e-01,3.524057853712028177e-01,1.567689168508075437e-02,4.296363456330464653e-02,-2.834410243649400883e-03,4.059092700481414795e-01
2.582276460139246721e-01,-3.255465214051050937e-02,2.684731355259452057e-01,-2.015079590271443705e-02,-7.396520568579356518e-03,7.999972306746360243e-03,2.986851334571838379e-01
1.257541549386239355e-01,-1.306375374665199318e-01,3.069538525113894023e-01,-1.506797449693724573e-04,-4.310092461626804927e-02,-3.732825463149218575e-03,3.881276547908782959e-01
2.384098298064322996e-01,-1.406544897841650321e-01,2.394043342541197217e-01,-9.020684180888342884e-04,-9.103733438221987048e-04,4.011817115821781298e-04,3.795696794986724854e-01
2.409636115032868786e-01,-1.407398015788886569e-01,2.400339614415861744e-01,-1.294481093856886342e-03,-2.434738619507443268e-03,7.567894183769005145e-04,3.812716007232666016e-01
2.372872643873445153e-01,-1.338250688683546297e-01,2.318931768327489040e-01,-1.552111953386115612e-03,-4.539559295953884098e-03,4.933597786368647785e-03,3.686376512050628662e-01
2.409707838428327975e-01,-1.398242163836136143e-01,2.377399260075920839e-01,-1.841288813963227935e-03,-1.149526456620656540e-03,3.759033244117900973e-03,3.792644143104553223e-01
2.423153683009987291e-01,-6.139211951818790425e-02,2.550490985816469269e-01,6.754981595171597082e-03,-8.355883093878614665e-03,-8.643488575815080899e-03,3.111883699893951416e-01
2.376573579249323942e-01,-1.422958271946960784e-01,2.388653914225507824e-01,-4.855036085402685540e-04,-1.547083477114137139e-03,5.664331601187092826e-04,3.805702626705169678e-01
2.398281453049462830e-01,-1.399324881690935940e-01,2.391934184868826918e-01,-2.940041104806177634e-04,-1.107274225005928708e-03,9.443816033866982412e-04,3.794523775577545166e-01
2.403882036360310004e-01,-9.667734106809222627e-02,2.467940331400984011e-01,-4.978671108241987039e-03,9.281754879258937926e-03,-1.004854315917496840e-02,3.412464559078216553e-01
2.355259779702047196e-01,-1.035512633847657515e-01,2.579168583015672978e-01,4.748480618266516452e-04,3.274814277218195038e-03,-6.097654806299892399e-03,3.510147631168365479e-01
2.550746273532861208e-01,-1.028278188941615379e-01,2.385495703240184673e-01,-2.378610802180082529e-03,-7.351348473277781286e-03,-9.334645334483212750e-04,3.501922190189361572e-01
2.388215107836463569e-01,-1.317652498981739806e-01,2.435422403811565162e-01,-3.712165531392463361e-03,-3.039255207066231604e-03,1.695433008253436876e-03,3.730736374855041504e-01
2.499699564284036390e-01,1.912636262407507726e-04,2.550224409696560390e-01,4.307309581649884991e-03,-6.409355838817766375e-03,-1.384619381491494598e-02,2.538325786590576172e-01
2.358723544520044957e-01,-9.381693564600812607e-02,2.569269178981048452e-01,1.846363203267423030e-04,-1.931651713649766610e-03,2.934546598278749141e-03,3.407593369483947754e-01
2.386320362435861986e-01,-1.062030663294071253e-01,2.515322872347081629e-01,-3.221331917308202075e-03,8.833972067028988961e-03,-4.228262611258593213e-03,3.519161939620971680e-01
2.394590420797165220e-01,-1.120185315068828735e-01,2.485853632514818667e-01,2.051918689471484477e-03,9.267721621684337288e-03,1.651384943054984029e-03,3.565192222595214844e-01
2.539665128760049684e-01,-1.187298206990594351e-01,2.349699863244480991e-01,-1.474581187219868497e-03,-2.830410275711105639e-03,4.587411984954109165e-03,3.636992871761322021e-01
2.454846493068579549e-01,-5.479505982010232645e-02,2.603265201530880479e-01,1.077569504784471610e-03,6.646898162674200758e-04,-1.330023595200589652e-02,3.088371753692626953e-01
2.502328674232603967e-01,-1.356379632190415629e-01,2.708872071501113310e-01,4.870238027482438892e-03,-2.107568350331132448e-02,1.359448762945957880e-02,3.990625739097595215e-01
2.745290245018737751e-01,-7.624122022922988351e-02,2.732665691440725464e-01,-7.498001555656869273e-03,1.838265476232692121e-03,1.070397943308983284e-03,3.504008650779724121e-01
2.433116142660779191e-01,-7.784319741502218615e-02,2.479866401395136033e-01,-2.774318928945531185e-03,8.744008255399988647e-03,-6.465916962841752012e-03,3.241011500358581543e-01
2.390494832168242323e-01,-1.359602322679171471e-01,2.398144914532936989e-01,5.227573303764974227e-03,2.634133583162914533e-03,4.777991394846925650e-03,3.756208717823028564e-01
2.623755754630389125e-01,-6.954100665112455948e-02,2.483638339658897909e-01,-1.343675598241725506e-02,4.240064412419268861e-03,-1.725038234146133390e-03,3.260655105113983154e-01
2.330462917046055016e-01,-1.278619093705209986e-01,2.262497400470534492e-01,8.670309200632522056e-03,-3.949724904249648193e-03,7.854009028477456841e-03,3.581973910331726074e-01
2.253387587373676393e-01,-1.342415254916642930e-01,2.498977811405975746e-01,-8.958776498508253666e-03,-1.812397736406564513e-03,-2.896868390651921761e-03,3.728376030921936035e-01
2.180194690166076810e-01,-6.028899179347363413e-02,2.500892834017556798e-01,2.843544379583418796e-02,-5.328783499930916240e-02,-3.775483684592993890e-03,3.136823773384094238e-01
2.682252939991187635e-01,-6.681787482468512507e-02,1.706937886891178868e-01,1.573011808367566489e-03,-3.773125506144213437e-02,3.490017588860002545e-02,3.114827275276184082e-01
1.643680588073368476e-01,-1.249984473921075950e-01,2.471493175923935026e-01,-7.600853939028885328e-03,5.908191310859674077e-03,3.660726261643187582e-03,3.389071822166442871e-01
1.952503319703582374e-01,-1.323258465712542353e-01,2.457298285048868380e-01,-1.172640568068420396e-02,2.512000340005887694e-05,4.769523760517948435e-03,3.561895489692687988e-01
1.958559995376059903e-01,-1.382703968791412219e-01,2.473319253194644629e-01,-1.027067647046900865e-02,-1.352767018270682221e-03,-3.681994219544615626e-03,3.631147444248199463e-01
1.996739148063259028e-01,-1.247156182667169960e-01,2.564350249993525011e-01,-1.202210344598040291e-02,6.561944862058487747e-06,-3.424356430186526086e-03,3.568359315395355225e-01
1.496625220458108196e-01,-1.341742109430280050e-01,2.572372185726286009e-01,-5.532716765768042749e-03,-3.402238982269614308e-03,3.457009162388330250e-03,3.504734933376312256e-01
2.003027336490400823e-01,-1.300257084812025676e-01,2.500901984409570900e-01,-1.157042441892223994e-02,2.521626345180104454e-03,1.765910666029773309e-03,3.584298193454742432e-01
1.955607261143608722e-01,-1.329594009769617946e-01,2.490709589798688062e-01,-2.780500972500754564e-02,1.043610232010462255e-02,1.352242728860994676e-02,3.627156913280487061e-01
1.553158053647517578e-01,-1.316995608984880273e-01,2.394782619962991799e-01,-8.360942247428747309e-03,1.755319433080443706e-02,4.819264700465795796e-03,3.388521671295166016e-01
5.593687196420120411e-02,-1.539227910005302180e-01,2.665526957435310762e-01,-1.457627015883501860e-02,2.592861125181011080e-03,-3.195644744760414886e-03,3.650864064693450928e-01
9.565422922635025138e-02,-1.876348702178146644e-01,2.538525602208109855e-01,1.232100487112526566e-02,2.810004122603336832e-02,8.534252914946624524e-03,3.913285732269287109e-01
1.302179088926320172e-01,-1.390237453790015287e-01,2.583186508938890569e-01,-2.519586912386719349e-02,4.846397357645210180e-02,4.206125229685603664e-03,3.638609051704406738e-01
9.442001276756653572e-02,-2.200668615770063063e-01,2.563024480091070090e-01,-3.111230192348834328e-03,-5.057429041412312559e-02,-2.188958417731737965e-02,4.302994310855865479e-01
1.828075765313526280e-01,-1.439204160349024930e-01,2.420837107274997901e-01,2.523974959235334228e-02,-1.115845011791434527e-02,1.449007609077909015e-02,3.640694618225097656e-01
1.560039903052610200e-01,-1.352438794378746090e-01,2.502064726580185416e-01,9.000255965420009968e-03,-4.384831312933500785e-03,-1.161851378428526566e-03,3.484830558300018311e-01
1.952483933346178535e-01,-1.357198402330499210e-01,2.539998235865674747e-01,1.370518010523536466e-02,-1.669760895975613748e-03,-2.943269722466764784e-05,3.647032082080841064e-01
2.002774041760746193e-01,-1.347412919262369058e-01,2.469101378942805125e-01,1.193298516717948565e-02,-4.524873081188381108e-03,4.179328614624526136e-03,3.613530099391937256e-01
2.125710734398999491e-01,-1.331298477855008544e-01,2.367354629360708396e-01,5.361040591479135711e-03,-6.707609489806494636e-03,8.259835047581882972e-03,3.589882552623748779e-01
2.202105962490508162e-01,-1.330072763545693815e-01,2.415523152218020941e-01,-7.397941583114196360e-04,4.721305551088506177e-04,3.634135309354062041e-03,3.644153475761413574e-01
2.208713130212013320e-01,-1.239338092696785076e-01,2.527751635787554019e-01,3.818301156633209081e-03,-4.523686767949107804e-03,4.245260710321068290e-03,3.620334863662719727e-01
1.833229471224074869e-01,-1.205536559697685667e-01,2.156853042271849319e-01,-3.119990512851832619e-03,-1.151819332409036688e-02,-6.942622169019839647e-03,3.221712112426757812e-01
1.932372693728980351e-01,-1.213961170880843293e-01,2.295250112267289699e-01,4.244218105759459472e-03,-3.744439294061578053e-03,8.118807728141684554e-03,3.346970975399017334e-01
2.143366626521006901e-01,-1.229928105980454545e-01,2.094862727977051253e-01,-2.947156590415604682e-03,-3.163487013234366711e-03,-2.664426167326514744e-03,3.350461125373840332e-01
2.566846792614577710e-01,-1.078365625047472409e-01,2.428658920855630288e-01,4.673493904694053097e-03,-3.625470289409514144e-03,-1.375015795609517714e-04,3.579587638378143311e-01
2.138223006497881329e-01,-1.240154362067230204e-01,1.886177172911424893e-01,2.424921165270222875e-03,-9.001525875466556692e-03,3.985841494385531263e-06,3.263667821884155273e-01
1.951939955625466294e-01,-1.133673575303973391e-01,2.415297285111145942e-01,4.059854588625263008e-03,-2.339748179093176575e-02,2.340550587568609488e-03,3.366938233375549316e-01
2.059946203144512322e-01,-1.196475795334289022e-01,2.114867217845299852e-01,6.210888786208819965e-04,-4.920520663014866375e-03,1.391332089655099215e-03,3.285438418388366699e-01
2.093030381512634985e-01,-1.217749433973771001e-01,2.184496143642256083e-01,2.803244577581904921e-03,-3.365345626961518781e-03,4.587087052075332003e-03,3.359243869781494141e-01
2.117206324083413804e-01,-1.265726765952205068e-01,1.900310611086937496e-01,4.151929717005250695e-03,-9.884243640173425577e-03,1.788599934112381070e-03,3.285266757011413574e-01
2.602108401140962313e-01,-6.048529312734035601e-02,2.440430320563841682e-01,-1.276417494073631663e-02,5.593497157795231101e-03,-1.846335901250760600e-03,3.138715028762817383e-01
2.534767999183269449e-01,-1.002247356853714633e-01,2.332517840744652848e-01,1.719525905194191264e-03,7.041980630711913887e-03,-1.415149232087950081e-03,3.442729413509368896e-01
2.539920231350998314e-01,-9.389191794781237554e-02,2.805321714283612322e-01,-2.802681404625628802e-04,-2.440243171475130462e-03,4.313173678155035606e-03,3.619867563247680664e-01
2.474328938894192476e-01,-8.701091411201339332e-02,2.534816677446038446e-01,-1.850550293428377541e-02,5.682296029205496403e-03,-3.481836275286444987e-03,3.392238616943359375e-01
2.089621470794688352e-01,-1.016304918054973805e-01,2.639896152202381163e-01,3.990866318509216429e-03,4.234692840548322755e-03,3.853786396166988641e-03,3.416622281074523926e-01
2.586318182514166786e-01,-1.002382352195770321e-01,2.353634882408645879e-01,-6.122520621132358440e-03,1.854070159272215839e-03,-1.252350977260716329e-05,3.479965329170227051e-01
2.571296856921639340e-01,-1.017772402423588185e-01,2.346516577860217612e-01,-4.615679931584067835e-03,-3.460839610209425800e-03,8.590738106374192981e-04,3.483589887619018555e-01
2.282377661203889851e-01,-1.352976966930408698e-01,2.449787505330598969e-01,5.261398953626019760e-03,1.514059714392921446e-04,-3.343909955677728087e-04,3.723005354404449463e-01
2.502851340334396602e-01,-1.194467432004694407e-01,2.443472402057070281e-01,-4.423581328989458286e-03,-2.649065318242160415e-03,6.733242083205591248e-03,3.670929968357086182e-01
2.535017382554736187e-01,-9.140898023208737788e-02,2.352902017740964580e-01,-7.232174711132289407e-03,-9.038103565982102787e-04,8.212535306191915763e-04,3.364150524139404297e-01
2.729471820286224482e-01,-3.709959747844268629e-02,2.598861174314658351e-01,1.614630861085846955e-02,-1.463530127741698075e-03,1.581093635416222151e-02,3.062491714954376221e-01
2.532857705957874961e-01,-8.460432857854860433e-02,2.407190022363718263e-01,7.066716955301532987e-03,4.503188433182315521e-03,1.851300626787222986e-03,3.321180343627929688e-01
2.333423788050890124e-01,-1.147872900254112427e-01,2.588942975173017524e-01,-1.248570395582911455e-02,-1.448565281414634399e-02,-1.409355429365303537e-02,3.639170527458190918e-01
2.545780365907164833e-01,-7.885489581972277007e-02,2.483758152852778012e-01,-5.229328426374613668e-04,8.600116367434119252e-03,-3.765069305287420572e-03,3.307766616344451904e-01
2.636513335427276838e-01,-4.051227187497244420e-02,2.638927991655389826e-01,8.237581411354503308e-03,-2.242571540941039419e-03,-4.303739223493410629e-04,3.046444058418273926e-01
2.590393881038017820e-01,-6.920214037259067585e-02,2.437427566861306849e-01,1.164019266288301643e-02,7.174248963678889549e-03,8.141682609892730849e-03,3.220485150814056396e-01
1.655402813316748378e-01,-8.715062393321476586e-02,3.439750426491341440e-01,-1.545513734320083134e-02,-3.366034165260939348e-02,4.185688759992408324e-03,3.807213008403778076e-01
2.424811398050331912e-01,-7.592663450891620758e-02,2.563143619868448742e-01,4.490958807134726866e-03,1.185957545099748309e-02,1.090950269727224316e-02,3.268317282199859619e-01
2.593947821263206110e-01,-1.258106570089540244e-01,2.229579114045309174e-01,-5.355043841904810926e-03,-6.484708819659017361e-03,-3.417790590102750929e-03,3.686765730381011963e-01
2.204679730076045674e-01,-1.244330175218919532e-01,1.756129875657444495e-01,-8.226702453192305531e-03,-7.113503446091083704e-02,-1.104876641842804028e-02,3.482067883014678955e-01
2.251872183227935365e-01,-1.210925977517540025e-01,1.859925530009408079e-01,8.372715646395152006e-03,-4.694195095239489524e-02,9.591676080256027886e-03,3.390730917453765869e-01
2.510355606514159121e-01,-1.786352135141643926e-01,7.714152814324959362e-02,-6.076121311644432782e-03,-7.997202793899096940e-02,8.306070415137152552e-03,3.995537757873535156e-01
2.626881564915030665e-01,-1.403572861378017955e-01,1.892015340270511992e-01,1.092033965746985920e-03,-3.203459105417978681e-02,-1.346650796695992962e-02,3.766347467899322510e-01
2.369997410147611783e-01,-1.401361029888283372e-01,1.075215500370674260e-01,-3.428445932816786505e-03,-2.961968030333817989e-02,-8.848692573385930765e-03,3.362548351287841797e-01
2.593673205894547751e-01,-5.765594385310979231e-02,2.380564128815730873e-01,1.196828088180872107e-02,6.935519659628802550e-04,7.367130984050906679e-04,3.076274394989013672e-01
2.459141130742263370e-01,-1.374762260861217833e-01,1.463230849325558303e-01,2.239482429075820118e-03,-2.129624001772247163e-04,-1.286777192630329802e-02,3.453059494495391846e-01
2.935653672439679784e-01,-8.646642080694322274e-03,2.947108145541478263e-01,1.716817576185520125e-02,4.392103672393329883e-03,-1.641106671237196196e-02,3.056626617908477783e-01
2.453149894189035340e-01,-2.364730173307805217e-02,2.451319673668982124e-01,7.132734593871362626e-03,-7.077664654451486063e-03,-1.276202435090983620e-02,2.703387439250946045e-01
2.061366097699701139e-01,-4.663384452805335867e-02,2.650224363932519589e-01,1.213037780241091931e-03,1.837954497155761674e-02,5.707833910498109030e-03,2.887223958969116211e-01
2.465166747741112663e-01,1.699456580517341719e-02,2.443465198086152146e-01,3.022082364104946434e-03,1.410392925554290657e-03,-3.624862476348206502e-03,2.286040186882019043e-01
2.476484506539090025e-01,7.969521851945160495e-03,2.468188200540366029e-01,1.811376857124326117e-03,-5.177832765410540772e-03,2.608556594526465974e-03,2.394963800907135010e-01
2.693385529736289641e-01,9.029840100565844629e-03,2.732417937376075967e-01,1.314201279669417397e-02,-2.285319819126037898e-03,1.510413655121089485e-03,2.633107602596282959e-01
2.386865035188794060e-01,1.022598107990324579e-03,2.374543690650898486e-01,1.543649171529930253e-03,2.721659327308138462e-03,-5.921794092297134535e-04,2.371143996715545654e-01
2.505566387636752879e-01,7.427880128054675790e-03,2.449908517374651262e-01,1.315913642305875306e-03,-2.074131164924148014e-03,-3.712939331712678762e-04,2.404326945543289185e-01
2.561174599631774185e-01,-8.442420168994155261e-02,2.459378221063341918e-01,-8.268809866326776170e-03,-3.523861649026429482e-03,1.229661928551792479e-03,3.359353542327880859e-01
2.887758895252265368e-01,1.935029616080480297e-02,2.808008954207337204e-01,2.885870456784549870e-03,-5.436699609812965447e-03,6.051775146594467157e-03,2.659485042095184326e-01
2.570833008267940367e-01,-8.988210142928237945e-02,2.502171464293626579e-01,1.098284801809201738e-02,-6.940027258461716093e-03,-5.852826683127097633e-03,3.444690704345703125e-01
2.862908741271394386e-01,-1.257886114302388392e-01,1.165176032325396793e-01,9.353530431832787718e-04,-7.299546785556450474e-04,-9.645184048005652627e-03,3.591040074825286865e-01
2.551176989648824001e-01,-1.237583816164330580e-01,2.388585018598707588e-01,1.792722139202430464e-03,-4.183267195673230285e-03,1.604969224623822074e-03,3.711079359054565430e-01
2.428201397743263712e-01,-1.205357485627934905e-01,1.755843104224291684e-01,8.017777423922631611e-04,-2.814155092299193070e-03,2.096830087043913791e-03,3.348977565765380859e-01
2.599923529258882926e-01,-1.173859325355638694e-01,1.350338647873857434e-01,-1.035123088949761608e-03,-3.753960398021061184e-03,2.038119786421497442e-04,3.330435156822204590e-01
2.443170068320659749e-01,8.492348548940015229e-03,2.395058863040647745e-01,-2.326215457849801875e-03,-5.999261006588143749e-04,-6.853874336287142915e-04,2.334963828325271606e-01
2.489225416102062438e-01,4.171707782808870002e-03,2.411569293915991619e-01,-1.477162590192582746e-02,-2.321523961219589850e-03,8.879098098451516236e-03,2.428372353315353394e-01
2.426418693278242500e-01,-2.651369598042846443e-02,2.381706698161459301e-01,-7.276090911869665528e-03,4.813297267952070489e-03,-1.584744728783058767e-04,2.673754990100860596e-01
2.538679099684002516e-01,-1.047488291162775031e-01,2.353641242628354835e-01,-2.744979990205164214e-03,6.003085231083160438e-03,1.155997350931071282e-03,3.499247133731842041e-01
2.454666336990553588e-01,1.620332240920668854e-02,2.468713513358752887e-01,4.087345496227180915e-03,-2.220324807564242123e-03,5.733713379429059009e-04,2.301121056079864502e-01
2.542720542831748975e-01,3.918272137093595231e-02,2.551217889505661418e-01,1.190789693811697414e-02,-1.937404989341074335e-03,3.069642901679086027e-03,2.165914028882980347e-01
2.472350154897283159e-01,-4.659177178490514493e-02,2.544129664450709427e-01,-1.180442762220155171e-02,-3.266943402358833334e-03,-4.483401168544870474e-03,2.983372807502746582e-01
2.582010462493367076e-01,-5.247982859947805667e-02,2.366460944395207822e-01,-1.148196125186564873e-02,1.354042886080668870e-03,-1.761522024430449375e-03,3.011657893657684326e-01
2.939826778810654684e-01,3.742373123187286987e-02,2.862003257761363550e-01,1.982306584842208168e-03,-1.247867323112870387e-03,1.263594199063830179e-02,2.537358701229095459e-01
3.246199144543303605e-01,2.242375092713300155e-02,3.066197833136043993e-01,3.070966317097184508e-03,1.204659670661220247e-02,5.208865305101326171e-03,2.945369482040405273e-01
2.307128978409370978e-01,-1.362848571057700131e-01,2.306496069514200054e-01,-1.799773740899841649e-03,1.421324107209398979e-04,-1.059602604737041893e-03,3.669840395450592041e-01
2.259481896723453120e-01,-1.306354516671617283e-01,2.295379805501471249e-01,-3.513309944496358344e-03,-1.881405475328753194e-03,-3.419712105622254965e-03,3.585074245929718018e-01
2.372307842982795401e-01,-1.404571237398146155e-01,2.369635249793505261e-01,-8.325227503992629462e-04,1.589730346660021896e-04,-1.429419496094890777e-03,3.775653243064880371e-01
2.375773775392123199e-01,-1.363722490978646340e-01,2.364902581599180598e-01,-2.438294209859453358e-04,-4.356332276641781400e-04,-1.122150815706704583e-03,3.734133243560791016e-01
2.736322091286047531e-01,-6.590322733905493169e-02,2.622824537555368818e-01,-6.180000394688381533e-03,-2.524722266503982588e-03,7.648087314732098701e-04,3.342079222202301025e-01
2.775413763375043641e-01,-5.694960318919450870e-02,1.634874209493513142e-01,7.899157818386584595e-03,1.093334245490414774e-02,-1.447152277659437790e-02,2.965072989463806152e-01
2.960806389122266347e-01,-7.595344938498602150e-02,2.700976927254019055e-01,-1.906385640962791114e-03,-4.098972601738162108e-03,1.668115288243334285e-02,3.609903454780578613e-01
2.623925017070156684e-01,-1.316381897928863842e-01,9.536326007636827806e-02,4.702561769800427463e-03,-8.281167635667495072e-03,-3.967842593263732481e-03,3.430213034152984619e-01
2.507970228077797126e-01,-1.473675113344927179e-01,1.817128360595668957e-01,-1.081146622603603499e-03,8.932123982068088455e-03,-3.542712498141916549e-02,3.739102184772491455e-01
2.803686565547496706e-02,-2.792395771476096078e-01,2.678071920710062837e-01,-1.909073314039087116e-02,4.431402205051292870e-03,3.394131411765233253e-02,4.797840416431427002e-01
2.464222280384897046e-01,-1.393386419383342845e-01,1.643445603785945452e-01,-2.928157393962959069e-04,8.711502188959306670e-02,3.186917036459871629e-03,3.829930126667022705e-01
1.035105337643523471e-01,-1.386204419015119593e-01,2.898023711425422588e-01,1.699939974692377120e-02,1.657053382599883717e-02,-2.438726220769510747e-03,3.743629455566406250e-01
1.436320542186250715e-01,-1.420767973285350094e-01,2.128828368925203551e-01,-1.340479824422574455e-02,-5.088912049267994148e-02,-8.982239758749158490e-03,3.387639224529266357e-01
2.991709146752601356e-01,-1.282441914929723925e-01,1.801159453564247781e-01,-1.183841946837880382e-02,6.293874312026370710e-02,2.021493676555294328e-02,3.993771374225616455e-01
1.314035006363224733e-01,-1.393397926556665389e-01,2.541029045717998480e-01,1.119782717850280329e-02,4.184694050899960549e-02,-3.616614603096420660e-03,3.567156195640563965e-01
7.236849191504363121e-02,-2.438008500124448918e-01,2.131653610457707182e-01,2.017985548841197754e-02,-7.230701246123327763e-02,2.157722520553540663e-02,4.273239970207214355e-01
1.567309376376115893e-01,-1.173556044254439046e-01,2.631843172034619149e-01,-5.081717212168407327e-03,-1.360233731011895085e-03,-1.142861858049881805e-03,3.401766121387481689e-01
3.216974423128993177e-01,2.749324113030782168e-02,4.113362655657608613e-01,-1.554875465413710182e-02,-2.574391693187807681e-02,-6.322651222767282364e-03,3.518477082252502441e-01
2.866734965021733306e-01,-5.386349563619607927e-03,2.806872074078440304e-01,-2.608537489648709087e-02,-2.488786021484194408e-02,-6.677547310596956831e-03,2.960063517093658447e-01
2.491190205263369706e-01,-9.043985846656835137e-02,2.364047322077951763e-01,4.377405501415550584e-03,6.320159827307884198e-03,5.035196007281761595e-03,3.337634205818176270e-01
2.275086885175203466e-01,-4.173063851652172862e-02,2.637285624573716958e-01,-5.567812837586656391e-03,-2.971629648797800491e-02,-2.028329912276592706e-02,2.958545684814453125e-01
2.344916904701779548e-01,-1.232575961008056664e-01,1.807173762745794554e-01,-6.326082981996610129e-03,9.484975515558095871e-03,6.592987879020324217e-03,3.349012732505798340e-01
2.583326499663340936e-01,-6.341907847821603994e-02,2.469959762090970790e-01,9.099268451846618047e-03,7.835210974781577076e-03,6.475299618411789124e-03,3.171174228191375732e-01
2.381279431442477890e-01,-4.510938701106428916e-02,2.466195415016501635e-01,-6.738349176600967605e-03,-2.124720004038424190e-03,-1.312908260341386470e-03,2.878464162349700928e-01
2.481822769826446673e-01,-6.076574611160920347e-02,2.455180743202423077e-01,-2.031088290640465158e-03,6.464425229699649264e-03,6.361165979593471666e-03,3.080454766750335693e-01
2.447023321207698332e-01,-2.743241466263124373e-02,2.384353955259590485e-01,6.001508945364031865e-03,2.413127889031152669e-03,-7.236248626640883527e-04,2.692921161651611328e-01
2.210141430677205476e-01,-1.195956434946224833e-01,2.398927803193874331e-01,8.791325249651302243e-03,1.996608142576338993e-02,-1.677866763615767920e-03,3.524740040302276611e-01
2.282240421793241825e-01,-1.388009729408992143e-01,2.356047646566857556e-01,3.255063104054713077e-03,1.090692180329394089e-03,-6.731918951139691243e-03,3.710014224052429199e-01
2.331817216060442233e-01,-1.223276806671206168e-01,2.096580066551473887e-01,4.027263657678569267e-03,2.021879285641730445e-02,-5.823655441879869998e-03,3.463440537452697754e-01
2.243884184025814466e-01,-9.700491690884735507e-02,2.253189517647257167e-01,-2.150228391482965091e-03,4.542540828705922407e-02,-2.196646975743830540e-02,3.335348069667816162e-01
1.813557347863339331e-01,-9.564278507487232461e-02,2.488210936404428031e-01,5.355957789627868032e-03,4.355487642926959141e-02,-9.956897380851955151e-03,3.256410956382751465e-01
1.440416926984999790e-01,-1.759733772667862461e-01,2.271666551780007204e-01,-6.781220270639982560e-04,7.815448898890473006e-02,-7.637713169047604875e-03,3.929648995399475098e-01
2.150403680494953340e-01,-1.554427167588112724e-01,1.375888361229365420e-01,2.143600278026606271e-02,9.524928784960480510e-02,-2.716514469327945686e-02,3.812762796878814697e-01
2.317656793835909390e-01,-1.329624605770192425e-01,1.800820530151202303e-01,-2.176022550821595479e-03,1.288472020093626470e-02,1.294061470856005917e-02,3.433103263378143311e-01
2.298522388840545660e-01,-1.450021256489398558e-01,9.075432133319688566e-02,-6.907763537220784275e-03,7.593256824193725385e-02,1.012824311590394821e-02,3.542184829711914062e-01
2.464761487191543810e-01,-1.275961637694263684e-01,1.692267492239126481e-01,-8.819467890432697299e-03,2.224826592374825468e-02,9.089432701759981442e-03,3.449157178401947021e-01
2.219080918664603774e-01,-1.423070460072176635e-01,1.820636735901102199e-01,-1.238607502789054564e-02,5.586002581694798907e-02,2.784448744133224962e-02,3.631466925144195557e-01
1.955281839591227477e-01,-1.424896002953343621e-01,2.447459991124889545e-01,1.262262812291572653e-02,3.714608974896309399e-03,-7.109345583410978803e-03,3.660408854484558105e-01
1.867880336240260175e-01,-1.374643977577202913e-01,2.516824808708921779e-01,1.655557894542409800e-02,2.737270524957182306e-03,-1.493662784927374818e-03,3.622768819332122803e-01
1.578209417162132755e-01,-1.294546982085313935e-01,2.580782385971855941e-01,1.086665291198370825e-02,-7.530155993775536870e-03,-7.981576890979300530e-04,3.491512238979339600e-01
2.691309845209953755e-01,-1.328783096920248541e-01,1.324656443152805729e-01,7.301615102075001244e-03,-3.611375597385534097e-02,1.425652659169475943e-02,3.605973422527313232e-01
2.720654866288100826e-01,-1.405562458625746469e-01,1.248662564848802559e-01,6.120314770803998716e-03,-3.761617602987928077e-02,1.972445920744657355e-02,3.697447478771209717e-01
2.128842967542073361e-01,-1.231360997933888812e-01,1.859041639826500003e-01,-1.774782102038713338e-03,-9.193311831206651269e-03,-1.193213624540151625e-03,3.237885534763336182e-01
2.117105325483837619e-01,-1.430073787070548497e-01,2.153399921160794594e-01,2.716134152710642131e-03,-6.321889485603199299e-02,1.069247486638990469e-02,3.734707534313201904e-01
2.362181089929160094e-01,-1.340205752459716071e-01,2.075905693075424385e-01,8.085243811553455284e-03,-2.519528783002178765e-03,6.631169298708845111e-03,3.572733700275421143e-01
2.010203828060268261e-01,-1.949408290052433712e-01,1.586168701395484770e-01,2.192233009163772634e-03,-1.187360583701506656e-01,8.719793850375377742e-03,4.293372333049774170e-01
2.188768585516611964e-01,-2.765533951045321404e-01,7.340324883648216558e-02,-4.217655149498066025e-02,-9.736290321360768774e-02,-1.616553485836723023e-02,4.786447882652282715e-01
1.453890775770093347e-01,-1.840426071313166767e-01,1.673440458097341377e-01,1.969503990147084341e-02,-1.024201739125817356e-01,2.050500610717098660e-02,3.874721229076385498e-01
2.456473403874074035e-01,-1.576463754560296360e-01,1.025263633698889759e-01,1.416139267620554996e-02,-7.194430880667854189e-02,1.849050512231986687e-02,3.775777220726013184e-01
2.320731573800632885e-01,-1.365057456155227000e-01,2.249936755334732141e-01,-8.470511040757768700e-03,-3.298547386535034213e-03,-6.181775051677152605e-03,3.655868172645568848e-01
2.402672175220775252e-01,-1.327208625915725360e-01,2.401585883258016141e-01,-1.362750292027076378e-03,3.446871141327766987e-03,-3.922850063940362631e-04,3.729896545410156250e-01
2.401888905822514020e-01,-1.412024443457578493e-01,2.402343312740964354e-01,-7.928305323111667271e-04,2.751694776642451580e-03,-7.371140119158778748e-04,3.814484477043151855e-01
2.400479201834605780e-01,-1.341266933677718876e-01,2.399957972201950396e-01,-2.699886449240889580e-03,2.666185683222809227e-03,-5.769594361785018027e-03,3.743396699428558350e-01
2.392218957616538133e-01,-1.402996856728467301e-01,2.384684817609592500e-01,-3.962996783545917590e-04,1.227396930516489555e-03,-1.178580013853867525e-03,3.791575133800506592e-01
2.393736014940314183e-01,-1.413700857666595478e-01,2.384064095157388263e-01,-4.466277177101814926e-04,1.785519988729994097e-03,-7.845390730810026256e-04,3.802767992019653320e-01
2.416724619788858663e-01,-1.384178657420974123e-01,2.401301733212560796e-01,-1.406160018658540040e-03,2.309382620067130468e-03,-2.233854051550923214e-03,3.793701827526092529e-01
2.174568703554851379e-01,-1.366317348197085002e-01,2.338611944654713781e-01,3.095498233253796616e-04,-2.272024711846503710e-03,-5.725666633282408199e-03,3.627265393733978271e-01
1.978214582935038102e-01,-1.272593543669705007e-01,2.501942314767526820e-01,-8.782119631225063228e-03,-6.073774714868064584e-03,-2.353755358950185457e-03,3.546893000602722168e-01
2.484585749939373645e-01,-1.315453141152584382e-01,2.319250735979333511e-01,-7.492767010338020808e-04,6.751679128226363569e-03,3.960658445125630513e-03,3.722620308399200439e-01
1.527407489394695950e-01,-7.389816124531266295e-02,2.747111218905992081e-01,-3.104845639491166098e-02,9.325171861860858877e-03,-8.875248828882981861e-03,3.118884563446044922e-01
1.102885728627937961e-01,-1.050111216481331988e-01,2.957462160349032532e-01,-5.427744298571894610e-03,6.491547170682673146e-03,1.239047330445069463e-02,3.483573496341705322e-01
2.421437713130081548e-01,-1.273972614278985338e-01,2.512409575053248245e-01,-6.987889037340421286e-04,8.013857762937739992e-03,-6.912862750612651548e-04,3.744338154792785645e-01
2.393896176717767998e-01,-1.363789533117019670e-01,2.467715532260841282e-01,1.844081727584739655e-03,4.679290116339044313e-03,1.584913376627603530e-03,3.796232938766479492e-01
2.401044207872310987e-01,-1.328540986610652341e-01,2.477051137380730239e-01,-6.584052211542877359e-04,4.595589478030957450e-03,-3.918493520065032053e-04,3.769027590751647949e-01
2.372036514137597085e-01,-1.380314981162894528e-01,2.415755458051826454e-01,2.279611612950389627e-03,1.240368569804729164e-03,2.355929405058627794e-03,3.774889111518859863e-01
2.346083651098612999e-01,-1.393834444705217279e-01,2.288967045653108323e-01,6.243480117090163123e-03,-3.669836416925055349e-04,4.192160663105301902e-03,3.713979721069335938e-01
2.361167999953802110e-01,-1.393190408136746883e-01,2.263865838400262454e-01,5.469277138767920585e-03,8.999463539793054953e-04,4.105312057879190006e-03,3.708589971065521240e-01
2.410511252597273002e-01,-1.342833830747658941e-01,2.509313607874247842e-01,2.568714424152840174e-03,3.891963517253042501e-03,6.746807921590301424e-05,3.804566562175750732e-01
2.433618236186976813e-01,-1.338865969307496961e-01,2.283351604722120842e-01,4.015500952435089969e-03,-8.155765332627718705e-04,4.457527315494506578e-03,3.701126277446746826e-01
2.435157985601434372e-01,-1.302865802189411282e-01,2.431995714538252307e-01,-8.947866298562867637e-04,-7.627889043532429941e-03,-2.043215622304998520e-04,3.738812506198883057e-01
2.248746282695922027e-01,-1.325047078233546893e-01,2.222919673766937665e-01,5.784809827398449365e-04,-1.268168767104816807e-03,-6.733579286134561744e-04,3.561051189899444580e-01
2.535034553781634892e-01,-1.076767258639586833e-01,2.401935102385906462e-01,-3.699884472966498503e-03,-6.778307197438355504e-03,2.176207530107930090e-03,3.549846410751342773e-01
2.416215309830588298e-01,-6.611767958395914357e-02,2.587150130444839657e-01,-6.950606574134579954e-03,-3.144852009511214363e-03,9.685818827868921321e-04,3.169122338294982910e-01
1.828290973653747820e-01,-1.391605105600892123e-01,2.528721345806411724e-01,2.435271298777611643e-02,-1.219886397020425971e-02,1.103889162652074360e-02,3.656879067420959473e-01
2.477123368241465895e-01,-1.350510409011616564e-01,2.411577743653535721e-01,-1.941836246293695027e-03,-6.029932821101141073e-03,-1.168944936141864407e-04,3.796871900558471680e-01
2.428272897016982013e-01,-1.369471678300802076e-01,2.390941060945095398e-01,3.555410757572244253e-03,-2.553788914726049224e-03,-4.726148548233655849e-03,3.780863583087921143e-01
2.479685981539564432e-01,-1.370472773636701169e-01,2.360356106803028209e-01,2.606956003580568684e-03,-1.281507285615677248e-03,-1.728225015219419809e-03,3.792354166507720947e-01
2.510281169044522587e-01,-1.174051119249833186e-01,2.392092953176704340e-01,-4.298492193953119302e-03,-7.242316881434598431e-03,-5.242749515913059993e-04,3.629626631736755371e-01
2.618887518061816522e-01,-1.239218325054185915e-01,1.672639138238398160e-01,-9.687837229312082485e-04,-6.263074980398572640e-03,-1.246186120747882001e-02,3.491171598434448242e-01
2.514880830175961757e-01,-1.511208445471057538e-01,1.294291541514600574e-01,4.277789106512717640e-03,7.123984840880447610e-03,-3.775751217507166552e-02,3.637779057025909424e-01
2.451597222166349010e-01,-1.357915693670188606e-01,1.489973767774081248e-01,2.538041375751883271e-04,-1.107045516871939857e-03,-1.724531597404891509e-02,3.444328606128692627e-01
2.530619345761437877e-01,-1.277019584848955169e-01,1.882846057587506949e-01,-1.491662274023856276e-03,-1.714947273016556497e-03,1.112824923555732863e-03,3.528903424739837646e-01
2.608609844459719995e-01,-1.256429694794426455e-01,1.595252606077930957e-01,5.570075753935439106e-03,7.003897099459672516e-03,-1.273637754481932345e-02,3.481586873531341553e-01
2.457624608047824510e-01,-1.223959365102008090e-01,1.552003073322542614e-01,-7.222631811217968857e-03,1.075217339137455631e-02,2.004292715335608856e-03,3.330409526824951172e-01
2.225472540186747561e-01,-1.227893810357516546e-01,1.946713471153764807e-01,-7.619411952107957992e-03,3.416821825699823539e-02,9.195752759212250105e-03,3.381392359733581543e-01
2.865208009199121109e-01,-1.297981586771146389e-01,1.559648036178510888e-01,-8.888412890329034505e-03,2.948719460932057793e-02,2.280009965631953767e-02,3.747244775295257568e-01
2.345882082972897131e-01,-1.182640003214505686e-01,1.733194109687397344e-01,-3.038620240341926605e-03,1.059786005057593641e-02,-2.660839822715028178e-04,3.271155357360839844e-01
