sxx,syy,szz,sxy,sxz,syz,smises
-1.211784886098680319e-02,-1.211784886098680319e-02,1.442356977219754477e-01,1.528943127568476623e-36,7.797609950598834070e-37,7.797609950599625877e-37,1.563535481691360474e-01
