sxx,syy,szz,sxy,sxz,syz,smises
4.053832205733157168e-02,-5.209871214464325551e-01,8.120179653036721512e-02,-1.030823070289750565e-02,7.879358500240872532e-03,7.962410715835067931e-02,5.994355082511901855e-01
3.773363268727128461e-02,-4.767229364716853990e-01,7.189206169081821529e-02,1.425001608332553300e-02,5.066778045544519625e-03,3.630399468732972701e-02,5.366987586021423340e-01
5.263567746969699535e-02,-4.362469428282534922e-01,4.919173200147552993e-02,-1.480745627471243692e-02,1.294469050691205748e-02,5.868533896169085551e-02,4.988254010677337646e-01
5.247291784054350372e-02,-4.483621496215959845e-01,4.220212094685529824e-02,1.367533689803568028e-02,2.032546621116674244e-03,9.850706341593414017e-02,5.248634219169616699e-01
4.783968623254450381e-02,-5.237811512685019988e-01,8.095127993264625288e-02,-1.978303298281988351e-02,-3.478040681296093277e-04,7.256301906818533876e-02,6.031125187873840332e-01
8.003338361321798988e-02,-5.564184510995917599e-01,6.004653223346567703e-02,1.243899418429920620e-02,1.231191683664853605e-02,1.073317698544284764e-03,6.274330019950866699e-01
5.185995981455068793e-02,-4.076715702832176547e-01,3.036869290666066590e-02,6.286993447707174554e-02,1.202660473791392071e-02,8.378257002869338513e-03,4.628796577453613281e-01
6.150370066618665588e-02,-5.020146025703444703e-01,5.787026777486306561e-02,7.648800547854398002e-02,1.530167318107486171e-02,6.798829870267023012e-02,5.896095633506774902e-01
7.896074490663451684e-02,-5.379569844295584158e-01,5.119948563359519311e-02,1.909052822035289462e-02,8.452410726047087514e-03,1.660299633197099851e-03,6.046054363250732422e-01
7.133138184573414864e-02,-5.084498275054072369e-01,4.798084626754700599e-02,4.678823018490403662e-02,1.305807437338938476e-02,3.554222746971080153e-03,5.746913552284240723e-01
4.843962034557949825e-02,-5.298565131932523320e-01,6.078062697075786724e-02,5.200770806053855999e-02,4.459565341186588934e-03,5.413737421755830843e-03,5.915889143943786621e-01
6.986598406720473386e-02,-5.574665141961521186e-01,6.090473697108397810e-02,7.927023147853509699e-02,9.380882881487305784e-04,4.966446005353247761e-02,6.436290144920349121e-01
6.732989781181492051e-02,-5.541808191671413475e-01,7.551645929161998616e-02,7.654853508514342098e-02,9.435852799615550637e-03,2.810761361914292100e-02,6.415971517562866211e-01
8.440393618882191529e-02,-5.530938872342303636e-01,5.164905193231780767e-02,6.647475038520381241e-02,5.935459602783785260e-03,3.536176007540859246e-03,6.324516534805297852e-01
8.252738860705766122e-02,-5.398133562449809464e-01,5.121457085608077664e-02,2.328967164398091858e-02,9.988466793837583874e-03,3.434468373165844562e-03,6.089032292366027832e-01
4.606480976891064172e-02,-5.847473398612528239e-01,7.330711971072237376e-02,5.134288209838544850e-03,-1.150692150459306506e-02,1.392953528170289023e-04,6.452342867851257324e-01
7.667868765863933289e-02,-5.882382029855668382e-01,6.911851818087716426e-02,9.564504063627521369e-03,8.345866300818330710e-03,6.091171022688463346e-03,6.616188287734985352e-01
6.585428794980782707e-02,-5.380475245028941700e-01,5.615036231773121167e-02,-2.834986303285123854e-02,1.122676151552231237e-02,-1.189726858741515722e-02,6.017850637435913086e-01
6.894356117648120508e-02,-5.708558917690093049e-01,6.403254465768704051e-02,-2.305294842734609967e-02,4.596786127859515785e-03,-3.644216720475353458e-03,6.386884450912475586e-01
7.550282168352737133e-02,-5.573061642052704601e-01,5.545456225148598373e-02,-7.631505266974039463e-03,1.490594011941349592e-02,-1.984182688982053314e-02,6.246477365493774414e-01
7.339245401252544876e-02,-5.545541699070852815e-01,6.066281474157159126e-02,-6.637772998333425593e-03,9.927891626686375856e-03,4.529157858098846202e-05,6.220235824584960938e-01
6.027148189226688713e-02,-5.401105015106516527e-01,6.353719395975732098e-02,-2.479572355660788693e-02,8.578275643718085569e-03,-4.859782455519032207e-03,6.037929654121398926e-01
5.992023214328867642e-02,-5.385951946462013140e-01,5.794613461286690637e-02,-2.541724163728195304e-02,4.849583550583262334e-03,-7.891093396725655865e-03,5.993651151657104492e-01
3.703633048972501673e-02,-5.003277229971294648e-01,7.260518453422906693e-02,-2.124171936795197710e-02,2.440530335641227701e-03,-2.505359684832543857e-02,5.589215159416198730e-01
5.808309249527762730e-02,-5.690057711354790104e-01,8.646407150209442505e-02,-1.175929435810032023e-02,4.538219118629740166e-03,-3.384295665047367535e-02,6.447914242744445801e-01
6.354384135403087774e-02,-5.658685576466893075e-01,6.371697979270948831e-02,-3.178001409600336030e-03,5.391695712858263906e-03,-2.232768790827216118e-02,6.307789087295532227e-01
6.942950169130923666e-02,-5.417888474256536968e-01,6.863423002042653986e-02,-2.468396623711182833e-02,6.657619982529740764e-03,-9.697709940250327787e-02,6.350409388542175293e-01
2.815420030505363935e-02,-4.795871047386025543e-01,7.037516683028477438e-02,-3.473181891417142023e-03,6.888491068625071830e-03,-8.775994774797503568e-04,5.302848815917968750e-01
5.914554492508061756e-02,-4.433795476113251421e-01,2.997926978918608043e-02,-3.782266536598715562e-02,4.276804747854922456e-03,-7.013520453183705317e-02,5.077683925628662109e-01
4.565558485037865544e-02,-5.530031925126190906e-01,9.553082702283727246e-02,5.847507835516199464e-04,-8.885710541635153076e-05,8.127740712008087523e-03,6.252498030662536621e-01
5.567754602393815144e-02,-5.200699757330073947e-01,6.057094645102653607e-02,-3.919595830347682303e-02,6.341744727486835383e-03,-1.056611986851976048e-01,6.103679537773132324e-01
3.654922891163164822e-02,-4.476961221745786590e-01,5.880681677970764354e-02,5.363157608909326947e-03,-2.953188943380175881e-03,-1.017695299470876974e-01,5.262610316276550293e-01
6.258907375521757799e-02,-6.045910465273798273e-01,4.768846199454557233e-02,-1.543705637715272853e-02,3.337127450789873634e-02,3.822208654984566700e-03,6.629552245140075684e-01
3.653351043968997014e-02,-5.878443749760264847e-01,6.164046250050583819e-02,-1.058133954189546116e-02,2.015360136761682949e-02,5.058540747494591656e-03,6.385808587074279785e-01
5.829676527836274991e-02,-5.869320117379230872e-01,3.803433067735642603e-02,-9.776800991768170180e-04,1.512165762061635013e-02,-7.347695114164129329e-04,6.358830928802490234e-01
6.730935063743578861e-02,-5.898042747195217927e-01,3.706920975332791968e-02,-7.866021116121437937e-03,1.222603352210497284e-02,2.154790812546765726e-03,6.430315375328063965e-01
8.151629354343495337e-02,-6.186831032698353328e-01,4.031265947863685306e-02,-8.835489885199065280e-03,2.748151489178931109e-02,2.477145588202177111e-03,6.823814511299133301e-01
7.751135866426073218e-02,-5.831978945944424897e-01,7.380852651264066533e-02,-9.887586507544580874e-04,-4.423579436968802688e-03,7.334886245862129580e-04,6.589136123657226562e-01
8.060078105774015622e-02,-6.120567136196178870e-01,4.935768718164193491e-02,-3.899269780185214088e-03,1.975521822877530573e-02,-7.965898925748695486e-03,6.786137223243713379e-01
6.794552876946657882e-02,-5.687041148151468217e-01,7.905637030069567750e-02,-8.055455884002265046e-03,-1.092577178441078885e-02,7.808482201417690956e-03,6.428496241569519043e-01
6.400523779681976944e-02,-5.324263474618875502e-01,6.164873089662448180e-02,-1.016068525916724065e-02,-4.891849988963692386e-03,2.064308649243201330e-02,5.966494679450988770e-01
4.922184384498332066e-02,-5.594477525697625353e-01,9.374345265519620773e-02,-8.814474618101849745e-04,9.423234353290232197e-05,2.269518282671137248e-03,6.321215033531188965e-01
6.096552138684294131e-02,-5.927346325524058823e-01,6.094656792223535069e-02,-4.673686889945429662e-03,4.934702590285903502e-03,2.352808976239865492e-03,6.538093686103820801e-01
7.198178832576773711e-02,-5.775456975864312614e-01,6.266329128315545338e-02,-1.647950297988561366e-02,-5.176010736313039172e-03,2.962645156558894616e-03,6.456326842308044434e-01
7.062511278522026759e-02,-5.872765569365038241e-01,7.583387328423413232e-02,-1.476601973487032954e-02,-6.932001460802561174e-03,3.032450075252159441e-02,6.632085442543029785e-01
3.086225640852591212e-02,-3.796883652513344809e-01,2.116546679675759823e-02,3.769573612363694148e-02,1.433352404278908851e-02,3.445083092442399048e-02,4.160584807395935059e-01
4.501731974206363285e-02,-4.294726655820969574e-01,2.702903010121479599e-02,-1.565326332476730956e-03,1.727852967701116668e-02,2.234230050101273721e-02,4.683263599872589111e-01
5.877916038890446115e-02,-4.386440166450711886e-01,2.656801755510859731e-02,3.305422927113236403e-02,1.334822473439509563e-02,1.014755240663240722e-02,4.863805174827575684e-01
2.179262177506245679e-02,-3.073750987805430879e-01,-5.354606471466447082e-03,2.824633600101809569e-02,4.705216030656064405e-03,4.863653498329526849e-03,3.204423785209655762e-01
3.891397633296544978e-02,-3.847134994037571531e-01,3.164333948480105296e-03,4.836751226918096537e-04,2.152135198010823782e-03,-8.940960011619519766e-04,4.069530069828033447e-01
6.188950110333074628e-02,-5.890779659449656425e-01,6.692973969259599643e-02,-3.497214008067567239e-03,1.247881282924053273e-03,-7.930591900155595318e-04,6.535352468490600586e-01
3.913209660426900105e-02,-3.432453130245592954e-01,5.304121821237073320e-03,4.804768065018615725e-02,5.442114832447817775e-03,-3.391066666192162071e-03,3.761261105537414551e-01
2.202368204672155994e-02,-3.194222972636805435e-01,3.821271872700704453e-03,3.848993436951611558e-02,1.692428452671482708e-04,-2.738564512328328822e-03,3.393649160861968994e-01
3.665780142814867304e-02,-3.843216394996865071e-01,1.066044903250433495e-02,3.742673307981314135e-04,-1.696568764136969273e-03,3.362737539578710463e-03,4.086540937423706055e-01
6.064741726859221305e-02,-5.465518352845979422e-01,6.898557382259634663e-02,-3.517085560810720435e-02,2.535333926291746722e-03,-5.945131433697030746e-03,6.145402193069458008e-01
4.164317300678688216e-02,-5.284318052756449280e-01,7.200245503988286777e-02,-3.097874793707670535e-02,1.018399673294711344e-02,1.564806632216668436e-02,5.891850590705871582e-01
5.789592610703933606e-02,-5.533360058261171943e-01,7.825635011087300752e-02,-2.673554781742793970e-02,-2.346516972323498505e-03,3.196182220543092312e-02,6.258510351181030273e-01
7.738516619387844631e-02,-5.174334534753124437e-01,6.248419287011899859e-02,-9.114824516068611993e-02,8.033311554244573424e-03,1.698385093321894135e-02,6.092214584350585938e-01
6.541562988413737734e-02,-4.618565875655796238e-01,3.994523485603296287e-02,-8.560075944387210423e-02,-8.765825100284450541e-03,5.118905420878631929e-02,5.434232950210571289e-01
7.756465379075519473e-02,-5.464322705647587375e-01,5.011626592926204937e-02,-2.593306009849803348e-02,-7.529567455356611823e-03,-1.957061149321335635e-03,6.125332713127136230e-01
2.968470755175911524e-02,-5.885685825419082473e-01,6.220084995892469215e-02,3.957821032447457303e-03,-8.917186798654583996e-03,4.491331750359375645e-03,6.354082822799682617e-01
7.351667942992770599e-02,-5.328898043809612295e-01,5.517872951924152058e-02,6.452906146201218239e-03,-1.198416985080245911e-02,-5.765042219237986008e-03,5.979969501495361328e-01
5.946567301860383736e-02,-4.390006947959249062e-01,3.672232832236183020e-02,5.493149371861962005e-02,-5.313953334810458604e-03,2.322976682749525353e-03,4.967921972274780273e-01
7.167965441495982581e-02,-5.594104816733143082e-01,6.747598629589865449e-02,2.940944809036577859e-02,-1.296902774215310389e-02,-2.107565819636005033e-02,6.325119733810424805e-01
7.765044311986893377e-02,-5.325527491734152186e-01,5.380799913259298739e-02,1.426396802556930722e-02,-5.857238287107130459e-03,-7.862296901588138737e-03,5.993883609771728516e-01
2.955396474904478654e-02,-5.795587505056097877e-01,5.095821476724857191e-02,-3.419235060198885876e-03,-1.391385667241584051e-02,-2.212691013052369218e-03,6.206001639366149902e-01
7.904890939822484253e-02,-5.333564470216556330e-01,5.094820383228321203e-02,2.138815329628434084e-02,-1.084836431692216309e-02,-1.552963739770416539e-02,6.008908748626708984e-01
7.699247650639526319e-02,-5.634897902152822269e-01,6.689907970861894149e-02,6.204161290104392469e-03,-1.335179104595193844e-02,-1.396275026836788988e-02,6.364667415618896484e-01
6.773161631392196624e-02,-5.073949617051203287e-01,4.947074458724415313e-02,2.698757949412500246e-02,-1.076958037266048315e-02,-1.130585149409112436e-02,5.687865614891052246e-01
8.371425096103987662e-02,-5.884986005820428412e-01,6.869311034160116569e-02,-9.574100391469896812e-07,-3.391609238647948915e-03,1.784193464119348312e-03,6.648626923561096191e-01
8.041820795276916067e-02,-5.685364677867037475e-01,6.480480459739570986e-02,-2.132895869963962951e-02,-1.102861661215702449e-02,7.709945685070407687e-03,6.427764296531677246e-01
8.108675761383576930e-02,-5.733602728651125968e-01,6.292995772159284962e-02,-3.383548386648590426e-03,-6.817490687811877600e-03,-5.180439729807657267e-05,6.456947326660156250e-01
7.862206598481635833e-02,-5.870147883800662658e-01,6.773126509960844532e-02,-1.192266373641940290e-02,-5.276533153782674880e-03,4.607807485781156842e-03,6.606931090354919434e-01
7.013788786069233283e-02,-5.671692907163378150e-01,7.037403964672722667e-02,-1.038419821390146498e-02,-3.783555870246749740e-03,1.234015738758916132e-02,6.380707621574401855e-01
6.142945355306608790e-02,-5.185821708098546923e-01,6.008189490719112458e-02,-4.486575034378714744e-02,-8.175031739491831623e-03,7.411417385063037884e-03,5.848399400711059570e-01
4.870757994329089069e-02,-4.344411498599782817e-01,3.861030689004801841e-02,-8.555208079450940528e-02,6.365631858283669030e-03,1.123923269701691124e-01,5.372442007064819336e-01
6.429336070499672151e-02,-5.864586630312659254e-01,5.136861521406616005e-02,9.443938012779331875e-04,1.877766856542758926e-03,1.965525443281758607e-03,6.444061398506164551e-01
1.177165722157550165e-01,-2.574316380732420972e-01,-2.315721874323051557e-02,-4.774444908286364780e-02,9.804296357522881630e-03,8.546245244433811616e-02,3.698263466358184814e-01
5.842377394659836742e-02,-5.197565669258928933e-01,6.670030993749279102e-02,-2.296559132544720785e-02,-1.530000553787257264e-03,4.077570000232546427e-02,5.879826545715332031e-01
5.330976832779024677e-02,-5.228227617948248973e-01,8.044874472274007871e-02,-6.502573230017954543e-03,2.345208993399921452e-03,7.832830731008708081e-02,6.056815981864929199e-01
5.772689216630910725e-02,-5.408163854971108631e-01,7.513344077467642990e-02,-3.467581822982902795e-02,-1.100536681216737062e-02,3.349208474145980163e-02,6.134422421455383301e-01
4.936963290398643789e-02,-5.235076504464335478e-01,7.958218661986637965e-02,-3.958210718954482087e-03,-1.509534751340804661e-04,5.871077183267899013e-02,5.973250269889831543e-01
8.660921755359457519e-02,-5.886169504822051923e-01,6.740708486509813802e-02,-5.622767295076043330e-03,-2.897658303529656275e-03,-2.049281498432499286e-03,6.659324169158935547e-01
6.915131301836013877e-02,-5.844784431216287768e-01,6.845853501172613487e-02,-3.459382227247794362e-03,3.492918090637838618e-03,-9.557830758940857874e-03,6.535488367080688477e-01
6.051640339284655723e-02,-5.792412654529764948e-01,8.778121582987677418e-02,-1.972859030492753706e-03,5.282180445292774910e-03,-4.432615432006516490e-03,6.539345979690551758e-01
6.313300074234889925e-02,-5.500901915976500467e-01,6.799402301346019195e-02,-1.832430284518943645e-02,3.497891231123987071e-03,-1.360133585661980199e-02,6.169653534889221191e-01
8.384196337575305913e-02,-5.469882718442411473e-01,4.723881029379889407e-02,3.765213499274136510e-02,7.966871006722969772e-03,4.451555552452359649e-02,6.217592358589172363e-01
7.534428734548659357e-02,-5.314692988934619500e-01,5.536146485002221840e-02,2.587259910062934820e-02,6.400689564577620103e-03,3.006590876450887170e-02,6.011149287223815918e-01
8.705031047052166904e-02,-5.879258295222423714e-01,6.565477060683105881e-02,-9.002128529313037711e-03,-4.653688432134966274e-03,-1.271701221015985109e-03,6.647721529006958008e-01
7.410650877764704547e-02,-5.870898647482907240e-01,7.899458066393233446e-02,-8.839908057388442143e-04,-3.569056876961720828e-03,1.018330286851072426e-03,6.636868119239807129e-01
7.197381713139983095e-02,-6.228541315416351587e-01,7.676128416602298610e-02,2.293705544102651178e-02,-1.218843864161819023e-02,3.106498956502942374e-02,7.007527351379394531e-01
5.946311988051306008e-02,-5.586516361389168850e-01,6.211827513082721075e-02,2.446486581591466453e-02,-4.631361440403714003e-03,3.323017061012371876e-02,6.236078739166259766e-01
7.013695050576748691e-02,-5.667980763362199248e-01,6.646670988276878744e-02,2.162136409899375125e-02,6.195707685288023327e-03,1.418309926863401543e-02,6.367755532264709473e-01
6.897612533919797451e-02,-5.847029987991665401e-01,7.040008920259632763e-02,9.660844238041943824e-03,4.589297065171324928e-03,5.284875034419109566e-03,6.547183990478515625e-01
6.183305048325038467e-02,-4.595768035193950607e-01,2.115890507456233416e-02,2.265293659048765468e-03,8.855681288015764679e-03,2.911585946717979573e-03,5.025841593742370605e-01
9.087038283192705457e-02,-5.592394663439776981e-01,5.162306043409903289e-02,2.397786325615515728e-03,3.450521264176274836e-03,6.493813328515763915e-06,6.314436197280883789e-01
5.297838556195519355e-02,-5.855646080228940065e-01,6.646460855806810009e-02,-4.050467506498066882e-03,-6.582230438329589317e-03,-5.431544988266163087e-04,6.455312967300415039e-01
4.682606181267234824e-02,-5.921832306075923702e-01,5.788660269248133150e-02,-3.683146725259692569e-03,-2.802016189439378649e-02,-5.921678318072662491e-03,6.465479731559753418e-01
7.244149802043503561e-02,-5.901635935027997881e-01,7.041667013507216244e-02,3.046146955993848330e-03,4.940586958589922133e-03,6.868198845279769628e-03,6.617783308029174805e-01
5.402684575318450477e-02,-5.705549383054093759e-01,6.483678860059374771e-02,3.637207675357667300e-03,-7.719283845092221423e-03,4.154443370110117752e-03,6.302707195281982422e-01
5.721531771767626728e-02,-5.875163815984878468e-01,6.973716806112373323e-02,1.682787782791482717e-03,-9.504446050742047444e-03,1.466492366084363660e-02,6.517926454544067383e-01
7.122477243415534232e-02,-5.649459387052930825e-01,6.637159703474523886e-02,1.899572029200772075e-02,9.050860163028555047e-03,1.271702098967684123e-02,6.351871490478515625e-01
7.352519470489704556e-02,-5.597784476968347134e-01,6.774787385160149777e-02,2.734782909050450378e-02,1.404263297348854779e-02,2.668598244324614163e-02,6.343656778335571289e-01
5.271273772789242251e-02,-5.034981239276422604e-01,5.884639579736769543e-02,6.113747816714666661e-02,9.911223297642955676e-03,3.244127216797434293e-02,5.722631812095642090e-01
6.496380439179877397e-02,-5.631927987847711314e-01,6.702921623828961284e-02,6.932506862008675982e-03,6.503429958364799653e-03,1.700189874628159348e-02,6.300957202911376953e-01
5.460081140825381874e-02,-4.860159631685483927e-01,5.582028276621020524e-02,-1.829760653640125773e-02,5.403675603487013111e-03,5.561962787593817403e-02,5.507267117500305176e-01
1.015837928237448007e-01,-5.106147754222818413e-01,-4.603249058288334805e-02,-6.111655901147029779e-02,3.315968605263952540e-02,2.321600190274486220e-01,6.945548057556152344e-01
9.243263009523070006e-02,-5.729735095403923895e-01,5.411889178281956148e-02,-4.613362982307017170e-03,-3.139400065687959502e-03,4.963497671038032133e-02,6.528578400611877441e-01
5.130211576926343997e-02,-4.858958961226526596e-01,4.371281915904670634e-02,-5.159921229796832903e-02,2.202656732697098885e-02,1.417978789223589553e-01,5.952522158622741699e-01
5.878691786466397340e-02,-4.953345939450927160e-01,6.013581752674512781e-02,-2.395279996007188342e-02,-3.683378887296789167e-03,6.581304371580880275e-02,5.679400563240051270e-01
6.762025180401887159e-02,-5.673025032974490234e-01,7.972631800078441855e-02,-1.389217017321234260e-02,-7.015271261872470764e-03,3.356177412846354097e-02,6.442559361457824707e-01
7.112603877423542831e-02,-5.762745949576111304e-01,7.201428050843391993e-02,-1.692808487658224378e-02,-8.246784029460923126e-04,5.807447273792207265e-02,6.562644839286804199e-01
5.708300418939710186e-02,-5.117046360445216546e-01,4.662825104263479403e-02,-4.421386787553460707e-02,1.044855525528677956e-02,4.319105062937615702e-02,5.739953517913818359e-01
6.028439388907017027e-02,-5.334536139700776225e-01,6.283618755652234378e-02,-2.167919217033589460e-02,-4.302348441559779302e-03,1.875596389352980273e-02,5.971325635910034180e-01
6.748577612026895878e-02,-5.404079800575370962e-01,6.932521842623295960e-02,-3.656231482407447386e-02,-2.525282306146713063e-02,2.960223447856885279e-02,6.157993078231811523e-01
7.771351131646403454e-02,-5.774711699297585543e-01,6.809798495561186771e-02,-3.647379971512664659e-02,-1.188047147093630913e-02,2.994070255854406823e-03,6.538354754447937012e-01
4.648319153059568554e-02,-4.953755709074971203e-01,5.685158560374889425e-02,-4.644171558434695424e-02,1.009178694065859458e-02,3.085299128099572297e-02,5.558492541313171387e-01
6.018611851762320497e-02,-5.098802930283126145e-01,5.448144981297481371e-02,-4.609221187817483939e-03,4.998415527255675728e-03,8.422908640134682545e-02,5.858144164085388184e-01
4.336805931010873083e-02,-4.812289255546831068e-01,6.066395882687636298e-02,-1.886239549628489567e-02,9.136794632754364912e-04,6.064518015632682640e-02,5.446814894676208496e-01
1.138919744984662197e-01,-4.656393619035797404e-01,-3.707575843113306013e-03,-1.014325374445951694e-01,8.456025614572659777e-02,1.617894593563066474e-01,6.421667337417602539e-01
3.174743594866849539e-02,-4.869986320700768201e-01,7.808060581946704715e-02,9.768205106686430814e-03,7.098896261627676493e-03,3.687439305245890364e-02,5.475363135337829590e-01
7.427714606337257330e-02,-5.651742037364269056e-01,7.152129946648005943e-02,-2.434612582114785775e-02,1.243896628603414958e-03,6.656461330535877463e-02,6.497836112976074219e-01
5.823708187965848104e-02,-4.504073076983135526e-01,4.499865523701176984e-02,-1.013578693898676240e-02,8.754515405992343083e-03,5.764470447381755958e-02,5.125110745429992676e-01
6.563644125668077756e-02,-5.690001234723842671e-01,6.954711771393348729e-02,6.539228850801533620e-03,6.285286875307919199e-03,1.022403104373262317e-02,6.370409131050109863e-01
5.724780014299665765e-02,-5.407714386450452881e-01,8.050092326022215139e-02,1.401693482054464264e-02,1.186863647703871073e-02,1.103383656817096686e-02,6.111062169075012207e-01
6.546929397796819039e-02,-5.681198095928244873e-01,6.792622659433533716e-02,4.806046605369007976e-03,9.133692898830682305e-03,3.985361942403269769e-02,6.388132572174072266e-01
7.075453339418238952e-02,-5.840040931781526057e-01,7.432263067852190597e-02,8.762630687994273733e-04,1.093042550782130987e-02,2.030376705149241050e-03,6.568340063095092773e-01
6.829046087420234667e-02,-5.616062402412046461e-01,7.046074168767513246e-02,5.873239338005024728e-03,1.082831878235431325e-02,4.738820264093937182e-03,6.313986182212829590e-01
5.746211969780098960e-02,-5.206088106925794712e-01,6.492141946236654193e-02,1.095776521647779701e-02,1.068222177171332041e-02,1.456120753655152679e-02,5.829856395721435547e-01
5.945896615755419390e-02,-5.837788641254315625e-01,5.667478605572515149e-02,-1.779619315943965947e-03,-5.048938913081409303e-03,-4.423964807224823291e-03,6.419629454612731934e-01
6.421136893717527272e-02,-5.693243783853514373e-01,6.664669544786697153e-02,5.443039473985689450e-03,1.289263605766945197e-03,-1.641085604779165142e-03,6.348372101783752441e-01
-4.838308471982472048e-02,-6.778777332457419647e-01,1.678958257239739349e-01,-6.714910752800467078e-03,-7.663337533671095263e-03,-1.841303519701027389e-02,7.619153857231140137e-01
5.841610700238175635e-02,-5.387979701929921372e-01,6.755113063229287174e-02,2.352662619293105148e-02,7.852620991523173721e-03,1.576178100696412621e-02,6.039821505546569824e-01
7.624221913157100405e-02,-5.571687606533574089e-01,5.085734766444438559e-02,3.354471432698616362e-02,-3.657158961073370389e-03,4.689017658043409531e-02,6.291158199310302734e-01
6.700940325568113809e-02,-5.463087480104692473e-01,7.189444694685170889e-02,4.227022033963102887e-02,2.490392160922710613e-03,7.497442954446095764e-02,6.335783600807189941e-01
6.297986759398552237e-02,-5.619435307916702538e-01,8.613742604622642851e-02,5.843060412058202410e-03,1.591580860977321113e-02,3.058706196247563958e-02,6.396923661231994629e-01
5.009874574612119269e-02,-5.000527020354562646e-01,7.551065040614257651e-02,2.678835429639932555e-02,1.829447455785299451e-02,6.894329083618880305e-02,5.785406231880187988e-01
4.757720595413869602e-02,-5.119688671447502060e-01,6.659315530751935830e-02,1.232660295101914265e-02,1.535724646457772152e-02,2.203187743631149567e-02,5.715883970260620117e-01
1.594573403830226721e-02,-6.821933304541708543e-01,1.256353634671721897e-01,-7.954178279598167478e-02,7.339035629337473110e-02,-2.362615481009577422e-03,7.817700505256652832e-01
5.525673038430453654e-02,-5.194118079950464928e-01,6.766336829481761628e-02,1.970948208783016367e-02,1.151813642905185481e-02,1.822564573696932103e-02,5.831701755523681641e-01
6.193258172007068407e-02,-5.092455686984799224e-01,5.393901149265600825e-02,3.090269704865654735e-02,1.076729512631173676e-02,5.310831200987697898e-02,5.774225592613220215e-01
7.048443141811666646e-02,-5.504243214273629725e-01,5.938511604642038311e-02,-7.930523048031208220e-04,-8.469589788654072193e-04,3.227311906733457136e-02,6.179708242416381836e-01
5.157624707188307456e-02,-6.010190939545785316e-01,6.194130742122222477e-02,2.156529019912750179e-03,2.765957052057491788e-02,3.527827883928280703e-03,6.596201658248901367e-01
6.898795269063323632e-02,-6.129642530623142793e-01,4.665302613183328062e-02,5.940149856000577315e-03,2.492610329737047006e-02,-1.399007029510206980e-02,6.729660034179687500e-01
5.409058843943703732e-02,-6.002059800229657682e-01,5.543776108598946761e-02,1.950794018241263749e-04,5.274303749755505921e-02,-6.392785054546897818e-04,6.613124012947082520e-01
5.353270088070063992e-02,-5.934465943729597681e-01,5.827490390118525432e-02,4.789746620361857478e-03,-1.295813205220189626e-02,1.114414282389956067e-02,6.500906944274902344e-01
7.226104843092140406e-02,-5.944983809508110895e-01,1.181107497665237482e-02,6.792765083582224563e-03,-3.538236974849543609e-02,7.409394855644750935e-03,6.418532729148864746e-01
7.156150842508091081e-02,-6.186081706719031015e-01,6.592410757203742699e-02,5.082575156775213238e-03,-8.756286933251894444e-03,8.874646185449020647e-03,6.877637505531311035e-01
6.743161777615488961e-02,-6.093221160138633241e-01,5.489364375790206640e-02,3.392993191791837584e-03,-1.901293779742533469e-02,1.164125489563060459e-02,6.717092394828796387e-01
5.969011758529876865e-02,-5.844115162201267699e-01,3.074970169042162693e-02,-3.470868242301412658e-03,-4.013519629352215595e-02,-2.078596632510030032e-02,6.350029110908508301e-01
6.060428983366203393e-02,-5.870145192395883615e-01,5.202102189688181944e-02,1.356981631147221624e-02,-1.376000558773119060e-02,1.339421901509293099e-02,6.446578502655029297e-01
6.211687468263224488e-02,-5.958134240860619713e-01,6.986458739758358294e-02,3.767048141468697705e-03,-1.356590787491535489e-03,-9.300528248760793829e-03,6.620705127716064453e-01
7.851805444764323183e-02,-6.255420499038053528e-01,5.474745033541819628e-02,7.654137657268385644e-03,-2.357942598435740569e-02,1.943573226959898446e-03,6.938189864158630371e-01
6.301314812504613116e-02,-5.982050747954588132e-01,5.618532615516882989e-02,8.036756172255243857e-03,-1.120165478894710742e-02,8.775507430702021022e-03,6.584395766258239746e-01
7.313746123432976476e-02,-6.044779719623574188e-01,3.189860631818364212e-02,4.052257216724667807e-03,-1.765132383238047359e-02,-8.365690963023997631e-03,6.588726639747619629e-01
6.156105463715694226e-02,-5.864064151269097191e-01,5.122241375918992756e-02,5.823712077917580360e-03,-1.376368808750957212e-02,-3.101155988073776197e-04,6.433816552162170410e-01
7.428311691442471276e-02,-5.909413666555856093e-01,2.861986679306516290e-02,4.904313719875579925e-04,-2.228866866430615976e-02,9.579562263700750271e-03,6.449797153472900391e-01
6.596987072230445226e-02,-6.159503148310174758e-01,6.179911596680159880e-02,-5.569512349063853764e-03,-1.806176201949081725e-02,1.492404663425260861e-02,6.811228394508361816e-01
6.683577671417892385e-02,-5.878619188012688124e-01,6.283660039786798102e-02,3.146648955605349778e-03,1.757747981721934744e-04,1.223996452958219482e-02,6.530743241310119629e-01
8.575780115760600619e-03,-3.565545948707481427e-01,4.220825537860511956e-02,3.923672533255319035e-04,-9.636338585621676304e-04,9.669314185094946001e-02,4.180711805820465088e-01
3.690451081300671898e-03,-3.161933540588094393e-01,1.947555446262168311e-02,2.745379409690266569e-03,-1.017799402541452866e-03,5.923092712641444407e-02,3.437656760215759277e-01
2.407625840701801967e-02,-4.101684322379888781e-01,5.602757508610264892e-02,1.249752761864551809e-02,8.720115881063666974e-03,3.989476561888175704e-02,4.570946097373962402e-01
3.459836027972926220e-02,-4.779151237736842250e-01,5.783720139801676319e-02,2.601826425684368449e-02,1.922742720489648005e-02,2.226416201271832346e-02,5.289114713668823242e-01
3.113243372236032536e-02,-4.698833629771430043e-01,7.250022021307114817e-02,1.105598532389037367e-02,1.338535668117137208e-02,5.269655951824524925e-02,5.316850543022155762e-01
6.470265472987279942e-02,-5.548023183735868447e-01,5.807054245968512607e-02,2.913492910977703160e-02,-2.335787038975625871e-03,3.735387767994277630e-02,6.216676235198974609e-01
7.143135456333074562e-02,-5.619771320260156244e-01,6.279154246593651734e-02,1.426787389379864830e-03,2.433255404528328857e-03,1.136450777955915099e-02,6.294599175453186035e-01
6.622672508864949070e-02,-5.430582448261158657e-01,6.142354052545859200e-02,2.661375672178148410e-02,4.201357680023738890e-03,1.837404456903085192e-03,6.086975336074829102e-01
8.466440519093337835e-02,-5.650985611452119528e-01,5.932130588162082274e-02,3.747392182846654568e-02,8.220745993771301149e-03,7.886703401376459963e-03,6.410689353942871094e-01
6.446431591857609833e-02,-5.846013238828808856e-01,6.867791380753374142e-02,1.099572435106995275e-02,3.450047622104542716e-03,7.372422689916213571e-03,6.516136527061462402e-01
5.086225056260199051e-02,-5.873470084513114919e-01,7.191937306866166835e-02,4.912188629486520693e-04,-7.111872211639181859e-03,-7.414550159774500708e-03,6.492385268211364746e-01
5.036789105496333740e-02,-5.815402035411478820e-01,7.388206251504622624e-02,1.306989590314029150e-02,-4.921344859089330295e-03,1.920528573252202123e-02,6.452993154525756836e-01
7.235224640598536539e-02,-5.563194192845160035e-01,6.773232782115340411e-02,4.572443549519327605e-02,-8.514569927287341791e-04,-3.595340832887317789e-02,6.344267129898071289e-01
7.463642419190161248e-02,-5.806790400414360009e-01,8.226246727847441598e-02,1.817702417191065234e-02,-4.744500291429186792e-03,-3.043522897435738811e-02,6.620661616325378418e-01
6.855998638646992882e-02,-5.665559180328356703e-01,7.287017306494539270e-02,1.104545334041785037e-02,-1.402311318934140218e-02,-3.412468576940805992e-02,6.407633423805236816e-01
5.840740703406141487e-02,-5.072048903584922552e-01,5.578448599242549766e-02,1.884054531094426013e-02,-1.656758657142221383e-02,-4.448941275486924946e-02,5.711977481842041016e-01
7.066750204312693961e-02,-5.071923615227958981e-01,6.610326700752919282e-02,2.402042102348560942e-02,8.955991468468579852e-03,-6.767808859355829709e-02,5.890822410583496094e-01
5.272533208888832701e-02,-4.888511384504789503e-01,5.141535674584338245e-02,8.403570430053920390e-03,-1.923588429654471757e-02,-1.671159296708851077e-02,5.429153442382812500e-01
5.909080821283152485e-02,-5.992987164135836764e-01,6.663594987258189550e-02,8.838398422615795572e-03,-4.970509287094865801e-03,1.091382914859419587e-02,6.626968979835510254e-01
6.969749395440261175e-02,-5.994029912559115658e-01,7.016069974560854017e-02,3.362061266910555245e-03,4.753291194514306338e-03,6.875332876968544282e-03,6.695140600204467773e-01
5.210813547795856149e-02,-5.947643912427149626e-01,6.307029224720156479e-02,5.027453348144097188e-03,-1.338211699522613186e-02,3.696417164191815978e-03,6.529237627983093262e-01
8.139930400546926959e-02,-6.017045797031949084e-01,5.711898711253601824e-02,-1.087514564314120621e-02,-4.306701881926926906e-03,6.010577390817456109e-03,6.716794371604919434e-01
6.478923356398383349e-02,-5.584828521246805177e-01,6.014495443610234915e-02,3.277099302538538498e-04,3.228320964822588811e-03,-1.022099942370468910e-02,6.212406754493713379e-01
6.796931721277552074e-02,-5.800892530492626209e-01,6.614956395598103889e-02,1.179058235551019417e-03,1.840567608652321453e-03,-3.845266501492475980e-03,6.471959352493286133e-01
5.377915315102990701e-02,-5.463633428935151803e-01,7.856061900366509421e-02,-1.565873586598957520e-02,-1.280977711342722210e-02,1.237662626589237230e-02,6.142840981483459473e-01
5.650604033516731795e-02,-5.366905129615846537e-01,6.691536423761013097e-02,-1.348560701791360478e-02,-1.109473996597318485e-03,3.179228771178737450e-02,6.014539003372192383e-01
5.654638588721069836e-02,-5.604852489664510218e-01,8.691441721738882298e-02,2.283539678735121287e-03,-7.201566965839982168e-03,9.244351825452166299e-03,6.331002116203308105e-01
5.590103047594549568e-02,-5.417692176734555387e-01,7.852388877968299874e-02,-2.295635075499267291e-03,-5.807500397160687312e-03,9.454029168407025382e-03,6.096127033233642578e-01
5.103556818509955018e-02,-5.444991970079773314e-01,7.992296527494099911e-02,-4.041005826762485154e-03,-1.162390227648299641e-02,1.722413753967056219e-02,6.115913391113281250e-01
5.441159010812010588e-02,-5.391370501850935026e-01,7.940766134485460759e-02,-1.403038836612645855e-02,-2.912629770135678666e-03,4.372251004030868610e-02,6.116470694541931152e-01
5.997569949039049941e-02,-5.446685308701801898e-01,7.744207684930307090e-02,-1.960246246422426425e-02,-6.125023846907231249e-03,2.567685348342058863e-03,6.146102547645568848e-01
5.614516857519155635e-02,-5.252198719984917386e-01,7.841153225255498294e-02,7.103062417436764586e-02,9.101922500071272723e-03,1.750734108555125970e-02,6.064075231552124023e-01
9.535731315205131509e-02,-5.973212933009672820e-01,-5.000005529344514477e-03,7.426935182761751006e-03,-7.233246657221390624e-03,1.387869682168228411e-02,6.490455865859985352e-01
7.061739476857054054e-02,-5.805684864804659950e-01,6.793688832458208426e-02,1.637671577277381718e-02,4.335764131619740044e-03,-7.881054236153636761e-03,6.506550908088684082e-01
5.534359400685082142e-02,-4.641061341477500379e-01,4.288583407619553367e-02,8.019876336028886055e-02,4.380410854680706796e-03,2.172436451218878045e-02,5.331800580024719238e-01
4.714187264869731941e-02,-5.107613047213550583e-01,5.257406532077354977e-02,6.650365094042691438e-02,-7.177295993084289484e-03,1.895622433412866292e-02,5.734255313873291016e-01
6.898197331783564867e-02,-5.605903472782369779e-01,6.210668188545129254e-02,2.683266242904493865e-02,4.647869053045942424e-03,2.700683819773338351e-03,6.279544234275817871e-01
6.774108660164845919e-02,-5.736110657313078232e-01,7.470704296793737043e-02,1.640063014215501283e-02,3.928812523894606792e-03,7.933767649464172319e-04,6.455260515213012695e-01
8.334800599492248052e-02,-5.635672893295082808e-01,5.451244524579129669e-02,4.352128241109877449e-02,9.216634724900965234e-03,1.964581716208007797e-02,6.385700702667236328e-01
5.353897741666904797e-02,-5.888477461512757749e-01,2.879302499699593065e-02,-3.577600419009729698e-04,-2.775935761061130644e-02,-1.186552337735524883e-03,6.322127580642700195e-01
5.071409351973965585e-02,-5.787440540460999649e-01,3.321742965033747108e-02,-2.019614334911842867e-04,-1.371943708917667225e-02,2.182622586161316915e-03,6.213608980178833008e-01
5.550647659106550114e-02,-6.014802204578753031e-01,3.546652881341838537e-02,-6.681022633910489207e-03,-4.926317276842358955e-02,-1.155717997751691366e-02,6.532092690467834473e-01
6.130807803403129363e-02,-5.888928861225630751e-01,3.274071956701143926e-02,5.034782183524537380e-03,-2.326244481658303054e-02,6.304428960130755225e-03,6.378256678581237793e-01
4.266307417600731511e-02,-5.887362738685109065e-01,5.130931739962021898e-02,3.865353787317683462e-03,-1.535014241153684171e-02,2.750153605429267890e-03,6.363753080368041992e-01
4.933148428745368075e-02,-5.881047355754089878e-01,5.707968863280984961e-02,-4.505211130829295599e-03,-1.523395790902357973e-02,-3.526380204328914865e-03,6.419644355773925781e-01
5.174720278921438044e-02,-5.865330078796500146e-01,4.334098353680740368e-02,-4.186922560534254469e-03,-1.271808155396966962e-02,-5.618159897246206326e-03,6.346174478530883789e-01
7.529822206385344829e-02,-5.703650137616178561e-01,7.574065124712181518e-02,-1.905904832647033502e-03,1.025849932825567343e-02,-1.228058496248038076e-03,6.461408734321594238e-01
2.806899646669236414e-02,-5.897431033259856736e-01,4.696466557612524739e-02,-7.796507375983608226e-03,-4.146837897164527137e-02,-5.698101129963004455e-03,6.317922472953796387e-01
3.715806517714548285e-02,-5.889648871128267960e-01,5.996266654722956502e-02,3.329981105052295508e-03,-2.248010164125309115e-02,3.547003718411902411e-03,6.390739679336547852e-01
3.395397701501659538e-02,-5.875451138584646404e-01,4.690015686699175457e-02,3.582842370406020237e-03,-3.539336983218387134e-02,4.668593244351120462e-03,6.311392188072204590e-01
1.954055633082976695e-02,-3.914637005939184955e-01,5.102581404280887023e-02,-3.266125308681518970e-04,-5.262880097468097991e-03,7.619708768368391172e-02,4.476134479045867920e-01
9.851151961446347194e-02,-6.217711967914794080e-01,3.118579908198110262e-02,-2.923229479072242051e-02,-2.188397838415317292e-02,2.445757056678971378e-02,6.932829022407531738e-01
5.602688871367325629e-02,-6.196918156970768754e-01,7.848260934025230728e-02,6.923173499190275401e-03,-1.573869186241986726e-02,-1.378962856595203476e-03,6.878709197044372559e-01
5.091201386772836734e-02,-4.943125063205897618e-01,5.771822081017713435e-02,-4.498219086733210026e-02,8.968196259099149147e-04,-6.194626764554882203e-02,5.644569396972656250e-01
5.046902143918699513e-02,-6.405037682438465829e-01,9.065695511922766681e-02,2.818133491663144669e-02,-1.156844120495211480e-02,-6.149048387282994577e-02,7.217717766761779785e-01
7.427858717666263599e-02,-6.032071408193118156e-01,6.659876808028267203e-02,4.202106786705786176e-03,5.140272107977350569e-03,-3.089827181014669077e-02,6.758988499641418457e-01
8.329207961080789535e-02,-6.120039030250370438e-01,6.636813557537704633e-02,-1.878420077001080948e-02,-7.249814101695904343e-04,-1.752990263554800874e-03,6.877682209014892578e-01
7.292802499486600309e-02,-5.906326881627157466e-01,8.325575331595574946e-02,-2.491040638920279104e-02,1.696718629118050894e-02,-2.623530937941674981e-02,6.723560690879821777e-01
7.724152584056073745e-02,-5.891552294539057488e-01,7.069118699703352826e-02,1.820644104642250762e-03,-1.260030864806831272e-03,-1.014214359659848199e-04,6.631569862365722656e-01
5.133570867321593512e-02,-5.811490603953368694e-01,5.155517465625861218e-02,1.009135667665392137e-02,-2.776198014782535820e-02,1.892654357036290327e-02,6.355062127113342285e-01
5.536578488201288062e-02,-5.787551596871236548e-01,8.667115480999870725e-02,-4.740428645405256347e-04,8.813390762151405294e-03,-3.122616297911707736e-02,6.527631282806396484e-01
5.596305492710548779e-02,-5.958700549787312450e-01,7.297242119836963581e-02,1.249414336456765350e-03,-1.380159233037557553e-02,-9.951000794182551096e-03,6.611627340316772461e-01
7.617037386166927715e-02,-5.922346760291641310e-01,7.443044429642051152e-02,-8.366433193866804063e-03,-6.476803733187275376e-03,4.221608957275211314e-03,6.678283214569091797e-01
7.167237894880310045e-02,-5.615731229789373558e-01,6.910783969325817733e-02,-4.590311764001316769e-03,-5.376543191834366221e-03,8.046701996751918703e-03,6.322394013404846191e-01
7.338070452454437120e-02,-5.795084671055619197e-01,7.053371381373191307e-02,-5.695847804816306023e-03,-2.798535283524619579e-03,1.888044942536121760e-04,6.515631675720214844e-01
5.292871626305004074e-02,-5.955768830568781702e-01,7.712720016091131892e-02,-9.454945242128724378e-03,1.875650980913804583e-03,-4.951793532200298061e-03,6.612036228179931641e-01
5.233733422871736374e-02,-5.936194072056861781e-01,5.432691120998595080e-02,1.710821551941667934e-02,-2.406589733625719846e-02,1.872799051068407133e-02,6.497822999954223633e-01
1.643960054399953852e-02,-4.356048999897703666e-01,6.128699845149745973e-02,-1.224850830639515747e-02,-4.101616068742261652e-03,3.639333609213907944e-02,4.807312190532684326e-01
5.039313105793558067e-02,-3.990865695834516780e-01,5.155034757720644567e-02,9.800744904174929495e-02,-7.590081818323611562e-02,1.059658822073371032e-01,5.313557982444763184e-01
5.039315854531301042e-02,-5.862930993748756148e-01,6.068054505814793331e-02,3.850458915023392738e-03,-1.460307643622467226e-02,1.681900505216051998e-03,6.424311399459838867e-01
4.688331999305814235e-02,-5.877934040607868393e-01,6.078833605129996265e-02,2.529846043717476779e-03,-1.839955930934271617e-03,6.215083399653250316e-03,6.418553590774536133e-01
4.552209812435104030e-02,-5.912249481750807556e-01,6.787381977239384523e-02,1.423959871334181705e-03,-2.463175429891710511e-03,7.387758944667316939e-03,6.483570337295532227e-01
5.680441409475059378e-02,-5.988417142205426646e-01,3.795142978357873842e-02,3.186211036614601966e-03,2.938511503464927288e-02,-1.035222476115011531e-02,6.486977934837341309e-01
5.664421629704008421e-02,-7.409420329351661394e-01,7.243058854182310435e-02,-3.790673364350840430e-02,8.908726368861663580e-02,1.792791501628691886e-02,8.234492540359497070e-01
-8.437856162837181762e-04,-1.921219016011209424e-01,-1.933500099999081040e-02,-8.453616631392891698e-03,9.036277553862312678e-04,-1.526577890479103965e-02,1.852248609066009521e-01
7.244631790463351706e-02,-6.001668214197040108e-01,3.104705067265159379e-02,6.879718037403666914e-03,3.339483725679479043e-02,-6.737853709405865026e-03,6.556679606437683105e-01
9.396604319770340830e-02,-7.692704875639339024e-01,7.449863787995603115e-02,4.612574396244514818e-02,1.086528322473758884e-01,4.196653868231500772e-02,8.808143734931945801e-01
1.227001287374756555e-01,-7.134265442688293435e-01,1.879349727544102344e-02,-2.509089681726602711e-02,7.287965750325554881e-02,1.863343927749859172e-02,8.011803030967712402e-01
8.501199200287840041e-02,-6.025256082420327175e-01,2.675298593138444869e-02,-7.752054568204986076e-03,4.505854179750608951e-02,-2.316073379712155905e-03,6.650819778442382812e-01
6.200823945969011208e-02,-5.624611500768386119e-01,7.015087409322140477e-02,8.540318186387929611e-02,4.416926643675642139e-03,-2.362229681593629518e-02,6.470910310745239258e-01
6.133532266868563232e-02,-6.058217744670827409e-01,4.328884924930445632e-02,-7.967961751394424946e-03,4.236884660973743583e-02,9.685610983548155126e-03,6.627531051635742188e-01
4.925899300698075023e-02,-5.448480584148005512e-01,8.594822972288213014e-02,8.124115542157700140e-03,1.148892607160489215e-02,1.512910092578890857e-02,6.143185496330261230e-01
8.907194951402128136e-02,-6.035955653714373259e-01,6.508520061956615810e-02,-7.871901918492142311e-03,-9.691403476942948153e-03,3.147877062565953427e-02,6.835123896598815918e-01
6.831192035240679639e-02,-5.770846586882818485e-01,7.353857682463127432e-02,-1.160523530107646258e-02,-2.007343538045602838e-03,2.833190980386923741e-03,6.483652591705322266e-01
6.999534698287279699e-02,-5.832440878768353487e-01,6.767385957542609853e-02,-7.098532350022488703e-03,3.300884346402014301e-03,1.600394289832815856e-02,6.528115272521972656e-01
7.409992765589612507e-02,-5.912424624577035104e-01,6.696143964553208372e-02,-1.196756361730087932e-02,-3.169405762563199357e-03,3.757584262406409720e-02,6.653401851654052734e-01
7.890094879447406839e-02,-5.631503866265131775e-01,3.570363436948270630e-02,-1.667999525735723923e-02,4.274083558610017319e-03,1.520933167357117581e-02,6.228519082069396973e-01
2.738644220540653595e-02,-4.719305899760395384e-01,7.046851313499061242e-02,-3.068201456048654137e-03,-6.222404405292006509e-03,-2.002737543207812158e-03,5.223424434661865234e-01
8.345594300952188793e-02,-5.883054431360662528e-01,4.952149452443765920e-02,-7.538974474114379203e-03,3.971131080992606859e-03,-8.988204891155810242e-03,6.558042764663696289e-01
7.923912118666434634e-02,-6.039735698230521699e-01,5.556651410728405405e-02,-7.752487931259417417e-03,-9.372019603552054012e-06,-3.169303004520405802e-03,6.718459725379943848e-01
8.370792340993044034e-02,-6.018292266777550692e-01,5.327303930480437044e-02,-3.998944529994209046e-03,-1.107946159673352292e-03,-4.351065262048117895e-03,6.709185242652893066e-01
8.981927810073322971e-02,-5.314440691452084753e-01,4.235179043388717646e-02,-1.241702442783695903e-03,5.353620366476155752e-03,1.707486778305643922e-03,5.990248918533325195e-01
8.901312367077679477e-02,-5.410588637375033372e-01,4.407413195262835370e-02,1.083675154961387908e-02,6.573929245533704536e-03,1.251219519455482564e-03,6.092471480369567871e-01
5.011083903196256184e-02,-5.648153693960275001e-01,9.607996511443805954e-02,-1.818157983581826596e-03,2.308740764569034917e-03,7.006814674521679928e-03,6.392872929573059082e-01
7.407623268517479764e-02,-4.718592755301138641e-01,3.460211197976476027e-02,4.809536768842839066e-02,2.570977979076640840e-03,-1.237370315080541135e-02,5.342959165573120117e-01
8.148937640409820160e-02,-4.978164086244389885e-01,3.679118851623980335e-02,2.211602677701711081e-02,2.010390001395797460e-03,1.472595354001098034e-02,5.602046251296997070e-01
6.484579343366669857e-02,-5.305607545206014741e-01,5.919492986353919184e-02,2.053307624960499025e-02,1.069491137428026442e-02,1.204062692706834616e-02,5.943225026130676270e-01
9.309671522350365658e-02,-5.574543067279276176e-01,4.533272479400587973e-02,1.387598926196687357e-02,6.464332420273731332e-03,-2.902545848387430051e-03,6.286122798919677734e-01
7.979922640665049194e-02,-5.397132342152390905e-01,5.696372385855108522e-02,1.421041686511385904e-02,1.337940558092231939e-02,1.476197369759565080e-02,6.098908782005310059e-01
6.859397127553384932e-02,-5.261257976264468450e-01,5.378121805740646022e-02,2.289828324368192378e-02,2.619207965434871502e-03,9.090735354907310967e-03,5.890187621116638184e-01
4.349914711362604103e-02,-5.848362214063602682e-01,7.778275164455178414e-02,-1.841328589700227253e-02,-1.414362988246265981e-02,6.690926403016506270e-03,6.475136280059814453e-01
4.389557950034750355e-02,-5.839341606596470946e-01,9.245108353683345603e-02,-3.147221907637132166e-02,-4.561488081576587326e-03,-1.871997744772613617e-02,6.565802693367004395e-01
2.692766877016330995e-02,-5.928141697920212838e-01,9.678112641937175464e-02,5.638414820044486539e-04,-1.506679089242469669e-02,7.543701249214987067e-03,6.581057906150817871e-01
6.024359065512041589e-02,-5.508984298579824301e-01,6.945793281488896187e-02,4.667870497766127974e-03,-1.958006895063372794e-03,-2.284521017024540926e-02,6.171331405639648438e-01
4.999745600041380356e-02,-5.238687493071740864e-01,6.359570133474490294e-02,4.788015931760234573e-02,5.368556669739437542e-03,-2.426855857927244856e-02,5.882531404495239258e-01
6.036713759691664238e-02,-6.347665491364167245e-01,8.349262805896631723e-02,2.116977940581100948e-02,5.046463360739693055e-04,-3.633940622753888822e-02,7.107234597206115723e-01
8.298492047682473616e-02,-5.976736264447466418e-01,4.054050815970505761e-02,-2.254715778044559787e-03,-2.232843010356967868e-03,-1.332551963961551428e-02,6.608860492706298828e-01
8.572851132884867775e-02,-5.576911768619415843e-01,5.290176810844551825e-02,5.064522274979789407e-02,-6.842805155555196743e-03,-6.194088247356970348e-03,6.339522600173950195e-01
4.721309612106835973e-02,-4.886686480955297340e-01,6.684607832346609047e-02,6.099769039771141266e-02,4.476444626881566184e-03,-7.418350167384420157e-02,5.707954764366149902e-01
3.112343361050645685e-02,-5.074030098223238916e-01,6.713099321311827294e-02,5.695476119108316276e-02,-3.713645531081473730e-03,-1.902287363388816335e-02,5.670598149299621582e-01
7.589609302787453382e-02,-6.039485636237619248e-01,7.478803942705211649e-02,3.428912175189055556e-02,5.728358565017595445e-04,-1.990291269261198343e-02,6.827541589736938477e-01
4.558874263245890623e-02,-5.319874926363479251e-01,8.067241153342294413e-02,-4.035401660675537808e-03,-2.720103108070663829e-04,1.856447242375955028e-02,5.968011617660522461e-01
2.122703642581461048e-02,-4.311058832412980046e-01,6.890386143852489376e-02,-4.190759603148055436e-03,-6.479352609663469736e-03,3.854622952534842578e-02,4.827836155891418457e-01
3.374492112613747263e-02,-4.671890112558963470e-01,7.601552121657428884e-02,9.435016766016834228e-03,5.247056996654621622e-04,4.991632222322060775e-02,5.306968688964843750e-01
6.580707098175034298e-02,-5.572282216920196873e-01,6.539217574032013536e-02,-9.212658823050675445e-04,5.855886464120630200e-03,6.906608942816913621e-02,6.342952251434326172e-01
5.014382749228452063e-02,-5.199849343234844712e-01,6.628052503974302123e-02,2.805464104278364290e-02,2.100821917371281482e-03,6.332805424128656879e-02,5.906885266304016113e-01
5.621802406185133494e-02,-5.842787617458845562e-01,9.246537959783354688e-02,-6.416859196656097240e-03,6.216122387280360699e-03,2.302484879664093778e-02,6.607542634010314941e-01
7.005460609979222153e-02,-5.866706792884044397e-01,6.843676076037649714e-02,-3.746347347492887028e-03,1.091616220197257867e-04,-4.916043660121767076e-04,6.559505462646484375e-01
4.400231739733956315e-02,-5.378005746479346261e-01,8.856244008009703239e-02,-6.269195093976010977e-03,3.029106368202581431e-03,2.747920319333448450e-02,6.073023676872253418e-01
4.768843133402056456e-02,-5.163603936519203241e-01,7.211715547186337005e-02,4.637732946804306276e-03,8.926354662398456458e-03,2.863615117143682165e-02,5.790427327156066895e-01
5.942778012565791412e-02,-5.343634117815200257e-01,8.141723391742239357e-02,-9.708181178958309732e-03,8.012980309326095396e-03,1.568635639146915770e-02,6.060876250267028809e-01
9.524273955480683229e-02,-6.164966218601206638e-01,5.819631814474962583e-02,-2.789629683542504610e-02,2.375263714041954757e-03,6.246629026805247675e-02,7.040139436721801758e-01
9.473240642986621718e-02,-5.648532731665700801e-01,2.076549704960239939e-02,-1.088441761450129400e-02,8.059318725410571232e-03,2.301523208568309262e-02,6.275956034660339355e-01
7.627594184744618255e-02,-5.616891251915951955e-01,3.626164127771433487e-02,-1.732444435998586885e-02,4.288845945753789850e-03,2.754471765622508797e-02,6.215340495109558105e-01
1.218964236285480784e-01,-5.931582170638467488e-01,-3.442918618807910835e-03,-2.510132964504106085e-02,1.266175833223389703e-02,1.093210025200792024e-01,6.896470189094543457e-01
1.063222916266615137e-01,-5.859113549726731041e-01,-1.164023803138125590e-03,-1.868550573699156656e-02,1.143021292142043510e-02,1.083943844820335067e-01,6.730694770812988281e-01
7.433813316818654870e-02,-5.322859491725787651e-01,5.280335419097739735e-02,-6.302282706554461489e-02,1.780060220783959493e-02,6.245554863334670803e-02,6.164100170135498047e-01
3.559458111720950613e-02,-5.970343185161144373e-01,7.272132906943784558e-02,2.576465764684804632e-03,1.155814814999915272e-02,-2.231012361125763507e-03,6.523195505142211914e-01
6.955170894398537973e-03,-6.141955752323655648e-01,1.013847206009431678e-01,4.293182468084667558e-05,1.355110711611711566e-02,-5.210748805162057976e-03,6.738193631172180176e-01
1.535486213996897775e-02,-6.389953644641174213e-01,1.066517880218283421e-01,-1.503523766401157480e-02,3.811988312289438935e-02,-7.564385082719723291e-03,7.081375122070312500e-01
2.946991595078923831e-02,-6.625248049847642928e-01,7.942309525884105881e-02,-3.087295664638741929e-02,4.921155634184234962e-02,-3.864627796218203168e-03,7.253198623657226562e-01
4.318375230235904638e-02,-6.009773638708015842e-01,7.372459603887324131e-02,-1.951626377745562186e-03,2.166810135297417630e-02,-2.929476076450489687e-04,6.610368490219116211e-01
6.768506133620427745e-02,-5.613166664248250282e-01,6.270869258534506052e-02,-2.730550306970260400e-03,-1.131952134168403906e-03,1.267223345912813111e-02,6.269336342811584473e-01
4.541231767347994608e-02,-3.920726449825530646e-01,2.772437960759910336e-02,4.498694705937685695e-02,7.061158667311558980e-03,4.790360093842190720e-02,4.439291357994079590e-01
3.518490141668204063e-02,-3.365032848544640132e-01,2.222090204838234051e-02,8.471256493337335491e-02,7.741496199353868971e-04,3.857320355185218930e-02,3.993691802024841309e-01
2.446857233638170814e-02,-3.430677982946163107e-01,2.227465852602124319e-02,3.712542883655799847e-02,1.339907145389702264e-02,4.978318068816484088e-02,3.826095163822174072e-01
5.188603137579780866e-03,-2.761413486977809528e-01,2.671522667222583913e-02,1.049613048640327118e-01,1.664516852727877111e-02,7.355611732903885591e-02,3.684824705123901367e-01
8.495909594468561976e-02,-6.122508821783527733e-01,4.881042976370333908e-02,-7.250139552138082366e-02,8.012695266642138291e-04,4.705951249261829811e-03,6.914065480232238770e-01
4.375021086189490038e-02,-4.485005327314655066e-01,4.401492574079818310e-02,-4.572270543029047923e-02,1.327303874921492537e-02,-5.485141234608117283e-02,5.082001686096191406e-01
4.094091296626309329e-02,-4.389965433619256729e-01,4.593765752871503683e-02,-4.985937772394196527e-02,-4.318712864218917508e-03,-6.241704728918472805e-02,5.019606947898864746e-01
5.766033527542058224e-02,-5.163832180820655537e-01,5.357344575669067965e-02,-8.173841411791237660e-03,6.023600543433818393e-03,-2.582969970468480467e-02,5.740274190902709961e-01
7.514366269777245089e-02,-5.975408285168506417e-01,9.001087984163602673e-03,8.980039200100424501e-03,-3.296747077058594100e-02,4.100838103077261883e-03,6.449334025382995605e-01
9.171280235043277607e-02,-6.198208031597947087e-01,5.304653780423829179e-04,-2.247207827610887788e-04,-7.332179598893054373e-02,-2.670407543198304555e-03,6.825428605079650879e-01
6.999755435983601171e-02,-6.107094700242607921e-01,3.675037734824107560e-02,-2.477577895832183512e-03,-4.160441805228592971e-02,-2.101532234377665245e-02,6.696058511734008789e-01
8.690811728218567067e-02,-7.036919004719630610e-01,3.318377987207007940e-02,1.311057628305903680e-02,-5.011187601005526876e-02,2.428947546982192229e-02,7.715435624122619629e-01
1.055586268728726518e-01,-6.530845195026547811e-01,4.071888376005750043e-03,-6.434120172889959931e-03,-3.441049415686669305e-02,2.706488058575477404e-02,7.174404263496398926e-01
5.553526284902371435e-02,-5.610690056262643832e-01,7.873097847099294611e-02,-4.750341947984270015e-03,-4.145611199702445987e-03,4.491844740156318225e-03,6.286662220954895020e-01
8.564895184668019912e-02,-6.004466942793491580e-01,2.137307668657681403e-02,9.165515986527438680e-03,-2.417733279519312592e-02,1.228719674318175942e-02,6.581928133964538574e-01
4.425709238489813901e-02,-5.355687172858660805e-01,8.534847778091708692e-02,-6.241425210227573295e-03,2.611581537690211771e-03,2.696464481866683513e-02,6.033497452735900879e-01
4.821888428597562171e-02,-5.531240104501063959e-01,9.138033324512692679e-02,9.398175325690508349e-04,4.275729784777187494e-04,9.439995767776173871e-03,6.242607831954956055e-01
4.380826175518226506e-02,-5.425401198298969163e-01,9.279883378096226432e-02,-6.585842085699124347e-05,-1.422448031043953634e-03,9.088951570751589715e-03,6.125226020812988281e-01
4.276449878699919993e-02,-5.328247645649344388e-01,9.018696514874655068e-02,8.566669314434177977e-04,-3.571829362439415609e-03,-1.695773177352160547e-03,6.007469296455383301e-01
4.325454880107354461e-02,-5.030180844345464308e-01,7.370743914361821414e-02,-2.894985711664264938e-02,-9.688807176169140709e-03,4.553658601317595728e-02,5.700818896293640137e-01
4.711853433117682566e-02,-5.228893483432266454e-01,8.110828838131012297e-02,-6.800198672879333335e-03,-1.270351113029458828e-02,2.784870174089957434e-02,5.902442336082458496e-01
6.352907139685778914e-02,-5.682512580350966847e-01,7.542487996158747654e-02,-3.723206475126199840e-03,3.889805918829907319e-04,1.927528615087743509e-03,6.378531455993652344e-01
5.946683842250402585e-02,-5.263013045303883697e-01,6.175727031726088723e-02,-6.617819622737121897e-03,-3.904632407617681256e-03,3.382371223432713292e-02,5.899834632873535156e-01
4.375575440735013366e-02,-4.929103436636359525e-01,7.735703905441543293e-02,-2.102220611548717005e-02,-9.057810270514453192e-04,4.651971892376456641e-02,5.612421035766601562e-01
3.678611880306001392e-02,-4.702920360789252796e-01,7.073630259622221139e-02,1.210628340243900813e-03,3.965411210094108192e-03,5.752788421088548404e-02,5.342997312545776367e-01
7.953420188620000109e-02,-5.816743267637611847e-01,7.212599406499825561e-02,-7.500109149014165186e-04,-1.646496211500939272e-03,1.640757556871697475e-03,6.575493216514587402e-01
4.220483722469958732e-02,-4.954759558126514696e-01,7.194724803240501454e-02,-5.021291169395434087e-03,-8.469427260250742689e-03,4.251022724251891233e-02,5.582914948463439941e-01
4.470675538489510270e-03,-2.158118210041369556e-01,-3.554493377158213230e-04,-2.622075142591803135e-03,5.270870051560449035e-03,2.525035264895736983e-03,2.181917876005172729e-01
-4.393998151328959434e-03,-2.723218834477262318e-01,-6.012994979126495831e-03,-7.784988923389695066e-03,2.045607534852230281e-03,2.926288071109096889e-02,2.722453176975250244e-01
-4.369130201024223892e-03,-2.837919299335142087e-01,-5.153692120173775093e-04,-1.818258726369282804e-02,1.051075095271803523e-03,-6.835826389093587786e-03,2.833797931671142578e-01
1.601029736526572711e-02,-2.244316090986148149e-01,9.097742776947026488e-04,1.065028799625994914e-02,-7.214245032394021049e-04,1.671134891623400935e-04,2.339903116226196289e-01
-5.660839468625875059e-03,-2.561599976325410477e-01,-5.741476498680134211e-03,9.212317691362832683e-03,-4.483419817642877005e-04,-1.184402721744330471e-02,2.518048584461212158e-01
-7.871446140770399502e-03,-2.403511102237251840e-01,-3.527136495187155329e-03,6.129712032560512280e-03,-1.755142318751233858e-03,4.822524981255263583e-04,2.349431663751602173e-01
8.033974913209276925e-02,-5.909981711522495074e-01,7.366436830281328230e-02,-4.175982439403398607e-04,-3.906740415179051421e-03,-1.783811013234645314e-03,6.680670380592346191e-01
5.260766240184414078e-02,-4.834126129181916531e-01,5.944265076673055370e-02,4.774643549146296434e-02,1.442899994816821373e-02,2.111414650832632231e-02,5.475667119026184082e-01
4.674331311976687164e-02,-4.290842631762653014e-01,4.888145642533370250e-02,5.888996721564675879e-02,7.637829837686740942e-05,6.477659898999667265e-02,5.004258155822753906e-01
1.962136692378825542e-02,-2.866834877078856536e-01,5.362756082984754258e-03,4.514997251945541273e-02,9.402669286071490065e-03,6.309007384146636532e-02,3.286036550998687744e-01
5.517534947545710278e-02,-4.954514770818574942e-01,5.495782593304965324e-02,2.610539480230660014e-02,1.860514825366986133e-02,4.272407356937348022e-02,5.582375526428222656e-01
7.493634057944656424e-02,-5.842543174487208057e-01,6.922381077859668386e-02,3.833045337641975778e-03,1.160921282145264792e-02,3.344881806857873553e-03,6.567201018333435059e-01
4.912931697415079402e-02,-4.268645789234953303e-01,3.766776531182269849e-02,6.448580980793040818e-02,1.318104381490214916e-02,6.428914757928101686e-02,4.966303408145904541e-01
1.048804704539146870e-02,-2.960601647652187363e-01,1.856599632502609065e-02,6.771849605831116448e-02,8.632952862018943366e-03,4.219825007959379648e-02,3.403474390506744385e-01
2.752077763016935741e-02,-3.808281307037593710e-01,3.933395083591570418e-02,4.826371663612433194e-02,1.063139992306376055e-02,6.368795653598151307e-02,4.372733533382415771e-01
1.602190111121298832e-02,-3.615098634179299553e-01,4.499646584327010590e-02,-3.308524589676798550e-02,-5.347313665359594050e-03,8.535642490360609291e-02,4.237161874771118164e-01
2.373722888338514192e-02,-3.678547034836158747e-01,4.079644295334172721e-02,-5.306519300303290387e-02,-7.125822534852509042e-03,6.918881735278747946e-02,4.281084835529327393e-01
-1.333980605456749208e-02,-1.722809884198557018e-01,-2.145860930442347603e-03,-4.497168894488316748e-02,1.540625039873913006e-02,9.341612763331411107e-02,2.452058643102645874e-01
4.163808410139491212e-02,-4.773070038143512606e-01,5.465242224278610284e-02,-8.018769475137742242e-02,-2.209599078200021050e-02,3.671754155537215736e-02,5.486588478088378906e-01
8.655954944223512304e-02,-6.023786495769414273e-01,2.884462261926540316e-02,3.472065990910077823e-03,2.862548012751103127e-02,-6.567169085797601967e-03,6.639492511749267578e-01
5.380501200096987624e-02,-5.052653469607434333e-01,4.809205987895370793e-02,2.931361386151725909e-02,3.971459374243951901e-03,-4.995642820656292366e-02,5.652526021003723145e-01
7.424197795117842835e-02,-6.045052868753165720e-01,6.908556272442104018e-02,5.668466543371879218e-03,1.746495497077119735e-03,-8.685895784325386657e-03,6.764291524887084961e-01
4.618126643529366082e-02,-5.435674727296438968e-01,8.948469459615920885e-02,2.348280134508530948e-03,9.038645461974406312e-03,-5.747472755280444087e-04,6.127638220787048340e-01
6.449467479529208402e-03,-2.541782741850391325e-01,7.686159198391315228e-03,1.214553951144675469e-04,1.042750860729481019e-02,9.183245950507533395e-02,3.063927292823791504e-01
2.045288633083604257e-02,-2.493408193378062465e-01,9.136247442177308775e-03,3.339949542406415312e-02,9.407991449208940541e-04,6.861177045436796240e-02,2.955258190631866455e-01
4.951414223373565293e-02,-3.933136255504354750e-01,3.348325784829456198e-02,7.312165436360514026e-02,2.089575697312593284e-03,2.744019149029554641e-02,4.555950164794921875e-01
3.138036074453434687e-02,-4.109661288963677439e-01,3.993460824996802883e-02,3.736216964816926889e-02,8.589726256308159377e-03,4.594674082838072493e-02,4.585520625114440918e-01
1.118853148443023360e-02,-2.818789435091069717e-01,2.654150197656812704e-02,1.577484381617101986e-02,1.031941801843221269e-02,7.893959782071040265e-02,3.322410285472869873e-01
8.893337794998873447e-04,-3.064556988524440584e-01,2.027313224771112865e-02,1.982685726597711862e-02,1.078288958416645862e-02,2.846201359448300230e-02,3.236550688743591309e-01
8.492704452140439897e-03,-2.629265278424427477e-01,1.470576035292622818e-02,-3.472798817896170093e-03,1.630715233897870459e-02,6.874852502594590298e-02,3.006765246391296387e-01
1.182002191565477700e-01,-6.137305517363150775e-01,-7.154523072995661037e-03,-2.593113846314714158e-02,5.174913946497038814e-02,8.020607818898456420e-02,6.993108987808227539e-01
2.219337101607853080e-02,-3.021609754707016426e-01,2.639890227813304624e-02,1.905801502854672508e-02,2.376050478582959063e-03,6.541918170173342817e-02,3.471787571907043457e-01
6.743704547213894007e-02,-5.929577494272963989e-01,6.769991479682657687e-02,6.722031791217418679e-04,1.543636469939993743e-03,-8.147308992831619892e-04,6.605342030525207520e-01
6.036936204178713905e-02,-5.886497066275704348e-01,2.026000308448355769e-02,6.195575114601946029e-03,-3.516038193181427601e-02,2.786582882350605462e-03,6.329692006111145020e-01
6.175276333936252637e-02,-5.961255953090196513e-01,5.544926759158108620e-02,3.656114477218327160e-03,-4.984410078979537202e-03,5.456784880990247881e-03,6.549050807952880859e-01
6.549414383399004835e-02,-5.961965017978886339e-01,7.144995747799165464e-02,-3.401754335777002446e-03,-7.965116759135970614e-03,-7.581388538843126905e-03,6.649875044822692871e-01
5.156991394728954736e-02,-5.896722656211870195e-01,6.252649923870998161e-02,6.117057528218304563e-03,-1.844854564054442328e-02,3.221082347266720266e-03,6.476896405220031738e-01
5.034749402549731911e-02,-5.961291529647507748e-01,6.157971918783064491e-02,-6.906927623243674973e-04,-1.266837114169012089e-02,5.844696628890980877e-03,6.526139378547668457e-01
6.460836503581882106e-02,-5.942424251248814571e-01,5.731431603917758189e-02,4.895160161246719065e-03,-8.149486855201948377e-03,1.616089779644408302e-03,6.554470658302307129e-01
5.348402364608961790e-02,-4.875616663470336287e-01,5.229524211782177190e-02,-2.398624666207110553e-02,1.232053862425288270e-02,-5.152656019392250208e-02,5.497590899467468262e-01
6.057960024042266522e-02,-5.772661151571127913e-01,6.098140434693871681e-02,6.926044313314114360e-03,-8.875223964298623383e-03,1.184568456340884257e-02,6.386742591857910156e-01
6.457609643664311005e-02,-5.800201507551717706e-01,7.499102230690948834e-02,-4.401629959603561848e-02,2.839819784565944701e-03,-1.224933045230270322e-02,6.546853184700012207e-01
9.747219053406475098e-02,-5.902419899019234473e-01,8.468773642324928241e-03,5.965923315436889862e-03,-1.699798026049379948e-02,1.811242607526862211e-02,6.493237018585205078e-01
7.162381701431494441e-02,-6.100145198880438935e-01,5.409240445381785500e-02,5.792378838005589337e-03,-1.935194083501726170e-02,1.127072140951039352e-02,6.742353439331054688e-01
6.344005910403668902e-02,-5.891203292477218412e-01,6.887085193857336862e-02,-3.519311526931442197e-02,2.227307134163318460e-03,-3.236961229860671474e-02,6.605167388916015625e-01
6.301303306612440758e-02,-5.656133524084523412e-01,7.674954504718703441e-02,-7.744187793600051592e-03,-1.962567228671912700e-03,6.626739425940007637e-03,6.358602046966552734e-01
5.637164641684172528e-02,-5.364643859789746116e-01,5.711077543952497448e-02,-2.120002549977110726e-02,-1.052765273665167995e-03,-2.403562828225561457e-02,5.958003401756286621e-01
5.710501694921699123e-02,-5.344932008654168509e-01,5.677489979942884624e-02,-1.927765850813150522e-02,6.067298894777178181e-03,-1.906881543538942181e-02,5.933880805969238281e-01
6.165856310966411069e-02,-5.443829094665035839e-01,6.446644444593957468e-02,-9.052085190461496914e-03,2.589784948477102770e-03,-1.875452325835516229e-02,6.085367798805236816e-01
-1.634664103367777788e-02,-1.179343993549361591e-01,-7.967979291923318885e-03,-3.170062166931995190e-02,-1.001438446289582224e-03,2.799389339374946939e-02,1.288806200027465820e-01
-1.816920697348997638e-02,-1.989837594861133541e-01,-2.350502374406510109e-03,-1.210556801168686733e-03,-4.087642113999325442e-03,2.767353371306667444e-03,1.894251406192779541e-01
1.313593302571386401e-04,-2.378698480975482976e-01,9.015288220690809151e-03,-3.076544111136570586e-02,9.584396720540174636e-03,6.510183261674523658e-02,2.732540071010589600e-01
-1.350487400576295960e-02,-9.338718917189997581e-02,-4.587248701355121916e-03,2.195129088758885488e-02,1.024508072180063505e-02,3.890432856086361441e-02,1.160783022642135620e-01
-5.869573198642925177e-02,-7.628630975371700207e-02,1.035390238943723895e-01,6.496058115715211585e-03,-5.924540749903745712e-03,-3.251140994733715123e-02,1.813455820083618164e-01
-1.056164627810603218e-02,-8.355714234788448602e-02,9.208419093641703745e-02,6.071098286656207051e-03,4.444990082361117284e-02,1.397595824812491831e-02,1.731505990028381348e-01
-2.615781962411399889e-02,-2.948416075377107218e-02,-1.287405977346474731e-02,-2.562307767398467467e-02,-4.350425092872715373e-03,-3.758038936567785482e-02,8.059138059616088867e-02
-1.282620250144752422e-02,-3.418043871239413722e-02,-9.583501354882647053e-03,5.178814162141891220e-02,-2.776208874244160633e-03,-2.317652841046446283e-02,1.010760888457298279e-01
-1.479167798659135336e-03,-1.734605322505330949e-01,-1.532339641833288524e-03,1.262085814967850612e-02,-1.509903357270699130e-04,7.300033492249984046e-02,2.145542353391647339e-01
-1.450241507282469533e-02,-1.870241590891867922e-01,-1.812683197562903192e-02,9.632278399171065320e-03,2.341045048035974869e-03,-1.827914809301861912e-02,1.744957417249679565e-01
-1.392124129012888706e-02,-1.742273587734956553e-01,-1.841512523993910078e-02,4.247781804871625377e-02,4.566978528950585772e-03,1.262189772199665688e-02,1.759302467107772827e-01
5.209903848986091601e-02,-4.678583612088139110e-01,4.832886858280979747e-02,4.751014366098395281e-02,-3.251356353275042851e-03,5.427529751538660158e-02,5.329637527465820312e-01
6.745623662252367425e-02,-5.524304855810792114e-01,7.065790381165584777e-02,3.351047330224046772e-02,1.288816881967906440e-02,3.080826660799989777e-02,6.268724799156188965e-01
6.048446774718305163e-02,-5.389716192087231628e-01,7.336107217091572541e-02,2.368715712713734267e-02,1.591442178403804433e-02,3.168380964497728020e-02,6.104809641838073730e-01
6.810023613789492614e-02,-5.616455823384260970e-01,6.946706594742213525e-02,-2.292595348349116778e-04,7.068982304346691642e-03,7.032786506141345054e-03,6.306670308113098145e-01
6.801906104942620490e-02,-5.631593939325985065e-01,6.954133552125382756e-02,1.594730911740242091e-02,9.801555968624687393e-03,1.849604259186910307e-02,6.335825324058532715e-01
7.528590550895286615e-02,-5.671884980625451211e-01,6.999346910082471229e-02,5.658272332720997236e-03,1.280434349648977045e-02,6.200251174384803846e-03,6.403939127922058105e-01
2.810902668999998300e-03,-5.197884654894469048e-01,7.308401357504004658e-02,6.114696460967402464e-02,5.978271746413708898e-02,-1.095026315239626263e-01,6.104787588119506836e-01
6.779300445961358723e-02,-5.337240319238572006e-01,7.086810936232304514e-02,6.101205899699606999e-02,-1.250891930288140948e-02,-6.363251928439750404e-02,6.224676966667175293e-01
7.568054566953602569e-02,-6.182541439865277821e-01,8.791251305460956456e-02,2.118808763951029323e-02,2.440005719823801211e-02,-7.851268365679600625e-02,7.154081463813781738e-01
1.228307887890341954e-01,-6.252523037969077713e-01,-2.497317731153414488e-03,-3.365708417237425060e-02,7.471227311399931958e-02,9.243010611467752935e-02,7.261912822723388672e-01
7.091488113897934098e-02,-5.856715489062895852e-01,8.397056990906065499e-02,1.518946481697695979e-02,2.354072108037590094e-02,-7.254462450159789022e-02,6.767504811286926270e-01
7.418115644811043574e-02,-5.972896862008849617e-01,6.344185952905698200e-02,1.159066025404152786e-03,-2.561226605847519502e-03,2.341662629867096931e-02,6.674174070358276367e-01
4.124993982943384041e-02,-6.129733124124496779e-01,5.183508471742814816e-02,-3.794380671914192229e-03,-4.989292753621812904e-02,4.424920256790045546e-03,6.652931571006774902e-01
5.112912218455686886e-02,-5.873364782857533051e-01,5.383105869295140566e-02,2.337792622783469582e-02,-3.812229280755546207e-02,2.943688125031194633e-02,6.465058326721191406e-01
7.154073425223789195e-02,-5.862135931923999621e-01,6.779244328412628584e-02,-4.491511381772965786e-03,1.145740796933799027e-03,1.196029058595716749e-03,6.559406518936157227e-01
6.071578485248296797e-02,-5.316288085754032888e-01,4.451081254156880052e-02,3.610329119269497372e-02,-1.313791607634743480e-02,5.104792207745257465e-02,5.947954654693603516e-01
3.426508009187143045e-02,-5.736752438302855639e-01,3.792608375466025028e-02,2.482271881687747941e-02,-5.288977181931989180e-02,3.017850257614509979e-02,6.203250885009765625e-01
6.496099223093040886e-02,-6.020016579398939083e-01,6.993973227602331977e-02,2.757566896600500625e-02,-3.835972917359391915e-02,1.952430881007427912e-02,6.752953529357910156e-01
7.340876714877683784e-02,-5.879964152802366062e-01,6.664980510055668050e-02,3.572325836877799374e-04,2.013549670354029234e-04,3.815250262762100858e-02,6.613618135452270508e-01
5.953304712459059345e-02,-5.897184279935294704e-01,6.358991807683447850e-02,-3.552879642706878709e-03,-1.635790661208166158e-02,2.813452493011366420e-02,6.537531018257141113e-01
7.352374949286299977e-02,-5.909131716971872672e-01,7.420207671026801677e-02,-1.464393131461726519e-03,1.507453864445480437e-03,7.496343687289926507e-04,6.647875905036926270e-01
8.557387202318034181e-02,-5.922674541705175155e-01,2.684128796240758952e-02,1.918888536247534068e-02,-2.076022038123869623e-02,8.082980205688089850e-03,6.524573564529418945e-01
2.644979182307327648e-03,-6.070582987745143377e-01,1.046784360326776242e-01,-3.508051516902025834e-03,-2.459680933339929501e-02,-5.138222416779517597e-03,6.680495142936706543e-01
8.525591387037484425e-03,-5.968724263655118545e-01,1.058171179720884814e-01,1.078286198946824814e-02,-7.760304127961868519e-03,6.428349088276585563e-03,6.599438786506652832e-01
1.381703669406325607e-02,-6.073960518339320824e-01,1.024200523612516234e-01,2.047063063266645402e-02,-2.588984795774370434e-02,1.206495319862298417e-02,6.726828813552856445e-01
6.815788105509645867e-03,-6.172997501999331060e-01,1.097264576822875592e-01,-2.865374899580267008e-03,-9.453067015215999361e-03,3.065119282773245621e-03,6.816596388816833496e-01
6.447371361719056448e-02,-4.067564410149638876e-01,2.169303778656592185e-02,9.591112143506370924e-02,1.500129005060352703e-02,6.273209789143359416e-02,4.937675595283508301e-01
6.228831640325391272e-02,-5.380386102773180301e-01,6.467971984781878403e-02,2.430281001323878268e-02,1.827166891190652384e-02,4.097291342402416270e-02,6.079831719398498535e-01
2.565671582835542253e-02,-3.287412783047479747e-01,1.499712729717836424e-02,6.559463171718692143e-02,1.512468102546296080e-02,3.941958869417772765e-02,3.744192421436309814e-01
4.485630843007162860e-02,-5.801537497220821127e-01,4.503054275872983570e-02,1.616224448411885078e-04,-4.463961968034490906e-03,5.595338110785310660e-03,6.252201795578002930e-01
2.804431484380084938e-02,-3.815047401343300004e-01,2.232359665418837125e-02,3.490279025403453250e-02,1.332079254904002495e-02,3.562265655232317585e-02,4.164302051067352295e-01
5.279647367024298266e-02,-4.855396725300409888e-01,6.090515828311415802e-02,3.000627261230187290e-02,1.935181826045711054e-02,5.478565267983837028e-02,5.541351437568664551e-01
3.628795916367061336e-02,-4.596723434521930440e-01,5.832540962636387216e-02,-3.569926087777084821e-03,1.316170894103463850e-02,3.880700279732261088e-02,5.123161673545837402e-01
4.738815574700561140e-02,-5.808982761299885667e-01,3.404986648049820874e-02,8.922769093171769444e-03,-2.262782315505646943e-02,5.832840872694865751e-03,6.232322454452514648e-01
5.713555045156731849e-02,-5.941354556834770317e-01,6.046070046355539462e-02,3.257710956302418796e-03,-5.018901529265468349e-03,3.630722312746427136e-03,6.530524492263793945e-01
8.583231221930440191e-02,-6.011589298732560316e-01,6.784433765632624791e-02,-1.361709731106177691e-02,1.691627439818710766e-03,1.855114687898505024e-03,6.786001324653625488e-01
3.123364352755433893e-02,-5.403145568565885792e-01,7.770964071948061047e-02,-5.473648115862184138e-02,-6.872433306721575930e-03,-3.860344320028457482e-02,6.074464917182922363e-01
-4.582951608642193975e-03,-6.026825034031364492e-01,1.143849388916803322e-01,-3.263443215825253922e-03,2.977789983881962664e-03,-5.459300048180428661e-02,6.723323464393615723e-01
3.155657459186728131e-02,-5.460408882718899015e-01,7.947598132956507078e-02,-5.641224520504007495e-02,-6.454238007557894577e-03,-3.850553423430980865e-02,6.145837903022766113e-01
6.884872914832920743e-02,-5.857206238129160081e-01,7.059415945861080566e-02,-4.173544907077759991e-02,7.726283630320406569e-03,-9.981705489332784367e-04,6.595560908317565918e-01
-1.049474271603634268e-02,-3.271390254891498595e-01,6.633697854187997622e-02,-6.688298505675464856e-02,2.262583267234694051e-02,6.048091891805268405e-02,3.955055773258209229e-01
1.672030009563646447e-03,-7.690847837185988967e-01,1.462435432477631192e-01,-2.397921567377033492e-01,4.697860566807273743e-03,-2.308057081187593618e-02,9.489792585372924805e-01
3.133569685450940390e-02,-6.195626676331523752e-01,1.108291787234634285e-01,-9.940901363948707881e-02,-7.382425197452400535e-03,-2.543538339349308078e-02,7.165758013725280762e-01
2.505614431181654722e-02,-5.226917656590623906e-01,7.017871956218194041e-02,-1.299731918088991266e-02,7.966348129855714718e-05,1.932229635977308554e-02,5.730676054954528809e-01
6.201401771233622240e-02,-5.940333634381900207e-01,5.802950636954393171e-02,1.727153052741466077e-02,-1.643899309089169244e-02,4.124728365402534000e-03,6.554057598114013672e-01
7.572158896929467864e-02,-5.930465195455763006e-01,5.321799911077967904e-02,4.452807505080243720e-03,-1.601856260795006493e-03,5.807246435545304099e-03,6.579329967498779297e-01
5.572783596036776088e-02,-5.795501352731646794e-01,4.541797237491940198e-02,-1.023434210582637414e-04,-7.404773003653320612e-03,-7.998830122968999742e-04,6.303183436393737793e-01
5.523648077348089491e-02,-5.918010122471779599e-01,4.748364928910794869e-02,-4.889163751872210514e-03,-1.074174358066562300e-02,-6.855540310584183616e-03,6.436304450035095215e-01
7.026430372128478208e-02,-5.966100963293625714e-01,5.691125826530582521e-02,4.177342316636794054e-04,-1.293093637501369336e-03,2.797420268079257692e-03,6.603211164474487305e-01
7.282344951411248712e-02,-5.844481589088768025e-01,6.576082051425313768e-02,1.380929276106656299e-02,5.405045892833913387e-03,2.224050882718116989e-02,6.554062962532043457e-01
8.263318506699096622e-02,-6.275355393011520233e-01,3.542278511645177708e-02,-1.651811427117631445e-02,-2.541878419678464396e-02,-8.847423895596890145e-03,6.899513006210327148e-01
6.486323334458984902e-02,-5.865413411097799568e-01,4.251764817666975338e-02,1.120945862518344348e-02,-1.476969528883204097e-02,1.016071809507655514e-02,6.415702104568481445e-01
6.340437271905058347e-02,-5.608485992253186003e-01,6.786764814230561438e-02,7.675097111956638921e-03,3.501742649021785496e-03,1.396267530320148900e-02,6.271333694458007812e-01
7.065670076387123300e-02,-6.024376750355135979e-01,7.250444824853169434e-02,1.313920339211402909e-02,2.182270862097948627e-03,1.558549698077808278e-02,6.749548912048339844e-01
3.552467276131124341e-02,-5.941132078489822499e-01,9.050837058760216602e-02,1.009843336727656894e-02,7.265308957910028695e-04,-4.499974262074398976e-03,6.591321229934692383e-01
8.166232585656257870e-02,-5.832156303337988623e-01,6.688272114765747567e-02,2.116044631267281154e-03,2.187554113090775867e-03,-1.452168346724684546e-03,6.576386690139770508e-01
5.418607964624239104e-02,-5.822233388478876837e-01,4.344187601389576381e-02,3.914419762244444358e-03,-7.791746963171172595e-03,2.865276516254312237e-03,6.313061118125915527e-01
7.385581500921606368e-02,-5.906730203381410638e-01,6.550274141593989685e-02,8.970124925733799839e-03,7.044088385222946856e-04,1.123094402391838949e-02,6.608621478080749512e-01
6.776562173911546139e-02,-5.890057258352858760e-01,6.302769236591704294e-02,-7.459881726426211522e-03,-4.588515158956085749e-03,-1.795797291017670267e-03,6.545984148979187012e-01
7.383147108402429715e-02,-5.930296763110516345e-01,6.490009725274120678e-02,6.992930486281884184e-03,1.937222754142438547e-03,1.623094434528361482e-02,6.631559729576110840e-01
7.235436106601031425e-02,-5.784601040100739722e-01,6.767475007652401509e-02,-4.450281689667138119e-04,5.750970785059730979e-03,5.182214222961717756e-03,6.486263871192932129e-01
6.139735247917868510e-02,-5.349994963406028425e-01,6.184668284376595992e-02,1.813754818338015815e-02,9.289583129237083403e-03,4.046718994012479115e-02,6.017607450485229492e-01
7.012993367668943212e-02,-5.469009461863898469e-01,6.025136379862663927e-02,2.739863050096858973e-02,9.020047639219439320e-03,4.737289532533609654e-03,6.142416000366210938e-01
6.047646574133971886e-02,-5.352468381300616862e-01,6.450190761522825444e-02,2.000174604659214414e-02,6.375839778650297350e-03,1.984093393559477336e-02,5.998363494873046875e-01
1.443726801874140042e-02,-4.236288855284999211e-01,5.931230759239802808e-02,7.107160177037993853e-02,5.694787167991429561e-03,2.074230322459790984e-02,4.797035455703735352e-01
7.184966915843515878e-02,-5.406178947853488292e-01,6.215562932611828906e-02,3.371398748315642541e-02,1.578293205111733558e-02,2.433164482351045724e-02,6.125410199165344238e-01
6.292555892640810944e-02,-5.180131181773490745e-01,5.683186718983587737e-02,1.386553020693114674e-02,9.808665657359987022e-03,8.609712898802666242e-03,5.788562893867492676e-01
6.383764908071024036e-02,-5.391330444128101806e-01,6.330830724526051445e-02,4.222843765557240947e-02,1.851516621825763376e-02,2.406048384574950919e-02,6.094010472297668457e-01
7.074038565109361243e-02,-4.933688994237901415e-01,4.961470915308002771e-02,8.850568051589927099e-02,6.705605624808813094e-03,5.103098404978918118e-02,5.815458297729492188e-01
3.213608053252292596e-02,-5.553133600991908558e-01,7.516766591549789434e-02,1.030531604060842682e-01,-1.504271058613711014e-02,6.995125163353170528e-02,6.476462483406066895e-01
2.220047045748349546e-02,-6.145794608376933255e-01,6.607263120742856710e-02,2.899189216716908241e-02,-5.423291387312814682e-02,1.272435068201969825e-02,6.687161326408386230e-01
2.760146718594289061e-02,-6.720768905081295763e-01,7.692193398968011353e-02,-8.637176137573962520e-03,-6.831438675100304225e-02,4.065417037240478919e-03,7.353670597076416016e-01
3.168356667703953189e-02,-6.191454659014954398e-01,7.333093045568328527e-02,-4.460515820366813509e-03,-3.658294503033463624e-02,1.297009264929948865e-03,6.756463050842285156e-01
2.137910562915343315e-02,-5.875727705176068127e-01,5.702497640997908346e-02,4.355626991686400995e-03,-5.073074423155346513e-02,2.827045092154909390e-03,6.337202191352844238e-01
2.591053234413551176e-02,-6.086169879640328517e-01,3.822478866853093460e-02,1.765306103084721134e-02,-8.004978712862911849e-02,2.011837994858643036e-02,6.572393774986267090e-01
3.611297404451865867e-02,-6.013313708030834093e-01,5.628936919645669001e-02,4.213231629420237834e-04,-4.975705870046511631e-02,3.417732165819688424e-03,6.535032987594604492e-01
5.531567473807377788e-02,-5.777130554252709604e-01,3.605390250677811825e-02,1.549832053944742672e-03,-5.099923736428599655e-03,-1.559622370708521480e-04,6.236893534660339355e-01
5.767462141016452271e-02,-5.863487193888379245e-01,1.272157480793770223e-02,3.061300341668427363e-03,-4.031340535328187258e-02,1.403218239091917618e-03,6.266941428184509277e-01
4.556528775932144892e-02,-5.861932620244580949e-01,3.123935726585008732e-02,3.591273816877577269e-04,-3.677161790924129980e-02,-8.833458775110422033e-06,6.279573440551757812e-01
7.040224396483568681e-02,-5.987326073420546901e-01,6.882092737148759465e-02,-1.397757427977645850e-03,2.341761001059220349e-03,4.682739837740814218e-03,6.684114933013916016e-01
7.254840070727622270e-02,-5.995575690420544834e-01,6.855777827824685589e-02,6.800542175225899244e-04,2.232242546024063533e-04,8.553878893396346921e-04,6.701223254203796387e-01
7.403736805970626000e-02,-6.013394604133778243e-01,6.775509936695842117e-02,2.580715098569239929e-03,4.560738713817797350e-03,5.003922282547308741e-04,6.723195314407348633e-01
6.785360020712327689e-02,-5.976296792558521975e-01,6.859642914967906124e-02,3.609437544142297255e-03,1.417984869638795825e-03,3.374416305926291118e-03,6.659145355224609375e-01
6.893875698885540415e-02,-5.992596326297896514e-01,6.859671119102878079e-02,-2.749558082248353239e-04,2.355776107812086045e-03,2.929746345027288423e-03,6.680593490600585938e-01
8.868010045525884233e-02,-5.258315886324027577e-01,4.234485919499825224e-02,-4.759715886491522633e-04,5.991342554658233600e-03,-1.031355657141029168e-03,5.927981138229370117e-01
6.881310391481640365e-02,-5.625879215425029223e-01,8.217276593592770517e-02,-1.790157555558971950e-02,3.344741639526424906e-03,6.170149841408046482e-02,6.478404402732849121e-01
6.434582238418676270e-02,-5.880263075453606714e-01,8.551987212387587856e-02,-1.582796040590685183e-02,-7.665742416743106732e-03,9.863676525495653977e-03,6.641316413879394531e-01
5.057866019551729431e-02,-5.802722749229372035e-01,4.301390354318906928e-02,-1.302492373014716050e-03,-3.818478199691395947e-03,-1.211794487665251909e-03,6.271452307701110840e-01
5.797503184542890375e-02,-5.242987960839458061e-01,6.399332964812068369e-02,-1.151009950023177027e-02,-9.396171275541964282e-03,2.421711153399426497e-02,5.873712897300720215e-01
6.195904567514359806e-02,-5.675737864702128377e-01,8.051059306506777591e-02,-1.680448042060651154e-02,-7.471709758133151733e-03,1.130431155570547214e-02,6.401035785675048828e-01
6.154502460373409423e-02,-5.649004178007415167e-01,7.806847753782192312e-02,-1.580673196681156578e-02,-1.195753709066984735e-02,7.413686878964056114e-03,6.359255909919738770e-01
1.638492290782257443e-01,-7.082538208453337258e-01,-3.408981356898682646e-02,1.219299028329244410e-02,-2.808015987950743253e-02,3.914962024504884536e-02,7.965738773345947266e-01
1.200777914052846285e-01,-7.024841319234526038e-01,-1.481729424663041916e-03,2.449569270267023136e-03,-3.575550009813494717e-02,3.757808655300538727e-03,7.715505957603454590e-01
1.032736763297309457e-01,-6.970486975809299102e-01,1.027575105478958917e-02,-4.533201223665043675e-03,-5.295908770264168980e-02,1.193375377672695539e-02,7.639627456665039062e-01
1.174841519444393967e-01,-6.888347729685893039e-01,-2.956531327158309908e-02,2.078411440381222608e-02,-9.993769647753233953e-02,8.803830568464218742e-02,7.795612812042236328e-01
1.602587605705477203e-01,-6.936772324241435861e-01,-6.406910278681021698e-02,-1.510269499709099988e-02,-5.560618586006318975e-02,-8.998918052355005248e-02,7.888109087944030762e-01
8.394396189571501354e-02,-6.137381296774118145e-01,2.744712169698182436e-03,3.946421045498117730e-03,-5.388898059293669579e-02,6.709710404346929877e-03,6.675299406051635742e-01
5.324755203002731752e-02,-4.263100235383876502e-01,4.768336297446126859e-02,8.277600795986631010e-02,2.068740756044874438e-02,8.869547429443201680e-02,5.222817659378051758e-01
6.851068489463987832e-02,-5.614154252288654501e-01,7.742993333350250973e-02,2.143822749248059517e-02,1.150633642226545246e-02,3.702161270512922819e-02,6.390560865402221680e-01
5.179702614108880332e-02,-5.488438524561067844e-01,8.187564613665734847e-02,5.800803273459861084e-04,1.210731699283521499e-02,4.993005057439755395e-02,6.226238608360290527e-01
5.956257988838520312e-02,-5.358893628171536028e-01,7.744145513410533033e-02,1.633295124806946261e-02,1.138998010636131653e-02,5.135521463986158358e-02,6.120704412460327148e-01
7.264705949413172159e-02,-6.001057806846792353e-01,7.203741100056890168e-02,1.917202172255619286e-02,4.296551205787106122e-03,1.856251725644943520e-02,6.740759611129760742e-01
6.915676443874924084e-02,-5.528585845202510507e-01,6.029508047505297008e-02,4.409714053483774349e-02,7.506010531634150140e-04,5.946249748877605046e-02,6.308028697967529297e-01
5.181104669057343126e-02,-5.619642420481230083e-01,9.389455276664718242e-02,-2.470158005074682937e-03,2.340724330456716434e-03,7.537467381129891487e-04,6.358910202980041504e-01
5.595631063717426690e-02,-5.602692046974203643e-01,8.704004269203588495e-02,3.959298547133889394e-03,2.434308921862608863e-03,2.355452374278845656e-02,6.337065100669860840e-01
5.616746669380959234e-02,-5.685918205761900657e-01,8.798754829307989245e-02,-2.938227632877902281e-03,3.682925208714927373e-03,8.232585603797705140e-03,6.414721012115478516e-01
7.150347224451505945e-02,-6.017926445556804893e-01,6.828289387645128383e-02,1.117568141262621599e-02,5.238944931092911692e-03,-2.817698973574320892e-02,6.738015413284301758e-01
6.523262403822074895e-02,-5.550001083690792036e-01,5.267916643486436623e-02,9.970041602102481387e-03,-6.070078959947946455e-04,-2.858986648323104743e-02,6.162886023521423340e-01
6.684421085073538604e-02,-5.885136641793512480e-01,7.989670753390659685e-02,5.935913250291562342e-04,-8.617044234928761259e-03,-9.130412219340038396e-03,6.623384952545166016e-01
6.202728653450489960e-02,-5.986134214743046300e-01,6.928733449256141430e-02,-5.598928624868603453e-04,3.606144693388572617e-03,2.416073847646095160e-04,6.643306612968444824e-01
7.083368518289684390e-02,-5.991718955016853698e-01,7.467758661249535024e-02,-7.644850581899150302e-03,7.581189199724533683e-04,-5.337420722387842958e-03,6.721311211585998535e-01
6.004178514514962872e-02,-5.841603577385314772e-01,6.776110434515511538e-02,-7.702549798115273247e-04,2.094507552827596427e-03,2.798631405058097190e-04,6.481080055236816406e-01
5.607151385125408449e-02,-5.833647340963123984e-01,6.883469147942980482e-02,-2.656112275836217118e-03,-1.609081861841973058e-03,-3.662028282822318848e-03,6.459659337997436523e-01
6.731009829706463554e-02,-5.715449228943625393e-01,6.698410552148528763e-02,7.139601728727440998e-03,3.235924084244877399e-03,-4.533276509919570256e-03,6.388846039772033691e-01
8.039388688006321448e-02,-5.794254313259421529e-01,6.638568450006065991e-02,1.049429930424996930e-02,6.916626988595507911e-03,4.519114758420305147e-03,6.533376574516296387e-01
3.537196421011246095e-02,-6.434883282202256138e-01,1.244686253721406510e-01,1.118323276317044340e-01,1.613264558819549983e-03,-2.268386419089382655e-02,7.538863420486450195e-01
5.870744052511861488e-02,-5.837899023286792222e-01,7.096123796551928598e-02,-1.589739079488708103e-03,2.048423820663841308e-03,-2.428725429475035898e-03,6.487402319908142090e-01
7.425619122124244020e-02,-5.788513116102481648e-01,6.671888765286576595e-02,-1.231209316346153302e-03,2.079075026936925454e-03,4.365808688101779325e-04,6.493855714797973633e-01
8.115613422336248606e-02,-5.987392597568930164e-01,6.573103363740792626e-02,9.776093500600145994e-03,6.796307787643150484e-04,3.644626697365761780e-02,6.754859685897827148e-01
6.942631774452032167e-02,-5.572046739810245786e-01,5.827247981777200492e-02,8.201282851444984673e-03,6.436204483027255403e-03,1.816601591180374078e-02,6.221876740455627441e-01
1.063724884537400883e-01,-6.025135225531172978e-01,3.917269456694788543e-02,1.177175125143379610e-02,-2.279870676410402502e-02,7.574131456293155262e-02,6.917973160743713379e-01
6.831483539592772547e-02,-5.687694271706533744e-01,6.696567921006113533e-02,2.949471665101451295e-03,-1.343884694492234431e-02,7.618400853858674215e-02,6.503834128379821777e-01
6.728333240075592969e-02,-5.658776009007149277e-01,5.709847152874075737e-02,1.015301821657590801e-02,-4.440676556168159442e-03,2.339205092420422114e-02,6.297283768653869629e-01
5.983043068331694858e-02,-6.141807863756590935e-01,5.279013405871674225e-02,1.159530259948697963e-03,-3.676752858648269645e-02,2.212549547530679502e-03,6.735500693321228027e-01
6.854301110336177838e-02,-6.228650019866338594e-01,3.787602572772519327e-02,2.204049834061079516e-02,-5.568805374517282053e-02,1.652571039663773902e-02,6.851001381874084473e-01
7.231293708251265717e-02,-6.078803812790274375e-01,5.681289764502556183e-02,1.753496393894538735e-02,-1.910658178910909846e-02,1.850119127382445850e-03,6.740831136703491211e-01
3.546349026003781102e-02,-6.179878613366897033e-01,6.914014025907716521e-02,-1.848497880561911569e-02,-5.853378998114152493e-02,2.708629244421911081e-02,6.809137463569641113e-01
4.659700632066551829e-02,-6.042037215659948890e-01,6.111588074848167684e-02,1.422046494980123456e-03,-2.795189047120999817e-02,-6.600646158407029625e-03,6.600620746612548828e-01
5.915276604811825489e-02,-5.914617050678290244e-01,5.277060925103521649e-02,-6.124503156926699825e-03,-3.102075889086041913e-02,3.030164202480305213e-03,6.497803926467895508e-01
6.570735865190999170e-02,-4.341657583384314623e-01,3.347365331602086824e-02,3.231866633169738767e-02,4.359831563560576453e-03,2.331899472084524808e-03,4.878588020801544189e-01
6.653756760030504758e-02,-4.537083078582741513e-01,2.660396850520951872e-02,2.402151687893027202e-02,1.473955818106758957e-02,3.502012981844140806e-04,5.038436055183410645e-01
5.841878459424462711e-02,-4.544683239469151093e-01,3.637030228129708997e-02,1.164124325323128428e-01,7.418032989696308165e-03,1.304715385368499393e-03,5.413470864295959473e-01
4.509808388135344570e-02,-5.785680428603146019e-01,4.604386748983912980e-02,-4.490609713125376032e-03,-1.506396006733828202e-02,-5.237182085506675473e-03,6.247989535331726074e-01
8.099438818857490618e-02,-5.444307005718110881e-01,4.981513462585718255e-02,5.064537832812455315e-02,8.624227671880743684e-03,-4.089498477340892078e-03,6.169250607490539551e-01
7.976810052727123512e-02,-5.632053263653331587e-01,1.960339108842931721e-02,-2.065645319670430732e-02,3.042800953588341989e-02,2.386011772201914599e-02,6.197708249092102051e-01
7.566288176606555949e-02,-5.919118912022066636e-01,7.305615114350497152e-02,-7.849261019880421700e-03,-1.091541611344469531e-02,3.650168317656740831e-03,6.667120456695556641e-01
7.496909212630328834e-02,-6.170619092678000239e-01,6.774228056892414584e-02,-2.187988960190530643e-02,1.817767489092984162e-02,6.014652739622566163e-02,6.980245113372802734e-01
2.911051761761127010e-02,-3.967161534389155308e-01,4.111273719629032763e-02,-7.542485023583195280e-02,2.217900183206038614e-02,1.115894144479379485e-01,4.924249351024627686e-01
6.968291490026798374e-02,-6.017992103779996604e-01,6.849063289955054090e-02,1.805481746887138347e-03,2.112440881035192002e-03,2.638201863061356931e-03,6.709195971488952637e-01
6.976512985942226464e-02,-5.970395495025334620e-01,6.704083209776273700e-02,-2.239698131260282193e-03,7.305123809489082708e-04,2.231369143103740203e-03,6.654704213142395020e-01
7.005322118261711473e-02,-5.857907611101537126e-01,6.440888970775046629e-02,5.184492197932941485e-03,1.462380758340708041e-03,9.447363983535045362e-04,6.531088352203369141e-01
6.636608524119816388e-02,-5.953748492642250145e-01,6.637776969861541865e-02,4.455735166316934781e-03,-1.972457591401200090e-03,4.549680854783836985e-03,6.618475317955017090e-01
6.067028882469635565e-02,-6.002125229782326876e-01,6.971439167251292091e-02,7.160174114604830886e-03,-1.696617382016281546e-03,6.180080452798350152e-03,6.656590700149536133e-01
6.419548958957996265e-02,-5.935210964737511752e-01,5.780117049052024836e-02,4.492611985752612003e-03,-7.857888860323585314e-03,9.631483224245669054e-04,6.547327041625976562e-01
6.814468663795381076e-02,-5.940303862639015886e-01,6.035512568344397755e-02,5.097769204061655852e-03,-1.529217813805838072e-03,1.780196895241428247e-03,6.583865880966186523e-01
6.543466359445615499e-02,-5.938323274658450224e-01,5.061127078588736894e-02,7.224610120996678188e-03,-1.192043415698437053e-02,6.038633037272412435e-03,6.525123715400695801e-01
1.547915183810715245e-01,-6.809104461313774115e-01,-2.741074667339354898e-02,-1.440646187562436009e-02,5.093525954522507698e-02,-1.443645563228499185e-01,8.063856959342956543e-01
1.775219679176690546e-01,-7.149621074341780957e-01,-3.324287063320144342e-02,1.000822050725374765e-02,-1.861803116280758702e-02,1.187755291019862089e-02,8.090791106224060059e-01
1.685735296339641032e-01,-6.683408134793014099e-01,-5.417987524129272425e-02,8.418048988483462641e-03,-1.697097142119039642e-02,-7.438316158390366473e-02,7.624266147613525391e-01
1.702326100065434944e-01,-6.681442109410691277e-01,-5.674330635126562106e-02,1.327215803271782069e-02,-6.061077449302946195e-03,2.812226469096219469e-02,7.530695199966430664e-01
7.452371507774505077e-02,-5.957536453788188080e-01,7.856715717079629235e-02,-1.048489867707142614e-02,-8.649149539992028596e-03,1.969152559579855164e-03,6.727288961410522461e-01
5.416986382252547694e-02,-5.798059064255857153e-01,3.249849759892159407e-02,-1.487861783248539639e-03,-1.270521940721133780e-02,2.470404741722124955e-03,6.238309144973754883e-01
6.617018333893248672e-02,-5.918196967484674609e-01,6.810105388679671412e-02,3.335819336059799196e-03,6.163881474331391400e-03,-7.817453743022189164e-03,6.592082977294921875e-01
7.015431883563566506e-02,-5.911490127554681617e-01,5.383433112156876810e-02,3.428438548681019687e-03,5.282540110196363818e-03,-6.343090213357004820e-03,6.534796357154846191e-01
8.040437952709922342e-02,-5.790200474661966190e-01,6.393803636574846294e-02,-3.891184373457746981e-02,-1.019130417581969256e-03,5.573187117862093629e-03,6.548985242843627930e-01
7.488477847922378472e-02,-5.937765770665550669e-01,7.061703300619465162e-02,-1.851376290109865014e-02,1.068190509640113035e-02,1.165550751745038360e-02,6.678702831268310547e-01
6.595263820649796549e-02,-5.861014525937342512e-01,6.832637782630704426e-02,-3.351100386570318376e-03,7.957396422621172477e-04,-1.350315032775427056e-03,6.532756090164184570e-01
5.524843267933429725e-02,-5.186953279107642256e-01,3.933854056150404288e-02,5.921815791300431842e-02,-2.837029625304202801e-02,5.660792837045727083e-02,5.857316255569458008e-01
6.977996526196855731e-02,-5.354942803689749509e-01,5.304489362490949489e-02,4.574352528661215084e-02,-3.403788450616000282e-03,6.731406421859069400e-02,6.135253906250000000e-01
6.944143618891066017e-02,-5.016478301379353466e-01,1.890045775383333848e-02,1.465680083012774713e-02,-2.179608304487367504e-02,8.537292003381616312e-02,5.690072178840637207e-01
6.002541738543548666e-02,-5.240806455451930690e-01,5.638203031581173752e-02,1.972044698254529771e-02,2.004905405530115099e-03,2.652392150660585340e-02,5.851105451583862305e-01
6.815713520062013919e-02,-5.678784131790639567e-01,7.797820890862211529e-02,2.314428498791229472e-02,1.379184527122902584e-02,2.722409044829592409e-02,6.444263458251953125e-01
6.004383905987786818e-02,-5.886486123192469222e-01,3.905960389755858131e-02,1.413804828842858121e-03,-2.176520825658377623e-02,-1.619217179521610954e-03,6.395818591117858887e-01
6.294229438592693904e-02,-5.615271946074338327e-01,4.852380331822986337e-02,1.555612664716715492e-02,-1.510102452127609109e-02,1.078583828401665813e-02,6.188095211982727051e-01
-5.302216012926329325e-02,-6.008243034265861038e-01,2.008800521327661626e-01,2.183712156442675634e-01,-2.015148416713508084e-02,-1.894559771825175820e-02,8.056020736694335938e-01
5.281719972073753433e-02,-5.438872502406653098e-01,6.698435451484394121e-02,8.649128697951417866e-03,-3.564830244937995836e-03,4.036960007665361949e-02,6.081629395484924316e-01
6.230310207029110536e-02,-5.593433577495836584e-01,6.520184577203003151e-02,4.399272381085519990e-03,7.029580366516016005e-03,1.091159962952326958e-02,6.235529184341430664e-01
5.988981484713029602e-02,-5.712991264689929460e-01,8.151497839618079833e-02,8.791626877844680929e-03,8.683019452069470553e-03,1.415938892453275609e-02,6.430988907814025879e-01
5.556403480775526371e-02,-5.221624363862518159e-01,7.461564291251696068e-02,2.018666009384680049e-02,1.349202664229841656e-02,5.846757432722844011e-02,5.976298451423645020e-01
5.167653169618560693e-02,-5.162679456275969248e-01,7.120563432132132053e-02,5.949832193500777418e-03,9.666950139807754458e-03,2.875263768875406176e-02,5.804312825202941895e-01
7.150389164012596610e-02,-5.862588301725566442e-01,1.833016760069627882e-02,-5.043001285108525411e-03,-5.738550340109864131e-03,-2.546715021997526807e-03,6.330071687698364258e-01
5.412113734452139724e-02,-5.428292729227131019e-01,7.798224106795820232e-02,8.854757152728189029e-03,7.432977308646000585e-03,9.349519699773978926e-03,6.097755432128906250e-01
4.436987069836884068e-02,-5.256656117387656924e-01,8.426873392526315620e-02,1.353396570044007857e-03,1.057883953573471661e-02,1.890024288080228640e-02,5.921900272369384766e-01
9.618238624173230944e-02,-5.598836963799611599e-01,4.831997420097750018e-02,3.421167953780165222e-03,1.455874485997458436e-03,-1.518191390581960336e-04,6.335251927375793457e-01
4.851230876222092925e-02,-5.615441782243049129e-01,9.770365200333649969e-02,-1.642275929002484864e-03,2.360565929609517201e-03,9.945218073042733781e-03,6.363330483436584473e-01
5.040968864631537039e-02,-5.473163600923338645e-01,9.107356905313215845e-02,5.947716773314524856e-03,-3.952740024677631734e-04,2.198544269621655056e-03,6.191582679748535156e-01
5.395428635785703975e-02,-5.675294917756098512e-01,9.041850389068267768e-02,5.005645153923129857e-03,1.918420078655593431e-04,1.175268360107763546e-02,6.408770084381103516e-01
5.217657415123663767e-02,-5.358307613827555382e-01,6.836136872867604186e-02,-1.187870711708283525e-02,1.240241863630112736e-03,3.258132925176725203e-02,5.992861390113830566e-01
7.880614560685825221e-02,-5.727292122901090909e-01,6.452458061743804318e-02,-5.622222446303700230e-04,3.594803971739191431e-03,-2.720411536895001926e-04,6.445442438125610352e-01
5.922728344484073926e-02,-5.680999732132909763e-01,8.161721580822220434e-02,-5.012283973817512062e-03,-4.166693899065843868e-04,2.951147469894462201e-03,6.388964056968688965e-01
6.484901987252467137e-02,-5.680347289535025990e-01,8.010243449794027248e-02,-3.407940265088732577e-03,1.733900856905080121e-03,3.390199567136432859e-03,6.407077908515930176e-01
6.616301231941065786e-02,-5.775995004428218227e-01,7.494363641879514537e-02,-8.311482508212436355e-04,-8.957164365249447105e-03,-1.376168892251163588e-02,6.488226652145385742e-01
6.912319277930167871e-02,-5.874393485642994683e-01,6.989613330019162074e-02,6.426603555521283838e-03,-1.683638651278117045e-03,-4.680318183096101800e-03,6.571001410484313965e-01
6.747781917420037079e-02,-5.700874460944604927e-01,6.316813997163450711e-02,7.252346854296056432e-03,3.878438541089552615e-03,-1.050544835576971980e-02,6.358414292335510254e-01
7.180461743883101433e-02,-5.925125368853825236e-01,7.562682217820104746e-02,1.948796820799612124e-04,2.028436288112053960e-03,-1.833356890717262322e-02,6.670021414756774902e-01
8.276324051375799629e-02,-5.733923006941030742e-01,6.110126124807502279e-02,2.288968308703552210e-02,-3.360931484216828254e-03,-1.181133412838112490e-02,6.471629738807678223e-01
9.667662704220478243e-02,-5.535924508184320025e-01,4.720239229614905940e-02,-8.011366336042937417e-04,1.708323897565217769e-03,-4.894194002315988912e-04,6.270067095756530762e-01
6.798262064825030815e-02,-5.935196904473272195e-01,7.557761501165041751e-02,2.291931819600403694e-03,3.726966876239753024e-03,4.995389822650812714e-05,6.653754711151123047e-01
6.431636083491515388e-02,-5.958527933806674337e-01,6.714275900454369506e-02,2.385749442655526759e-03,-7.158779044573690973e-04,6.870717931405081677e-03,6.617079973220825195e-01
6.546869590098172709e-02,-5.401321272531336426e-01,6.561165375534008803e-02,2.085373643088013138e-02,9.679531518948914989e-03,2.101636082741635547e-02,6.080704927444458008e-01
6.794386107098532301e-02,-5.987863779562438982e-01,7.044712898960567293e-02,1.599829409918942201e-03,2.792477151216483044e-04,1.823543132384704063e-03,6.679987907409667969e-01
6.811010154956978480e-02,-5.983711055583565974e-01,6.739915443857694144e-02,2.763524080301083766e-03,1.740844563121941727e-03,-6.277041918613079615e-04,6.661509275436401367e-01
6.783608353504883004e-02,-5.600554614003219189e-01,6.127318634620490534e-02,-2.826922808153431433e-05,-3.826347344303405139e-03,-2.279342495798081930e-02,6.259174346923828125e-01
6.447882781587727097e-02,-5.751791264638006496e-01,7.821020888070406851e-02,4.822346015296430713e-03,-5.057663162291788951e-03,-3.130123988991311001e-02,6.490146517753601074e-01
5.727992323771308181e-02,-5.399879507922034083e-01,7.081363295217515952e-02,8.398220309214643117e-03,3.402700998035506925e-03,-2.015897669835456721e-02,6.053600311279296875e-01
4.649853260060959892e-02,-4.973292312241514579e-01,6.592200853385002390e-02,1.095419423213518650e-02,-7.582808523954257494e-03,-4.653838691447294285e-02,5.601061582565307617e-01
5.542536411908799421e-02,-5.479643981506643335e-01,8.098228887814268306e-02,5.246106015930674694e-03,-1.034114593853291018e-03,-3.120957529358063531e-02,6.190000176429748535e-01
5.626872149873418660e-02,-5.466107670372359895e-01,7.934733927958964594e-02,1.013247672529836961e-02,-6.404324025999482382e-03,-1.625352583686471425e-02,6.157381534576416016e-01
6.989860420709981259e-02,-6.222892140148102991e-01,6.270636115912947561e-02,4.602160944888277969e-03,-2.017790415236080798e-02,5.981657661873782811e-03,6.896300911903381348e-01
6.194999309700302548e-02,-5.746205037915482761e-01,8.393056788009642388e-02,-5.054547385201246280e-03,8.844311855508101526e-04,1.085192954476186253e-03,6.479042172431945801e-01
5.968123286272800088e-02,-5.425396198369702994e-01,6.896980670510627354e-02,-3.359669346406486418e-03,7.229676712419254650e-04,-2.484469816071952983e-02,6.084712147712707520e-01
5.630399637599042828e-02,-5.743754482044751697e-01,9.065523648938902945e-02,-1.217298160364355380e-03,-5.691817906936087919e-03,-3.303016995977692011e-03,6.486412882804870605e-01
4.619294635496323798e-02,-4.277988955207771005e-01,4.053757722453937840e-02,-5.302122881095445994e-02,-4.788541703409521059e-03,-8.901491332734486756e-03,4.803747534751892090e-01
6.199470942294199594e-02,-4.797189027623849356e-01,4.017680714438565115e-02,-5.135319577715368594e-02,-1.192251524767182040e-02,5.765526552636366774e-04,5.389336347579956055e-01
3.822826417111185870e-02,-4.030737288448604794e-01,1.746794698973150317e-02,-3.085873932532496450e-02,-5.165887189988244838e-03,7.788688763163307063e-03,4.348973631858825684e-01
3.368956311147608407e-02,-3.875192175760107105e-01,2.484524670972368399e-02,-4.733939549431267352e-02,-3.541384048198294165e-03,-2.695747060973923553e-02,4.274465441703796387e-01
7.596879832868008720e-02,-5.051206985347096445e-01,4.149479495948146801e-02,-2.039530275771469364e-02,-8.090183126520713100e-03,4.343861803351633990e-04,5.659202933311462402e-01
8.279085043035966374e-02,-5.324095747965283953e-01,3.839866829342783450e-02,-2.116217349866818254e-02,-1.088323606679024490e-03,1.351434095970647890e-02,5.958415269851684570e-01
7.588567022249090299e-02,-5.030273045143369703e-01,4.387866682911784055e-02,-1.920523413833494925e-02,-3.645129197533293966e-03,8.347618017145708690e-04,5.646095275878906250e-01
7.156021074607293864e-02,-5.721140950542097370e-01,7.023724509236511926e-02,7.481533002280320961e-04,4.897066866748848307e-03,1.009751068293670336e-03,6.430734395980834961e-01
3.263909196343156571e-02,-4.303675472425209647e-01,4.151975674454597143e-02,-6.729126089481729522e-02,-1.862340454330996611e-02,2.482103623209819948e-02,4.848081171512603760e-01
5.250338022671527383e-02,-4.985613352369100970e-01,5.241851953224799243e-02,-4.107136095700924389e-02,-1.289141806391443448e-02,1.080690601202832085e-02,5.563587546348571777e-01
4.305806103200182644e-02,-4.605937606920211813e-01,5.399378893286152503e-02,-6.771824215062864638e-02,-1.572160062997534843e-02,5.986952273347857095e-02,5.334270596504211426e-01
6.188211477681657136e-02,-5.012419253974018662e-01,5.567728316844275382e-02,-4.306735809962049244e-02,-1.527662368303714900e-02,1.445430403881640957e-02,5.661664009094238281e-01
4.205680068672265626e-02,-5.019232660325742001e-01,5.866878190634702839e-02,-5.373859789030618200e-02,1.143573541093297931e-02,3.284456486158017496e-02,5.634882450103759766e-01
7.515575194815399263e-02,-5.627475697950949929e-01,6.956585317398827906e-02,-3.115654507697135020e-02,-6.144176770889010937e-03,1.340053859233419215e-02,6.379265189170837402e-01
4.205863598542186610e-02,-5.870651275539162661e-01,8.619072400942043299e-02,3.163756628773001754e-03,-3.878979054576903607e-03,4.442127392952204337e-03,6.524134278297424316e-01
3.939364135022624391e-02,-6.277003265048761715e-01,1.083698000357036229e-01,-4.572158865071872420e-03,-1.787485759966506160e-02,-1.102398031895125176e-02,7.051038742065429688e-01
4.779551494109346432e-02,-6.155925916313439439e-01,8.479551135769577974e-02,-1.801827895142224870e-02,-1.559230179501936743e-02,4.383633600026879372e-03,6.839292049407958984e-01
1.756787482268176714e-02,-6.218559427633603143e-01,1.082008779726253977e-01,9.140137121579560223e-03,-1.509606971673655741e-02,8.812528040195995865e-03,6.900705099105834961e-01
5.511041326861967904e-02,-5.827643405244324892e-01,8.064965113883620917e-02,-4.294609682167460640e-02,-1.886679799501666047e-02,-6.094774970706497152e-02,6.645089387893676758e-01
7.601700699522967453e-02,-5.780601661687669868e-01,6.282885450109418346e-02,-3.364773265563370669e-02,1.181579445106481323e-02,-3.684141966751591085e-02,6.536451578140258789e-01
2.958228908674809254e-02,-5.321389295851992607e-01,6.924608821020616922e-02,-5.962862101069803245e-02,3.568101546338669355e-03,-2.065689244836625346e-02,5.927638411521911621e-01
6.293970647509244953e-02,-5.716079429976270720e-01,6.789698528613738460e-02,-1.794625246841970168e-02,1.008939245485375880e-03,4.164168128084273432e-03,6.378418207168579102e-01
6.534503536758795583e-02,-5.779889810850158405e-01,8.039624232247119529e-02,-2.181612196125044811e-02,-6.587657349063954192e-03,1.414871854676785431e-02,6.526459455490112305e-01
6.002141522615714320e-02,-5.385984863710404635e-01,5.969038347613295215e-02,1.497356701588275878e-02,2.205565763035146828e-03,1.925257033316011418e-02,5.999557971954345703e-01
5.514952690451974116e-02,-4.673427803636175382e-01,5.185816937247370029e-02,5.674803568511643803e-02,1.644500361533827310e-02,2.856366069301876850e-02,5.331128835678100586e-01
6.674581681381752674e-02,-4.821886858511292839e-01,4.524557147261593082e-02,3.327434990482102534e-02,1.525076120107100690e-02,3.142733679080216003e-02,5.449509024620056152e-01
6.682757576163267377e-02,-5.042969329571150849e-01,4.675000854962643726e-02,2.993661737498565581e-02,1.493354163068917780e-02,1.033671053874721940e-02,5.646217465400695801e-01
3.735920603187004030e-02,-5.760113428420010617e-01,4.772151353304140975e-02,-1.441714547866325196e-03,-1.972870344608776069e-02,-5.953012959861623057e-03,6.196506619453430176e-01
4.494588978371047427e-02,-5.815453261183963773e-01,4.414091748677154148e-02,6.044054271828179850e-03,-1.695358931705901948e-02,5.807351436465717394e-03,6.269454956054687500e-01
8.223957722532893033e-02,-6.220058086517559204e-01,1.163930002650459539e-02,1.874620198144293440e-02,-7.678540744167212939e-02,-1.662281104862816392e-03,6.855483651161193848e-01
4.528738612432015032e-02,-5.887414127388803653e-01,5.343852229862158798e-02,4.724639404284170473e-03,-2.436631555213142689e-02,6.306195397749425960e-03,6.396830677986145020e-01
4.647846468158109423e-02,-5.825705494451809408e-01,3.379137897220360620e-02,1.056834760668826090e-02,-4.742167446872260633e-02,9.650866608545958548e-04,6.284641027450561523e-01
4.486876603322648149e-02,-5.882867899430752612e-01,5.352700566692092377e-02,5.918341909876615597e-03,-1.356383779841710199e-02,8.141555894853609587e-03,6.381996870040893555e-01
5.996789566347604516e-02,-5.825323548047893762e-01,3.315620186808909686e-02,-3.593989758159491800e-04,-2.263954624979058750e-02,6.470800759208620093e-03,6.308427453041076660e-01
5.844876742948931780e-02,-5.934649517676457986e-01,4.973379023105872765e-02,1.375228751207456350e-02,-1.947107691269179056e-02,1.525064115767823039e-02,6.494525074958801270e-01
2.984471106783953553e-02,-6.157970839357518322e-01,5.939021240386521683e-02,-1.103346353460103214e-02,-3.871855286145399477e-02,5.564295204677796765e-03,6.646484136581420898e-01
7.068062421222034986e-02,-5.815965966420085786e-01,6.782732121707890638e-02,1.177823152663801110e-02,3.179459167750169155e-03,8.106819256412812341e-04,6.511996984481811523e-01
8.224393882554090207e-02,-6.137739204902753487e-01,4.141694735998838195e-02,1.435523288663083635e-03,-1.451321837362186049e-02,-4.524392734528397651e-03,6.770457029342651367e-01
8.485475582302315356e-02,-5.657658881688272245e-01,6.167994999630554975e-02,7.494200959926056518e-03,1.043917883295121009e-02,3.147246894991444482e-03,6.397588849067687988e-01
8.393149408648881149e-02,-5.977789592379771921e-01,2.054692060632012929e-02,7.191720701332347636e-03,-2.739071663591840372e-02,6.715391048229100643e-03,6.542767286300659180e-01
-4.605911759852543419e-02,-4.740726979358552140e-01,1.554307865940728339e-01,2.426012719253731187e-01,8.654746005069188786e-02,-1.379587296977434763e-01,7.524424195289611816e-01
6.146694296421825743e-02,-5.830459828172771530e-01,3.180976656028450256e-02,-4.415150391516593081e-02,-5.812627552489789406e-02,7.896995598681634185e-03,6.429099440574645996e-01
9.191351625312549345e-02,-6.985592760105666654e-01,4.614694449646278285e-02,-1.612991826468216164e-03,-6.070523321703168163e-02,4.201175417691250212e-03,7.758097052574157715e-01
5.378308890967725686e-02,-5.247206464361222622e-01,6.547379941766623412e-02,-1.023604350070067733e-02,-1.098747440043398166e-02,7.158110515806036245e-02,5.980086922645568848e-01
6.404899173327321948e-02,-4.859268465670624759e-01,4.258946250090064889e-02,-1.462128313551756993e-02,5.985611583253987698e-03,8.066852547889900860e-02,5.580347180366516113e-01
1.147682466232621823e-02,-3.825470569603311999e-01,4.339380395004846513e-02,-7.207666167227141929e-02,-9.339827471107344306e-03,6.063434103204655423e-02,4.424092769622802734e-01
3.089202550876463116e-02,-4.704991590897366072e-01,6.605581442878102894e-02,-8.271627899395539094e-03,-4.109874294799008461e-03,4.753582958172500317e-02,5.265883803367614746e-01
1.368401223948760570e-02,-3.596037107095663710e-01,5.270618569080867677e-02,-5.671274393970855004e-02,-1.034487874114655825e-03,3.421907437530759266e-02,4.106068611145019531e-01
4.062559093704390389e-02,-5.917777985059542445e-01,8.475374985215575196e-02,3.431528785917626473e-02,-2.915805041452084606e-02,3.866345718849044377e-02,6.635931730270385742e-01
4.717815344221237828e-02,-4.360417091034988202e-01,4.598273669078228876e-02,-3.260548403857668059e-02,-1.208574002750267308e-02,6.367328506060698778e-02,4.987139701843261719e-01
3.687112873629150300e-02,-5.745143811146911084e-01,7.959995708558362248e-02,4.883610110304915410e-03,-1.093107436138276989e-02,2.470713006285160250e-04,6.341702938079833984e-01
5.453344173705224063e-02,-5.782602721993286288e-01,7.522091239414988029e-02,6.412682797524942024e-02,-1.319419003251146028e-02,9.580563317341490165e-03,6.535144448280334473e-01
3.513308245538207530e-02,-5.850591777242177827e-01,8.659202006083918657e-02,9.993657323252534697e-02,2.590663365348227359e-03,-5.038097389938391533e-03,6.702679395675659180e-01
5.624022692628316555e-02,-4.963296194995928112e-01,5.929054520703294640e-02,-1.049887800510200704e-02,7.794626678654116222e-03,-5.433388943544548155e-02,5.624924302101135254e-01
7.936032703772291641e-02,-5.987416527910051078e-01,3.261615776796042421e-02,-5.907172616551463126e-03,-1.839962257034823004e-03,-8.102501844786591523e-02,6.709098219871520996e-01
6.278596996745430814e-02,-5.592048684499673072e-01,7.833398789809997709e-02,-1.602137455094830576e-02,1.323920030834456647e-02,-2.773110313184202688e-02,6.327621936798095703e-01
6.437948952685954018e-02,-5.771877869061520228e-01,7.480907432179950689e-02,6.056246790795477217e-04,4.314931737626448785e-03,5.907737934028406223e-05,6.468891501426696777e-01
6.624918165523041580e-02,-5.961611756225699832e-01,8.823295777594966638e-02,-1.277073110668983189e-03,8.434003749255574930e-03,-1.268383394491202042e-02,6.741913557052612305e-01
7.348826727289714533e-02,-5.816839167274818756e-01,4.628405437798568944e-02,-5.814846581271212837e-03,-9.448118877664243506e-03,-1.038660831779261717e-02,6.425418853759765625e-01
7.017000925932392885e-02,-5.892270875753892190e-01,6.506433056928681569e-02,-1.239775415077749767e-03,-1.574546747187958659e-03,-1.424188422226714155e-03,6.568729281425476074e-01
6.898115066523952121e-02,-5.795320778835333364e-01,6.483357751715179695e-02,8.772899629198863819e-03,4.361765085653676079e-03,2.591340244336816975e-03,6.466876864433288574e-01
7.520752470795669109e-02,-5.765635874228260960e-01,3.449650322933220381e-02,7.643717098938663211e-03,-3.470057223236558061e-03,4.138078662038149023e-03,6.326068639755249023e-01
5.195822216438458763e-02,-5.802520013582723735e-01,7.127368934242162002e-02,-4.780491057069300234e-03,-8.866872260030508445e-05,-1.127543391843435902e-03,6.421422362327575684e-01
1.320328840537662862e-02,-5.941384376956281299e-01,9.297086243999191923e-02,3.667839853460226618e-02,-1.601375628223799391e-02,6.301077265296053768e-03,6.546734571456909180e-01
4.404568463849481419e-02,-5.173941887395954176e-01,6.486381101258228976e-02,7.056138727566821367e-02,-8.631118906037515970e-03,1.646195634105583963e-02,5.859261751174926758e-01
6.394413427815151540e-02,-5.339296359881744447e-01,5.588687335299066805e-02,2.340300520784990151e-02,7.879691336477622973e-03,6.308205054033985508e-03,5.955245494842529297e-01
4.479462323735394769e-02,-5.798722308691104388e-01,6.216785715333550399e-02,1.631671651876808252e-02,-2.433268158542550852e-02,-4.004516173347412444e-03,6.355989575386047363e-01
5.161276951038998306e-02,-6.030282094352914513e-01,8.223176962273792689e-02,1.995445486854822634e-02,-1.309652373857788385e-03,1.707648492212945207e-02,6.720203161239624023e-01
7.447373440754015417e-02,-5.735464026495713519e-01,6.420488495888465597e-02,-2.386970368616125936e-04,-1.932203787757181927e-03,-3.207961518998451913e-03,6.429800987243652344e-01
5.733977806071990924e-02,-5.882650136971394605e-01,7.077880042675188665e-02,-5.317209361866800238e-03,1.305446580536298324e-03,1.024688486931644906e-03,6.524994373321533203e-01
7.220212792204847019e-02,-5.860135640529839929e-01,4.384121465634566173e-02,1.101132263135456112e-02,-1.122332287062599229e-02,6.566112512674232744e-03,6.451787352561950684e-01
5.498781394716947823e-02,-5.463611831676800090e-01,7.903111401685714021e-02,-1.788304486550807218e-02,7.047557463579942963e-03,-1.679876359605780162e-02,6.153146624565124512e-01
8.754570522665733323e-02,-6.091280682328743534e-01,6.030536369482539238e-02,-1.377321712571618999e-02,1.782700589972259844e-02,-3.455064216402011965e-04,6.845740675926208496e-01
7.420757853304563167e-02,-5.894482223794703657e-01,6.840000358247935730e-02,-5.163745221096804026e-03,7.699212839563178076e-03,-1.796576461899981837e-03,6.609735488891601562e-01
7.592706129327991826e-02,-6.088169156955249850e-01,7.400131784144148295e-02,-1.315980010695861529e-03,8.288798201933613927e-03,-5.877822555441588768e-04,6.839383840560913086e-01
5.704571546609626953e-02,-5.265235978855433707e-01,5.408870973828661111e-02,-1.459118170524692374e-03,9.322397748803149323e-03,-3.023330110820054983e-02,5.846756100654602051e-01
7.297734767123753574e-02,-5.915925044546264111e-01,7.660113639913446182e-02,-4.801530602330777303e-03,9.847316968599100287e-03,-3.421770047550570879e-03,6.666855812072753906e-01
6.992029334383398353e-02,-5.755732302018592428e-01,4.635952188981595778e-02,2.958738042213260484e-03,1.713018079350410797e-02,-2.151188268047974500e-03,6.347669959068298340e-01
7.860149908048272294e-02,-5.955985503137168902e-01,5.542451254589661480e-02,-1.833637525890641912e-02,6.151080031736082254e-03,7.456143485821878532e-03,6.638869643211364746e-01
7.251073450569109347e-02,-4.847505917434514755e-01,4.371037670535499187e-02,5.189472761387416144e-02,-6.296740809135772596e-03,-6.974692801932518872e-03,5.510575175285339355e-01
8.491760586945301670e-02,-5.462627745818627867e-01,4.517374134855789425e-02,4.557464144344845758e-02,-1.015705151215020099e-03,-1.463491816513254849e-02,6.178668737411499023e-01
8.781383157698860464e-02,-5.798426435045616056e-01,5.610391234571071584e-02,1.967385444452790511e-02,-4.012183375793989572e-03,-1.360464418950239202e-02,6.537308692932128906e-01
-5.952343694500492055e-02,-4.587774888170498833e-01,1.354002641180583333e-01,1.971258988794271638e-01,-1.132773948945995333e-02,-4.550428200861018208e-02,6.311860680580139160e-01
-6.144737170809655424e-03,-5.292491091743538600e-01,8.351908263299309687e-02,1.113958466653690998e-01,5.743232717258189152e-02,-4.038057988637803325e-02,6.169243454933166504e-01
5.156050328946670813e-03,-5.826486040648923836e-01,9.563246857728813222e-02,2.434519296274256506e-01,5.274963007673790644e-02,8.715549294728793027e-05,7.700888514518737793e-01
6.253951711467950481e-02,-4.528206866347541659e-01,2.949467715110309918e-02,7.151911000982595634e-02,-2.946936211803568000e-03,-1.470624854161056705e-02,5.154395699501037598e-01
-3.836258790110545075e-02,-1.896804999180269902e-01,7.698818286179354153e-03,1.485073426596027202e-01,-8.925855247534725256e-03,-2.944849349819917556e-02,3.177933692932128906e-01
-3.515183753606163086e-02,-2.219516469349701870e-01,3.821636201971499724e-02,1.562813176900675893e-01,3.856959345934154668e-03,-2.386286574097312013e-02,3.591750562191009521e-01
5.836811292918558935e-02,-6.088820980693765428e-01,1.108802201973254076e-01,7.636530608808519971e-02,9.456363548456274068e-03,-3.266472461426953022e-02,7.099177837371826172e-01
5.811620548905438444e-02,-4.434930303038988608e-01,4.411582421624105077e-02,7.321631670584571872e-02,-4.723266868667759522e-03,-6.062492419916017117e-02,5.214979052543640137e-01
6.602331742095432499e-02,-5.759743384499145247e-01,7.725623808035431139e-02,-1.722865848205406593e-03,-2.906376113575712648e-03,-8.606080744110266786e-03,6.478850841522216797e-01
6.496872142745332979e-02,-5.857924591455430097e-01,7.589392962483640370e-02,1.156268756605922238e-02,2.196414188210835637e-03,-3.485262665812368515e-02,6.593776345252990723e-01
7.094778058581957536e-02,-5.870893001795575161e-01,7.519815862608397738e-02,-7.463051353358448031e-04,-4.328564099346032291e-03,-2.183986988200114793e-03,6.602271795272827148e-01
6.499472311381118694e-02,-5.676739475523701062e-01,7.981821200530808680e-02,2.001213870372740410e-03,-1.185436008922399233e-02,-1.621606378100790349e-02,6.411631703376770020e-01
5.598339030071319833e-02,-4.977389819511059410e-01,6.339980717394197440e-02,1.541383674781421527e-02,-7.555185694318298020e-03,-2.433611863911623596e-02,5.598489642143249512e-01
4.628261488168841642e-02,-4.545612330994890371e-01,5.263080979678669280e-02,3.106644123322003029e-02,8.938438033658129608e-04,-4.132856641250944735e-02,5.119435787200927734e-01
6.160982252875363274e-02,-5.742745539363087737e-01,8.913506847832314284e-02,-4.663312679942379496e-03,-6.268413886820799544e-03,-2.097872381345939827e-03,6.502351760864257812e-01
6.630824307845684107e-02,-5.876402881984825743e-01,7.849210834490066846e-02,-5.432774960616251064e-03,-8.090517550699566005e-03,-1.014114973752739540e-02,6.605741381645202637e-01
6.493976672384066395e-02,-5.843461911460785529e-01,8.315383281280361305e-02,4.272136741630296400e-03,-2.856761111453755275e-03,-1.484418536781744423e-02,6.591436862945556641e-01
6.894818694992183028e-02,-5.626621951748684847e-01,4.847456264005509108e-02,1.052580988608826755e-03,-5.188741163158841659e-03,-1.156618365144424301e-02,6.220167875289916992e-01
6.086431307231554566e-02,-5.544075885988910546e-01,7.494715610269478412e-02,-4.865459011757731003e-03,1.744110566790330269e-03,-1.676959518897422341e-02,6.231744885444641113e-01
5.231370086804440489e-02,-4.702591181495749950e-01,4.911432667804524477e-02,-1.145298342964954285e-04,-9.760168788223603847e-04,-7.555182637207778773e-02,5.371664762496948242e-01
3.781810690016124132e-02,-4.489957400818126443e-01,4.321962762318259932e-02,-2.097911228963304092e-02,8.683326244274099104e-03,-3.253433487603211299e-02,4.943363666534423828e-01
8.819617847451000081e-02,-5.329922719433536349e-01,4.205662547011368435e-02,2.322517675405142215e-02,-2.204416342985021302e-03,-4.762072283920379401e-03,6.008688807487487793e-01
-1.750875727914130708e-03,-2.933216324879237002e-01,3.376722384077768258e-03,-2.575185080991977899e-04,-1.779289378671601758e-03,-3.659573988046146975e-02,3.009357154369354248e-01
3.925878597430504380e-02,-4.264823579054817237e-01,3.386382708850999013e-02,-7.689207506480785770e-02,9.234037570137758680e-03,-1.375399983354199350e-02,4.826922118663787842e-01
6.579046102940691587e-02,-5.285206511130493556e-01,6.345940875666447600e-02,2.068612596646914742e-02,-8.938406783352509030e-03,-2.372002748275083353e-02,5.958499312400817871e-01
2.916299133245409125e-02,-4.129994122706482917e-01,3.238379850980105390e-02,-3.549822233808342525e-02,1.890739441605479923e-02,-3.274694046487136578e-02,4.527825117111206055e-01
3.618023080247451118e-02,-4.328262808562142183e-01,4.165512807902663206e-02,-2.483261580252311279e-02,1.069396369802249995e-02,-4.464922345631373163e-02,4.803525507450103760e-01
3.951311062753407044e-02,-4.825272256756373834e-01,4.347683929494575161e-02,-5.654759316571465050e-02,1.682697316864566889e-02,6.042536879437661844e-03,5.340064764022827148e-01
4.348569245855371523e-02,-4.943933836423495820e-01,4.948296017722719764e-02,6.297761576062294898e-03,1.161429830817922552e-02,-8.002324064264126902e-02,5.588474869728088379e-01
6.115149077746800943e-02,-5.606837041496308682e-01,7.932489737993808632e-02,1.360944546052368902e-03,6.676948677122187571e-03,4.886514645070197567e-03,6.312852501869201660e-01
5.344820084573684293e-02,-5.692805949870702875e-01,9.045224557053729852e-02,-9.928112301429638416e-04,6.928879881295228402e-03,4.770461921442552614e-03,6.421987414360046387e-01
7.432185583874983958e-02,-4.783386435532508973e-01,3.398888709532707497e-02,4.773791517606144202e-02,-2.419960402623059972e-03,-6.352068924222046761e-03,5.401344895362854004e-01
2.229639170044706020e-02,-4.697511787074361567e-01,7.044631925540736916e-02,-2.432310662956505692e-03,-3.626388730136748291e-03,2.465172441230332068e-03,5.178771018981933594e-01
8.552977409876774684e-02,-5.498310909189998430e-01,5.304664967576808166e-02,2.050179685926970669e-02,-9.592074275235321426e-03,-2.264833745058255493e-03,6.210092306137084961e-01
7.630967204754593447e-02,-5.554669535833803851e-01,6.195526058562306204e-02,7.388228766158882153e-03,-6.445411427491475227e-03,-1.347977619883342776e-02,6.253898739814758301e-01
7.081851546693540556e-02,-5.085216926945075322e-01,5.299465276044398876e-02,3.571276266619264478e-02,-1.062444313041548474e-02,-4.093982360268227233e-02,5.786361098289489746e-01
8.071358012661858372e-02,-5.866303966749034648e-01,6.686582948807645588e-02,1.135619807932640099e-02,-7.094381310172391542e-03,-1.403295979099407516e-02,6.613827943801879883e-01
6.336393027002976130e-02,-5.675428640258807222e-01,6.751755919286875351e-02,9.998148342780295572e-03,-3.320508965200424153e-03,-9.279498918507213603e-03,6.334607005119323730e-01
3.155785674532218810e-02,-4.757266448016514437e-01,7.163518664449364248e-02,3.389072959609757026e-03,7.890758176768658191e-03,4.979067807949797558e-02,5.356612205505371094e-01
5.227139080837239771e-02,-5.450135344306001883e-01,8.386369431820564491e-02,7.303368790570051450e-03,8.189103840610697030e-03,1.725025921556349803e-02,6.147119998931884766e-01
5.337837996418026698e-02,-5.610336258578956237e-01,8.734176839325041852e-02,-3.235277284030485707e-03,4.149709292928427731e-03,1.743201562618234765e-02,6.328647732734680176e-01
6.318449168862111387e-02,-5.566195159131870351e-01,5.900932905092171055e-02,9.381419167816415494e-03,-4.744328707916622805e-03,1.760762490768398233e-02,6.187473535537719727e-01
6.078543591378099409e-02,-5.223111509355163884e-01,5.445708287669509540e-02,-2.491684219416307952e-02,1.522641194358417306e-03,5.136387419147183525e-02,5.883331298828125000e-01
6.426601939130427432e-02,-5.166128146037380908e-01,2.673421251531260534e-02,-1.042298737105099189e-02,-5.471929404152843296e-04,3.570873562432931581e-02,5.667271018028259277e-01
3.716966024147608239e-02,-4.792627505181629166e-01,7.674255615677474940e-02,7.068025180534721636e-04,2.126233649372254262e-03,4.870793974820057659e-02,5.439095497131347656e-01
7.699795099255624109e-02,-5.848950675767969898e-01,6.075081753439245946e-02,-1.205453379848881422e-02,6.846914155007223154e-03,9.065704520182386872e-02,6.729376912117004395e-01
5.755038322785199778e-02,-5.341750352324345918e-01,7.192920383112397231e-02,-1.314811025218236978e-02,2.475289273830256955e-03,4.105165305402132953e-02,6.036942601203918457e-01
7.672249654230686722e-02,-3.937958716440382312e-01,-8.041648606264106824e-02,-4.526094551761548207e-02,2.654040068150713416e-02,2.126644729891445651e-01,5.622106194496154785e-01
7.870033209729559998e-02,-3.564390072306630186e-01,-7.529068622281429035e-02,7.617653289894457669e-03,-1.205650824606969464e-02,1.594136277618827535e-01,4.721230864524841309e-01
1.446584750646781603e-01,-4.577415526476322216e-01,-5.440152352504964983e-02,5.307993724060159485e-02,-5.040875231861512151e-02,1.405969423837874210e-01,5.983101129531860352e-01
6.340539558431759759e-02,-3.517375497094236692e-01,-2.730773523931044611e-02,1.219501926630504944e-04,1.005210387470332600e-03,1.778964008605074532e-01,4.877069592475891113e-01
5.297215441365107913e-02,-2.226933230677277942e-01,-5.269847891937233519e-02,2.845330666643674719e-02,2.345091225395389087e-03,1.684115935346427728e-01,3.815241158008575439e-01
8.367366986027766074e-02,-5.963678355642967333e-01,6.677144738038140459e-02,-1.170626605302223580e-02,4.860201664022363761e-03,-1.183850529270686833e-02,6.724212765693664551e-01
7.366094260661917859e-02,-5.430779855965505165e-01,5.462301874476827024e-02,-2.593566378647602436e-02,2.434458196815889562e-03,3.400267735887924710e-04,6.091173887252807617e-01
7.183325671499965481e-02,-5.413640560252293010e-01,5.866602013535607285e-02,-2.502657836490110657e-02,2.605541953832658970e-03,1.479281332678175197e-03,6.082894802093505859e-01
4.190843810151079207e-02,-5.414969064742001237e-01,6.172600635167685423e-02,-2.611809988987858280e-02,4.803054278848852172e-03,-5.882241155717169052e-03,5.954290032386779785e-01
6.416811816499790044e-02,-5.676637084528026733e-01,6.500715440827084524e-02,9.956478998291258195e-03,1.402418511590554969e-03,-1.425166966497361590e-02,6.329730749130249023e-01
2.293624057290344354e-02,-5.951152579284243460e-01,6.273371933324703442e-02,1.559950712896215853e-04,4.556757040672507891e-02,-4.719944067040444599e-03,6.437891721725463867e-01
4.149901313949377890e-02,-5.855489642732256694e-01,7.011749436372227695e-02,-1.020947269378860711e-03,2.629842532380963563e-02,9.709664851551530040e-04,6.434548497200012207e-01
7.134714195281055549e-02,-6.348781301732577820e-01,5.774842641908042862e-02,-1.427342967705981687e-02,5.281908662151064277e-02,1.915757533317288906e-03,7.059228420257568359e-01
6.985421260840704583e-02,-5.976405170433962688e-01,4.056872619659301904e-02,-4.088459530295492431e-03,2.396510336111860873e-02,-4.837854860443221170e-04,6.547005176544189453e-01
6.556584119056674265e-02,-5.869555078684354221e-01,3.888059791142686739e-02,-3.312867251827991341e-03,2.664577650604217987e-02,2.465120723930996644e-03,6.412991881370544434e-01
2.985159002300602493e-02,-4.657604589037918075e-01,7.017756148974654828e-02,7.539843574798867423e-03,7.555466303005318150e-03,5.154785213940190486e-02,5.249351263046264648e-01
6.441611891718693195e-02,-5.493218783889942669e-01,6.725602544728742638e-02,-6.220059585388695855e-03,1.136190161753587334e-03,3.661083836735956609e-02,6.185194849967956543e-01
5.934252791292693452e-02,-5.018057409006088099e-01,4.305017060938987061e-02,-3.674924356788124985e-02,1.326004598239361593e-02,4.462997885253353059e-02,5.626410245895385742e-01
8.594595950540390161e-02,-5.536059275964158033e-01,3.303519240303628979e-02,-8.408228896968414703e-03,1.172351911879853390e-03,3.489294956563329664e-02,6.179447770118713379e-01
4.985276771926946959e-02,-5.426940631856942421e-01,8.521878892944709238e-02,-4.790162904085281184e-03,-8.094442117860095251e-03,9.552630264283932734e-03,6.114390492439270020e-01
8.409898591732559159e-02,-5.548980477024281210e-01,5.208549846729815247e-02,-1.059695015192558404e-02,9.793809834853884483e-03,6.214655124985003082e-02,6.333220005035400391e-01
4.963364498914929479e-02,-4.553304582089086616e-01,5.842712189703280767e-02,-2.161487357509140131e-02,7.340067236855056000e-03,2.401655939887820806e-02,5.126402974128723145e-01
6.968985824229312342e-02,-5.456162374157134121e-01,3.583756462904319484e-02,-3.943122896709024168e-03,2.242605128533475150e-04,3.232134255417013630e-02,6.017464995384216309e-01
7.696327802447727739e-02,-5.734184600900158468e-01,6.435894652546039763e-02,-5.301476645880413840e-02,5.920182127511403741e-03,-1.805808767969365944e-02,6.515157222747802734e-01
8.057347329010103310e-02,-5.691525042753735608e-01,5.784860847891615254e-02,-2.545430611641951585e-02,7.243930692246708727e-03,-2.235914885411120160e-03,6.403214335441589355e-01
4.035996461005486591e-02,-4.476433018284438070e-01,3.788321582899190076e-02,-3.652380950558158784e-02,6.099827178609435775e-03,-3.430814389857185943e-03,4.910127818584442139e-01
6.363516853188860845e-02,-5.309367042810622106e-01,5.559233679308916987e-02,-1.609004445211797280e-02,1.914255447767351792e-02,-9.475158683508982937e-03,5.924050211906433105e-01
7.071296267043339356e-02,-5.127288881954820132e-01,5.056253261568338653e-02,-2.111043794924976139e-02,6.611594473909353752e-03,-4.299721788520364726e-03,5.749585628509521484e-01
4.471574733400376922e-02,-4.140280424341518106e-01,1.986066197511368592e-02,-5.590091229806093409e-02,7.557193916943539570e-03,7.652773498381586735e-03,4.575841724872589111e-01
5.343712220795857060e-02,-4.601453940056756120e-01,3.981246945755481659e-02,-1.902307686381356222e-02,1.451759638619929890e-02,-6.960155055641549515e-03,5.087420940399169922e-01
6.531101135510386513e-02,-4.906059409351366529e-01,3.943558955213682937e-02,4.914495007162366681e-03,1.270735741963905686e-02,-1.247731205568784231e-02,5.443827509880065918e-01
1.422615096989154337e-01,-6.661307702870717939e-01,-2.236080559881278851e-02,1.364845140878838056e-02,-1.459575831223065313e-02,1.898353330063924302e-02,7.414838075637817383e-01
1.576449925825588183e-01,-7.013203821778387637e-01,-4.933890645351829418e-02,-6.791513858186724699e-03,-7.572293815837535802e-02,4.887408812991071022e-02,7.920720577239990234e-01
2.019858869792555689e-01,-9.761860458822344544e-01,9.721510754923334829e-03,-5.318377592273592497e-02,-5.488045400478833852e-02,-6.389010025399352588e-02,1.108287453651428223e+00
1.381822180233644448e-01,-6.340846559682535855e-01,-4.572460534760738882e-02,-3.732663997420070795e-02,-4.610261552314638689e-02,-5.528321348263342400e-02,7.126833796501159668e-01
1.168135032696442366e-01,-6.264249203878606842e-01,-6.826254533656178625e-03,1.143197565123900894e-03,-6.956531314964515579e-03,1.374081540880376165e-02,6.902983784675598145e-01
2.221541753211619397e-01,-7.222419715527271800e-01,-5.766349105163179334e-02,-1.811217905020909291e-02,-5.629422729792356306e-02,4.111929078741755061e-02,8.494038581848144531e-01
5.736113007490770133e-02,-5.841822763694353160e-01,6.890729072802417865e-02,4.505905981767335117e-03,-3.201098394756397587e-03,2.904437362248198328e-06,6.474645137786865234e-01
7.275216104622503344e-02,-5.880701122834086636e-01,7.297910107753996511e-02,-1.624492096055735798e-03,2.631176727242165187e-03,-6.314358558077668446e-04,6.609583497047424316e-01
7.113184410204659303e-02,-5.769144980429645742e-01,7.494465333186245415e-02,8.262805452493329067e-03,7.084736447874726353e-03,8.701539307544473717e-03,6.504091024398803711e-01
7.012069903975384766e-02,-5.610114403926644844e-01,6.586596330632968344e-02,9.226893319784329126e-03,8.732164372548227235e-03,8.616522193889541298e-03,6.295772194862365723e-01
7.714058375756557839e-02,-5.827067064910165239e-01,7.184289688615863589e-02,-2.156891721422193170e-04,5.548612916998102093e-03,-8.902666724691982907e-04,6.572866439819335938e-01
7.092589248895661558e-02,-5.722137915136757957e-01,7.179876489574676945e-02,9.304736545849243493e-03,7.621182854826646751e-03,3.982124789993714623e-03,6.439505815505981445e-01
1.027848661081482984e-01,-6.665306410445530627e-01,2.148680480486114819e-02,2.136555090074230678e-03,-4.522206685738002635e-02,5.612361318994679021e-02,7.426373362541198730e-01
7.974095438963851867e-02,-5.667752110049413261e-01,5.958527871868715686e-02,1.780534353164325108e-03,-2.396821069113754638e-04,-4.194599119991830084e-03,6.367267370223999023e-01
1.450134695208321611e-01,-6.828791928154591684e-01,-4.630251350703959434e-02,-1.450058747461332141e-02,-8.802901874587795716e-02,1.864160588675197600e-02,7.671633362770080566e-01
7.191324288390987807e-02,-6.628578340290669502e-01,4.397631433793877664e-02,4.872978987204654167e-02,-7.353264907301015896e-02,7.144837119558353211e-02,7.475301027297973633e-01
1.103300302049529114e-01,-6.918352623002709256e-01,-3.180657523881663673e-03,5.786280985857649405e-03,-8.763400641930159385e-02,2.987936951861814780e-02,7.688416242599487305e-01
4.600282607135264268e-02,-4.952149580907135862e-01,5.025286491935007649e-02,-8.340637443532614419e-04,-1.866785326430421901e-02,-1.231424879725815935e-01,5.846149921417236328e-01
5.461576523649561143e-02,-5.038303699978790018e-01,6.421112730905995103e-02,-9.878970362387865314e-03,-8.802301290103573331e-03,-3.347359033339426110e-02,5.667445063591003418e-01
6.037950918694651170e-02,-5.285977181295420380e-01,6.490287974542821581e-02,2.289998664581327503e-02,-8.089702257946264005e-03,-2.360807195556143337e-02,5.941551923751831055e-01
5.580552414914188852e-02,-4.985042403418777912e-01,5.381029181722921106e-02,8.793380313173755972e-03,-2.106651080244319879e-02,-3.078150665785535020e-02,5.572819709777832031e-01
6.275676264421092831e-02,-5.709958234353789130e-01,6.465948475904925719e-02,-7.923800167326848498e-03,4.067510721664341876e-03,1.095857765901707935e-02,6.351771950721740723e-01
6.009373977210727413e-02,-5.749050432413391754e-01,4.720599106128667288e-02,1.953312958008983358e-03,1.286007559314371503e-02,-2.499771618547217810e-03,6.290724873542785645e-01
6.089661317634120774e-02,-5.942076185094431473e-01,5.330557883986564160e-02,-4.888905613375321701e-02,2.450804687481423702e-02,-2.712645475474958698e-02,6.598682999610900879e-01
7.687401736745030911e-02,-5.947302375687422149e-01,6.401893117108065079e-02,-3.135698073349005993e-02,1.664260026360741412e-02,5.248183583084081033e-02,6.742608547210693359e-01
6.834704583307629755e-02,-5.876927720831699453e-01,6.427554673582344669e-02,-4.577376111708728393e-03,2.788435786663257671e-03,-1.283781789269981301e-02,6.544573307037353516e-01
6.998856065998274034e-02,-5.844283850743605679e-01,6.529316011122004992e-02,-4.098613929692818125e-02,1.101943604725799360e-03,-5.542964937694044858e-03,6.560078263282775879e-01
5.280571960968116763e-02,-6.071697757290610564e-01,6.830489292735653084e-02,-6.493400767403848667e-03,-2.000131814303453964e-02,1.464478478805172901e-02,6.693332791328430176e-01
4.192427023577757761e-02,-5.756363103581954022e-01,8.657380381929580260e-02,-7.758503184715106853e-03,-2.685397875316651237e-02,-3.462463747107493578e-02,6.456694602966308594e-01
4.115793498184436294e-02,-5.613700630335233255e-01,7.484498651306850658e-02,-5.683015179056218058e-02,7.031723921235886327e-03,-1.986750762897102410e-02,6.288828849792480469e-01
2.359968239443971383e-02,-6.027114005183953349e-01,8.201862955140415412e-02,1.470480229556675109e-02,-2.247654145412681173e-02,1.288878802940213522e-02,6.594917774200439453e-01
6.645223466512106825e-02,-6.042142603256310807e-01,7.983891926930994365e-02,-3.122909834234022936e-02,6.767966294640229141e-04,-6.127999560003301836e-03,6.796988844871520996e-01
5.569491736730378117e-02,-6.023447855884651592e-01,7.455348243428769339e-02,-6.587300654209254924e-02,-9.926168280964542401e-03,-2.599229861456948260e-02,6.790594458580017090e-01
4.489011187116301316e-02,-4.570026396316184125e-01,4.940623027580448579e-02,-7.619982756942721147e-02,8.499106935250105854e-03,-4.456118678231443808e-02,5.270449519157409668e-01
7.269621566991271711e-02,-5.784707841710126086e-01,6.906215755284061952e-02,-1.064755880339234538e-02,5.835198224054774507e-03,-8.864247396194051970e-03,6.498794555664062500e-01
7.172692508546804624e-02,-5.436604983117114820e-01,5.375838701250904017e-02,-1.172623675915182399e-02,2.670016059066141617e-03,-1.903193732453941148e-02,6.078548431396484375e-01
8.916282893685845146e-02,-5.635234881502906301e-01,5.721684618217476315e-02,3.970652654765492555e-03,1.203550941542891328e-02,-2.744320997204090229e-02,6.394611001014709473e-01
4.977444205209605177e-02,-4.982631405287961668e-01,6.075705448751231308e-02,-8.180062237293062033e-03,4.877939405891532597e-03,-5.515001964414179697e-02,5.620332360267639160e-01
7.461582389955950800e-03,-6.062262642382235667e-01,1.076730879076310265e-01,3.884137637674527771e-02,-9.684427821559017657e-03,-6.677720893456502195e-03,6.731231808662414551e-01
7.548617181906674967e-02,-5.809285965716368683e-01,7.284590688649458801e-02,6.636221781307052349e-03,-1.241967169913067194e-02,-1.216899229724603855e-02,6.558912396430969238e-01
6.075433699598525861e-02,-5.832263920453997219e-01,6.711687335878968597e-02,2.113044882775030886e-02,6.439383045093565079e-03,-2.063915541512324411e-02,6.493002772331237793e-01
6.177512680150784585e-02,-5.961620783021208680e-01,7.552827673606105074e-02,-4.726705447098357785e-03,1.119301543249155793e-04,9.791788239117509268e-04,6.649730801582336426e-01
8.089359625560513245e-02,-5.792967158520128113e-01,6.141300964266219187e-02,3.913746760461289057e-04,2.712935095310003899e-03,-6.831603831619979372e-04,6.506871581077575684e-01
4.158480644937481707e-02,-5.876766677689271301e-01,6.078904838038357017e-02,-8.258066053204508178e-03,2.464610390748389959e-02,5.778796304729110107e-03,6.407420635223388672e-01
6.509166311681918726e-02,-6.146260511605485810e-01,7.615300256010301694e-02,-4.454315724813568030e-03,1.468741138628788800e-02,-1.020416180125664415e-02,6.860584020614624023e-01
6.034993369395980078e-02,-4.985239319267785740e-01,5.826834052271537279e-02,1.729508483616183645e-02,1.776006906525541898e-02,3.275191311699942459e-02,5.623545646667480469e-01
5.977002750090779082e-02,-5.299773690177782548e-01,6.577128927268374725e-02,7.392981960710796364e-03,1.366147426412116922e-02,1.811225574499291877e-02,5.942097902297973633e-01
7.444897259243038468e-02,-5.839062339570304516e-01,6.628701971566647311e-02,3.356942319871448251e-03,4.275467276652872295e-03,2.357364615200842773e-03,6.543928980827331543e-01
6.955494170573550683e-02,-5.774376760986539292e-01,7.822694208843589125e-02,5.510224848107259966e-03,9.518086264200495070e-03,1.030701426911948687e-02,6.518948674201965332e-01
4.759639909567831006e-02,-5.779063237524310059e-01,4.611731250942480154e-02,-3.468030867078860085e-04,-1.377525580983991705e-03,5.779289638880445625e-06,6.247693300247192383e-01
7.014213096131943770e-02,-5.834257972855920737e-01,5.805498389708690921e-02,-1.993617616277598009e-03,1.060814191408894795e-03,-1.421097371357992172e-03,6.476254463195800781e-01
7.218515853343632216e-02,-5.819644377691879367e-01,6.929496285272920830e-02,2.778610473270749781e-03,7.261955369859807337e-03,1.017005095302177687e-03,6.528505682945251465e-01
6.920440281267878357e-02,-5.837948993992646551e-01,7.424392921867475903e-02,4.765191318855809704e-04,8.623360048694288238e-03,2.174483941965466190e-03,6.557150483131408691e-01
6.657124128321781353e-02,-5.719281578684696221e-01,6.567123830509905003e-02,-3.845968416627526271e-03,2.519548079365450770e-03,1.990029221241502045e-03,6.381088495254516602e-01
6.557846705078732019e-02,-5.781104208074067108e-01,7.540714820865379586e-02,1.905747504019683364e-03,1.882125695682564191e-03,3.313524609151682096e-04,6.486759185791015625e-01
6.314186448195521772e-02,-5.721680857826199063e-01,6.519839873540961284e-02,8.217833061665296909e-03,-1.839472190820666542e-03,2.392858031272699151e-03,6.365213394165039062e-01
5.095193949162107883e-02,-5.481571048540367919e-01,7.514417443249063466e-02,-1.578778252220687994e-03,-2.128658348952044629e-03,-1.708822189901271216e-02,6.122971177101135254e-01
5.028012310909657501e-02,-5.525472744048534057e-01,8.046205620122015567e-02,-1.142684660748691933e-02,5.820097350658794307e-03,-1.931572775343122841e-02,6.197733283042907715e-01
3.230601548788791799e-02,-4.501590891011231776e-01,5.233432939118326521e-02,-3.948236354601023651e-02,-3.511835072416287420e-03,-6.049824836649703858e-02,5.084587931632995605e-01
7.015024947385467557e-02,-5.939613486175012724e-01,7.263518861704126861e-02,-3.307397078337204459e-03,3.682559274959537957e-03,-7.929251127887400330e-02,6.794380545616149902e-01
4.393816096112873604e-02,-5.514222740303135195e-01,8.190396437949043484e-02,-8.452561197634034934e-03,1.060742318356416337e-02,-1.864709069839290065e-02,6.165174841880798340e-01
-3.546910053012025665e-03,-6.555828054476351419e-01,9.811185473199457441e-02,6.530447549614568255e-03,-5.610706797289620462e-02,4.969902417379548458e-03,7.151339054107666016e-01
3.573180287588387238e-02,-6.082162813304353710e-01,7.509677075975351723e-02,-3.286484710419595653e-03,-2.362388274148931322e-02,-1.512746417710355770e-02,6.663039326667785645e-01
5.161146302605557068e-02,-5.095412054016117409e-01,6.502107906975876372e-02,1.653581432056602102e-02,-1.596360206773475912e-02,-4.412416908326736997e-02,5.744759440422058105e-01
4.794723577085710509e-02,-6.794028795983390046e-01,8.958112969986298246e-02,-8.716142585783759897e-04,-6.991043819360408251e-02,6.470886099450070270e-04,7.587621212005615234e-01
4.849455503094840525e-02,-5.773561354881135976e-01,4.582490817949166906e-02,5.428739822857311936e-04,-9.735287784696139467e-04,2.335006831218331184e-04,6.245232820510864258e-01
7.607276105219704099e-02,-5.605718010867049017e-01,5.947416239745992317e-02,-6.796566850400673036e-03,1.456582735670287031e-02,-1.949467433708463107e-02,6.300314068794250488e-01
7.639469859378156258e-02,-6.389852501678449093e-01,7.633878297273416491e-02,3.365468787841138093e-02,1.727802050946089171e-02,-3.508105946320885099e-02,7.209119200706481934e-01
4.917595912569200367e-02,-4.909193973520294962e-01,6.312108155835444157e-02,2.324137950811543812e-02,-1.999363796122331349e-03,-2.418851670425180983e-02,5.502880215644836426e-01
7.058470017564996701e-02,-5.379246595946215459e-01,6.084359544579498458e-02,3.652593905015122377e-02,-1.167241499752038648e-02,-2.328407551218280441e-02,6.086777448654174805e-01
3.354722961702519268e-02,-6.590693795541876510e-01,8.217561707913700886e-02,1.018575920289323082e-02,-4.857820512429339432e-02,8.464145648075118919e-03,7.234424948692321777e-01
7.154894391769042739e-02,-6.072554753994967580e-01,8.447102141147885823e-02,3.430253870158390256e-02,8.147276260680350740e-03,-6.114197259868941331e-02,6.961739063262939453e-01
7.491348684017892778e-02,-5.632150857513452680e-01,6.872370995814403027e-02,2.712247294721824992e-02,-9.149583049061493778e-03,-2.184593284953921521e-02,6.381114721298217773e-01
7.793602170573904475e-02,-5.734950733889276897e-01,6.650114925134004151e-02,2.350173891215749655e-02,-9.447893098098543788e-03,-1.051181663608657078e-02,6.475341320037841797e-01
4.939341984650477690e-02,-4.376831006638625121e-01,4.148719742455014847e-02,4.010685501494859473e-02,-4.907174740592646495e-03,-7.055643385243934307e-02,5.032769441604614258e-01
5.397935127024966473e-02,-4.405548796290227886e-01,4.232163385221901497e-02,5.633819551612406773e-02,-1.055493139365555957e-02,-7.280507273404797364e-02,5.144830346107482910e-01
6.543341990852891144e-02,-5.243154775048068927e-01,5.543328199410815782e-02,2.166790310883886378e-02,-1.348319795844884171e-02,-1.742967079137350273e-02,5.872575640678405762e-01
5.592128571390453384e-02,-4.981887370987588826e-01,5.207074138415826448e-02,8.710070542696389875e-03,-1.450074546866579085e-02,-3.490345548446809748e-02,5.562663674354553223e-01
7.095898396186087198e-02,-5.345187528293789958e-01,5.984390953794788137e-02,2.153108473470979542e-02,-7.035163594071605804e-03,-1.294572612250533689e-02,6.016967296600341797e-01
5.564778004697179536e-04,-6.507397278583921807e-01,7.795243782755750805e-02,1.281412722389124181e-01,-1.049403285497072513e-01,6.940221168506297000e-02,7.598240375518798828e-01
6.430693826891481502e-02,-5.293040326618392299e-01,6.337894869207594262e-02,2.133923869544417443e-02,-1.336011909776728922e-02,-2.455464570493628637e-02,5.962669849395751953e-01
5.518225471206150701e-02,-5.837008989527658898e-01,7.289085398133765548e-02,1.561847445575286798e-02,3.628926805833709423e-03,-1.749391005774344685e-02,6.492214202880859375e-01
6.879115402050284267e-02,-5.485672016987237498e-01,6.574028171762899553e-02,2.302376154647579540e-02,-8.814987010067210776e-03,-2.752766689762598321e-02,6.191557645797729492e-01
9.376506614449514609e-02,-5.643552672573142193e-01,5.177111329379940896e-02,3.498099293731906593e-03,3.809713431026482463e-03,1.123612365863230081e-03,6.382263302803039551e-01
7.829633644950503846e-02,-5.920330442373951119e-01,4.610789472082421625e-02,-8.199313299794841470e-03,1.990228313887418624e-02,-1.050140579436390983e-02,6.561414003372192383e-01
7.201471725600885887e-02,-6.037731015509074650e-01,7.969062632696771731e-02,4.248013116897435444e-03,3.807201454470937954e-03,-2.031341920217973052e-02,6.806401014328002930e-01
-1.681792012731329888e-02,-4.662573196131660214e-01,1.743689070549163667e-01,1.771684248970078202e-01,5.004086761179518672e-02,-5.500758439282767837e-02,6.597202420234680176e-01
7.315719650673307983e-02,-5.689253598050258987e-01,7.224400873617392582e-02,7.103179575756245027e-04,-1.272834157809186496e-02,-5.432519318558913859e-03,6.420752406120300293e-01
8.673466982389491098e-02,-6.112374141863115007e-01,6.345566400309152200e-02,1.531512216368387247e-03,3.762570342100963680e-03,-1.582807226679481399e-02,6.872116923332214355e-01
6.823746213521089676e-02,-5.874651535526238533e-01,7.765645091055184412e-02,2.051294279081913516e-02,-1.035993904807120357e-02,-2.365933287719990466e-02,6.629285812377929688e-01
5.737201715578191252e-02,-5.149621399310874148e-01,6.456461411832309372e-02,1.847482088486483666e-03,1.176899666861257708e-02,1.094439718539493359e-02,5.766453146934509277e-01
6.903936278451411335e-02,-5.851706852536671111e-01,6.493468917046510414e-02,-2.778173855270121319e-03,1.853361773344720711e-03,8.712866327629345195e-03,6.523676514625549316e-01
9.533773340575396604e-02,-6.351663066114499046e-01,2.330926352790918532e-02,1.947030705154468092e-02,-3.000481973765386709e-02,-1.957341558044960476e-04,7.000324726104736328e-01
7.601041680562947711e-02,-6.085875414476381584e-01,1.994517539139023521e-02,-1.469619961600092763e-04,-4.053360139365575626e-02,-1.328394338565517521e-03,6.620950102806091309e-01
7.509411325212733690e-02,-5.579289680096282122e-01,6.708114552512381423e-02,4.012192961707456221e-03,1.397597142538348908e-02,4.975676651238405274e-03,6.296178102493286133e-01
7.237758927744175619e-02,-5.818546800656836382e-01,6.486282129337764268e-02,-2.336530928544450388e-03,8.073953269910229128e-05,1.005833211675510863e-04,6.505200862884521484e-01
6.195540378259598024e-02,-5.733084673045297786e-01,8.349043446067411223e-02,-1.109568250716770057e-03,-3.141541794507030777e-03,3.548088511438219055e-03,6.463555097579956055e-01
6.115801329451256430e-02,-5.283754071560846644e-01,6.756643666731726450e-02,1.141898981229158214e-02,1.134642247237802569e-02,1.519361232226026578e-02,5.940022468566894531e-01
6.377477755935381798e-02,-5.570710455364289437e-01,7.311578899764889505e-02,8.296224873690204865e-03,9.529661356690498353e-03,5.508326358155714308e-03,6.260240077972412109e-01
6.782109417904744197e-02,-5.939101948548438648e-01,6.950651015051476089e-02,2.103528030127560858e-02,-4.377625831558025135e-03,3.324873431846808031e-02,6.661139726638793945e-01
8.259783490100941483e-02,-5.361708996475287314e-01,5.187001903367594036e-02,1.082708322341328216e-02,5.124873663668557018e-03,6.450203297831566540e-03,6.044508218765258789e-01
6.690208060526972589e-02,-5.203710198178057578e-01,6.187661208435965565e-02,3.234418441609875072e-02,1.858845752708344207e-02,-5.376801882096753776e-03,5.884091854095458984e-01
2.696840070273812118e-02,-3.357579034622202863e-01,1.775919390086164174e-02,1.514003949306944388e-02,7.982008839248254731e-03,5.708706483577664914e-02,3.727872967720031738e-01
6.209491673613440343e-02,-4.661902469231354318e-01,3.629737208576194751e-02,2.452843438392091416e-02,1.098707461428956311e-02,1.070932360079105035e-02,5.182985663414001465e-01
5.379521782297877475e-02,-4.346177881411147359e-01,3.406342013435859073e-02,4.832443539175740321e-02,1.857662457886342239e-02,1.668143893023038213e-02,4.880319535732269287e-01
-3.665150142889789242e-03,-5.506305045304984436e-01,1.048049338031337707e-01,9.649833544545330377e-02,-6.988346776703949215e-02,3.116578714798737618e-02,6.448000073432922363e-01
6.267167368040973963e-02,-5.827333903841883656e-01,7.536326141468197015e-02,5.101302314780273989e-02,-1.689990041369575889e-03,8.219351839406689947e-04,6.578127145767211914e-01
5.174160907178393387e-02,-4.546623506883560317e-01,4.998868012866114485e-02,7.705640462859461581e-02,7.751219941350718026e-03,-2.697590529742956850e-02,5.251064300537109375e-01
6.941695410115653053e-02,-5.941124842373611825e-01,7.264299418673542119e-02,1.765725387252283299e-02,6.791315111928687698e-03,1.504519163405293632e-02,6.664646267890930176e-01
4.616468182387756247e-02,-5.750344552898840611e-01,7.188890907953252030e-02,9.923977123793369104e-02,-1.184103794931716525e-02,5.066100972341473080e-02,6.634725332260131836e-01
6.798699858219559022e-02,-5.523415169833829630e-01,6.553049729501919662e-02,7.908283027177222257e-02,-1.498929620405093678e-02,7.351998376081111952e-02,6.472569108009338379e-01
6.592875876738638063e-02,-5.810504711667523470e-01,6.303751778151445162e-02,1.335227251428859445e-02,-3.621533829397195585e-03,1.275890070886663563e-02,6.463609337806701660e-01
5.396306938575509693e-02,-5.837557068887762046e-01,6.224945290982702994e-02,-3.949078491548898770e-03,5.741811441664733742e-03,-3.256142154361399595e-03,6.420403122901916504e-01
4.646971352763820673e-02,-5.843141480881366423e-01,6.607583628575702805e-02,-4.182580269306799279e-04,-7.670729278613566400e-05,1.063227658483227285e-03,6.408149600028991699e-01
3.798107378840298587e-02,-5.831546168572603328e-01,5.944506983325567595e-02,3.445974878465364773e-03,-1.220361801641970875e-02,1.713808304833894984e-04,6.325225830078125000e-01
6.353947977277618619e-02,-5.845205785198599457e-01,5.590489622730210328e-02,4.868807376179712333e-04,-3.511507098268833692e-03,-2.809038054488073154e-03,6.443243026733398438e-01
5.824385733089595951e-02,-5.832485658222972269e-01,5.344361222469026784e-02,-4.188232343155238666e-03,-1.835978460626907323e-03,-1.625976010259880516e-03,6.391611099243164062e-01
7.059908527122296662e-02,-5.803106429214905937e-01,7.240992533692339195e-02,-2.166588429787490589e-04,-1.130329932842739048e-03,-2.265558847934458740e-03,6.518318653106689453e-01
7.575781511320742179e-02,-5.811443898371824179e-01,7.175256481916253426e-02,1.249456378270899851e-02,-5.863023887686260628e-03,-5.142408311999992036e-03,6.554054617881774902e-01
6.842834998741945118e-02,-5.870718578881553018e-01,8.105233353219151726e-02,1.184397067738809581e-03,-1.879963104711045293e-03,-1.922028778125669472e-03,6.619220376014709473e-01
7.706389175780006817e-02,-5.904151222382383324e-01,7.749046419697430688e-02,-2.231135554968061065e-03,-2.842153239429200465e-03,1.546273091259083758e-03,6.677271127700805664e-01
7.504667784162946664e-02,-5.874952721543091894e-01,7.601236176570075331e-02,-2.923666904740973224e-03,-5.471472797633555353e-03,-1.086805999393835199e-03,6.631150245666503906e-01
5.434593882826296851e-02,-4.773138638389791688e-01,5.894415035735503516e-02,4.260041504281436922e-03,-7.137512889751024096e-03,6.418913357855451918e-02,5.456152558326721191e-01
6.123157265924025761e-02,-4.471252889577341239e-01,3.009814565266052955e-02,-1.317620463854895542e-02,7.284321940016906831e-04,1.335884352924104901e-01,5.455539822578430176e-01
4.051731491060317492e-02,-4.769800453908429327e-01,6.699837999617422324e-02,-7.989461908090461986e-03,-1.032665525130609108e-02,5.009644688436366150e-02,5.387476682662963867e-01
6.911470484138299009e-02,-5.793264665176367512e-01,6.626031382087901878e-02,2.222745862963278890e-03,3.470221350842433560e-03,8.271045913171125308e-02,6.627271175384521484e-01
6.922407394358071064e-02,-5.899086970903872906e-01,7.301272154039306628e-02,-3.360162070615561446e-03,7.737809705640765444e-03,4.701407791601828340e-02,6.661921739578247070e-01
3.563261906038092675e-02,-4.297012224162162775e-01,3.592011327021735201e-02,6.589764944365010362e-03,9.006919759501977318e-03,1.427241777119435950e-01,5.274027585983276367e-01
6.392969900651987447e-02,-5.649758679251200011e-01,7.134670773273532607e-02,1.765089748110118192e-02,5.236344682206417640e-03,3.188707395109113829e-02,6.358530521392822266e-01
4.300584650509567397e-02,-4.699303034576172711e-01,6.549988670399659041e-02,8.570983131967656321e-03,1.198037171649165254e-02,4.555364840611514365e-02,5.310592055320739746e-01
8.679179426829827793e-02,-5.964077560500415931e-01,3.570481106492662260e-02,-9.083359037562308350e-03,1.002741428104672941e-03,9.971375978402041013e-03,6.595587134361267090e-01
8.508334996335120692e-02,-6.149204294115699909e-01,5.547155601593115049e-02,-6.037570701049705182e-03,-6.735526356166443920e-03,2.776394647309664808e-03,6.858734488487243652e-01
5.380592357737196130e-02,-5.493034930992753972e-01,5.864780070003924872e-02,2.141527549381718951e-02,-1.613581294202945382e-02,3.254649405955533509e-02,6.099339127540588379e-01
9.596100285501329985e-02,-6.038062893985600699e-01,1.502897457917229396e-02,-1.038209159197032647e-02,3.292938616666019058e-02,7.688954499284694766e-03,6.658411622047424316e-01
8.326556150989353200e-02,-5.911560059709297654e-01,7.291270061060070584e-02,-2.932514879821185050e-36,-2.258482438379707993e-03,-1.365732382043116470e-03,6.693208217620849609e-01
-5.253187181164939434e-02,-6.612767927810130342e-01,1.514426606509328699e-01,1.417967497735906635e-01,-5.464031964150548731e-02,5.286668541970848678e-02,7.835845351219177246e-01
1.067967411370954744e-01,-6.497236146179062866e-01,3.573765133405851224e-02,-3.194735840340580391e-02,1.233938299043309782e-02,1.389731563515238071e-02,7.264384627342224121e-01
8.561710324192606247e-02,-6.041545802056698111e-01,2.340789122463521332e-02,-7.702409460349651533e-04,4.397887044168666618e-03,3.686240905708141214e-03,6.609427928924560547e-01
9.501205025545722549e-02,-5.914477156642607980e-01,7.012715383005185821e-04,-6.286035637038472901e-03,1.228583757023506313e-02,3.671324104990782676e-03,6.449750065803527832e-01
-4.007283717071363771e-02,-6.812983315208060997e-01,1.670837102136976671e-01,-5.663220213156654713e-03,2.114280693391580590e-02,-2.308094712018921024e-02,7.680842876434326172e-01
7.376799523421279092e-02,-6.025558512590667437e-01,3.954724783520760512e-02,-2.579121076637833423e-03,3.197691005844559547e-03,-6.843855923873405980e-03,6.600241065025329590e-01
1.838319949672901910e-01,-7.164560142403639809e-01,-5.796353261035697146e-02,-2.718616091974526000e-02,5.365237304359486703e-02,3.544093783255290037e-02,8.160386681556701660e-01
6.573064192109237536e-02,-5.569274852035438483e-01,6.271122309754612045e-02,4.038885546378205571e-03,-9.343923538996817303e-04,-7.133117368642106007e-03,6.213182806968688965e-01
7.280366845343910764e-02,-5.787870110452350003e-01,7.314450052658774681e-02,1.193763618305937989e-02,-8.970207751752147518e-03,-2.328446517344730498e-03,6.522865891456604004e-01
7.184462906501401513e-02,-5.696645498197081547e-01,7.027458728233018648e-02,1.205515450156060230e-02,-9.115110951839283659e-03,-1.181023968421762022e-02,6.415863037109375000e-01
4.165601077961592069e-02,-5.859830353391655144e-01,5.880998222198977055e-02,7.379395945112466985e-03,-1.741943671170062893e-02,8.213931507245192734e-03,6.373912692070007324e-01
7.336780010197974100e-02,-5.848508301417134625e-01,7.170398066169961226e-02,1.409202171033003973e-03,-7.074735652323064020e-03,-6.235083037241071109e-03,6.575956940650939941e-01
7.498934210454410998e-02,-5.655808371194906981e-01,6.719235172380691457e-02,-9.642384157631436054e-03,-1.189265059892019583e-02,4.641690932460084372e-03,6.373102068901062012e-01
6.309861118915885414e-02,-5.931937511175906508e-01,7.208140409213859012e-02,-1.626045744438495491e-02,5.837833823542836094e-03,1.222878319535018743e-02,6.618457436561584473e-01
6.083954578211495101e-02,-5.905843819634696290e-01,5.875395806405073196e-02,-7.483096487686234990e-03,2.036495127483491444e-02,-3.543613393209798200e-03,6.514973044395446777e-01
5.117169079442518420e-02,-6.050235567218487098e-01,6.127992435179469011e-02,7.802735042828836710e-03,3.027274134072830900e-02,-1.265075311912950730e-02,6.638820767402648926e-01
5.425823576721133801e-02,-5.900012720142037148e-01,5.790508817417946985e-02,-4.198932927170736726e-03,9.769376823141932842e-03,4.134168361872869908e-03,6.463927626609802246e-01
7.005984098027254192e-02,-6.008832314356294946e-01,4.522890222983388941e-02,5.369788365755794046e-03,2.175677319440744856e-02,-1.165989052156294128e-02,6.603298187255859375e-01
7.570795136691096938e-02,-5.931559297410000653e-01,5.966741907486614038e-02,-1.795297685284674705e-02,3.625560374089799830e-03,1.318688133844621996e-02,6.621444821357727051e-01
2.373927943873428703e-02,-3.626788976353391702e-01,4.044077759245953696e-02,-2.676208407972136688e-02,-6.376639670688482101e-03,7.939286962396174818e-02,4.209893047809600830e-01
6.883276187290729431e-02,-5.867799448970276721e-01,7.357906968900038147e-02,-3.636774245679970895e-03,1.790911318333428259e-03,3.396393705785250711e-02,6.606604456901550293e-01
3.956786968942344052e-02,-4.530728520040426810e-01,6.275558130871447537e-02,3.436040691467277981e-03,-2.943819862320257164e-03,8.245375324032659659e-02,5.245121717453002930e-01
5.208870824030198410e-02,-3.785851820212801644e-01,1.742789871066956209e-02,-5.004397141326381859e-02,1.578307927765084176e-02,9.329718409354394171e-02,4.540126323699951172e-01
2.378769901772057049e-02,-4.042546835745314815e-01,5.127347892764635984e-02,2.063870428487264361e-02,9.960091551078804895e-03,1.228550337981938745e-01,4.925407469272613525e-01
1.657669038930671690e-02,-3.614122247399634280e-01,4.141914636611351841e-02,1.297737254794176232e-02,1.087637259168140746e-02,8.289324016181909283e-02,4.175606966018676758e-01
7.907461704342921838e-02,-6.178840593179097951e-01,-1.186195411117529908e-03,2.521769333691655304e-02,-5.420417377638287598e-02,1.681861920793084608e-02,6.691975593566894531e-01
6.540555868389716365e-02,-5.875301006410760252e-01,3.304253919141564300e-02,-9.698604888142711711e-03,-2.659588073029472977e-02,-6.067408237015937955e-03,6.393402814865112305e-01
5.430528796253950019e-02,-6.061956784426699718e-01,1.479892644776920063e-02,-7.702265783885027008e-03,-7.534347835891672118e-02,1.316996435229791191e-03,6.549361944198608398e-01
6.843883056474356352e-02,-6.178022671877162475e-01,5.459991480688292098e-03,1.065271229518438209e-02,-9.006963885988443497e-02,1.238786513545402437e-02,6.758794188499450684e-01
7.387009784081913222e-02,-5.887041332438295305e-01,7.243690666231294983e-02,4.662396589238141861e-03,-2.396985325107739689e-03,5.373039856152039698e-04,6.619217395782470703e-01
7.305577952060213209e-02,-5.862356291736952052e-01,6.993718126210771158e-02,-4.898418341350716659e-03,-3.620561953695508855e-03,-3.272574641028461965e-03,6.578466892242431641e-01
7.120797174170795385e-02,-5.903903384624133999e-01,6.068479541049348613e-02,-8.842133787239211604e-04,8.442435742035961843e-04,-3.964305869094623090e-03,6.564393043518066406e-01
8.418756153294867928e-02,-5.696126980063307421e-01,5.886351388813809704e-02,6.338106995082745838e-03,-8.776860510258726808e-03,-1.306939398946672373e-03,6.417912244796752930e-01
7.077960001564656545e-02,-5.364822172426664260e-01,5.878410209186715751e-02,6.862222228710181289e-03,-8.166654350939443058e-03,-1.324226836687404131e-02,6.020746231079101562e-01
7.478199554404590943e-02,-5.532467415066775196e-01,6.297308324107819821e-02,2.348684857853384003e-03,-1.353686697988388220e-02,-8.556345721239054514e-03,6.228395700454711914e-01
8.294764553091915626e-02,-5.801528290853336101e-01,6.188656318301777315e-02,3.856913520305418550e-03,1.167335151512029082e-03,1.406693568767142417e-03,6.528666615486145020e-01
8.125710150119450081e-02,-5.712072740908520352e-01,6.535233995718212063e-02,8.172258567131312351e-03,-5.959043108566185361e-03,-4.501679810203289625e-03,6.449442505836486816e-01
6.323179353267990854e-02,-6.129130105147057028e-01,5.236998264704231798e-02,2.723909663864656008e-03,-1.769586058041852303e-02,-2.730149002870336638e-03,6.715129613876342773e-01
8.409179385701323617e-02,-5.971898817190665065e-01,4.565377915187571189e-02,-9.633807456096462121e-03,3.299539495460183068e-03,1.282470647971731617e-02,6.635055541992187500e-01
5.339740226842901172e-02,-5.870060808428969601e-01,2.817281157917977952e-02,-7.590787489417075325e-04,-2.596821764154855910e-02,-6.953761133386473885e-03,6.298958659172058105e-01
9.919529109011954171e-02,-6.150475886114366020e-01,2.429458472485993004e-02,-3.175864484783155490e-03,4.117641506634369883e-03,-8.310590532792122564e-03,6.801059246063232422e-01
5.059922879821221464e-02,-6.503298297731447963e-01,7.818414407241242037e-02,-4.597570462335769971e-03,-3.487898704783042730e-02,4.794363252020577421e-03,7.177600860595703125e-01
8.518278089581518553e-02,-6.037584590662266049e-01,5.405274832736148283e-02,-1.017347669906155765e-02,-1.052564330599248038e-03,-2.514810694900524411e-03,6.741625666618347168e-01
6.183152936508867770e-03,-6.567660051866215376e-01,1.038717994178879334e-01,-2.363889581775001358e-02,-6.960265226957319806e-02,-2.214924063292205564e-02,7.290329337120056152e-01
-2.334450883189653769e-02,-5.816616703538957101e-01,9.285523981829602036e-02,-3.770291650642786443e-03,-4.351367024445914472e-02,9.976560167312047232e-04,6.291444301605224609e-01
1.231860696394820875e-02,-6.531575986113278276e-01,7.646763704216330559e-02,-2.491359432083609451e-02,-7.258084836799927331e-02,-1.924875477130115822e-02,7.130504250526428223e-01
2.646661369153723853e-01,-8.961031357328270719e-01,-2.497698041349175058e-02,-7.403709505312114358e-02,5.966680412690906002e-03,1.239859050310889305e-01,1.075982570648193359e+00
4.870650348920962935e-02,-6.299595440942861169e-01,9.904668730942772781e-02,2.151458162153480416e-02,2.713411267110482986e-02,-6.026814790346271544e-02,7.153880596160888672e-01
4.064577082601908420e-02,-6.027833538098590349e-01,5.998663794079864275e-02,-6.178364586806634959e-03,4.439272252033278632e-02,-1.223732105931398494e-02,6.582518219947814941e-01
2.556589966740718811e-02,-6.030706040774809207e-01,9.500154851488840091e-02,-8.388570050079773369e-03,5.403767528591368191e-02,-2.013856037178193142e-02,6.736786961555480957e-01
7.356662090492205319e-02,-6.292969177273577408e-01,6.190411958215757959e-02,1.857318975726275981e-02,2.977646500276305563e-02,-2.104887683640044652e-02,7.006996273994445801e-01
3.733671584783632147e-02,-5.635016919196972340e-01,7.659914217990082541e-02,4.099951218059108104e-04,1.221229340432176784e-02,1.056861186943267895e-02,6.220303177833557129e-01
7.205380154607046728e-02,-4.961708323299895418e-01,5.186051716952416735e-02,-7.998238156163410550e-02,1.648495876613960062e-02,3.070672657011948997e-02,5.784878730773925781e-01
6.254431725241590967e-02,-5.413876736089079378e-01,5.559479563201874530e-02,-4.586140447392361708e-02,1.805140482844567670e-02,2.961747802413011721e-02,6.086904406547546387e-01
4.463511363149355593e-02,-4.506690089340964489e-01,3.917992121632854485e-02,-5.751062664248467182e-02,-4.275150408664410602e-03,5.791976548365159599e-02,5.125380754470825195e-01
5.046725701290666333e-02,-5.965368307952441107e-01,6.427351152897287090e-02,-3.302955699075493020e-03,3.374185037082905875e-02,-1.957661907759860459e-02,6.575223207473754883e-01
4.738694413771335490e-02,-6.121646224920087587e-01,7.272445389750004097e-02,6.186993264737200918e-03,2.719016301169784738e-02,-2.388445019464943003e-03,6.743230223655700684e-01
8.022369396563011623e-02,-6.551723834474064700e-01,7.163460007849378752e-02,-7.168526127843195817e-02,1.896467115628809597e-02,2.540568902716222946e-02,7.436373233795166016e-01
5.873684073208179646e-02,-5.875534911314403974e-01,5.892997380737283186e-02,-5.826169664181778986e-03,3.110466282407834196e-02,2.203172167140066747e-03,6.487179398536682129e-01
7.274073606501646472e-02,-5.088553981529808645e-01,3.617245975694327598e-02,2.118507446886674569e-02,-7.408632268824739443e-03,6.439012992828119231e-02,5.764309763908386230e-01
5.101060301724494317e-02,-5.317144327073066723e-01,7.590102790514480224e-02,2.378258576472571783e-03,5.108547954519742501e-03,2.350741204049557401e-02,5.970304012298583984e-01
9.444783466214073941e-02,-5.281622070858569273e-01,2.848154629129168169e-02,1.774621311717781633e-02,3.877920924772708909e-03,7.811239755623239356e-02,6.084554791450500488e-01
7.610301638190283824e-02,-5.900004992875915732e-01,5.996031945109978056e-02,-2.835408466807197696e-03,7.403525386444445230e-03,3.182144748001329571e-02,6.606270670890808105e-01
9.040755190464408453e-02,-6.046066123391488079e-01,3.865061912813505529e-02,1.093931380582713504e-02,-4.159641575275447450e-03,1.696598946526619092e-02,6.715847849845886230e-01
6.732517632645407257e-02,-5.772468668621548726e-01,6.982975734618923624e-02,-1.516040450779592656e-03,3.259433646509619659e-03,1.321038443265804864e-02,6.462631821632385254e-01
6.505126232375391115e-02,-5.791801454379086334e-01,8.169695720235234382e-02,-5.800064059246214879e-04,8.286058830850378740e-03,1.303279710357563466e-02,6.532621383666992188e-01
5.872184658013726577e-02,-5.530114251365292333e-01,7.993679910300954816e-02,1.687483142087105412e-04,1.366106304115108534e-02,1.127014018734518244e-02,6.233671307563781738e-01
6.636384574666157055e-02,-5.566013961614024730e-01,6.188934888492580999e-02,3.014119038825205724e-02,-8.946988248685033840e-03,3.020539026194881196e-02,6.253166794776916504e-01
5.624169394822162160e-02,-5.038499471642142735e-01,5.858974785545056907e-02,3.058050235583747653e-02,1.193302984522453744e-02,4.750761407374150258e-02,5.701112747192382812e-01
4.602180542745956671e-02,-4.996447776384473904e-01,7.421175960364237434e-02,2.607834495939827940e-02,2.202819900908134856e-02,6.963935460161051194e-02,5.761717557907104492e-01
6.468226502430438063e-02,-5.363842561610885351e-01,6.377501401857588181e-02,4.814018504511117548e-03,1.590021068802762241e-02,2.206927627894547661e-02,6.025160551071166992e-01
6.846933936492444195e-02,-5.843780020496835981e-01,8.043503039088001350e-02,-1.876937339683839613e-03,-5.950180281221186321e-03,8.392225759768161264e-03,6.591605544090270996e-01
5.520039339838883619e-02,-5.386541139445933934e-01,7.602698704192889512e-02,2.671676490254512044e-06,-1.155955494417819536e-02,5.867254898731012053e-03,6.049537658691406250e-01
5.604798039668718035e-02,-5.468500906534339290e-01,8.363215373350271764e-02,-5.725365219434392153e-03,-8.044797584610876434e-03,-2.952864572601489584e-03,6.174107789993286133e-01
5.605660375478521695e-02,-5.562670126034737761e-01,8.144470142297019488e-02,-1.095273678336063658e-03,-8.002626289645703786e-03,9.790804074646131464e-03,6.257905364036560059e-01
5.095424896715902707e-02,-5.548823077882666377e-01,8.926901113140037203e-02,-7.173005266889373975e-03,-8.552669889229489245e-03,1.402030146793473500e-02,6.266434192657470703e-01
8.137630240342472177e-02,-5.310035621317015231e-01,4.717900731465768382e-02,1.213797762021433073e-02,-8.503214540349624678e-03,-6.016373901847510072e-03,5.966609716415405273e-01
6.210927831925669440e-02,-5.729389599729770577e-01,8.412463078351231638e-02,-1.239311768142649546e-02,-6.550633008537602199e-03,9.374262323381687273e-03,6.469967961311340332e-01
7.337927222749363043e-02,-5.603611257383971367e-01,6.021573629226420477e-02,-1.899805772490457847e-04,1.157565558179305017e-02,-5.947722889258653597e-03,6.276671886444091797e-01
7.540100707302779814e-02,-5.812573077735524452e-01,6.616480502256011365e-02,-3.066989287629327040e-03,8.752839989801813533e-03,-3.886164278313142609e-03,6.523218154907226562e-01
7.159390688704567185e-02,-5.485321318972607996e-01,6.153990034411122023e-02,-1.625605689649520583e-02,1.115862678145858322e-02,-6.765253656260932467e-03,6.162193417549133301e-01
7.593662597922165580e-02,-5.878968492012752733e-01,6.772170145411740561e-02,-1.025962946883775219e-03,5.821787247578352927e-03,1.764149290776172033e-03,6.598508954048156738e-01
7.645571292001443475e-02,-5.936189249555806624e-01,6.890728188598010950e-02,-2.440033381277770946e-03,5.807289102288431398e-03,1.253205220052460702e-03,6.664253473281860352e-01
5.990747349462371973e-02,-5.758586849967159971e-01,8.727614069702877009e-02,-2.945778740310676502e-03,-4.487707621683332052e-03,1.815333148205114031e-02,6.507094502449035645e-01
6.913248318428147354e-02,-5.836522589021858609e-01,6.962441343572073338e-02,2.059952716598767859e-05,5.838136091316299854e-03,-4.893120308845919694e-04,6.531096696853637695e-01
7.173519731688582368e-02,-5.876738925249310741e-01,7.105970898417429682e-02,6.618566445440799903e-03,7.741029499228078113e-03,6.529878428751340232e-03,6.594046354293823242e-01
4.816346611935656830e-02,-5.631497248078966011e-01,7.268302893520217633e-02,-3.013426291293479567e-02,-1.802885011947969948e-02,-1.070862983058635393e-02,6.271662712097167969e-01
8.560052355275618585e-02,-6.048580700171597435e-01,6.149312604047771358e-02,-4.373622823591922365e-02,1.166272585695223366e-02,-7.762064225720499699e-02,6.963408589363098145e-01
6.080185676003110884e-02,-5.729005419256629761e-01,7.712170711906124465e-02,-3.038075771280376695e-03,7.515452275068780844e-03,-7.651583836509799792e-03,6.423081755638122559e-01
7.130645354048056883e-02,-5.953613097788789110e-01,8.178150667403003005e-02,-2.010265751670040416e-02,-9.847036909291628087e-04,-2.593685443613776009e-02,6.743682026863098145e-01
4.503027184174185349e-02,-5.080854846134409408e-01,6.710476393103706472e-02,-3.671804819300750482e-04,1.002382113625378623e-04,-9.288877921504864674e-03,5.647064447402954102e-01
6.393554581438107287e-02,-4.526210427136326819e-01,3.975451377282621102e-02,-4.354212845824568384e-02,-4.247399069845014113e-03,-6.310088484195730540e-02,5.221222043037414551e-01
7.426727095192051098e-02,-5.625228329541305250e-01,3.960907591668796912e-02,-2.879215107399349730e-02,-1.527694853169340658e-02,-9.875087460719481069e-03,6.229867339134216309e-01
7.641214410306121363e-02,-5.657537059405308710e-01,5.492682193549747183e-02,-7.055807054487839465e-03,2.617609921467372799e-03,-2.377115283489906680e-02,6.331718564033508301e-01
5.580045931415983373e-02,-5.222988189419056626e-01,6.167842136233842032e-02,-9.062776363941434099e-03,1.276127921532889571e-02,-9.897485416727972579e-03,5.819451808929443359e-01
5.418245882519590051e-02,-6.011598365706676272e-01,7.206128248511825540e-02,6.158760893298061492e-03,-1.536116722499092195e-02,-8.587990342740317237e-03,6.652464866638183594e-01
6.717349200333075365e-02,-5.950706831317770229e-01,8.011161592163409950e-02,-2.087052946705790502e-02,-6.487368687027965635e-04,-3.080329768319108041e-02,6.719058752059936523e-01
3.353907911078232718e-02,-4.336634067720499530e-01,4.914441466355190524e-02,-5.765980305371654069e-02,6.361257182344409039e-03,-3.565477122313658043e-02,4.896138012409210205e-01
5.652822697969281385e-02,-5.916289892670918427e-01,7.219578783083385742e-02,4.383676874213470256e-03,-1.247687881895781481e-04,3.284393129472425437e-03,6.561999320983886719e-01
9.115273592263339886e-02,-5.507855733526363373e-01,4.923314541111178944e-02,8.654023544848768804e-03,-5.578213640017661533e-03,-8.030947015002395896e-04,6.222959160804748535e-01
6.900947837550416852e-02,-5.732612142849569103e-01,6.491721605783010163e-02,-4.502088742178942012e-03,6.602996111422325225e-03,-1.135014931175116126e-03,6.403869986534118652e-01
7.798252159178664655e-02,-5.983052628911713633e-01,8.754707260256472390e-02,-4.890045177137659210e-02,-1.967817400186604084e-03,-2.108920992351846421e-02,6.873461008071899414e-01
5.858423130773232623e-02,-4.644383229990299844e-01,3.872110058564018353e-02,-4.837826759945883237e-02,-7.380459427868672371e-04,-1.683781282017264439e-03,5.201824307441711426e-01
6.907054840956208808e-02,-5.897616475520686130e-01,6.967772622909834679e-02,-2.256878140615518544e-02,8.246004660719985155e-03,8.579305300998957490e-04,6.604502201080322266e-01
3.330619987409125238e-02,-5.944289651515652917e-01,7.150846003963967634e-02,6.380561417341434720e-03,1.025621799471486406e-02,-6.667329631045790760e-03,6.481225490570068359e-01
8.173747432091688081e-02,-5.412326721287372688e-01,4.667705281131348527e-02,-1.809477686085309706e-02,5.148732093846165696e-03,-7.321650100209695436e-03,6.072084307670593262e-01
1.032898451417229579e-01,-6.047239145631478907e-01,1.603633943739538048e-02,9.953784908921293507e-04,-3.530148045678441811e-03,7.757404677996445307e-03,6.688354611396789551e-01
1.230147015034775415e-01,-6.076919412502052031e-01,-2.811851043355756419e-02,5.413752097893291537e-03,-2.514235048556002182e-03,1.350169080673589879e-02,6.685754656791687012e-01
1.087391012840894233e-01,-6.019592260781988502e-01,-3.372920264440532057e-02,-1.197969640093054903e-04,-3.040396273049446318e-02,-5.642499531503979322e-03,6.534570455551147461e-01
1.130842166230051071e-01,-6.095695239682636934e-01,-1.300560925633792442e-02,1.178584977686599313e-03,-1.383560946950603172e-02,1.222041883773228831e-02,6.693536043167114258e-01
1.053742939173145099e-01,-6.002974018834659198e-01,1.052782761487736085e-02,4.349183343511438433e-03,-1.252110137655842656e-02,-1.194950867681712249e-02,6.640733480453491211e-01
1.921194986534874305e-02,-4.207261049475418124e-01,5.683510127936208800e-02,1.167633309528007431e-02,7.695397030312114452e-03,4.222253312536169978e-02,4.663129150867462158e-01
4.993886547591011582e-02,-5.326445461565467721e-01,8.208062613661903928e-02,2.889215962254669274e-03,3.801053286799798737e-03,2.260499983326264006e-02,6.006355881690979004e-01
6.995659787572375277e-02,-5.791699686997959784e-01,6.929770905010171345e-02,-2.703221513748022865e-03,-2.421991480413923127e-03,1.396098759245178794e-04,6.488278508186340332e-01
7.062540280935569736e-02,-5.798216152087413144e-01,4.969697155708424630e-02,-4.656011960071922834e-03,-7.917376290373465131e-03,1.896224940924706270e-04,6.404371261596679688e-01
4.574376174779265503e-02,-4.386635768665808066e-01,4.901820549064644927e-02,4.668383639627556037e-02,2.628758139098641162e-03,7.231597705209640015e-02,5.084240436553955078e-01
5.484416879827094804e-02,-5.036633931278635679e-01,6.146938023053355460e-02,3.623251684560363506e-02,2.215449388950500864e-02,2.574344601467165247e-02,5.683958530426025391e-01
3.387294171073101934e-02,-6.357608247711926674e-01,5.955983766821168479e-02,9.404063248474049327e-03,-6.728438601564812327e-02,4.490295929464457707e-03,6.929483413696289062e-01
1.602128374606998085e-02,-5.928414979322971234e-01,9.140543335164036387e-02,-1.033940933928301567e-02,-1.822768185606303895e-02,-3.141249045450887883e-03,6.508781313896179199e-01
2.185346221635553476e-02,-6.020206069594893350e-01,6.659174029249034787e-02,-3.283862975273943875e-03,-7.398206064029880236e-02,-4.455111149053010006e-02,6.644834280014038086e-01
5.687875583117635303e-02,-5.865491286341076860e-01,6.401355816970510926e-02,2.848434608738531319e-03,-1.022529824228448313e-02,2.853326122890805817e-03,6.473048329353332520e-01
-1.791551290283122100e-02,-6.550640312671360821e-01,1.409462566341055378e-01,1.311234898703825952e-02,-2.655124229804374514e-02,-1.381404852211225165e-02,7.318586111068725586e-01
-8.372660105638113359e-03,-6.874320588030065071e-01,1.427668405847914990e-01,2.638779608864318116e-02,-4.561436341669265759e-02,-5.259253619439692440e-03,7.713698744773864746e-01
-1.702644998747748772e-02,-6.642773809147374253e-01,1.485874286180245418e-01,7.779404402849512609e-03,-3.795811334980471463e-02,-2.299282223929401472e-02,7.480945587158203125e-01
-1.060552848093232470e-02,-7.320206077305928538e-01,1.541381702291054756e-01,-4.368085433516279842e-02,-4.515389002114145872e-02,-3.147718270496675796e-02,8.253737688064575195e-01
-1.062011667682311034e-02,-6.864335841803550498e-01,1.431369119410346724e-01,-7.112975313328645912e-04,-2.783008473102604671e-02,1.013575701759249909e-02,7.661001086235046387e-01
1.980332970583065233e-02,-9.671674122779481131e-01,2.001629763306703724e-01,5.544734373341406869e-02,-4.959707835391392872e-02,8.159676494974424377e-02,1.105091571807861328e+00
7.986319660844212742e-02,-5.510265707549177883e-01,5.786480792397313833e-02,7.219900185363296342e-03,1.344627033187007978e-02,-8.071500833179159028e-04,6.207479238510131836e-01
8.107814642334251753e-02,-5.770850033398682299e-01,6.410669762650944570e-02,1.455422426015902208e-02,7.368778994612539338e-03,-7.583433987149757220e-04,6.504589915275573730e-01
6.755048360695373177e-02,-5.172961742178746603e-01,5.406834124788106877e-02,2.198485142887486588e-02,1.349141539354018274e-02,2.907181347661460732e-02,5.821288228034973145e-01
8.632094878116688963e-02,-5.478598704386974383e-01,5.361416666626525607e-02,1.244533184371575917e-02,9.850484116499502382e-03,7.930504413998302332e-03,6.192394495010375977e-01
6.914719098663663077e-02,-5.320344942621373363e-01,6.183990050352364265e-02,1.467121825555691914e-02,1.596251958083115888e-02,4.335643938921991507e-03,5.987873673439025879e-01
4.008602979772091235e-02,-6.041967384629491900e-01,5.872280932726720026e-02,4.513752454918485042e-03,-2.381273962608990505e-02,1.524397728646715092e-02,6.556785702705383301e-01
3.852571665554452296e-02,-6.410234819298389342e-01,3.127810145209128367e-02,2.704232788138730831e-02,-8.984368376490885211e-02,3.655013654299372333e-02,6.980915069580078125e-01
4.681189458179768614e-02,-6.744554280510626221e-01,7.106129251906395661e-02,5.789215539887913875e-02,-1.122774482132066903e-01,-6.918276956419580626e-02,7.749431133270263672e-01
8.173100973207494957e-02,-5.768255630379340859e-01,6.894568963519898119e-02,-5.551271706350434723e-03,-7.322304841476845634e-03,1.188729068656927280e-03,6.524552702903747559e-01
3.853640099729724322e-02,-5.843320930797710755e-01,5.782519340453992629e-02,-1.960956800350313503e-04,-2.248858579032569915e-02,2.533228195636220981e-03,6.339465379714965820e-01
7.420850699190653654e-02,-5.922533036708250709e-01,5.447643711480243400e-02,5.809524204925219093e-03,-2.590465949193359024e-03,3.707577681967020276e-03,6.569418907165527344e-01
5.905866224145606136e-02,-5.818341806343449996e-01,5.907675294837966273e-02,-7.340127716047029072e-03,-1.007351232716702932e-02,-6.904674913941760347e-03,6.413769125938415527e-01
6.024937528328247471e-02,-6.004617036256474361e-01,4.999417858349181065e-02,-1.178296668977989875e-02,-5.569460116715644477e-02,3.022006712897927581e-03,6.630370616912841797e-01
7.636471158766616751e-02,-5.677829674330634457e-01,5.272700626327694873e-02,-2.676027808329540028e-02,-2.837966986955589230e-02,-2.405298859914840881e-02,6.376197934150695801e-01
5.952129922351229174e-02,-5.881423316725922223e-01,6.490477278895967483e-02,-9.119191064088269863e-03,-1.241674691838021323e-02,1.208118440238841905e-03,6.509225964546203613e-01
6.383556554307165398e-02,-6.144182070339895274e-01,3.875112455347290430e-02,8.132057901397350685e-03,-3.884357850152050234e-02,4.675889507738097139e-03,6.696523427963256836e-01
1.152129956915763920e-01,-9.565911004277539709e-01,1.035564935675463705e-01,-2.819585704942109347e-02,-1.114860431503345850e-01,-4.864343385317807314e-03,1.084504365921020508e+00
7.074853950142931391e-02,-5.531845230335437069e-01,6.567489570204998461e-02,-2.030102368771647195e-02,1.313077111715399902e-03,2.082389717395430329e-02,6.234541535377502441e-01
5.009271561332528933e-02,-5.459963302104884342e-01,8.541641835828697737e-02,-1.174227306152367603e-02,-6.223569319595485469e-03,1.814554236889905775e-02,6.157463788986206055e-01
3.842203844090472109e-02,-5.061916057468964780e-01,7.811522089746031350e-02,8.850106376424140067e-04,-8.323213746454526107e-03,1.582379753297610825e-02,5.663553476333618164e-01
6.341449095847007111e-02,-5.515243643085112613e-01,6.287900312372812772e-02,-1.122932764222903806e-02,-2.318635102648259130e-03,4.258442126636087510e-02,6.193993091583251953e-01
7.500509308683017684e-02,-5.896451323873398431e-01,7.112419092142052701e-02,-6.317302979146386700e-03,-3.081898842339663314e-03,-3.270472147547448180e-03,6.628543138504028320e-01
9.973838536648171882e-02,-5.967773424861914089e-01,1.277775233669981025e-03,-4.514952823412581202e-03,1.858652438718691111e-02,-4.999047115740977952e-03,6.537750363349914551e-01
1.019483030022003134e-01,-6.081330880173040354e-01,4.169450272575353500e-02,-2.696240131995000788e-02,3.235749484313183572e-02,1.043057787512884776e-01,7.092404365539550781e-01
1.080477695891969847e-01,-5.808977456839781173e-01,3.648064399722752982e-02,8.296441654617719291e-04,1.850941672683868071e-03,8.606306016319308083e-02,6.728259921073913574e-01
7.041298533759246525e-02,-5.182017617626143435e-01,6.762894676115352444e-02,-5.127158130827006582e-02,1.134511803601833020e-02,1.687693219791829013e-02,5.949481725692749023e-01
6.194750260543746556e-02,-4.906158544280003198e-01,4.646208249396710510e-02,8.166187845389807909e-02,1.876533480271901783e-03,3.971299064616192614e-02,5.672365427017211914e-01
7.578541338402366989e-02,-5.778458391025109719e-01,5.020636527012428685e-02,-5.666519348630702502e-03,-1.457720215474903134e-03,-2.608444875294947327e-03,6.413204669952392578e-01
6.558772129397252848e-02,-5.747916140550302089e-01,7.103448583760815782e-02,2.327170604605422605e-02,4.815550770327430355e-03,-2.202353292612363456e-02,6.455639004707336426e-01
6.254244306280734578e-02,-5.384538803473624125e-01,5.701316651071811070e-02,2.042170550036541757e-02,3.951849486235309294e-03,-9.970853308220398864e-03,5.995834469795227051e-01
8.080018778677444669e-02,-5.974645670684735066e-01,6.974356454582850140e-02,9.107762531296724473e-02,-1.327745726059791423e-02,-4.969469727494491007e-02,6.967703700065612793e-01
6.224447111393627274e-02,-5.440411666366047339e-01,6.251722565023690170e-02,2.359850085461532784e-02,6.024974133702962328e-04,-2.170174293647862511e-03,6.078104972839355469e-01
6.028834855560674666e-02,-5.874137985173637500e-01,7.962489848498532918e-02,3.956360476518477193e-02,-1.923071143196623334e-03,4.316169243027793978e-03,6.611952185630798340e-01
3.010367003292807597e-02,-5.779674178818139385e-01,8.665122089851609588e-02,1.574586568870010167e-02,-5.908507104518493161e-03,-7.144627398048625060e-03,6.390106678009033203e-01
4.700545922594515091e-02,-6.086588888242662199e-01,1.390361890548108548e-02,1.385505640094850804e-02,-7.785780207441325707e-02,1.437318108314698632e-02,6.547281146049499512e-01
8.841729401564529800e-02,-6.247695426645597516e-01,3.645926443786356996e-02,-6.231006313978549628e-03,-3.604180024776247604e-02,1.495441489196610088e-02,6.920720338821411133e-01
8.676026853062263067e-02,-6.038901534019267547e-01,5.433071827999316761e-02,-2.055791035863302821e-02,-3.309754298777565010e-03,-1.583264990128515140e-02,6.765389442443847656e-01
8.946780066309872881e-02,-6.010147526461336875e-01,4.894729611409120995e-02,-2.780660806185664136e-02,-1.807102959498567071e-02,-1.409785061923076246e-02,6.740362644195556641e-01
7.546210609311337913e-02,-5.905329820275795338e-01,6.877169964838239502e-02,-1.166506443422507793e-03,-2.326369428920514130e-03,1.415062101468652841e-03,6.626950502395629883e-01
-1.053898218237525608e-02,-5.823093862449573166e-01,9.719852489374108950e-02,2.453878215221112769e-02,-2.977221106048110952e-02,-1.521545544938806822e-04,6.360782384872436523e-01
2.588572197755598103e-02,-6.430923648987111330e-01,1.071268162334519936e-01,4.701631305364603608e-02,-1.177227723743774768e-02,1.594543399140825948e-02,7.185335159301757812e-01
5.094415715569414194e-02,-6.304251954569701777e-01,9.830627767897531788e-02,2.895902283595921944e-02,-3.601671674412743399e-03,-2.118794431608035135e-03,7.080584168434143066e-01
5.109828020577936170e-02,-6.074248681926759375e-01,7.120097005932779499e-02,1.603314185096512204e-02,-1.582733357541999536e-02,1.916337133017999989e-02,6.707602739334106445e-01
3.449147763604940020e-02,-5.416166516405156450e-01,7.361725548168207567e-02,3.487263601532138851e-02,-2.906750604994765355e-02,3.614610057782420560e-02,6.050411462783813477e-01
4.197908119979740227e-02,-5.746115918345109375e-01,7.627276519075371075e-02,1.551951368638245128e-02,-1.203914759483806253e-02,-8.405566437136208907e-03,6.355113387107849121e-01
4.643537857223659082e-02,-5.797876740165486265e-01,8.086705546499112218e-02,2.332690619551419653e-02,-4.667195922602948750e-03,8.776152063577071297e-03,6.456249952316284180e-01
5.666416647063590717e-02,-5.965774747549494883e-01,7.804992975887770079e-02,-3.476974937170902377e-03,4.034422888483772847e-03,-8.621440864382663716e-03,6.644246578216552734e-01
6.868762185330876124e-02,-5.888680487421791288e-01,6.987958632841098638e-02,-4.746706815649851322e-03,-1.711529666026123404e-03,-1.282854047663699749e-03,6.582142114639282227e-01
7.636058355231864492e-02,-5.800529972506497378e-01,7.116049871756169320e-02,-9.633569449878467625e-03,-5.018940535119222751e-03,5.129534080376959258e-03,6.541600227355957031e-01
7.254952852902105120e-02,-5.752720831809710056e-01,7.394292435843335953e-02,-7.171212649565011747e-03,-1.144909374641535187e-02,-1.222778697976978238e-04,6.489414572715759277e-01
7.549607709435166014e-02,-5.973805085655635727e-01,7.584738181880085195e-02,-7.600534020876278940e-03,-7.164912993957028506e-03,5.581410234047345524e-05,6.732954382896423340e-01
6.339679893270741551e-02,-5.332779287260033252e-01,6.084899430672083276e-02,-2.639711393447047652e-02,-1.061277342745444059e-02,1.314808156824980728e-02,5.978745222091674805e-01
5.057981029808003570e-02,-5.895288802701394992e-01,6.685225520479654016e-02,-1.052742517592219693e-02,1.296009685287437090e-02,-7.723853017970107315e-03,6.491805911064147949e-01
7.063272056722530445e-02,-5.961207074678780415e-01,7.842987348759861144e-02,1.174924979858517175e-02,-3.008729271379015531e-03,-8.249807947717536019e-03,6.711670160293579102e-01
8.388145213268616285e-02,-5.435939434175725005e-01,4.707942038012749575e-02,1.999048907903711036e-02,-6.389328410732523188e-03,-1.146592578275596602e-02,6.113126277923583984e-01
6.657118472441847512e-02,-5.399566401727200482e-01,5.012076606063115003e-02,5.045254519546047561e-02,7.960705107825930688e-03,-2.713996687925824061e-02,6.067991256713867188e-01
4.674339218631809456e-02,-4.283738356362252198e-01,3.808712989464591026e-02,6.024715226452156958e-02,-9.945675493541457010e-03,-3.877490568194964099e-02,4.872319400310516357e-01
6.547637529510555443e-02,-5.325318343071540061e-01,6.160778087466536879e-02,3.134521733347155059e-02,-3.728123424167734644e-04,4.013248020684277717e-03,5.985913872718811035e-01
6.294807712294467339e-02,-4.528201198315917608e-01,2.876517463531305663e-02,2.963744811790643488e-02,1.012895322214572499e-02,7.107435665564856321e-03,5.026423335075378418e-01
3.631736643348112969e-02,-3.700008250175162439e-01,4.406040759916951544e-02,9.330776876767303551e-02,-3.468073213172025832e-04,5.600309759898743252e-03,4.410374462604522705e-01
4.551662342755363744e-02,-4.362883962532655979e-01,3.498510843341240406e-02,8.997895786326244594e-02,6.453396347650144915e-03,-6.992639648086209844e-03,5.017301440238952637e-01
6.794353083273355076e-02,-4.666722792833929434e-01,3.585341727962246261e-02,3.946684507400827213e-02,4.742226481815086845e-04,-1.195194192086774382e-02,5.242042541503906250e-01
4.303026635975729097e-02,-4.553118203939557351e-01,6.371007482034948821e-02,8.524967725333050528e-02,9.584434099513066373e-04,-5.950236802471323139e-03,5.300845503807067871e-01
1.127853372811306043e-01,-6.002978506609946141e-01,-9.322906677243253393e-03,-2.467679530415795019e-03,1.186479912886745716e-02,2.956943433602668165e-03,6.609020829200744629e-01
7.249366203443247114e-02,-5.890517547069697990e-01,6.908058274313236269e-02,2.197238236933096635e-03,-1.699711450103236438e-04,-2.969751966750850021e-03,6.598765850067138672e-01
1.236640300351031230e-01,-6.183934177005920851e-01,-2.166566605816616642e-02,4.096642265730881041e-04,-5.164563570718673328e-03,8.475399183977246412e-03,6.813391447067260742e-01
1.264965921880121247e-01,-6.103884874192690990e-01,-4.628223045173626704e-02,-4.808031519226232259e-03,1.696030299129830041e-02,-8.950107041502041935e-03,6.683611273765563965e-01
1.117564863209148940e-01,-5.983160736358785758e-01,-2.184129713839189080e-02,-3.111168373230164749e-03,-1.190759907133923101e-03,-1.854637184748857484e-02,6.544100046157836914e-01
1.124030894056902707e-01,-5.989174090522662031e-01,-1.136313217248965945e-02,1.321493153540501250e-03,-9.289789169821809078e-03,-9.274699147151833217e-03,6.586195230484008789e-01
4.947365003036871545e-02,-5.974228947243871435e-01,4.961542336597521419e-02,-7.563562863165799489e-03,3.927924347186376869e-02,8.011487923545363744e-04,6.506681442260742188e-01
4.803645712859269667e-02,-6.046361816053713589e-01,5.334151714248924758e-02,-6.773861028979365727e-03,3.075801983193681907e-02,1.661453048827540770e-03,6.576141119003295898e-01
5.890217594722033101e-02,-5.855936913644573805e-01,3.397517150196527336e-02,-4.498792719587549858e-03,1.306505384628719492e-02,3.363334336126067893e-03,6.328804492950439453e-01
6.635877241985688180e-02,-5.894126221018225475e-01,5.475916954506337975e-02,-7.564416017461478682e-04,1.734200169512824241e-02,2.828435360070220405e-03,6.507625579833984375e-01
7.142209529551907243e-02,-6.192672445563031092e-01,6.030936932076785828e-02,3.718300820595133848e-03,3.450458890854587318e-02,1.652971624467148432e-02,6.884276866912841797e-01
5.546593263479882019e-02,-5.884635719345865379e-01,5.479835870506954976e-02,-2.196470570597208651e-03,1.050676434358927165e-02,2.493242513655914792e-03,6.438789367675781250e-01
6.447702423910456337e-02,-5.512035751831876329e-01,6.531495382545815520e-02,-2.746048256554531330e-02,-5.384066333501263783e-03,2.242656573857952640e-02,6.192231178283691406e-01
4.631505257687268395e-02,-6.527306170082137760e-01,7.916665919243925931e-02,-1.163945892602639108e-02,5.915906913868163725e-02,2.026649545534683287e-04,7.236123085021972656e-01
5.606452596557184864e-02,-5.862316870046385686e-01,4.432233114979541866e-02,-5.224715653848467124e-03,1.953678702013790860e-02,2.678918789555821516e-03,6.374863386154174805e-01
5.405232190112790880e-02,-5.974539356929019496e-01,5.388343920623062111e-02,1.431645556989187247e-03,2.006175575690059484e-02,-6.723766551100684996e-03,6.524565815925598145e-01
7.074378385889024123e-02,-5.838313524675268207e-01,8.110513257743826032e-02,-1.264397407795301112e-04,5.331493886348575781e-03,1.656175127785110583e-03,6.598877310752868652e-01
7.541534750161907330e-02,-5.868125306485150183e-01,7.374765311562520020e-02,-3.441561582670330812e-04,2.300315080144142450e-03,9.951430034539942345e-04,6.614100933074951172e-01
6.737069279314053527e-02,-5.843698345347121403e-01,7.187050060305283372e-02,2.555792249202417255e-03,7.834664471340508371e-04,-6.326671348142002280e-05,6.540184617042541504e-01
2.445082869995609531e-01,-9.482297858146263581e-01,2.729800331116916112e-02,-1.073708775877897925e-01,1.027056701902273605e-01,7.184676183924162962e-02,1.136857986450195312e+00
8.749858352691147756e-02,-5.745531659689622206e-01,6.111963151963059615e-02,-1.062279749651694020e-02,-6.855059987849138579e-03,-3.479306692087400562e-04,6.496337652206420898e-01
7.180199489873564933e-02,-5.832674894572101865e-01,7.391464849468301623e-02,-8.087316235516741952e-05,2.238004517264135639e-03,1.135017807113032108e-03,6.561427712440490723e-01
7.379529812876114980e-02,-5.853320189517940975e-01,6.776426305239710568e-02,-2.376574447255527106e-03,5.055483620955620629e-04,-1.841431542378916880e-03,6.561538577079772949e-01
4.012709488186727569e-02,-5.826775344872106022e-01,6.134674448836624494e-02,1.203685257312205091e-03,-5.799844169891852502e-03,2.226839413084151075e-03,6.337757706642150879e-01
6.937991679329277850e-02,-5.845208631820389966e-01,6.975146776526741643e-02,-7.188814934954246370e-04,5.412388123751018512e-04,-3.199109830558296945e-03,6.541119813919067383e-01
9.399265476175272527e-02,-6.812034561151568690e-01,7.305695877711423925e-02,-9.350490703249428673e-03,4.279024999311181743e-02,-2.745364849831829698e-02,7.701652050018310547e-01
7.148081018403287801e-02,-5.869526655743964039e-01,6.998030176584077444e-02,-1.505495191499311557e-03,1.323073300762773921e-04,-3.642384842346266336e-03,6.577199697494506836e-01
6.708991991371840435e-02,-6.542568867278604205e-01,7.613389393835298669e-02,7.040459720275329394e-04,6.899719939130240232e-02,-2.290969946134602253e-02,7.367528080940246582e-01
8.928778587957286739e-02,-6.459062984951808861e-01,3.599470260707715585e-02,3.289877184472941776e-03,5.430850871086970177e-02,-2.475964595632553292e-02,7.175580859184265137e-01
5.951365037678651992e-02,-5.861421827241448668e-01,6.888424746924434738e-02,-6.289324623998903546e-03,4.262788355234323721e-03,4.463144364828534189e-03,6.505708098411560059e-01
6.613666418437269545e-02,-5.903377983481994384e-01,4.810942656791369898e-02,2.310819263936644222e-03,1.741051991499881213e-02,-8.749349805614389450e-03,6.485401391983032227e-01
7.099364760324133883e-02,-5.936740105611415519e-01,6.485163085306891451e-02,-4.740912841975852658e-03,1.983298005449126052e-03,-1.075429299082443198e-03,6.616805195808410645e-01
6.651671859721686175e-02,-5.882591451536300919e-01,6.875202203319588645e-02,2.675018084892750742e-03,1.468768636902013621e-03,1.650782893758619791e-03,6.559239029884338379e-01
8.954743553984231830e-02,-5.662802780445859163e-01,6.114664211326670262e-02,5.872267516555042255e-03,8.367797128174049234e-03,4.169481220086915761e-03,6.423832178115844727e-01
7.235750257232345661e-02,-5.898307621125314926e-01,5.165591915229944542e-02,-1.551847853270303494e-02,1.803118285650249022e-02,4.018166695938445859e-03,6.534215807914733887e-01
7.564059918664037263e-02,-5.900726548244950020e-01,7.194758530079639613e-02,-2.002443444178591495e-03,-2.279496443048916344e-03,-7.461468773786708499e-04,6.638965010643005371e-01
7.764222205300450041e-02,-5.870711527478600367e-01,7.106216095226888796e-02,1.080095963939423174e-03,-1.739879763643406270e-03,-2.170939694207736528e-04,6.614575386047363281e-01
7.123486270615550509e-02,-5.894847454032685619e-01,7.192743729106104711e-02,1.540793972188201407e-03,4.300698063529398148e-04,-3.265977550377431766e-03,6.610961556434631348e-01
7.292250869671126901e-02,-5.919966077502547552e-01,7.114735171647873502e-02,-3.130285437888415644e-03,-5.243342238788283212e-03,-5.953414988517560097e-04,6.641183495521545410e-01
-3.800646515407402060e-02,-4.132340545233870732e-01,8.744898059491337805e-02,1.294540891272450422e-01,-3.997431287341954298e-02,-8.100415321353592740e-03,5.087975263595581055e-01
1.306470313003210704e-02,-5.582942631276615053e-01,9.313764454013420679e-02,4.200496926420495269e-02,-1.321546265267808766e-02,1.502544811719380528e-02,6.205704212188720703e-01
3.163563153260823269e-02,-5.237539487891662571e-01,7.832995034041792537e-02,6.151961594334390965e-02,-2.404012007566499586e-03,8.775435548100623748e-03,5.900625586509704590e-01
-4.324235163915848834e-02,-5.824369767431155642e-01,1.478172014948473389e-01,8.229261446450758521e-02,5.463550735195780300e-03,3.556295948031777329e-04,6.713114380836486816e-01
-6.585843555271500560e-02,-5.861915874330210219e-01,1.592277254989269419e-01,2.396622324085780353e-01,-8.809879510674181388e-03,-5.065846598020166958e-02,7.866230607032775879e-01
-1.832551408826468831e-02,-5.923371983868774837e-01,9.856946123191911990e-02,1.710107775869913471e-01,-5.430174323540465364e-02,5.731882975852917173e-02,7.188110947608947754e-01
7.710930200776944243e-02,-5.891038569664441837e-01,7.158871150646331505e-02,1.669780647400663075e-03,-1.420848870784426066e-03,2.206853920580607994e-04,6.634810566902160645e-01
7.033877221101533794e-02,-4.985346896137730077e-01,4.172193563108370085e-02,-2.399183952702079597e-02,-6.789927928766775582e-03,4.189951195982613737e-03,5.568432211875915527e-01
5.037466905839518838e-02,-4.851471878537226834e-01,4.727484102497780949e-02,-2.775608219404629082e-02,-1.548679990195723187e-02,2.454328295495914955e-02,5.384896397590637207e-01
3.343356569471722661e-02,-3.762805852513840255e-01,3.303539410480155203e-02,-6.057647536928123522e-02,-7.930910195597185366e-03,4.894200669890050315e-02,4.313767552375793457e-01
4.293490632856575284e-02,-4.123671351698537380e-01,3.177187573954054489e-02,-5.812542764349255819e-02,-1.531845738744293944e-02,-1.285917412067747075e-02,4.622529149055480957e-01
7.219917079528043180e-02,-5.068643239926717836e-01,4.664920444415718292e-02,-6.761404230457410125e-02,-2.263395643218245237e-03,7.586199072933134425e-03,5.788568854331970215e-01
5.446361199116173113e-02,-5.194773715562767125e-01,6.128910971339129876e-02,-5.123005734394671384e-02,-1.516962377494747959e-02,5.773701590344582774e-02,5.932426452636718750e-01
7.143493339596049263e-02,-5.508631990407810708e-01,6.317495266448230895e-02,-3.103039954948071805e-02,-2.321213224478349026e-03,-1.237190819832712993e-03,6.205581426620483398e-01
6.944914214381134321e-02,-5.339272674844874889e-01,7.499837063464920295e-02,-7.423738529421634869e-02,9.852839959493040964e-03,3.130252041808930484e-03,6.199164390563964844e-01
6.546241719363052325e-02,-4.843826650042359350e-01,4.553285896730505100e-02,-9.275905692997850338e-02,-1.932630219277383212e-03,-8.959304832275374886e-03,5.637671351432800293e-01
3.021258956053032851e-02,-3.525825827211724328e-01,1.567007019405547430e-02,-6.076237167088018726e-02,-1.154278766737329778e-02,4.047796715404183843e-02,3.969485163688659668e-01
3.401591003296389193e-02,-6.736048997529262561e-01,9.588087752536028630e-02,3.112860563688796961e-02,-3.846675533533733260e-02,1.725285500319537549e-02,7.460364699363708496e-01
2.938001151647487430e-02,-5.828792861610715414e-01,7.135797038008506732e-02,3.934488305817242064e-03,-6.638335320262130600e-03,-7.139944021674265529e-04,6.344329714775085449e-01
5.449666271901193459e-02,-5.784360808426129985e-01,4.716783475345856513e-02,1.917569659414948688e-03,-4.535111393992007946e-03,-2.555531587414915746e-04,6.293582916259765625e-01
2.084966380217470605e-02,-6.186160863759746498e-01,8.408652653631681906e-02,-3.363544468169669260e-03,-3.294840111339946559e-02,-1.929291160581505203e-03,6.757625937461853027e-01
2.642459895829207817e-02,-6.861183070978478238e-01,8.630270681185842063e-02,-1.530917098680282563e-02,-9.347906889706067424e-02,-2.508460728505698678e-02,7.633965611457824707e-01
1.660275744068875903e-02,-5.638563513823547924e-01,7.357148411898248308e-02,2.953942503183758228e-02,-2.862299150859987790e-02,4.228248483392244191e-03,6.151222586631774902e-01
8.833859424134027361e-02,-9.180604229637848723e-01,1.326820341721196006e-01,7.288040650888628902e-02,-1.093023771587202375e-01,5.652203628841216687e-02,1.058674812316894531e+00
8.297054311213553079e-02,-5.874269995933495414e-01,2.603370021140749557e-03,-4.011588759747974019e-04,-1.892461560464777856e-02,2.459396613365368890e-04,6.348928213119506836e-01
7.798176381282298508e-02,-6.135098971956578495e-01,2.106695940216044005e-02,-4.362695498414200304e-03,-3.029757680225314553e-02,-6.502641319599775441e-03,6.670694947242736816e-01
5.298491019973214367e-02,-5.923551352589302432e-01,5.890802302774450494e-02,-5.080781692647427621e-03,-1.358888740207731156e-02,-4.002228359866099629e-03,6.488457322120666504e-01
5.666071162404850980e-02,-5.908881863650334854e-01,6.718211460512918398e-02,7.402310040209531504e-03,-5.518481055770147609e-03,1.021328336119477036e-02,6.533085703849792480e-01
8.543820955764971914e-02,-5.332240687379963262e-01,5.521477573258576355e-02,9.967748364617548193e-03,6.262178558941658771e-03,9.699528992427260132e-02,6.273741722106933594e-01
6.814245878709970783e-02,-5.871074483059912641e-01,7.872858879838548485e-02,-1.059830932047330088e-02,7.128575599671871030e-04,3.131555191058314064e-02,6.630848646163940430e-01
8.882575660857028321e-02,-5.869471881538621538e-01,9.036095329612997551e-03,4.085348022553467705e-03,-2.481007991492616832e-02,3.621860399897137983e-02,6.441644430160522461e-01
6.748078757713435460e-02,-5.893921077909456407e-01,7.430592808738750721e-02,-3.862010322763941364e-03,2.007951522318283250e-03,3.596171439777620660e-02,6.632860898971557617e-01
4.626127944052313423e-02,-5.778981740306889936e-01,4.906468359917853794e-02,-9.384479707729440415e-04,-1.180059427075278583e-03,-2.512133361384287999e-04,6.255714893341064453e-01
1.241502825438042801e-01,-5.878678474251002317e-01,4.563428460921864493e-03,7.574437006030827584e-03,1.433117378863109966e-03,8.831155137220651763e-02,6.780102252960205078e-01
9.898869096378182242e-02,-6.054354666594017331e-01,3.004201064126332810e-02,-2.504611485400844509e-02,-4.413717181501745218e-03,6.259055812353575554e-02,6.827096343040466309e-01
5.810149757458790698e-02,-5.858421640627056171e-01,4.250667970175020516e-02,4.242113817532896375e-02,-4.259011038779598329e-02,3.928861395300833892e-02,6.483329534530639648e-01
5.504584602374784641e-02,-5.397365204715409703e-01,6.569615978259035760e-02,5.954295763586466700e-02,-2.057556879090630120e-02,5.681606529477792322e-02,6.179032921791076660e-01
7.279265984184235538e-02,-5.732853001592730369e-01,6.975691163583844223e-02,2.542090117231425236e-02,2.899149841074410809e-03,3.765432467615585643e-02,6.493704915046691895e-01
5.728453614578776776e-02,-5.962160793170202533e-01,6.976311691389425196e-02,3.654098849626498391e-02,-1.023319705854163972e-02,2.895167065029902523e-02,6.649872064590454102e-01
4.760048323001370152e-02,-4.921595408303546804e-01,5.406383264117425869e-02,8.124173578392131223e-02,-1.534228384717523271e-02,2.842091770563159869e-02,5.637387633323669434e-01
6.230539999886927638e-02,-5.808247804419566229e-01,3.466516374360376074e-02,-1.906595235297374761e-03,-7.628799956849010092e-03,4.431725325094662202e-03,6.299591660499572754e-01
5.795649466258084859e-02,-6.161181593143476576e-01,6.611339611194841370e-02,1.803514853612724978e-03,-3.414314609984564486e-02,3.301341965639804921e-02,6.831677556037902832e-01
3.906451851827399957e-02,-6.003973898555217126e-01,6.187462953886915806e-02,-8.974775068913950007e-03,-2.290762530784467427e-02,-7.020706435483966418e-03,6.526728272438049316e-01
4.003992934823000227e-02,-5.811975303908447632e-01,4.274159387733400539e-02,1.369557465883547865e-03,-2.096250092983335464e-02,1.348214443087104690e-03,6.236593723297119141e-01
1.416968489542690390e-01,-6.571831263298323345e-01,-6.184985015292160382e-03,-4.431531621907885271e-03,-1.913763159706154821e-02,6.632489312021004179e-04,7.369514107704162598e-01
1.525446825177274590e-01,-6.126297591978745460e-01,-5.478317191283162135e-02,1.633908656751468375e-02,-1.971975622307952855e-02,-4.129221650054485694e-03,6.869158744812011719e-01
1.592459532794763266e-01,-6.786745085220886597e-01,-5.581925476381482953e-02,-1.292145475772309322e-03,-4.221432562700811603e-02,1.487002404053668903e-01,7.999016642570495605e-01
2.256706837221632012e-01,-9.485365769450999629e-01,-8.332455541930156029e-03,-8.787828963357564860e-02,-1.925224229743651219e-02,1.345308307563947148e-01,1.112352132797241211e+00
1.256203203466638718e-01,-6.101601442959811994e-01,-3.747498115778374883e-02,-1.716002434120360992e-02,-5.210959113358924755e-02,3.949644837473824215e-03,6.760525703430175781e-01
8.663898659332613938e-02,-5.803107817647870093e-01,6.023435994407572158e-02,4.419443536340688337e-03,-7.231208082920910843e-03,-8.644378567300455398e-04,6.543136239051818848e-01
6.113686758615322070e-02,-5.389818959421859290e-01,6.261303724101674462e-02,2.117295559267710556e-02,4.613899280301296361e-03,-8.140671901214322284e-03,6.021944284439086914e-01
-2.572532239819874667e-03,-6.097393630608926030e-01,1.221678585524873517e-01,3.280104756970637914e-02,-1.432970085149506967e-02,-1.298250649397543130e-02,6.813951134681701660e-01
5.686177084938368043e-02,-5.279459602583044253e-01,7.226044459206032444e-02,5.271806669405603579e-02,4.808973196558429496e-03,-8.503624311870178545e-03,5.998886227607727051e-01
6.667066251360875828e-02,-4.550500891162426731e-01,3.886985234181275506e-02,4.858321988162121047e-02,7.820541350470156666e-03,4.007678496984846267e-03,5.155325531959533691e-01
7.718890991191518225e-02,-5.582076125389996424e-01,5.796865002736692474e-02,2.762727396173605618e-02,-4.867145056178948451e-03,-1.117288053728466950e-02,6.281886696815490723e-01
8.608663841646613246e-02,-5.324363102908893364e-01,5.803286825906145419e-02,3.267072846717738316e-02,2.420280904129070570e-02,1.086989836075703255e-03,6.090720295906066895e-01
9.106647490707553416e-02,-5.672038997436927854e-01,5.241742584062419885e-02,2.408570004213420046e-02,4.446028634481801606e-03,2.297953137296896223e-03,6.412391066551208496e-01
9.427813637896423349e-03,-3.552546340088953980e-01,3.255805339332504267e-02,-1.637418156434886779e-02,-1.120254039811467185e-02,2.179798013020786338e-02,3.802233338356018066e-01
1.483975715681012941e-02,-3.738471659823014992e-01,3.287920657939089053e-02,-7.685112642453910403e-02,-8.957359705273190351e-03,5.802947637514389856e-02,4.318285584449768066e-01
5.803813281518843681e-02,-5.700508313346184242e-01,8.997685722944137598e-02,-5.314435227567090338e-03,-4.135100174786312220e-03,3.510290901789981776e-03,6.447861790657043457e-01
1.691505349996356988e-02,-3.705762289224143191e-01,3.603106455390225893e-02,-6.623627010865404396e-02,-1.492391283950465081e-02,5.229158552991482189e-02,4.242114126682281494e-01
4.707934745570158119e-02,-5.977422628231210400e-01,7.686642420618547411e-02,6.837266687618646747e-03,2.768366960312114433e-02,-1.253951365288480738e-02,6.624202728271484375e-01
5.253140223943744691e-02,-3.219113155225913347e-01,-2.349222775567773314e-02,-2.949512120247113969e-02,3.613556483421501153e-02,1.095124748125583525e-01,4.000332653522491455e-01
4.165275409234936443e-02,-4.962638755077085628e-01,6.399510600469157651e-02,-7.706887789038817729e-03,-1.383356705819678567e-02,2.142120434493730713e-02,5.513625741004943848e-01
2.893635121084897621e-02,-4.431515465744845228e-01,5.905404440200037741e-02,-4.655642670472001643e-02,-1.165029638903486951e-02,6.248732730317013706e-02,5.065727233886718750e-01
5.010042782400103700e-02,-5.806786894061605198e-01,4.722491705158871067e-02,-1.851564366905377812e-03,-1.088174426449426552e-02,6.934430967372567358e-04,6.296377778053283691e-01
-3.171556905413361327e-03,-2.903955774235231213e-01,2.532953861056963518e-02,-3.720033480659062919e-02,-6.110014926843295238e-03,7.128382097699481612e-02,3.331724703311920166e-01
6.339370075515546321e-02,-5.842075441361731514e-01,5.977543022178410936e-02,-2.665480288023484965e-04,-3.751574446281621174e-03,3.488192516047825334e-03,6.458608508110046387e-01
2.166422344979895831e-02,-4.343160315951483108e-01,5.705154161910833133e-02,-4.722435715086287580e-03,-5.616246374454607164e-03,4.748181563648599252e-02,4.819037914276123047e-01
1.176127971739809319e-01,-6.028153110090905820e-01,-3.342867285772455066e-02,-9.413979337963866365e-03,-8.071661796564696956e-03,-1.183794939199241288e-02,6.587088704109191895e-01
1.120658308245907064e-01,-6.072738051289867656e-01,-2.054536798259359864e-02,-4.152770476287794867e-03,-1.620662371378301519e-02,-1.001837224933022769e-02,6.639153361320495605e-01
1.229452179266418699e-01,-6.946674685430591634e-01,1.598153439811697551e-02,4.837586236112503303e-03,-1.730998663083923791e-02,1.824338606489672374e-02,7.710022330284118652e-01
1.359255370294812360e-01,-6.732734640375219737e-01,-8.698990391712346781e-03,-1.145745227247566868e-02,-4.040811951977978794e-02,2.806171814712303883e-02,7.525582313537597656e-01
1.675641645959360937e-01,-6.455718969048191980e-01,-6.941168908546231642e-02,-2.795460647963881815e-02,-1.260194833686876723e-02,1.034887031399933377e-01,7.480673193931579590e-01
1.348542779325414553e-01,-6.069161259929813923e-01,-3.407234576071097032e-02,-5.085796252770884152e-03,-5.570046811233363843e-03,-2.570003156610365692e-03,6.735319495201110840e-01
1.879122039703018388e-02,-8.497084265113729051e-01,1.835007356633258091e-01,1.171524682948331952e-01,-8.391230599601313955e-02,4.265906457393094792e-02,9.961065649986267090e-01
1.535035856872861149e-01,-6.787191407045478631e-01,-3.258687604084947731e-02,1.843068568698615767e-02,-9.014297844298340551e-04,3.916899103707566915e-02,7.602497935295104980e-01
6.541857631216316249e-02,-5.613440196187762243e-01,7.259080367955494939e-02,3.106142322184237293e-03,1.183244835701065950e-02,1.247434832789983371e-02,6.311053037643432617e-01
5.449321029105039238e-02,-5.827821647184964204e-01,4.498863604587932663e-02,3.049366280288410939e-03,-1.026058960194589685e-03,9.563145962034062982e-04,6.326033473014831543e-01
8.818914321671295076e-02,-6.266914616373322477e-01,5.250861580853863342e-02,-3.265003200221323291e-03,-7.925616903540237332e-03,2.487261389327314470e-02,6.992112994194030762e-01
5.499245208999073431e-02,-6.197696523163209736e-01,8.210927398546299938e-02,1.548558461999601649e-02,-1.003260007380354750e-02,3.589264555937202866e-02,6.922592520713806152e-01
4.903446262980726278e-02,-4.878918996435869238e-01,4.631439329589379095e-02,6.095403055040903711e-02,-1.430271875915444836e-02,7.144809024456466595e-02,5.602778196334838867e-01
7.778567272144451539e-02,-5.243656856041467584e-01,2.553740668063678165e-02,2.394464122776064977e-02,-1.258741823050617617e-02,8.300299006466828333e-02,5.972592830657958984e-01
1.007115710448036605e-03,-7.023825734838226031e-01,1.119180385491546637e-01,-1.741681460567582815e-02,-3.830475405375771691e-02,1.294475108826546872e-02,7.686913609504699707e-01
5.626343190977062259e-02,-5.991582915098920825e-01,1.869116676253720910e-02,-7.853574467615592400e-03,-4.032609204409891290e-02,-1.074851292901783315e-02,6.416960358619689941e-01
6.256762103484786453e-02,-5.933033624215519053e-01,3.135831328549681940e-02,-3.333946145773329563e-03,-2.174664667796918915e-02,-1.141293259942525486e-02,6.422727704048156738e-01
3.163566516887364455e-02,-5.753945497784320739e-01,4.452425825493064315e-02,3.292853464283150328e-04,-3.445280293919045222e-02,7.809771783169995943e-03,6.166197061538696289e-01
1.539723352310717885e-02,-3.393193708507254991e-01,1.636052011882670187e-02,-2.953403525806792482e-02,-6.999085475638556694e-03,2.485009047023889125e-02,3.616390526294708252e-01
1.753643356313334956e-02,-3.712938939780371372e-01,4.335581326554419079e-02,-1.316644491622382188e-02,-3.584784992763982714e-03,9.867473660585324158e-02,4.377941787242889404e-01
5.483518471468346034e-02,-4.330909658318876088e-01,5.041473716725097809e-02,-1.195043201244011394e-01,-3.495527830650338886e-03,3.749259818387668669e-02,5.320076942443847656e-01
4.913190555638430324e-02,-5.931779318260255174e-01,7.142937822434219930e-02,1.470668897985039601e-02,-1.373703045663130819e-02,-4.970103263938260157e-03,6.547290086746215820e-01
1.428695006775380083e-01,-6.844632263258976224e-01,1.053627582158214726e-02,-1.358313541995336340e-02,-2.322411973955055067e-02,2.193201647032371263e-02,7.720897197723388672e-01
8.221027834966601611e-02,-5.980782600366814084e-01,2.374177764192417217e-02,-7.108372691538165011e-04,9.802426764731822506e-03,-1.152849729674754057e-03,6.532452702522277832e-01
-2.905059975856445764e-02,-1.078701857507641249e-01,-6.512939037135276332e-03,-7.146780744938259489e-02,1.599277003913662787e-02,4.495027567662207568e-02,1.750677376985549927e-01
1.517575039418893323e-02,-3.261003451375984463e-01,2.162252760897510895e-02,-2.179421836988660113e-02,-5.764380995009047749e-04,3.615612833313405772e-02,3.522198498249053955e-01
9.799897293944037635e-03,-3.056635408763450079e-01,2.065221475585768407e-02,-3.162053480627508711e-02,1.624529588812954114e-03,3.071235421319983352e-02,3.299934864044189453e-01
1.391709507363975140e-02,-3.393544212177746489e-01,2.096324809264230038e-02,-2.925848644323408507e-02,-4.554433436834173961e-03,2.620456726430827818e-02,3.633594214916229248e-01
-3.162641231459623059e-03,-2.174528203195169596e-01,8.805576823525840258e-03,1.029740223903514128e-02,7.692247174819706384e-04,8.382248287375848594e-02,2.646255791187286377e-01
7.579471375348803552e-02,-5.846745366290437840e-01,5.224339602108829528e-02,-3.120520232389730180e-03,-1.914761131152606285e-05,-2.028797790999583694e-03,6.490461826324462891e-01
5.427275035763776123e-02,-5.199179136734281004e-01,5.859208202161372836e-02,-9.979006597147209445e-02,6.718567089675701702e-03,-3.755152141651856013e-02,6.053376197814941406e-01
6.203407400986246656e-02,-5.851627573949440553e-01,6.958118478622493663e-02,-2.942282865875418298e-03,-2.959396656525021402e-03,-4.393017269771670372e-05,6.510433554649353027e-01
7.195863903168137066e-02,-6.037569694446722757e-01,6.908670046757267591e-02,4.801658942774338079e-03,4.654121960890606445e-03,3.662717206593531141e-03,6.744135618209838867e-01
1.800640752460164196e-02,-5.837698470340220158e-01,7.203764961602546202e-02,1.341564331750567246e-02,-2.765758244573452915e-02,1.332169731978539474e-02,6.331949830055236816e-01
6.736358920154467134e-02,-5.897715627008517369e-01,6.793920032257408370e-02,-1.439926174457917740e-03,7.003561754482016087e-04,2.140875631693320031e-03,6.574394702911376953e-01
5.625881292189424676e-02,-5.972938695442217005e-01,7.147156495758452688e-02,9.053758990050767355e-03,-3.703354970241262180e-03,6.859948253090926082e-03,6.616140007972717285e-01
6.285746957182505867e-02,-5.580391817654888342e-01,6.567595475468984700e-02,-8.194921241628759512e-03,2.464043469599618702e-03,7.011789706129039831e-03,6.226056218147277832e-01
6.968356046552395822e-02,-5.977652392342128751e-01,6.936685009490697884e-02,-2.785633941073843885e-03,2.111058430475754727e-03,-3.253127682577505557e-03,6.673417687416076660e-01
1.693055155972839065e-02,-6.069912413994721367e-01,9.679040631573287978e-02,-5.005596865776321125e-02,-3.039193756502153732e-02,-2.849008320530458868e-02,6.769085526466369629e-01
8.946956144390594279e-02,-5.858448411559095126e-01,6.255007627395678393e-02,3.092821361383078782e-03,9.229185283005124970e-04,2.240551266582093120e-03,6.623001098632812500e-01
7.012864061516971281e-02,-5.918960485208085709e-01,7.107485467846155758e-02,1.096363667094501972e-03,5.423195360230210690e-03,3.026732810860220408e-03,6.625883579254150391e-01
8.106668602080266406e-02,-5.863822472807296293e-01,6.505685722955653616e-02,-1.239830071024099548e-02,1.379847494064386122e-02,4.485398219876201263e-03,6.604175567626953125e-01
5.683562343264364491e-02,-5.973805338007567300e-01,4.945070254219832706e-02,4.357579008015161114e-04,-1.367122370643011203e-02,-3.286118089334608052e-03,6.510112285614013672e-01
4.820695631661872649e-02,-5.539825395236230854e-01,9.527031297358581896e-02,2.490206335669988350e-03,-3.843021884990252806e-03,-1.522050621980093133e-03,6.271029114723205566e-01
1.933921922406517391e-02,-6.010594612633843870e-01,7.981102215763830054e-02,1.724867981031974126e-02,-2.453954044198231738e-02,9.842227911610754165e-03,6.550249457359313965e-01
6.624903936642170810e-02,-5.793763895395219743e-01,6.792824523269805348e-02,-3.423008249516928340e-03,2.719200439835239153e-03,4.725783981879254879e-03,6.465628147125244141e-01
2.674315437263788398e-02,-6.510449388839045781e-01,6.927645522048420101e-02,1.600205343718555037e-02,-7.925794378236700188e-02,1.170019932199370567e-02,7.141839265823364258e-01
3.069125471116199155e-02,-5.816533558789733771e-01,8.857311131196210496e-02,-1.916552995000258067e-02,-3.668825501255419674e-02,-4.515134656675558883e-02,6.519324183464050293e-01
5.741045569884681288e-02,-5.960529802247401809e-01,8.003079712902833043e-02,-1.001576656316222579e-02,8.831297944917761546e-04,3.815931177191773677e-03,6.653229594230651855e-01
2.546898074696132830e-02,-6.133424899301727073e-01,7.732702572388308604e-02,4.151231052630696694e-03,-2.494868686124409110e-02,7.585195561549021130e-03,6.678236722946166992e-01
-2.060453301663794923e-02,-6.538885772228816284e-01,1.307724819131530491e-01,5.143490284930578825e-03,-2.575557309486042543e-02,-3.314643604978900066e-02,7.247025370597839355e-01
2.575717530139487454e-02,-6.944522941896589252e-01,1.133336539904667428e-01,-2.551065909477267385e-02,-3.591290300625862852e-02,-2.208899326085689285e-02,7.724830508232116699e-01
-1.850743994000203507e-03,-5.863825174417249819e-01,1.077202462728105714e-01,-5.344014421366255485e-02,-3.132596129075586322e-02,3.438777984179107461e-02,6.578677296638488770e-01
3.156260850477407565e-02,-5.903263589019429602e-01,4.433273816485502894e-02,1.212102139908505585e-02,-5.794406196616072591e-02,2.189074101019700819e-02,6.378099322319030762e-01
1.820854597877316627e-02,-6.127454520858203191e-01,9.754984693050505751e-02,5.731814046076299900e-03,-2.956900661774669939e-02,9.265007527592717144e-04,6.761529445648193359e-01
1.104653218507187229e-02,-6.892931434228706244e-01,1.332059804197942010e-01,-1.644730390096536474e-02,-4.067847265703188747e-02,-1.206898648653338506e-02,7.727641463279724121e-01
1.201385470910848463e-01,-6.318350122759712750e-01,1.076866150688446377e-02,-4.360934122377002967e-03,4.061930277127805133e-02,6.196374789041216025e-02,7.153377532958984375e-01
1.013642289849063238e-01,-5.936216607628750364e-01,2.802573253969295464e-02,-7.061358433113215649e-02,8.263700246310196063e-02,1.756496148623995779e-01,7.519431710243225098e-01
9.012938458252695018e-02,-6.104058198441063565e-01,2.564400924939955195e-02,-4.981300504533357071e-03,8.788804029359989153e-03,-1.073545853945322148e-02,6.711077094078063965e-01
1.237329663731349116e-01,-4.466599384190190758e-01,-4.650472965572438611e-02,-1.355995869916369612e-01,4.497335454859680698e-02,1.403675882390238994e-01,6.144634485244750977e-01
1.639867513815478905e-01,-5.586210777040871989e-01,-3.705690962737034910e-02,-1.556722246137338117e-01,5.428269378432233616e-02,1.233969129039335089e-01,7.379205226898193359e-01
9.593158732726908555e-02,-5.993096673360690518e-01,1.454071003379722726e-02,-4.228701627672689506e-03,3.164352217457302996e-02,-8.052159762829497192e-03,6.607955098152160645e-01
1.273508184518736264e-01,-4.534553373279969213e-01,-5.251662007915519625e-03,-1.345668454583778539e-01,7.386541612063184103e-02,1.440945662826887685e-01,6.410036087036132812e-01
1.729182897516824413e-01,-4.670318150674238056e-01,-1.987554152145951103e-02,-1.372038146430013539e-01,7.671899368099864558e-02,1.536116176897780183e-01,6.842870712280273438e-01
6.674086099867876376e-02,-5.889778956468575410e-01,6.623640105971478897e-02,-2.171908137798030537e-03,2.518756733615434493e-03,-1.451886171309325771e-03,6.554968357086181641e-01
7.511667309751413057e-02,-5.930972939560656965e-01,7.455945921519560593e-02,-4.363022422386053797e-04,9.669243770570871976e-03,3.432487812273861145e-03,6.681723594665527344e-01
6.452956247624178077e-02,-5.857516192212033346e-01,8.006049123212410912e-02,1.028439786722935151e-02,-3.452893608565158617e-03,1.860816942973821109e-02,6.592406034469604492e-01
3.983394230462014574e-02,-4.302183869913061565e-01,4.382181679519758788e-02,6.373020095822425068e-02,-2.738102299419546519e-03,6.119760029044348654e-02,4.962682127952575684e-01
7.808619897795010534e-02,-5.768880154764203239e-01,6.283839214846337340e-02,3.413039418456276924e-02,7.653073642427953537e-03,1.063229742893977321e-02,6.505737900733947754e-01
6.007114176245978432e-02,-5.849652836583765225e-01,6.424434770326184485e-02,-3.923629113426526510e-03,-3.053119116270421214e-03,-3.749864984754953251e-03,6.472229957580566406e-01
-2.484163350835448536e-02,-5.501184715591834751e-01,1.321315285980766974e-01,2.099843553126977125e-01,-5.831200326745349105e-02,3.145533866375395393e-02,7.269526720046997070e-01
4.060945507717630965e-02,-5.922088776320533210e-01,7.003228748616913135e-02,7.191885477088716047e-03,-1.286134672338153095e-02,5.802938889960304776e-03,6.486111879348754883e-01
6.818452038741498744e-02,-5.924379514397469793e-01,6.268257630470677744e-02,7.680970147704313696e-03,-3.508844485131818510e-03,-1.019286905274143645e-02,6.582881212234497070e-01
6.619945736933804947e-02,-5.868319069789273978e-01,5.747436194133187515e-02,-1.876970244607444743e-02,4.026322236225490098e-02,-1.631687030353252965e-02,6.538710594177246094e-01
7.608126294488912200e-02,-5.934232918186808092e-01,7.161304081465585947e-02,1.603246488716099372e-02,-1.916241637258311826e-03,-5.428229102644333698e-03,6.679336428642272949e-01
2.688397310587312128e-02,-5.780408265152459091e-01,7.749454962334539898e-02,1.361760963498580279e-02,3.229602065955444051e-02,-9.406133013684897515e-03,6.348715424537658691e-01
2.231244654078648471e-02,-5.835757969431811798e-01,7.945995970296890198e-02,6.524039568345462413e-03,2.546957192300485298e-02,-2.070149637105691762e-02,6.390233635902404785e-01
1.844354139500414824e-02,-5.294116695934381056e-01,8.057964362973443762e-02,1.036104669094303904e-01,4.308829093083602763e-02,-3.777367773533653328e-02,6.165254116058349609e-01
4.041781593896393021e-02,-6.018870734127499400e-01,9.924590427043411545e-02,2.022132825572944478e-02,8.831205870191510821e-03,-2.821608617117318113e-02,6.764990687370300293e-01
6.314395302265982113e-02,-5.760109759572358268e-01,7.143854470902558096e-02,1.530169424857006494e-02,3.105941261432462134e-03,1.206563814507901657e-02,6.442495584487915039e-01
5.876000158527558415e-02,-5.821606982233682448e-01,7.629577742384738293e-02,2.198590579147262358e-02,3.666244156348793214e-03,1.393553532532323426e-02,6.514590978622436523e-01
7.569272877631996743e-02,-6.005320985959683444e-01,4.939319639687553276e-02,1.628080742838991773e-03,1.598239862168190570e-02,2.667403473225837037e-03,6.640654206275939941e-01
4.591100640014092460e-02,-5.851293291946204622e-01,4.385142367299918464e-02,8.166568272921618382e-03,-2.105394007403241924e-02,9.821756522139350049e-03,6.314552426338195801e-01
6.878716731287226605e-02,-5.903829214660196723e-01,3.485499525003254995e-02,1.059818442258932993e-02,-1.252052238303128298e-02,1.356020398693749988e-03,6.435077786445617676e-01
5.974601395709963625e-02,-5.864242536189152588e-01,3.255332379549977229e-02,4.755496607872345891e-03,-2.558263721756057207e-02,8.158122019029257627e-03,6.347718238830566406e-01
7.126061380782314214e-02,-5.863642495477783267e-01,1.641838548445812007e-02,9.494454766776934743e-03,-8.751988319347252243e-03,1.003528023323035923e-02,6.326254010200500488e-01
6.001440126324938951e-02,-5.863092798658994242e-01,4.373799444537643244e-02,8.525031153542169185e-03,-3.553987732075522370e-03,1.026320650892035072e-02,6.387889385223388672e-01
7.258943960260311190e-02,-5.404000373202494378e-01,5.065175910864536113e-02,-2.517211889083255383e-02,-8.136956672494478817e-04,4.328685979489132872e-05,6.038979291915893555e-01
4.761378576613073399e-02,-5.444974654698706562e-01,7.613484484898588867e-02,-3.895651435737124829e-02,2.345638205817356797e-02,-1.148023701030385056e-02,6.122872233390808105e-01
6.863532091846619165e-02,-5.916607533422196807e-01,7.719728097613293150e-02,-3.277399806005821398e-02,-8.089047013301068831e-03,1.254201338672160729e-02,6.675389409065246582e-01
5.699527313876040502e-02,-4.811582134642527486e-01,5.298165717582561940e-02,-6.419315921171518668e-02,4.294014914472246702e-03,-1.648933094794763354e-02,5.483599305152893066e-01
6.823459834151729408e-02,-5.309139316644349016e-01,5.879295669013637204e-02,-4.521466191439710292e-02,-7.348707936494569722e-03,1.797770508751653576e-02,6.005629301071166992e-01
6.874832279273959679e-02,-5.905020225543552437e-01,7.930743679212962083e-02,-2.623170602148794991e-03,-2.165870538760488340e-03,-8.452692615030329981e-03,6.647801399230957031e-01
6.377645194967690445e-02,-5.176216309103480739e-01,4.823593661147737577e-02,-2.647517027339381726e-02,1.201293776648287978e-03,-1.108882234186697431e-03,5.756221413612365723e-01
5.361960367949569761e-02,-5.817816908855714120e-01,6.408669247361548083e-02,4.748303372974641348e-04,9.228800110178934663e-04,-4.131668231394366141e-03,6.407414674758911133e-01
7.719802027999558836e-02,-5.933410952866187138e-01,7.328714779202183394e-02,-2.305398079962976340e-02,-3.919288793560052813e-05,-2.107309950688806242e-03,6.697935461997985840e-01
9.219801992708889782e-02,-5.157976280361654675e-01,1.559515135333935931e-02,8.899270778734014176e-02,-9.158908855593715648e-02,1.531914049757820973e-01,6.695372462272644043e-01
6.419393528454259146e-02,-6.089048315284957269e-01,8.212971555827411341e-02,-3.504174304577881670e-03,-1.146507633281189972e-04,-2.431247969734163725e-03,6.822835206985473633e-01
5.572923112810396207e-02,-5.864536613718217550e-01,7.150905065037119201e-02,-9.013225646759156356e-03,-4.300859260358514888e-03,1.492381212854052615e-03,6.504516005516052246e-01
6.827230440138257195e-02,-5.891738068898291214e-01,6.957658426385346373e-02,-2.067337137673877501e-02,1.990543351007748908e-03,1.195349033997757365e-03,6.590849161148071289e-01
6.544345020561090354e-02,-5.211636468112905707e-01,4.700783472906414073e-02,-7.907648579748144391e-02,8.039775589703432659e-03,1.752141356854759399e-02,5.945649743080139160e-01
7.511018901525981506e-02,-5.157868603647992600e-01,4.692170931499581310e-02,-2.487365937296108845e-02,-2.874042870423778782e-04,-8.414059831160208142e-03,5.791080594062805176e-01
7.195338006216589477e-02,-5.137703916837462748e-01,3.947540458040102451e-02,-1.664526951056098311e-02,2.113864684874786678e-03,1.280096324488263181e-02,5.713495016098022461e-01
7.091696340031328205e-02,-4.972279089981345157e-01,3.683736148333660587e-02,-2.164595218715972130e-02,5.619109956738748725e-03,2.158710140194664787e-03,5.532650351524353027e-01
7.429663314377923933e-02,-5.052159199708299298e-01,4.147409802175472393e-02,-2.541158427301938236e-02,-1.276659319879451136e-03,-9.575266232037624170e-03,5.657811164855957031e-01
8.056506718147832258e-02,-5.864536466732969133e-01,5.299587416609005674e-02,-1.053594672514556602e-02,6.162162681212552187e-03,-5.761594531607301672e-03,6.540881991386413574e-01
1.182774266305943733e-01,-6.180842927046608093e-01,1.468397550282107833e-03,-7.473875014105832437e-03,2.451590762867128515e-02,-1.052184485655590154e-02,6.871404647827148438e-01
7.153399461473533560e-02,-5.905571715349707818e-01,7.304103268885972500e-02,-2.550880265015252526e-03,-1.799677829575291451e-03,1.167919765757752980e-04,6.628680825233459473e-01
1.127886842783936694e-01,-6.427069819544750651e-01,2.296882807151168215e-02,4.029336332653623946e-03,2.689501812199125708e-02,-2.757800932970332769e-02,7.179715633392333984e-01
1.115498703195145769e-01,-6.572173764508252303e-01,2.842615415139659873e-02,-1.624569249152261335e-02,5.345722869588060561e-02,-1.108930946936518072e-02,7.373896837234497070e-01
1.159096691776498322e-01,-6.450049393660114427e-01,-1.065581420066355478e-02,-2.296109070860593432e-02,6.677441607935905021e-02,3.023333713228092048e-03,7.167215943336486816e-01
1.347473030477488454e-01,-6.772175492502100491e-01,-1.317605652856579379e-02,-1.764427461651886866e-02,4.522531105689368836e-02,1.499740527998044692e-02,7.541912198066711426e-01
1.473687417061746441e-01,-6.593399276723049818e-01,-3.186583921951932630e-02,4.287054047333175785e-03,6.216221675983044093e-02,2.914211606113621331e-02,7.433096170425415039e-01
7.023291375345608323e-02,-5.940184231603169440e-01,6.501962320703527642e-02,1.879587502698574358e-02,-1.949146938102961843e-02,8.274851775426351336e-03,6.634750366210937500e-01
6.210021384779521036e-02,-5.346605560994489581e-01,5.502150678247660909e-02,3.962811956750200704e-02,-2.005075844030778515e-02,2.880168421700317338e-02,6.002958416938781738e-01
6.242740323422843463e-02,-5.824236877515220900e-01,5.810546416608403097e-02,6.003956246657472838e-04,-3.312246708387450288e-03,1.785721281820719960e-04,6.427275538444519043e-01
9.603865365082342453e-02,-6.014158710343118219e-01,4.131966825883126582e-03,-7.307707690235221501e-03,1.240965243996874738e-02,4.354368821525853375e-03,6.568622589111328125e-01
6.813675742093122656e-02,-5.859052781125607678e-01,6.903316169761333776e-02,-4.613757205298657320e-04,2.369894712719402587e-03,4.120807073911024639e-03,6.545429825782775879e-01
6.053217077016251335e-02,-5.865285025556588039e-01,6.014002704412907407e-02,-2.916736805838484985e-03,-5.191883676231358888e-04,4.689677992505333730e-03,6.469360589981079102e-01
5.416043257759259322e-02,-5.796145902674665340e-01,4.803698123132299491e-02,-2.341599869661869246e-04,-8.416038419717743885e-03,-5.307318860339170236e-04,6.309047937393188477e-01
4.049872349454111675e-02,-5.802097884693855345e-01,5.262983787896602372e-02,-1.285202931598514522e-03,-1.433480925502895326e-02,-3.429209235304767761e-03,6.273856759071350098e-01
6.236541406560994205e-02,-5.937311146026885700e-01,4.543359757802120646e-02,-6.369942926954743831e-03,-1.258453066204700405e-02,-4.862800355634419938e-03,6.483117938041687012e-01
5.288995454641903793e-02,-5.882294762075309658e-01,4.609627660814724637e-02,-2.707319121958745318e-03,-3.862440692095311240e-02,-1.078079746912926761e-05,6.412661075592041016e-01
6.386056900789049973e-02,-5.716504794397168077e-01,6.321223614516979783e-02,-3.069749508670232543e-04,-1.779489372483969217e-03,6.198929166288358675e-03,6.352855563163757324e-01
6.135748131751453394e-02,-5.837722941047190917e-01,5.199225605518587034e-02,-1.712636122713206369e-03,1.846604660692982482e-03,-2.185703231434577010e-04,6.405134797096252441e-01
6.455908798984322239e-02,-5.598061088279522313e-01,7.873183527411689586e-02,7.572577821572851892e-03,1.370538781245995118e-02,6.461730728981531120e-03,6.322519779205322266e-01
7.036993968515867226e-02,-5.838420676731252978e-01,6.765112183510429977e-02,4.224717781951818629e-03,3.203611148020815962e-03,8.453855233801120528e-03,6.530855894088745117e-01
6.406854538160200452e-02,-5.182046337987453732e-01,6.176496714192133974e-02,2.485758927461346329e-02,2.292977734101130441e-02,2.823190230446595214e-02,5.861127972602844238e-01
7.627399247407640193e-02,-5.608719324333848455e-01,6.542800922525388030e-02,5.609063478540142478e-03,5.776807952864009173e-03,1.013174007257938193e-02,6.321902871131896973e-01
4.947967972840838780e-02,-5.337094529047585745e-01,4.188430818235555630e-02,3.069261815153801962e-02,-5.893613094333514935e-02,8.748942943294946151e-02,6.098749041557312012e-01
-1.950411539282451145e-02,-5.445182415906958395e-01,1.110311445231988992e-01,-1.166374233376582664e-01,2.623445707653526346e-02,4.670358615642009048e-02,6.408068537712097168e-01
6.824266178267912597e-02,-5.869731316204516158e-01,6.267646237225910077e-02,-3.088359467500890153e-03,1.784347132997293013e-03,-1.337558015698860374e-04,6.524797677993774414e-01
3.927711242680315129e-02,-3.089075059881676855e-01,-7.431701352481265288e-03,-1.090088274616862890e-01,3.487588241653743343e-02,1.347448042307193838e-01,4.482378661632537842e-01
8.594861640106554734e-02,-6.937986475494610783e-01,6.726187467149188914e-02,1.070155317514809475e-02,-6.126572938562219184e-02,1.082606672411730309e-02,7.782928347587585449e-01
4.492982855162938605e-02,-6.566625376555985660e-01,5.508671564745284965e-02,-3.145829156089223477e-02,-6.883525056030603828e-02,1.938010956793926806e-02,7.195634245872497559e-01
6.046387809711090133e-02,-6.038742921309656619e-01,3.267647231108194994e-02,2.416690658689752899e-03,-2.988427340361034593e-02,5.367545928841622148e-03,6.530239582061767578e-01
4.543567308871021559e-02,-5.817325141766460650e-01,4.586385014644225877e-02,2.512352983757116815e-03,-1.256996280624842616e-02,4.891067115237417509e-03,6.278322935104370117e-01
2.807975614081459348e-02,-4.068738123628544145e-01,1.777856372866568058e-02,3.904966133052442494e-03,-1.109629301062175881e-02,2.488559358653829115e-02,4.325311481952667236e-01
5.540313151216474941e-02,-5.823014141431407387e-01,6.783997431051114191e-02,1.684860710842663728e-02,-6.652325218883229849e-03,-1.080370717985127066e-03,6.447795629501342773e-01
4.972695989450925946e-02,-5.963432350410236005e-01,6.980834786560649596e-02,4.309590183188746586e-03,-1.536029125608517031e-02,-7.037931992601607553e-03,6.570358276367187500e-01
7.771034936356177591e-02,-5.678195401220500482e-01,6.407039777585357698e-02,-1.776426531253354896e-02,-5.107122727419534727e-03,1.411830812195898240e-02,6.400881409645080566e-01
8.622424427430080973e-02,-5.514150727837148214e-01,5.294592710187362439e-02,2.410609065449021218e-02,1.326777274730666853e-02,-1.807192341769129056e-03,6.235005855560302734e-01
5.696880837413481613e-02,-5.766522743542956686e-01,6.986408569473978591e-02,3.675255064874926453e-02,-5.624212785736347475e-03,1.923239827549888536e-02,6.442588567733764648e-01
7.311226577010207506e-02,-5.786728210142300100e-01,7.074782038642585258e-02,3.042567756859981473e-02,8.074567393755387179e-03,1.433746658778713677e-02,6.533588171005249023e-01
6.599935764371431257e-02,-5.133516902871391174e-01,5.053817399140925204e-02,-2.719948967578668039e-03,3.632296800149751714e-03,4.573420603647189442e-02,5.772918462753295898e-01
5.700020161910268612e-02,-5.172016334452493869e-01,6.768380474722399121e-02,-2.652269098532622146e-02,-1.260371067836347538e-02,2.597014843460038538e-02,5.835809111595153809e-01
7.497281591647350640e-02,-5.502297902762808279e-01,7.120288367813965014e-02,-8.814136542107121886e-02,3.541859396885833726e-03,4.558411658369877772e-02,6.466170549392700195e-01
7.181559146675300931e-02,-5.949353863488531236e-01,6.999647146472084969e-02,-2.501865618233141061e-02,-1.732754430270284441e-04,1.512169787899289575e-02,6.677657961845397949e-01
5.461163235328303500e-02,-5.250801002785767668e-01,6.969547531320305356e-02,-1.284281506134907561e-02,-1.151839232298365601e-02,2.324861221919291218e-02,5.895153284072875977e-01
6.080165262871800591e-02,-5.874123167983447136e-01,2.510835287213150635e-02,2.887003588925085638e-04,-1.309415048094184422e-02,-4.764508733449885117e-04,6.315328478813171387e-01
3.083683395300912400e-02,-5.854278755551909352e-01,3.765394774473743156e-02,-1.714364645600607385e-03,-4.144841203061471607e-02,7.089073220550536807e-04,6.238541603088378906e-01
7.141626270843554058e-02,-5.878907895480423029e-01,1.697247537809398743e-02,-4.874317809338510354e-04,-8.549404861841823633e-03,9.011326468850922771e-04,6.340166926383972168e-01
7.478494536019780758e-02,-5.878805682243231079e-01,5.617637176368844854e-03,4.108065864952333869e-03,-2.199405734103681426e-02,4.150070707793838791e-03,6.321616768836975098e-01
8.794613592442535044e-02,-6.009921940986704403e-01,7.839684745745145733e-03,4.824086209957797675e-03,-1.482319581608539626e-02,4.848172669824473216e-03,6.531953811645507812e-01
7.571652192185346353e-02,-6.186656927838601883e-01,2.073312102057522921e-03,1.720540818098130822e-02,-5.514937280339606007e-02,9.625722750792506041e-03,6.683890223503112793e-01
5.631562818689606065e-02,-5.753783161514191002e-01,9.257330553739076540e-02,5.660023771971920119e-04,1.778276269483129233e-05,2.392036810887301912e-03,6.505948901176452637e-01
6.393409213415052195e-02,-6.123779722919848734e-01,2.779901335217796476e-02,-4.196997139405006690e-03,-4.072021547696728916e-02,-3.881825220664420536e-03,6.628254652023315430e-01
6.748911771129265103e-02,-5.807820809866670597e-01,7.422940807653324868e-02,1.346389639382075849e-02,5.470209691998029373e-03,3.487396904966321570e-02,6.549447774887084961e-01
5.786873528512306852e-02,-5.665269196507882743e-01,8.784695353258670236e-02,2.012769405133237044e-04,1.307353119499034613e-03,1.899578293195199421e-04,6.399158239364624023e-01
5.502833080513788722e-02,-5.823514668813785100e-01,6.269800696680330465e-02,7.083781430283294820e-04,-3.648322127723920266e-03,2.066209738007580236e-03,6.412913203239440918e-01
5.070724832948597660e-02,-5.968449985676975711e-01,4.647233572231229681e-02,5.201109566619492586e-02,-6.722420975715089064e-02,1.664109699435959008e-03,6.620275974273681641e-01
4.569221041183704757e-02,-5.177906304478828714e-01,6.581908911732364809e-02,-2.734075316821882838e-03,-3.221641984874558016e-04,2.900407692187020187e-02,5.760256648063659668e-01
1.116137298872845185e-01,-5.754113601154233759e-01,2.139567283434609668e-02,1.063825813171605413e-02,-1.044319865275926580e-02,7.741552979239064991e-02,6.609137058258056641e-01
5.859471399801327585e-02,-4.554404581704596944e-01,3.253732501434883351e-02,-6.782949962017080503e-03,1.437176916544687100e-02,1.262364125074987298e-01,5.477967858314514160e-01
3.332901538118385187e-02,-5.066759491301979779e-01,8.401286049119277566e-02,-5.453296389760650675e-03,-5.707610576673119961e-03,2.677618660576883483e-02,5.691059231758117676e-01
6.981757431918395040e-02,-5.923675314191509944e-01,6.937624512825180112e-02,-2.466237267046070183e-03,-7.499950587784764890e-04,1.652488421041742664e-02,6.625980734825134277e-01
3.911701021288485625e-02,-5.129066447697172570e-01,7.970602329234044436e-02,-1.364041599746129360e-03,1.199477725257743800e-02,1.623665910673760190e-02,5.744665265083312988e-01
5.134065646152646822e-02,-5.398034675743765831e-01,8.131541172301376408e-02,5.958652903478205490e-03,1.340526435055539381e-02,1.250110906839386853e-02,6.076049208641052246e-01
5.157228647262562804e-02,-5.569699580316451737e-01,8.862918383653758947e-02,1.192179971972557803e-02,6.713137418483601168e-03,2.594581337300631146e-02,6.299434304237365723e-01
5.932179192180106475e-02,-6.270191698016955861e-01,9.084039770161128624e-02,-1.288703297653687706e-02,4.250402038690672540e-02,1.692126446425121916e-02,7.074368000030517578e-01
7.218343052749534583e-02,-5.731668179515018169e-01,7.687668609778719464e-02,-1.489296218869032469e-03,-8.778934870882144567e-03,1.399611683294041614e-03,6.478977799415588379e-01
6.566923258325291224e-02,-5.830423832657698480e-01,7.345802080930760591e-02,-2.665552909655351330e-03,1.964301502447141946e-03,2.926175892899529271e-02,6.546310186386108398e-01
6.128067555995203586e-02,-6.001954745278283987e-01,7.199211717331155391e-02,3.952849384823365481e-03,2.137340630128018587e-02,-1.818944045390673281e-02,6.687007546424865723e-01
7.095922156646894408e-02,-5.985672301970856868e-01,6.246549394113901088e-02,-5.787763057653830950e-03,5.328436153621199725e-03,-2.392836493779453705e-04,6.654599308967590332e-01
6.533515558635780152e-02,-5.980348909612800412e-01,6.877883586984903652e-02,-7.379921605449968162e-03,5.173003901344794611e-03,2.390312333205016435e-03,6.652945876121520996e-01
6.402794416820392631e-02,-5.629450620707410202e-01,7.964106981934901408e-02,4.096071100533637578e-03,-1.198595409343252392e-02,-1.251207289559501737e-02,6.356720328330993652e-01
6.917248882061896587e-02,-5.725334358420118841e-01,6.680251169477405271e-02,-7.590794770024958393e-04,1.885116959165545432e-03,-1.884756153553384175e-02,6.413652300834655762e-01
6.621328783481214564e-02,-5.288424018144141092e-01,6.034387375952199317e-02,4.093555610491455415e-02,-1.193363543553630814e-02,-2.458594898759388150e-02,5.982481837272644043e-01
5.958763848518666695e-02,-5.094104431473396311e-01,6.256090164363503625e-02,1.883805857321450491e-02,-1.138768558581777258e-02,-4.276344087540141087e-02,5.765407681465148926e-01
5.795145571281290486e-02,-5.264317157063123087e-01,7.051759551036190787e-02,1.289034185256737394e-02,-1.631435128848283261e-02,-1.374624226319350224e-02,5.923418402671813965e-01
6.856559468809619862e-02,-5.867761611942401423e-01,5.535761786803719553e-02,-5.240465574361942262e-03,8.706316743132998248e-03,-5.222630040873126739e-03,6.491402983665466309e-01
6.303569243183798632e-02,-5.886190172326124515e-01,5.214093941495417939e-02,-6.777704806762400655e-03,8.922693449780409736e-03,-2.827483888937118352e-03,6.465861201286315918e-01
6.748968871248708923e-02,-5.553819105810915424e-01,7.031635584459713928e-02,1.251979688585186335e-03,-9.091121051468833286e-03,-1.230854319603108928e-03,6.244956851005554199e-01
6.858701610066983423e-02,-6.009333225268538303e-01,7.538792308410274812e-02,-2.228512338251375027e-03,1.498927063780763869e-04,-4.368378594239226420e-03,6.730002164840698242e-01
6.385979197163343946e-02,-5.860103954482114297e-01,6.284570859060742420e-02,-9.741491523477009695e-04,6.917925586995103682e-03,-3.554254831712822926e-03,6.495056748390197754e-01
6.082005197247811190e-02,-4.640708618004986685e-01,5.499861104883149721e-02,1.036057453170105558e-01,1.601802910734223540e-02,9.134710895886832480e-03,5.529116392135620117e-01
2.209046141608908553e-02,-3.540663762410499182e-01,2.122380944204847741e-02,2.417515608963154150e-02,-1.091252570724348878e-02,-5.162744878023717982e-02,3.889414668083190918e-01
5.406700163476893528e-02,-3.793262400524057831e-01,2.039531500449631718e-02,9.127356830838115331e-02,-1.591327928426062785e-02,-7.119033435443780644e-02,4.640332758426666260e-01
6.390767079077380730e-02,-6.254323299622783772e-01,5.805126458161927183e-02,-1.969999914061908684e-03,-3.105803629202627536e-02,3.811443499389565587e-03,6.885752677917480469e-01
5.714978912108770182e-02,-5.906726254567888912e-01,6.455194554118476313e-02,-4.690794112953900440e-03,-4.013769495076505330e-03,-3.982551666241722355e-03,6.516792774200439453e-01
7.712708400539400322e-02,-5.685592093714613160e-01,4.593189778634004794e-02,2.735522874000983345e-03,-8.261213268454539738e-03,1.542086939158751786e-02,6.314128637313842773e-01
3.767258408238483014e-02,-5.795501480684893680e-01,6.218952501283683820e-02,6.044041650625211690e-03,-4.247537377017696070e-02,4.256672660724179769e-02,6.384788751602172852e-01
9.513279616774961145e-02,-5.809452963886159171e-01,-1.352277155254444363e-02,-1.017848711337756770e-02,-3.756284144886385540e-02,1.160187847152661239e-02,6.327522993087768555e-01
5.616743563271497930e-02,-5.813309993087467653e-01,2.567706395950183906e-02,4.259702856202174891e-03,-1.373949277651277667e-02,2.653585700082764301e-03,6.233283281326293945e-01
4.544514899584062295e-02,-5.906514335498440627e-01,5.860074210500082481e-02,-1.244915807045264035e-02,-2.814567625425498654e-02,7.874946085922810823e-04,6.449833512306213379e-01
6.274452094358484722e-02,-5.906108947535424480e-01,5.494957967322303127e-02,-6.613595809037831411e-03,-9.086664345509363680e-03,-6.363179317077293298e-03,6.498781442642211914e-01
6.751807647488275443e-02,-5.835293815563091790e-01,7.828800900072246938e-02,3.504992636280362343e-03,1.102840496564671917e-02,5.003331789177512152e-03,6.568617224693298340e-01
8.626857832549206240e-02,-6.044276652716499276e-01,3.288054772524928726e-02,1.240630388298578565e-02,-2.136655310880596070e-02,8.163590266326914424e-02,6.818073391914367676e-01
8.140160681647334862e-02,-5.891944688704224831e-01,2.095414114902863223e-02,-5.824490098725511149e-03,-2.133049196989758589e-02,5.687581578912815836e-04,6.436496376991271973e-01
8.456006683745345698e-02,-5.882851711107122128e-01,2.145587317450728393e-02,1.427341891000828700e-02,-2.507161886557226008e-02,2.644495201083579220e-03,6.455706357955932617e-01
6.806986379805807230e-02,-4.632025173660884176e-01,2.803121721402010436e-02,5.379767812886177003e-02,1.385265525601464889e-02,-8.382817538385890430e-03,5.215851664543151855e-01
6.925190027638658541e-02,-5.426009240283797830e-01,5.302950943960862973e-02,2.043552787814387553e-02,2.174173081692718727e-03,-1.383639191334542053e-03,6.049579381942749023e-01
6.516482014394711642e-02,-5.446397555523978529e-01,7.590166277850601828e-02,8.115298316762321884e-02,1.184019837120536475e-02,7.404561961387564652e-03,6.315589547157287598e-01
6.505858261216554417e-02,-5.440254177800347701e-01,6.137511497025138762e-02,2.516695977195337885e-02,-3.099773476984494548e-03,-2.238014027128320833e-03,6.088491678237915039e-01
8.013857471174032354e-02,-5.798868806320003344e-01,6.779524219611499092e-02,-3.620664882192721479e-02,-9.419141981859219595e-03,5.782957229703017052e-03,6.572201251983642578e-01
8.628116327937448982e-02,-6.256702187161966577e-01,7.572874845765520391e-02,-2.845503660466165013e-02,2.874712636169464517e-03,6.895927967514822211e-03,7.085688710212707520e-01
6.639884185049294008e-02,-5.673715223919211237e-01,7.654156638429937543e-02,-3.601828840994192749e-03,-5.031291906142643794e-03,5.766184331145876064e-03,6.390700340270996094e-01
6.575788162136048109e-02,-5.730911954658561847e-01,8.074738575529927243e-02,-9.771221976134695716e-03,-5.816827742472845467e-03,2.341023825109843012e-02,6.480439305305480957e-01
9.295303856321135427e-02,-6.087916889722420066e-01,6.791438067019162084e-02,2.311799022171479728e-02,1.347868086122560802e-02,-7.049871763976295336e-02,7.018264532089233398e-01
6.986531796892975210e-02,-5.888371675777905878e-01,6.516083252442581020e-02,1.414679130111395249e-03,4.340648852841746778e-03,-5.376616767596283054e-04,6.564111709594726562e-01
6.867065164994362592e-02,-5.882777430176884259e-01,7.170182383951809180e-02,-3.628953531809361172e-03,-4.669527767730824989e-05,1.195217197116343801e-03,6.585024595260620117e-01
2.841306664051185260e-02,-3.662072393909539536e-01,4.342766357775668107e-02,-3.824807015385878889e-02,7.795026863200841573e-03,7.129332033596079421e-02,4.262568950653076172e-01
4.137505084686160517e-02,-5.385651685976153846e-01,7.431989460656096558e-02,-9.182537479512800638e-02,1.577441074154039766e-02,7.724300016595795834e-03,6.186624765396118164e-01
8.120804150671495636e-02,-5.438762207413954108e-01,5.620640512564262226e-02,-5.006475030936284598e-02,3.089696793340361916e-02,2.891140259487949213e-02,6.233925223350524902e-01
5.766699047018830626e-02,-5.289703652619697216e-01,5.655706186431500027e-02,-1.058368956593769457e-02,9.127714276826527293e-03,-2.791083123411423200e-02,5.885716080665588379e-01
9.547354051076814563e-02,-5.996269824075310950e-01,7.245727728227507880e-02,-3.871157132871925338e-02,2.016014885896568777e-03,-6.398866176956020946e-02,6.960513591766357422e-01
7.497613542353043226e-02,-5.917518169110482784e-01,7.685157833771130709e-02,-4.728269260333435586e-03,1.443779123063734793e-02,-3.068272406767675892e-03,6.682071089744567871e-01
7.100855451476772995e-02,-6.502610619238000655e-01,7.488102504960639227e-02,-4.212853012542389086e-02,-1.833767856016720391e-02,-3.406112573450353898e-02,7.299668788909912109e-01
2.936576974488994130e-02,-4.259857065768422602e-01,6.093061911935268582e-02,7.085697789732711693e-02,3.574320013295248337e-03,2.144156679118347422e-03,4.876767992973327637e-01
6.426338871124837038e-02,-5.915437832408585450e-01,8.095853899176766455e-02,3.750150871839241090e-02,1.181935488601538846e-03,-1.204709262255382329e-02,6.678093075752258301e-01
6.049297995609584366e-02,-5.551324204174183929e-01,7.034344753317334220e-02,1.048344064225613798e-01,8.084314665587186491e-03,-6.992576206792904328e-03,6.468920707702636719e-01
6.136356068910978068e-02,-5.662258325754032651e-01,7.703988571871395186e-02,8.418663650735203063e-02,-2.530267980529595558e-03,-3.957369239550819796e-03,6.521356105804443359e-01
2.316853458836146129e-02,-5.916362409739205352e-01,6.934574444578098240e-02,2.699733185061891153e-02,-3.565561152895706937e-02,2.844853350602177464e-02,6.457055807113647461e-01
5.710764527419698311e-02,-5.773072979456649323e-01,6.748552926770165494e-02,3.501376702154997828e-02,-6.860750383675477335e-03,3.615248536015631953e-02,6.456887722015380859e-01
6.460342843297992022e-02,-5.849450598406025215e-01,6.985421124174698293e-02,1.797248426798640428e-02,2.624622159259648504e-03,-2.737166028778512204e-03,6.529652476310729980e-01
5.121677619651185398e-02,-5.888292949009075183e-01,6.354754765274617245e-02,6.989418419775362754e-03,-1.214937101864933984e-02,6.132903979619251482e-03,6.468427181243896484e-01
8.434909243950769464e-02,-5.526282193038525303e-01,5.544756078088700080e-02,2.976427733710565460e-02,1.290208774942098492e-02,5.344371180729024298e-03,6.256265640258789062e-01
6.457641485563023198e-02,-5.683407256743162606e-01,7.979222351768089361e-02,-8.640901609786914850e-03,-8.961210776832243333e-03,7.395815467110295784e-03,6.411513090133666992e-01
2.953076395948570076e-02,-5.880063204263166199e-01,6.907751407126092036e-02,1.764107117683392763e-03,-3.432303061271572281e-03,-3.697713758221384049e-04,6.382653713226318359e-01
5.528456173762444359e-02,-6.022696458352538862e-01,1.632314097065984404e-02,1.269597524120352240e-02,-4.368274560653346433e-02,1.568811379885013194e-02,6.443777680397033691e-01
7.063861884730748830e-02,-6.161935142610567295e-01,5.523088686075344755e-02,9.652694941058057726e-03,-1.409644679463138185e-02,2.180389850407133540e-02,6.809516549110412598e-01
5.213628555105398465e-02,-6.330066046545257397e-01,6.115312628444152798e-02,5.779026332106597906e-03,-4.991906589647070180e-02,8.442669012343622954e-04,6.951676011085510254e-01
5.960729198566541709e-02,-5.707264468076826969e-01,8.591841546936457297e-02,-3.902638523848409469e-03,5.390100002633050127e-03,-8.997687778770302458e-03,6.441842913627624512e-01
3.831420255027134791e-02,-5.691491317785488668e-01,5.831792463307772234e-02,1.149977820483087665e-01,-6.151097170588874785e-02,3.453377631584173685e-02,6.604281663894653320e-01
-2.136841308848017040e-03,-3.546971045006194201e-01,3.405268953480533600e-02,3.813513277653910859e-03,1.679987705217991182e-03,3.385053610159396379e-03,3.720939159393310547e-01
5.952148071739679636e-02,-5.632680465535273573e-01,8.548332206835887459e-02,5.489440056898417346e-03,-5.632950517827538077e-03,-3.588521071255919986e-02,6.393421888351440430e-01
5.988233233269713018e-02,-5.799756010703387421e-01,6.152153607576096861e-02,2.331579117470359772e-02,-1.262879705945168900e-02,2.448500966736749315e-02,6.437216997146606445e-01
4.830722073794777027e-02,-6.002607358189711029e-01,7.473120631911767120e-02,9.735255153051621674e-03,-9.327680583595288066e-03,-2.190037010549450783e-03,6.625980138778686523e-01
7.678389015019795871e-02,-5.941706395683941100e-01,6.832294059034046962e-02,-5.646610484842993702e-03,4.259507993569811544e-03,3.399495259657855321e-03,6.669028401374816895e-01
6.689880127617153782e-02,-5.979459084996952001e-01,7.151567573207762152e-02,9.443594772284434787e-04,2.722688700637232711e-03,7.184437357445749329e-03,6.672998070716857910e-01
6.199316518071895654e-02,-5.881573275157181424e-01,7.404658452334955676e-02,2.778345694842469359e-03,3.258620394377745137e-03,5.880675619936785205e-03,6.563811898231506348e-01
6.639314767737164447e-02,-5.719894661891464782e-01,6.811270811155420435e-02,8.739083932914891743e-04,8.071838820609900794e-03,-7.798678701907800839e-03,6.395414471626281738e-01
6.742348413032064891e-02,-6.028594545199074117e-01,7.069093090290323733e-02,2.220793814411245459e-03,2.006036159791844790e-03,1.295911150325439447e-03,6.719463467597961426e-01
8.992537951236287408e-02,-6.182660006231802674e-01,6.718012309820528549e-02,7.576965822502222973e-04,1.250056744337476981e-02,-3.828801909895366423e-02,7.005803585052490234e-01
6.275775077570394656e-02,-5.947232093445885548e-01,6.488236397282559631e-02,1.699735215814709597e-03,-4.498049299827107210e-03,4.012849252483090615e-03,6.586351990699768066e-01
6.958973104045049207e-02,-6.012254350906374167e-01,6.440871086243396548e-02,5.472077456807016363e-03,-5.549733671772373459e-04,3.888006429384226800e-03,6.683415770530700684e-01
2.184834886968844980e-02,-6.099702215312197140e-01,8.956102503609331134e-02,1.487199861611545465e-02,-1.857875502426879072e-02,4.570478743354639342e-03,6.695696711540222168e-01
6.613624354177646825e-02,-5.644904772865635412e-01,5.856821273243717485e-02,-5.091387785190960164e-03,3.345382317505533627e-03,-1.868930795851015889e-02,6.278008818626403809e-01
7.110733587587220184e-02,-5.910898159241946281e-01,8.186171567187564002e-02,-4.779588369991153579e-02,-4.259661596493099361e-03,-5.678922080912127829e-02,6.799448728561401367e-01
3.033952727064964661e-02,-3.507367377482020210e-01,1.103093385793561809e-02,8.436888407291143199e-02,-5.312237369115005090e-03,-1.896781814125336058e-02,4.009391665458679199e-01
6.480650704113141702e-02,-5.033297244848267127e-01,5.352835751895240746e-02,2.820980429656673796e-02,-1.349189949240513393e-02,-3.983105513169208495e-02,5.693781375885009766e-01
4.298409850612003313e-02,-4.182735453497547495e-01,3.441802335573204696e-02,4.874946569973498400e-02,1.204059303783740946e-03,-4.884594163213640435e-03,4.648508131504058838e-01
6.707463883900954826e-02,-4.497254966708092994e-01,3.273089524497746483e-02,1.097101881868434575e-01,8.441252300252482382e-03,-7.693726219828789410e-03,5.357362627983093262e-01
6.606235801415036302e-02,-5.839995220176925628e-01,6.711956819126427276e-02,8.730706361871955765e-04,2.879800367142393378e-03,2.508041469262531527e-03,6.506264805793762207e-01
2.746990397996795785e-02,-6.805821632558173295e-01,6.799839133852331186e-02,9.306463362840007580e-02,-1.080763790789591866e-01,5.983817190620016602e-02,7.768159508705139160e-01
2.709495962909400091e-02,-7.428735402556149170e-01,1.115093830975563138e-01,8.124427900905359379e-02,-1.070797206847704242e-01,7.686922117542659139e-02,8.584290742874145508e-01
-1.970219323952665524e-02,-6.382249197174685307e-01,9.612269591421884751e-02,1.207455162503717067e-01,-8.845828381522183315e-02,6.627828070179291042e-02,7.402820587158203125e-01
1.749208645534897077e-02,-6.016724586184905021e-01,8.220300453025106147e-02,6.185383428098462956e-03,-3.526306971426211578e-02,-5.482915377242528546e-03,6.569279432296752930e-01
-1.502032932392291520e-02,-5.856150682805593144e-01,9.603133457806539708e-02,3.340249932669625121e-03,-1.136406786911369968e-02,-1.791390407008064964e-03,6.338034868240356445e-01
-2.754887659957516721e-03,-6.805253171988896455e-01,1.072070192507499353e-01,3.497857171575135399e-02,-7.366857812208686684e-02,3.360461890562584097e-02,7.545414566993713379e-01
-1.776491888204362324e-03,-5.998115920019332359e-01,8.954897044453158372e-02,1.975485595528456498e-02,-4.408696976653398575e-02,8.459007087553595608e-03,6.540784239768981934e-01
9.075888810614762825e-02,-5.570446554128903882e-01,5.372216453102190981e-02,1.399343896033967451e-02,8.003497642796652753e-03,2.808958714972221906e-03,6.307392120361328125e-01
7.150997193264158058e-02,-5.606338434443227658e-01,6.592750440837230608e-02,2.038083686310637049e-02,9.568504304066718230e-03,3.434675415847117798e-04,6.305784583091735840e-01
7.023311670916160265e-02,-5.876282852951985047e-01,6.581426794905081978e-02,2.098913486545141843e-03,1.288203935001962274e-03,-3.563202122656430274e-03,6.557060480117797852e-01
8.142485606389929242e-02,-5.722606528042077922e-01,6.211286985156641571e-02,2.734137576429904876e-03,9.598740147335277362e-03,-1.633798653250282968e-03,6.444847583770751953e-01
7.730417639638154093e-02,-5.640473962019723064e-01,6.305973538250778110e-02,4.219499286099086949e-03,8.569847990444481867e-03,1.331121869000461864e-03,6.345692276954650879e-01
7.825169944462306848e-02,-5.621270052207751888e-01,6.046750381338186764e-02,2.509282177785140174e-03,7.830841950493447681e-03,6.372281288072581453e-04,6.318359375000000000e-01
6.059675677836565133e-02,-5.513554806736034042e-01,6.176746068306257498e-02,7.977701785679394697e-02,1.649882806626383610e-03,7.152837719632343383e-02,6.400418281555175781e-01
6.573107388577281718e-02,-5.834899170310150485e-01,7.738787113974923693e-02,-3.575668596402735433e-02,1.743711747185743705e-02,5.302082229579688222e-02,6.651113033294677734e-01
2.817074335852773337e-02,-3.981678043391373434e-01,3.919014471350332207e-02,-3.809009377410445957e-02,-1.492487127871310569e-02,3.145794136669598229e-02,4.411049783229827881e-01
1.201966162464391252e-01,-5.994657797131873744e-01,3.846415926427937393e-02,1.651336504219701184e-02,-7.922466909414258712e-03,6.597117593668817837e-02,6.927029490470886230e-01
1.391425573008717720e-01,-5.049527370804327564e-01,-1.029333270596258648e-01,-3.702867875838902756e-02,-2.303877109909608159e-02,2.729544865783840590e-01,7.394306659698486328e-01
8.169111390461497590e-02,-5.946672890175566106e-01,5.278817148263437176e-02,-2.342936861737418726e-03,3.507850768175414195e-03,-1.240395404554253331e-02,6.627686619758605957e-01
2.247767707574127027e-01,-6.718817056819792466e-01,-7.077349071674704506e-02,-9.988303918664072356e-02,4.743071399924565085e-02,2.589638422606973522e-01,9.296259880065917969e-01
9.501101362181119114e-02,-5.641955626651835587e-01,3.400350079777220147e-02,-1.194550665316402617e-02,6.928884547464350500e-03,6.679104506156700871e-02,6.418830752372741699e-01
1.250231302779791220e-01,-6.456596816449373666e-01,4.431238373131807240e-04,-6.593728805864404463e-02,2.666619691781517767e-02,4.132370551949678811e-02,7.305887341499328613e-01
1.734647860269314390e-01,-4.839382562914649188e-01,-5.352200756592177811e-02,-9.086362182335072646e-02,4.445141565781704496e-02,1.913532615322213748e-01,6.892202496528625488e-01
9.215293955069012166e-02,-5.677995424269585145e-01,5.417087939623591031e-02,2.611385335760993062e-02,9.930124297086613799e-04,-5.294114678813854891e-03,6.434643864631652832e-01
5.977121803324519922e-02,-5.873733000505357849e-01,6.589751217052064458e-02,-8.353736753420016540e-04,-8.827181620480364921e-03,1.038151447917502572e-02,6.506591439247131348e-01
4.934955682453837089e-02,-3.941501771059557901e-01,4.165557546807396871e-02,9.381592477904990290e-02,1.488453968182204545e-02,4.053463252893629853e-02,4.746967852115631104e-01
6.137186616263670680e-02,-5.612792918707270040e-01,7.939451793413310199e-02,1.017452309927235551e-02,6.571223954642333234e-03,3.289004949462843302e-02,6.347649097442626953e-01
7.018166925851843096e-02,-5.063301521792411553e-01,4.668075091324835890e-02,3.640235921146844217e-02,1.810232692100140553e-02,1.034187835199797123e-02,5.697797536849975586e-01
5.001667255894029496e-02,-4.606245299421966588e-01,5.167455657062069996e-02,3.206711087334138122e-02,1.898281913422969827e-02,5.278361626453308142e-02,5.235723853111267090e-01
1.026893756196113616e-01,-6.031676007413681040e-01,5.879838215157007220e-02,1.076220389237398344e-02,-1.747407265043133401e-02,5.749158864277631453e-02,6.930794119834899902e-01
5.769346870362901392e-02,-5.592684865244408332e-01,8.214711111951705780e-02,1.375141210863555646e-03,-1.371338531345212171e-02,-1.679739807387658004e-02,6.306689381599426270e-01
6.419713836508297855e-02,-5.912526443246450825e-01,8.607554151713017743e-02,-4.407028649791268002e-03,-5.143440388141898821e-03,-1.275153223803373800e-02,6.671271920204162598e-01
6.876872635136949130e-02,-5.911608925239475454e-01,7.578595802501622569e-02,4.137189901276548502e-03,-1.736179182195938695e-03,-5.560520089840251777e-03,6.635814905166625977e-01
7.990028735066845300e-02,-5.663435565984241693e-01,4.655819336749744686e-02,-1.089346867801148540e-02,3.836301402699039773e-03,-3.282908942868140167e-02,6.331106424331665039e-01
5.468000165992406569e-02,-4.842499912467624346e-01,5.286946574334294713e-02,6.522185227655380446e-02,-5.104125034680260554e-03,-5.671584315445863528e-02,5.585364103317260742e-01
7.303634942646639039e-02,-5.898305921776352267e-01,6.552911946436865143e-02,2.636151000829675076e-03,-1.194231370856441935e-03,1.845064396524594835e-04,6.591645479202270508e-01
4.231709352922138900e-02,-4.533713511125598283e-01,4.752242728626468460e-02,1.940670191895094458e-03,-1.774470446690477876e-02,-1.914989989039408980e-02,5.003703236579895020e-01
5.762157974075826639e-02,-4.882073747492095550e-01,5.029866634079302457e-02,1.096101923330433485e-02,-1.892962819414015230e-02,-1.665738443505087110e-02,5.442918539047241211e-01
6.952452051046190129e-02,-6.097410227849444642e-01,4.231457010649636308e-02,1.281095968730625555e-03,2.577741185044876704e-02,-1.068686889848759723e-02,6.678324937820434570e-01
9.485044621570132284e-02,-6.360152947581172445e-01,5.543340194385520947e-02,2.638203552211800668e-02,5.126911905922132071e-03,-3.179457733414797066e-02,7.156182527542114258e-01
2.951800615979019438e-02,-5.523463828596066882e-01,8.425504057411678516e-02,3.733971995826389223e-02,5.115502416071387483e-03,-1.377071142319062115e-02,6.150138378143310547e-01
4.978440869939820823e-02,-6.008438813618298679e-01,5.855732929495219286e-02,-1.041953593033813526e-02,1.512485884612155621e-02,9.082973515515240783e-04,6.558327078819274902e-01
4.329982775788829286e-02,-6.821133278247664133e-01,9.604722013599459318e-02,1.374334054528628980e-02,3.473629637321828251e-02,-3.595749715903146654e-02,7.585087418556213379e-01
7.405787077085398962e-02,-5.973150135321827481e-01,3.690385394528716834e-02,-8.305300117037693608e-03,2.158013300673795529e-02,-4.671775131371389868e-03,6.548643112182617188e-01
5.495723294732851594e-02,-5.740067377084164812e-01,9.079888945977007686e-02,-1.212437793080255524e-02,-4.342822881419246273e-03,1.564887774053742159e-02,6.485797166824340820e-01
3.296291087554520383e-02,-4.551975037472700270e-01,5.735095324729647115e-02,-2.095936602498043796e-02,-1.257680323009539164e-02,1.895458280441004659e-02,5.036575198173522949e-01
2.856340140076574219e-02,-4.153240030791686133e-01,4.543554376274366868e-02,-2.090038671555492084e-02,-8.781757433071586683e-03,5.409962168366743568e-02,4.638234376907348633e-01
1.950089020991434274e-02,-3.584552440171189791e-01,3.877636156688535340e-02,3.417759204122498146e-02,1.909914959679629223e-02,8.680771763925196338e-02,4.215602576732635498e-01
1.402565376078526715e-02,-3.166530109809061466e-01,3.609044212115881944e-02,-2.447156795713338953e-02,1.573071149911901834e-02,7.580890547660812384e-02,3.700155317783355713e-01
7.426250214789742454e-02,-5.312911182878730099e-01,6.287514965903692743e-02,-2.641633825768028090e-02,3.405445177990851224e-03,4.623658945780651647e-02,6.070180535316467285e-01
7.475289407670629438e-02,-5.296503929342566419e-01,6.535078722079132318e-02,4.540650229483348364e-03,4.245592146641004316e-03,4.769411284387090055e-02,6.055156588554382324e-01
3.724497137127244506e-02,-4.663696527392818258e-01,6.529746874439548709e-02,1.496480745605496647e-02,7.156411997634512870e-03,4.503084819171412900e-02,5.248343348503112793e-01
8.655918257288544582e-02,-5.731641526625246286e-01,6.269084555886156318e-02,2.105546445157386107e-02,3.914628042409883622e-03,-3.003179703872110688e-03,6.492003798484802246e-01
5.028248357949322012e-02,-5.821103836707521850e-01,7.514177658687298811e-02,4.444054700603541235e-04,-3.142656449953352537e-03,-4.762276928344208980e-03,6.452579498291015625e-01
7.923791895533754959e-02,-5.662842185286831587e-01,5.603733664723076213e-02,3.366644694040458259e-04,2.439955523911413113e-03,-9.243489035541251498e-04,6.342565417289733887e-01
7.776220355168778076e-02,-5.669611827992131481e-01,6.315746424066631670e-02,1.728434625278506970e-03,1.029798929212254622e-03,-4.581731466743233817e-03,6.376054286956787109e-01
3.039310097537981092e-02,-3.319611962616035306e-01,-9.266673142897585702e-03,1.276144471954092363e-01,-3.801275456953056436e-02,1.002328339140303309e-01,4.492591321468353271e-01
8.873006571664107667e-02,-5.697376348807030588e-01,6.153766958208747861e-02,2.295282087746222319e-02,2.782187718020215968e-04,-2.241932084978354080e-03,6.465366482734680176e-01
5.830327924125949801e-02,-5.866692693104327283e-01,7.331659077732893826e-02,4.456103782558078902e-02,4.759515091649242635e-03,-7.771054460304353123e-03,6.573464274406433105e-01
5.827976560999661992e-02,-5.279773619593861600e-01,7.011371269810087736e-02,5.360037027569069384e-02,5.614371220187451550e-03,-6.518484372835315309e-03,5.996801257133483887e-01
7.480089764419806109e-02,-5.952660385703948398e-01,7.306667781922215887e-02,3.183717252360948515e-03,-7.270830537569497425e-03,-3.374461950382181847e-03,6.693682074546813965e-01
8.031748535727853411e-02,-5.866434070243717880e-01,6.898825744300660090e-02,1.152501011767993570e-02,-4.776137248960869892e-03,-7.908533098336640406e-04,6.617233753204345703e-01
7.680736206954591472e-02,-5.637654217627159348e-01,6.557867737887088100e-02,8.982256582052214680e-03,-7.227935722381066859e-03,-2.751740660986275611e-03,6.353646516799926758e-01
5.533933958698245004e-02,-5.811169138249066002e-01,5.811724272885976372e-02,1.060218060423968878e-02,2.837962519106165121e-02,-2.916999186797757798e-02,6.419956088066101074e-01
5.535629466248823127e-02,-5.882696942727623224e-01,6.319229060859074543e-02,6.819395152120037609e-05,1.016679326508128020e-02,2.016422835903419319e-03,6.478283405303955078e-01
5.651477615050642944e-02,-5.358101140846467381e-01,6.517202212878692169e-02,2.621026156779325544e-02,9.500249073208259440e-03,-4.968454238393039957e-02,6.048049330711364746e-01
6.046109721601586329e-02,-5.905848459200662148e-01,3.533428987674730459e-02,6.737489143549778986e-03,-2.098498398030590115e-02,5.785732973984389696e-03,6.400712132453918457e-01
7.361853876052890100e-02,-5.598527893842071279e-01,5.337172243656698734e-02,1.044992327738462901e-02,7.816011277057057297e-03,-1.846716174312628897e-02,6.248232126235961914e-01
6.719961730640039432e-02,-5.630700209165471204e-01,7.351378263737554097e-02,8.312498245580108962e-04,-6.655923634569083265e-03,-7.242612149210649747e-03,6.336810588836669922e-01
6.671209445167816665e-02,-5.614174068904238535e-01,5.813090716480615039e-02,-6.422506473226470732e-03,9.330611740325865655e-03,-7.386772474515850007e-03,6.243227124214172363e-01
2.298774138135006861e-03,-6.071919328461679033e-01,6.374488976868905588e-02,1.165395410459540287e-02,-6.871373969082471278e-02,7.468107413185549014e-03,6.537926793098449707e-01
4.986212321544147841e-02,-5.849608933733458915e-01,7.412345155784577644e-02,-4.825208582882803757e-03,-3.804857546012631320e-02,-6.477606392465544483e-06,6.506946086883544922e-01
5.411123798236128213e-02,-6.101242343865500573e-01,6.830124597092904204e-02,-1.181336176335073297e-02,-4.512514651830024093e-02,-2.224364102394858766e-02,6.773828268051147461e-01
6.722958221874814067e-02,-5.891090393143411097e-01,7.315805459019572576e-02,-2.017079852881725407e-02,5.221957841646641431e-03,-9.765005429419260780e-03,6.605263352394104004e-01
8.303680632661170069e-02,-6.353417866052982754e-01,6.596567025069849377e-02,-1.597147165427944410e-02,5.141551537996234648e-03,7.179000659149689656e-02,7.213886976242065430e-01
8.275088251047846288e-02,-5.897753180570617371e-01,6.465561986302861830e-02,-9.231834085934189846e-03,-1.522731775704754377e-04,-1.036207827369107527e-02,6.640988588333129883e-01
7.557999898011405482e-02,-5.907922960200078233e-01,7.683075769432765045e-02,-1.253747513872541068e-02,-1.267236894635307386e-02,5.321115478742055073e-03,6.677764058113098145e-01
-1.108693236508434543e-02,-5.152295624161251641e-01,8.321102494505561165e-02,-9.968304037284618502e-02,3.606084720789549947e-02,1.031303255216301992e-02,5.870450139045715332e-01
3.902064586097028775e-02,-5.226326872128758128e-01,9.310279784937544600e-02,-1.343334873967083065e-01,7.746568209382707904e-02,-6.064769146520608382e-03,6.488484740257263184e-01
6.639822189779667760e-02,-5.891373664988794889e-01,6.654644093868347654e-02,-2.195566900516891882e-03,-2.889796891440176915e-03,-7.397723710480756242e-05,6.556398868560791016e-01
5.860411887325198133e-02,-5.641674706136308171e-01,6.901501613850571926e-02,-1.040952841275851609e-02,1.054565414770159093e-04,-3.428330365224625115e-03,6.283286213874816895e-01
5.507693635069546567e-03,-2.644896457344947382e-01,8.698510159995870294e-03,-6.331247025126968131e-02,4.012046447959769641e-02,4.159636380305850589e-02,3.095405995845794678e-01
6.888922647275014244e-02,-6.717819181951726337e-01,9.233421783348222389e-02,5.214424826249841605e-03,3.135832845122636658e-02,3.560409800581190026e-02,7.571941614151000977e-01
6.997870686988322264e-02,-5.865062585093991920e-01,6.711136741890177948e-02,-3.624509327176471830e-03,2.527617610508914488e-03,2.707184518700706151e-03,6.551175117492675781e-01
6.659407147348236911e-02,-5.649930941449683441e-01,7.660918279466469305e-02,-3.554471095262424270e-03,-4.379744837289632244e-03,6.715256649086364694e-03,6.368349790573120117e-01
7.588148989114582021e-02,-5.802345557622821115e-01,6.102067727897839133e-02,-2.644955779408661445e-02,-1.728614024185580467e-03,5.176212724376326631e-03,6.504973173141479492e-01
7.282542948631787194e-02,-5.984818858952742904e-01,7.305810281868735379e-02,-2.274560123046802471e-03,-5.232009091143669140e-03,-3.024410557954519772e-03,6.715168356895446777e-01
6.631985829422382128e-02,-5.859692354220367161e-01,7.989523178456237051e-02,-1.110722111863696849e-04,-5.164026902081519238e-03,8.646243126725764935e-03,6.594124436378479004e-01
7.482501480428527252e-02,-5.706409921300075183e-01,6.980312909318373005e-02,-1.093344570508702693e-02,-1.103650906055980707e-02,-2.027641964785801328e-03,6.435421705245971680e-01
3.883822812764600729e-02,-6.334032152232023094e-01,7.257089029150864956e-02,-1.139007194137531438e-02,-4.868415534465472122e-02,2.561987573613739091e-02,6.965570449829101562e-01
7.893147576035036694e-02,-5.494577858615077304e-01,5.398583160191891550e-02,2.550159857145653519e-02,1.192399126221181486e-02,-1.320059730184678943e-03,6.182253360748291016e-01
7.362337180876332710e-02,-5.812839691521001217e-01,7.075306142528206554e-02,7.222242472839209004e-02,-8.570482000090383357e-03,7.804150490713321342e-02,6.790965199470520020e-01
6.889703250545176072e-02,-5.897857645265097704e-01,6.862542919486627757e-02,-2.865570570834946595e-03,2.075438500925750294e-03,6.400182362845826221e-04,6.585764884948730469e-01
7.831687254854671765e-02,-5.452175989732868100e-01,5.460219046338071758e-02,1.027816240197516710e-02,7.973252633188732466e-03,8.012331907600934652e-03,6.125935912132263184e-01
6.863847848012624708e-02,-5.022835252377223503e-01,4.604903619692871097e-02,4.910677748250818347e-02,1.893606898394668142e-02,7.975526021305299681e-03,5.675089359283447266e-01
8.093432366266853362e-02,-5.572311742506226295e-01,5.951952564777673871e-02,1.173413672164902444e-02,9.432874863306376853e-03,7.419714013154187805e-03,6.284049153327941895e-01
6.106560559578996794e-02,-5.389231159383114367e-01,5.087537114070261879e-02,4.071284565861840038e-02,-8.744111516652650073e-03,4.171999439951451505e-02,6.036554574966430664e-01
8.054447686155621899e-02,-5.014037089460230412e-01,4.045186051945298678e-02,2.200506841662196525e-02,1.069179798021452181e-02,-3.065611033693002829e-05,5.645661354064941406e-01
7.719897911937154134e-02,-6.103189518273330894e-01,7.247064508290171347e-02,4.049265103845101077e-02,-7.334318480935478552e-04,2.629205635005304326e-03,6.887624859809875488e-01
8.429713659337303988e-02,-5.347604963981524850e-01,4.969488082792294925e-02,1.999201625271271321e-02,3.787005982771530685e-04,5.014464593798400585e-04,6.034973859786987305e-01
8.324689736792817429e-02,-5.351668516510719176e-01,4.920221141532768461e-02,9.620639387820543315e-03,5.753342168504521799e-03,3.342043180682701276e-04,6.024269461631774902e-01
7.215980416763212446e-02,-5.451770500462558289e-01,5.362476390329690146e-02,2.622149546011009677e-02,7.874846409025643883e-04,-7.619904534135506918e-03,6.101186275482177734e-01
6.467503785933745308e-02,-4.684914416254397640e-01,6.121998899170341679e-02,1.062277424179309399e-01,3.950264192369056654e-03,-7.433898809236915740e-03,5.625850558280944824e-01
6.128341813730739385e-02,-5.274464278713664189e-01,6.111246300696307476e-02,1.027542449481861318e-02,-2.566544959509586832e-03,1.305505942060784970e-02,5.893641114234924316e-01
7.217035145456501821e-02,-4.524574349337086021e-01,2.684293291885275767e-02,2.619399119466024259e-02,6.013811775852746615e-03,8.164978044403692348e-03,5.058416128158569336e-01
4.330059492043175640e-02,-3.614965670257231367e-01,8.629792802056793222e-03,9.807231131413812752e-02,7.192745851143405277e-03,1.264314212769146288e-02,4.248734414577484131e-01
6.904060308951612268e-02,-5.770329203097012138e-01,7.770420256831062078e-02,1.724364108584314648e-03,-7.874824609859899446e-03,-5.047497507930446582e-03,6.506571769714355469e-01
5.010352634163464658e-02,-5.785840997130640151e-01,4.490374923546638919e-02,-3.281598727909504202e-04,-1.824726238074692378e-03,1.573479313653282190e-03,6.261181235313415527e-01
6.500090977996761388e-02,-5.953076222606425993e-01,6.130121217533429645e-02,6.318643923900596308e-03,-1.207079817044628793e-03,3.277892820227853218e-03,6.585851907730102539e-01
7.380897417753037870e-02,-5.915654343179368446e-01,6.955947039746634974e-02,-8.543800380513819938e-04,5.527866224400645838e-03,-3.006019974752212071e-03,6.633510589599609375e-01
8.138123795113236247e-02,-5.857885713742188027e-01,6.789846312273964402e-02,2.632702812756597486e-03,-4.206853867511050823e-03,-1.189015702275122250e-03,6.605907678604125977e-01
6.609268685201830085e-02,-5.866308915641227362e-01,7.185736278188373238e-02,-3.728431362676538040e-03,-3.648011419658430884e-03,-4.412743470487649061e-04,6.556876301765441895e-01
7.254578247465998109e-02,-5.782407638831329466e-01,6.813594733510336399e-02,-1.337545093344645912e-03,-3.428734740559690082e-04,-4.127245737961409734e-03,6.486366987228393555e-01
9.227589352126311373e-02,-5.381418112606594084e-01,4.166400322205873752e-02,8.153605609910368271e-03,-1.289484540557065935e-03,-2.248081825864509456e-03,6.068781018257141113e-01
5.618785972969092546e-02,-5.655686250985363372e-01,3.460783977315323723e-02,4.430975603609372399e-02,-4.766442856537725370e-02,1.638962578262003617e-02,6.222065091133117676e-01
5.816410432684054888e-02,-4.219494135537939505e-01,1.991441963374734891e-02,3.902681067514703062e-02,1.338684159105765770e-02,3.945298730048545674e-04,4.676699638366699219e-01
5.353599639455886017e-02,-5.809193498795282018e-01,5.362748356709082231e-02,-1.805596195711222859e-03,-1.565192314415882354e-04,-2.174029425709943491e-03,6.345200538635253906e-01
4.918333765213386832e-02,-5.828005677215757352e-01,5.978873561900310829e-02,-3.744176515201964959e-03,-2.786540749425770683e-03,-3.848736539883549496e-03,6.374388933181762695e-01
6.158145494664404862e-02,-5.835922195736298335e-01,6.167427323208127254e-02,-1.727929622138012341e-03,-2.791913450557108149e-04,-2.840496269548584054e-03,6.452459692955017090e-01
5.659830017974235017e-02,-5.820441693165359087e-01,5.430422241424856522e-02,-1.652418534663582621e-03,-3.070638574559300844e-03,1.614586354504988401e-03,6.375332474708557129e-01
9.313666321387278901e-02,-5.556423822129737955e-01,4.784230313368237342e-02,8.203114302304496605e-03,5.236954204930177256e-03,1.557447240281670210e-03,6.275916099548339844e-01
9.346491465199729953e-02,-5.597829709112691621e-01,5.120041032393068958e-02,-4.564401737949175990e-04,3.601855091670852927e-03,7.742360608899047500e-04,6.332070827484130859e-01
9.766242952813281031e-02,-5.566480765316166313e-01,4.718824505104066147e-02,-1.189963154477873680e-03,8.365755169259084289e-04,-2.384934987689583778e-03,6.306088566780090332e-01
9.224620574687728003e-02,-5.578435062793540844e-01,5.119074788665478604e-02,1.937981627004284075e-03,1.991462553487424020e-04,-9.689381331216457855e-04,6.305764317512512207e-01
5.432670926690366664e-02,-5.863118288666471223e-01,5.318577605282515108e-02,2.733667405406052867e-03,-6.977948343371985669e-04,2.582946527289943939e-03,6.401031017303466797e-01
5.325564412651220825e-02,-5.832353907896317136e-01,4.829240565724948753e-02,2.985775935726855349e-03,-1.782449083953777059e-03,3.746651520828679378e-04,6.340529322624206543e-01
5.364599520511612041e-02,-5.826148906320942622e-01,4.982638801909855530e-02,2.538177320485720829e-03,-5.521636854134190364e-03,1.679555599072409845e-03,6.344537138938903809e-01
5.388913285647736751e-02,-5.822178350390427859e-01,4.481565685368749108e-02,2.744015336031031815e-03,-2.110770282294067556e-03,1.446332440973306524e-03,6.316525340080261230e-01
9.578636613716812187e-02,-5.922723130211687836e-01,1.647381679818529787e-02,-6.195465764572528379e-03,5.799584919001995152e-03,7.470711589233069994e-03,6.523243188858032227e-01
1.033304995664616199e-01,-6.036436186848015417e-01,1.865381941701207968e-02,-4.046251246195581991e-03,1.441001928830441727e-03,7.470181420654330162e-03,6.688356399536132812e-01
1.338357480778473163e-01,-6.199162224631110663e-01,-3.896817144467543126e-02,-1.218698581432465372e-02,1.476350272395174357e-02,1.369744601105982000e-02,6.851381063461303711e-01
1.009349861815748706e-01,-5.966592541878739109e-01,-9.418729322661356651e-04,-7.020788005060917859e-03,-8.757945546275599027e-03,-2.310584438218242845e-02,6.541616916656494141e-01
1.245711324438910639e-01,-6.455501564352232879e-01,3.377292309178453467e-02,-1.687668116262410270e-02,2.031264189025594122e-02,-1.406048160673672583e-06,7.304093241691589355e-01
9.062695003097523405e-02,-5.621532272573621647e-01,5.376197663686663186e-02,2.393026889138567272e-04,4.794067666600727688e-03,-3.569853043530936561e-04,6.352052688598632812e-01
9.604260375708617570e-02,-5.644975411053924086e-01,5.137113773016840912e-02,3.783077617894265408e-03,1.730045967876544686e-03,6.954792152104782767e-04,6.394176483154296875e-01
4.522651728886947775e-02,-5.773461332816234304e-01,4.191975992425445163e-02,3.435633363664059373e-04,-7.723547688974486715e-03,3.974933480542175109e-04,6.210706233978271484e-01
9.579998643138790126e-02,-5.598867657148836052e-01,4.875648612851454788e-02,3.069361491534978136e-03,1.377929708359543507e-03,-6.198662639247495181e-04,6.335041522979736328e-01
4.337879242344822028e-02,-3.922573617811537239e-01,-1.084119911702685624e-02,6.396909745004134007e-02,-5.034268977169986670e-02,6.401355152461217501e-02,4.486323297023773193e-01
5.623478478648089030e-02,-4.587216628198162449e-01,5.212407401739582724e-02,2.053781121867559109e-02,9.371133934789820444e-03,1.128211738316637069e-01,5.502680540084838867e-01
8.287391889160775071e-02,-5.893030661912738166e-01,7.147473696677764110e-02,4.089041454831941931e-03,5.721924092362074346e-03,3.692631457292185060e-02,6.697227954864501953e-01
4.324389263764688573e-02,-4.142899140080732456e-01,2.362422296635899310e-02,-4.399778720382826330e-02,1.914356550664517154e-02,1.527680124952041918e-01,5.269407033920288086e-01
9.467489419671365480e-02,-6.110764288658181442e-01,4.029306556247386206e-02,-1.376821453871711516e-02,7.275734141785394687e-04,2.801009175850585620e-02,6.823387742042541504e-01
9.746846601743575089e-02,-6.109392033714013959e-01,3.569611906251510258e-02,4.219990558457684116e-02,-1.006241722567869853e-02,3.895628371424663533e-02,6.870926022529602051e-01
5.558783212166948373e-02,-6.172465725006834880e-01,5.319395843835988957e-02,-2.448551094545103196e-02,-5.937040938612913460e-02,-1.418146733356019261e-03,6.807939410209655762e-01
2.574055267916644518e-02,-5.735688178240501145e-01,3.185399135067271126e-02,-2.676352548107777812e-02,-9.142804062067756699e-02,-1.748644107790553459e-02,6.253130435943603516e-01
1.291797250077092452e-02,-8.041815551163092879e-01,1.509212345993182214e-01,-3.510413639342368749e-04,-9.234806735974494807e-02,8.060469349009770357e-02,9.189859628677368164e-01
2.697788130077288793e-03,-6.670015724513598254e-01,8.677992267963791084e-02,-9.014281379969001431e-03,-9.256887586745322916e-02,-4.338273318251283962e-03,7.334057688713073730e-01
4.948705931776262168e-02,-4.028507091412938945e-01,2.411406276055666487e-02,8.476861361829179931e-02,1.300674598765578713e-02,4.622639032180986263e-02,4.714354574680328369e-01
2.323646865688697161e-02,-7.936103014087558805e-01,1.237811915156789566e-01,-2.580746815634053868e-03,-8.247160299959493956e-02,6.352312025354344858e-04,8.831213712692260742e-01
2.449807033126433220e-02,-7.544804692057560658e-01,1.310434617423016368e-01,-2.751478470891481273e-02,-5.897222177460250542e-02,-3.088203402713925183e-02,8.465940952301025391e-01
5.136557583417702966e-02,-5.812731357914203700e-01,5.147805365641389130e-02,-4.812862803356104946e-03,-6.602643776924037311e-03,-2.030942808059084045e-03,6.328629851341247559e-01
4.589747137260097309e-02,-5.794714452165310448e-01,5.245964041368855746e-02,2.105796879762423558e-03,-3.242043678128169945e-03,-4.766500530276678266e-04,6.287118792533874512e-01
6.981842130196455609e-02,-5.987642625175045863e-01,6.124583853095028063e-02,3.331449216224122915e-04,-6.161621110722193071e-04,4.254606566521120133e-03,6.643798351287841797e-01
5.455242633964696441e-02,-5.470693050148471848e-01,8.188628511263557064e-02,-1.384682010115210896e-03,1.005212882605484304e-02,7.778744933699575318e-04,6.159961223602294922e-01
5.714101389988557322e-02,-5.798606594668780367e-01,5.007135220647890295e-02,-6.191274630647893365e-04,-5.379199378478128485e-03,-1.112072027426859585e-03,6.335687637329101562e-01
3.320309680530689200e-02,-3.791782551529062073e-01,1.451704233625941698e-02,-2.944708814768560654e-02,-8.457780794191306281e-03,-1.085596751345545979e-03,4.068430960178375244e-01
1.711188625990206491e-03,-3.107022603190461862e-01,5.890397699472429971e-03,-2.268420786581339804e-02,-5.460476734953984522e-03,1.230318063957474509e-03,3.171166777610778809e-01
5.224383777934546447e-02,-4.587104120129477103e-01,2.196691119322263797e-02,-4.907952683866283888e-02,4.816616498161518239e-03,2.203121344041967730e-02,5.052454471588134766e-01
5.276496503209116007e-02,-4.207166762759443901e-01,1.397306920413432518e-02,4.284696622743330158e-02,4.828660453859978489e-03,4.949108127482931135e-03,4.614904522895812988e-01
2.332008946323138598e-02,-3.052280623889907507e-01,1.109447881116654155e-02,-4.165442356883248404e-02,2.247749553269585857e-04,1.480155812016045735e-02,3.315710127353668213e-01
5.371654558466995577e-02,-4.080899562589300755e-01,2.368986340742190722e-02,-1.226476996982006351e-01,-1.223792129160493000e-02,2.983235848366030604e-02,4.985447824001312256e-01
1.447131880581138674e-02,-3.231959915446888099e-01,1.186380346382243101e-02,1.466048929898467867e-03,7.660029042328507509e-03,8.002968314200126915e-03,3.369275331497192383e-01
6.918497818755262041e-02,-4.938109655873805792e-01,4.473474744114244728e-02,-9.292025692630053986e-04,1.628160161233602882e-02,1.154781325432390968e-02,5.522633194923400879e-01
6.060693979287032351e-02,-5.810043235677917473e-01,2.465799535540094678e-02,3.085979472278875708e-03,-1.146954993432901075e-02,2.797611598011817777e-03,6.247709989547729492e-01
3.778437821467187097e-02,-4.017529532486761590e-01,1.810582300628618690e-02,-4.735407349332081822e-02,1.698954551745371746e-03,1.183760248486422908e-03,4.378024041652679443e-01
7.163404007628981773e-02,-5.629484914794152806e-01,4.031557197415283622e-02,3.305502435443967869e-03,-7.722579117871652358e-04,-1.397118659834573930e-02,6.200175881385803223e-01
9.950004008600893401e-02,-6.067887383046489669e-01,5.860058454926309057e-02,-1.194152053584737749e-02,1.461157251501707215e-02,-7.452766368897449645e-02,6.995435357093811035e-01
5.675156555549185078e-02,-5.892076947576492252e-01,5.351848467704106715e-02,5.124151205128231641e-03,-7.934174501715091782e-03,4.318426185840205846e-04,6.445568799972534180e-01
8.779527599949804584e-02,-5.899022981774284524e-01,3.099388541105674300e-02,-4.201680135968385160e-03,-2.911855603289876908e-03,-3.602423348465583208e-02,6.542001962661743164e-01
7.452076767387935674e-02,-5.996291221580563047e-01,7.275660338955070028e-02,3.192858055984337633e-04,5.788283954406991776e-03,1.588435093651072811e-03,6.733500361442565918e-01
1.015057665015032251e-01,-6.147701870491792953e-01,1.054414083820132131e-02,1.171163994500745362e-02,-2.920686469506000166e-02,-7.163840546737386579e-03,6.777139306068420410e-01
3.939627371220261187e-02,-4.664285412271566567e-01,5.305294042498012730e-02,1.719896921367704626e-03,1.633329039406081554e-02,-2.707901124808782464e-02,5.157151818275451660e-01
1.371171560437216552e-01,-6.439689601231139982e-01,-5.150745867126715893e-02,-2.470098669200435776e-02,-5.987248521376380833e-02,-6.087240046959468270e-02,7.225258350372314453e-01
1.940086218183361133e-01,-7.197237827831237666e-01,-1.038667702424075912e-02,-1.089509270662824963e-01,2.762511594840767835e-03,-1.456347055506728716e-01,8.883602619171142578e-01
2.154650597720683680e-02,-5.962404736001098993e-01,8.888312088894412266e-02,-1.051099190756511065e-02,-7.646177534476858266e-03,-2.807555931241291752e-03,6.544655561447143555e-01
7.938012404826061408e-02,-6.112966741386981484e-01,9.039041167046396597e-02,-3.255274653846576549e-03,3.939051759348101813e-04,-7.155407553977598256e-02,7.072145342826843262e-01
8.098840028977782879e-02,-3.932896435707619598e-01,-8.028999246770918141e-03,-8.560203899222301738e-02,-1.853104815429032839e-02,-7.894526313705386988e-02,4.820323288440704346e-01
5.678786386992534796e-02,-5.727871114598257485e-01,8.411428729239134316e-02,3.467588419913417153e-03,1.026040531651932139e-02,-6.163516408181827057e-05,6.439467072486877441e-01
8.399451258413015431e-03,-5.535599139328877261e-01,7.430412013576884189e-02,1.127660557860299811e-01,-4.490032733495157025e-02,1.653381789770536070e-02,6.341878771781921387e-01
7.285132988393913656e-02,-5.878678803276671250e-01,6.907708377131016597e-02,-3.722166250907441801e-03,1.655624416524047963e-03,-9.174690391568615308e-04,6.588798761367797852e-01
3.221647012018011291e-02,-4.142990492397168323e-01,4.588399764688430582e-02,1.831336718183399284e-02,1.270654456428894907e-02,4.373086667848975762e-02,4.614036679267883301e-01
5.487148410403355769e-02,-5.232657063363235217e-01,1.566594443656504909e-02,1.108544391124922056e-02,-6.623231327795804646e-02,5.621387330377215774e-02,5.797605514526367188e-01
3.599985505727198998e-02,-6.154803019958489108e-01,2.105234539464875820e-02,1.911833099714015938e-01,-1.030426161268712670e-01,2.189457982295856253e-01,8.367975354194641113e-01
6.371113907062400661e-02,-5.811716821043844128e-01,8.808211518511749327e-02,-4.260257050460020643e-03,-2.228671565227967073e-03,1.652228627825183603e-04,6.574599742889404297e-01
9.677737463073887714e-02,-5.530576598127223686e-01,4.628812248636846038e-02,-6.015564154217416552e-04,1.430555592860218187e-03,-4.655673601342741373e-04,6.261253356933593750e-01
7.807664359327251558e-02,-5.889028314919930729e-01,7.535018121672673597e-02,1.067314140582115373e-03,-8.985649620229429948e-04,-4.133635134383846694e-04,6.656252145767211914e-01
6.984897525665004214e-02,-5.279528510183256751e-01,4.506064035620735431e-02,3.137267125130999753e-03,1.659190041136142726e-02,2.636297428205701919e-03,5.865485668182373047e-01
3.106613300156235713e-02,-5.879696214607652571e-01,7.437457751051523847e-02,-5.029131917609337525e-03,-6.967278897898693257e-03,-2.911131699364495097e-03,6.419792175292968750e-01
1.622535731022278771e-02,-3.858340083735387616e-01,2.599089357856071425e-02,-6.634947809801378061e-04,-3.516275021861094228e-03,-3.686238596776668375e-02,4.120538234710693359e-01
4.424326643145390370e-02,-3.700443040547211071e-01,2.557882670902189570e-02,-3.749095950445097136e-02,1.384229655799519738e-02,-1.157296134721038511e-01,4.574075639247894287e-01
6.495674581458318886e-02,-5.862211111522920293e-01,7.504715448932269828e-02,2.799316385885257039e-02,-3.630568419462536136e-03,-1.646076874071123646e-03,6.581060886383056641e-01
1.166073526910109404e-02,-2.923011065350167303e-01,1.056725032219084370e-02,5.171752383373322964e-02,-5.485872186241415663e-03,-7.447283797607481826e-02,3.417815268039703369e-01
6.107076481634601817e-02,-5.853515282665757713e-01,8.999927507716673492e-02,2.008493410989964367e-03,5.786392766733980571e-03,7.784037187078011663e-04,6.614477038383483887e-01
1.157218132815739098e-02,-4.046814393327392012e-01,5.353463473664227257e-02,-6.248214135829173628e-03,-6.864804177758311284e-04,3.358801475849321899e-02,4.427165389060974121e-01
9.349875693396822451e-02,-1.701859077248463470e-01,-2.953866581945099878e-02,5.433248899748739820e-03,7.834424309839242359e-03,-6.615293902739886878e-02,2.561758458614349365e-01
5.448850483741110584e-02,-4.726042311308408239e-01,5.393730362222565189e-02,-2.144117873274190011e-02,1.489203128766790167e-02,-8.228510564484627088e-02,5.476253628730773926e-01
7.884934151541084235e-02,-5.843611569465815281e-01,4.279947809757497779e-02,-5.014661798760492763e-03,-1.558986349079423926e-02,4.786943387365073278e-03,6.466161608695983887e-01
4.305726063890494282e-02,-4.614021060742444225e-01,5.528898114298799737e-02,2.218650544245947057e-02,-1.107981239498178304e-02,-9.291457552385393170e-02,5.371626019477844238e-01
5.897995327480870520e-02,-5.678889891966016901e-01,9.018431018415742906e-02,2.714802580931581586e-03,3.544246489395606967e-03,9.653777787470761013e-03,6.433030366897583008e-01
1.341342067136852279e-01,-3.594032266912126072e-01,-2.446385794752323900e-02,-9.737131763800846440e-02,5.305071244689331389e-02,1.255697730756075714e-01,5.240690708160400391e-01
6.396515435655031334e-02,-4.450976178494707725e-01,4.449309109981630650e-02,-6.766304745605607185e-02,1.522096571531817398e-02,3.034418511686437503e-02,5.165305137634277344e-01
1.084058067494574895e-01,-6.158319124307012338e-01,9.857145909815456797e-03,-3.101172539400489682e-03,5.644072004250785032e-04,6.509136438672434100e-04,6.803606152534484863e-01
1.299036324104448914e-01,-6.103632467656350258e-01,-4.126483345139025927e-02,-1.225187458511941760e-02,-1.170564522664624754e-02,2.680458257732738769e-02,6.734984517097473145e-01
6.773212108145379440e-02,-5.893711068708124001e-01,6.647468073243467668e-02,-2.287552048579354937e-03,1.817672087008312875e-03,-1.709711710553427338e-03,6.565015912055969238e-01
1.348848092110678243e-01,-6.211959384879570667e-01,-4.727053551627258265e-02,-1.069640188564979343e-03,1.217748424495157696e-02,-1.836681045759139264e-02,6.845252513885498047e-01
1.378467169457653352e-01,-6.220565169628564650e-01,-4.470278386206061327e-02,-4.029940047638910262e-03,5.674313624007615818e-03,-1.766933883047017845e-02,6.878511905670166016e-01
4.974314538676510855e-02,-5.823527381255142465e-01,4.796318316511871682e-02,5.952842721842060156e-04,-2.391527792229137823e-03,3.593765332388840043e-03,6.312528848648071289e-01
1.440835347980563008e-01,-6.487014860779769521e-01,-2.591447451180178829e-02,2.866444277242584469e-03,-1.131289777343420788e-02,-8.241116608394150750e-03,7.233587503433227539e-01
6.964378563408105127e-02,-5.957901656688980863e-01,8.444077227611973546e-02,-1.466670675075737928e-03,-4.236092905535275566e-03,-9.040466540714525712e-03,6.731814146041870117e-01
6.434795720999164637e-02,-5.916535356757173236e-01,6.890472636355446379e-02,1.000165637474261986e-05,3.175753533477040664e-03,-5.481553123843648347e-04,6.583153605461120605e-01
1.218351815777449221e-02,-3.452449994319612414e-01,2.728560576236271906e-02,4.839919583578807872e-05,8.627283272555028373e-03,-2.766441584319038159e-03,3.655508160591125488e-01
5.746023971467439928e-02,-5.870110207997298879e-01,6.266583381056972657e-02,-6.033625967704471169e-03,1.363722501753113561e-02,2.598577335927840151e-03,6.476206779479980469e-01
6.732931535063307882e-02,-5.888525331506205829e-01,6.750919872105856645e-02,-4.385273065319682251e-03,1.244568650291335253e-03,-2.430107015221065112e-04,6.563194394111633301e-01
6.081943133636383281e-02,-5.363182591210688965e-01,6.396564191413831035e-02,-3.104587106383582470e-02,-1.774249302624654467e-02,1.108866846569630735e-02,6.022182703018188477e-01
5.186963253158408116e-02,-5.609045634056100127e-01,9.179758350003539014e-02,3.940518132511403927e-04,-1.488495993343588860e-03,3.431040489400961815e-03,6.337158083915710449e-01
6.462963267496596442e-02,-5.874091115384543205e-01,4.102324109879340597e-02,-4.180627076172809507e-03,5.276037280818580977e-03,1.150099602367246131e-05,6.406679749488830566e-01
7.390515143780651552e-02,-5.904320068183583903e-01,6.983564054417254474e-02,2.145638771664854037e-03,-5.145353878678920502e-03,-2.276875609146761931e-03,6.623939275741577148e-01
7.938352597578876568e-02,-5.936175879102222330e-01,6.559772719997600254e-02,-4.127619549692058271e-03,5.639616132868174652e-04,1.707324616077785222e-03,6.662608385086059570e-01
6.416650354315869831e-02,-5.896936398815942892e-01,6.847657502107498684e-02,-2.550907808490600684e-03,-3.296864986662298349e-03,-2.930145842008522144e-04,6.560657024383544922e-01
6.836861979022737512e-02,-5.879643325283177013e-01,7.358907388051125209e-02,-2.400970911923279612e-03,5.889766409504274648e-05,2.943431639503482221e-04,6.589720249176025391e-01
6.057422498842685021e-02,-5.890140359499145273e-01,6.499950934814263670e-02,-6.486248111657195439e-04,-2.202574770735423512e-03,-6.685993719582061789e-04,6.518253087997436523e-01
6.341606987080694591e-02,-5.876574470364890335e-01,6.725586782997175495e-02,1.765251632777463907e-03,6.530884570200528433e-05,-2.771743615760843479e-03,6.530267000198364258e-01
7.983633287044775151e-02,-5.080494248232012566e-01,5.326183202138701223e-02,5.091464536864991758e-02,1.012013645982156040e-01,-1.474674106011249208e-01,6.591168642044067383e-01
8.272242368924767608e-02,-5.822241205775589012e-01,6.487093620599443389e-02,2.193777098214671692e-03,3.165339128407954061e-03,1.738256293232437770e-03,6.562437415122985840e-01
6.724844789622247410e-02,-5.605964949189343738e-01,2.223899228865450217e-02,6.501686785354619455e-03,6.322430011902056834e-02,-3.147425596985042873e-02,6.189077496528625488e-01
7.663081695753345968e-02,-5.915814722803165449e-01,7.659907374184402040e-02,-3.489589488460680296e-04,-1.110040304919185459e-03,-1.667412396171957280e-03,6.682056784629821777e-01
6.380875623771045668e-02,-5.904060392569363547e-01,6.766239655498554328e-02,9.589475067018302665e-04,2.070511738222108149e-03,6.511190382530636107e-04,6.561629772186279297e-01
7.813132906616779283e-02,-5.896084528293943361e-01,6.995201404191750405e-02,8.339129298289903007e-04,-3.021967745621796479e-03,-2.778190973119518386e-03,6.637275815010070801e-01
7.593162172140927035e-02,-4.879412386235986165e-01,4.786893426226207504e-03,7.288535359319898987e-02,6.441358346529148238e-02,-5.325231261008301492e-02,5.654990673065185547e-01
4.420455190537897483e-02,-5.852067527276589853e-01,6.673799949974451584e-02,2.528156022193572220e-03,4.241536516642932172e-03,-3.173072259925702361e-03,6.410557627677917480e-01
7.799500915951970703e-02,-6.406662120507242708e-01,1.029293607702333468e-01,3.648223345878520013e-02,3.643505910349966598e-02,-7.547342415859198406e-02,7.483843564987182617e-01
9.621795004572131216e-02,-6.106470269884467506e-01,2.207779196357226303e-02,-9.646938771574922744e-03,2.149782528297931525e-02,9.753356770415555488e-03,6.743136048316955566e-01
8.396736731493015249e-02,-6.050702476628433413e-01,8.142536490114643533e-02,2.389343310238147000e-02,8.939390947150719149e-03,-6.112592739177876572e-02,6.972727775573730469e-01
6.937455280735163599e-02,-5.780773868839579333e-01,7.914505630486734500e-02,-9.774324872122298457e-04,2.731155464932627855e-03,-3.392216704363160661e-04,6.524116992950439453e-01
7.448449111302402059e-02,-5.865275290568059408e-01,7.728863911449729285e-02,7.070190352649079928e-04,2.558874759635193334e-03,6.233084153409840884e-04,6.624354124069213867e-01
7.359292278018986222e-02,-5.884734798393602695e-01,2.814109082171795118e-02,-3.883091127638284789e-04,-1.169837549390497639e-02,-3.602375930076126900e-03,6.409021615982055664e-01
6.825657917298205701e-02,-5.833593344370336942e-01,6.817284345628926712e-02,5.447619944412247957e-03,1.719065029204851084e-03,-2.868878504674242987e-03,6.516681313514709473e-01
6.905428718243036834e-02,-5.789335614340096470e-01,8.125483067637404022e-02,9.845636194768250197e-04,4.040835829254855321e-03,-1.571545842753700427e-05,6.542131304740905762e-01
7.151869429390719790e-02,-5.837005151627987498e-01,7.725440774040839842e-02,-6.043525638325523194e-04,1.151190879097707459e-03,-1.991680056305043106e-03,6.581187248229980469e-01
2.635274224197409199e-02,-5.910034377806302475e-01,7.151639142350146860e-02,6.587371095581814016e-03,-1.302190972730774346e-02,6.256173581185406514e-03,6.417217254638671875e-01
7.181864013931343882e-02,-5.944872243900193309e-01,7.384093693464960362e-02,-3.396717449127521250e-03,-1.058146570190153599e-03,-9.143961165670760893e-03,6.675356626510620117e-01
5.972661382450639156e-02,-5.889659482914639810e-01,6.746571450781352342e-02,2.363566025675498724e-03,7.636694443402894123e-04,-4.985573689976974948e-03,6.526678204536437988e-01
8.751770827503896344e-02,-5.965348297429931002e-01,2.180207500190384229e-02,7.216544930840082615e-05,-1.533925307592944216e-02,-1.660090665569013621e-02,6.548481583595275879e-01
7.745079817221284246e-02,-5.855929541099305080e-01,5.505766879917012302e-02,4.028795773209110399e-03,-1.360930421941424721e-03,1.363626021518515212e-03,6.521814465522766113e-01
-2.581176838907947579e-03,-2.870281145830669844e-01,1.880356179030712171e-02,4.400761868452581979e-03,9.299315477950888557e-04,6.965352913646838395e-02,3.194772601127624512e-01
7.390540219958280366e-02,-9.731570873968456992e-01,1.707094551239329849e-01,-1.157603707993010711e-01,-1.088112570442920507e-01,-9.194557279861596821e-02,1.143745541572570801e+00
7.052697508170061025e-02,-5.772599071425621453e-01,5.335434248888415443e-02,1.566647046836599924e-03,3.431131671393827277e-03,2.118820892118271771e-04,6.394070386886596680e-01
7.999870665564862149e-02,-5.952199249194278785e-01,7.324230100194331627e-02,-9.938803793256264021e-04,3.708887304429055870e-03,-3.700997249047077026e-02,6.749498248100280762e-01
6.591982827344466944e-02,-5.686008396195434411e-01,7.818058643458808410e-02,-2.472127305687690790e-02,9.662011096354828493e-03,-2.663301979321389124e-02,6.440403461456298828e-01
8.324652357192019458e-02,-5.658807700797520157e-01,3.291424437699080885e-02,-3.493954622848605834e-02,-1.241205285846888205e-04,-1.220946399444059055e-01,6.630318164825439453e-01
-8.815226257281316702e-03,-7.761490968862021500e-01,2.146052941873485276e-01,-1.649488760017661093e-01,-4.770712195972494352e-02,-4.001209340944853615e-02,9.504795074462890625e-01
9.196805385935247212e-02,-5.762131717908132167e-01,5.804546133959351262e-02,-4.785595324918565270e-03,-1.386880804138966626e-03,-2.993957028531934843e-03,6.519599556922912598e-01
9.297773008520102134e-02,-5.538740590888684423e-01,4.835210593979025195e-02,1.147268127257534921e-03,1.906249148370279655e-03,-1.132262169115979883e-03,6.257485151290893555e-01
4.724383907018345208e-02,-5.778646100397909491e-01,4.770615632170022158e-02,4.054769945088444630e-04,2.670871656703721999e-08,6.750964552181702629e-04,6.253412365913391113e-01
6.960303003514389797e-02,-5.894461792187417615e-01,7.182180010046879115e-02,-2.880458337946268429e-03,-1.834119815431179930e-04,9.008658969616645988e-04,6.601821780204772949e-01
7.568897896336343467e-02,-5.893502231527063540e-01,7.606778602068037243e-02,-2.006969843546761462e-03,-3.193296096169946120e-03,-9.412710219347875714e-04,6.652627587318420410e-01
7.180753851217122619e-02,-5.900571665077045669e-01,7.577723346971029783e-02,-1.986843415578174159e-03,-3.369866899636900573e-03,-9.582361976780713999e-04,6.638951301574707031e-01
7.926435098812584235e-02,-5.908671255905273423e-01,7.295859939853541198e-02,-9.318933713466722064e-04,-1.906588984279449688e-03,-6.177448178773354507e-04,6.670119166374206543e-01
1.313480063985017487e-03,-5.873082633200099600e-01,9.135625365985411417e-02,1.805205614758471173e-03,-9.179811800950298667e-03,5.671724728322054092e-03,6.387045383453369141e-01
6.563163586592629661e-02,-5.875941434388928242e-01,5.727869834260196358e-02,2.875340457610012918e-03,4.643297958317128458e-04,2.197947168223363145e-04,6.491093635559082031e-01
6.630346543854945263e-02,-5.833913351135535663e-01,7.305810786175251370e-02,-3.759630616268175730e-03,4.041381999365134298e-04,1.363571669149381098e-02,6.535580158233642578e-01
7.491998035197508510e-02,-5.896935279507495853e-01,7.583481410071343798e-02,-2.064092089031265009e-03,-4.756189046640522467e-04,5.114621535969562970e-04,6.650820970535278320e-01
-2.383174109136922472e-02,-1.944210140109672857e-01,8.376804873333851265e-02,-4.090476820477923631e-02,-2.593944830781884717e-02,-7.422582171271889517e-02,2.874028086662292480e-01
7.313655164384083585e-02,-5.769328630352743570e-01,6.512718307251627592e-02,1.036290987503941507e-03,9.679758299998655370e-04,4.091585436027311493e-03,6.461455225944519043e-01
7.231878117757645219e-02,-5.838292547039400926e-01,8.214715324426088983e-02,-8.656522168784961313e-04,4.236843172848177297e-03,5.611962553439992256e-04,6.611601710319519043e-01
6.353203055694692236e-02,-5.945358128508426709e-01,6.143367148626807661e-02,3.459063399069715709e-03,-1.109433735550083896e-03,3.023428166591525176e-03,6.570721864700317383e-01
5.443329199254312578e-02,-5.892507983363657331e-01,6.002331846114553060e-02,4.637916565228637940e-03,-6.012020536859252881e-04,5.861702153882532469e-03,6.466276645660400391e-01
5.899010631458348475e-02,-5.398105310570480153e-01,7.195631309210720472e-02,-3.281298987085641723e-03,8.677942555136595668e-03,-1.512246677621649840e-02,6.061673164367675781e-01
5.003823549096358958e-02,-5.858552616136896152e-01,5.141140536092536628e-02,2.182052541751429171e-03,-5.645671301282395409e-03,3.326794895476682060e-03,6.366935968399047852e-01
7.602904509251565135e-02,-5.651106184561489609e-01,8.279489194501091220e-02,6.126466759542169294e-02,1.705910902249438562e-04,-7.786521891745436241e-02,6.670028567314147949e-01
7.580448387822183443e-02,-5.886093032639396760e-01,7.805905148696942741e-02,-4.393117894313138395e-04,-1.171091467778556964e-03,1.056120320371905889e-03,6.655499935150146484e-01
9.634078193332473727e-02,-5.603430451862254635e-01,4.838305504599710316e-02,5.358817129751300944e-04,-2.024713387234565844e-04,-5.366443336944560398e-04,6.340681314468383789e-01
5.904656170172650764e-02,-5.950118475386890760e-01,6.321905140039854598e-02,5.768728493678819923e-03,-6.404693732858162758e-04,3.192423657546586847e-03,6.562548875808715820e-01
5.598443845484304959e-02,-5.906504949067007404e-01,6.039926763628938877e-02,-1.358545860735384454e-04,-1.946878334322723995e-03,3.371411540287131380e-03,6.488887071609497070e-01
4.791197955964027200e-02,-4.390103876376497682e-01,3.686514257375073100e-02,-2.874534375123025468e-02,1.489786010936449204e-02,-1.914263073702332854e-02,4.858811795711517334e-01
5.335701646825968814e-02,-5.207073842246315865e-01,4.750185424609162932e-02,-7.796941114148832341e-02,-3.179500752010332946e-03,-9.274763875932641455e-02,6.085206270217895508e-01
6.682625950241288804e-02,-5.868820304283648426e-01,6.760373397064536882e-02,-9.967177289262820915e-05,2.620954578813065611e-03,-2.647647490980020897e-03,6.541292071342468262e-01
4.959245620335872573e-02,-4.336069112382673896e-01,3.343370707087164884e-02,-1.284120838379322616e-02,1.355647877978450287e-02,-8.714021073893764985e-03,4.766640961170196533e-01
6.685383764087010627e-02,-5.002247644959971762e-01,6.153872681542030265e-02,-4.892026612983941397e-02,2.102589148132387800e-02,-6.211923667947257671e-02,5.819575190544128418e-01
6.443914595238317555e-02,-5.847781516039274319e-01,4.525695580656821648e-02,-2.142438525509288844e-03,2.847476306710105490e-03,-2.385813090978010365e-03,6.398850083351135254e-01
7.016748619587440117e-02,-5.976020447720138407e-01,7.218431209648099034e-02,-4.865996978001430982e-06,4.138473982504899638e-03,-2.173922102524816335e-03,6.688292622566223145e-01
3.597722541261705320e-02,-5.926345639060138781e-01,9.789697000334768306e-02,1.743589860589360441e-02,3.038068849001190203e-03,1.461373951874441000e-03,6.624624133110046387e-01
5.172497471678627612e-02,-4.857700885767436971e-01,5.574035090430182193e-02,-2.882207036229443228e-02,1.501843120130747118e-02,-1.602508192703873402e-02,5.431523919105529785e-01
7.131840615448273302e-02,-6.023833627405877911e-01,7.349214374921855808e-02,7.959678693993217039e-04,1.719623732164918956e-03,9.747646655818196734e-05,6.747992634773254395e-01
7.073136885743558366e-02,-5.994835447649984328e-01,7.607910362518860437e-02,5.610017327556002199e-04,2.840132926053831261e-03,-1.267857101083717840e-03,6.729269623756408691e-01
7.330028757252998739e-02,-6.005514266997287187e-01,7.314103533009583269e-02,1.145292990970643229e-03,4.101294359565306469e-03,8.723708817969330230e-04,6.738141775131225586e-01
5.519163630869877712e-02,-5.512542784601053292e-01,8.442748058478316553e-02,5.274701075957034628e-03,-7.101684544770090618e-03,-8.340710177929023389e-03,6.219363212585449219e-01
6.303514486740952050e-02,-5.733811168398272873e-01,8.324215372651627698e-02,9.779317797772605833e-04,-2.061900009625648126e-03,9.341430965374975231e-04,6.467706561088562012e-01
8.073452263203406698e-02,-5.885292413825498059e-01,7.204625931065494759e-02,-1.647714169426539306e-04,-1.550056335605316067e-03,-2.685937063145547605e-03,6.649839282035827637e-01
6.014519646843541345e-02,-5.732786703977553744e-01,8.743262235407914251e-02,-2.033566728426538378e-03,-9.747331169683117521e-04,-2.150774093739882004e-03,6.475214362144470215e-01
-2.560831107394287431e-03,-2.711358035394342281e-01,-1.065972442272800080e-02,2.977141013133980762e-04,4.179510526472729991e-04,3.762542070118179722e-03,2.647002339363098145e-01
6.264629458926665451e-02,-5.807478572925919291e-01,8.839652214075929826e-02,-5.908491344615039503e-04,-3.475753594818257845e-03,-2.051430871856411639e-03,6.566860675811767578e-01
7.567986671430423917e-02,-5.052262785936263434e-01,4.500401171268575418e-02,1.234631201346348024e-02,1.388196753022611155e-02,1.349433225896823872e-02,5.675868988037109375e-01
5.908520975005557285e-02,-4.759870858626227830e-01,4.746852888815883409e-02,3.164571049523404178e-02,1.855689681628683654e-02,-8.278414957335450929e-04,5.331613421440124512e-01
8.743622497299657903e-02,-5.930911305366461939e-01,8.330932726609563410e-03,-8.978036644480040518e-02,7.735867773085430832e-02,5.946890446337529251e-02,6.843143105506896973e-01
6.063099780181940845e-02,-4.931233787958052561e-01,5.262240322859293440e-02,2.796151285539933903e-02,1.933433249593108708e-02,2.930745384371804749e-02,5.552630424499511719e-01
5.946802349415766797e-02,-5.006534737862766704e-01,5.819416235301919094e-02,1.607886758807464817e-02,1.939666119081400950e-02,1.010830682671495957e-02,5.614579319953918457e-01
7.613441022153916160e-02,-5.346001538286242472e-01,5.606845555203204823e-02,1.076364442378610793e-02,1.266241019208635965e-02,4.332700507713243936e-03,6.016886830329895020e-01
7.419598243318117903e-02,-5.912545888760778467e-01,7.430604223931930319e-02,9.974532013043838942e-04,1.058524268692194719e-03,-1.535675335258501533e-03,6.655157208442687988e-01
-4.614934910955204028e-02,-7.098234761331198017e-01,1.751044542005160132e-01,3.857413258329050326e-02,3.448252550621883766e-02,-1.446363653648940518e-02,8.030663728713989258e-01
-1.635899337995247449e-02,-6.316188592986873296e-01,1.279914736934807951e-01,4.192201601291137281e-02,4.489548009027479608e-03,-1.815654137894258391e-02,7.032187581062316895e-01
-4.085165908787230515e-02,-6.453317244279184184e-01,1.558470043207966782e-01,9.670662037369352412e-04,2.233758163939706873e-02,-5.875873697498837540e-03,7.242860198020935059e-01
-2.355562272706338001e-02,-6.161779797673876402e-01,1.301076937649420784e-01,5.734296372797050012e-03,1.294021954762922255e-02,-7.574505217517022229e-03,6.831186413764953613e-01
7.406705118911641184e-02,-5.871932977827972744e-01,7.516027236898678576e-02,-7.092304793763774991e-04,5.496536661948691173e-04,-1.533979296572530191e-03,6.618148088455200195e-01
7.469515041124827337e-02,-5.844228724918478779e-01,7.506281542881915181e-02,-1.378195488083134050e-03,2.781172424367603715e-03,-6.133165840614201395e-04,6.593247056007385254e-01
7.723653444435601978e-02,-5.855658309109237347e-01,7.459509415088905193e-02,-2.412002705538534989e-04,1.945159748529586528e-03,7.402957568782086257e-04,6.614955663681030273e-01
1.401894113553457943e-01,-9.053561232549857118e-01,5.631931624123109881e-02,-1.007656730699708070e-01,-1.180170305807204528e-01,-1.101396988701354857e-01,1.058842301368713379e+00
7.704425021082089708e-02,-5.871737371839338415e-01,7.491433376375339348e-02,8.626898482639829609e-04,1.977083461536230380e-03,7.284128906623521440e-04,6.631672978401184082e-01
5.474388407095651110e-02,-5.858222598190532260e-01,5.639422491675319393e-02,2.443424578541070983e-03,9.984060385933835567e-04,-2.332355709281298123e-03,6.414219141006469727e-01
6.339509853591993038e-02,-5.894770482151598934e-01,5.755261952625156940e-02,1.827879799320146449e-03,2.318205823496851271e-03,-1.725205241437515217e-03,6.499975919723510742e-01
5.729241239148624709e-02,-5.866018363194513974e-01,5.823059734148339217e-02,-1.705632472406439165e-03,6.180548692629640392e-03,-2.328631662985759451e-03,6.444721817970275879e-01
6.285606532289708670e-02,-5.882315549809740141e-01,6.294003378641604973e-02,2.655360990324289426e-03,1.079841384222647842e-03,-2.569767707345977942e-03,6.511637568473815918e-01
7.932396767245294966e-02,-5.878743379601534258e-01,7.743803305898352973e-02,3.534531989724638227e-03,-7.217850901896380109e-03,-3.741662204322816244e-03,6.664342284202575684e-01
8.590523053816509491e-02,-5.751714982664969389e-01,5.974093243625466787e-02,-4.748132256007533926e-04,-3.882321944635956363e-04,-6.405238413928359851e-04,6.483924388885498047e-01
7.283353053418664680e-02,-5.781380840052913195e-01,6.671165735723036394e-02,-2.235043936886259904e-03,-1.088910281393532588e-04,-8.528341327461681299e-04,6.479456424713134766e-01
6.862935191348695785e-02,-5.791423598788554283e-01,7.985744342643616434e-02,-1.858682251455914369e-04,-2.205316816791237210e-03,-1.085957857859990968e-03,6.534720659255981445e-01
6.452929244112112772e-02,-5.884293645542708617e-01,6.524712130978121971e-02,-5.019945413054944247e-04,-4.900884723158294197e-04,-3.028820253161076947e-03,6.533400416374206543e-01
7.202598313971486643e-02,-5.888989670539410692e-01,7.850635750686613124e-02,-8.374106005295325894e-04,-1.248835543831226151e-03,1.846995168700891728e-03,6.642016768455505371e-01
6.926632862692078119e-02,-5.834016303770305223e-01,8.278779593190607744e-02,-1.285827217476085609e-04,-4.113044321707454674e-03,1.823857742541718126e-04,6.595712304115295410e-01
3.660183813047190871e-02,-5.102191446331840741e-01,7.463113258999093391e-02,6.484207116149570509e-03,-5.987031409801235344e-04,-1.326683878320005817e-02,5.673710107803344727e-01
4.036618371176733944e-02,-5.916641189090403596e-01,6.543928067922161196e-02,-5.790504372776558023e-03,1.554158897996801153e-02,2.416793232012697174e-04,6.455720663070678711e-01
5.143459217268239736e-02,-5.606650349532937838e-01,8.915747654567277025e-02,-1.173777539855188067e-04,4.109979787051015222e-03,-1.396777286498469828e-02,6.323093771934509277e-01
5.187905718051219472e-02,-5.106526735480707568e-01,7.011969678615551094e-02,-6.903044175829859894e-03,8.210327320913958504e-03,-2.011812216101071388e-02,5.732320547103881836e-01
6.077728813179084089e-02,-5.800089284030254255e-01,8.280730835762015185e-02,-2.628614238563903478e-03,9.492864956937229273e-03,-2.279622244633223299e-02,6.534974575042724609e-01
2.584266830462506048e-02,-3.792904002982895317e-01,2.856704098664053504e-02,-3.232777632795574840e-02,-5.000812306483917551e-03,-9.366029785750609737e-02,4.413286745548248291e-01
8.821044635492947261e-02,-5.560018062000192662e-01,5.203903054474923184e-02,-1.046444074369548040e-02,-2.093122010467904099e-03,-2.321300336501669510e-03,6.271950006484985352e-01
7.721731848367122120e-03,-3.138212164559567308e-01,2.172385306874308197e-02,-5.756482486848037844e-02,2.609171733872224681e-03,-1.004938028531492389e-01,3.851581215858459473e-01
1.118806936518196293e-02,-3.885271562550297597e-01,4.192407149343921335e-02,8.909502849700032256e-03,-4.675882440106616210e-03,-4.603752223810952254e-02,4.238687455654144287e-01
-3.474696625194867439e-04,-3.022726846206869045e-01,4.131383249724937534e-03,1.281304310055325982e-02,-3.247328687351612973e-03,-3.450586001886230686e-02,3.108493089675903320e-01
9.371540796356478409e-03,-3.204437579812076109e-01,5.928385072945574485e-03,8.622336847773557494e-03,-1.237471932820556272e-02,-1.249018642992034689e-01,3.938759267330169678e-01
-1.181781950548149718e-02,-2.042765950704922562e-01,-8.794755944319943008e-03,9.757397577260566723e-03,-3.213259994715626268e-03,-3.580961822839965475e-02,2.044380456209182739e-01
4.179754393604082074e-02,-5.833965292962662863e-01,6.354747554867531956e-02,-9.557004064820730184e-04,5.954173788173102409e-03,8.914421183782396049e-05,6.364336013793945312e-01
6.527670589055495354e-02,-5.866972694367373897e-01,6.915882999714270674e-02,3.785203242976997728e-02,-1.049933382387716399e-03,1.268127700287834852e-03,6.572082042694091797e-01
7.820560929584546850e-02,-5.916946411748144063e-01,7.441024292087583536e-02,-2.645804632054169392e-04,-9.206563578228351124e-04,1.021909953460780479e-03,6.680150628089904785e-01
7.876508314654354082e-02,-5.899028889864472713e-01,7.465903012723545951e-02,-1.019786585549062752e-03,-1.607910307162747649e-03,3.343728125698350838e-04,6.666328310966491699e-01
-2.850720512323345890e-02,-5.978024470222380593e-01,1.134949354043188752e-01,1.064649226296635574e-02,-2.605056159624139292e-02,-1.466482028806794262e-03,6.538235545158386230e-01
4.197311870430059377e-02,-5.894573478121649668e-01,6.764935619394057964e-02,7.130940068443997757e-04,4.932907180144768290e-03,-1.289726725796116504e-03,6.447138786315917969e-01
-2.173064297715490700e-02,-5.993982490438873878e-01,9.809171034349467577e-02,2.702400573515418777e-02,-3.893439736613104468e-02,4.227097446823794950e-03,6.512042284011840820e-01
5.014304041776279641e-02,-5.816194755973433939e-01,5.623419529058562571e-02,-3.911543787057336044e-04,2.861575344674889207e-03,-4.403453492881002061e-05,6.348497271537780762e-01
-1.047321598657166564e-02,-6.027294393337351286e-01,1.053693179112476508e-01,-5.995116922595911980e-03,-1.432863497238717233e-02,-3.925559012462645839e-03,6.584568023681640625e-01
1.546221170375414178e-02,-6.082368518924397005e-01,9.898135531108243068e-02,-2.432799613781241356e-03,-1.197918838533607640e-03,2.730779802340748113e-03,6.694111227989196777e-01
1.970423551789501904e-02,-5.902796591102370538e-01,8.573802224209381428e-02,-1.854665496087837392e-03,-7.918567797894132329e-03,-2.361432813381183701e-03,6.457054615020751953e-01
3.445395142865764759e-02,-2.627434113911462088e-01,-2.323020530053542670e-02,-6.320589688582595178e-02,3.045832913025361618e-02,1.188229470390248510e-01,3.628152608871459961e-01
5.229161068755627806e-02,-5.874171388385065473e-01,6.834208380294690133e-02,1.527918289042887352e-03,9.912071516071015512e-03,-1.262615521259518106e-03,6.481196284294128418e-01
5.664755810350832754e-02,-5.820390898820819725e-01,5.089435172023104581e-02,4.373679461873742486e-04,2.913566960200363910e-03,-1.845000683961453135e-04,6.358501315116882324e-01
5.484423125540521804e-02,-5.846969228234847327e-01,5.652284825423409265e-02,-1.659003785216829315e-03,4.143562309106566996e-04,1.729674614719100764e-03,6.403959989547729492e-01
6.169278960215943131e-02,-5.879946776970508271e-01,6.465034353657225785e-02,-2.817642959513262223e-03,-6.185464120001998899e-04,2.751840511609601227e-03,6.512078642845153809e-01
7.748104301786512549e-02,-5.827933485505232269e-01,7.419645966923246738e-02,-1.692491455389900879e-03,-6.466116214175332035e-03,4.420083106729626437e-04,6.587404012680053711e-01
5.863119610958558714e-02,-5.860301984405291709e-01,5.524803015106916071e-02,-1.547728041488952199e-03,4.242005576818007502e-03,-1.840884920305870020e-03,6.430319547653198242e-01
4.750186661560948376e-02,-5.888414936658260546e-01,6.190035603324128832e-02,4.221809273616081160e-03,-4.519592329582192494e-03,5.905591707602485252e-03,6.438338160514831543e-01
6.634533450546029054e-02,-5.933074465389612806e-01,6.639121110308893181e-02,5.926119860980384735e-03,-1.509795162909839021e-03,6.143335564117679420e-03,6.598465442657470703e-01
6.547175083019082797e-02,-5.922329340876992809e-01,4.893642469523939997e-02,4.638937852692946728e-03,9.764444911895336313e-04,-2.401641618855596474e-03,6.496601104736328125e-01
6.462845992553287178e-02,-5.942374546545126091e-01,5.844987339543813998e-02,4.685115434792744456e-03,-5.906393152739137543e-03,3.667127557151685958e-03,6.559591889381408691e-01
5.736556521248253881e-02,-5.851861078944614603e-01,5.735259780602974811e-02,-1.892581842913104067e-03,-1.226324719938245728e-03,1.728633156271509224e-04,6.425571441650390625e-01
5.605397783112825438e-02,-5.877626367370533123e-01,6.804602775868970332e-02,-2.380224796282362325e-03,2.112061574954972668e-03,-1.866005100318152664e-03,6.499270200729370117e-01
7.598858565890218020e-02,-5.920934444727954382e-01,6.843518643187226913e-02,3.241981762300490697e-05,2.558545587053087092e-04,1.915493343089674826e-03,6.643459796905517578e-01
7.136970559104022227e-02,-5.891616432692370342e-01,6.925682577078789981e-02,7.136106679110677548e-04,-8.765271575437344519e-04,9.422000079977124352e-04,6.594823598861694336e-01
5.396783826223044978e-02,-5.809412942142433423e-01,2.934559066043906927e-02,3.929235836534810712e-03,-1.091246220972100743e-02,3.733061590904632274e-03,6.233204007148742676e-01
2.666583071800027183e-02,-5.860859023826545666e-01,4.575620694217694129e-02,5.168628066030144007e-04,-4.265870468045678682e-02,3.369672268003836343e-03,6.269138455390930176e-01
7.943144834159723833e-02,-5.899598412719962992e-01,7.508942842049129429e-02,4.545078105244682249e-04,-1.273174546510060260e-03,-1.975132054653638706e-04,6.672350764274597168e-01
5.635078591079309418e-02,-5.844457630235966317e-01,3.501787399916461707e-02,4.811377606937039184e-03,-1.660100764759514513e-02,3.743000012044053813e-04,6.311116218566894531e-01
6.770977862821059290e-02,-6.939694327310723665e-01,6.957078394621235562e-02,4.768011214238283314e-03,-5.347082925772218137e-02,1.289568465252810721e-02,7.685835361480712891e-01
3.588966197771265021e-02,-6.664697873490585955e-01,3.945130618248970933e-02,-7.184092422592031069e-02,-1.173651624050789793e-01,-7.293065544774797460e-02,7.540469169616699219e-01
4.927501525689195749e-02,-6.677705221046723594e-01,7.037024239773559398e-02,-1.207940249125188069e-02,-4.810780703524527441e-02,7.030444805641434050e-03,7.329765558242797852e-01
3.778439667062044593e-02,-5.941554949699873189e-01,6.828780105132831180e-02,1.143693845173201183e-02,-3.398536592507610948e-02,8.105242802299121585e-03,6.508527398109436035e-01
6.215740533760849562e-02,-5.862046592995915351e-01,5.338912877311374761e-02,-1.690003086018364558e-03,7.711732155051346550e-03,-3.017153177594742580e-03,6.441890597343444824e-01
4.057258605344500613e-02,-2.401444767624965337e-01,-2.195276100127394742e-02,1.165577830665013226e-03,3.971033472537997822e-02,1.806892769714582014e-01,4.096830487251281738e-01
8.602068326083789351e-02,-6.111059177351407801e-01,6.299379094691101577e-02,-2.110655305502337833e-02,-1.162140039456348870e-03,-5.487948345134838202e-02,6.934254765510559082e-01
3.945080697436750827e-02,-6.134745790473210558e-01,7.513273078905710611e-02,8.365966925588145045e-03,-3.370234942496828923e-02,4.667693562161074304e-03,6.742145419120788574e-01
6.157338665240064124e-02,-5.847397032673390393e-01,8.531547809423659090e-02,-7.207545097316636618e-04,3.922852319272362998e-03,-3.504490923988503193e-03,6.585694551467895508e-01
5.396878374969449332e-02,-5.637918911551043077e-01,8.596575541424097966e-02,8.418938881472536832e-04,5.130120905066559191e-03,-7.928272667197741597e-03,6.345771551132202148e-01
5.543558876323015361e-02,-5.721029450702366237e-01,9.219172938096878434e-02,-1.040947801806683297e-03,1.474305588023318596e-03,1.101179724609471691e-03,6.467108726501464844e-01
7.790837794721194864e-02,-5.900183471664267598e-01,7.742523502422052339e-02,4.943115775268337470e-04,-6.566922112768734448e-04,-2.748079000354410463e-04,6.676869988441467285e-01
6.484073065888074083e-02,-5.885934718195908744e-01,8.141109833214613123e-02,-2.659794027269393713e-04,1.277982671046014101e-03,-7.467623347121171706e-03,6.620051860809326172e-01
8.750561929877059830e-02,-5.874711043174458691e-01,6.180730861050312552e-02,-3.272783776728674463e-03,2.605426028875368772e-03,-5.803659164421906937e-04,6.625418663024902344e-01
8.214900587308457403e-02,-5.899375002723330486e-01,6.564098975621887599e-02,5.430247797689985272e-04,4.277162030310845998e-03,-5.057706018062828714e-04,6.640290021896362305e-01
8.492436006423187411e-02,-5.771395567147080685e-01,6.110403238464987008e-02,-9.194009257837603213e-03,7.357835363860500827e-03,1.905693337898979383e-03,6.508089900016784668e-01
7.023051084727302551e-02,-5.910191382430851625e-01,6.651100515911947952e-02,2.300761481387276087e-03,-1.932955868251299072e-03,-2.164488213479196128e-03,6.594289541244506836e-01
4.437886444067196123e-02,-5.907176864708987285e-01,7.518059241690236427e-02,-7.169835785555566179e-03,5.876466245579635948e-03,-4.931459314415440748e-03,6.512981057167053223e-01
6.127959099687926847e-02,-5.890597388290622627e-01,6.735878156521288296e-02,-7.531309396347313180e-04,1.353743631247429028e-03,-9.047983294233730807e-04,6.534075140953063965e-01
7.676522577248068302e-02,-6.034846762119568941e-01,8.124063322619526351e-02,-1.855458423490007752e-02,4.498289650273758385e-03,-9.071978008390981993e-03,6.834799051284790039e-01
7.013181323160494474e-02,-5.892289413315074942e-01,6.983059562664858944e-02,-2.573548314281069206e-03,7.273858580527024472e-04,-1.462681939103335641e-03,6.592313647270202637e-01
7.054914014949803525e-02,-5.897112410647415981e-01,6.655016464039548163e-02,-6.630051230231653707e-04,-8.465289114723780796e-04,2.200840413111063501e-03,6.582836508750915527e-01
4.232689614923743071e-02,-5.086214232203071228e-01,7.937742292690541657e-02,-2.999924440615440134e-03,-4.569978374721266751e-03,1.043886739837159711e-02,5.707418918609619141e-01
6.139426881381696011e-02,-5.897432776318403125e-01,5.977981212871602557e-02,4.288276161753148247e-04,5.418770281002768634e-03,-4.604924129063327556e-03,6.504488587379455566e-01
6.923888308784895140e-02,-5.700583013568769619e-01,7.810017643040909063e-02,-4.354378294556955110e-03,-9.245059114883972043e-03,-1.811331762894693390e-04,6.440169215202331543e-01
5.816022814315893741e-02,-5.873283377277767059e-01,6.050151783150178875e-02,-2.722056062177981121e-03,5.095129934910376437e-04,-2.531913223252385981e-03,6.466950774192810059e-01
5.814038288529763121e-02,-5.855628978554184849e-01,5.410229820056050576e-02,1.607624213510451278e-03,1.468222209377719953e-03,-2.667593277830210882e-03,6.417214870452880859e-01
6.267745749241468434e-02,-5.145623075541641001e-01,6.078407644030206503e-02,-1.867429056544834404e-02,-5.868028658330505520e-03,2.428118304850190173e-02,5.788217186927795410e-01
5.495591193218071768e-02,-5.257250828051700520e-01,6.639546254034062178e-02,-1.213563341259844310e-02,-1.753191707654475767e-02,2.864796419249786633e-02,5.897372961044311523e-01
6.961409100579626918e-02,-5.912295581708555403e-01,7.077003189726746579e-02,-6.078913409460304229e-03,-1.078637155008622169e-03,-4.993414723094792215e-03,6.615653634071350098e-01
2.583211120097927971e-02,-4.503146387736457479e-01,6.562030041910565936e-02,-1.905489216071787686e-02,-6.371686649647485649e-03,5.485354543111470305e-02,5.074265003204345703e-01
3.446837247637299373e-02,-5.110167959273057559e-01,8.312545664864540162e-02,-1.450349476608247569e-02,-6.126005018706956462e-03,1.387648017944197697e-02,5.725247859954833984e-01
4.769411214128763121e-02,-4.661591787009153887e-01,5.405970955285960278e-02,-1.703408783978603916e-02,-1.525314734992138169e-02,2.383472502831799483e-02,5.202205777168273926e-01
7.473747321206386518e-02,-5.964818853876869831e-01,6.947500335311512787e-02,-3.285382615513947422e-03,1.778645390512271964e-03,4.680305547923996161e-03,6.686841249465942383e-01
2.678242106277570200e-02,-4.340895677894716642e-01,5.740287762773496616e-02,7.151947263943226186e-05,-1.271044409913240671e-02,4.119016367659432409e-02,4.827289879322052002e-01
6.150452667556516317e-02,-5.561671632171332202e-01,7.247020253875560702e-02,-9.966118373869117461e-03,-9.753662627063886675e-03,2.327539799168139995e-02,6.249963045120239258e-01
3.187038856028706624e-02,-4.796967410955131350e-01,7.019569748958393030e-02,-3.927777260338469016e-03,-7.947675493777435138e-03,-1.185905032058454534e-03,5.319921970367431641e-01
4.466912095410172090e-02,-4.755103328869263457e-01,4.971578637885618046e-02,8.453755617683998691e-02,-1.608960812665477524e-02,-6.018558886662130070e-02,5.534623861312866211e-01
5.955485926272369168e-02,-5.170606679882856493e-01,7.046028426349626450e-02,3.966134480182137434e-02,-1.477084680738290079e-02,-7.820316874919144845e-02,6.021739244461059570e-01
7.603120044989544746e-02,-5.862193716250694298e-01,7.626581360988440861e-02,-1.848474179106197011e-03,-3.743080747580387110e-03,2.273446616164529702e-03,6.624190807342529297e-01
6.819386398270790850e-02,-5.873824230164967908e-01,6.950352407334992044e-02,-1.469755075716027044e-02,-1.068595202456668926e-02,-1.000808153531767275e-01,6.794701814651489258e-01
8.043659041924833275e-02,-5.960516983127013280e-01,6.679267925445350751e-02,-6.795113783697053628e-03,1.412795874538684548e-02,-8.413940459207221167e-02,6.859797835350036621e-01
7.800253127642167716e-02,-5.899739112979081046e-01,7.695309843339756539e-02,1.158477206226375591e-03,-1.340064650390535668e-03,-9.049837862851416837e-06,6.674593687057495117e-01
-1.686624546788449350e-02,-6.159094010639644401e-02,-1.747194640856569725e-03,-1.539853609198941174e-02,7.235561388212158329e-03,2.582719626088217715e-02,7.599089294672012329e-02
4.291082979334762126e-02,-4.505159229744238325e-01,4.058719917601172344e-02,-1.477676996400444228e-04,-1.418778000805471888e-02,-2.131099231695660762e-02,4.942623078823089600e-01
5.529872436425187221e-02,-5.198963060592705077e-01,7.431283405524446994e-02,1.759820144923992559e-03,-1.249418645401572867e-02,-2.227809124179835898e-02,5.866125226020812988e-01
5.225189202108732056e-02,-4.592571912616571495e-01,4.180956872356911269e-02,1.510442020446484471e-02,-1.891719088738252896e-02,-3.035471470323705331e-02,5.108145475387573242e-01
8.817152547919435146e-02,-5.817302231539507318e-01,6.420820962568854484e-02,4.521753485906301298e-04,-1.981907561264285682e-03,-3.877693539064806013e-03,6.582909822463989258e-01
7.645964836489851923e-02,-5.904586241972291649e-01,7.536106059991920514e-02,8.462064634203134714e-04,-2.263989473898348457e-04,-2.107039108245355175e-03,6.663813591003417969e-01
5.295490604073554985e-02,-5.842269843707552646e-01,5.246857038156521602e-02,-3.055139838686618103e-03,7.687614864343174023e-03,9.954031760114803035e-04,6.371023058891296387e-01
5.745213631223286543e-02,-5.844113396007390993e-01,5.216209830708062878e-02,-1.585377836541460462e-03,5.267324099448517441e-03,1.778628624215424772e-03,6.393132805824279785e-01
5.477847467067462062e-02,-5.848592033215349595e-01,5.815717488659827294e-02,-2.867118049010448141e-03,1.453425004119300546e-03,9.718195533714480165e-04,6.413601040840148926e-01
5.610778859363618754e-02,-5.846739041580614193e-01,5.552773253867687719e-02,-2.182103921039821575e-03,5.097035595996166676e-04,1.544242399369194539e-03,6.405091881752014160e-01
4.033139011058067824e-02,-3.150255760278638517e-01,5.688447318900641259e-02,7.149356093088600483e-02,-6.070106090453182557e-02,9.294686343190729227e-02,4.298139512538909912e-01
5.345881344084071896e-02,-5.829157975240520928e-01,5.148555747497110535e-02,-1.266601496173840307e-03,1.129166666367456898e-03,-9.313991476385651827e-04,6.353991031646728516e-01
6.119737434358116235e-02,-5.884125862658902140e-01,6.705819800949119891e-02,-2.063316799939053300e-03,5.489257039006341984e-04,-1.624139245192669691e-03,6.525766253471374512e-01
6.663981117853581826e-02,-5.862425458671209899e-01,6.592105876040446621e-02,7.093436301839668333e-04,3.211531443993911623e-03,2.112203861347975310e-04,6.525482535362243652e-01
5.288101337829065329e-02,-8.843477614915400409e-01,1.386336851748263821e-01,1.513615832604641720e-01,9.208845727564808625e-02,-1.515294755727562281e-01,1.062627196311950684e+00
6.348087986282027750e-02,-5.877007975649619631e-01,6.770404306618335588e-02,2.515271666910326789e-03,4.136894410131821526e-04,-1.106284302117868396e-03,6.533212065696716309e-01
5.781541901764677971e-02,-5.794501516781962458e-01,8.870561631440007644e-02,5.465274090329489982e-04,-5.516040218335304970e-06,-2.469190097141766866e-03,6.532733440399169922e-01
6.674982725887343427e-02,-5.895385022931722840e-01,7.227785652838211727e-02,1.252352755074235754e-03,7.136769232479339437e-04,4.466717699686917711e-04,6.590749025344848633e-01
6.589909728109194509e-02,-5.898977699703523703e-01,6.881591531659567162e-02,-6.187753634772318306e-04,-2.479208361471492168e-03,-2.646863787759605544e-03,6.572909951210021973e-01
3.554538140301982674e-02,-6.067564430824317068e-01,5.195164963458664964e-02,-1.334371628304032494e-03,5.554724458942517096e-02,-4.261693771102597131e-03,6.577802896499633789e-01
1.283702582017408056e-01,-6.563054618014874109e-01,2.546096598905539521e-02,-2.702177927727133361e-02,4.411278464722776654e-02,1.974208355567970766e-03,7.440402507781982422e-01
7.425770243545265492e-02,-5.833824087451520146e-01,6.730456975457185798e-02,2.623055745019470166e-03,8.041007488893090263e-03,3.007987531083208821e-03,6.543760299682617188e-01
7.337291330325637628e-02,-5.807822137106370963e-01,5.655174177417388037e-02,-8.532933748238483163e-02,3.585530809029987415e-02,5.958433056463069422e-02,6.734606027603149414e-01
9.835882647188362582e-02,-5.874910940353557098e-01,3.703888283095702061e-02,-3.192737479706331261e-02,1.960503583519310547e-02,2.219302315130648393e-02,6.616514921188354492e-01
4.417805208907446546e-02,-4.803407285046882302e-01,6.362237933575520810e-02,-5.120260503890839169e-04,1.701990839642832445e-02,1.009483071035521470e-03,5.353221893310546875e-01
1.180652608286875127e-01,-5.945245311158414703e-01,-3.844557105155882448e-02,-1.220510627057996600e-04,-1.068382649525641617e-02,5.419078484526367728e-03,6.489856839179992676e-01
4.135915744587362330e-02,-5.835320261104175454e-01,6.545515830093839860e-02,-4.824986588717764609e-04,4.149404622691512702e-03,-8.112858916468013376e-04,6.373235583305358887e-01
8.867481272917093760e-02,-6.316008326747239998e-01,4.978169611466073952e-02,-1.420729831699433024e-02,3.738547809630440172e-02,2.107682383812777699e-02,7.059937715530395508e-01
6.609063737627932089e-02,-5.963336779584806902e-01,6.957353864455392833e-02,-1.613948456714080215e-03,2.689211546675491496e-04,3.381015441845729511e-03,6.642044782638549805e-01
2.920807908442793477e-02,-4.530117543653760515e-01,6.170310235135822996e-02,-5.561425214775274871e-03,-9.394612905395179070e-03,2.852679576008010365e-02,5.020563006401062012e-01
9.721769363333593317e-02,-5.692817613906331342e-01,2.363084449469868287e-02,-4.012627915806769863e-02,2.513365041153596893e-02,2.888785154200975910e-02,6.401718258857727051e-01
2.305657563812901767e-02,-3.755319816186584170e-01,3.737912052568631571e-02,-6.280397200104377575e-02,-1.296581678702902682e-02,4.095485616966339226e-02,4.267974197864532471e-01
7.462399296236249535e-02,-5.822757021747464456e-01,6.443046656684800477e-02,1.450189422231787720e-02,1.776189688451717142e-03,-5.385513028014377035e-03,6.524204015731811523e-01
4.912108385608757177e-02,-5.951306505093001409e-01,7.867312749364613333e-02,6.041298670952945614e-03,3.773408743190309438e-03,-2.492661509035213468e-03,6.596540212631225586e-01
4.096640333474371731e-03,-2.842665640510862457e-01,-4.214729961282803750e-03,2.932642423238136873e-03,-1.661637881354437228e-03,5.105625069788774506e-03,2.844960689544677734e-01
7.077276152737493886e-02,-5.909157951091337235e-01,6.802353597527352469e-02,-1.819822049636193829e-03,-3.125216419510547933e-03,-2.482540461855914718e-03,6.603619456291198730e-01
1.083492339262748239e-02,-3.349429477318097703e-01,1.156945528475805673e-02,-3.165549722508824437e-02,-8.840029926563193474e-03,3.639070027726617335e-02,3.564131855964660645e-01
-5.885846100917579982e-03,-5.940313845042431984e-01,1.069671728640549380e-01,7.698419621211640036e-03,4.363858542264060017e-03,3.920329569618603979e-04,6.521198749542236328e-01
7.818432187950169476e-02,-5.932698265566560547e-01,4.787722615910594559e-02,-6.780814574740026647e-04,3.386984840807423253e-03,9.547004773280940576e-03,6.570605635643005371e-01
8.139123727845276601e-02,-5.641505305044434149e-01,5.841206209481017431e-02,-1.235342673377181656e-02,-3.422687553354680865e-03,-3.867715596507741507e-03,6.347882151603698730e-01
6.189877794517442688e-02,-5.880259377755843175e-01,4.637602922684941342e-02,-5.730251292545619247e-03,4.179732585268922974e-03,-1.037908783367585139e-03,6.424240469932556152e-01
6.853528206051223703e-02,-5.888379995563908231e-01,6.035440194097743682e-02,-3.073927538160894923e-04,1.455765050479833345e-03,-4.550380473099941737e-03,6.533738970756530762e-01
8.226522893077203857e-02,-5.816453938597558881e-01,6.404418968139613533e-02,-6.078669590364038991e-03,5.265408380431165804e-03,-9.097307030507745858e-04,6.551402211189270020e-01
7.037300926528328171e-02,-5.895377913316086627e-01,7.423951928535821310e-02,-2.661898283984387003e-03,7.156683936646156957e-04,-1.968227855722316701e-03,6.618785262107849121e-01
1.105777661206001905e-02,-3.687957051102339623e-01,3.492530688401482286e-02,-1.645362605404230433e-02,-1.146472183911657720e-02,2.033562501713233328e-02,3.954384624958038330e-01
4.452267057375111636e-02,-4.189534807406112282e-01,2.739915215185861896e-02,-5.675912062683651643e-02,-2.000036564710237427e-02,1.898837405989925800e-02,4.680956304073333740e-01
6.917046344372052014e-02,-5.836540349520085158e-01,7.942997831724465940e-02,-3.557961767994877872e-03,-3.006660840609157344e-03,3.841665753760637424e-03,6.580973267555236816e-01
2.411543435364746357e-02,-3.778105966868949839e-01,1.689195978853932911e-02,-4.694011334723790368e-02,-3.820682233879369588e-03,1.948552504251434975e-02,4.080274403095245361e-01
6.794567830275544118e-02,-5.799919470536893940e-01,8.321213700894541931e-02,-2.625810163957724474e-04,-3.463425544881746070e-03,3.917385381500814454e-04,6.557320952415466309e-01
7.365876098879925449e-02,-7.485830468125954651e-01,1.246379029977264241e-01,-1.713073053102188714e-01,1.038582891024261573e-01,2.950870382508265569e-02,9.184814095497131348e-01
1.933004676938687716e-02,-5.901112450962540112e-01,9.133542858919280194e-02,-5.827858413594995055e-03,-6.426471506783825414e-03,2.244536379092301054e-03,6.486350297927856445e-01
8.118907908358458103e-02,-5.877326161454601294e-01,6.905703682581668112e-02,-1.117772214258017788e-02,-4.420944275197837177e-03,2.373645364041852563e-04,6.632658839225769043e-01
-4.318371629596939876e-02,-5.813620999772964870e-01,1.056435968321685626e-01,-5.094879934751217476e-02,-7.541251666322804081e-02,-4.147570430724768775e-02,6.495308876037597656e-01
-3.886248389771909673e-02,-7.082053711396020246e-01,1.896928000047816143e-01,-8.768243745926612709e-02,-1.957496226754895999e-02,-7.465049342640700525e-02,8.331695795059204102e-01
7.895704371384107412e-02,-5.923942295173638684e-01,7.561056342977881539e-02,-1.361625407232677906e-03,-1.056931365839463644e-03,3.161770112325203640e-07,6.696909666061401367e-01
-4.174303121527032923e-02,-5.600726200524499543e-01,1.178104202530375066e-01,-1.630051429382103900e-01,1.481647689342399784e-03,-1.986323782422569004e-02,6.765547990798950195e-01
5.230774720424141710e-02,-5.903003349764044394e-01,7.576224710743922897e-02,-8.773861538140899016e-03,-2.235534846721742592e-03,-4.578287035938387144e-03,6.548863649368286133e-01
1.209229332496294940e-02,-7.054084422042472546e-01,1.704395181579838603e-01,-1.534873404707649547e-01,-3.425780708185484358e-02,-6.849301036242667895e-02,8.612579107284545898e-01
5.388918972253800566e-02,-6.583619351139723408e-01,1.163142951660819935e-01,-3.747472536338201932e-02,8.103945945225721897e-03,-2.031878812837145318e-02,7.492059469223022461e-01
-2.215867146230826590e-02,-6.461109152759354490e-01,1.342495454780497366e-01,2.377132492861365812e-02,-3.381001828040160195e-02,2.530501927067308962e-02,7.200116515159606934e-01
-1.549599815363081334e-02,-6.155997853140625642e-01,1.151958679063964097e-01,6.227248804543562312e-03,-2.294741252769521081e-02,-2.092499092929315607e-04,6.762616634368896484e-01
7.010496956426384707e-02,-5.977896776615514440e-01,7.091356603410792214e-02,-3.874549788623329535e-05,4.015228590055939899e-03,3.947076365823892763e-03,6.683704853057861328e-01
3.106183543353532861e-02,-5.955859178787339392e-01,6.807718986755839641e-02,-1.513358666681925181e-03,1.020651553839564338e-02,2.195534018650236591e-03,6.462097167968750000e-01
6.258052135960312512e-02,-5.587201903342672304e-01,5.941653671253302460e-02,2.070336825052625576e-02,-1.792132089981567436e-03,1.153268517089590939e-02,6.210904121398925781e-01
2.929828404448012180e-02,-5.979789184935797586e-01,9.230173377396899692e-02,2.986206878700903636e-02,2.266236596348254403e-02,-3.329125633324972380e-03,6.642408967018127441e-01
4.014458775778004251e-02,-5.879142071535286007e-01,6.737580856486208303e-02,7.775484851763027339e-03,2.236136542313411218e-02,-3.079782231285410187e-03,6.434377431869506836e-01
3.269750131244145153e-02,-6.719740109381227011e-01,1.087393069620209984e-01,1.090808620348136457e-02,5.456729306208156494e-02,-3.049625931312500027e-03,7.518287301063537598e-01
7.739864796040291095e-02,-5.320702977595227479e-01,5.429676201385955081e-02,9.337254639488581573e-03,-1.047316094128951901e-02,-4.350196825887270649e-03,5.987934470176696777e-01
5.304527283255860981e-02,-6.053137835980599846e-01,5.891232454508138483e-02,4.573209078693816175e-03,2.991096355439053917e-02,-1.612435973338422271e-02,6.639732122421264648e-01
7.148669657562981006e-02,-5.689503743141819392e-01,6.674293171357181809e-02,-8.734094674340027800e-03,1.240464851348146470e-02,2.786563812868975837e-03,6.386374831199645996e-01
3.832813819177499637e-02,-5.955265472761324119e-01,6.963906725274018883e-02,-3.065408306746357850e-03,2.363533520057136197e-02,6.191372270267416628e-03,6.514735817909240723e-01
1.896373381838512007e-02,-5.972020138260698552e-01,9.455457919804355349e-02,-3.094112607904455498e-03,8.682970845778792413e-03,-3.311639399512119036e-03,6.574484705924987793e-01
5.687269076240217269e-02,-5.588432944984061956e-01,8.140549681246408986e-02,1.813958333008082761e-03,-6.714884096521066270e-03,-1.506275309075546902e-02,6.289984583854675293e-01
5.435405522581468474e-02,-5.262801247483455125e-01,7.637390304146210451e-02,1.280098917270990240e-02,-1.409318727736146720e-02,-1.534421465034422304e-02,5.934645533561706543e-01
5.758412590820244370e-02,-5.554230609035989419e-01,7.939120097411769827e-02,-3.213528530176407768e-03,-1.276757513710941733e-02,8.536100589166038897e-04,6.246146559715270996e-01
5.818256333318011508e-02,-5.625600051088551767e-01,8.270621196201111136e-02,2.814964931921749933e-03,-1.387019299886399493e-02,-2.116249310089356184e-02,6.348937749862670898e-01
6.652426449330678393e-02,-5.864065507486013740e-01,7.644619934542501438e-02,7.089734943012061981e-03,-1.294999000493725957e-03,-2.556229221261429024e-03,6.580811738967895508e-01
8.170417188206652304e-02,-5.889233513319249713e-01,5.520859210814543783e-02,-2.913092177585151904e-02,2.816271652084575538e-03,7.854774423702944389e-03,6.598706841468811035e-01
4.174483621957930657e-02,-4.792848695153897332e-01,6.055039727746330813e-02,1.207208676765920280e-02,-1.051535371600772518e-02,9.668887646331939499e-04,5.314090847969055176e-01
4.874883814521496772e-02,-5.036942971758369136e-01,7.731849314394453887e-02,4.259277341109656695e-02,-6.153738782011287066e-03,-7.498166044002510522e-02,5.866988301277160645e-01
5.525261271116793660e-02,-4.704220762987134652e-01,4.777808728486684919e-02,1.721778745177791892e-02,-1.874703931369169768e-02,-2.032035643776698361e-02,5.250172019004821777e-01
1.001372639957571198e-01,-5.993842295809612697e-01,1.215529546032378949e-02,-4.456503922853208462e-03,3.515774660586645436e-03,-1.007213435105335821e-02,6.602475643157958984e-01
6.160697360742037332e-02,-5.989549207873323677e-01,7.297942257043840697e-02,5.673093370747097665e-03,8.024541533220330355e-03,-2.433081100152584275e-02,6.678692102432250977e-01
6.470408539635941203e-02,-5.935507789542431301e-01,6.123642562392817013e-02,6.099648615668059118e-03,-1.185813497442785936e-03,2.101599529646294706e-03,6.566262245178222656e-01
2.929087493650181506e-02,-3.820006717963961296e-01,3.026856283045181728e-02,2.232727478952008585e-02,1.881505176486373415e-02,1.606885070933782023e-02,4.158076047897338867e-01
7.536423956028695526e-02,-5.936810540741181974e-01,5.543516345119772759e-02,3.775379574351960671e-03,5.673026601576935631e-05,4.375340289820374429e-03,6.593827009201049805e-01
7.168204961035157252e-02,-5.960231349944308255e-01,7.658770213963828066e-02,-1.092342879732424249e-04,6.571497922042668707e-03,-1.968069750374315443e-03,6.702768206596374512e-01
9.182467337985697475e-02,-5.849684236943417659e-01,5.568395029540937347e-02,-1.040434679151724245e-02,3.300034540175779407e-03,-4.973200288057665931e-03,6.597930788993835449e-01
8.243497857542875229e-02,-5.876880951236960193e-01,6.292947371433016412e-02,3.188355153326148141e-03,1.986863895393047637e-03,6.947022506314417655e-04,6.606194972991943359e-01
8.450629504405846038e-02,-5.874068957770320898e-01,6.342615351482711050e-02,4.416635889827703193e-03,-7.670803863516895268e-04,-7.585396197198546664e-04,6.616718769073486328e-01
2.061126343337624234e-02,-5.941785078846872903e-01,8.396700964515674270e-02,1.963814699483698318e-03,6.387792218892336324e-03,-3.118486507935440410e-03,6.489176154136657715e-01
3.548290649840846189e-02,-5.952314417439283911e-01,9.339578879492543839e-02,1.535172582520080362e-02,3.202810547035309791e-03,-2.117169487961929452e-03,6.621421575546264648e-01
9.131778332015533239e-02,-5.798233102249925608e-01,5.694023825658872662e-02,-3.215439001436426556e-03,-3.750696159811559038e-05,-2.187923909222040577e-03,6.546643376350402832e-01
2.665941417898148869e-02,-6.042548240877381183e-01,7.882406658898452601e-02,1.304553684288542893e-03,5.045281557120899485e-02,-1.620487193597923078e-02,6.649170517921447754e-01
7.293053039538707760e-02,-5.971614856681219941e-01,7.090452261010171675e-02,3.751779018958818681e-03,4.388453521841187942e-03,4.192235757117454553e-03,6.691954135894775391e-01
7.134621290782974801e-02,-6.025627518380660685e-01,7.350752986944900091e-02,2.634516090695160633e-04,1.142808824351230872e-03,-6.127815743586991343e-06,6.749953031539916992e-01
7.255330452889932613e-02,-6.037366753505057915e-01,7.345014214823242238e-02,5.182836750084668983e-04,5.094797569590638628e-04,4.736584354910378819e-04,6.767405271530151367e-01
2.485673017121642348e-02,-5.898137869864545912e-01,8.051055530477099764e-02,-4.562420653764507998e-03,7.323801285066810877e-03,-4.646174393596609609e-03,6.445262432098388672e-01
7.096887948323912787e-02,-5.809021280340018745e-01,2.674436290079731937e-02,-5.438740879167393901e-05,-6.266948867224395210e-03,2.971439808596972997e-03,6.310366392135620117e-01
-2.179497573621388962e-02,-6.044918141536210765e-01,1.195992933754466137e-01,5.984363946681531266e-03,4.693745642829581376e-04,-3.128395541962129649e-03,6.648724675178527832e-01
7.337289614610081889e-02,-6.021996160732705494e-01,7.127158769804597949e-02,5.400409771411713889e-05,2.160638036008587053e-03,7.208046732622294065e-04,6.745358705520629883e-01
7.482600744234896295e-02,-5.949510035943716968e-01,6.783792855786174858e-02,-2.946729037905587885e-03,1.115705980602634722e-03,3.235621936862285823e-03,6.663563847541809082e-01
7.267729701436748124e-02,-6.033061611558681037e-01,7.217240419703202514e-02,1.857769339078548768e-04,2.325619166423520542e-04,9.456992769942590116e-09,6.757313609123229980e-01
6.555701758681592439e-02,-5.870833364108662966e-01,3.101806025502143460e-02,-4.279631976028160957e-03,1.739141681647393689e-02,-2.048911264216805601e-03,6.368404626846313477e-01
7.027089552247089976e-02,-6.008483013244934057e-01,6.971327954106340541e-02,1.376226913216551783e-03,-7.781217860446800014e-05,1.776526619282077935e-03,6.708518862724304199e-01
1.357484953249715742e-01,-6.915987283736350077e-01,-8.447139115464213921e-03,-9.252219185703978999e-03,-4.592017427189554191e-02,1.675697523109916098e-02,7.703383564949035645e-01
1.225348482374787884e-01,-6.181095640602680685e-01,-3.854165965109446201e-02,-6.266301355413958789e-05,-2.824599509017902688e-02,-1.556286282615624607e-02,6.769930124282836914e-01
2.761646693817866316e-01,-9.854481947040750756e-01,-1.262358210949862669e-02,-5.524227498977117568e-02,-4.623682963892340042e-02,-6.875905403466735233e-02,1.157790422439575195e+00
1.017262912790497520e-01,-6.941777795103856175e-01,-2.481295027535496134e-03,2.657567453656563272e-02,-9.449988866077117800e-02,4.931942697987787283e-02,7.730394601821899414e-01
1.465897030345515439e-01,-7.062001173763217121e-01,-1.889727105652361239e-02,2.043464166775021962e-02,-1.046521575032387380e-01,3.890910665513076100e-02,8.075651526451110840e-01
1.460616992354922261e-01,-6.632703481084967212e-01,-5.585110717756514020e-02,7.714243214831976124e-06,-5.977060195736927373e-02,3.751056055193314337e-02,7.398049235343933105e-01
1.322066795749421986e-01,-5.993448008862081178e-01,-7.037537374428491643e-02,1.333763000581732368e-02,-5.184349376518178343e-02,1.066019219508198938e-02,6.610186696052551270e-01
4.333228000689205717e-02,-3.089643664087179942e-01,2.483898481909922740e-02,9.627918462913750974e-02,-4.783241705553695211e-02,1.192433183396537782e-01,4.418931603431701660e-01
1.364017712515129821e-01,-7.114750438132597665e-01,-1.710474292775093774e-02,6.178021062556446688e-03,-3.172092529006542705e-02,-1.527758367274628399e-03,7.845029830932617188e-01
6.751537037058769064e-02,-5.818439056025249689e-01,7.948089438958458319e-02,-1.039984470423539580e-02,-4.005661223866013171e-03,1.113084777618859704e-02,6.559914946556091309e-01
1.140436708243125485e-01,-6.434149626063634386e-01,-2.133653976826194176e-02,4.863915893340958058e-02,-6.317811170874018667e-02,2.021640687585572471e-01,7.944867014884948730e-01
3.295595515608060189e-02,-4.068799868345268078e-01,3.396796788966496838e-02,2.059632648890024481e-02,1.959598939583479665e-02,1.374866376621524180e-02,4.437268376350402832e-01
9.224906301938823328e-02,-5.979070026249964087e-01,2.282425352691636045e-02,1.879773307465267343e-02,-3.448905812048941311e-02,7.060663141944144294e-02,6.729083657264709473e-01
4.738176603773602835e-02,-4.705485140375606501e-01,7.017170891760657336e-02,3.639039015005188921e-02,6.306994366414466271e-03,1.009618430044283699e-01,5.614683628082275391e-01
3.991465139576330645e-02,-4.764848483041849714e-01,6.247855413834249583e-02,-2.618720344572434550e-02,-1.275814228727740161e-02,6.201692016464999818e-02,5.412148237228393555e-01
8.571282323258042068e-02,-5.373371475274905107e-01,2.019709829139823554e-02,-1.788585281077584299e-02,-1.479841899590135642e-03,5.177947860049065404e-02,6.005610823631286621e-01
4.447278335073578948e-02,-3.720787054066905797e-01,-2.877356493398935955e-02,1.118313821807957881e-01,-4.097506843007051036e-02,1.831006753708731005e-01,5.399097204208374023e-01
5.631937970014089245e-02,-5.854679808550760090e-01,5.047373366895449576e-02,1.050161418793275859e-03,7.225674398969711941e-03,-2.046332709743933428e-03,6.390196084976196289e-01
5.120161296981304289e-02,-5.840898447011706462e-01,5.415052182538729331e-02,2.602100024656799266e-04,1.238059943673072098e-03,-1.062998645170047923e-03,6.367774605751037598e-01
5.566829753174165618e-02,-5.869773037560974682e-01,5.524165996332738859e-02,-1.326746099628632776e-03,1.120507416851708807e-02,-1.111218038119042399e-03,6.427324414253234863e-01
6.340441390011344880e-02,-5.743652396706537822e-01,8.321328918379991557e-02,5.595554412385128412e-04,-5.796893125578057512e-03,-1.773764338970477928e-03,6.479870676994323730e-01
5.394198689834855953e-02,-5.649205400155439261e-01,9.379372470185290411e-02,3.017210338297263671e-03,2.543289512015242497e-03,4.011636828014842303e-03,6.397942900657653809e-01
9.441950482383407173e-02,-5.715527400277466974e-01,5.524402646314394150e-02,2.941607271052443240e-03,-1.820511144378062158e-03,-3.136704830832856214e-03,6.473248004913330078e-01
7.268593598100220321e-02,-5.898140033982514074e-01,8.104352527245950455e-02,-1.288522218353240064e-03,-2.618817967302792399e-03,-2.572446746089506082e-03,6.667520999908447266e-01
4.653287686847459859e-02,-5.839924242070759774e-01,5.743859768267114974e-02,3.208469712486137723e-05,8.195030054625811536e-03,-2.737392732975278947e-03,6.362243294715881348e-01
7.722745972449823748e-02,-5.974867770732550376e-01,7.039487588896936598e-02,1.162900433979310085e-03,3.431805891867394185e-03,3.164076426590771538e-04,6.713535785675048828e-01
6.946853132573763134e-02,-5.980642235573061516e-01,7.046807151278211556e-02,2.818649928867986328e-03,-4.084127389980620501e-04,4.627449462626836638e-03,6.680994033813476562e-01
9.228626018272109710e-03,-3.631409601543776899e-01,1.946186720527903757e-02,-1.779825606274615217e-03,-5.874458209146094477e-03,-4.883188215925416764e-04,3.777408003807067871e-01
7.426347702939053996e-02,-5.986766352494321541e-01,7.281005282764740905e-02,2.745334460883635825e-03,5.389169551754046175e-03,4.819865549747960262e-03,6.723480224609375000e-01
7.004542615783135306e-02,-5.982232155784876770e-01,7.023232030178461205e-02,3.239767772682578678e-03,-6.998104173064482233e-04,4.075186809461456804e-03,6.684240102767944336e-01
9.389684764008987550e-02,-5.695534473300658540e-01,5.175765188542932882e-02,8.173225110546716854e-03,8.550437464827473528e-04,-3.564556572273247861e-03,6.436035037040710449e-01
9.315917819671631905e-02,-5.754880108865663146e-01,5.204721641442694446e-02,-1.125598443128356801e-02,-1.635506662123159798e-03,-2.345737217918210035e-03,6.493800878524780273e-01
6.758782419826345200e-02,-5.828693069603601007e-01,6.864187569219512564e-02,5.802568914839070953e-03,2.116234627157941289e-03,-4.965258453260179561e-03,6.511294841766357422e-01
8.681265808440644105e-02,-5.250272371898764279e-01,4.097845366269217693e-02,2.283099682874733041e-02,-1.931134115841394298e-04,-4.241203954223582667e-04,5.915826559066772461e-01
8.612650150908660041e-02,-5.726161068348031291e-01,5.683743537303850846e-02,1.537008286759051264e-04,7.222257145691733139e-04,-3.803801152131321747e-03,6.446322798728942871e-01
8.698062942438372636e-02,-5.734657643820089135e-01,5.863523890950020356e-02,1.840195841874685018e-04,-1.157976605564491578e-03,-3.456294548902346265e-03,6.467706561088562012e-01
9.133072737875558289e-02,-5.760685264548301987e-01,5.667378896379110520e-02,-3.276478285721366908e-03,-2.877286703687623529e-03,-7.630997533436925965e-04,6.508084535598754883e-01
6.894885265214398262e-02,-5.843440280397751430e-01,6.314236870507800026e-02,1.258317898965131401e-03,-1.139226971473290178e-03,-3.264709394856977597e-03,6.504402756690979004e-01
5.201388250028307625e-02,-5.770756075187523093e-01,9.243948114385480697e-02,-5.220223527831462096e-03,7.883971998500027920e-04,-1.050573189409584156e-02,6.505642533302307129e-01
6.145959386676130842e-02,-5.779227161967226412e-01,9.192938667444761069e-02,-8.299398367409337261e-04,-3.940494551608608731e-03,-1.282644858689156904e-02,6.555625200271606445e-01
9.151206876127193635e-02,-7.170071582822731271e-01,9.448226792940089824e-02,-1.216544228623702567e-01,-7.251061436886054035e-02,-1.106049172614145676e-01,8.677480816841125488e-01
8.823682063393825659e-02,-5.730675633198467622e-01,6.316169981378122467e-02,6.674365903622232815e-07,5.122208926032104787e-03,-1.631788540769848290e-03,6.491969227790832520e-01
5.633506604909466198e-02,-5.767397332563363177e-01,9.421441597543867008e-02,-4.297363480917559472e-03,-4.601048607721483323e-03,-1.566397716040238142e-02,6.534937024116516113e-01
2.150150402298398045e-02,-5.935884235913072571e-01,7.250074496985173256e-02,2.801344838912732133e-03,-4.215952050963819170e-02,6.183290184294057586e-03,6.463561058044433594e-01
2.379922088967650895e-02,-3.534588477980219468e-01,1.144181901942314949e-02,2.360181589381083606e-02,-8.899822616850669443e-03,-1.655098051380441901e-02,3.748933076858520508e-01
8.922807465492041401e-02,-5.545032392050495140e-01,5.314245165071868060e-02,6.498215171772237821e-03,7.683818758311184924e-03,2.568713488382426760e-04,6.267110705375671387e-01
6.034136249935712071e-02,-5.777490852528704979e-01,8.665703460222695664e-02,-1.148418056772262680e-03,-8.724002553993924535e-04,8.238539085569684169e-04,6.516532897949218750e-01
6.104700952410055392e-02,-5.487827832627296676e-01,7.286611768305556458e-02,5.363773383191826859e-03,-4.309028078784642342e-03,-2.719333514054049147e-02,6.177379488945007324e-01
8.769394148050516091e-02,-5.983687892745578329e-01,4.453326679719102343e-02,-5.413263385066024828e-04,1.140141304781175542e-02,-1.289871506593590587e-02,6.662011742591857910e-01
-1.058572069005633831e-02,-6.001134130567205016e-01,1.091959427355135293e-01,-3.772494947654418847e-03,5.680867618787224620e-03,-3.207996262262267310e-03,6.577807664871215820e-01
9.796291320334238328e-02,-5.927579798708042524e-01,2.107019243633667660e-02,-5.606294709729570634e-03,3.425582553772522996e-04,6.853952575015040752e-03,6.558445096015930176e-01
1.097383147686925575e-03,-6.837194905474575091e-01,1.538465868591787911e-01,6.914327740936295451e-04,6.552815431427707824e-03,-1.631812789406708944e-02,7.732016444206237793e-01
4.959011736449880914e-02,-3.815195016251037297e-01,6.539507112580461579e-02,9.554434792111954344e-02,-6.322205887958061432e-02,7.006932845971118595e-02,4.970164597034454346e-01
7.357121899881455263e-02,-5.802817147659482533e-01,6.479969214181569015e-02,-6.114923029772405434e-03,1.921310169295039759e-04,6.288265780684196022e-04,6.495989561080932617e-01
6.704189037202523682e-02,-5.795322766810941939e-01,6.261436688865143485e-02,-6.756076924162885723e-03,6.436924802308927746e-03,1.164636519175779985e-03,6.445776224136352539e-01
7.107033355182304502e-02,-5.991726545950316618e-01,7.352194221292232545e-02,6.923873305220981655e-02,-3.986994852943248797e-03,-7.875106052400328294e-02,6.956362128257751465e-01
6.475076122970940817e-02,-5.879044410477919369e-01,8.144089275564422858e-02,-2.813805009559518493e-03,2.176278595103220415e-03,-7.483615616398519785e-03,6.613140106201171875e-01
2.597819937169554283e-02,-5.917996565805868636e-01,9.452128128899273118e-02,1.409902082551996692e-02,6.777886652925958853e-04,-7.996949369455332371e-03,6.553484797477722168e-01
1.231198707462141106e-01,-6.208472510549096768e-01,-1.092768346164513238e-02,-1.210528231541666173e-02,1.569304958804282682e-02,1.035928162205986686e-02,6.879165768623352051e-01
3.174189613153982625e-02,-2.161671403731572350e-01,-1.581895134176283801e-02,-3.767261292247288396e-02,2.164369178915881431e-02,7.773568165107766492e-02,2.751757502555847168e-01
8.341675950461485689e-02,-5.478403174445780621e-01,5.340863413606181109e-02,2.744528139071239427e-04,-8.247167559187400937e-03,-6.728280761948685464e-04,6.169673800468444824e-01
6.730121284883819333e-02,-5.513140261411837439e-01,7.334481162838094037e-02,-7.256657197998019580e-03,-9.649392677901585252e-03,1.000340856386992654e-02,6.222519874572753906e-01
2.320514624886040045e-02,-2.175084614961179386e-01,-2.014031773915406914e-02,4.824470019519701280e-02,-1.765239001925569123e-02,1.013284042381227545e-01,2.968296408653259277e-01
7.637514909694650966e-02,-5.928314249638415578e-01,7.149267633673916933e-02,-1.975690757388137361e-02,1.675201040310832657e-03,2.928508204769287790e-02,6.695865392684936523e-01
5.361586641311741341e-02,-5.072817938715163955e-01,6.473838006669341283e-02,-6.588105247199822767e-02,2.965160957633472191e-03,-3.809020586605608993e-02,5.816944241523742676e-01
8.501232766183394740e-02,-5.711520767518014630e-01,6.309379278160595628e-02,1.436093727472545793e-03,-9.792297519953796752e-04,-2.018523201232425186e-03,6.455007791519165039e-01
9.023922027948338975e-02,-5.800303062235439011e-01,5.935820111145159728e-02,-4.514820992309526333e-03,-3.068915633908892576e-03,-2.370801065108435208e-03,6.554559469223022461e-01
1.154953792527628198e-01,-5.528281485185937427e-01,8.851505211348142943e-03,-4.831256198889928577e-02,7.535882243432598555e-03,4.211951118368115199e-02,6.318634748458862305e-01
7.930769166779158552e-02,-5.887721104920515813e-01,6.399435823959889746e-02,-7.358714177915631587e-03,-8.957848246869882418e-04,-2.705007732047330898e-03,6.606976389884948730e-01
8.926729487743001457e-02,-5.683793526794312934e-01,4.708392041037084974e-02,-7.220326107106952648e-03,2.184753668487651040e-02,-3.487216668328009528e-02,6.416956782341003418e-01
1.402794883973904061e-01,-6.808747594986684915e-01,2.287842663986064395e-02,-3.740796831234667608e-02,8.591855195184001578e-03,2.324546457589028725e-02,7.731193304061889648e-01
8.456403480194646383e-02,-5.876524613772959871e-01,3.809908914835449800e-02,-4.424280535295373185e-03,-6.398384191447599109e-03,1.949596063764742065e-02,6.512459516525268555e-01
8.978393999548156534e-02,-5.514731348445522929e-01,2.525980916580655711e-02,-4.874663325216789522e-02,1.541470736215324461e-02,4.532278640903703720e-02,6.228976249694824219e-01
3.538707863793810748e-02,-5.987651904764355049e-01,8.303841434165135094e-02,-1.205795518885773021e-02,1.013032059722737341e-02,-1.514117549965179454e-03,6.598400473594665527e-01
5.450976461822129582e-02,-5.843343013680948328e-01,7.932770490017679310e-02,-4.983279900382957261e-02,6.637921000640647443e-04,2.114940417802347108e-02,6.583203077316284180e-01
3.525508944985317195e-02,-5.813654014195175357e-01,8.019090441712339867e-02,6.583626507466110341e-03,4.140975545815867194e-03,-1.073818566943789132e-02,6.406838297843933105e-01
7.873675136938435015e-02,-6.164805290704507001e-01,7.479539068895205145e-02,-1.978589952701686420e-03,-8.070677859131150937e-05,-1.064247368991801460e-03,6.932659149169921875e-01
7.922802411359008978e-02,-6.034940447730279267e-01,4.526890767695057605e-02,-1.392040237953753694e-03,1.482868396203902012e-02,-6.397240788742187233e-03,6.669829487800598145e-01
4.278824048975163330e-02,-4.229370633582629768e-01,4.965874841675108065e-02,-8.037934032508156634e-02,-4.354838963049616381e-03,4.361982518247876917e-02,4.952721595764160156e-01
1.177162674248666274e-02,-5.964163145596519389e-01,9.152977539275325425e-02,1.682429201842000621e-03,1.800208892415103637e-02,-1.023763033448944065e-02,6.527304649353027344e-01
1.491599966868164540e-01,-5.797309482459713781e-01,-6.102827447560123242e-02,-6.109695952730121588e-02,-8.673832711691293815e-03,1.072006058904051984e-01,6.842199563980102539e-01
7.302772120625544705e-02,-5.836730883161720396e-01,7.408596989608820516e-02,1.402585850060388863e-02,4.008718547651330191e-03,-8.252368283308506589e-04,6.577175855636596680e-01
4.455123286472303934e-02,-4.331666618901358623e-01,2.375209538473838089e-02,3.859074690615402637e-03,-1.174264124118287560e-02,1.853766653003735914e-05,4.681551158428192139e-01
7.752222279985646058e-02,-6.306242752926400907e-01,8.324644258866506497e-02,-2.259041616695281821e-02,6.180405966014788054e-03,-7.848797277606537606e-04,7.121834158897399902e-01
5.539650526838219013e-02,-5.838640335800264758e-01,4.721275853981876658e-02,1.111593967022307683e-04,6.669719418854837267e-03,-8.682616929814057118e-04,6.353150606155395508e-01
5.507186490104468146e-02,-5.878785390991821957e-01,5.368347438578160991e-02,-4.906754567946103492e-03,1.315956989080511140e-02,6.467748230709837896e-04,6.427188515663146973e-01
5.905509295857047647e-02,-5.847800657666959445e-01,5.305749650176058707e-02,-3.153990867815823071e-04,1.049389117227744576e-02,-1.255543532388988170e-03,6.411190032958984375e-01
5.557424090733226185e-02,-5.834860065616875868e-01,4.671631675991891330e-02,-2.169562415931308805e-03,7.902289241530760511e-03,-5.164103118196467336e-04,6.348369717597961426e-01
7.168035629957475452e-02,-5.899769123011255889e-01,8.012003292767716500e-02,-2.441242631500706046e-03,-2.082431468034016530e-03,8.538771600915781882e-04,6.659420728683471680e-01
9.505248463906862399e-02,-5.604351323647958072e-01,5.103514793495253499e-02,4.286679752529350303e-03,1.285366943907383487e-03,1.205709707850351805e-03,6.346756219863891602e-01
6.472827774625217190e-02,-4.529507661933268592e-01,2.715104502668155839e-02,1.718292937694434856e-03,-2.328644316853625742e-03,1.952990473499646761e-03,4.999872744083404541e-01
-6.931074120972005592e-02,-6.110226243419651926e-01,1.457868703966266888e-01,1.531446343151216805e-01,-2.999075132641169580e-02,-2.901928724795862016e-02,7.292627692222595215e-01
6.432766042461901534e-02,-5.602441384779690559e-01,6.707742060709062648e-02,9.626301852243212068e-03,2.312712961680490637e-03,9.447188985754036150e-03,6.263998150825500488e-01
9.337520983216365811e-02,-5.660541269416873300e-01,5.372921948733241915e-02,7.090941461860975591e-03,-3.299077792849964587e-03,-4.797075749239275259e-03,6.407243013381958008e-01
7.519782960259149829e-02,-5.827994330720427385e-01,6.326655180756071695e-02,1.411688471086504880e-02,1.047055582368598301e-03,-6.716681760182797306e-03,6.526779532432556152e-01
9.500363339111445038e-02,-5.620314514861315391e-01,4.943237232763211808e-02,2.566818922643036849e-03,-8.748722258681108444e-04,-2.756995149668998914e-03,6.355114579200744629e-01
8.999390189187739253e-02,-5.681258281479812933e-01,5.782358978066626243e-02,-1.408386262387310742e-04,-3.778466758242201087e-03,-1.744771620634771869e-03,6.426792740821838379e-01
9.124687342786874655e-02,-5.521739191114030110e-01,5.040530274518939535e-02,1.130900102905169936e-02,-5.133048944349115697e-03,2.548073323424508837e-04,6.243740320205688477e-01
5.844918572225030196e-02,-5.667822234455818231e-01,8.704978687141709526e-02,-4.991158782372944955e-03,-2.737589286083921651e-03,-8.590752881246627431e-04,6.400888562202453613e-01
4.879608170085661389e-02,-5.646231108178408897e-01,9.216290602555446410e-02,-4.711885958539611258e-03,-5.719026639066883064e-03,6.338521897576207542e-03,6.364362239837646484e-01
4.492355424981192558e-03,-2.912740673835487182e-01,-8.940859684497898252e-03,2.742421850456478773e-03,-1.731993315049200517e-04,4.152002564343554650e-03,2.894123494625091553e-01
5.465248512621470600e-02,-5.640980670620302506e-01,9.045263424587671186e-02,-2.537158591173623804e-03,-1.490393463901001610e-03,2.666700810256886038e-03,6.374422311782836914e-01
7.956874193467147749e-02,-5.848873434332102494e-01,6.811743646244577954e-02,4.588296940487419234e-03,-3.160560664217604721e-03,-3.218883668663998811e-03,6.588993668556213379e-01
-2.600989029403327768e-02,-6.176668467431339904e-01,1.186080313844432021e-01,-3.430179217625099145e-03,-1.421963994133517740e-02,-7.395938931072902275e-03,6.762710213661193848e-01
4.013290659557519624e-02,-6.292461969071267980e-01,4.898831274179446527e-02,1.829498286818830033e-01,-1.218232318693976968e-01,2.275297321500728276e-01,8.685150146484375000e-01
5.843211572251574837e-02,-5.714900608695294704e-01,9.085902557967523441e-02,-3.091274326225675571e-03,-2.831800415505745464e-03,2.862417349317854503e-03,6.468053460121154785e-01
-1.908391134385703514e-02,-6.874997996197236283e-01,1.294534235065341043e-01,3.291900319670702096e-02,-8.541014137945082685e-02,-2.441927680993763970e-03,7.702476382255554199e-01
7.210968924661681489e-02,-7.132193722172865957e-01,1.043626584851400918e-01,-1.048850632480881201e-01,-7.289972554630272383e-02,-1.218807003374604014e-01,8.582666516304016113e-01
1.114007477818854119e-01,-6.058299177677816116e-01,7.853993148615123765e-03,-2.652686345120872438e-03,2.232272598299177551e-03,-8.770402541952083963e-03,6.716707944869995117e-01
1.056439729977917130e-01,-6.146191123326645300e-01,6.540372878313577276e-03,-5.976940928947818872e-03,1.483939950277861700e-02,-2.964191898522840034e-03,6.767672896385192871e-01
1.099244212743869520e-01,-6.133178380915605965e-01,-8.230111525724614907e-03,-4.114755839440433285e-03,3.777564959065025495e-03,-3.298734698896160344e-03,6.720950603485107422e-01
1.266428085139800208e-01,-6.117524526883273417e-01,-2.141862856834997331e-02,-3.187723592778203205e-03,2.980533631314661799e-02,1.107663681856194474e-02,6.788855195045471191e-01
9.710966947311455710e-02,-5.949414137863631158e-01,6.209341872835477671e-03,-7.680489872957260711e-03,7.073417384255801903e-03,2.989914299054538538e-02,6.536809802055358887e-01
1.214319231250570175e-01,-6.133900359794109969e-01,-2.356617248770123685e-02,-7.892531520208809562e-03,1.494367421266565646e-02,-5.483516917373369888e-04,6.747574806213378906e-01
-4.156958998531806726e-02,-6.739547680028177279e-01,1.457183152725860520e-01,9.218269069041560085e-03,6.334085976602311929e-02,-2.068788583870020611e-02,7.529946565628051758e-01
7.041180287344669941e-02,-5.845799311532902109e-01,1.824045568656509908e-02,-3.948827472435186697e-03,-6.605173431485336817e-03,-4.723434019524841258e-03,6.307208538055419922e-01
8.098691911849276170e-02,-5.918534281901541849e-01,2.166169783970434137e-02,-7.756006527077500753e-03,-2.159394263767914351e-02,-4.772980563756881582e-04,6.464497447013854980e-01
1.947897009306476246e-04,-6.090314646744373617e-01,1.112732043402385185e-01,6.350014375279807409e-03,7.358871124349498916e-03,1.479176178213752364e-03,6.719054579734802246e-01
2.233955198935264064e-02,-5.942351842709140408e-01,4.881833776127980640e-02,-4.604212492421484032e-02,-9.371021009471643126e-02,6.804994358123372944e-03,6.557705998420715332e-01
6.266429228355629988e-02,-5.844923376745406740e-01,2.507247740506718392e-02,-3.670852898542157402e-03,-1.038448200952767769e-02,-4.574028233562860840e-03,6.295425295829772949e-01
5.921149117016283325e-02,-5.808208161149692739e-01,3.917721842097290907e-02,-1.797051349410072954e-03,-7.966902819760257604e-03,-1.305898527193946482e-03,6.304168105125427246e-01
7.855766475170303242e-02,-5.710250003465768831e-01,6.108672650251290026e-02,1.009981107580630675e-03,8.850224460431731222e-03,2.645559699137927691e-03,6.412277817726135254e-01
6.192897696488308679e-02,-5.893474629991644065e-01,4.054153270354984850e-02,6.370771610584783154e-03,-3.473148383958977320e-02,4.323690066997799494e-03,6.438058614730834961e-01
7.466895596967229598e-02,-5.911165907909994299e-01,3.249247172164468345e-02,-2.725272555968221919e-03,-8.095985454727099712e-03,-6.684969338042755921e-03,6.460044384002685547e-01
7.530142749371937505e-02,-5.885367197445907639e-01,7.773024486954474566e-02,-2.840349712730194350e-04,-2.298635723778667903e-03,4.842368455476028311e-04,6.650685071945190430e-01
7.473282493675714733e-02,-5.876485285394927871e-01,7.634355063175340961e-02,5.622964957777585801e-04,-6.831999884252423728e-04,-6.028643661278780628e-04,6.631907820701599121e-01
7.532850603809221335e-02,-5.899070683776321822e-01,7.870837690690440924e-02,-2.305274872652956141e-04,-2.245640163145088720e-03,6.519101187645988610e-04,6.669443249702453613e-01
5.060316868740338814e-02,-5.986019805850825160e-01,9.032281581342174737e-02,-8.418793229015800184e-03,-4.673251765379489615e-03,1.046450480865721575e-03,6.701586246490478516e-01
6.809336311466451797e-02,-5.828250948412034838e-01,8.426969978233633807e-02,-1.070759012734642237e-03,-2.858504981702120629e-03,1.373309594759946446e-03,6.591809988021850586e-01
9.597068558866214683e-02,-5.595600464320833467e-01,4.833091514798923405e-02,1.123221436710451396e-04,-7.822024775192440525e-04,-1.201653968192788782e-04,6.330581903457641602e-01
8.972734728989256725e-02,-5.783257056645901839e-01,5.956988248984054768e-02,3.654915953283875349e-03,-2.761687928345806994e-03,-5.566923837750905636e-03,6.536157131195068359e-01
8.633727045365335862e-02,-5.339870510147635141e-01,4.769789008748334669e-02,2.909091174284901896e-02,5.894954826431621914e-03,2.205286275843781289e-03,6.041390299797058105e-01
5.133649008477109144e-02,-6.997640634478788924e-01,7.352699978523291602e-02,-2.039249571146525830e-02,7.236623487909003838e-02,1.948972410022787411e-03,7.734864950180053711e-01
8.670077576367013483e-02,-5.589289733358034917e-01,5.465273374158596820e-02,-1.169976051245200446e-02,2.213656268974672006e-03,-2.689250661185448206e-03,6.305717229843139648e-01
8.731406832877941504e-02,-5.784412246344701192e-01,5.995872600707391475e-02,3.669150853817978921e-03,2.113515117354111076e-03,-1.769757165426830061e-03,6.525562405586242676e-01
-1.618032516951112276e-02,-6.075781179873471771e-01,1.165570829535194641e-01,3.440214634034002156e-02,3.549880982156901864e-03,-1.222752248699927879e-02,6.707518696784973145e-01
5.921288043149580682e-02,-5.828715278179266157e-01,4.861738766362505570e-02,-4.211319026241721296e-03,-2.420985865919951258e-03,-3.486044512995007359e-03,6.369369626045227051e-01
6.097615283342147641e-02,-4.487682565494978126e-01,3.457630064634323319e-02,3.398962450845648825e-02,1.766780272855272838e-02,1.928794315897574413e-02,5.025908350944519043e-01
1.299721965747159258e-01,-6.590385839986099281e-01,1.528547743170396989e-02,-1.268250599552384061e-02,3.400957637969838354e-02,9.186290671393046794e-03,7.412203550338745117e-01
7.290569097831312018e-02,-5.833755326650604811e-01,7.333001017968571178e-02,1.439186608845214807e-02,3.196500148996994119e-03,-7.669141022418873160e-04,6.569912433624267578e-01
6.665084209681887417e-02,-5.415350985984070942e-01,6.709454102820014421e-02,-2.099109552254591927e-03,1.598766526625557821e-02,-1.701144567179434632e-03,6.090557575225830078e-01
1.012947287171986344e-01,-6.184750397318570236e-01,3.752386139043684121e-02,-2.269009546479372821e-03,1.105037901603955937e-02,-2.922355269822621976e-02,6.922273635864257812e-01
7.905550357449300791e-02,-6.025470977314028032e-01,3.408213154987491111e-02,1.713374099219264549e-02,2.850204248032154816e-02,-1.119379795603968331e-02,6.630569100379943848e-01
9.598056718120967501e-02,-5.635323542008835451e-01,4.918910712149396347e-02,4.833266813769989019e-03,1.709812432473493656e-03,-1.799940222732656844e-03,6.374760866165161133e-01
8.580497581599116907e-02,-6.473467763479233694e-01,2.295408064116022384e-02,-6.219803825570275647e-03,4.711258064320663491e-02,2.145760703492215205e-02,7.096045613288879395e-01
7.926817098483351920e-02,-5.770142158363711360e-01,3.742171995579418597e-02,-1.755521807561008160e-02,1.957977509138286373e-02,-6.470128377563612657e-03,6.381182074546813965e-01
8.374845264602176487e-02,-6.568314014657681277e-01,5.239653856686213307e-02,-1.096343514220588303e-02,6.240887760690796288e-02,-1.527945729393418925e-02,7.341446876525878906e-01
1.045762733115674914e-01,-6.446932815063973754e-01,7.252889330622069863e-03,-2.178218157469337737e-02,4.363299682121502682e-02,1.265550315832240577e-02,7.110348939895629883e-01
1.023104778144048876e-02,-5.897098129595703675e-01,9.178858406668233272e-02,-3.969689707135869161e-03,-5.350522103623936605e-03,-4.910785686571330147e-03,6.447603106498718262e-01
4.158591464865707410e-02,-3.854596769003826862e-01,8.431993817085647880e-03,3.866154952397640471e-03,1.130111247360755973e-02,5.434420900754828934e-03,4.120988547801971436e-01
9.165985835792547776e-02,-5.726273312718275221e-01,5.746810627140927497e-02,4.367437844974701375e-03,2.656904402784980145e-03,-2.145806911554771872e-03,6.479395031929016113e-01
4.160991227937677062e-02,-5.879399221156187405e-01,7.815212501781679255e-02,6.458502838471841083e-03,-5.047001660867924365e-03,-1.558322195634065377e-03,6.487544178962707520e-01
6.332828952911428999e-02,-4.153846916774009967e-01,1.313483319434519125e-02,4.560251634445076224e-02,5.878693077391652921e-03,1.588077030841790124e-02,4.634180366992950439e-01
2.584671455682369112e-02,-5.951245345732545378e-01,8.372597259528946623e-02,-7.518571671252119795e-03,-6.119048019302753168e-03,-3.562450468587248422e-03,6.520863771438598633e-01
1.035450372308678313e-01,-6.196795948497160200e-01,5.746837576189739449e-03,1.428157674958165368e-01,-1.195406444936676638e-01,2.130130871492895706e-01,8.378967642784118652e-01
3.795064339790962804e-02,-5.939868809968593677e-01,8.683848728920179338e-02,1.398962593947938177e-02,-5.825711937859466430e-04,-1.051902490039177381e-03,6.581949591636657715e-01
7.608088757900394183e-03,-5.870202458500510811e-01,9.178174015786655371e-02,3.974599488913021367e-02,-8.968424182886817683e-03,-5.086493029115453195e-03,6.448087096214294434e-01
5.602745984760121312e-02,-5.819483761738581951e-01,8.081418447758748069e-02,3.110777745641543288e-02,3.788092996103887590e-03,4.826742604904894589e-03,6.530366539955139160e-01
3.644866868878579580e-02,-5.890024921812020420e-01,8.211510332701438264e-02,1.081324594526314291e-02,-1.961473876629373295e-03,-6.207929942229228502e-04,6.497693061828613281e-01
5.218987247639489402e-02,-5.844839324628563482e-01,7.521599634130735068e-02,2.626930735001762121e-02,-5.665264417709798758e-03,-2.585703436742446421e-03,6.501772403717041016e-01
5.382821401757043045e-02,-5.866210281313326558e-01,7.515284542960315450e-02,-7.361216583035637417e-03,-3.619253371339956841e-03,-1.206106537746451293e-03,6.515316963195800781e-01
7.056309737277993710e-02,-5.883170376389805778e-01,8.104837378470269860e-02,2.959431312773769772e-03,-2.356405193323034015e-03,-1.875591571927889183e-03,6.642251014709472656e-01
-1.944584408606930825e-02,-5.998337287918718008e-01,1.136557509936687027e-01,-2.595913838138572041e-03,-5.698747864979915485e-03,-8.869878065590669275e-04,6.572189331054687500e-01
5.119191155282468153e-02,-5.623954443193346364e-01,9.549442924578271930e-02,2.504021742785227035e-04,1.355447199661684397e-03,4.023819682445909339e-03,6.369379162788391113e-01
6.938235938578976580e-02,-5.795112527719830098e-01,7.819220622396211295e-02,-3.144872078131346065e-04,-7.948886818170795496e-03,-1.261448665046033084e-03,6.534920334815979004e-01
6.186770053341805742e-02,-5.766903479633653795e-01,8.446989249167838332e-02,1.662380822445234507e-03,-5.496081469136723276e-03,-2.554909347307638551e-03,6.502450108528137207e-01
6.073498379831762661e-02,-5.706307772229334274e-01,8.947307417987093725e-02,2.144475370607769153e-03,-8.571010969453136258e-03,-6.265019306253827996e-03,6.464864611625671387e-01
2.386092754001487015e-02,-3.080806033654935328e-01,6.363602907046420065e-03,3.864788796533381171e-02,1.159999433120976857e-02,1.022323560236478828e-05,3.310104310512542725e-01
5.491596372823426275e-02,-4.547271554330523102e-01,6.011150789171665343e-02,8.898683687225733552e-02,1.000655771665701077e-02,1.324386670323778395e-02,5.357177853584289551e-01
6.580731001929515656e-02,-5.711115931945418556e-01,8.161581634087644588e-02,-1.893628335624750333e-04,-5.906251029923377527e-03,-3.606608330010998426e-03,6.450799107551574707e-01
6.485280452685338037e-02,-6.403962432412657613e-01,8.880346299992170067e-02,-4.327392418583246581e-02,-2.063648629170343474e-02,-5.271899191598146406e-02,7.280620932579040527e-01
2.136815820307544356e-02,-6.075848948132664962e-01,9.878214000010449025e-02,-8.293707151975198907e-03,-3.792641138002703256e-03,-1.800434014819516336e-03,6.712107658386230469e-01
5.448904046459210337e-02,-5.865277594605042832e-01,5.339762982449167139e-02,3.558277859622775187e-03,-1.352638582044005632e-03,2.935168990956285931e-03,6.405258774757385254e-01
6.243335087838591813e-02,-5.946336514898394876e-01,6.212684498245038545e-02,2.373985216382350303e-03,4.451204141309934078e-04,3.243641208937613103e-03,6.569511294364929199e-01
5.762320058195349870e-02,-5.903441203420929373e-01,5.492202844042107235e-02,4.470012454875848563e-03,-3.632056926421919473e-03,1.047114272345787229e-04,6.466979384422302246e-01
7.265054001292589603e-02,-5.920091598957042400e-01,5.071556914043715003e-02,-6.148959056739788931e-03,1.231067566204047115e-02,-4.106939479284785026e-04,6.544027328491210938e-01
6.805465114443765007e-02,-5.822829930018658118e-01,7.244583368445600691e-02,-5.875170827272358995e-03,1.418150878188010776e-03,-2.730954788366337337e-03,6.526454091072082520e-01
1.511656496207905986e-01,-5.675623101909892387e-01,-2.527039166483069366e-02,-5.306718409211641507e-02,4.795202688411428354e-02,2.081334974820562844e-01,7.524594664573669434e-01
4.284053390996167554e-02,-5.874260861919763377e-01,6.022470889224762480e-02,-7.995066786135625672e-03,-9.450697451873426788e-03,-5.348576863495564833e-03,6.395626664161682129e-01
7.302052885008383787e-02,-5.952683193244583393e-01,6.719333141621613992e-02,-4.374337216577410363e-03,-7.093218557267398552e-04,-2.887817795622314113e-03,6.654574275016784668e-01
7.505872204455074637e-02,-5.882967513914683089e-01,4.195477350821452678e-02,-2.699674967844616080e-03,1.220874831072248437e-02,6.108377439208957302e-03,6.478870511054992676e-01
7.238217863712370637e-02,-5.512075445764705872e-01,6.674238432532339504e-02,6.230930704223179746e-03,1.320485928739926172e-02,-8.978491832705360514e-04,6.213058829307556152e-01
8.422888972642489369e-02,-5.707316394098664869e-01,6.307580125280781713e-02,-1.010100499674838068e-03,3.355466587434209006e-03,-2.031399603982363394e-03,6.446825265884399414e-01
7.915936163583048302e-02,-5.749760202123030961e-01,6.748799065824451215e-02,-2.283253851787650295e-04,2.360800430708621250e-03,2.726952697816448657e-03,6.484087109565734863e-01
1.980298328215490677e-02,-5.836429827276623516e-01,7.087204077092795762e-02,-9.609125833895937590e-04,-8.196575958610863646e-03,7.004175391158111615e-03,6.308121681213378906e-01
5.340179123151539420e-02,-5.936317611389005933e-01,6.799887040845134512e-02,-4.460517227962448828e-04,-1.452263017842641505e-03,6.900037490261392605e-03,6.545686125755310059e-01
5.878843479519904602e-02,-5.601116377094657039e-01,6.628065489718071301e-02,2.523700730739467796e-02,5.005240969340514099e-04,1.534388827978583293e-03,6.242186427116394043e-01
8.170228170100762854e-02,-5.831988110195833741e-01,7.087332051150044276e-02,1.952924417653597883e-03,6.374610444773001587e-03,1.553087561432507343e-03,6.596598625183105469e-01
7.900053032464013358e-02,-5.825261521308154888e-01,6.874532601370164642e-02,7.815107834282295982e-03,7.409312942428518400e-03,-2.370402077866551500e-03,6.567369103431701660e-01
7.024712551502193536e-02,-6.100878210217866027e-01,5.352869070349933200e-02,-7.524191956550308098e-03,1.555343633021698951e-02,1.258054255877751049e-03,6.728010773658752441e-01
7.292705793674664205e-02,-6.013231455549015170e-01,7.106194928252981824e-02,-4.605660601498765428e-04,2.111631531973248103e-03,-4.599789302088137235e-04,6.733304858207702637e-01
6.811210344922466464e-02,-6.012419587141704103e-01,7.088283510585569047e-02,2.009583893557222437e-06,-2.127195731090072940e-04,1.236738344935076409e-03,6.707472205162048340e-01
6.127145211427967308e-02,-5.694995964701836666e-01,8.538849098957326800e-02,3.070504298264550586e-03,3.070117325208915598e-03,6.158427402215343668e-03,6.433011889457702637e-01
8.368647560922898299e-02,-5.819773143300118745e-01,6.636188793483749349e-02,-1.474370992658724120e-03,-2.454488143610072514e-03,-2.096202551168860687e-03,6.572015285491943359e-01
7.139388083658004813e-02,-6.013383247737780213e-01,7.279541762470936872e-02,-4.820894468197690083e-04,1.927267741829751793e-03,-4.532611689463927332e-04,6.734433174133300781e-01
6.889130497500736694e-02,-5.958403660160787041e-01,6.183348316384743026e-02,6.120718063863207943e-03,3.868017757071683625e-03,4.460230001602305885e-03,6.613950729370117188e-01
8.594365505979781328e-02,-5.728378339095603344e-01,6.181766556895318399e-02,5.217629009404686768e-03,2.907717094596891285e-03,2.809817097912337136e-03,6.471568942070007324e-01
6.952173381276724462e-02,-5.957185254038207534e-01,5.963412619647789903e-02,6.137772194002914100e-03,-1.355847001371866898e-03,3.644270875324527072e-03,6.604718565940856934e-01
7.184579280229061449e-02,-5.837136541939964562e-01,6.668227920109229268e-02,6.302989075016863542e-03,1.308327428521925163e-03,-2.220393098935910439e-03,6.530995368957519531e-01
7.043229903935119274e-02,-5.990330804403168896e-01,6.752478735236852603e-02,4.182004634292229434e-03,1.528989726557296877e-03,2.206862787329747920e-04,6.680610179901123047e-01
6.802138737809465541e-02,-5.991080242194593009e-01,6.975046312277338734e-02,3.422510741058621938e-04,-1.149479045698733985e-03,-6.044474943870097733e-04,6.679996848106384277e-01
6.276924256008653558e-02,-5.946884601717190577e-01,6.271607266907525124e-02,3.417493590346732182e-03,-2.713818067193060580e-04,2.253408439752017500e-03,6.574695110321044922e-01
7.660139529547863035e-02,-5.830703669965471292e-01,7.277462763441072680e-02,2.839542828433039203e-03,8.188019146201649251e-03,1.481633293958965671e-03,6.579430103302001953e-01
7.810783634564039124e-02,-5.871553271441991573e-01,7.359358482190456185e-02,1.665377446012922561e-03,1.371910682625863661e-03,-8.228479115893629460e-04,6.630296111106872559e-01
6.970558556262743122e-02,-5.809009360965036173e-01,8.099917203634260376e-02,1.015298029743510371e-03,2.395264755845093792e-03,1.119375209000643325e-03,6.563445329666137695e-01
6.600770652059484433e-02,-5.746785793348462290e-01,8.109264529034559965e-02,7.894599216653200779e-04,9.216013572294654921e-04,1.454665770991870341e-03,6.483686566352844238e-01
7.785188992638442107e-02,-5.866812479554042170e-01,7.459310799802559844e-02,3.175396163450203060e-04,1.239966387724327152e-03,-2.859952813354487951e-04,6.629136204719543457e-01
7.497062000393375780e-02,-5.838655772378599229e-01,7.445248248630895183e-02,-2.118710565819262694e-04,1.849021915700227187e-03,-1.097428831815160707e-03,6.585879325866699219e-01
1.663388876257693161e-02,-5.956975903774921477e-01,8.949216210769006530e-02,3.960275506403727191e-03,-5.200436652148815106e-03,-2.169175981003317391e-03,6.519308686256408691e-01
7.766552872425949716e-02,-5.775535019195346953e-01,7.360525767265527208e-02,-2.248089341273414900e-03,8.104585950180242734e-03,-2.099391979455216082e-03,6.533709168434143066e-01
7.452497275114489117e-02,-5.864190515789908797e-01,7.780242286851460354e-02,1.007151181237963487e-04,1.693124272806390820e-03,4.371507038844895136e-04,6.625957489013671875e-01
7.397269091888070136e-02,-5.861554066266945195e-01,7.469331980397564408e-02,-5.704959277756772125e-04,-1.595696925614195389e-04,-1.060155617704015938e-04,6.604894995689392090e-01
3.703333000875036474e-02,-4.561298908889059867e-01,5.518522662779637433e-02,2.033043205871935821e-02,1.543996209862641411e-02,1.398928933491608469e-02,5.050084590911865234e-01
7.544377386321041157e-02,-5.866505519129875390e-01,7.657958133166165027e-02,-7.916368457866784000e-04,1.238010764523730456e-03,-1.245118776554082242e-03,6.626713275909423828e-01
2.891008108584028347e-02,-4.481547876808077424e-01,5.919333298736012550e-02,5.743736430215830129e-04,-1.529590116146357578e-02,2.905537274764384559e-02,4.961759448051452637e-01
5.836177281581991783e-03,-3.081916675818190954e-01,1.216857430075435342e-03,2.473387224721014001e-03,4.877211564441074829e-03,3.877621304271830754e-03,3.119600117206573486e-01
7.595756067379860754e-02,-5.884471246978614234e-01,7.609761974904932780e-02,-5.380827989305673133e-09,-5.748118938523894401e-05,4.256523046893538218e-04,6.644751429557800293e-01
7.317516437175716759e-02,-5.487018906790495087e-01,6.498285452186700062e-02,4.988839276959521410e-03,1.283671611914911914e-02,-4.884196185212387031e-04,6.182825565338134766e-01
6.365402929784441666e-02,-5.929787453058470437e-01,4.374749304536482142e-02,8.168065620324259368e-03,-5.779466335883809078e-03,6.320118517327283011e-03,6.472339630126953125e-01
6.989776917346451901e-03,-5.965284762444960087e-01,6.786849708283615445e-02,4.621895613044133113e-05,-4.880634745964242821e-02,-4.311638072077608221e-03,6.417818069458007812e-01
3.200535539898186066e-03,-5.998091912416135818e-01,9.258347426674506941e-02,-3.881115116472901288e-03,-9.585364167615052777e-03,-1.608415876592978735e-03,6.525622010231018066e-01
5.467363051338400282e-02,-5.889021564699943312e-01,4.077183528657699063e-02,3.794774428389053721e-03,-1.654481830287991492e-02,3.375767432195488169e-03,6.374439597129821777e-01
3.025753480843690335e-02,-5.956710551844182078e-01,7.065249113832453021e-02,1.271358464800905440e-02,-2.650176005755278466e-02,1.420041176477133179e-03,6.490768194198608398e-01
4.566479519197239045e-02,-5.816950042576275459e-01,4.939031939957627682e-02,2.758031930548513009e-03,-1.237239631235443043e-03,2.194598421062263043e-03,6.292641162872314453e-01
1.030010603577873884e-01,-6.000635699469729634e-01,-4.963841865388396446e-03,-9.698493617068386710e-03,7.137561852855134337e-03,7.655018372850408079e-03,6.562474966049194336e-01
4.090843808310465346e-02,-5.827172424730353573e-01,5.057895875494539117e-02,2.430430011014612316e-03,-1.511822956639111495e-02,3.154884055070400657e-03,6.290997862815856934e-01
7.260606676704500773e-02,-5.815149199971771932e-01,6.781962889709841624e-02,5.078406942977722318e-04,2.294264424113639025e-03,1.343219840002135568e-02,6.521687507629394531e-01
5.114284533674265387e-02,-5.857561035706637664e-01,7.032232659001930175e-02,5.056058011031408853e-03,-2.136253950443936511e-03,-2.542160857393137297e-03,6.467868685722351074e-01
6.729115237946564632e-02,-5.846546173693593085e-01,6.894526636070927306e-02,4.514882482323747358e-03,9.065497620229864698e-05,-1.815214480608405827e-03,6.528288125991821289e-01
4.776697854238026730e-02,-5.881996484146214677e-01,5.376608202242216805e-02,3.375272158995280391e-03,-1.044918294775443526e-02,4.668624213635064191e-03,6.393214464187622070e-01
4.392056114054188054e-02,-5.881895080568488865e-01,5.762795685844745996e-02,2.855024511870881462e-03,-7.674888146205850747e-03,5.738756298368596562e-03,6.393086910247802734e-01
6.270920411873776024e-02,-5.813814709039444306e-01,5.332432929469774208e-02,2.042545002389910529e-03,-4.078546135065176659e-03,4.779814389940243899e-04,6.394992470741271973e-01
2.842120654742236185e-02,-5.834093425078098472e-01,5.972948205518807674e-02,-3.577027488005294470e-04,-1.611497653475005287e-02,5.462940387808819243e-03,6.287616491317749023e-01
7.625958386103129372e-02,-5.815654623783277355e-01,7.024693880410792790e-02,-1.654506994350571965e-03,1.160261422327976515e-03,7.469144348059205416e-04,6.548500657081604004e-01
9.159915999553505661e-02,-5.481760544420606340e-01,4.791041258423764382e-02,9.686322898523051783e-03,-3.682590957136138918e-03,-2.670402596774728264e-03,6.193655133247375488e-01
9.540427723405378591e-02,-5.589897470956028958e-01,5.154652129566200669e-02,1.108937134079695380e-02,1.990152619014340894e-03,7.069419388000523384e-04,6.339062452316284180e-01
9.433073699768371179e-02,-5.583109748250465465e-01,4.844711046178001856e-02,1.771122956002921548e-03,5.987556288373957524e-04,-1.901850889999722859e-03,6.309693455696105957e-01
5.586293245867599011e-02,-5.807879373665947309e-01,5.289891033290253231e-02,4.826182755047882331e-04,1.227210251661040594e-03,1.941596457217964304e-03,6.351870298385620117e-01
9.383765200465832290e-02,-5.411096556781349598e-01,4.214075203509837220e-02,1.342203922510974701e-02,-3.335651324275336425e-04,5.642350603222633055e-04,6.111853718757629395e-01
1.073996735037461570e-01,-5.823630860887678562e-01,4.725781689117333761e-02,-2.385168889715194585e-02,9.062732586855543754e-03,8.942017817161250492e-02,6.810632348060607910e-01
3.485249210921020913e-02,-5.830296197862778751e-01,5.735015536384274748e-02,4.485457457756688443e-03,-3.943142914774495043e-03,3.982005307652028252e-03,6.295553445816040039e-01
8.267987607224633329e-02,-5.858246555340510531e-01,6.312289621191152778e-02,6.330318822438532405e-05,1.535521383839627595e-03,1.925464453193917935e-03,6.589575409889221191e-01
6.848307129452602116e-02,-5.862075399588634328e-01,6.762716335782242849e-02,1.088730289590913742e-03,-9.390969120405174425e-03,-9.001307399019235767e-02,6.727818250656127930e-01
6.139323183238795667e-02,-5.839457455343359804e-01,6.278157536144451933e-02,-2.689438636165851493e-03,-1.293159839445635721e-03,-2.114687762779211833e-03,6.460653543472290039e-01
9.021205971653861733e-02,-5.915258641027739683e-01,3.849671170237797813e-02,-1.624937856244642112e-02,7.780778452682211507e-03,4.366416389679402162e-03,6.581912636756896973e-01
1.021010899516727743e-01,-6.592275264963651793e-01,6.042907806331343501e-02,-2.432898795339881806e-02,2.419091287592695094e-02,-3.218000103797211131e-02,7.458348870277404785e-01
1.044989388408443798e-01,-5.867019235649185704e-01,1.870482506120410560e-02,-1.778802459148133910e-02,2.079827379958841885e-02,5.415678889542743443e-03,6.543341875076293945e-01
7.489343519069549537e-02,-5.923165780165882133e-01,7.007507724419934081e-02,-3.741588943212785772e-03,4.479287217091640003e-03,-4.346651681271681525e-04,6.648911833763122559e-01
1.230430505924144380e-01,-4.879636779714605632e-01,-4.908708882126283646e-02,-2.650800957988508431e-03,2.901540229458231604e-02,-1.631077574810029518e-01,6.165586113929748535e-01
7.827830375548550101e-02,-5.920523891180431431e-01,6.767044702378313681e-02,3.444349975915201223e-05,2.247525580702199651e-03,2.855001262718679517e-03,6.651200056076049805e-01
-2.519657725042978580e-03,-5.987396256514210258e-01,1.095704696926247945e-01,1.246903090657351491e-02,-6.220170246204935688e-04,-2.496977116057472277e-03,6.598174571990966797e-01
2.900835399437315387e-02,-3.239767612279800812e-01,2.787363649897720008e-02,-6.482966170581377918e-02,8.067706109948752369e-03,-9.093580991882338482e-02,4.022575318813323975e-01
1.087180488516301113e-01,-6.154546788458341577e-01,2.011690991705958331e-02,-9.932825225967447172e-03,2.288371544810399033e-02,-1.270163924237351430e-02,6.859043240547180176e-01
1.739762599790078967e-01,-5.965676578046033018e-01,-4.439826691633586009e-02,-6.288462208355392880e-02,7.026934488366190501e-02,7.402777107927438482e-02,7.185230255126953125e-01
7.976677547088154019e-02,-5.747546231228315428e-01,2.966030405301037232e-02,4.173550405754589132e-02,7.735703177339674219e-02,-1.657886450415417892e-02,6.497042775154113770e-01
6.851520183024159549e-02,-5.987417402535264443e-01,6.784937977759858407e-02,1.631445104840231579e-03,1.631735715783769864e-04,7.762187005055752728e-04,6.669316887855529785e-01
7.242552662717108292e-02,-6.020445266017061536e-01,7.136979783605448824e-02,-3.408770741778997804e-04,1.696228269876294634e-03,9.924308357623032057e-04,6.739516854286193848e-01
5.845201396379942627e-02,-5.951774392732861463e-01,6.716532170980232808e-02,4.578281013973423130e-03,-1.791791896600311617e-03,6.249713569530542141e-03,6.581735014915466309e-01
7.476139426799918719e-02,-5.897149716171450340e-01,7.636886527816183490e-02,-4.038488430014705935e-03,1.372929942913052141e-02,-4.051091330554180969e-03,6.657801270484924316e-01
5.150238709164750572e-02,-5.757595228762879547e-01,7.702484681155122304e-02,3.091489277100773099e-03,-1.173143911151357461e-03,-1.008092831516940908e-02,6.406682729721069336e-01
8.605133513843565840e-02,-5.808664600368759201e-01,6.580586969396423624e-02,3.904032582999170629e-03,2.575306500232718825e-03,-1.993436521573531232e-03,6.570880413055419922e-01
5.094909483278670104e-02,-6.012867204176512992e-01,7.545431866689722433e-02,-8.121883340061834258e-04,-7.139028960797542608e-03,7.173250206518519238e-03,6.650597453117370605e-01
6.611066552895769610e-02,-5.879090180956562106e-01,6.997737320739549904e-02,3.835677641913869292e-03,2.285715607645560834e-03,5.850940964480677402e-03,6.560854315757751465e-01
7.219427279578399803e-02,-5.860851499769021977e-01,7.586353784771693309e-02,1.103894413342130067e-03,1.954673028484967944e-03,7.053083959796854600e-05,6.601331830024719238e-01
7.069168663152672338e-02,-5.929424003073171523e-01,7.006610602059870629e-02,2.772892346110556339e-03,2.302000367849888797e-03,1.115942187325721967e-03,6.633536815643310547e-01
5.773288842072621385e-02,-5.949657817262847814e-01,7.301573843062525437e-02,6.254025229648504068e-03,1.023461472033002561e-03,6.792651178349006814e-03,6.606686711311340332e-01
1.245946265598879554e-02,-5.893273459643803003e-01,7.092028866215271954e-02,3.784180781749593714e-03,-1.640674041363910513e-02,2.012159758244017830e-03,6.337260007858276367e-01
4.548945020312700205e-02,-5.824647294233156192e-01,5.179903098551277840e-02,3.280818947118707316e-05,-5.692677411303172230e-03,3.260540026590717615e-03,6.312348842620849609e-01
5.375340442937437402e-02,-5.861729165360656246e-01,5.072469282219585485e-02,3.855835989586142362e-03,-6.320320592881978686e-03,3.176572363647631441e-03,6.385698318481445312e-01
4.700513426493579949e-02,-5.782939021692399262e-01,4.421802983246300722e-02,2.539453628911269743e-04,-3.631228000043584293e-03,2.086133726983616966e-03,6.239524483680725098e-01
6.734867758744700339e-02,-5.797558569842740095e-01,7.143739149698219437e-02,-4.315163789431188611e-04,-2.791086497323291349e-05,-9.070304975839894954e-04,6.491608619689941406e-01
5.233012824287661124e-02,-5.890084854418174976e-01,6.744390109220413376e-02,4.216823167003524477e-03,-3.063243284717223104e-03,-6.326458354662318692e-03,6.491827368736267090e-01
4.897546697192620146e-02,-5.818548568112984487e-01,4.956331626198776097e-02,3.958825440658894157e-04,5.623374180923379788e-04,1.396722989027824355e-04,6.311256289482116699e-01
4.526918066810256547e-02,-5.791682357809397885e-01,5.231165588176475700e-02,1.838903706288015074e-03,-5.058312117127987569e-03,-2.267445189716275986e-03,6.280697584152221680e-01
5.891339392062516778e-02,-5.913844366503528960e-01,2.831242713965187452e-02,-7.369525809926679577e-04,-2.914624692906175873e-02,-1.203373581076452566e-03,6.375566124916076660e-01
6.870288615570810387e-02,-5.849928725175141953e-01,6.021107526007421495e-02,2.837001575138435594e-04,-1.496304804718348981e-03,-3.196480976465796483e-03,6.495204567909240723e-01
4.596296761552287613e-02,-4.597928493414460971e-01,4.749385372666470317e-02,-8.379835336481882913e-04,1.790616453216165721e-02,-7.562184382360482692e-04,5.074753761291503906e-01
6.306524813961805753e-02,-5.849332790009376115e-01,8.247294747751415800e-02,2.095275576295998945e-03,1.610689914731097509e-03,-5.014590639764747232e-04,6.579335927963256836e-01
4.982353864025221291e-02,-5.798388459383492233e-01,5.007334542488009466e-02,-3.462084033307194389e-04,-5.163317293803406684e-03,-9.652218813643161045e-04,6.298533082008361816e-01
5.441632657043227184e-02,-5.900051356655708901e-01,3.114012680878042172e-02,-7.249976878109420019e-04,-4.574013415912495106e-02,-1.037098016133381102e-02,6.382960677146911621e-01
2.951804138502198138e-02,-4.861507484180240257e-01,8.106282832368705282e-02,-6.273389510526768955e-04,3.287334824987770635e-03,2.343183403805991841e-02,5.448228716850280762e-01
5.214505308583106125e-02,-5.880975711782279181e-01,3.392230461532957930e-02,8.597564245750694348e-03,-9.253541257022409108e-03,-1.071097256313794212e-03,6.317102313041687012e-01
5.496843713529597775e-02,-5.797175655863162635e-01,4.189139962392726679e-02,2.194110353283372158e-03,-4.549508003735432821e-03,1.197404320228538568e-03,6.283138990402221680e-01
1.065132767526994484e-01,-6.270716664405855401e-01,2.265439441052935488e-02,-5.914469313037627046e-02,9.827999578946114423e-02,1.428296652241345388e-01,7.644172310829162598e-01
5.750473132167832624e-02,-5.843485630014690901e-01,5.159565969150520237e-02,-1.677494777056452464e-03,9.706745277928864948e-03,1.191369344811340570e-03,6.391503810882568359e-01
6.694267193418879103e-02,-5.893721387697983261e-01,5.282101107292971887e-02,-3.933614777609480487e-03,1.342661896162574905e-02,-2.403577609517738856e-03,6.498345136642456055e-01
4.553044226406816053e-02,-5.912153064422225324e-01,6.728020502873260922e-02,1.779935693764983843e-04,4.895043874508315553e-03,-1.780258799046084781e-03,6.479573845863342285e-01
5.163439129393562754e-02,-5.891380422114156357e-01,6.547699190913500167e-02,-5.182501255297555613e-03,2.319168037692351334e-03,1.085566534740360330e-03,6.478820443153381348e-01
6.256059038938921457e-02,-5.873308092495874710e-01,6.240965094695630211e-02,-2.629931908964362828e-03,6.219801161160723284e-04,2.308824570366377078e-03,6.498451232910156250e-01
6.108139328495895692e-02,-5.879124292217610126e-01,6.590640631064850763e-02,-4.141984784064563739e-03,1.645052852590124732e-03,8.508672020974298797e-04,6.514671444892883301e-01
1.506529447058784221e-01,-6.572434728285316829e-01,-3.632548436907442890e-02,1.093971269921787358e-02,-1.753158164872063588e-03,3.782727051952224778e-02,7.357032895088195801e-01
1.728784792161713879e-01,-7.050649552247457708e-01,-2.902627766993223779e-02,-3.179881597823742273e-02,1.222873795994084724e-02,3.175236224412726627e-02,8.004973530769348145e-01
2.015422301304947705e-02,-5.909955070280393796e-01,7.519660377886128177e-02,-2.866958799165336517e-03,-7.243746006222825766e-03,4.922561631846154168e-03,6.406462192535400391e-01
1.833396897467031716e-01,-6.141006433996603064e-01,-8.147406391423767102e-02,-4.503903006871574910e-02,-1.965055431072003020e-03,1.727367130244793214e-02,7.084183096885681152e-01
1.984904534945369781e-01,-8.181987892707213161e-01,-3.945627292872980196e-02,-3.100618870301303717e-02,-1.646960379611803887e-02,1.173817239170765192e-01,9.451936483383178711e-01
2.812778030522419814e-02,-5.876449467068722843e-01,6.975154968836685954e-02,-1.221891592407809779e-03,-5.427935985228705094e-03,4.771081034703477004e-04,6.376777291297912598e-01
7.793547508951223501e-02,-5.297305552238504855e-01,5.257625119430181515e-02,6.815341945673925386e-03,1.413438460029811140e-02,-5.978726670020988957e-04,5.960125327110290527e-01
2.334799584159966690e-01,-7.273628130974458816e-01,-4.948527003203753716e-02,-2.823338641716994710e-02,4.137739454536563249e-02,3.329314683182176948e-03,8.596301078796386719e-01
7.523225925861107277e-02,-5.879394447031063287e-01,7.763965408376083399e-02,6.708066521920398768e-04,-3.873280668053815604e-03,2.947280736962891033e-04,6.644137501716613770e-01
7.919148053042648905e-02,-5.896600594596429490e-01,7.236594693347569995e-02,1.364006939637031667e-03,-2.293259026623886438e-03,-4.061841952909362591e-03,6.655182838439941406e-01
7.636240122364021388e-02,-5.899198628811573863e-01,6.930438537441824254e-02,-1.100693824218073810e-03,-5.718896417840213390e-04,-1.365395358346049599e-04,6.627849936485290527e-01
7.627514547618294283e-02,-5.923536852993206425e-01,7.773567035349279730e-02,-1.352194334717091422e-03,-1.324965682835629616e-03,8.646068947349115020e-06,6.693683266639709473e-01
7.724867971094812047e-02,-5.903350154211638445e-01,7.330082103059784582e-02,1.167759043285149971e-03,-1.238619810751460156e-03,-1.872851212065576067e-03,6.656329631805419922e-01
5.966346891750143322e-02,-5.827707387045135690e-01,5.566059426292108148e-02,-1.528930207504837057e-03,2.466568989939328140e-03,2.338628071997340095e-03,6.404746770858764648e-01
6.718166046916812517e-02,-5.977414168038919229e-01,6.570484373870896788e-02,1.893968051600620909e-04,1.856116129837011037e-03,2.386928362296287555e-03,6.642066240310668945e-01
8.613010467837561857e-02,-5.757463448048604215e-01,6.232303830840579817e-02,2.221202260009056469e-04,2.698982949961693887e-03,1.480722034409097604e-03,6.503217816352844238e-01
2.021366121337767052e-02,-5.978887568954205367e-01,8.773299144852569897e-02,-4.335327872591579652e-03,-6.761356732361808834e-03,3.486241785247198594e-03,6.546550989151000977e-01
8.301192816489580406e-02,-5.772972716022708450e-01,6.558613090120540834e-02,-2.155366076828972577e-03,1.450500839591222901e-03,1.236058117878933559e-04,6.517866253852844238e-01
8.746483919709657773e-02,-5.694751500302877023e-01,6.005982255089103994e-02,-3.768671219661288014e-05,4.621482821263526476e-03,9.250929646300489872e-04,6.437269449234008789e-01
4.597654035700832198e-02,-6.759782979383042179e-01,8.791609085379537003e-02,-5.589984065791613749e-02,9.105034257359879979e-02,3.232504186074840191e-02,7.685283422470092773e-01
7.937495483202514079e-02,-5.837940428775266755e-01,6.760740045254148844e-02,2.481471694925984663e-03,1.212901514692605806e-02,2.967717731377991948e-03,6.577339768409729004e-01
1.064488703346190834e-01,-6.108364351232764555e-01,-1.715753888833959628e-02,-8.051081964494515367e-03,3.112388321328522431e-02,1.158953256204122047e-02,6.667976975440979004e-01
7.931780254111431283e-02,-5.996611578894723849e-01,6.902352140693018834e-02,4.004987463967786933e-04,2.236364128776222992e-03,-1.103283349154838980e-03,6.739050149917602539e-01
1.362602980887566151e-01,-6.487513181271564733e-01,-4.926358410324266357e-03,-1.869078989900026938e-02,-2.132967313187638519e-03,1.412323656919424290e-02,7.259503006935119629e-01
7.328838001458520823e-02,-6.005687596665220118e-01,7.216962745172955662e-02,8.806142188763933505e-05,7.172976561263827043e-04,2.213225693219113711e-03,6.733105182647705078e-01
2.208551406209379731e-01,-8.114226228417781295e-01,-3.392800629194184237e-02,-1.316531284662977863e-02,-4.084768545868494583e-02,1.036721684673799770e-01,9.514589905738830566e-01
1.229160136241840839e-01,-6.144198774142731745e-01,-2.736503577273169396e-02,-1.528816705877723142e-03,4.686021932183331352e-04,1.037440939096677221e-02,6.751085519790649414e-01
1.343735460786263380e-01,-6.135617821739713929e-01,-4.011983950646624830e-02,2.431106761238628709e-03,3.524437844666316981e-03,8.915460511222448106e-03,6.779667139053344727e-01
1.196698147080794694e-01,-6.017571239676040573e-01,-1.822138826981256621e-02,-1.756232381697546982e-03,3.847061013930632399e-03,-4.534966075970914105e-03,6.634061336517333984e-01
1.184557365479801949e-01,-6.045748919639946095e-01,-1.846298146026953413e-02,-3.536348139745151137e-03,-7.377215510507136899e-03,3.700851805168892290e-03,6.654062271118164062e-01
7.283368284079069777e-02,-5.881743871631878173e-01,7.503882782378182292e-02,7.724767038128499278e-04,-1.068551670421363873e-03,5.256030040765792728e-04,6.621179580688476562e-01
1.326104842142195039e-01,-6.372319403823331063e-01,-8.244120343591565536e-03,-2.743160974928666139e-03,2.159166116819948369e-02,9.083749583279496220e-03,7.111471295356750488e-01
7.409306071881063827e-02,-5.860131202690639363e-01,7.226269006522659244e-02,2.848078833530884053e-03,7.644040221324357445e-04,-2.006764672465298526e-04,6.592127680778503418e-01
1.111869340170223985e-02,-3.471726935276482906e-01,4.677682291021934002e-02,3.427587821755845310e-02,2.486044356356723745e-02,-1.904738156740963528e-01,5.065961480140686035e-01
5.268542331672540491e-02,-3.709043461167340627e-01,1.697507851157020742e-02,9.105158252559132637e-02,2.769673890038499339e-03,-6.025417457457933439e-03,4.365547895431518555e-01
2.758253602293109230e-02,-3.607706857257154676e-01,3.372107432406401539e-02,1.664808896523941803e-02,-8.400220312031993902e-03,-4.934228736219690992e-02,4.019788205623626709e-01
7.650774251268979698e-02,-5.870721556793709883e-01,7.405919976733268961e-02,3.861129657518830652e-04,7.317303277713345855e-04,-2.983608538307720996e-04,6.623607873916625977e-01
7.032425979957437900e-02,-4.819127648438507605e-01,3.498488769439275781e-02,1.773783992249366461e-04,7.684114468904244127e-03,1.145450472633406295e-04,5.356082320213317871e-01
3.442316981362497641e-02,-4.225785458600810895e-01,5.270116226219206945e-02,-5.562401035215770208e-03,1.427353274148067570e-02,-3.649734221741973705e-02,4.714211821556091309e-01
1.933340905951473621e-02,-3.065665369206354574e-01,3.981378267108037772e-04,3.601647225899035770e-02,-5.749543185425663727e-03,-2.109884930551357216e-02,3.251530826091766357e-01
7.137263505310220690e-02,-5.683934307220466220e-01,6.982914262942510608e-02,-5.986537991908485144e-03,-1.046192569134242467e-02,3.264618502226839490e-03,6.393616795539855957e-01
7.368089556327050982e-02,-6.012146723936080406e-01,7.089200829135161586e-02,1.104961944861122293e-03,2.119106769255057598e-03,1.107494645846944601e-03,6.735209226608276367e-01
2.532080684384638292e-02,-2.746184679520993210e-01,3.966633929869456399e-03,1.040305917765890070e-01,6.683384421165588195e-03,-3.611123781657202443e-03,3.415476977825164795e-01
2.060146988369739030e-02,-3.579118535097242093e-01,3.340515942400421046e-02,2.425660984758892108e-02,-1.190574338391614008e-02,-4.747839607312299981e-02,3.965294659137725830e-01
7.336249506048203584e-02,-5.999860832496335394e-01,7.291203143762095551e-02,8.404064654367796429e-04,4.232437398113942338e-03,-5.409056358520184437e-04,6.731656193733215332e-01
6.757453119828993326e-02,-5.978479501686613240e-01,7.482401916005373965e-02,3.193875026624843922e-03,3.809622901153219242e-03,1.539148811280514288e-03,6.691374182701110840e-01
6.774408624457439743e-02,-5.856496476317085698e-01,6.979076807659082005e-02,9.644841587171257497e-04,1.196508806255269135e-03,-1.090864098684480519e-04,6.544249057769775391e-01
7.054044996687836022e-02,-6.004250914449174026e-01,7.003058197968836662e-02,2.024119989234109129e-03,-5.300396058998147348e-05,2.355318589674061658e-03,6.707323193550109863e-01
7.238181338934121523e-02,-6.029736211610949859e-01,7.000151205344234961e-02,-1.092736092717936568e-04,1.029034162555516642e-03,-5.731495119498324726e-04,6.741715669631958008e-01
7.253293435284374757e-02,-6.018428901357866234e-01,7.263816824604546474e-02,9.956220660161871350e-04,-3.219020326524013624e-08,-1.258347219582870596e-04,6.744306683540344238e-01
7.054375878416072054e-02,-5.998140746758262587e-01,6.767174946843709793e-02,1.730959315633562052e-03,-1.081350011643679747e-03,1.463691116395556425e-03,6.689406037330627441e-01
6.046386574130813152e-02,-5.472577581936086677e-01,7.478864356144687697e-02,-4.761652389232719218e-02,2.352169952324076330e-02,2.595466450210440895e-02,6.234733462333679199e-01
6.709645939809014137e-02,-5.834449005380677455e-01,7.082277808725104262e-02,-5.285605453060982471e-03,1.166232311458086437e-03,1.408359413822626166e-02,6.529356837272644043e-01
6.701018773738628975e-02,-5.612248323283514084e-01,6.963041331567981773e-02,-2.870657533629668301e-02,-7.003163313725855807e-03,2.207126267148408830e-02,6.327819228172302246e-01
8.704980172078077838e-02,-5.678173259581951182e-01,5.835351350082776389e-02,5.544145613652818119e-03,-6.321242901070832886e-03,-2.230680886236197352e-03,6.411779522895812988e-01
4.274719723938169569e-02,-5.798427960807734927e-01,6.001365321911186768e-02,1.292134832048759873e-03,-3.442391697601523363e-03,1.133040723915079663e-03,6.314354538917541504e-01
8.560101944704023857e-02,-5.783811230676051407e-01,6.634128813323558749e-02,5.778726683531116778e-03,-8.508348044727312778e-03,-2.690985325997837570e-03,6.548237800598144531e-01
8.349313106264205642e-02,-5.790091865806282767e-01,6.763561139978788161e-02,7.120875461818533536e-05,-4.271427178412990494e-03,-1.739287611380407840e-03,6.547663211822509766e-01
8.511741367910202749e-02,-5.786518296684062257e-01,6.456904401533439253e-02,-1.715596719429457635e-03,-1.104078978153093769e-03,-1.904582880960313746e-03,6.537551879882812500e-01
5.134054309017932471e-02,-5.924749414565675387e-01,7.516904701256615917e-02,-4.860826324577388613e-02,4.434410257477501560e-02,-1.077424252820856528e-02,6.661404371261596680e-01
-3.935733886274803139e-02,-6.179814661274390941e-01,1.264956973803377793e-01,8.428276014057737783e-03,-4.884766542821635665e-02,3.521191915995923547e-03,6.824135780334472656e-01
5.327504904936161689e-02,-5.861790274688993829e-01,5.108224800739594174e-02,3.617619756087328900e-03,-3.711562298457996446e-03,3.270420199876968286e-03,6.384487748146057129e-01
-3.653624055048906860e-02,-6.912533418395130358e-01,1.401668535560736117e-01,-1.034248283626954951e-01,-5.257361432605997531e-02,-2.643324474013126341e-02,7.861597537994384766e-01
2.911397291451384151e-02,-5.774007908136522538e-01,5.686076418790941833e-02,-6.834541017729569299e-04,-6.613886861395626079e-03,2.272302879310275549e-03,6.209726333618164062e-01
7.527150932893983404e-02,-5.841416655906905842e-01,7.201922521311046599e-02,-1.253029983731269526e-03,3.205705348813329882e-03,1.722813994116975667e-02,6.584965586662292480e-01
-4.419164007757070411e-02,-7.336943211576254509e-01,1.747366588976927981e-01,-7.919065150846602008e-02,-5.785791527477236740e-02,1.349733945495069400e-02,8.388670086860656738e-01
8.167216986366332421e-02,-5.725814261800903360e-01,6.007870134561449360e-02,-4.061767185275235240e-03,4.695780380618053661e-03,-1.907232617091670322e-03,6.438268423080444336e-01
4.098358468475396532e-02,-5.949631008692034539e-01,7.610099225411831592e-02,-5.555451547901491850e-03,-1.482759828363993705e-02,-2.206750106356938392e-03,6.547984480857849121e-01
5.984130679316060353e-02,-5.835517449684273217e-01,6.061530884379695561e-02,-1.268165287336704803e-04,-5.880926912796218898e-04,-1.489649912095150283e-03,6.437864303588867188e-01
-5.339132523240330830e-02,-6.232067086842412174e-01,1.262480891743457123e-01,-7.807659106648773273e-02,-5.965399836154617469e-02,-1.028807504708702074e-02,6.990010142326354980e-01
5.640359318372997754e-02,-5.909151521875399826e-01,6.325958079745033769e-02,4.385149575370307683e-04,2.556707071352943813e-04,4.520370136847848275e-03,6.508215069770812988e-01
5.831069436555771923e-02,-6.128084270365417030e-01,3.437692392917102158e-02,1.670531881213386041e-02,-5.778698037392665521e-02,-2.778664112399827860e-03,6.676748394966125488e-01
2.578617205212055397e-02,-4.870866497815022900e-01,6.594213471861748443e-02,4.733922262348218453e-03,1.942930542864534623e-03,1.969900799682655721e-03,5.341686606407165527e-01
7.960812316406995492e-03,-6.466424027502448713e-01,9.641109422759014391e-02,1.585686811735826512e-02,-5.421057867309463096e-02,-2.875984716031970007e-02,7.115340828895568848e-01
7.022411430699684876e-02,-5.889704730732563398e-01,7.103542358229272824e-02,-2.431209649795108927e-03,6.267859244317251083e-03,-1.339128558987412107e-03,6.597074866294860840e-01
4.279760224598203044e-02,-5.770928122796232795e-01,4.967384352999926200e-02,8.240347603964686286e-04,-2.363228988451559088e-03,9.419495165014440214e-04,6.233741641044616699e-01
7.888970076692988775e-02,-5.529395589665837552e-01,5.824299684163178337e-02,1.044415562291206578e-02,8.614677072998214516e-03,8.948331941902920366e-04,6.222070455551147461e-01
7.450144227913879647e-02,-6.011439646569778361e-01,7.255932679464111024e-02,-5.133881314056116911e-04,4.881292811684267291e-03,1.308768862695082610e-04,6.747300624847412109e-01
6.939199489161623768e-02,-5.988052639799004151e-01,7.074844041517219795e-02,2.343144207667498778e-03,-9.580845996326300051e-04,1.382067770539402093e-03,6.688951849937438965e-01
8.378059577629876076e-02,-5.920710771507458059e-01,6.622772824928566116e-02,-3.264891649872934780e-03,5.769095313364146389e-03,2.402755695114360945e-03,6.673601865768432617e-01
9.868388827499258165e-02,-5.922938714529726312e-01,3.361497253473882951e-02,-5.313379150148258157e-05,4.316577836508879787e-03,1.263215392625107771e-02,6.612546443939208984e-01
7.679615360869243568e-02,-5.920339640535483561e-01,6.798565129074227165e-02,-9.310151944963776516e-04,1.366423244108979414e-03,1.946070459527546271e-03,6.644833683967590332e-01
7.552129846086705345e-02,-5.995358475991475755e-01,7.111516715031920843e-02,-1.137243471001756281e-03,3.583972644652565643e-03,4.567726027513512011e-04,6.728968620300292969e-01
7.745881254907285851e-02,-5.668048057715466825e-01,6.374045006621370524e-02,-1.131609827294956933e-03,-2.457412060960154424e-03,-6.367987651947669761e-04,6.375333070755004883e-01
7.159687325284236348e-02,-6.020962763684633012e-01,7.288754952492124128e-02,-9.247368673810372791e-05,1.081597689962270157e-03,1.693437101220119419e-03,6.743484139442443848e-01
7.876356047187779708e-02,-5.724492994784659006e-01,6.634071520045337067e-02,2.995710309807984514e-02,-1.719949306663274766e-03,-8.358399439156411620e-03,6.473432779312133789e-01
7.385582442594090802e-02,-6.020539910024615970e-01,7.006998634854647023e-02,3.033974529829454878e-04,1.288068912660324987e-03,1.881441039973164888e-04,6.740288734436035156e-01
9.239735175918925569e-02,-5.559895062309521130e-01,4.943916122242636435e-02,3.265445881625131906e-03,-1.360087027060238006e-03,-7.461280665928569705e-04,6.280418634414672852e-01
9.234560418532131165e-02,-5.657817608053137270e-01,5.643528582732601495e-02,5.898281988072399083e-03,-5.158585500851286046e-03,-4.349251265941988208e-03,6.411150693893432617e-01
9.219872540607240707e-02,-5.716911259186062688e-01,5.430311640899282422e-02,7.544660403199040903e-03,-8.563384427897934373e-04,-1.772418557245519256e-03,6.459177136421203613e-01
8.821145351694129055e-02,-5.798072545584214144e-01,5.994023793341424211e-02,1.530782986593573177e-03,3.429150681812658148e-03,-1.392636574964711306e-03,6.543781161308288574e-01
8.460397326422461339e-02,-5.790043623315535015e-01,6.161398116156555083e-02,-9.896266407422216107e-04,-1.021317418221891031e-03,-2.241247807166322960e-03,6.524333953857421875e-01
5.578062127477287357e-02,-5.291332354276092609e-01,7.635650774216010128e-02,4.647592750339626239e-03,1.367120889508120080e-02,1.502092529963860654e-02,5.965610742568969727e-01
6.265443944156620648e-02,-5.660481441072804376e-01,4.876552735837563768e-02,1.227116903485728390e-02,-1.395677718501332071e-02,1.475611661054255196e-02,6.232312321662902832e-01
5.240745614501080007e-02,-5.596816257240546655e-01,9.098193303418122824e-02,3.406256743923125551e-04,6.812320989404657343e-03,6.064777053278795800e-03,6.324570775032043457e-01
5.795881107522637965e-02,-5.749221990999515697e-01,8.700491764533160866e-02,-1.538107076615238388e-03,6.054696751833108827e-03,2.457103630831746974e-02,6.493789553642272949e-01
4.934563460970331494e-02,-5.417578352712304479e-01,8.157354778993564093e-02,9.979504341953495186e-03,1.602762420317065464e-02,1.627575680874212422e-02,6.093899607658386230e-01
5.496017883933920767e-02,-5.564287821872972994e-01,8.895854709064113242e-02,-4.443298336169452557e-04,8.307713358168013901e-03,9.252315482947321562e-03,6.294466257095336914e-01
5.381592735938764416e-02,-5.141090129417933419e-01,7.654855711518065986e-02,3.576399118702357910e-02,1.621586014911271037e-02,5.307861008424370058e-02,5.907994508743286133e-01
7.932142234896966126e-03,-9.072979104937527461e-01,2.313477152656555069e-01,-7.157323790084456350e-02,4.278998602030832654e-02,-6.340351166080095136e-02,1.060640573501586914e+00
5.499961935965141935e-02,-4.562916612288723250e-01,3.985511806576255700e-02,5.862157430968439886e-02,1.981276588156558396e-02,2.006035040915195647e-02,5.163325071334838867e-01
6.538169677309935146e-02,-5.774650922530859543e-01,2.104654415331547179e-02,4.978750121530481354e-02,-7.425079075082473279e-02,6.679858419086588672e-02,6.512134671211242676e-01
9.472871803774146615e-02,-5.583427371281828311e-01,5.152855957500276918e-02,1.029965647253799736e-02,1.855057952322847334e-03,-2.331856487730888002e-03,6.328512430191040039e-01
5.280389975834118288e-03,-4.093739100981722556e-01,6.023055403903815330e-02,1.304617918226049778e-01,-8.301680055027170491e-02,1.109921640691935024e-01,5.535675287246704102e-01
4.456505732770757455e-02,-5.750779557829333033e-01,9.237374955682770006e-02,7.320021916822661012e-02,-1.162447329431662464e-02,2.560597164604062892e-02,6.590255498886108398e-01
-1.709991051451024979e-02,-1.727076712892894050e-01,4.802234912479885764e-04,8.882485170055465229e-03,-1.427720585259957195e-03,7.296530875434324714e-02,2.085019499063491821e-01
-1.627516481575025376e-04,-3.153406816833866921e-01,2.562790681815932392e-03,-1.362402066534237552e-02,1.435533842152437968e-03,-4.425851421463912992e-03,3.175301253795623779e-01
-1.042850886401992805e-02,-2.606111707633437247e-01,-5.672218360267947124e-03,5.657384426648154850e-04,-2.818160355950229470e-03,1.840718506104662908e-02,2.546471953392028809e-01
4.302925344334113111e-02,-5.779337322116020470e-01,4.929309554116162451e-02,1.048309607047875815e-03,-2.219806435389777999e-03,1.793383025430669029e-04,6.241330504417419434e-01
-2.075769356324322357e-03,-2.908856051913166207e-01,-5.815248657215096872e-03,6.604559964749401324e-03,2.497410709811874463e-03,-1.589074495408334536e-02,2.885346114635467529e-01
6.522754631421387450e-02,-5.832993186663204543e-01,5.989625277101151557e-02,-2.203317348530668077e-03,7.711567720573649803e-05,-2.797635630819567728e-03,6.459071636199951172e-01
4.022635871673396757e-03,-2.769023032603900036e-01,1.441713657463164489e-02,5.614643742192074183e-02,4.935068496975232588e-03,-4.184777987581157072e-02,3.110160529613494873e-01
-9.485615819184486930e-03,-2.438754153725810891e-01,-1.316214386741641762e-02,7.714917510507698787e-04,2.074187511559570814e-04,-2.287661987508395403e-02,2.359285652637481689e-01
4.821080439353914171e-02,-5.784914687683495593e-01,5.413206913196685899e-02,6.172871298859886838e-04,-2.401038873268927960e-03,1.674109987256296042e-03,6.297051310539245605e-01
6.393896195094062040e-04,-3.080299601002526866e-01,-2.704017987586820881e-03,2.560893387840344065e-02,3.590415687761955472e-03,1.309327141740434814e-03,3.102695643901824951e-01
4.890566081177313840e-02,-5.829908167287705112e-01,5.468317464665858885e-02,1.903347922062432974e-04,-4.519635607766549256e-04,3.485736258950634502e-03,6.348342299461364746e-01
8.151579679526743671e-02,-5.898612139816581390e-01,6.649924417123695419e-02,-1.006503480196960058e-03,2.954194918559422366e-03,-1.743309936807380112e-03,6.640249490737915039e-01
3.147258108896350270e-04,-3.191324457387433311e-01,1.015873584415576125e-02,1.205593220799607186e-02,-9.712897354449730051e-04,2.073913011717960775e-02,3.271349072456359863e-01
4.728383017150053491e-02,-5.248465561880899521e-01,7.716058177506518456e-02,-1.528585749010587941e-02,-9.047250482050390660e-03,9.278795303843981280e-04,5.884456634521484375e-01
6.862912443064375645e-02,-5.769945540832037700e-01,8.260631841014909327e-02,3.066385687983807107e-03,-7.059238920415746889e-03,-8.199035914512979584e-03,6.530150771141052246e-01
6.119986154833748082e-02,-5.596815953537850330e-01,7.855374299141948402e-02,1.428710627822003506e-03,-6.464763994733863962e-03,-1.652004986110104656e-02,6.304917931556701660e-01
5.859198972520099358e-02,-5.769186349639964240e-01,8.826197159900364686e-02,1.598947625798951590e-03,-7.678011075167536469e-03,-9.836207860771752076e-03,6.512176394462585449e-01
6.983868434314990936e-02,-5.991095437340281382e-01,7.748445837896641986e-02,1.833258183249909757e-03,3.491330241608572513e-03,-5.169016536820317138e-07,6.728383898735046387e-01
6.629922967181409166e-02,-5.447092821930359374e-01,7.001250364769806556e-02,-1.215818038447497376e-03,-1.494229466486090251e-02,-5.461103994294209604e-03,6.134963631629943848e-01
6.315668134817414847e-02,-5.765735023665069514e-01,8.522774034252000863e-02,7.259672819397016438e-05,-8.396490995093668433e-03,-9.606871826343010845e-03,6.514213085174560547e-01
8.142422182938058306e-02,-5.653259128421083135e-01,5.686503753008539941e-02,2.717178073272948080e-02,4.572452123232866907e-03,7.684813039512174322e-03,6.367574334144592285e-01
7.321528124678827742e-02,-6.019680561308397015e-01,7.363304698311837204e-02,1.604513231528981653e-03,1.278385895753679719e-03,6.535177186086188429e-04,6.754026412963867188e-01
8.243962918879005342e-02,-5.849718260426682859e-01,6.302848081703008032e-02,4.769682805388078734e-04,1.622947795897470994e-03,2.003394332823540784e-03,6.579363346099853516e-01
8.161968042255648981e-02,-5.701885910554977954e-01,6.135970352400982319e-02,6.280601265833809848e-04,6.833795950637286919e-03,-2.862272993900459236e-03,6.420472860336303711e-01
7.551272229667255198e-02,-5.838557569319744456e-01,7.698631407855754949e-02,2.151583558628906469e-03,5.186226261328448842e-03,3.907225756544890601e-04,6.601784825325012207e-01
7.569407970707431321e-02,-5.670238065811109562e-01,6.633879151912880356e-02,5.136944471224154374e-03,1.684972528894249436e-02,6.766133523198386221e-03,6.389281749725341797e-01
5.812890976824550138e-02,-5.889274066878626979e-01,5.372796662134163292e-02,1.181320998680940868e-04,2.650367806351769905e-03,6.756719250993125324e-05,6.448835134506225586e-01
8.157677421042169863e-02,-5.976675415989374240e-01,5.222761675915843504e-02,5.839420652801362993e-03,-2.528101883416364413e-03,-5.603989330506578895e-03,6.652177572250366211e-01
8.746590155947198131e-02,-5.701490253416470200e-01,5.569771435762016498e-02,7.153246355810664175e-03,5.525020699651290307e-03,-1.456809248830192660e-03,6.425160169601440430e-01
8.685358531238571156e-02,-5.624707501008281429e-01,5.707208739089617011e-02,1.504918130065514836e-03,1.951670982211963640e-03,1.391035098141733394e-04,6.349720358848571777e-01
7.053559148219429309e-02,-5.729793744330120564e-01,6.776674409866365045e-02,-2.434255645805507781e-03,7.472220077369867361e-03,-4.211018954712123777e-04,6.422796845436096191e-01
6.761470471675834482e-02,-5.976930127418704775e-01,6.200866480425451521e-02,6.008360228757881694e-04,2.947755249487559338e-03,-6.860507886988718431e-04,6.625440716743469238e-01
7.026464023957135208e-02,-5.858155243294351777e-01,6.668401152675942911e-02,-1.648620362629730606e-04,2.465325213759766163e-04,9.680291207822163931e-04,6.542995572090148926e-01
2.312104680262960787e-02,-6.142098982504788918e-01,1.084279019102766806e-01,1.466279568914984370e-03,6.925001306473513307e-03,-5.964678765274070843e-03,6.841737627983093262e-01
-3.133226829216101406e-03,-6.001877715976973171e-01,1.067878507930295484e-01,-1.042657666110228913e-02,-3.981179110678096517e-03,-1.659072955052586862e-03,6.592174172401428223e-01
-3.529196643199766781e-02,-6.609525271626789378e-01,1.558550192663304412e-01,2.381959580923196599e-03,1.957273594237408584e-02,-1.936044026679596686e-02,7.415336966514587402e-01
7.023108280508896795e-02,-6.030813126074241470e-01,7.358366134051452789e-02,-5.807211893874210818e-04,1.707810273267900856e-03,3.346337809740778670e-04,6.750023961067199707e-01
-2.985251068329633495e-02,-6.172592864959272063e-01,1.304881097313728699e-01,4.391110864543646894e-03,1.827055627948237200e-03,-5.163680733884903722e-03,6.819742321968078613e-01
-2.287337837769723436e-02,-6.063046040603258247e-01,1.241468394534642750e-01,3.406097283273668702e-03,1.042258177335036139e-02,1.447695826746260355e-03,6.694401502609252930e-01
-1.912391360083562364e-02,-6.129663296489764601e-01,1.213515299945422399e-01,-3.041604918429327651e-03,2.319584354901596795e-03,-4.418556466036917089e-03,6.752073168754577637e-01
7.209919630410349667e-02,-5.828504986262557086e-01,8.062662667536710237e-02,2.001832782887923590e-03,-2.398976479778942850e-03,-1.166118909802635632e-03,6.592800617218017578e-01
-2.569874182101916649e-03,-5.990726800008423503e-01,1.125422496661431238e-01,-6.660840833912063871e-03,2.171962506955246036e-02,-1.401623537580906284e-02,6.632260680198669434e-01
4.877659638593795366e-02,-4.964756233146505604e-01,6.258413846807278635e-02,-1.696256852583494235e-02,-1.408391569711956240e-02,2.126139976038697241e-02,5.548275709152221680e-01
7.317285678095761248e-02,-4.047492023517528237e-01,-1.314048994079144994e-02,6.084088480997622457e-03,3.693883119385867313e-03,1.461038613611183312e-01,5.087233185768127441e-01
7.891857380490865936e-02,-5.881816112803356367e-01,6.755441313196924868e-02,-1.177361634240029278e-02,-6.225696566407613701e-03,-1.964541954049856248e-03,6.619021892547607422e-01
4.623407694180056704e-02,-5.528937247582830228e-01,9.605741446427201735e-02,-8.656891761183277108e-04,6.936624885778379639e-04,-3.867333655342986698e-05,6.255323290824890137e-01
3.645765853373558740e-02,-4.589197680573045557e-01,6.898118835987168684e-02,-3.648775671008271104e-02,-1.017270558190910487e-02,3.050483223220696108e-02,5.192919969558715820e-01
6.428088410313037571e-02,-5.859771584341817441e-01,6.280695470940289571e-02,1.356434418728743631e-03,-2.310182670767848851e-03,-3.901348105130391167e-03,6.495740413665771484e-01
1.142012898553125544e-02,-3.527131328065813420e-01,3.748845945691811621e-02,1.415174280519818951e-02,1.586444196241465487e-02,8.817237717171409750e-02,4.091990888118743896e-01
7.698693921981900057e-02,-5.586327522859104722e-01,1.241399321438493852e-02,-2.668757337405963659e-02,1.779009170041913335e-02,2.485648378698888938e-02,6.099818944931030273e-01
9.797468821346910772e-03,-3.225103346434539664e-01,1.964320409672973278e-02,1.086731562429411185e-02,6.757609054339083071e-03,4.086355317975163409e-02,3.453954458236694336e-01
5.320105236847980090e-02,-5.803780599689962738e-01,5.267119554536664472e-02,-1.666244416210340166e-03,-2.399677430865203911e-05,-1.640192605921940612e-03,6.333273053169250488e-01
5.900265014947045361e-02,-5.752279706544151106e-01,9.182217973787995535e-02,-1.135464971248260728e-03,-4.779992721852834719e-03,6.746027393703651204e-03,6.514213085174560547e-01
7.391498735650389729e-02,-5.834181148498680525e-01,7.771983879315333410e-02,-2.854174246205297047e-04,-5.304478167249828194e-03,-4.851845836650282639e-05,6.593079566955566406e-01
1.144879801954057363e-01,-6.148877600056119608e-01,2.466818235628828737e-02,-7.468019406991708838e-05,1.561699950269058480e-02,1.311154254324511589e-02,6.897764801979064941e-01
3.359809108835887237e-02,-6.137796797782362201e-01,9.439029557944461635e-02,5.752734308421082049e-02,5.723476051696558403e-03,-1.478759706515857773e-02,6.876275539398193359e-01
5.541524283189053213e-02,-5.670440048251366161e-01,9.366729113236227366e-02,-1.652971883071702825e-03,4.847974081451798117e-03,1.384239903430961767e-03,6.425056457519531250e-01
6.618196837608869565e-02,-5.832749816502016404e-01,5.544854076086996875e-02,-4.981586680119519167e-04,-9.247666677507391858e-04,1.911132009770224625e-03,6.441683769226074219e-01
6.167960311301862175e-02,-5.351582802681499329e-01,6.661992406599928640e-02,8.076217589942532010e-04,-1.591016645949867164e-02,-2.125298701650406036e-03,5.999694466590881348e-01
4.411609076613112745e-02,-5.425064796684274659e-01,8.494128823910329640e-02,-3.524987512122880386e-04,-1.114468192326596198e-02,-6.193000187503118871e-04,6.083714962005615234e-01
-4.870561985250687620e-02,-4.681427653759488994e-01,1.605658216015523609e-01,1.195860387448909601e-01,5.919319245378244082e-02,-1.306432693454508409e-01,6.419619917869567871e-01
7.536326762879011487e-02,-5.898952790861928808e-01,7.950403016669399525e-02,1.242852348461027413e-03,-3.523820640005390688e-03,-1.531954798748178361e-03,6.673752069473266602e-01
8.355919625952906715e-02,-5.763417269078876526e-01,6.412263384684224743e-02,5.650550655568988695e-03,-1.703505087107113312e-03,-2.445963894942922504e-03,6.504946351051330566e-01
9.092819608741237181e-02,-5.791603281304553708e-01,5.935127094155021044e-02,-4.718389031692500971e-03,-3.802754503588817660e-04,-6.570837300439317033e-04,6.549236178398132324e-01
8.451958422749542010e-02,-5.851505054057559718e-01,6.676237236726337287e-02,2.170045202088179311e-03,-1.238457690221699123e-03,-5.027289566976437044e-03,6.610419154167175293e-01
6.719724934921308956e-02,-5.753774226404650971e-01,8.272718185493457832e-02,-2.929090138259693270e-03,-4.774046303972601969e-03,5.062169510887995147e-03,6.506100893020629883e-01
7.262159082470306948e-02,-5.910280687489735119e-01,6.503327305160888638e-02,-1.593191547457364909e-03,7.235652698395595665e-04,-4.939975758957764786e-03,6.599506735801696777e-01
6.026390379579971146e-02,-5.773609920365911918e-01,7.562605482101156240e-02,7.490763979525499883e-02,2.809694811523995306e-02,-3.745904910665127929e-02,6.633310914039611816e-01
1.662255600168721648e-03,-7.481844131398229791e-01,1.893953487977941830e-01,-1.489342705101427133e-01,4.676088171163376994e-02,-5.466085227153287540e-02,9.057329297065734863e-01
4.784916378665665659e-02,-5.261575496068178204e-01,6.045170492413293184e-02,5.292467987519103995e-02,-8.866809600542150532e-03,4.157600421358529502e-02,5.922002196311950684e-01
-6.228005826381460136e-02,-3.383117366380569147e-01,6.058609332877534781e-02,1.735629333078755887e-01,-8.970375797294865812e-04,-1.441149415512039955e-02,4.649755954742431641e-01
8.234687895581643824e-02,-5.561581724232598223e-01,5.718987258214627833e-02,2.438268192947675231e-02,-1.003045721796435620e-02,-5.393763101207696940e-03,6.280376911163330078e-01
-1.296114521698704669e-02,-4.560206309469493902e-01,1.301146773042624605e-01,1.722411103640013874e-01,-6.476370862156863306e-02,4.548900249100078230e-02,6.228605508804321289e-01
6.355929483723807283e-02,-5.419780238879627898e-01,7.009085945783208316e-02,1.639553448916202666e-02,-3.084163571137713521e-03,5.877339237309690649e-03,6.095997095108032227e-01
5.149426441733195858e-02,-5.619684476677013762e-01,9.059284081274485145e-02,4.220097104118799756e-04,-4.920719235405480313e-03,-6.184039533767114608e-04,6.339755654335021973e-01
7.657750028018570077e-02,-5.894485446901940318e-01,7.432636759589877906e-02,4.013212569728739849e-05,4.178505964121655370e-05,-1.511919525734841535e-03,6.649085283279418945e-01
2.650396868547227891e-02,-5.930833786679912123e-01,9.735052550421591233e-02,1.032471772776225906e-02,6.745190910427282041e-03,-8.329808730516056678e-03,6.583827137947082520e-01
7.258135970257001413e-02,-5.844536125259718329e-01,7.702059652236847853e-02,-2.878866637793904820e-03,-3.561180002029758467e-03,2.133524790116072753e-03,6.593238711357116699e-01
7.194103395517759125e-02,-5.835594611361294426e-01,7.523004001406877195e-02,9.922307522036016847e-04,-1.922562307177593530e-03,-7.175237215183094758e-04,6.571630239486694336e-01
7.158048675389952487e-02,-5.898694980847085656e-01,8.195108425431257837e-02,-2.685286360337816279e-03,-2.540572551007265045e-03,-1.745644947499635146e-03,6.667333841323852539e-01
3.307024076776007848e-02,-4.879096866915222375e-01,6.902548923535817282e-02,-2.103074302424250651e-04,-1.337479930281470532e-02,-5.534305200350275646e-04,5.403540730476379395e-01
7.959796412204117599e-02,-5.892467419446898447e-01,7.022820034013729784e-02,-1.086162385445879966e-02,-2.252177527589435853e-03,-1.116573741107174805e-03,6.644900441169738770e-01
7.805519017824391614e-02,-5.896493407709870738e-01,7.604811405177916428e-02,2.938921411708967746e-04,-2.342810552511418142e-08,-3.093379682392345263e-04,6.667036414146423340e-01
7.264638843392062784e-02,-5.846821830174613321e-01,7.818878852209373842e-02,-3.065570851209242081e-03,-7.106011385674157292e-03,1.165611131877178439e-03,6.602563858032226562e-01
6.750215776059401152e-02,-5.776078386917192775e-01,8.355095614624488687e-02,-1.199002078159916917e-03,-4.186831627675321674e-03,-7.157704689167127638e-04,6.533269882202148438e-01
7.386909391419616000e-02,-5.814316698703233532e-01,7.678700445555544651e-02,5.124043802365408707e-04,-5.520541613707319675e-03,9.824767044332753056e-04,6.568369865417480469e-01
5.034699054522906447e-02,-4.274012130956970079e-01,3.687817700978024416e-02,8.100231972258829793e-02,1.500051178717081921e-02,5.962919483419820005e-02,5.030071139335632324e-01
8.486880472601476821e-02,-5.784923155829100327e-01,6.319934011664893325e-02,2.869591154532410635e-03,3.489481733319400435e-03,-1.701679682027083947e-04,6.528431773185729980e-01
8.171985560984557084e-02,-5.410216052768203054e-01,5.366383412186653823e-02,1.630312983576596639e-02,5.165978083716641148e-03,2.906890019495376749e-03,6.099386811256408691e-01
1.951484654298957233e-02,-5.942052402305914027e-01,9.672565803270877227e-02,-9.701326720782140270e-03,-4.849276839792729735e-03,3.227148032755183110e-03,6.560364365577697754e-01
5.627803575667839064e-02,-5.788137777637998305e-01,9.104714774420419321e-02,-1.618616760060746134e-03,1.272514948763884060e-03,-4.043808983300127384e-03,6.532180905342102051e-01
4.625933470075788145e-02,-5.485599775813344570e-01,9.530615441181330971e-02,-4.507833399273275077e-04,2.517934927074734573e-03,1.993393250263688667e-04,6.208134293556213379e-01
5.181114834893685295e-02,-5.798649755357176971e-01,9.183785113478151740e-02,-4.163431882733433214e-04,3.046580434612810705e-03,-9.131157125396853480e-03,6.528241038322448730e-01
5.152030860084441666e-02,-5.623784809296021869e-01,9.599765444703345363e-02,1.569747515530817226e-04,-8.523942960377569418e-04,-1.936753273469619388e-03,6.373131275177001953e-01
4.530225185616915118e-02,-5.991291539394365540e-01,7.767728196643478022e-02,-5.713360228549112588e-03,5.637595594922635914e-03,-8.753592463429811163e-03,6.615335345268249512e-01
6.119237676304198348e-02,-5.857147597050753607e-01,8.682064844581438567e-02,-1.835026689141930605e-03,4.179975913363414251e-03,-3.230785133230652546e-03,6.601656079292297363e-01
6.950715402359486372e-02,-5.865402061366716824e-01,8.017195386382131028e-02,-1.810836588443969246e-03,-4.920436484285963148e-03,8.856558173252638416e-03,6.616843938827514648e-01
-1.176848989835058840e-02,-2.225628030016586489e-01,8.118518109760949897e-02,4.166088632271582742e-02,-2.790076321130074283e-02,7.778555453322424929e-02,3.136283755302429199e-01
6.155110127307636403e-02,-5.796654087239654363e-01,8.457332940108172603e-02,-8.942321031716539588e-04,7.405491824070802856e-04,7.947097714647002788e-04,6.530365943908691406e-01
8.119344384755200483e-02,-5.887898006042266985e-01,6.970756580570808270e-02,-1.098895937222068875e-04,-4.047414012459174364e-03,-1.782098594702029347e-03,6.643589735031127930e-01
4.672603860324830993e-02,-5.524085672465747221e-01,9.531092088457826517e-02,6.156993695680721508e-04,-9.989747264215825210e-04,3.778877505339606462e-04,6.248489618301391602e-01
7.121196626861869827e-02,-5.859548011937181222e-01,7.947255591324414725e-02,-3.652383534588705700e-03,-7.538383626875871588e-03,2.071574046446391509e-03,6.615046262741088867e-01
7.661202679315981534e-02,-5.670231340956900512e-01,6.928823542452913764e-02,-2.756534385443891368e-03,-6.585828774290930152e-03,-4.458505070315554354e-04,6.401246190071105957e-01
7.729492700089082846e-02,-5.760465124271412218e-01,7.092273272312304977e-02,-1.494858383590148691e-04,-9.208985631642737507e-03,2.570957917090872010e-03,6.503896713256835938e-01
7.672628681863183364e-02,-5.854885593209138150e-01,7.488560211993758320e-02,-4.471545921364088703e-03,-4.330654189019526347e-03,2.851237278513132109e-04,6.613845229148864746e-01
6.169878299329617510e-02,-5.766718197115703326e-01,8.939054246714953078e-02,-2.888618090309569633e-03,4.462064056177290103e-04,5.777667944704172748e-03,6.527535915374755859e-01
7.165038985733432342e-02,-5.910989486965869677e-01,6.957926699441618901e-02,-1.670967709657064431e-03,-1.284340023506183896e-03,-2.272037674973292291e-03,6.617379784584045410e-01
5.041192064440888632e-02,-5.423532178878388565e-01,6.950387950165229367e-02,-7.312970895635753643e-02,1.824389550910637814e-02,3.795675422512259645e-02,6.200133562088012695e-01
9.417950118685824989e-02,-7.689844796551659201e-01,6.514586389368404173e-02,4.443885660378828900e-02,-6.769840783150211927e-02,3.096119464485645734e-02,8.621969819068908691e-01
7.767656667673034088e-02,-6.166259397513240703e-01,2.400287401909695362e-02,9.881812260492887912e-03,-4.101717784141052647e-02,9.641655876946661832e-03,6.732682585716247559e-01
7.756265965467795676e-02,-6.201821595442995605e-01,1.544828615009743999e-02,1.524120528010626703e-02,-3.037486775482525075e-02,2.048302244209219362e-03,6.714487671852111816e-01
7.199619507903609605e-02,-5.894116938568449982e-01,2.376718046165787745e-02,-1.341393684297469786e-03,-2.784066106859057685e-02,7.034226980418789750e-03,6.405985951423645020e-01
8.840777953920514465e-02,-6.010381548717300682e-01,-1.061266399601368260e-02,-6.891594460806495410e-03,-5.513138096565531332e-02,-2.506105533320603616e-03,6.528025865554809570e-01
5.243787411566777634e-02,-6.105678218046201033e-01,5.273861216797509632e-02,8.112281393482514633e-03,-3.949146487014563306e-02,7.582287663857972771e-04,6.668237447738647461e-01
8.077209528107376357e-02,-6.353978632913603874e-01,1.122108348723183102e-02,-2.819333808888156798e-03,-7.719264107119093443e-02,1.426594611894767099e-02,6.974502801895141602e-01
5.905402065798151523e-02,-5.875783048677802878e-01,2.628213521110614459e-02,5.574227346288746117e-03,-2.811047722435249668e-02,6.733613385537618595e-03,6.329421997070312500e-01
1.773684057823993188e-01,-7.058083532749274136e-01,-6.233560286934849981e-02,-1.861921725893459986e-02,3.684406368426356576e-02,2.941316532750299501e-02,7.959058284759521484e-01
1.742550131232158406e-01,-7.113928599951508946e-01,-1.699815021643508173e-02,-1.518287520155419713e-02,4.203096052545634426e-02,-2.211472989237530870e-02,8.118038773536682129e-01
1.601686045786342438e-01,-6.695424206032696279e-01,-1.473849027679677293e-02,-7.062695936250801276e-02,3.605302076562307695e-02,1.286375082842508046e-02,7.702278494834899902e-01
7.464861114018367383e-03,-3.736435368825943293e-01,3.938686879090366744e-02,5.359651709400917348e-04,8.970194260545018630e-03,2.314101218585665459e-03,3.983549773693084717e-01
1.167711211735888988e-01,-6.729743052541484749e-01,2.382106868787417508e-02,-4.824942345283585871e-02,2.277564091418644854e-02,-1.327785830421462573e-02,7.536575794219970703e-01
1.282688613067700656e-01,-7.036293466350431736e-01,3.403288511514651615e-02,-2.451289948034257246e-02,8.565185449650594696e-02,-1.773830364308726440e-02,8.045468330383300781e-01
5.091858102694815646e-02,-5.509743016947041827e-01,8.779024526769108050e-02,2.318118775177411498e-03,6.843070612406803796e-03,6.486211332905426723e-03,6.213776469230651855e-01
2.225153590471881104e-01,-8.579812047876016479e-01,1.532209848312060529e-02,-1.359110197043686408e-01,1.042301555690216264e-01,6.489476560800890026e-02,1.042675137519836426e+00
5.135919342644679197e-02,-5.600151231262638918e-01,9.498443304988793412e-02,1.888320062840352035e-03,1.985674132553463637e-03,6.253251407053105233e-03,6.344232559204101562e-01
4.977458758669345285e-02,-5.473100068851308730e-01,8.961279404988312103e-02,-1.406654801568492374e-03,1.223268133452201645e-02,8.253676783655104938e-04,6.183370947837829590e-01
1.160076738144835695e-01,-6.775588973237354207e-01,2.544172438329059260e-02,6.876578013016972427e-04,2.257251175367877213e-02,2.225691043845316741e-02,7.543845772743225098e-01
1.499491407982849189e-01,-6.682074089417399110e-01,1.639055043547993362e-02,-2.280834859849862131e-02,1.518997046765582434e-02,2.668368638504659343e-02,7.631088495254516602e-01
-1.296718336602358662e-02,-5.679288160487812320e-02,-4.860338248424109914e-03,-2.165342327458982027e-03,5.653799191935552672e-03,1.117524358873569525e-02,5.316315963864326477e-02
8.618494016237568389e-02,-5.668512589884251440e-01,5.794035157202015451e-02,2.654961363588408032e-03,-7.895277093398283055e-03,-3.159853607368437456e-03,6.395681500434875488e-01
1.841106060499822505e-03,-2.793571592524243807e-01,1.318206459198949243e-02,-2.936172894707445719e-02,-6.385664703809100506e-03,4.380587560906692296e-02,3.014227449893951416e-01
-1.293594486435628577e-02,-1.144381788670942313e-01,4.401273330262064909e-03,-4.469822576893246052e-02,-1.268898909387522554e-04,1.836938947280775114e-02,1.391732543706893921e-01
-1.106748078347187352e-02,-4.864466928679608143e-02,-1.648367296717338087e-02,-4.252386484706364815e-03,2.155909594752980149e-02,2.716546708809517222e-02,7.000267505645751953e-02
-4.748206215574177214e-02,-5.737504992287947303e-01,1.635544946952227074e-01,1.733621399025640497e-01,2.859324039117146915e-02,-1.232919097371279818e-02,7.250026464462280273e-01
8.482290502477651817e-02,-5.131415443477158611e-01,3.616106168734442572e-02,3.182018623369331500e-02,-8.970374445844746871e-06,-1.151311413900630957e-02,5.781579613685607910e-01
7.252609890242861512e-02,-5.254978923512891864e-01,4.725604118688403465e-02,7.425598620979728670e-02,-5.626203520080295430e-03,-1.380192724700221932e-02,6.003061532974243164e-01
9.683482745451241214e-02,-5.540581778499065191e-01,4.683450995217208757e-02,6.032600791301720271e-04,3.646744872210013356e-03,-1.015584401494958955e-03,6.274240612983703613e-01
5.218932221540723004e-02,-5.817523095226198038e-01,7.126304206784442319e-02,-2.443026962976252610e-03,-1.486131863033456242e-03,-2.833337140674822060e-03,6.437282562255859375e-01
6.612279510350177469e-02,-5.761705776250516386e-01,8.775184756943849029e-02,-1.057870281617388948e-03,5.701366264179752973e-03,8.716683711890134759e-04,6.534553766250610352e-01
5.785576118946608726e-02,-6.028077847876190942e-01,8.734408793516063030e-02,4.176598284657460219e-02,1.843113482176203652e-03,-1.313525320209659591e-02,6.801387667655944824e-01
7.859041130668628639e-02,-5.907260814452142128e-01,6.629034279134837782e-02,3.116500084158618789e-03,4.150986576075909695e-04,1.952881421800543339e-03,6.632829904556274414e-01
4.818643820133064470e-02,-5.802468939042453311e-01,7.534784183765647070e-02,-7.300042280996057445e-04,7.349783553227580424e-04,-6.120770129941310519e-03,6.425347924232482910e-01
7.300931052484221917e-02,-5.313647736970368296e-01,5.258896315741704020e-02,6.884238534871860160e-02,5.638977183578835171e-03,-3.582099097757780043e-02,6.095130443572998047e-01
4.921015306949461099e-02,-5.821221063888706304e-01,7.896159473779107429e-02,-8.806679064421800126e-04,-1.351069958141716022e-03,-6.468145205854940530e-03,6.468244791030883789e-01
1.014900200318384904e-01,-5.982924565027207819e-01,-9.009580416305118522e-04,-3.181776182280270614e-03,-3.545344225928965393e-03,-9.558732230230817389e-03,6.548818349838256836e-01
6.770411050809566067e-02,-5.822883407420882396e-01,7.577613806050079170e-02,-8.382200705450402762e-04,4.133911159920569288e-04,1.914655978626476863e-03,6.540762186050415039e-01
1.217593182778773375e-01,-6.161376727087045646e-01,-1.699555153782325578e-02,-8.849267105473065031e-04,-1.031672391171733691e-02,-2.806994743438490439e-02,6.812073588371276855e-01
6.700393347978730874e-02,-5.808653221747861473e-01,8.317980693421347937e-02,-1.812141792820921079e-03,2.519532348481721019e-03,3.652938380476226585e-03,6.561592817306518555e-01
1.006078973388911946e-01,-5.720003180623378647e-01,7.226239049893695698e-03,8.837746406931473730e-02,-8.707838414226146129e-02,1.731636084533942632e-01,7.310603857040405273e-01
1.455903567959828671e-01,-6.516890627176803452e-01,-7.119203240198251903e-02,-2.052415345680286274e-02,-6.284828183548125946e-02,-8.464756949983023859e-02,7.378495931625366211e-01
6.386874958230140398e-02,-5.855122829869743306e-01,6.800906891512373265e-02,-3.798301214967192505e-03,-1.570738532790771263e-03,9.474348978330243264e-04,6.515020132064819336e-01
1.498908814236836196e-01,-6.081479301096679446e-01,-3.060368374848185247e-02,-3.249045203769376083e-02,-1.171233780130097671e-02,-1.431666506896036271e-02,6.888923048973083496e-01
7.595672116187271450e-02,-5.794717386128300785e-01,7.359072420380785573e-02,4.300004511566276710e-04,6.040074419579744523e-03,-3.184690716049785007e-04,6.543329358100891113e-01
7.271573693744148859e-02,-5.835426107252804639e-01,7.785030711963425443e-02,-8.438674211377060778e-04,1.291391871309465573e-03,7.626345746207823699e-04,6.588473916053771973e-01
6.928701173141055270e-02,-5.792165588488855654e-01,8.200085771446272154e-02,5.779598782061018750e-04,2.848821655589623032e-03,-6.031665246886123597e-04,6.549732089042663574e-01
1.726869874853163567e-01,-6.953915301520888770e-01,-3.819447123076241679e-02,-8.465127966762379594e-03,-3.011609014190089889e-02,4.334654449346555388e-02,7.896469831466674805e-01
1.528001245772465100e-01,-7.097212233005752990e-01,-2.191955785083748998e-02,-1.139857909704076674e-02,-2.305730515556755466e-03,2.331310029832629055e-02,7.910795211791992188e-01
1.075634064948508550e-01,-6.108055413258841604e-01,-1.311722131613912712e-02,-6.130413166480017627e-03,-1.500384224619352377e-02,-7.908989109818763408e-03,6.670084595680236816e-01
6.626528373894083335e-02,-5.831208105241807438e-01,7.764724448360890707e-02,-3.683622224783023036e-03,8.574053463295535499e-03,-4.043680672565755710e-03,6.553879976272583008e-01
7.073189555170364407e-02,-5.986313912349987554e-01,6.832147570511901136e-02,7.783607592540351533e-03,1.997300856873388247e-03,-3.897853868739740144e-04,6.683066487312316895e-01
7.532528230921686774e-02,-5.821891450682181723e-01,7.169987781043027364e-02,7.996985331057359470e-06,2.565096450314237071e-03,-3.072909995107313361e-03,6.557459235191345215e-01
6.982783027162817180e-02,-5.959211610367807221e-01,7.694570122649069255e-02,-3.804566123285494012e-04,7.677904683085092982e-03,-1.722132888214298685e-03,6.694753766059875488e-01
6.689708141420447340e-02,-5.932320264021888612e-01,8.048232474301247885e-02,-5.643907974618809359e-04,4.549212524632370060e-03,-1.722585264943360221e-03,6.670794486999511719e-01
6.863531850780488219e-02,-5.933241283428012380e-01,7.430380946633827199e-02,3.194496741724563507e-03,1.394092260087990032e-04,2.896749950985483615e-03,6.648538112640380859e-01
5.607549268940362208e-02,-5.796281066335272625e-01,3.972184051682658978e-02,2.579658955962324356e-03,-2.238140154768352656e-03,1.011512427797763361e-03,6.277168989181518555e-01
1.913187966185360134e-01,-7.122222886327803648e-01,-7.712995994317467519e-02,-1.667726337500822012e-02,-1.317685686444297621e-02,-8.799766484212261097e-02,8.188301324844360352e-01
7.571279536228156526e-02,-5.878022122205305289e-01,7.671997828721854873e-02,-4.633887504620780491e-05,4.173267850019766867e-09,-3.496139931455221218e-04,6.640194654464721680e-01
1.203426881693820394e-01,-6.662255705687820662e-01,-2.233738112291769329e-02,2.298212084056702785e-04,-8.302421207511648249e-02,5.076888531250286357e-02,7.451384067535400391e-01
8.067392774334403160e-02,-5.921294341519818261e-01,6.632227419231362386e-02,-1.688785697127692968e-03,4.541540065877717504e-03,-4.645036272853107252e-04,6.657969355583190918e-01
1.369302249094177526e-01,-6.835132777547796579e-01,3.532765282580035970e-03,-4.291171971487541328e-03,-3.284141557820431656e-02,9.858651331550234709e-03,7.648920416831970215e-01
9.679815146240988710e-02,-6.000047687880269986e-01,2.244436970538374321e-02,-6.892984024942010700e-03,4.478647476946820243e-03,-1.048329072312587269e-02,6.631630659103393555e-01
1.110234535995119898e-01,-2.494812585598301102e-01,1.296068936198013777e-02,4.894553803546622395e-02,-7.559922820308190468e-03,9.196713765389409601e-02,3.700813055038452148e-01
1.196860342362154883e-01,-6.347144051914909157e-01,-3.606184622734348588e-03,-1.571237657590482048e-02,-1.648307351705183624e-02,1.244842802902307831e-02,7.023744583129882812e-01
8.516618882839846472e-02,-5.639585418912516079e-01,6.288476469192624818e-02,1.445989276700816078e-03,-1.369185407627762467e-02,3.255920613620164159e-04,6.387213468551635742e-01
6.382818676287627113e-02,-5.740291662466034950e-01,8.142389571994421149e-02,-9.185774544237914133e-04,5.516814752738163560e-03,1.404265756134207791e-03,6.469118595123291016e-01
1.277162793405131058e-01,-6.674459123690250628e-01,1.803593727832136784e-02,-2.356427019741048120e-03,-2.025544250932956054e-03,3.975372376527849805e-02,7.495792508125305176e-01
7.883867722721338289e-02,-5.826080367550574568e-01,7.122769032018283486e-02,-1.207054314719154973e-03,-3.222115071933951205e-03,1.552957289233908409e-04,6.577013134956359863e-01
4.777294942821294632e-02,-5.890345104793507369e-01,7.264822388470260073e-02,9.046475532419774937e-03,-3.256995686293806883e-03,-7.285790949847277976e-04,6.498170495033264160e-01
7.025809464265048154e-02,-5.706167720853847491e-01,6.700343088622293108e-02,-2.012735483110067013e-03,7.760850240258888866e-03,1.734580667331218386e-03,6.394116282463073730e-01
3.832896888174736061e-02,-5.861556518863744181e-01,6.716189973977435002e-02,-5.603031859602950089e-03,-4.719731721782514412e-03,-4.725966534694354612e-03,6.395671367645263672e-01
7.010926153451074727e-02,-5.837128420112125404e-01,6.844555721201339704e-02,5.917880808494693431e-03,2.956497939794154595e-03,-1.311016846100865069e-03,6.530963182449340820e-01
1.099671947780825887e-01,-4.430764434991583123e-01,-4.053197611897026154e-02,-7.414046388127241982e-02,2.182948365530014423e-02,-9.998781142011770040e-02,5.414677858352661133e-01
4.863511237523795994e-02,-5.431931547529271764e-01,8.949249381025342620e-02,-3.516151878959188765e-04,-4.380058846665931850e-03,-6.177504293835238804e-04,6.133267283439636230e-01
7.784066542460935101e-02,-5.957936937701332480e-01,7.643053809808636467e-02,-7.432286783096896110e-03,-7.286610034673514282e-04,2.613997530027969930e-04,6.730548739433288574e-01
7.886862933833163614e-02,-5.474072871612534197e-01,5.225679786577266950e-02,2.748840662883367779e-04,-1.250563182025219051e-02,-6.738863198158559324e-04,6.137866973876953125e-01
8.712174270377420759e-02,-5.612868577651120017e-01,5.234122396298065971e-02,-1.296066969561907728e-02,3.670633850700500897e-03,3.827539844952749615e-04,6.321678757667541504e-01
6.648727132643209026e-02,-5.904639982457684511e-01,8.243652091220746159e-02,-4.620069315285500050e-03,4.356291154541097783e-03,-2.401777236296119902e-02,6.664598584175109863e-01
8.716324109777098816e-02,-5.255039003781716289e-01,4.787006251364694931e-02,-6.854101939811270416e-02,1.585222605031672005e-02,-2.504487849805413224e-02,6.079149246215820312e-01
6.260269089659620256e-02,-5.779267602140122362e-01,8.439982588913214068e-02,1.838492437595759489e-03,2.557524580771524444e-03,8.399272755355706747e-04,6.517259478569030762e-01
8.352745957764529106e-02,-5.763553464424013839e-01,6.428488349980304717e-02,5.246784985474305454e-03,-1.730394966598088361e-03,-9.986597182943843069e-04,6.505476832389831543e-01
4.984243012974495790e-02,-5.607051120612145390e-01,8.986146385507992607e-02,-4.405882388664195300e-03,7.335984769998452407e-04,-1.327453786154423297e-02,6.319745779037475586e-01
3.526020539359739359e-02,-5.293770524296554925e-01,8.991526596632132273e-02,-1.016122927447141817e-03,-3.128805229748702395e-03,2.013061042990019981e-04,5.938815474510192871e-01
2.977577654172980370e-02,-4.457017106848923382e-01,4.620959396415036391e-02,-2.336824206387601646e-02,1.163656560919533629e-02,-3.532493003440200646e-02,4.898477494716644287e-01
4.457313335692969503e-02,-4.964580004023163018e-01,5.030434924106313987e-02,-1.787073277751326629e-03,2.550546498434938178e-03,-5.320074054737898572e-02,5.516958832740783691e-01
6.861618597247567952e-02,-5.808403344634494037e-01,6.072053687688716561e-02,-2.272087983608005754e-04,-1.915605477393451071e-03,2.481278012034652744e-03,6.455678343772888184e-01
4.096930489070207959e-02,-5.299425219864922765e-01,9.161325855615254365e-02,-1.107547162458799193e-03,2.361448391989273005e-03,1.567602971416631459e-04,5.978618860244750977e-01
8.398464515837392175e-02,-5.672566344530148852e-01,6.233262917669735170e-02,1.697865074601134523e-03,-7.511732423315418440e-03,2.400334283654732847e-04,6.408287286758422852e-01
5.396465333076314042e-02,-5.934861565971321085e-01,7.172645073864708509e-02,4.890494818528309806e-03,-2.490759633200252156e-03,6.324457509595509362e-03,6.566721200942993164e-01
6.315848445588614912e-02,-5.635610675256386148e-01,7.828100496999071400e-02,9.090752540379176206e-04,-1.244052163175092020e-02,-1.674052018790953911e-03,6.347904205322265625e-01
6.460111613279900800e-02,-5.885130408398735469e-01,8.558413116797305986e-02,-3.075903422059481605e-03,1.155931315491675769e-03,-7.568867505284349040e-03,6.640082597732543945e-01
7.170665323591307594e-02,-5.850352759259165314e-01,5.263217896756597347e-02,-2.537003081901652909e-03,1.070894266563298313e-03,-6.813759322923103150e-03,6.475405693054199219e-01
6.042949092335067607e-02,-5.000227809400733525e-01,4.821981855262039152e-02,5.575434708400075785e-04,-1.437630258901866943e-02,-1.092201520289787274e-03,5.550112128257751465e-01
4.723394619976184483e-02,-5.482497213500827637e-01,9.030349210110505398e-02,1.602497720319923753e-04,6.558272917858474528e-03,-2.566574628829302067e-04,6.182493567466735840e-01
8.315818134444835641e-02,-6.082991234981364181e-01,7.774343556696902691e-02,3.270744703556383720e-02,6.484471214678311050e-03,-7.590877752307030601e-02,7.035768628120422363e-01
6.838706502982394575e-02,-5.703967610772004981e-01,8.295637001064684601e-02,-1.643816032367537453e-04,1.396939585217549414e-02,1.343747103550522711e-03,6.466487646102905273e-01
1.703716442205299719e-02,-4.008426326986360144e-01,4.186096793307456099e-02,-1.983373234294750348e-03,1.612975615679078682e-03,-5.265363756587577646e-04,4.308521151542663574e-01
6.649010620078632527e-02,-5.838564249228572756e-01,6.774519047667729166e-02,4.895580297277723342e-03,3.955666449650891217e-03,2.446486105629502210e-04,6.510663628578186035e-01
4.325240365085639138e-02,-5.482619939373830631e-01,9.427514248974427913e-02,-1.339685295429906631e-03,6.540801097921497900e-03,1.237905152844490618e-03,6.187177300453186035e-01
4.337639984490040956e-02,-5.885095617342769314e-01,5.992400733333555496e-02,-1.295057282680528248e-04,-1.663922394000365637e-02,-1.350328114459306431e-03,6.409726738929748535e-01
6.286653127551244946e-02,-5.827837233532009442e-01,6.068446494698570559e-02,-1.370446734142466427e-03,-5.853954191465659054e-03,1.718766227436162395e-03,6.446529626846313477e-01
6.678517241423120865e-02,-5.838529685381281809e-01,6.447591273071448525e-02,-4.054857726425541500e-03,-3.521892226051450634e-05,-4.591302011612896964e-04,6.495250463485717773e-01
5.140705608413467798e-02,-5.809019122087810683e-01,5.550532854268561134e-02,1.397143006630245828e-03,-6.904180480903986984e-03,-2.306343168677226028e-03,6.344979405403137207e-01
5.588676127726396881e-02,-5.855806307026039104e-01,6.633127724535042846e-02,4.676800802473176505e-03,-7.070346753702921178e-03,4.417064504826501137e-05,6.469195485115051270e-01
7.778176252634219634e-02,-5.885203456406000733e-01,7.487637601046207014e-02,8.547764842170174106e-04,-1.979205248328217738e-03,-1.543936884938899162e-03,6.648700237274169922e-01
1.892069312567681294e-01,-8.163799153731321478e-01,-8.166211944877821427e-03,2.841352603260833068e-02,-8.685188682641441227e-02,1.900539922676718896e-01,9.925212860107421875e-01
3.028910695309891543e-02,-5.940932106307339478e-01,8.839322375507424612e-02,2.223298416995251464e-02,-9.697981023155940322e-03,4.602208887804449741e-03,6.567626595497131348e-01
7.687031327392385149e-02,-5.684474133499521908e-01,6.675542198870984545e-02,-7.924460376202178491e-04,8.456538441069392370e-03,-1.120234596991042872e-03,6.404921412467956543e-01
6.067933765860103468e-02,-4.716241421059927941e-01,4.241705869134637652e-02,-1.288944550559022462e-01,-8.425565884260386579e-03,-3.038975003175074449e-02,5.716505646705627441e-01
3.154990621577218046e-02,-3.155862386275637421e-01,2.097231796181381336e-02,-4.278955545524382176e-02,1.196621793638449893e-02,5.413278589418631407e-04,3.505236208438873291e-01
4.283267914651020525e-02,-4.134647216017222626e-01,3.658467679851115650e-02,-7.955951252605693302e-02,-9.201250094473697322e-03,3.984605849616513346e-02,4.789589345455169678e-01
-2.086507831383477285e-03,-2.160790556044567823e-01,8.168859861364410890e-03,-8.410783310394628898e-02,2.824346386040959764e-03,7.975899250720804023e-02,2.973606586456298828e-01
-9.014037378176353865e-04,-2.301310361520075287e-01,-4.939679694680121358e-03,-6.931968850671024751e-02,-8.188976483039019094e-03,1.917745880513357232e-02,2.595322728157043457e-01
7.745963298313646161e-03,-3.034386470110710943e-01,7.556852199101571355e-03,-2.849040252784345792e-02,-1.155414472392638815e-02,2.168754174049407693e-02,3.178422451019287109e-01
8.459689635278985764e-02,-5.912816852638274057e-01,3.912472491579183087e-02,-5.471665756139844870e-03,3.347487044563400831e-03,-4.084427409266103148e-02,6.582356095314025879e-01
5.725383662072489055e-02,-5.776348787971310461e-01,9.200783336281051494e-02,-1.215847640713476485e-04,-1.359452315864811880e-03,-2.646614027048279673e-03,6.529801487922668457e-01
-2.187101237917781632e-02,-2.541025141707916601e-01,8.958669161074980791e-02,-2.037018154872310138e-01,2.107593513618901890e-02,-5.253202747854487237e-02,4.757446646690368652e-01
7.616185118294679923e-02,-5.883525637926712015e-01,7.460206980457698145e-02,-6.309167257278035104e-04,1.019634525435233899e-03,9.911910865927453344e-04,6.637413501739501953e-01
-1.986831394259558348e-02,-6.979762431086935504e-01,1.365863145298769621e-01,-3.237541317769234133e-03,2.930980442188524035e-02,3.560300688358716825e-02,7.725366950035095215e-01
-5.144340023373786264e-02,-6.170223573456730115e-01,1.352531140701123680e-01,1.626519865138674123e-02,6.636372130726924268e-04,-2.147058489495982242e-03,6.790696382522583008e-01
9.981438203107928508e-02,-5.717798919957131076e-01,2.804831100254523424e-02,5.024605915293561126e-02,-7.837375880936156211e-03,4.074078371070440768e-02,6.486364603042602539e-01
-3.988247665644184536e-02,-6.175428352991989556e-01,1.510578352775480693e-01,8.554379015888987151e-03,2.224030733999304496e-02,-1.002877865751669942e-02,6.945887207984924316e-01
-2.886526662702809665e-02,-6.144042555544508843e-01,1.197290633914412372e-01,1.158192650843424022e-02,1.852126368815271151e-02,-8.882515053859074000e-03,6.735073924064636230e-01
9.896308215236171435e-02,-6.516090133640615178e-01,7.853784023508350587e-02,3.615661131707487153e-02,2.658029180917152387e-02,-7.045447001330602810e-02,7.545713782310485840e-01
1.010858079764284101e-01,-6.157796313129930699e-01,5.170301912131550215e-02,-1.010577513410579591e-03,-4.733766719845608397e-04,-2.685203753078117123e-02,6.950544714927673340e-01
1.238059206656786926e-01,-5.930496558560203191e-01,-2.418264955081619871e-02,-9.972838581795345769e-03,4.421299785053543763e-02,-1.029465145128641013e-01,6.838514208793640137e-01
1.421129265417893639e-01,-6.796050723194616561e-01,2.537628493419125109e-03,-1.948495151740211803e-02,7.048661270018169445e-02,1.546187826891546463e-02,7.725098729133605957e-01
1.023309709604818818e-01,-6.385381019376223932e-01,1.596082057981068614e-02,5.430893917298673657e-03,5.939075300206488051e-02,-9.127558669753101095e-03,7.094209194183349609e-01
7.997644385099431097e-02,-5.717788049622311020e-01,6.678523758093629636e-02,6.282566277931247740e-04,-1.064577576866689891e-02,-1.837635765145372415e-03,6.455329656600952148e-01
7.683808322898674770e-02,-5.717542892963263235e-01,6.961599528177569995e-02,6.283096108516814842e-04,-1.087433863453324788e-02,-1.837791132394658248e-03,6.452953815460205078e-01
5.986365942311619448e-02,-5.353923473227995000e-01,7.150242410281665295e-02,8.358979048355343489e-04,-1.362355857223019988e-02,-2.274533174136279205e-03,6.016374826431274414e-01
7.636358960499078918e-02,-5.909628995786737615e-01,6.749582249266594669e-02,2.085874435675491925e-03,3.197158938683805022e-03,2.467805814261967313e-03,6.629838347434997559e-01
-1.161764042525903484e-02,-4.172415990825690812e-01,8.129608117513328902e-02,1.760730469253734831e-01,-4.713339857326177135e-02,8.344018523049846758e-02,5.756807923316955566e-01
1.320756688452444094e-01,-3.921746047512967293e-01,-8.070406377401168063e-03,-2.690364674404437453e-02,4.781707980046692730e-03,1.371515028407154779e-01,5.288470983505249023e-01
5.139631207607658903e-02,-6.411252159569917897e-01,4.708233087490679147e-02,-2.320406105955426235e-02,-7.501714331579019401e-02,-1.909463699528116012e-04,7.036442756652832031e-01
3.831182951335268538e-02,-4.884357032699406798e-01,7.035723819349148922e-02,-6.374989943486842432e-04,-8.566275539481221779e-03,-7.341299235617070691e-04,5.436843633651733398e-01
3.009440514621242180e-02,-4.702208211417203687e-01,6.845373931083889585e-02,-5.413998080275179677e-04,5.900354872991036680e-04,2.322223323215811316e-03,5.205733776092529297e-01
1.876730936364157110e-02,-3.148410971259646418e-01,1.001486948621080897e-01,-1.578792144089421479e-01,6.207647850996868971e-02,5.722263111972342858e-02,4.911499917507171631e-01
4.344486815821155257e-02,-5.652703533289596960e-01,9.963887239878288504e-02,8.032133851204784070e-02,2.946972986485802293e-03,-2.906090581552507601e-02,6.556007266044616699e-01
-3.965566068477477391e-03,-3.588328294797362150e-01,4.513764237232756327e-02,1.027134555354663609e-01,-5.118331528318783435e-02,2.354031662001079134e-02,4.323642253875732422e-01
8.316403325545387859e-02,-5.922577026239170817e-01,6.556674248701049867e-02,-1.354960745380289714e-03,2.056767120555282047e-03,-1.043300576121314327e-03,6.668133735656738281e-01
-1.942364973758230196e-02,-3.944536078175597815e-01,7.699588461893930313e-02,1.621143353022387323e-01,-4.021451137557687655e-02,6.497958564792866154e-02,5.314755439758300781e-01
8.671526257371220403e-03,-2.333877284095245974e-01,1.247248023884622858e-03,-5.376307698191466755e-03,-5.271226022234069136e-03,-1.082562992436076899e-01,3.036099970340728760e-01
3.758535552450173456e-02,-4.801525177324640903e-01,6.791480689124451686e-02,-3.403188597306373929e-05,1.195234296660307484e-02,-1.141636463720861966e-03,5.339546799659729004e-01
3.846776505689028514e-02,-4.027403394660432068e-01,2.632200343324930802e-02,1.629434708174578358e-03,-1.123545629933375180e-02,1.437196914863095884e-04,4.357063770294189453e-01
2.577389538955698889e-02,-4.011102247384140118e-01,3.607742551296996836e-02,-2.772046715315680076e-05,-1.228221625729839298e-02,1.764504077448763621e-03,4.326621294021606445e-01
-6.633235194546685531e-03,-2.566833287062922908e-01,9.437039296152915924e-03,-1.068186904428975251e-02,3.584867304328984150e-03,-2.550921946109750704e-03,2.592335939407348633e-01
5.623899334445764397e-03,-2.927878614091654064e-01,7.727338680439663210e-03,-3.981680048594792021e-02,-2.217780621115731689e-03,3.576041019781104561e-03,3.073937892913818359e-01
1.833021949619320634e-02,-3.977821649762196543e-01,2.474789484351294644e-02,3.685060358219036016e-05,-4.048026543382506233e-03,-4.867992326271191467e-02,4.278078377246856689e-01
6.009337457956259732e-02,-4.673306488709503825e-01,3.655087276031737664e-02,-2.914833101133385874e-03,-2.659572081861675229e-03,1.705531872934896824e-03,5.161094069480895996e-01
5.938654301214901787e-02,-5.751103467655647172e-01,8.923331497859698924e-02,-1.235565100051108775e-03,-2.097421882709118394e-03,-9.685417299721927817e-04,6.499503254890441895e-01
4.120415892780812661e-02,-4.803995922570065136e-01,6.724522692203246943e-02,3.514466639257593093e-04,1.748584801047141368e-02,-1.429010728371558144e-04,5.359565615653991699e-01
-2.870519508099106387e-03,-2.975025614090911485e-01,-4.397349876410910907e-04,1.726627837139168078e-02,4.615676303929341744e-03,2.018312911784848201e-02,2.995170950889587402e-01
2.235056788284636720e-02,-5.982768460003226041e-01,8.971332241683277475e-02,4.387197633055952076e-03,9.183655835407375859e-03,9.112441226075446328e-04,6.571426987648010254e-01
5.977742929894488966e-02,-5.808011712388270187e-01,9.191590855083034417e-02,-1.864227264061532824e-03,-2.838906125808727133e-03,-3.271773159555119073e-03,6.572881937026977539e-01
-1.133144433293318404e-02,-1.479947069383109881e-01,-6.600986476128084535e-03,6.800163606901347968e-02,-8.950057333592798328e-03,1.886960894533304400e-02,1.858140677213668823e-01
-4.355372911898947041e-02,-5.460374316426872682e-02,1.826484485531049140e-04,-6.292219717134232837e-02,1.073488106262581593e-02,-3.093885327792011974e-02,1.327148079872131348e-01
6.714021620326063311e-02,-5.423246445519043224e-01,6.634500163733189626e-02,-2.325583714226570672e-03,1.464409975437257552e-02,-1.568146901617291106e-03,6.096149086952209473e-01
-4.707357786279911527e-03,-1.871363112398296003e-01,-5.268030244129563722e-03,-9.308029397641570668e-02,-3.307160311174145873e-03,-2.418090534892840867e-03,2.433526962995529175e-01
4.558346727527928799e-02,-4.644263410868915698e-01,3.054459418761568124e-02,-4.833634727476143755e-02,-1.861269363536212015e-03,-2.117221719625935958e-03,5.096069574356079102e-01
3.903095156739616600e-02,-4.064450998137871252e-01,2.344540587806689946e-02,2.041957306031876983e-03,1.347140967650939554e-02,4.443204948331817557e-04,4.385274946689605713e-01
-1.922034756456348498e-02,-1.812669497237429372e-01,-4.594978357829029858e-03,-5.754886142391071012e-03,2.331956865281681855e-03,-1.680952800326153060e-02,1.726451367139816284e-01
8.943909241924821729e-02,-5.486736094774640193e-01,5.109288354077867744e-02,1.221082068600103532e-03,1.261854881642912075e-02,-4.306116326205956259e-04,6.202191114425659180e-01
-2.438687348112852926e-03,-4.597234814828827787e-01,1.169955995121380043e-01,1.531341943578060638e-01,-6.739874471962223335e-02,7.775273015494631179e-02,6.165256500244140625e-01
4.267563145420272264e-02,-4.526583324107643080e-01,4.272619014075046406e-02,4.887383898968585688e-04,1.834751747977379430e-02,2.634258843234882634e-04,4.963784813880920410e-01
-1.726420644729895898e-02,-1.773218130926047520e-01,-1.389339036876068717e-02,-7.973937310206112919e-03,4.759922532771361948e-04,-1.226209819280524305e-02,1.637431979179382324e-01
-7.994005526060277145e-03,-2.568209350263195301e-01,-6.788445680155200113e-03,-9.500072302079711969e-03,-2.854898058034740127e-04,2.983063268530741254e-03,2.500279247760772705e-01
-4.702184067726641881e-03,-3.117525373513305720e-01,1.945777059421947841e-02,1.656156231237405083e-03,-4.468415417235371140e-03,2.114724630588794146e-02,3.220119476318359375e-01
1.130571748894029782e-02,-3.225472402123824023e-01,7.632429606242621678e-03,-3.558979978760141993e-02,-1.265639357637888575e-02,1.333573689733721056e-02,3.392033874988555908e-01
9.532630956789811538e-02,-5.527597029565375353e-01,4.374305396557884307e-02,-2.492997373101433589e-04,-1.556033552599989274e-03,3.814411585921516546e-05,6.239017248153686523e-01
1.029116386867615085e-02,-3.440587932114179681e-01,2.106433537429766578e-02,-1.768465807320497227e-02,-6.585481907993275853e-03,3.238068059301368873e-02,3.656655550003051758e-01
5.760500541764010385e-02,-5.861106310111924289e-01,7.037177188099652536e-02,1.475291626280654696e-02,-2.545550597307570748e-03,-1.275173701907101774e-04,6.507099270820617676e-01
8.467075411760530135e-02,-5.681598983641703571e-01,6.081520453043115504e-02,5.748911179399301833e-04,3.826420254123137545e-03,1.928907557590643900e-03,6.412795186042785645e-01
5.602197528229818646e-02,-5.880514152304896491e-01,6.882138753212263538e-02,1.524691823064689561e-02,-6.587746015932635646e-03,-1.499486248063486380e-03,6.512084603309631348e-01
2.801554797964628252e-02,-5.858530799947869738e-01,7.242395304705440129e-02,-9.129347001396462269e-03,-1.188769614120183289e-02,-3.588866881970303666e-03,6.377933621406555176e-01
5.542173855716761577e-02,-5.884593461723823804e-01,7.144825958553599476e-02,-6.595545872275724274e-03,2.235767493600809760e-06,-8.889353814357887559e-04,6.521439552307128906e-01
1.158009802558678247e-01,-5.983988778717106438e-01,-2.073322102856814397e-02,-1.237874270297732900e-04,4.123669011189678470e-03,-1.745155425737141344e-02,6.574001908302307129e-01
1.128163600142422229e-01,-6.180684817997087466e-01,-1.221300692577401148e-02,9.701454775903969744e-04,-5.329026168323145081e-03,9.407510512427354893e-03,6.773451566696166992e-01
8.458746161027891342e-02,-5.759712785428441340e-01,6.240035157825157830e-02,7.628949951237273298e-03,2.359441003164401349e-03,1.095347139190836145e-03,6.498993039131164551e-01
8.083948190434317449e-02,-5.872557699081892846e-01,6.286848316932425185e-02,-1.067833196234196404e-02,-3.245451969238234268e-03,-4.236216031565884568e-03,6.596176028251647949e-01
8.278940182481037136e-02,-5.911343084008671145e-01,6.440011744819509887e-02,-1.043341238540720743e-02,-3.234827436343669111e-03,-4.650361919331511516e-03,6.652377247810363770e-01
2.181560791344160921e-01,-1.001648603548241701e+00,1.281427997753176173e-02,-1.061218608656395862e-01,-8.157738439086924254e-02,6.747088462613137771e-02,1.160611510276794434e+00
1.252831329155313367e-01,-6.592862270226480526e-01,1.210205053916590945e-02,-1.012301327703252207e-02,2.363355368016722621e-02,1.324061415960515672e-02,7.362537980079650879e-01
6.195539670570063273e-02,-4.606963322933851912e-01,3.167711295606834287e-02,1.817784263846295529e-03,9.108506508812994062e-03,2.678726942209807768e-03,5.084652900695800781e-01
8.510661182725268170e-02,-5.466104374817519762e-01,4.434660459211656192e-02,9.195801717934125319e-04,-7.850281868230992929e-03,-4.166040287911285502e-04,6.125087141990661621e-01
9.024220161359070014e-02,-5.789611705001052044e-01,5.730865052258632408e-02,-4.035743524841694033e-03,1.734535308330425801e-03,-2.105172751087005731e-03,6.534138917922973633e-01
1.393144604223845451e-01,-6.561778389373766895e-01,-5.027636415217251464e-03,-1.159346174471308569e-02,-1.597200505869075457e-02,2.020464372912327347e-02,7.356716990470886230e-01
1.849883416106812284e-02,-3.267478024659787317e-01,3.178449645950251479e-03,-1.149991030000933109e-03,-7.804807861875098611e-03,3.073065047925929542e-03,3.381651639938354492e-01
9.826876742886997418e-02,-6.441062949381948233e-01,2.678494349203724978e-03,-5.381884613285008688e-03,-5.568806723014727011e-02,-3.729205098034137772e-02,7.091240286827087402e-01
1.051429951277016439e-01,-6.014465696736598366e-01,-2.737838791341162814e-02,4.085210025879137084e-03,-3.946319342004039887e-02,-7.699083923423308967e-03,6.542877554893493652e-01
7.029895865710736325e-02,-5.850049279419724524e-01,7.373539246909924239e-02,-1.749398531634420816e-05,2.192946793729352514e-03,7.524190821443806250e-03,6.571690440177917480e-01
6.156971633884558703e-02,-4.599139376074377616e-01,2.279852027949860749e-02,1.390710039054960517e-03,2.421995133066131168e-03,7.818744932086590287e-04,5.032445788383483887e-01
-6.510642200584088046e-03,-6.289315973071052390e-01,1.282755732831140083e-01,-3.658841556478094337e-02,2.769669478854829003e-02,-4.152155026344673226e-03,7.041577100753784180e-01
4.762281212713215250e-02,-5.949306627658892399e-01,7.642005825441328115e-02,-5.210013411458014679e-03,-1.494170266241211980e-03,3.823140832076735249e-03,6.575256586074829102e-01
-3.669641817062338496e-02,-6.640705717396788721e-01,1.423808244593226524e-01,7.633870415262498932e-03,3.353333882469013844e-02,-1.187864026742194157e-02,7.361976504325866699e-01
1.859019304370782000e-02,-3.742584713502452587e-01,3.500965126107982717e-02,3.328780705558484834e-04,1.367592382437075350e-02,2.358930602050443321e-03,4.020300507545471191e-01
7.072433612833894934e-02,-5.851019254582063844e-01,7.444662714617494848e-02,9.914330290384396061e-03,-2.495700118319272350e-03,-7.108711447561133316e-03,6.580488681793212891e-01
3.075953545023960012e-02,-6.173170379674624009e-01,1.073311251834330182e-01,1.035418312045154922e-02,8.011496108050417467e-03,-5.656903556005406231e-03,6.900006532669067383e-01
4.089186913050144034e-02,-6.479286616053534509e-01,1.114681182204448340e-01,-4.371887995191384158e-02,-1.796726961721411067e-02,2.431676543963634529e-02,7.324926853179931641e-01
6.068253179503338424e-02,-5.429624849274402587e-01,7.374831688143795860e-02,1.811735540583744083e-03,1.231122112468891090e-02,3.853903062360558227e-03,6.106997728347778320e-01
1.202115975430634309e-02,-3.268244109578265499e-01,1.049893159319482960e-02,1.683178825144301212e-03,-7.214094252505362861e-03,-2.819680202153668777e-04,3.383307754993438721e-01
-9.639412880835640518e-03,-2.724737845970661709e-01,-2.607638849558280292e-06,1.001218668300095285e-03,-1.727618362570857878e-03,3.923725361317582060e-03,2.678914070129394531e-01
4.735031635856035148e-03,-3.995286779666067933e-01,3.969453895614985517e-02,2.518628829373966392e-03,-8.615671950104906301e-03,1.006141396377225857e-03,4.231181144714355469e-01
6.175887994587711538e-02,-5.996985999011521518e-01,7.794053258650043836e-02,-1.560149738634659770e-02,2.558978300851313861e-03,5.639350646437407731e-04,6.702553033828735352e-01
3.058680685180531489e-02,-4.131419581756582970e-01,3.661056269436949173e-02,2.682468803229108231e-02,-1.194550412262080155e-02,-2.499112943210568191e-02,4.517353773117065430e-01
3.333843697934646411e-02,-5.996804929603991585e-01,8.450681107674604120e-02,5.921351521953005168e-03,4.221047409693070608e-03,-2.738730460116285768e-03,6.602293848991394043e-01
-7.398810174046935306e-03,-2.548585592426267366e-01,-8.243122248095202664e-03,2.617094603145254592e-03,1.670345778822868990e-03,5.546820238713076265e-03,2.472839057445526123e-01
4.232895799345631760e-02,-4.058007866352049686e-01,1.299000814475748111e-02,2.401712784515049569e-03,8.413883022267195505e-03,-1.922375498729594770e-03,4.344814717769622803e-01
6.263005128960585921e-02,-6.496923033581916140e-01,1.031847587427618951e-01,-4.414924667774317718e-02,2.095194530034703850e-02,1.573512270061263110e-02,7.388119101524353027e-01
9.268395177731389434e-02,-5.524794846320932873e-01,4.735029262795481531e-02,8.863910450905114480e-03,5.201688576259156163e-03,3.277448427336712971e-03,6.240131855010986328e-01
4.128549818373333791e-02,-4.526502335028965707e-01,4.402214330122547481e-02,1.761069824995434849e-04,1.828006733302814726e-02,5.460013396823791814e-04,4.963216483592987061e-01
6.656179245370796860e-02,-5.831264294372611179e-01,5.792122259756191105e-02,-3.639925951490591630e-03,-1.737109639848545377e-03,-3.057995329210657417e-03,6.454708576202392578e-01
-4.703926146322548463e-03,-2.898285469457136942e-01,-2.147817385098033105e-03,2.248922766167594633e-03,-1.453217232890492835e-03,1.133806421432553791e-03,2.864555120468139648e-01
8.870119714617996642e-02,-5.780068293305375970e-01,6.283719472763840685e-02,1.918841488215987379e-02,1.751998056745262622e-03,3.336685145785887093e-03,6.550358533859252930e-01
9.102202885006757671e-02,-5.642273154094872289e-01,5.556350243554117330e-02,2.491789338883010959e-03,8.940200969584284965e-03,-1.482037827881401955e-03,6.384667754173278809e-01
8.768189952511526442e-02,-5.672108601263744498e-01,5.429259524764709632e-02,1.947218213215071159e-02,3.477423199667429177e-03,-1.919718349211118301e-03,6.397795081138610840e-01
3.933928347846377127e-02,-3.848189954209234598e-01,1.141705086877804753e-02,5.955658746279994141e-04,7.280362481206719783e-05,-4.775034918790132133e-04,4.109114408493041992e-01
5.515593380532055057e-02,-4.777767875358580607e-01,5.513250923858062369e-02,8.198145077331360497e-02,8.459932115952015219e-03,2.076811155472192694e-02,5.528800487518310547e-01
8.718546573151353396e-02,-5.348871407362378871e-01,4.449612240785710826e-02,1.974808479275410103e-02,1.097832803445060977e-02,-1.204461804818354525e-03,6.031390428543090820e-01
7.040953911410063881e-02,-4.861761644451979558e-01,3.690274285349232075e-02,-1.194970760238292084e-03,1.133488534357625713e-02,-1.001399666936341479e-03,5.409747362136840820e-01
9.358246334393946486e-02,-5.551621922585081581e-01,4.782905372925128074e-02,2.315877023159947524e-03,2.898048635931502301e-04,-9.821810683245362893e-04,6.271362900733947754e-01
9.575734972948923840e-02,-5.596339413391064888e-01,4.939730928943125710e-02,-5.253942380700764476e-04,-1.896246574891981545e-03,2.320094970880927279e-04,6.334941387176513672e-01
9.329892979671125519e-02,-5.561468283219361819e-01,4.967008604574102426e-02,2.954456434612816491e-03,-4.730673399403236413e-04,-1.146961328498812297e-03,6.287921071052551270e-01
9.781387351438269873e-03,-6.028909248752991612e-01,9.605920385165389597e-02,8.614676202750163811e-03,1.087642852400883334e-02,-4.999938025936488846e-03,6.605480909347534180e-01
7.763395206259260384e-02,-4.999285637663974935e-01,3.871343498787005455e-02,1.982229181385442712e-02,-9.657186930081645276e-03,-5.953846453600555606e-04,5.604228973388671875e-01
-2.481706395163035817e-02,-6.149270008238092444e-01,1.264986230027151937e-01,3.509483664191144232e-03,-5.944519583015105482e-03,-3.030783967480731814e-03,6.786674857139587402e-01
2.313032211300475316e-02,-6.081275110416101137e-01,1.004276829353694112e-01,-5.599373200718949645e-03,6.726250539287523950e-03,-1.017503595524330874e-02,6.736440062522888184e-01
-1.264691175463303341e-02,-6.100519960077508408e-01,1.214365686313073067e-01,8.549797012443268243e-03,1.049094837261375229e-02,-1.096377623380358386e-02,6.751914024353027344e-01
7.787543686057935011e-02,-5.312608561599965196e-01,4.808922865373491118e-02,-9.869055201437527958e-03,-3.429757647383585833e-03,-8.345898667275978428e-04,5.950797796249389648e-01
-1.252023507403154934e-02,-3.874559261727684167e-01,1.574268117484005913e-01,1.208075406019709641e-01,5.359604694681801423e-02,-4.082670840771639859e-02,5.390542149543762207e-01
-2.349208612979822308e-02,-6.451989050991122632e-01,1.282770646256090052e-01,2.564981023758480805e-02,2.830165808001753810e-02,-1.757250805385577805e-02,7.135910987854003906e-01
9.633967110945801382e-03,-5.868055590035334834e-01,6.869414063901260747e-02,-4.159988778256514669e-03,-1.760157474594299665e-02,-2.368903736895034903e-03,6.288499236106872559e-01
8.300130900964478031e-02,-5.479562100065147323e-01,5.099635529586418747e-02,9.357354592767119696e-04,5.846813861611495876e-03,1.389931501309548626e-03,6.156694889068603516e-01
7.514471298677469213e-02,-5.987131898828725873e-01,7.553945472551315543e-02,6.241022585581121719e-04,8.533665645917218323e-03,5.035623580310426804e-04,6.742188334465026855e-01
-3.003822428635471997e-02,-5.973153413055349858e-01,1.490597915124615702e-01,-1.296637319081982431e-01,2.239868763298151835e-02,-5.161897830737362941e-02,7.179236412048339844e-01
-1.633095424234271009e-02,-6.052413876905347045e-01,1.160411049107559212e-01,-1.591296951282134345e-02,7.168222126930661429e-03,-8.964707893467399602e-03,6.659189462661743164e-01
1.036524842889258169e-02,-6.075785023488555758e-01,9.278727991031621158e-02,-6.838033954077034696e-03,-3.213572079916118124e-02,1.258689879877851903e-03,6.654496192932128906e-01
-2.948169392939400946e-02,-6.123182028316093151e-01,1.253387401762535158e-01,-3.480933772928563458e-03,-1.543312610044841535e-02,3.486944081644032423e-04,6.742803454399108887e-01
7.262670278031840843e-02,-5.892633178332596922e-01,6.485125901043456431e-02,1.091867200128107066e-03,1.582588721503544200e-03,-7.817920059207311484e-04,6.580465435981750488e-01
-6.325152138356507359e-03,-2.723143365369626867e-01,-4.859358272951419533e-03,3.104575377804733504e-04,-2.769594981386200392e-03,5.088138577523220948e-03,2.669143080711364746e-01
7.452080778460307142e-02,-5.872222376414644174e-01,6.736238822041584751e-02,-6.171059367818579854e-03,7.924608001524243925e-04,6.439772993825865427e-04,6.582821607589721680e-01
6.954713418559055338e-02,-5.848603968936094688e-01,2.652902190130124183e-02,7.704892816370981744e-03,-9.007443298717738439e-03,-6.641466017510848406e-04,6.343273520469665527e-01
7.360038913389002624e-02,-5.911504871478381329e-01,6.107050646627915080e-02,-4.104064036898016909e-03,-2.785739478624133132e-03,8.737895772660986705e-05,6.586313843727111816e-01
1.045163203294448007e-01,-6.508614999882573748e-01,2.252892043845472481e-02,1.283215567023958045e-02,-5.762734724318867990e-02,6.514586523810753094e-02,7.338765263557434082e-01
7.107141836621794218e-02,-5.430398893377861302e-01,6.040913729611355198e-02,-1.466731261199755512e-02,3.010079462790175246e-03,-1.827019432931717771e-02,6.102233529090881348e-01
7.173494458909948635e-02,-5.933354784228146439e-01,5.888961868443462477e-02,-1.016330784339162380e-03,3.124621246582322438e-03,-6.228475773080875168e-03,6.588546037673950195e-01
8.410369174582082996e-02,-5.601782657411293886e-01,5.572170594234804319e-02,2.580444663075848015e-03,7.709633880812112941e-03,-3.748471925916736260e-03,6.307608485221862793e-01
7.020218148310347628e-02,-5.904311297651273494e-01,5.813293121078444425e-02,7.349732201374666171e-04,1.969969154752245540e-03,-4.616149240982254931e-03,6.547410488128662109e-01
6.910290716432099245e-02,-5.654258573325574577e-01,7.247644137325970348e-02,-9.361628278243236054e-03,-6.355076787834421266e-03,1.674119960869236128e-03,6.365306377410888672e-01
7.043306416324920938e-02,-5.838716871017923804e-01,7.059305647959077112e-02,-6.446126876622688441e-03,-3.709618070379970328e-04,7.612606134546510495e-04,6.544816493988037109e-01
4.958392964735389152e-02,-5.894363387478035454e-01,6.274885139553973423e-02,3.018455614271811551e-03,2.045737299806701329e-03,-2.673739431751331799e-03,6.457508802413940430e-01
1.923752446692253426e-02,-5.919817517866050594e-01,8.751905386711739121e-02,-4.322619079800594719e-03,-6.750861117803364647e-03,7.136509526247071175e-03,6.483300924301147461e-01
1.392839528974945673e-02,-3.258272756108949175e-01,-1.590509441383947120e-03,1.095303083406516393e-04,-2.551322060145297128e-03,2.076848830730827072e-03,3.323170542716979980e-01
7.229551577272985696e-02,-5.940560246988999538e-01,3.201306713103146961e-02,3.328347376106717114e-03,1.703808572200699728e-02,8.966366260697317819e-04,6.478512883186340332e-01
2.717956774736754455e-03,-3.000179765184635694e-01,4.198692792928893081e-03,-4.849777672267765647e-04,1.124320305157787414e-02,2.398245765551613225e-03,3.041326999664306641e-01
5.089097269019240977e-02,-4.437348493236807356e-01,4.239581842888481833e-02,-5.284514740279096928e-02,-1.621784370291107485e-03,-9.519879249897057749e-02,5.254513025283813477e-01
-6.909773805081928510e-02,-3.850284455418461760e-01,7.984599042858087081e-02,1.801441337212840443e-01,-2.260571190029911359e-02,4.071971902968344464e-02,5.224130749702453613e-01
3.327490578745154193e-02,-5.882739722499786827e-01,6.352907776741997803e-02,1.367655324099390076e-03,1.412721436387583650e-02,-1.363299716359390101e-03,6.376932859420776367e-01
4.637617878797933857e-02,-4.945151685371025896e-01,5.918094903001125395e-02,2.981563379424893097e-04,-1.489928814264657522e-02,-1.539183961049001839e-03,5.480207204818725586e-01
7.482608805131601981e-02,-4.859064978893284370e-01,2.901990659541359152e-02,-4.186282193788530190e-04,8.805480837870359109e-03,-2.868054053240506277e-03,5.395294427871704102e-01
6.472554589424789340e-02,-5.880741984581698834e-01,4.718390033583538812e-02,-4.859170054143512052e-03,2.699761482386261319e-02,-5.707394413047258037e-03,6.460334658622741699e-01
4.612625364519643001e-02,-5.838690613273587182e-01,5.645249077465147591e-02,5.303249905724208421e-04,7.014045092518352356e-03,-1.569691781225502486e-03,6.353440284729003906e-01
2.992822297222874628e-02,-5.874451743128012993e-01,6.906404578664193661e-02,1.172954163957217518e-03,8.816667102523052801e-03,-3.524003071166088158e-03,6.380575895309448242e-01
8.818772657647155899e-02,-5.329386236670059507e-01,4.281137630544629147e-02,8.186310988395034682e-03,6.015749715172801979e-03,8.108183609097959280e-03,6.001494526863098145e-01
2.729558609845167405e-02,-3.856715553003935426e-01,1.957051073804713659e-02,2.577541486691975817e-02,-1.149963413306953793e-02,1.328844035611970436e-04,4.120694398880004883e-01
4.816787822463930446e-02,-3.256058035722735333e-01,1.326541498930129681e-02,8.357382314901053155e-02,-7.915074012527240077e-02,1.214360551293637847e-01,4.602909386157989502e-01
-1.382741059020660412e-02,-3.237612209050435563e-01,2.497569690067250048e-02,1.007990549104878508e-01,-6.008685910443040817e-02,1.204369861910950246e-01,4.409295618534088135e-01
-2.231013987243395114e-02,-2.879851496363614594e-01,4.402572654221847959e-02,1.444201151424339136e-01,-1.184836970736337196e-02,7.656908731312492278e-02,4.161593019962310791e-01
1.956859013180937967e-02,-2.567208693646721995e-01,4.686929366298524247e-02,9.066265979802956565e-02,-5.101435680847821175e-02,1.003438837747276796e-01,3.837933242321014404e-01
5.519831791149545919e-02,-4.645828996076711292e-01,6.208089487279389029e-02,3.761415422532749658e-02,8.721716220064637537e-03,4.412297850745440508e-02,5.330201983451843262e-01
6.319615499098518718e-02,-5.795224329736359259e-01,8.764139946873467091e-02,7.864008888893326155e-04,3.318522159181624010e-03,2.285960447925176886e-02,6.565049290657043457e-01
5.502580531571649169e-02,-4.988349048118410067e-01,4.891863391082082457e-02,2.420813298179340725e-02,1.372626757243556542e-03,8.241789307384182750e-02,5.705772042274475098e-01
6.782429915351667615e-02,-5.841281851208550702e-01,6.781027057817329284e-02,-3.287599596043845347e-03,6.068872875062388331e-04,9.286988754141443231e-03,6.521695852279663086e-01
7.169326390503591440e-02,-5.804887732847764381e-01,5.572361904218045559e-02,-1.039359199538720515e-03,6.472008257572050291e-04,6.274965002089316320e-04,6.443500518798828125e-01
6.543197008239484691e-02,-5.750927416227423761e-01,7.555047473727205531e-02,3.120054256642818685e-03,1.448540181036700935e-03,1.835692289552347473e-03,6.456787586212158203e-01
9.314324958214936778e-02,-5.578574034626081479e-01,5.081790553739054528e-02,-1.762834279153887847e-04,3.954844472524744921e-03,1.122292787994781833e-03,6.309439539909362793e-01
6.975399598611367602e-02,-5.839577511401363719e-01,5.637494602801057519e-02,-2.997474855243364381e-03,-7.576291434701334579e-04,-1.946175994543711566e-03,6.471568942070007324e-01
1.051296563514422799e-01,-6.210840100330741187e-01,1.737167181910928559e-02,-7.987516594547293403e-03,2.106215091994692243e-02,-3.256496563333731442e-02,6.899712681770324707e-01
1.047589747352328238e-01,-6.073776292650803210e-01,1.947528964693892584e-02,-2.480945923609377264e-04,2.292891448098897857e-03,-1.436591200510539679e-02,6.740276813507080078e-01
7.761046964060236419e-02,-6.002734285575412887e-01,5.694236258382098792e-02,2.344860874946570750e-03,9.402209459397245853e-03,-3.881955474214984075e-02,6.713759899139404297e-01
1.411229826912300811e-01,-6.322085032741753263e-01,-3.696165216338506698e-02,-2.915822961098532128e-03,-5.763168299133194714e-03,-6.770455953445213282e-03,7.016409039497375488e-01
1.185817076075986187e-01,-6.252538148251958194e-01,1.291465462221141891e-03,-2.784466861434404692e-04,-5.759309645997087203e-03,-1.817792672512275401e-02,6.934657096862792969e-01
1.337771260490673297e-01,-6.555622204316069457e-01,-2.287752959404065756e-02,3.091562298555153299e-02,-1.833012783462203976e-02,1.988592670933997039e-02,7.273274660110473633e-01
8.894745725932043379e-02,-5.476076653860793009e-01,4.024800236793482644e-02,9.002007536412217834e-04,2.243841044866409090e-03,1.484189200359102264e-03,6.136760711669921875e-01
2.654257455097508434e-03,-5.918186882926550485e-01,8.288248075319754049e-02,-2.132529004076059997e-03,-3.569567933936552973e-02,-3.409900929530865904e-03,6.414040923118591309e-01
2.264080869698492648e-02,-6.795807553860042649e-01,1.089132503459955270e-01,9.297932127230594188e-03,-7.419247686786230311e-02,-8.457030177960477881e-04,7.602075338363647461e-01
8.899946620322943258e-02,-5.861752058366898055e-01,6.144152439257843934e-02,1.367596004316985791e-04,5.038225007259101648e-03,1.918118637321584736e-03,6.618920564651489258e-01
3.815478705570862772e-03,-6.010418459814600434e-01,9.490098786797707131e-02,9.894364378165768775e-03,-1.525828267096910468e-02,2.697948953547689519e-03,6.559395194053649902e-01
2.535161827995828787e-01,-9.900937304488718338e-01,-3.193178189175138737e-03,-3.967225118016322327e-02,-4.420733631224273152e-02,4.759760542990827681e-02,1.144814491271972656e+00
-7.692061557822815754e-03,-6.433522828689293149e-01,1.025311601372643766e-01,8.764892915088253258e-03,-6.864587930932715409e-02,1.249903751505946833e-02,7.078937292098999023e-01
6.905093233742290448e-02,-5.227141271122871524e-01,4.741949420756047529e-02,2.406731315230760393e-03,1.418600825723318262e-02,4.888556980246683802e-03,5.818469524383544922e-01
5.697948970500135712e-02,-5.735529251036686205e-01,8.679548994976385434e-02,-8.715690454820596228e-04,-1.971985332373442455e-03,-3.419307380812780625e-04,6.459677815437316895e-01
1.357621424410582756e-01,-3.646889331260328992e-01,1.121628236398725109e-02,-1.033750662620575994e-01,9.506353402252883111e-02,1.259658224897426682e-01,5.571413040161132812e-01
-6.342405592500294231e-03,-6.155162310775177392e-01,7.426778570979281069e-02,1.106514056323924106e-03,-6.199267969278984131e-02,2.760311424248542648e-03,6.620061993598937988e-01
-1.959911451791571113e-02,-5.976294564711543966e-01,1.122686653265929646e-01,7.771587724034774783e-03,-1.374602135010677406e-02,-8.298599099072224636e-03,6.547414660453796387e-01
5.005641623485335145e-02,-5.818532091893307001e-01,4.846247449626317483e-02,8.477156528633787258e-05,5.290895907490273352e-04,4.648560034948935929e-04,6.311153769493103027e-01
3.924093861759625490e-02,-4.515079155068717487e-01,4.178034890563575576e-02,2.092909445678401304e-03,1.765488688882755480e-02,3.761572738532075258e-03,4.930291771888732910e-01
1.013247646515188505e-01,-9.840254361018715423e-01,1.278415969916830708e-01,3.072839743859218098e-02,-1.229032780723648549e-01,2.932612506051346379e-02,1.121693611145019531e+00
-3.168731837307245391e-02,-6.014973603785238598e-01,1.218819609810061766e-01,-5.597180974597492330e-03,-1.038694996779813452e-02,-1.395114113058982391e-02,6.608887314796447754e-01
5.453996993204246468e-02,-5.905234487266748378e-01,6.025879962980501547e-02,-7.641634026232360698e-04,-4.700792028092812876e-04,4.236256795892080415e-03,6.479851603507995605e-01
8.415233217443363056e-03,-6.063593232417578971e-01,1.138641627001601986e-01,1.356936188821181340e-02,1.641333246495951803e-02,3.334399335171288770e-03,6.747506856918334961e-01
-3.658929827305448801e-02,-6.828095309230030052e-01,1.267825560225606107e-01,6.359795763817453762e-02,-7.326855070146663651e-02,4.960495158442446151e-02,7.651705741882324219e-01
5.247329635690733962e-02,-5.219732002803161297e-01,6.399991561720774769e-02,3.373016989848526877e-03,1.520650355049372841e-02,2.370316451911152512e-03,5.809369683265686035e-01
7.117712177972093657e-02,-5.857746809156387791e-01,1.627980257343611403e-02,2.702279747828149046e-04,-7.748604214046856710e-03,1.783983602905798689e-03,6.314462423324584961e-01
2.557262673960786215e-02,-5.962670050165108648e-01,8.022453035923957088e-02,1.094193382819646371e-02,-8.503586695656805208e-03,8.780841347448534520e-03,6.515086293220520020e-01
2.398897182387795257e-01,-6.707755627580398450e-01,-5.751088671947840458e-02,-6.723742554272421623e-02,-4.660045947950262370e-03,9.368576587230313668e-02,8.287851214408874512e-01
-4.171195548927318641e-02,-4.074588662268055494e-01,7.426063439794194920e-02,-1.057907097433133381e-01,-5.885142964800437783e-03,-3.284264351970555412e-02,4.759746789932250977e-01
9.312268339363743985e-03,-6.074980588603354770e-01,1.073924914318887813e-01,-8.726927913039972395e-03,-2.618695248511151204e-03,-5.727042496794974846e-03,6.715050935745239258e-01
9.477237762121781817e-03,-6.129834431645507786e-01,1.076338004712129592e-01,-6.093922027931615235e-03,8.506130667721747670e-04,-5.564994949154569367e-03,6.770502924919128418e-01
-3.237644349832174973e-03,-9.123698568082722060e-01,2.149066919140223964e-01,1.760322948908069340e-01,-8.694368976647810776e-02,2.197049909899576048e-02,1.090650320053100586e+00
7.278403292304547190e-02,-4.731956058683551847e-01,2.873917340545148469e-02,-6.620441026231571298e-04,1.683714562518382569e-03,-1.571224270828712726e-03,5.253602266311645508e-01
-4.088068003413175555e-02,-7.767118764714034951e-01,2.190535437591317747e-01,1.111546203732834415e-01,5.613439382493839135e-03,-8.539521249774023604e-02,9.269944429397583008e-01
-1.401405406208294790e-02,-7.212631617432322395e-01,1.700605713116717377e-01,-2.151382561937330729e-03,1.021897875035548270e-02,-6.397247872547033110e-04,8.152298927307128906e-01
4.200541986926764615e-04,-2.897794400317135199e-01,-7.761464823026684168e-03,1.913216724253663688e-03,-1.783289590867796499e-03,1.514006491557545351e-03,2.862443029880523682e-01
6.008404865198169187e-02,-5.686086997153361189e-01,8.260330213064234761e-02,-2.477159783179813148e-03,-3.975431445453574825e-03,-1.772053522616402190e-03,6.403082013130187988e-01
1.665683818118432469e-02,-3.632974109752264980e-01,1.629064923575868074e-02,1.738252748092484036e-03,-7.302600621005805176e-03,2.887490069440174032e-03,3.800266981124877930e-01
5.401499081661043089e-02,-5.832377592155131296e-01,4.755642965657058685e-02,3.351429652198670457e-03,-1.473543333269064374e-03,1.359162049874831284e-04,6.340798735618591309e-01
-2.760846882209416764e-02,-6.796768191008175641e-01,1.506199663975114622e-01,1.081873255279544241e-02,8.323979196317559878e-03,-3.914640227638331409e-03,7.574830651283264160e-01
-1.987864494548291505e-02,-6.664821302339997144e-01,1.529313990659563749e-01,4.644572377957885932e-03,1.149181027056146720e-02,-3.216896518235545094e-02,7.505094408988952637e-01
6.277927074271225094e-02,-5.884302613013456806e-01,5.964918222857465424e-02,-8.697594295835205623e-04,3.912804675633334631e-03,-1.984851265867778030e-03,6.496963500976562500e-01
-4.485335413188612508e-02,-6.166819540693442292e-01,1.366541887734449845e-01,9.225894491860125654e-03,-3.919615951648114383e-02,-6.793325700176527232e-03,6.846363544464111328e-01
-2.813435374906930742e-02,-6.516583490999630079e-01,1.290281835653949161e-01,1.331713290739947042e-02,-9.748168183175939458e-03,-1.407354170507896761e-02,7.161620855331420898e-01
8.050135754482640182e-02,-7.327216853080318337e-01,6.082006650113813695e-02,6.813527334414802572e-02,-4.828655267048258259e-02,1.993418267592957788e-02,8.172073960304260254e-01
1.183688589599105612e-01,-5.826584620526655822e-01,-6.277169275070965115e-03,2.593498626331079953e-03,-1.791389849708267812e-02,2.597765147433867688e-02,6.500793099403381348e-01
7.405076600087415195e-02,-4.724590058558995609e-01,1.837081397215190037e-02,-8.222544735450307892e-04,-4.929417351323453142e-03,-3.961163980750548666e-03,5.210235714912414551e-01
9.016641692834381772e-02,-6.076517646962078523e-01,1.862647161495720183e-02,1.141798557239348186e-02,6.019920513985815499e-03,-1.121618851473000014e-02,6.656001210212707520e-01
9.778925336059984819e-02,-5.871740358628381173e-01,1.372870384940910737e-02,-6.474390802916209220e-03,-4.995921112941337228e-03,-1.134667776905381835e-03,6.471993327140808105e-01
1.052592921501083745e-01,-5.844004016985566707e-01,8.056754386358971898e-03,-7.957446963689315702e-05,-3.027341347497239550e-03,-2.008005965043321069e-03,6.465924382209777832e-01
8.943530120454151744e-02,-5.755046487136352695e-01,3.229571519326152051e-03,-5.588064242313972932e-03,-1.504221167015629482e-02,3.364303376481598412e-02,6.296212673187255859e-01
8.974299928217191469e-02,-5.294713091098192104e-01,4.110242453920548433e-02,4.342577253308428187e-04,1.527767508532200044e-03,-2.330039972733353017e-04,5.963900089263916016e-01
7.839704480987608193e-02,-5.526698132050494872e-01,5.748704750729649593e-02,1.227604811294007343e-02,-1.532127673754022507e-02,-1.921110828144062879e-02,6.226961612701416016e-01
6.821125293618429675e-02,-5.982655036676725047e-01,7.168309597399655231e-02,-6.963213036417517654e-03,2.586385358013316548e-03,3.943497916077079446e-03,6.683781743049621582e-01
4.806430736879954702e-02,-5.981996756044003494e-01,7.732572704082082971e-02,1.026876438010333910e-02,-2.363374811580129173e-03,4.029896480602885439e-03,6.616689562797546387e-01
7.113936966089956515e-02,-5.679646662036746951e-01,6.724086532902878721e-02,-4.087638588199002734e-03,1.172457449722857925e-02,3.191398537031961673e-03,6.375505328178405762e-01
6.889866312283815519e-02,-5.838809598684295832e-01,6.561227108315387246e-02,5.462380210692827955e-03,1.674000752822611899e-03,-1.022748528031732678e-03,6.512202620506286621e-01
7.128703502314415186e-02,-5.425064250566822288e-01,5.918826791129466747e-02,-1.679684680949956876e-02,1.170865018369699785e-02,-1.002774640809850609e-03,6.088705658912658691e-01
8.575029436004111272e-02,-5.712708997816553502e-01,5.700324291604788596e-02,-2.344983260356309511e-04,1.117458715230722384e-02,3.157614140538486658e-03,6.434442400932312012e-01
6.140837881492727801e-02,-4.701191545625901247e-01,4.230159969773264472e-02,2.370429686001700870e-02,-1.783120142424949803e-02,-1.360573817074762527e-02,5.252863168716430664e-01
9.201586311462943424e-03,-1.115787372349368173e-01,-5.721262287331926877e-03,-1.184429926947999992e-02,-2.891304977496973044e-03,5.648181271304615614e-02,1.517389863729476929e-01
1.285013640014549818e-02,-3.021552285409774830e-01,1.628984269032066057e-02,1.655717616760155400e-02,8.810023172017905288e-03,3.743733023179830754e-02,3.249364197254180908e-01
6.603092349370848213e-02,-6.146829298769231897e-01,8.821465521031415791e-02,-7.749273591056127751e-03,6.124106711910789688e-03,-1.401044544011892379e-02,6.927090287208557129e-01
2.942764342423354051e-02,-4.501631142576522082e-01,3.647468686644225744e-02,4.712189123686405176e-03,6.809146694110038839e-03,5.495372944844637529e-03,4.834593534469604492e-01
1.865914281174796407e-02,-2.031223602900370240e-01,-1.767497648653521686e-02,2.268862219804821528e-02,-1.290799315506658803e-03,1.831992399825385295e-02,2.121441662311553955e-01
-1.409233391301391997e-02,-1.922220217837582457e-01,-1.447959252480690573e-02,-2.386923761071501823e-03,1.531087391970867425e-03,1.883197170107806656e-02,1.809679716825485229e-01
-1.797735580775819755e-02,-2.439679590288026251e-02,-1.531978477620937404e-02,2.555076425226688805e-02,3.107252616373504337e-04,2.804245484576163225e-02,6.620637327432632446e-02
6.783324688386083157e-02,-5.590696561527912500e-01,6.706698699815491493e-02,3.284034225555885079e-03,1.568352891582049796e-02,3.158035563399493300e-03,6.271584033966064453e-01
-3.533507937660121390e-03,-2.618231618114598147e-01,-6.914095244655235617e-03,1.343274004071161321e-02,1.018799793365738910e-03,2.378092747941597598e-02,2.609460353851318359e-01
4.027929752229605920e-02,-5.823853424945795165e-01,5.604488995293574471e-02,-6.314050296985318045e-05,-3.468672327195609483e-03,3.391373499069980698e-03,6.307511925697326660e-01
3.201961517831891646e-03,-3.579564573614381073e-01,1.785424549854694454e-02,6.290460271300320205e-03,-3.743654384388631941e-03,4.871405983373443965e-03,3.690173923969268799e-01
-1.038630489111543043e-02,-2.191147091599262575e-01,-3.779744614220564847e-03,-2.982182429436107743e-02,-3.261113618053520635e-03,6.456245522203220288e-02,2.453467547893524170e-01
7.963223977616720739e-02,-5.938009142695763742e-01,6.672328049775475001e-02,1.256406292706905106e-04,9.194742682776133047e-03,5.134447487022126937e-04,6.672630906105041504e-01
1.816932372247315186e-02,-6.095191715113643660e-01,9.105907630802495545e-02,-1.456342346590979754e-02,-2.028158981120557064e-02,-1.128162571177829948e-02,6.688123345375061035e-01
2.669207801341955122e-02,-3.585481056995938887e-01,2.355898643527390424e-02,5.241660280990553811e-02,1.378777505907745338e-02,2.928449516510642919e-02,3.982441127300262451e-01
-1.167720282264672615e-02,-2.552593401002651863e-01,-6.451731487687947797e-03,9.644114089904134556e-04,-1.596851294854035111e-03,2.469253934893569924e-02,2.499439865350723267e-01
7.011210207677698314e-02,-5.981444014805255005e-01,7.203701700653705742e-02,3.434367755097483040e-03,8.065316964340721751e-04,2.763337609072065177e-03,6.692660450935363770e-01
-3.313161311446696788e-03,-2.844954548813067863e-01,-2.989995089605596013e-03,7.931944765635468020e-03,1.728741755926068270e-03,4.766598682862782307e-03,2.818161249160766602e-01
5.533466233883302388e-02,-5.697561702162297070e-01,9.120791490947327551e-02,-1.483169819454858681e-03,-3.297796436803474007e-03,9.567443755231517860e-04,6.438100934028625488e-01
6.213643082820421992e-03,-3.628086333978264300e-01,2.153968114236604059e-02,2.828194977795704668e-03,-1.093923393414184334e-02,2.490319358555254017e-03,3.774514198303222656e-01
1.052887928288773756e-01,-6.647095377867203725e-01,4.243190509066926963e-02,-4.985896679808219517e-02,-9.180708431302668504e-02,5.250562940447321865e-03,7.624137997627258301e-01
3.061350511560700927e-03,-3.204714974868502764e-01,2.136803377574865437e-02,1.669766207509611536e-02,1.091121267357950467e-02,3.306672843855278793e-02,3.397135138511657715e-01
6.434571435778857484e-04,-3.349293296594804126e-01,1.823046792130925131e-02,-1.036975286644434627e-02,-3.463598905583099852e-03,3.097351262906314698e-02,3.493662476539611816e-01
7.397058277349757849e-02,-5.940329318931563130e-01,8.116228843456560482e-02,-7.375767381720579711e-03,5.958670068656222313e-03,-2.531223726001920887e-02,6.732580065727233887e-01
4.053642294814699398e-02,-5.983516230689752691e-01,8.862842864885650540e-02,-3.404390230052567034e-03,-2.720543396493803247e-03,6.348027296059758316e-03,6.643749475479125977e-01
7.121853721878251831e-02,-5.900339628622233157e-01,2.322504449836235163e-02,3.850042048812807663e-03,-7.191286222886162510e-03,5.827473764045351841e-03,6.388457417488098145e-01
1.082640992071521313e-01,-6.214721875689273034e-01,2.008631762019719158e-02,-4.500545211087338474e-03,3.905134861651682289e-04,3.125718885761072548e-03,6.899524331092834473e-01
1.029978193324951885e-01,-5.920941085945916615e-01,2.621946834803434712e-03,-8.758299609852351550e-03,-7.902187051605316995e-03,-1.581882753422487672e-02,6.516332030296325684e-01
1.041539923759748909e-01,-5.993438016460879147e-01,1.703466524241201152e-02,-1.035023571414142064e-02,-1.607049674005292875e-02,-1.215040173285440901e-02,6.653944253921508789e-01
1.369190672390842300e-02,-3.596712251419149631e-01,2.526467670991180969e-02,3.160736013715270600e-03,8.691326276175553867e-03,2.424627474456176983e-03,3.796432912349700928e-01
4.758369541625315224e-02,-5.776122593423100859e-01,4.639432680369312556e-02,-3.171331053563587157e-04,-6.387820605381288284e-04,-7.346782825952559003e-04,6.246046423912048340e-01
5.393712561524474647e-02,-5.881172092420350328e-01,6.922956016057696393e-02,1.042666031931052537e-04,8.613615450513109270e-03,-1.445652803485083550e-03,6.500115990638732910e-01
3.724137037048483312e-02,-5.852980818003996610e-01,6.028995462366651403e-02,1.287816022733087552e-03,-1.814565637890970182e-02,6.681871485986540975e-04,6.351609230041503906e-01
4.327706495400973630e-02,-5.813365369162328822e-01,5.366136370119961585e-02,-1.482845866197194913e-03,-7.934581323408547784e-03,-3.212409824171488706e-03,6.300496459007263184e-01
4.822736411012440438e-02,-5.408077099750672190e-01,8.467237596915871967e-02,7.025461824757708949e-04,-1.403929094461109665e-03,4.431425887230379103e-05,6.080833673477172852e-01
9.425637774139966618e-02,-6.211684485955686341e-01,6.176776989523422023e-02,-3.280626354671237503e-04,1.391906169300006525e-02,-1.188983753168761310e-03,7.001648545265197754e-01
8.321589860450884224e-02,-5.351820406934769681e-01,5.072204442100913813e-02,2.025064698100054530e-02,-2.469313677989705500e-03,-4.006525135083121268e-03,6.038827896118164062e-01
3.491550360159459410e-02,-5.821696294053402276e-01,5.764152617240309029e-02,3.843514238656052951e-03,-1.044942223533120579e-02,-3.955766296912702315e-04,6.290522813796997070e-01
9.181145380316649285e-02,-5.729381061889469162e-01,5.777922152524075927e-02,2.193976314491491268e-03,2.966505393255083368e-03,1.902871148661623799e-03,6.484435200691223145e-01
3.917616643365345874e-02,-5.817628219496986386e-01,5.653361119277322544e-02,-1.920718802616940219e-03,-1.000733605341409642e-02,-1.842807744284195599e-03,6.300524473190307617e-01
6.416750411867497284e-02,-5.176808312626590691e-01,5.657977678308931391e-02,-4.225526606339674585e-02,-9.183588096906522211e-03,6.349509505097931938e-03,5.830271244049072266e-01
2.601756851006883919e-02,-6.540034715014303446e-01,8.908244145755150889e-02,-4.381442872853069659e-02,-1.068832440650379495e-01,-4.034388252363448057e-02,7.444496750831604004e-01
9.231834154150936333e-02,-5.622098792644973919e-01,5.471173089665842815e-02,3.537853658162453882e-03,-1.377111756562163919e-03,-4.197838811418993371e-03,6.366341114044189453e-01
-1.621263097205379033e-02,-2.133733732371047576e-01,2.009337679255127074e-02,-1.964025034424957405e-01,3.607800542144401490e-02,-3.758576988005779551e-02,4.137793779373168945e-01
6.902085069270333384e-02,-4.967124636151509787e-01,3.520693860640872197e-02,-5.845112422714438070e-04,-1.584105303391567313e-02,9.786581165128200969e-04,5.502950549125671387e-01
5.148202762601347682e-02,-4.556974577273327776e-01,4.547006423181548795e-02,-5.124264567040577589e-02,-1.753093219663982155e-03,-1.184765598931015497e-02,5.123726725578308105e-01
5.093232048076035134e-02,-4.296505437127589588e-01,4.601386722293782094e-02,-9.054395746845826654e-02,2.641675417893353615e-03,1.328960082709370639e-02,5.037516951560974121e-01
7.635342190798302675e-02,-5.501142228489885877e-01,5.839617174948524836e-02,-2.680224642296002296e-02,6.337621911803857991e-03,-1.307711788660456675e-02,6.199380159378051758e-01
5.902747493897173015e-03,-4.267821633141867799e-01,7.265668346668371913e-02,-6.957851570880196901e-02,2.858857306109960708e-02,5.971675719805515786e-02,4.982262849807739258e-01
-1.405343627549462959e-02,-6.950777058381477636e-01,1.365231803918644515e-01,-1.065808284437442209e-02,-4.592847397726691761e-02,-3.462969923336584044e-03,7.718281745910644531e-01
3.606753521153782671e-02,-6.029049145662702669e-01,8.825185976841087854e-02,-1.169639194472032843e-02,-8.700300115328246306e-03,2.578902324912739612e-03,6.670913100242614746e-01
-2.770233350197995326e-02,-5.715359427257653557e-01,1.235508560048227400e-01,1.751055758866540690e-01,5.723922324590226957e-02,-1.205048648068444000e-01,7.390996217727661133e-01
3.438204306001113597e-03,-8.732188335463758611e-01,1.610426989077629600e-01,-1.646556182498425946e-01,-2.210441281072323891e-03,1.881223667209006023e-01,1.057852029800415039e+00
-5.605427133634544035e-03,-6.938679979365020012e-01,1.340231212846913489e-01,2.977462924938741734e-02,-5.583187925971536125e-02,8.069851855723198311e-03,7.755702137947082520e-01
6.227815422448032545e-02,-5.837450267559789463e-01,7.029404804009625751e-02,1.685366886401558264e-03,2.100867149356684324e-03,-3.550238843881206065e-03,6.501139998435974121e-01
1.148348299962975716e-02,-6.833028666539243678e-01,1.471282897088003194e-01,-2.465971373553455925e-03,1.057441472836821370e-02,-2.385433772653545656e-02,7.729375958442687988e-01
-1.377225286844582786e-02,-6.096170167799654926e-01,1.396522160380896938e-01,-2.877785427886196332e-02,1.414609073411082600e-02,-3.381363629134644805e-02,6.902913451194763184e-01
5.267080480055533198e-02,-5.740257317941419579e-01,9.394694599509489930e-02,6.588135975946703181e-04,2.317773646825644664e-03,6.613272450265521817e-04,6.483352780342102051e-01
8.894291060071141120e-02,-5.728576448491473627e-01,5.967567552769506567e-02,2.740400728219209316e-06,3.987532003324022710e-03,4.371673265221503145e-03,6.477441787719726562e-01
8.378751580953089362e-02,-5.597554582922799060e-01,5.930933574348315473e-02,-1.156816711207781217e-03,2.909639265504379221e-03,5.038171253242582429e-03,6.317432522773742676e-01
8.299867463245991228e-02,-5.924240911223186412e-01,6.698423939818592965e-02,9.498976818449189619e-04,5.309126290599214780e-03,2.028100429765929569e-03,6.676342487335205078e-01
1.351385879328757533e-01,-6.184834629736792877e-01,-2.889587288567005419e-02,2.587854353790574810e-02,1.208080270540170392e-03,-2.080268375271995540e-01,7.765774130821228027e-01
-6.614341857885139286e-02,-6.146515142591146841e-01,1.313998312194205043e-01,6.079882045555307785e-03,-1.971774498624834226e-02,-4.402732883527625540e-03,6.705027818679809570e-01
1.711422689262825925e-02,-6.043838435475523685e-01,9.253057536773862113e-02,1.276031285879367441e-02,2.720193319901925786e-03,-5.939671857346518966e-03,6.628990173339843750e-01
1.003934874904234276e-01,-6.457880453046738189e-01,6.335599992893137244e-02,-2.182993982922085477e-02,-4.259708596519106577e-02,-4.016807295002156747e-02,7.363664507865905762e-01
6.844781068914976285e-02,-5.963054678433108435e-01,6.884615884425154819e-02,-1.280190752412726585e-03,1.557587925590963717e-03,-7.179911968363459056e-04,6.649628877639770508e-01
5.985919247390722453e-02,-4.661885489128251847e-01,2.302411794949588142e-02,-2.545989663212993876e-03,-1.265305301050800510e-02,3.595516674157230464e-03,5.091606378555297852e-01
7.515716522581175618e-02,-6.000796678028268438e-01,7.141456698065881681e-02,1.727378297265600490e-03,6.093173609563655967e-03,-1.853208337873445816e-04,6.734627485275268555e-01
7.875680383115668537e-02,-5.769306532340200411e-01,6.494877077586766467e-02,2.577040097418461812e-03,1.194127611824158733e-02,-2.031799007657958834e-03,6.492480635643005371e-01
1.611997747814822302e-02,-6.172770202261348427e-01,1.056257795933642218e-01,1.814539458136136055e-02,-4.174666911219371279e-03,-2.295202144388034608e-03,6.833385825157165527e-01
1.586432045091938359e-01,-7.254968511751450633e-01,-1.453390722673883473e-02,4.631476192492878924e-02,7.069580012656236090e-02,-1.408069837313968287e-01,8.599359393119812012e-01
6.509202900576299688e-02,-5.826453246669585084e-01,7.735868186419875281e-02,-1.962345083581075109e-02,1.048402852777587189e-03,-7.444100808899195391e-03,6.549690961837768555e-01
1.188216406448271145e-02,-2.612055533815229591e-01,1.062597270205561939e-02,-7.827078113124992780e-05,-3.821071634603945451e-03,-3.670283384662939574e-02,2.798580825328826904e-01
9.322738334762648016e-02,-5.616261602707749434e-01,5.349189014632865780e-02,4.655154532468206677e-04,5.015168271479865901e-03,-1.090824240618216544e-03,6.359801888465881348e-01
2.163848016201466717e-02,-3.872525921314732278e-01,3.911652799296194694e-02,-5.321426220475482249e-03,4.245118492258001704e-03,-4.657876270379459477e-02,4.257837235927581787e-01
6.130989674426318148e-02,-5.727164905838707520e-01,7.877008514290262386e-02,2.469530567184732069e-03,9.651763471665804339e-03,1.223517245356672183e-03,6.431693434715270996e-01
8.409443800323587737e-02,-5.902930237887522580e-01,2.588094199117249583e-02,-3.926598256950027989e-03,-4.577031219751598497e-03,1.084427752042727705e-02,6.476038098335266113e-01
7.380734145230716248e-03,-2.882154766091760134e-01,1.682981872669030154e-02,-3.266057883482741814e-02,1.301867288858887632e-02,-2.430549960632649720e-02,3.094194233417510986e-01
1.308017578091393018e-02,-3.142109409513953455e-01,1.485190658159310506e-02,-4.014931111945470310e-02,1.327755427014297614e-02,-4.204509313198254855e-02,3.440503478050231934e-01
2.111346602812944062e-02,-7.406674847634583392e-01,1.347616037354325003e-01,-1.416422926330290766e-01,6.811812142842244011e-02,2.918918340772611725e-02,8.697499632835388184e-01
6.580164012158556952e-02,-5.980115099598960482e-01,7.056872524499563371e-02,5.790499890871277306e-04,1.992817744723911471e-03,4.214559930860390172e-03,6.662591695785522461e-01
2.151119561843441164e-02,-1.736890225415611555e-01,-2.291807274095689767e-02,-5.402328747186299629e-02,-1.485661900459387709e-03,-9.203434967956722335e-02,2.560812532901763916e-01
6.801298059814178676e-02,-5.890811974386038763e-01,7.540506147541578552e-02,2.764064284493176517e-03,8.085833711987257949e-03,2.132606154501352682e-03,6.609972715377807617e-01
6.248155038825331520e-02,-4.178722137417107407e-01,-1.400387545627315711e-02,1.323809799069643189e-02,1.241319424515204689e-02,-7.010089476739021774e-02,4.643060564994812012e-01
1.523816687492583755e-02,-3.663175590391509195e-01,3.563875736678220885e-02,-1.907849172682830191e-02,9.320278811817401046e-03,-1.233821157768137944e-01,4.481148719787597656e-01
2.187418321955225675e-02,-3.954832512954785106e-01,4.264654622141070273e-02,-7.618053537949545650e-03,3.814332533077129019e-03,-5.338897495824997119e-02,4.382432103157043457e-01
1.058669616642228251e-01,-5.925152023021575953e-01,5.041027107696050003e-03,-4.786925030614297590e-03,-1.851253895893987048e-02,3.889999808516714924e-02,6.581223011016845703e-01
5.476715787250294176e-02,-5.912291291123654702e-01,7.419602861174148800e-02,7.393053295748853483e-03,-1.798296898705186667e-03,3.644026645313100995e-03,6.560893058776855469e-01
4.975279596107662350e-02,-4.947339783369971156e-01,5.855283621846765763e-02,-3.909736564395169733e-04,-1.287918325014629495e-02,-1.539143781842300732e-03,5.493996739387512207e-01
1.905157794843786445e-01,-6.929864425469748346e-01,-7.930283706044992387e-02,-3.060160234019375630e-03,-1.300856988606462379e-02,4.165783646877434590e-03,7.845895290374755859e-01
1.013221904880157731e-01,-5.976269416834381065e-01,2.262081382895769766e-03,-1.064660780910595995e-02,2.844889487485984924e-03,4.219417513024118632e-02,6.594014167785644531e-01
3.938820210962659663e-02,-4.879209928467554414e-01,6.249541800494937127e-02,1.489569386721411237e-03,9.364717962224222009e-03,2.184078435510427522e-03,5.394975543022155762e-01
1.107006856682200002e-01,-6.052513921420605847e-01,8.281278730133817545e-03,-9.067183439327313604e-03,-2.095348322378182658e-03,-1.203050719660759757e-02,6.711510419845581055e-01
1.652274579346247885e-01,-8.218190138225163199e-01,-2.271700271319862519e-02,6.087476837065583513e-02,-6.434201161958004456e-02,1.186300197531934136e-01,9.433080554008483887e-01
-1.876492063523466092e-02,-5.929543353810120543e-01,9.664521821064492313e-02,-2.473052847699392016e-04,-2.239018536455196148e-02,3.655093566780724234e-03,6.409559249877929688e-01
2.955424115193638901e-01,-9.856307713073939603e-01,-2.180878503457159279e-02,-4.251533251581820355e-02,2.404761007729928901e-02,1.083119289781951794e-01,1.173834204673767090e+00
5.023136293159150001e-02,-5.547115135327580493e-01,9.254312307568793305e-02,-6.737263884074101532e-03,-3.030235772892358667e-03,1.656673609226110705e-02,6.279565691947937012e-01
1.391956387931410632e-01,-7.019303226383105665e-01,-2.307533352558385764e-02,-1.106481640589155376e-03,-5.469973677232679160e-02,6.805821667278865068e-03,7.787510752677917480e-01
1.033123471460133391e-01,-6.073997542531650584e-01,2.197943282250389152e-02,-1.397431577956897378e-03,-7.626589954629467080e-03,8.784337398634978894e-03,6.740432381629943848e-01
1.088125133580361004e-01,-6.064268538017900667e-01,1.579730533610890220e-02,-1.871072873407050559e-03,5.639211725496061541e-03,8.675396999138995646e-03,6.738120913505554199e-01
9.764760004375311331e-02,-6.012064414728449657e-01,1.749307108596004356e-02,5.838573289579957349e-04,1.926908168265968938e-04,1.064309343948785166e-02,6.626812219619750977e-01
7.996710765449815961e-02,-5.790603699108933800e-01,6.845063030677764337e-02,2.635062600624029326e-03,-6.026740654865053726e-03,-5.497373081610444374e-04,6.534453630447387695e-01
1.264784309705498377e-01,-6.230579344043817303e-01,-2.538023655656782007e-02,-9.787564297376800601e-03,3.563805689700861278e-03,3.388327228697689698e-03,6.865873336791992188e-01
5.990313035316835455e-02,-5.878855540391986212e-01,7.353418668645494982e-02,1.703629233987311205e-03,2.235154077693825812e-03,-1.373768320146755281e-03,6.547330617904663086e-01
-1.494706690459571274e-02,-5.993469961857587069e-01,1.040363853950723172e-01,-2.677742531125016246e-03,-1.492475467110739723e-02,-3.912019626375710392e-04,6.526135802268981934e-01
-1.327589453701738531e-02,-3.484054265682176021e-01,4.505181260858656667e-02,-8.849768500562986417e-02,4.294796773860872115e-03,2.396988984134673650e-02,4.006691575050354004e-01
3.770114287600115355e-02,-6.144663149777715994e-01,1.031604858510994371e-01,-1.414596171692161786e-02,3.135693516247635426e-02,-1.704030069812852849e-02,6.904484033584594727e-01
7.914390428589429538e-02,-5.310381244977110393e-01,4.843821437652190420e-02,-3.075433298650362413e-02,1.004062466796296959e-05,-6.739404267252530056e-03,5.979152321815490723e-01
9.311569951073397911e-02,-5.706897060972903057e-01,5.377637645960006707e-02,7.075615266161328597e-03,7.507003294301877513e-04,-1.739585627378360507e-03,6.451608538627624512e-01
-2.671257982464575464e-02,-5.676640264713628259e-01,1.103778078568962706e-01,-1.462831251476834626e-01,2.877266855635824544e-02,-7.496796628207860747e-03,6.726291179656982422e-01
7.257898024252115721e-02,-5.902008618308254295e-01,7.697813243087653357e-02,-8.186679311787790772e-04,-1.237310459145426903e-03,-4.122810900734559829e-04,6.649956703186035156e-01
7.037357568231872307e-02,-5.349408849915773256e-01,5.992046871801337549e-02,-1.454460053666140843e-03,-1.403954236847090864e-02,9.561064593360935450e-04,6.006562113761901855e-01
-2.212898155811052203e-02,-5.325142409896942430e-01,1.116209852459829066e-01,-1.770616609297250565e-01,-5.931075179872868398e-03,-6.634407539773333473e-02,6.738017797470092773e-01
5.660774752288183498e-02,-5.335286313250836576e-01,7.112725426479388213e-02,-9.346190077860913603e-02,-1.348302542116149895e-02,-2.337554507448984242e-02,6.208302974700927734e-01
6.159706791844604679e-02,-5.873001623592520870e-01,4.191093706848100786e-02,-4.515222523757091676e-03,-1.611022941451795143e-02,-5.394251447400048513e-03,6.400062441825866699e-01
8.345767523144170807e-02,-5.741536366910235945e-01,6.388477551691273959e-02,-7.231167082297087047e-04,-5.536302533624312162e-03,8.504378360950166828e-04,6.481204032897949219e-01
-1.153811421898909284e-02,-5.847939515117612785e-01,1.031813519194614837e-01,1.522751403776603004e-03,-2.060472724577177769e-02,-7.823138045650539218e-03,6.395394206047058105e-01
6.493302628691299816e-02,-6.861615580257063307e-01,1.045586431416410944e-01,9.380091955099175219e-03,6.044000987189567659e-02,-3.575945012670366657e-02,7.813674211502075195e-01
3.183308224302547340e-02,-6.032658653353405454e-01,7.397310605684564999e-02,-1.294458330501128485e-03,1.025708353487409311e-02,-4.967231507339158435e-03,6.574832201004028320e-01
1.503074504800092082e-02,-5.969731668672759728e-01,9.591577263711703605e-02,4.174960012573140792e-04,1.692090482423667594e-02,-7.678332164029487428e-03,6.569851636886596680e-01
4.401568666533348106e-02,-5.460904500049812427e-01,8.646248758177152438e-02,2.223749422102196203e-03,4.788351469486654133e-03,-1.621354061850320636e-03,6.125084757804870605e-01
5.014836748416695578e-02,-5.926652054712577833e-01,6.729190459466302676e-02,-5.796448831703640038e-03,2.475575991139976686e-02,-2.096610664342865834e-05,6.530410647392272949e-01
1.721052875185152820e-02,-6.529612177323875777e-01,1.172256799339407296e-01,1.859756228155986374e-02,3.478142495267714379e-02,-2.089978485308985681e-02,7.294777631759643555e-01
1.185682142755155599e-01,-6.011568140216860812e-01,-3.564073855297070215e-02,-5.649021061176768242e-03,-6.630316654681667199e-03,-3.167576719772296091e-03,6.565471887588500977e-01
6.798162343615460346e-02,-5.931191319952762164e-01,7.785867332095267046e-02,3.097928998903294942e-03,1.906630788342342881e-03,2.392747299364145750e-04,6.661241054534912109e-01
4.508395058665176647e-02,-6.052328113193332637e-01,7.101040553530113542e-02,-2.465970192486195874e-03,2.426384282244604257e-02,-9.996231646742988544e-03,6.652283072471618652e-01
2.551733591631566433e-02,-6.030376251362488116e-01,9.019414948173964941e-02,-3.047160902242039039e-03,8.167319589972302923e-03,-5.212175163997984778e-03,6.634958982467651367e-01
4.952865005361933859e-03,-5.940291367939636302e-01,9.699170460482653411e-02,4.375894777286288249e-03,1.380319852076379757e-02,-6.654460277998885259e-03,6.504937410354614258e-01
1.418561373858473473e-02,-5.874793442377632680e-01,7.667349201052753305e-02,3.718959858921008083e-03,-1.194670172629882024e-02,2.591352563375788187e-03,6.356036663055419922e-01
2.943307830158853333e-02,-4.502956264190536295e-01,5.918891581959648263e-02,1.722633866172960937e-03,-4.803485233648564605e-03,2.457030629506990610e-03,4.953746199607849121e-01
-5.129004567635392364e-02,-6.114387668078681282e-01,1.290692164046868817e-01,2.751664820766696815e-04,-2.141011396997503577e-02,-3.072913227682313574e-03,6.698714494705200195e-01
-2.348781334226537898e-02,-6.149681463852134655e-01,1.261996349178672872e-01,8.627602615513962556e-03,-4.305938724128385332e-03,-3.011661912892401975e-03,6.790424585342407227e-01
5.491015406077262573e-02,-5.553025219555883796e-01,8.213770107318849045e-02,-4.759306016537385542e-04,-1.246033128929659867e-02,6.558298804590687427e-04,6.246464252471923828e-01
-1.579428795870299607e-02,-6.143664966573814112e-01,1.153998701031637153e-01,5.232840239830328227e-03,-6.465127183593262321e-03,-2.400006704597743533e-03,6.739841103553771973e-01
1.413012470945379517e-01,-6.445236196573010945e-01,-4.169890905781509227e-02,8.453240920113649221e-03,3.923720600547181414e-02,-1.158650932509570214e-02,7.158488035202026367e-01
8.916063325140477502e-02,-5.843118307193744254e-01,-1.781686824010447756e-03,-2.252346719445578321e-03,-8.781832053486090389e-03,6.292946691787809112e-03,6.332092285156250000e-01
-2.013071462820084645e-02,-6.905850328183816833e-01,1.583314234821998623e-01,1.023951910572629131e-02,-3.381357411159680720e-02,-1.868130680720354181e-02,7.783315777778625488e-01
-9.370598764101539802e-03,-6.085554914106996449e-01,8.214073041013258969e-02,8.914045888820434568e-03,-6.748814769653344037e-02,7.192736643037440925e-03,6.605199575424194336e-01
6.204270452537444247e-02,-6.079861911964190568e-01,7.712758892899204688e-02,5.153379505523920066e-03,2.293850810210595718e-03,1.035165482175447356e-03,6.777700781822204590e-01
-1.875583622771223591e-02,-5.954963436660529741e-01,1.101579661519677678e-01,-2.284392851748907622e-03,3.466109828856844908e-03,-6.745104932073873842e-03,6.509887576103210449e-01
8.491314530337079614e-03,-6.194463278831222608e-01,9.322595468314548439e-02,-6.469899571696070134e-03,-1.942099944153518123e-02,-5.826804834173948330e-03,6.753166913986206055e-01
5.261925421325275298e-02,-5.492344985406859559e-01,8.427930209826126062e-02,6.664159064174401265e-03,9.060286550604812472e-03,2.616578789635469471e-02,6.202567815780639648e-01
5.406745915641827938e-02,-5.688247840363398478e-01,9.274196907311557658e-02,-2.919439954436515191e-04,-2.983941033188470247e-04,1.047301146721791015e-03,6.431052088737487793e-01
5.392066744873513784e-02,-5.720776186412954711e-01,9.103666295838072631e-02,-3.131915228027137409e-03,-1.428243275325939395e-03,6.818117883929792483e-03,6.454928517341613770e-01
6.143335695922855222e-02,-5.693165229029618635e-01,8.289073118479819979e-02,-4.855077289307973805e-04,-5.627340459595511594e-03,-2.417863379653624207e-03,6.418358683586120605e-01
6.323657600037291271e-02,-5.720901139718383988e-01,8.019089484957328540e-02,2.393382417313000450e-03,2.685765765243351439e-03,1.153879599868126542e-03,6.440045237541198730e-01
8.338323495765379012e-02,-5.834761978052632747e-01,7.174761260779524696e-02,-1.481860477907063958e-03,-1.542290333577412634e-03,8.113192111935105038e-04,6.611303091049194336e-01
5.356076338767692957e-02,-5.526755250694117549e-01,7.719512483504969991e-02,-4.678637216676024592e-03,-3.092358411487109923e-03,1.067881404615308831e-02,6.187450885772705078e-01
7.396448924613799325e-02,-5.891069954829883937e-01,7.698166832236674750e-02,6.606777369692797951e-04,-8.189378167926530949e-03,-9.319378298919775774e-03,6.649335026741027832e-01
4.451224795703900838e-02,-5.394974297474091074e-01,8.845145265127601908e-02,-3.515224165498176314e-03,2.467090991740442281e-03,1.794472765757482852e-02,6.080133318901062012e-01
6.826026022661205173e-02,-5.675062196909723689e-01,7.674179704680020309e-02,-2.645566095249228880e-03,-1.215444104677320010e-02,2.141059479266098006e-03,6.404226422309875488e-01
5.175281133129142064e-02,-5.609957807904271121e-01,9.261360381666225439e-02,-4.245256642962152473e-03,-8.157023118380321396e-04,1.752702695571756197e-04,6.342113018035888672e-01
5.111671621385532882e-02,-5.606796902083267531e-01,9.540632645879693063e-02,-4.251439859732878725e-03,-1.164127284467004033e-03,9.594269949504566006e-03,6.353637576103210449e-01
6.920341443903785250e-02,-5.870368057747930024e-01,7.145773979810496335e-02,3.717370306643936594e-03,-4.407294577488088567e-04,-2.913160604761551743e-03,6.574216485023498535e-01
4.637051374701023354e-02,-5.557597307166186607e-01,9.548195429397188239e-02,-2.662135946390668351e-04,3.210278331348971593e-04,1.004673830544427181e-02,6.283689737319946289e-01
8.036935034461560601e-02,-1.183192819782050986e-01,-2.058799180155223771e-02,-6.499769477223145409e-02,-2.005877799268611893e-03,2.645557301036425418e-02,2.107044011354446411e-01
-1.901246405155754965e-02,-1.155906829215163634e-01,8.680970519923532358e-02,5.474962237523756103e-02,-2.722037745866352776e-02,7.191965757835889345e-03,2.052227705717086792e-01
1.708319830310268961e-02,-3.218514196397614935e-01,1.419975996080422020e-02,-3.213520972224477579e-02,4.843861795438116069e-03,-6.270814783280397042e-02,3.589889109134674072e-01
-1.108503602962031265e-02,-1.974808818157181567e-01,-1.496374724100296011e-02,-2.589250167897708815e-02,-3.074411955522460401e-04,-5.583483825652349637e-03,1.901066899299621582e-01
5.587874587578006702e-03,-2.089886276844351298e-01,-1.212390122021756583e-02,-5.741343511625256885e-02,-2.377631254553578578e-03,-3.538147201851588042e-02,2.371026426553726196e-01
-8.146576222498952413e-03,-2.023099763280805097e-01,-1.494542066065337321e-02,1.313454313812018222e-02,9.943234013272591861e-05,9.748927454776840432e-03,1.929462850093841553e-01
-9.555259217506925640e-03,-2.068726076511150924e-01,-1.329184183048114087e-02,6.655004391061610999e-03,1.515236730422468052e-03,1.972656656574466733e-02,1.987912803888320923e-01
1.583219550084159766e-02,-3.300627395550201904e-01,2.430388111354135627e-02,-5.088188154491173065e-02,-7.255132404065775704e-04,-5.341144352231072534e-02,3.727897703647613525e-01
-1.246949182358671193e-02,-2.519438657488299871e-01,-4.097901096117101405e-03,1.079274564407874896e-03,-3.686008564322241447e-03,-9.390671352319430315e-03,2.444005906581878662e-01
7.277765911444125657e-02,-6.022144787952157241e-01,7.738863671862794558e-02,1.098217136930491325e-03,3.797764523736398348e-03,-3.840666114769345353e-04,6.773443222045898438e-01
5.225646057977234582e-03,-3.392957062005966806e-01,5.928702261548152164e-03,-4.155487477348333847e-02,-8.328426955497067853e-04,9.885882876050681133e-04,3.523111045360565186e-01
-5.195514139721343905e-03,-2.069967604158362562e-01,-9.319055983883536842e-03,-1.302520131078556062e-02,-6.167309493848302689e-03,-1.692437452863602976e-02,2.034477591514587402e-01
6.175877207992480633e-02,-5.251020199548447343e-01,6.230745829829781313e-02,9.530607363750333641e-03,1.887270377695631982e-02,2.764955958395441064e-03,5.882956981658935547e-01
1.427035533375561882e-02,-3.452958070250403133e-01,1.784397255117443903e-02,1.343791823121601170e-02,-1.055621073301241239e-03,-1.196734046726338806e-03,3.621255457401275635e-01
7.248841605707176394e-02,-5.903750182367073496e-01,6.875562649741964738e-02,1.639348082864230342e-03,-6.512385515484796867e-04,-1.090198741489341837e-03,6.610146760940551758e-01
6.863981382777628593e-02,-5.896802915867451755e-01,6.887170697202360525e-02,-6.940213321738670409e-04,-1.660020221290949222e-03,1.835197401308995800e-03,6.584511399269104004e-01
6.519446307007559227e-02,-5.878993634315254901e-01,6.228340810135385430e-02,1.156615854731875065e-03,3.916876746243299159e-04,-3.210621124067552113e-03,6.516703367233276367e-01
3.214157198263706272e-02,-3.783883351272733231e-01,4.281085435231540837e-02,-1.362745481804652527e-02,5.341219943690658084e-03,-1.369982418944386826e-01,4.795591235160827637e-01
6.935808051599481883e-02,-5.890669431171059456e-01,6.243711404870763704e-02,1.482566660939189929e-03,-1.697886779052104307e-03,-3.449275235787789811e-03,6.550308465957641602e-01
9.654475611349072617e-02,-5.927025972399158071e-01,-1.408565152303123402e-02,-2.033449155975950145e-03,-1.055889790920403609e-02,4.532744248657234108e-05,6.414017081260681152e-01
5.686227646551858528e-02,-5.787726298845431439e-01,8.990935292423851699e-02,3.713668300702015744e-04,4.919937857643073842e-04,-2.673692425182898520e-03,6.528034210205078125e-01
6.032328240709461387e-02,-5.884814432967255815e-01,7.158135227444969995e-02,-7.830434732237494429e-04,-2.780001960161981867e-03,-1.154308454436250939e-03,6.545285582542419434e-01
7.278419768088573161e-02,-3.887526052735081061e-02,-2.933271072222906964e-02,-2.971531444478111347e-03,-2.462079165590428873e-02,-3.287847257658935846e-02,1.287687867879867554e-01
4.224374206537856447e-02,-1.740920014660916060e-01,3.109212295852031849e-02,-7.573052135105991234e-02,4.497396115538991601e-02,-8.502518249582001475e-02,2.991223335266113281e-01
5.132529593526868883e-02,-5.685581579417264830e-01,9.185619600621458547e-02,-8.140796899054350772e-04,-3.029076341177067838e-03,7.886532261852638231e-04,6.411349773406982422e-01
1.366435064014862033e-03,-2.727243573132237531e-01,8.308541079822762132e-03,-6.454693376275742744e-02,-5.434572524365654557e-03,-9.677612121953640956e-02,3.431633710861206055e-01
2.574260281773738113e-02,-4.318992757540713878e-01,4.766651406238930910e-02,-3.217238601481124671e-02,5.755648563099191768e-03,-4.924165778626712203e-02,4.800300300121307373e-01
-9.507652722921228206e-03,-2.228636342276215099e-01,2.250447996894601455e-02,-5.102629468225737541e-02,-1.606582212007612309e-02,-2.271353064683008169e-02,2.520091831684112549e-01
2.886214195628934720e-02,-3.314737852592729572e-01,3.271601405301535759e-02,-7.668095388359091880e-02,5.500411347948232915e-03,-8.233262344662733989e-02,4.114755988121032715e-01
5.189869369204808125e-02,-4.308505396838794854e-01,3.638948896695515245e-02,-2.531785221347091636e-02,1.169383445244322715e-02,-3.232785416896832159e-02,4.809041321277618408e-01
1.030984423062109023e-01,-6.031716582981031527e-01,2.293949342039322548e-02,-9.079717260084415112e-03,5.664352379960659739e-02,9.900146265123860659e-03,6.773447394371032715e-01
5.881369365303973362e-02,-5.703644694262650638e-01,8.681911450876464431e-02,-1.393316639267115067e-03,-4.959570480442146954e-03,1.338732553321187076e-03,6.437039971351623535e-01
1.082986203836306394e-01,-6.565443508358550506e-01,3.086286071323529612e-02,-1.172834303426858842e-02,4.843426412410901938e-02,3.556887758821563640e-03,7.343317270278930664e-01
1.291620989445877998e-01,-6.364750066326776423e-01,-2.139155045013058087e-02,-5.262937934427151798e-02,5.515028003857341821e-02,7.733846374984934546e-02,7.273067235946655273e-01
1.630035696933851974e-01,-7.033436964008453751e-01,-2.566849249289232526e-02,-3.012424326244893952e-02,2.365430309265137768e-02,2.588627118742393290e-02,7.931648492813110352e-01
6.692236078710375735e-02,-5.879932169976235246e-01,8.140610262808770092e-02,-3.538700728602118400e-03,-2.671877333810902550e-03,-5.394570414353404460e-03,6.623866558074951172e-01
5.231651611010137981e-02,-4.583070413137372290e-01,5.544714556854557497e-02,3.139247864562745571e-02,2.372970780224058218e-02,-4.485828935136718099e-02,5.225201845169067383e-01
1.136344077636355920e-01,-6.226608544840152026e-01,8.942115506856890272e-03,-6.686267778167884375e-03,8.421302636543582035e-03,2.817904375756990348e-02,6.919073462486267090e-01
1.148572927041479619e-01,-6.716088666491444314e-01,1.457596667688065839e-02,-1.613640660452279191e-02,1.948126734366968649e-02,1.270617209744347859e-02,7.430488467216491699e-01
5.877918373285412335e-02,-5.706457109448828113e-01,9.062744309057685355e-02,-1.364351257740336861e-03,-2.122239286130028681e-03,1.482283688300982220e-03,6.459580659866333008e-01
6.779361467879987946e-02,-5.847770730764535463e-01,8.065908463879281620e-02,-1.015908216342067353e-03,-3.145488447878364707e-03,-6.443753860671307641e-03,6.592169404029846191e-01
7.158965377562021004e-02,-5.987692309404986091e-01,7.147444996294821662e-02,2.873289554879964250e-03,1.679863762087470793e-03,3.151804709036428766e-03,6.703482866287231445e-01
7.506344411768828273e-02,-5.898273205084170190e-01,7.874540092123474833e-02,3.512255056054653583e-04,-2.321465429797244222e-03,-6.307025425795130232e-04,6.667526364326477051e-01
7.739719987061852158e-02,-6.008883027351035189e-01,7.235100907253236291e-02,8.190070025250095666e-04,3.983376560767293989e-03,2.392713358940062006e-03,6.758259534835815430e-01
5.030712133560577559e-02,-4.930493750307485823e-01,5.186267661562274367e-02,-1.785718416942939967e-04,1.821722682070731764e-02,-2.039832689390579015e-03,5.450615882873535156e-01
7.296228351731889883e-02,-5.994153085611761966e-01,7.203948484746733327e-02,6.308199569848558542e-04,1.597896173734600833e-03,3.012096896621094342e-03,6.719434857368469238e-01
8.410580306893147839e-02,-5.576700684413362641e-01,6.098855392301363865e-02,8.081485282531133594e-05,-8.360892146242276946e-03,6.194040562078269611e-04,6.307023763656616211e-01
6.889285635227498927e-02,-5.858050713027400658e-01,6.586689790004568446e-02,5.249579057874463779e-03,8.982878487755481100e-04,1.128884168526905893e-03,6.532582640647888184e-01
6.513298099807748875e-02,-5.676719530689580129e-01,8.209758638476388759e-02,-2.093268477184249705e-03,-1.047983216563184820e-02,8.736803293264123289e-04,6.417242884635925293e-01
5.336297515316526519e-02,-5.822038559710260852e-01,5.211342826915588144e-02,-1.187581314879980514e-04,8.303378793980834352e-04,4.863391764867613693e-04,6.349452137947082520e-01
6.473354237290293578e-02,-5.872778774812548175e-01,5.426030789015562350e-02,1.649534759278163535e-06,1.547882369524275319e-03,1.194074625447334162e-03,6.468472480773925781e-01
6.375403542784685573e-02,-5.844208854035999323e-01,5.801536810120180854e-02,-9.570286613633969218e-05,-2.593135822325749046e-03,-1.514898363896896024e-05,6.453403830528259277e-01
7.814735431727398707e-02,-5.858964827124011343e-01,8.354376017381620612e-03,-1.091041394580750728e-03,-1.404123149650732434e-02,-6.931408312247314824e-04,6.325157284736633301e-01
5.981602764833887642e-02,-5.860394887073874237e-01,4.223523980695589874e-02,-3.480748502581901532e-03,-1.467060530184394543e-02,-4.681302542006045113e-03,6.378334760665893555e-01
9.003907056781940144e-02,-5.745631230540965140e-01,6.282772209049186651e-02,-1.864803878067992611e-03,-1.376509852436584363e-03,8.022518856835943093e-04,6.514367461204528809e-01
5.640249087823351326e-02,-5.829494385677960189e-01,5.997252547748385676e-02,2.169996585795392653e-03,1.744688855963925055e-03,-1.220765170600306843e-03,6.411660313606262207e-01
4.975512113654192992e-02,-5.826714358920404013e-01,5.574507001250125771e-02,-2.805159641280210244e-04,-1.529215886436080703e-02,-2.154366445450223155e-03,6.360056400299072266e-01
6.445040066031051951e-02,-5.860447194359429401e-01,6.044134798884176485e-02,-3.767082704833887592e-03,-2.319983332573557903e-04,-2.571189099537702933e-03,6.485481262207031250e-01
5.606755770761445712e-02,-5.833250646779657433e-01,5.835800420746781181e-02,-2.021266762418820646e-03,-3.543310048987793892e-03,-3.783421643790762373e-03,6.406133770942687988e-01
7.798135115655699390e-02,-5.900355161812333993e-01,7.710298804706752773e-02,-9.283194821394074323e-04,-9.982979533346785471e-04,7.046253502051171404e-04,6.675834059715270996e-01
6.438050957636720639e-02,-6.788151611262469576e-01,7.460936808482027116e-02,2.662979005989809037e-02,6.090568392016450228e-02,-2.399880511368786273e-02,7.583075165748596191e-01
8.528850773934365526e-02,-6.663157409757731742e-01,4.445195593566123038e-02,-2.629729584490743399e-02,8.643210519250023316e-02,-1.944243079169520952e-02,7.493355870246887207e-01
1.158674094348158268e-02,-5.885396177159957221e-01,8.497830746031695415e-02,1.566309065291083755e-02,-1.846112367022683526e-02,4.058167150827993869e-03,6.413969397544860840e-01
7.828676051386199153e-02,-5.732521734681622627e-01,7.194911881739010640e-02,-5.557924717367322990e-04,-7.889344470161716374e-03,7.243073916646530644e-04,6.485392451286315918e-01
5.371166818967773593e-02,-5.395746886271781673e-01,7.987080466512491705e-02,9.213758040998187328e-04,5.221175213371029820e-03,1.575635773935894074e-02,6.074717640876770020e-01
5.717277433477771509e-02,-5.638653237919879491e-01,8.946621572417914892e-02,-4.714627888965993254e-04,-7.307474724786110903e-03,-8.207326808999278189e-03,6.380827426910400391e-01
6.277479012209119524e-02,-5.647914063519495764e-01,7.482913319826881016e-02,-3.253942551123279944e-03,-7.080686576533051432e-03,-7.926487775455137025e-03,6.339717507362365723e-01
6.330689850383308670e-02,-5.844782669032326794e-01,8.108168377242028213e-02,-1.043136696233492450e-02,-8.115394784169777456e-03,-1.035588956463827370e-02,6.574964523315429688e-01
5.180301193653830127e-02,-5.633369999647993565e-01,9.043319998343096744e-02,4.282176640852138234e-03,-3.901567082943751576e-03,-1.271743073383160318e-02,6.357974410057067871e-01
5.332582073173269821e-02,-5.741032482816259552e-01,9.176274417970831099e-02,3.358637385375369024e-03,-3.874815429143035981e-03,-8.960909294959507748e-03,6.477506160736083984e-01
6.389322393517538057e-02,-5.767745544835348737e-01,8.371834862747107309e-02,-2.205040789474421725e-03,-1.800968993215588346e-03,3.811297097184935829e-03,6.508589982986450195e-01
7.657269761090801374e-02,-5.917024550009233330e-01,7.615645011224048133e-02,-1.574936181771289297e-03,-7.734106280939946577e-04,-2.420311377979568837e-04,6.680741906166076660e-01
6.060529593486457811e-02,-5.696637530214411216e-01,8.868600007536675545e-02,-1.326088729766740099e-03,-8.003369594081205865e-03,-3.425611706929221172e-03,6.449485421180725098e-01
1.079715410099909012e-01,-5.937343928249403380e-01,-2.745007303641078256e-03,2.102731804031836380e-03,-3.113635168981136389e-03,-2.168552562421757063e-02,6.545319557189941406e-01
7.110328349347061483e-02,-5.683485924538764777e-01,6.491284187071766354e-02,6.599555646298765378e-03,-1.483880913610086810e-03,-3.821904858779168884e-02,6.399202346801757812e-01
4.860808815189784915e-02,-5.463953172295096250e-01,8.407689280799821030e-02,-5.947247706350356801e-03,-6.615856552432087742e-03,-2.865055716996717239e-02,6.157037615776062012e-01
4.926022824151946033e-02,-5.957484184827659401e-01,7.581530500638117287e-02,7.816320265750801438e-03,2.057785460388050509e-03,-1.033143307102683123e-02,6.590794920921325684e-01
3.161522567701258168e-02,-4.780491700563270774e-01,7.016341384128368941e-02,1.560875289825883541e-03,-5.289302919728339561e-03,-2.894104617481461569e-02,5.324419140815734863e-01
7.404735665412273682e-02,-5.901857861610220191e-01,7.504725151440311270e-02,-1.235520984756975551e-03,-1.626984882066678535e-03,-2.525581331633831340e-03,6.647574901580810547e-01
4.846295589140750537e-02,-5.409854596766563439e-01,7.653961924575794495e-02,7.574907643672494943e-04,1.570784881233004519e-03,-2.854731794646886769e-02,6.060044765472412109e-01
9.335329589043134257e-02,-5.908964691591009899e-01,1.374665373015754311e-03,8.219897248671890685e-03,-8.244290034407764436e-03,-2.501832995733708001e-03,6.435424089431762695e-01
4.022402823961321316e-02,-5.040062638669451367e-01,7.122937374402713018e-02,4.893588965172346490e-04,6.604247777741613888e-03,-1.881680145943939036e-02,5.614408254623413086e-01
7.186192934664331622e-02,-5.897180377721437106e-01,6.901990001768693039e-02,-2.794817082469659795e-03,-5.517176758590122730e-04,6.878142706075976616e-03,6.602894663810729980e-01
5.153921108192671685e-02,-5.511157596632674238e-01,8.160797435036579173e-02,8.980458916879951277e-04,-8.643974016455566525e-03,-3.654852075395196437e-02,6.216527819633483887e-01
7.663410790185981591e-02,-5.442797980319402651e-01,5.796578267076052393e-02,-2.356049489457543930e-02,-2.510476969543071028e-03,-3.623506474160117716e-03,6.132004261016845703e-01
6.725488662450754274e-02,-5.944370077515144235e-01,7.380299234533471697e-02,1.785001645287154258e-03,1.232838337576091852e-03,-5.676718732931452377e-03,6.650734543800354004e-01
7.205732459774014109e-02,-5.838757494122193137e-01,7.670130490081267238e-02,5.362142744397553444e-04,-1.591357683825971384e-03,1.267841387510192140e-03,6.582774519920349121e-01
8.898273314383800536e-02,-5.833141706592996911e-01,6.238075558413719301e-02,-1.427720966205743396e-03,-9.442429775587705889e-05,-1.288240872894812162e-03,6.594069004058837891e-01
7.233975116043608877e-02,-5.810921659062957545e-01,7.841190690484606263e-02,1.730156137515964166e-03,-1.813571551407167255e-03,-1.436989996270581285e-03,6.565081477165222168e-01
5.956500998163466454e-02,-5.758245940103861038e-01,6.644660657341605603e-02,-7.483237145098327672e-04,3.186111486565702811e-03,-4.380538620008412459e-03,6.389284133911132812e-01
8.959214022565334390e-02,-5.754259045279791485e-01,5.544702765164971625e-02,-4.349070471844005727e-03,-8.044324507383503967e-04,-4.757079881635083510e-03,6.487174630165100098e-01
8.736387666244460615e-02,-5.589440443524729130e-01,5.554778525614367801e-02,-8.583793312741295686e-03,-2.704307134082079619e-03,1.792878167897506148e-03,6.312018632888793945e-01
9.019570082192790439e-02,-5.750676966529277845e-01,5.282915347612365808e-02,-6.921350550685795300e-03,-8.690827214093221431e-05,-9.898094231021023948e-05,6.475004553794860840e-01
3.338655011174732068e-02,-4.231976744883036434e-01,4.388499993012379141e-02,3.652494912044670916e-02,1.929802952716810210e-02,-7.804413029073814598e-04,4.674335122108459473e-01
8.890701349116306162e-02,-5.728378436367311810e-01,5.393170706789887636e-02,-9.787552451923206900e-03,-6.235510594467468838e-03,-2.426734888394808075e-03,6.452956795692443848e-01
8.714548221550105778e-02,-5.477814734972816790e-01,4.894558958019779027e-02,2.371914602731672872e-03,-8.486803485444438348e-04,-1.364280683075276513e-03,6.167349219322204590e-01
7.901058058239041060e-02,-5.356956012692333235e-01,5.191557305640617792e-02,-1.082460451324711651e-02,-1.979738463789548471e-04,7.818416220723348577e-04,6.019101738929748535e-01
7.574781557177459601e-02,-4.982735111990890808e-01,3.449407160030634745e-02,-2.451357093367223863e-02,1.942354066475391683e-03,5.397753418457468255e-03,5.562583208084106445e-01
1.336136277389256000e-01,-6.229587682300714579e-01,-2.621792649118376284e-02,-3.885214245417562690e-03,9.681205762311220840e-05,4.957290652982708154e-05,6.907019019126892090e-01
7.502998659570173090e-02,-5.983646093638157470e-01,8.485894305295496598e-02,-3.881572171342212245e-04,4.565118341419954762e-03,-2.556711926164976709e-02,6.798526644706726074e-01
9.830133936729762434e-02,-6.073540745299099708e-01,2.943553431004844456e-02,-6.870906669840208883e-03,2.636561992863114146e-03,1.991187862236634687e-03,6.739962100982666016e-01
6.626139318740670303e-02,-4.403609626166170021e-01,1.820257477222722575e-02,4.311337156053170888e-02,-5.096948840226455703e-03,-1.462598038739808780e-02,4.908402860164642334e-01
3.641615810754661453e-02,-5.890277237200911564e-01,8.227026454288768886e-02,1.157524597574338676e-02,-1.974199017126605088e-03,-6.256709074431789780e-03,6.499945521354675293e-01
7.064943998920289459e-02,-5.883836012371905788e-01,6.904957233159764174e-02,-2.674427553967445321e-03,-5.871841121874725629e-04,6.917386376785579494e-03,6.583606600761413574e-01
5.716506045663882762e-02,-5.824419030787832963e-01,5.289502729482434273e-02,8.674581120377022371e-04,-1.282809174906892127e-03,-3.873513197268480934e-03,6.375235915184020996e-01
6.786582311786712451e-02,-5.862557661558123190e-01,8.330684412159652941e-02,-1.183287041134802736e-02,-3.998414079180443934e-03,2.077058147440073374e-02,6.633068919181823730e-01
6.687761492155400167e-02,-5.863070330605891778e-01,6.973138554500382669e-02,3.103763831437659115e-04,-1.879160619821090231e-03,1.659726274931262908e-03,6.546308398246765137e-01
7.913937763846748408e-02,-5.078385944605627866e-01,4.109199054608470014e-02,1.643393343922055355e-02,-8.335775881809575141e-03,6.827561600978700402e-04,5.698050856590270996e-01
7.762243394392168150e-02,-5.805904689374334904e-01,7.057493568982706189e-02,1.270913529152568151e-03,1.513941436467905639e-03,1.482700910906300466e-03,6.547315716743469238e-01
6.556311744028189836e-02,-5.365005805056459742e-01,6.547217853784453867e-02,2.650981691072608337e-02,7.290632722053501207e-04,-1.947193980536118460e-02,6.047092676162719727e-01
7.752504658535258608e-02,-4.960352808070720432e-01,3.627682068153345596e-02,1.726953507950519662e-02,-6.200097205797603685e-03,-6.417090298961231933e-03,5.551108717918395996e-01
9.282366727767230041e-02,-5.664155765710100487e-01,5.390716587102090118e-02,1.493783503967524660e-03,-1.391315094064743798e-03,-4.728306892008759220e-03,6.407302021980285645e-01
8.075734991105451566e-02,-6.132304695257377869e-01,6.019496669205198769e-02,1.772045876785153032e-03,-2.048420338264207372e-02,-5.356629678316217336e-02,6.911209225654602051e-01
4.957475155535981393e-02,-5.794597232464770986e-01,4.862529105548057951e-02,4.878669843368332285e-04,-3.015530476378708823e-03,-2.253959123954120229e-03,6.285946965217590332e-01
5.828545540207791253e-02,-5.761889567711033777e-01,7.941567212176151025e-02,-1.236331254776696850e-02,1.323611542273000347e-02,-1.359661177594465205e-02,6.464902162551879883e-01
7.034310317484160358e-02,-5.862736581310397099e-01,6.897966096106725176e-02,-1.756396023132547005e-03,8.177250456446531453e-04,-8.127702862910788284e-04,6.559461951255798340e-01
5.072405852197633958e-02,-5.508959516030025316e-01,8.936321644319764057e-02,5.128339263875398950e-04,-1.566160295730700596e-03,8.841898093630821574e-04,6.218490004539489746e-01
7.742004835129562279e-02,-5.886786339655839528e-01,5.416730046159692891e-02,-7.927511450485581063e-03,-1.598699274692985456e-03,-1.772265724376088491e-03,6.549390554428100586e-01
5.742197347695660037e-02,-5.659348434124679139e-01,8.884102408410451956e-02,-2.410439201167909485e-03,5.120998015688981234e-03,-1.509332318385021507e-02,6.402543783187866211e-01
5.827337764093679096e-02,-5.644553251554567108e-01,8.229742141932314126e-02,-7.757163827552155354e-03,8.517586925635253076e-03,-8.873795738846919703e-03,6.355808973312377930e-01
6.853990739408433175e-02,-5.976554415558277267e-01,7.809475664983797638e-02,4.237888982027157060e-03,5.249825735292206960e-03,-8.619001657580884976e-03,6.712915301322937012e-01
6.772310986304128089e-02,-5.817098031854588402e-01,7.030877980075442291e-02,1.235367921387247768e-03,1.890701424809450694e-03,-8.863185067617834225e-05,6.507413983345031738e-01
6.945112381187504291e-02,-5.779704946017033551e-01,4.610816109932858176e-02,-8.831418598727897723e-03,-1.037909448773926407e-02,1.391181872550661513e-03,6.365138292312622070e-01
8.493217352953144617e-02,-5.726266460957946114e-01,6.438941312228185776e-02,2.030354845244380837e-03,2.640776582640113734e-03,2.289877375621494036e-03,6.475697159767150879e-01
5.304488820884994960e-02,-5.356569118785212691e-01,7.218858092193744525e-02,2.119465553099873691e-03,1.161635062524615618e-02,-1.614474628876056903e-02,5.995051860809326172e-01
3.427721942022118884e-02,-4.772853049520017765e-01,7.174055195237091787e-02,9.251077190789291774e-05,7.913490220294548683e-03,-9.227371398070577206e-04,5.314649343490600586e-01
6.578588518232800220e-02,-5.869894267567122847e-01,8.229983267458282348e-02,-1.432275365355687433e-04,4.924604375942143696e-03,-2.852473185705164688e-03,6.612604856491088867e-01
5.595774415009921454e-02,-5.833758502057670992e-01,6.576841154642754095e-02,1.459533886514639963e-03,-1.037761206142601145e-03,1.179965934007268984e-04,6.443024277687072754e-01
4.777660578948000891e-02,-5.355047529532958039e-01,8.538647807490004626e-02,-7.475364348067177478e-03,4.704862477885980547e-03,2.635384484537082322e-02,6.048854589462280273e-01
8.564738371323893373e-02,-6.000783038979407014e-01,3.303046971072359783e-02,-1.229375866578620233e-02,-1.916925474345450991e-02,2.209843022867457457e-03,6.621766686439514160e-01
4.846187581079555717e-02,-5.811444170398083475e-01,5.279177959025252442e-02,-4.638117875102149359e-03,-2.127753402139761184e-03,-2.412053018710107622e-03,6.318579912185668945e-01
4.445051818634990215e-02,-5.827066107165246311e-01,5.446725785659187191e-02,4.882909980245849066e-04,-5.102364326734755429e-03,-4.028795928554257735e-03,6.323258280754089355e-01
6.783496100927993711e-02,-5.938730292940802569e-01,7.900492346510504249e-02,5.328753248871287386e-04,8.447202371548280866e-03,-6.376183620849714415e-04,6.675249934196472168e-01
6.037756706774702331e-02,-5.403243271620139510e-01,7.119402222592352558e-02,-2.309679458374707360e-03,1.050426989141545024e-02,-1.733422364339339342e-02,6.072114109992980957e-01
8.235323391990392872e-02,-5.897929252676645806e-01,6.621677656612259821e-02,-7.307238270938241215e-03,2.293741052283586063e-03,-6.111623679011516340e-03,6.644417047500610352e-01
8.715242197552242054e-02,-5.858921210336978103e-01,6.450031548057674757e-02,7.293193538844693915e-05,2.559223586391795157e-03,-5.351473037729136475e-03,6.620889306068420410e-01
7.856127482376148996e-02,-5.403553004500978307e-01,5.090463511812948205e-02,-2.663190637910867881e-02,4.384925619184179210e-03,-5.158907063556440395e-03,6.074296236038208008e-01
5.635922067438772776e-02,-5.845492145711674858e-01,7.153391148584214987e-02,3.420280531145643461e-03,-1.621935693821288096e-03,3.199469413352515335e-03,6.486857533454895020e-01
6.226627804589748849e-02,-5.849566605777796191e-01,7.059134615003681557e-02,3.132937871046892302e-03,-4.785879197780869092e-04,-1.384190577434022242e-03,6.514528989791870117e-01
6.351559811993937044e-02,-5.726110984908862056e-01,7.728202323515420691e-02,-1.883059079601507701e-04,1.082532526823823914e-04,-1.199990633725782525e-03,6.431238651275634766e-01
6.244131076637032818e-02,-5.743229415386440495e-01,8.339193291162186328e-02,7.940042505291572709e-04,6.992769316224120048e-03,2.179366301875094308e-02,6.487077474594116211e-01
5.988988094464198220e-02,-5.788231324590484839e-01,8.785071412210973540e-02,-2.655085160357420222e-03,2.564108739547692455e-03,5.129392796907974485e-03,6.532341837882995605e-01
5.368900441896801157e-02,-5.733829422214098415e-01,9.226796425330219265e-02,-3.822293174913408021e-03,1.953497178777791835e-03,8.295574911828812112e-03,6.474264860153198242e-01
5.017390397360632637e-02,-5.647924217536950398e-01,9.612593233205557475e-02,-1.833765033975131740e-03,1.587700121025728116e-03,4.409783067405735092e-03,6.392418146133422852e-01
6.135695478482749987e-02,-5.619446399512555423e-01,8.509702844490482643e-02,4.826530816553705502e-04,-1.311483959888283361e-02,1.726924887638122850e-03,6.359177231788635254e-01
6.762878120824442063e-02,-5.833683780300433774e-01,6.633558460531932544e-02,4.785657454587969283e-03,-5.562518718274649413e-04,-2.572414037731239004e-03,6.504203081130981445e-01
9.496986608984586686e-02,-5.950934773100269304e-01,-1.182124162192849104e-03,-5.639339892529012660e-03,-9.736407045962918241e-03,8.427169106309487234e-03,6.478229165077209473e-01
6.330992159188897350e-02,-5.769607418855551284e-01,8.320877974203635952e-02,4.785069969783759024e-05,4.213127328906705361e-03,3.909599579108972295e-03,6.505246162414550781e-01
7.535552378576498844e-02,-5.869516126161447023e-01,7.721609517817434876e-02,-6.782833935556896758e-04,9.918194696975201480e-04,-6.649075207951426428e-04,6.632436513900756836e-01
9.276981261681990776e-02,-5.986499332226535852e-01,4.091002761574030755e-02,-2.056600229803701683e-03,-1.499969470935768549e-04,1.594598393874143566e-02,6.675847768783569336e-01
6.734368597046952454e-02,-5.769018036528837934e-01,8.076871632634974318e-02,1.494992096912541252e-03,5.341909830666694003e-03,2.782937775697304651e-03,6.511505842208862305e-01
6.740939328668077435e-02,-5.793011278853218426e-01,6.716190936744162454e-02,-1.479118084212291623e-03,1.918909326468255967e-03,-1.640512904475405762e-04,6.466004848480224609e-01
6.650160312275288366e-02,-5.852841503036791959e-01,7.567692944844978120e-02,2.070639736496352173e-03,4.528291237961844934e-03,3.593075348866646770e-03,6.565076708793640137e-01
6.879915296311781003e-02,-5.708396599811189631e-01,7.792833434615775712e-02,7.671773641764046206e-03,8.790067197221066234e-03,7.886209304627245231e-03,6.447134613990783691e-01
8.152574833111886354e-02,-5.663580948537063620e-01,6.463312620789465890e-02,4.444378929287493701e-02,7.329356041565955951e-03,1.995440744764552521e-02,6.452718973159790039e-01
7.049073326971999620e-02,-5.836314580770864957e-01,5.287543633273750210e-02,-2.728231790901967414e-03,-4.534560944747045332e-03,-1.584215053537935732e-03,6.455657482147216797e-01
8.794004903198909817e-02,-5.613391249491105350e-01,5.504745865830765195e-02,1.417526784127408953e-03,2.226988880656492233e-03,-1.189121162870532614e-03,6.334935426712036133e-01
6.023508769990992828e-02,-5.873643407585432685e-01,6.106108116611086434e-02,-1.018838753965709736e-03,5.043732985227518915e-03,-1.976135451960614724e-03,6.480831503868103027e-01
4.959207095222217809e-02,-5.902994204940479328e-01,6.494126353327150936e-02,-5.988110264937172508e-03,9.039823028130885424e-03,-1.721132818912741655e-03,6.479815840721130371e-01
6.964949973309528253e-02,-5.781136512066775701e-01,7.820474409458305631e-02,-1.296785742330610345e-03,5.905110498173218696e-03,1.377020621867680139e-04,6.521669626235961914e-01
5.571044475083503089e-02,-5.645593573587485148e-01,9.358228996733872207e-02,-1.425765361419185223e-03,1.912882610042611125e-03,-1.629077052481516788e-03,6.400661468505859375e-01
4.716419497388768534e-02,-5.892388461071697003e-01,6.520932106909010928e-02,3.667606564544598474e-03,1.886138950651289337e-03,-4.999921810335248608e-03,6.457123756408691406e-01
9.093735201727279338e-02,-5.643745447111765401e-01,5.492858657682633816e-02,1.587226711731418551e-03,2.828524367516893449e-03,-1.733550263399032555e-03,6.381018161773681641e-01
6.463788358896271902e-02,-5.893509942463435181e-01,7.126662157908811301e-02,-6.807047202343385200e-03,6.479146633314058178e-03,-1.428459610825880523e-03,6.575344800949096680e-01
4.542189371286894928e-02,-5.900368226863125232e-01,7.826772068574730512e-02,-1.033396879179539901e-02,2.057214666365174763e-02,-7.147934130229905737e-03,6.538364291191101074e-01
7.034420911808772492e-02,-5.888963231989932101e-01,5.923280802103580989e-02,1.469456452199323403e-03,1.005286644893897815e-03,-3.660602573226821692e-03,6.537936925888061523e-01
5.003511346605013510e-02,-5.882221859316657531e-01,6.507743280617833692e-02,-1.427617989114559997e-02,1.433641624227424867e-02,-1.970387663435007545e-03,6.468687653541564941e-01
6.085737982861105788e-02,-5.697809541176694914e-01,8.747039054622202103e-02,7.080439097667216982e-04,4.937714750063240850e-03,-1.225954622612186978e-04,6.444151401519775391e-01
5.518283308407403998e-02,-5.877072132247290748e-01,5.439658009030076680e-02,-1.002881153351615172e-02,1.397964857066062716e-02,5.267997104257130664e-03,6.432526707649230957e-01
2.383327812995897355e-02,-6.027878893565254970e-01,7.291483035929338663e-02,1.384919291560778379e-02,-2.373609121608760350e-02,1.057031681803021622e-02,6.545375585556030273e-01
6.130011699563067684e-02,-5.794986893799829453e-01,5.203446460483643343e-02,-1.257790358524354685e-03,-1.031090329648439927e-02,2.525647009676615769e-05,6.364709138870239258e-01
6.985970626802776029e-02,-5.854681101820649047e-01,7.843616831066915762e-02,-5.999768210082566085e-04,3.776433309098732333e-03,3.257691259564587331e-03,6.597152352333068848e-01
4.963677386065390440e-02,-5.817727571993775992e-01,4.646344218439804608e-02,3.048782368029691239e-03,-2.271138273256672734e-03,1.966242215491737291e-03,6.298725008964538574e-01
7.380028245303310586e-02,-5.922595340692522470e-01,2.665593466542320877e-02,8.999930513557526102e-03,-1.468697490345822684e-02,6.658649722813820941e-03,6.445777416229248047e-01
7.366469545897422200e-02,-5.864024560107714557e-01,7.640018964828254600e-02,-1.676569063027640060e-04,8.431549853188902112e-04,2.146360108996906379e-04,6.614409089088439941e-01
7.959724191616271427e-02,-5.922558031134368406e-01,2.152268243387819857e-02,4.909435488456785623e-03,-8.085917978144686533e-03,-3.615741064942552211e-03,6.450188159942626953e-01
5.241124197835539400e-02,-5.816968401421322987e-01,3.977267751161076004e-02,3.801993617939336458e-03,-1.737462340451434092e-02,4.607749897527822422e-03,6.286901235580444336e-01
4.232205511933634368e-02,-5.818136730585781180e-01,5.202465372957318368e-02,1.923608072726386157e-03,-3.994802348790135217e-03,1.781727933080724325e-03,6.290975809097290039e-01
6.693508802521216938e-02,-5.902001168423148814e-01,3.242857404214499750e-02,4.501770156721514662e-03,-1.884438459709440739e-02,3.616938975309702455e-03,6.414883732795715332e-01
8.111364399120174484e-02,-5.904695647312061535e-01,4.592497942288109591e-03,3.218181272553847626e-03,-1.742307006482633758e-02,1.863924081216834891e-04,6.375194191932678223e-01
1.279260626113176702e-02,-6.149138188327223364e-01,1.155185876486952701e-01,-1.696082003792385995e-02,1.783355042447869881e-02,-8.343538927498480098e-03,6.863495707511901855e-01
-1.180342950011267766e-02,-6.077518318483483561e-01,9.955111474243694136e-02,-3.347856084507955937e-03,-6.056194591589795367e-03,6.953962713881169620e-03,6.589420437812805176e-01
6.555190969313878790e-02,-5.694353547209507482e-01,8.254224299118229080e-02,-6.067102527378097354e-04,7.663296989687397136e-03,6.177346442069456788e-03,6.438772678375244141e-01
7.456967025076327582e-02,-5.840142633387821469e-01,7.483366039428487881e-02,8.513666022223801387e-04,2.552446425874531702e-03,7.867402927297913271e-04,6.587338447570800781e-01
-2.392354716369887724e-02,-5.933807109086350895e-01,1.110993214475337609e-01,3.409116210832747323e-03,-1.536219107629068110e-02,2.765318152344762789e-03,6.482037901878356934e-01
-2.441460393220659664e-02,-5.962035810051445894e-01,1.047476627942892646e-01,2.521653713479164727e-02,-3.702000873311735857e-02,-1.620745479311049659e-03,6.507734060287475586e-01
9.978012510202721730e-03,-6.249232299118595568e-01,1.161694238372034116e-01,5.561824901534610788e-02,-4.610880502942912157e-02,7.812960147523695387e-03,7.054350376129150391e-01
-3.273669115562763410e-02,-6.013949211189001387e-01,1.175486607312569154e-01,-1.239288220849609282e-03,-1.328645154923864362e-02,-6.774526385276060519e-04,6.572324037551879883e-01
6.835062332701982712e-02,-5.871044734351226202e-01,7.439581727487609708e-02,-2.200567349783751937e-03,-9.547601620530485247e-04,4.574349369025360198e-04,6.585121154785156250e-01
-3.448590219195141193e-02,-6.111825733327076460e-01,1.120235017190442939e-01,7.761436002816310582e-03,-3.944831683547847523e-02,4.645507740591727809e-03,6.659200787544250488e-01
7.033080285254478259e-02,-5.914602757438519598e-01,5.861261296007561072e-02,-1.432260440947463092e-03,2.764385637258609443e-03,-5.666657534938084571e-03,6.561060547828674316e-01
7.733660708684333973e-02,-5.751450372250779264e-01,6.484267764971590742e-02,2.255687635609267619e-03,1.812356147344243787e-03,4.796586835505776795e-03,6.463980674743652344e-01
9.086461186248806499e-02,-5.673887023697288257e-01,5.614715310384399416e-02,5.325880024814572122e-03,5.864482722239492025e-03,3.555372971547219631e-03,6.417756676673889160e-01
8.890268210763666024e-02,-5.648176584661713795e-01,5.826968845230520722e-02,7.054349759590182976e-03,9.029498229681911028e-03,3.662830695219745220e-03,6.392944455146789551e-01
7.552080033748201360e-02,-5.745943769265271506e-01,6.432551608728923065e-02,-2.093466658442807646e-03,9.953332314405045574e-05,2.016576093112479112e-04,6.446007490158081055e-01
8.964093131405839743e-02,-5.727831859888572463e-01,5.730332155972669983e-02,5.653882166091311542e-03,2.288335131823618709e-03,3.231931595564990940e-03,6.469722986221313477e-01
7.722836092999962876e-02,-5.672200187864714360e-01,5.897805540732473095e-02,1.728073704084542948e-03,2.301480336627435407e-03,3.235652948788803919e-03,6.355640292167663574e-01
8.568596657464638833e-02,-5.317358534825586958e-01,4.769594023032946994e-02,1.928788629217381700e-02,4.498949909302536396e-03,3.233956746591478380e-03,6.003376245498657227e-01
8.199376216588732946e-02,-5.429918295837351527e-01,5.002010419474620107e-02,1.261203225259209526e-02,1.499336342212607455e-02,8.924470222540304212e-03,6.107673645019531250e-01
8.956983118106293107e-02,-5.692982861808677519e-01,5.875879555746360561e-02,6.937266704464616074e-03,8.986566839973179205e-03,5.879615217374220548e-04,6.443165540695190430e-01
8.852081556667951157e-02,-5.702979312819140834e-01,5.732434980641049060e-02,-4.323967292040792115e-04,-2.846629679353230181e-03,-1.283534473751334190e-03,6.438108086585998535e-01
1.318057307468245565e-02,-3.063558264460489178e-01,1.973520447011282986e-02,5.731363688354032537e-02,5.939103632532899803e-04,4.180089187511553533e-02,3.454540073871612549e-01
1.292197610939938013e-02,-3.935247785072085724e-01,4.145953664713872278e-02,-1.449418739110004337e-02,4.106344417291196876e-03,-7.958278205287977209e-04,4.222500324249267578e-01
3.004594101854593524e-03,-3.241175683737743674e-01,1.577208383032634165e-02,1.665312720445958836e-02,3.899101522347972471e-03,2.867251473446734422e-02,3.386626243591308594e-01
3.491515747919671231e-02,-4.404578339239454965e-01,5.203991644893804502e-02,2.358740586577834017e-02,1.451947515355344297e-02,3.134258013183553043e-02,4.895528554916381836e-01
6.939022758482848996e-02,-6.053283038956797091e-01,6.740351258229002052e-02,-1.749675562480900240e-02,4.211323728917994169e-02,-6.104588560467485991e-03,6.784241795539855957e-01
6.250606795180729813e-02,-5.891134322841273807e-01,6.444536498347525066e-02,2.652522277087831452e-03,1.078608952600808128e-03,-5.789211334316669670e-03,6.526871919631958008e-01
6.273297108197992134e-02,-5.887832145023716990e-01,6.008816532465513505e-02,5.927788595827831759e-04,2.996381627414819102e-03,-4.952476006399296818e-03,6.502759456634521484e-01
6.801616504760626958e-02,-5.895859135614315294e-01,6.748872558683233214e-02,-2.073529578203280564e-03,-1.056153912179326427e-03,1.495337562491761080e-03,6.573559641838073730e-01
7.262869561749490943e-02,-6.472536301466139674e-01,3.953270595542776600e-02,-3.174989465510707348e-02,3.337158937342843412e-02,-4.393701895648366960e-03,7.084657549858093262e-01
6.189916754320801129e-02,-5.771079435294795834e-01,9.024183742895786065e-02,-3.380892720475434446e-03,7.400943755903197563e-04,6.090239492129626009e-03,6.537520885467529297e-01
2.883761321300207237e-02,-5.879241183901143808e-01,6.599598304970591411e-02,-3.107569980052485911e-03,1.252684950921756010e-02,4.532994531115266501e-04,6.365485191345214844e-01
1.211506833311242204e-01,-6.639380383638509020e-01,3.631936692277393242e-02,-2.970052249857500944e-03,7.526244136338659622e-03,6.111484853325822864e-02,7.538979053497314453e-01
6.527725759355557100e-02,-5.888789085059854544e-01,4.813978094531190521e-02,1.877699669927819417e-03,4.946954403844508116e-03,-4.551770964717979234e-03,6.458711624145507812e-01
5.153714089150593369e-02,-4.843756222847204751e-01,6.388736300744060626e-02,2.890345838998440581e-02,1.303927715057159181e-02,3.398770154302242080e-02,5.481381416320800781e-01
8.407017714081130300e-02,-5.810069034055767023e-01,6.405052741065794808e-02,-3.950480651646356804e-03,-8.613796403796607215e-03,2.916766562782290278e-03,6.555216312408447266e-01
-6.612625075339828573e-03,-5.950323276929241345e-01,1.068630119243120236e-01,-6.278211857875144741e-03,8.239231824985182237e-03,-9.438942034451038021e-03,6.530504822731018066e-01
5.698440552197653330e-02,-5.619792073027208845e-01,8.738992353780450362e-02,-1.324430598774629410e-03,1.145934601480668802e-03,1.382696758418729306e-02,6.351717114448547363e-01
7.052921896907526911e-02,-5.825297516419247756e-01,6.615616707584942580e-02,-7.169721266680284619e-04,2.039289883040191435e-03,6.360684938300649981e-03,6.509874463081359863e-01
6.783271614291749851e-02,-5.854331872029736594e-01,7.996195146869480852e-02,-1.342847731187042648e-03,2.120239215410798031e-03,3.511884678772925726e-03,6.594565510749816895e-01
8.896186540293460343e-02,-5.744498847387635720e-01,5.683321250414144488e-02,-8.631733134762960280e-03,-7.338939590298137680e-03,8.038615580031130154e-04,6.482437252998352051e-01
8.631543943064137747e-02,-5.548587771778193956e-01,5.399700926835529491e-02,-1.187113782565302894e-02,-7.272643644265162563e-03,2.675483019782138368e-03,6.261230111122131348e-01
8.602730690337490049e-02,-5.638320433910846141e-01,6.028006745994612947e-02,-1.161337430910533430e-02,-7.114929995394745667e-03,1.163097178876923129e-03,6.378154754638671875e-01
7.266786989259760299e-02,-5.229916706367807588e-01,5.673942694223502170e-02,-1.590241468822348181e-02,-1.275249746957831179e-02,4.977077673621769366e-03,5.889795422554016113e-01
4.199741669631759655e-02,-5.854158839684543425e-01,7.993539821066300566e-02,-3.575151053431638998e-02,4.584044651350527994e-03,-4.899874070850188806e-03,6.502761840820312500e-01
6.220146578561400186e-02,-5.735591281404819330e-01,8.644234054356011998e-02,1.982706341717161824e-03,3.299408550254484974e-03,6.301092867343167231e-03,6.483471989631652832e-01
6.584790327828629608e-02,-5.347453626387814740e-01,6.188987541347878985e-02,-1.175445891747912714e-03,-1.594487383075871012e-02,8.830291833142019445e-04,5.992661714553833008e-01
8.449541488670997413e-02,-5.742373824996520604e-01,6.319744611677688417e-02,1.353261005016341860e-03,-1.794189722076110129e-03,1.455195736051993717e-03,6.483628153800964355e-01
6.213669025287768544e-02,-5.689061079775078467e-01,6.330733188256651434e-02,-1.549872996790834434e-03,-3.370371867125481272e-03,-1.523292901633497773e-03,6.316671371459960938e-01
8.808214072504896852e-02,-5.742596797272809805e-01,5.892588297299039546e-02,9.945589198843134571e-04,-1.560057886077156637e-04,-2.256113188307290896e-03,6.482697725296020508e-01
1.069603287200801556e-01,-5.956150237866659758e-01,-1.563867563135434846e-02,-6.755113462159264073e-03,6.074758662483401017e-03,4.162156160388700882e-04,6.501966714859008789e-01
7.015697325985795207e-03,-3.043167659797554325e-01,1.749156718529139287e-02,1.200680528709996246e-02,7.278309122006673161e-03,3.668636852660321634e-02,3.239262402057647705e-01
6.391889004961770482e-02,-5.765791277895603306e-01,8.467556539442600005e-02,1.624659933864933603e-03,7.653708855086318978e-03,2.211658913008509100e-03,6.512768268585205078e-01
6.811123283471914869e-02,-5.836790318674927036e-01,6.687481164596412175e-02,-2.883979483689969644e-03,6.396938190513066927e-04,5.736249300495649753e-03,6.512688398361206055e-01
-1.375600311206800347e-02,-2.005812651964772597e-01,-8.807349983999887555e-03,-8.939156467779084750e-03,2.576923458026755907e-03,7.428937411762699498e-03,1.904676258563995361e-01
2.937564529955229153e-02,-3.203233175177440106e-01,2.941048393778547543e-02,4.378185426074296394e-02,6.221229563298554498e-03,7.748685787480566467e-02,3.823360502719879150e-01
7.340833199792684560e-02,-5.179689338004720423e-01,4.821423571485727866e-02,-2.007908295000184037e-04,1.731335578365407468e-02,-6.411595404071566105e-04,5.799682736396789551e-01
4.981471408472201712e-03,-3.013637040811996126e-01,-3.043802876244158795e-03,1.059711889398548589e-03,1.720467863291602530e-03,7.532345590578623518e-03,3.027139306068420410e-01
6.756490747084015203e-02,-5.621402135537370004e-01,7.503975703321771884e-02,-1.274583853880727549e-03,1.195195227076928726e-02,3.810892105776704421e-03,6.338520050048828125e-01
2.970165437104085870e-02,-3.805539829076357017e-01,2.586369649605443910e-02,3.707839408352846949e-02,1.430937385284752374e-02,3.398057602587346154e-02,4.182733595371246338e-01
6.911467215085420612e-02,-5.841432699938953199e-01,6.673998078237444731e-02,-7.124840191224051473e-04,1.288459515649367543e-04,5.946210691434920120e-03,6.521563529968261719e-01
7.576602143349181473e-02,-5.881289071812709768e-01,7.624680604226968805e-02,4.084763565220995864e-08,2.877529476133985084e-04,6.454501422194140834e-04,6.641365885734558105e-01
7.249905182097049483e-02,-5.861441508857043736e-01,7.596067152219540541e-02,1.069667375439516989e-03,7.584122578206060937e-04,-1.619652563186010810e-04,6.603847742080688477e-01
5.412788786500632998e-02,-5.614628446442129217e-01,9.101231133152884456e-02,3.610424647399190345e-03,1.340796201289250244e-03,-1.447023652524427910e-03,6.348770856857299805e-01
6.027524231271941257e-02,-5.842708408989639723e-01,6.829569846926350496e-02,-3.209967491882224824e-03,-1.793590622772078987e-03,9.285034668028061640e-04,6.486267447471618652e-01
8.819735775674220069e-02,-5.416277397828705986e-01,4.574340052552289260e-02,-4.249610733564498336e-04,9.279166042356174274e-03,2.522720618478066067e-03,6.099355220794677734e-01
6.752031144934328433e-02,-5.851259865013715977e-01,7.612593101090522896e-02,-2.110818404074029427e-03,2.220119138915766584e-04,1.954299688078713852e-03,6.570103764533996582e-01
7.022328355396745270e-02,-5.846378377795206083e-01,6.315387816434431256e-02,-1.250075117199257041e-03,-1.661678640550735050e-03,3.692704951450790328e-03,6.513965725898742676e-01
7.578689155749560036e-02,-5.731737327492549827e-01,7.071752756548882468e-02,3.030798015712419125e-03,7.587718260673405844e-03,3.740240142352358778e-03,6.466282010078430176e-01
7.634284617757536306e-02,-5.881293638498609200e-01,7.567619107758408181e-02,6.487667347940155116e-04,2.859865941640001279e-04,4.080469286926454608e-08,6.641402840614318848e-01
6.857453311565400722e-02,-5.837172076130622278e-01,8.399728244034881941e-02,-1.984821351937809519e-03,-7.037656335251844288e-03,4.227400236521120479e-03,6.603003144264221191e-01
8.153734674483190115e-02,-5.807760146755499564e-01,6.914164873665629152e-02,9.789807870482795851e-04,3.752163068644711642e-03,1.147154907687934202e-03,6.562407016754150391e-01
8.222276161482572343e-02,-5.843144197137364326e-01,7.222772247522180056e-02,-2.560378776217381910e-03,1.966433255471105711e-03,-1.377454697358669686e-03,6.616241931915283203e-01
8.833612133651788656e-02,-5.750412705725072016e-01,5.891668015172329964e-02,-3.829834203162222131e-03,-2.509656805041772694e-03,1.585386569627998893e-03,6.492220759391784668e-01
7.140258938148175138e-02,-5.915666641316652541e-01,5.356681648026304088e-02,1.274522084729956279e-03,1.692525299610762477e-03,1.109564164725492528e-03,6.542468667030334473e-01
8.633320467367119888e-02,-5.734937072822678950e-01,6.064939453401294034e-02,-1.988007929713321489e-03,-1.718571118076246164e-03,-2.117876064248299262e-03,6.473936438560485840e-01
-4.747475641210280317e-03,-6.062346767386039836e-01,1.070782489579839014e-01,-6.575131294110277483e-03,8.306280666801413651e-03,-2.355514358736557779e-03,6.647607684135437012e-01
6.789119204329349677e-02,-5.848943047836130393e-01,7.478471659918103920e-02,-1.477429536578630642e-03,1.879928613452451274e-03,-1.178069909677695705e-03,6.562756299972534180e-01
8.813498845573741747e-02,-5.801329850880417860e-01,6.295162119306457749e-02,-1.796039858678768423e-03,-2.815836360059666057e-03,1.369909044527165042e-03,6.560686826705932617e-01
8.700287806451212358e-02,-5.593499551301082118e-01,5.206681737909837904e-02,-1.204552133873069975e-02,-6.224030281992381890e-03,-1.120954944937480654e-03,6.300529837608337402e-01
8.680937302855276649e-02,-5.600482703759028791e-01,5.471687549077561274e-02,-1.243355253499686328e-02,-7.232669747612274769e-03,-1.793096889312427564e-04,6.319147944450378418e-01
7.555718180988318933e-02,-6.210436677797852578e-01,1.031249602655420761e-01,3.990202917568805990e-02,1.152284926407015214e-01,-1.068270475329808900e-01,7.642393708229064941e-01
7.742874925406972864e-02,-5.938555263671889684e-01,5.942233440960384416e-02,-2.135628344466203050e-03,-9.236623678565585027e-03,-9.709222156453575781e-03,6.628814339637756348e-01
-5.817602352208844918e-02,-3.370623009415196769e-01,6.191574767494947840e-02,1.429743947266681470e-01,-9.623176837334214764e-03,-1.062124314010860424e-02,4.331660270690917969e-01
6.080534802927001214e-02,-5.661304340106082522e-01,6.682102046052154631e-02,1.404886120601119698e-02,2.763037719448137655e-03,-8.196503609978091423e-03,6.306129097938537598e-01
1.290178530898164477e-02,-5.940041629880146168e-01,9.217836237875920435e-02,-4.777385130239912917e-03,-6.145674640863531789e-03,5.167973673186043553e-03,6.503806114196777344e-01
6.158021874348942881e-02,-5.534130887438790669e-01,7.420071083519869104e-02,8.160194763636429219e-03,-1.624214641645011295e-02,-1.089888201065457481e-02,6.224830150604248047e-01
6.496964221199405531e-02,-5.900601139525152306e-01,7.108459944455647328e-02,-6.086651496593802751e-03,3.303965845132555805e-03,4.617333019024574391e-04,6.582183241844177246e-01
7.898781743106281228e-02,-5.915362384749782709e-01,4.557496471810382199e-02,-7.964851211323065389e-04,3.208246471642142977e-03,6.122117885346173814e-03,6.545685529708862305e-01
6.841551897262676540e-02,-5.926629468081436869e-01,5.707671318480969647e-02,-2.741901050417948609e-03,5.807399979482269145e-03,2.088518176294467017e-03,6.555869579315185547e-01
4.626617055496159980e-02,-5.825924429962828777e-01,5.623541995779979263e-02,2.021194879804095925e-03,7.231771499155425879e-03,-2.756884744336267345e-03,6.340534090995788574e-01
5.353653677168826452e-02,-5.995342260809132240e-01,8.291555610211748251e-02,-1.636823638008645665e-02,2.765501635439145383e-03,-8.943410310994472090e-03,6.690424084663391113e-01
-9.659963766464690904e-03,-9.608002325104286756e-01,2.781296890684259449e-01,-1.263975593497441152e-01,2.682339686473424883e-02,-3.488388215765760025e-02,1.146715879440307617e+00
6.463838182032102808e-02,-5.909132282436472261e-01,6.262599879745606168e-02,3.073568779486088895e-04,-1.882306943611011200e-04,-4.806821717473960527e-04,6.545485854148864746e-01
6.813170240515795117e-02,-5.853810828135799227e-01,6.283439238390547965e-02,-2.131414585031357438e-03,3.513630095275824348e-03,-2.878625402350234834e-03,6.509383320808410645e-01
6.574328686348629436e-02,-5.933258239494849651e-01,6.282754999162085130e-02,-8.408781238699350154e-04,2.177172248738513339e-05,-1.049959750610495249e-03,6.576201915740966797e-01
4.850865292172140686e-02,-5.876366508292042434e-01,6.416118062906842057e-02,-3.423506073759475295e-03,4.606409632434250480e-03,1.962835156829519870e-03,6.441999077796936035e-01
6.597189821699189771e-02,-5.779001105574508301e-01,7.309793878413456403e-02,-1.753141477318515386e-03,2.265325547985193571e-03,-3.097716511264832044e-03,6.475057005882263184e-01
8.488909614174483531e-02,-5.963459139324714942e-01,1.706482873578551995e-02,-7.824790140512698569e-03,9.548042946492495131e-03,-2.077203495816294394e-03,6.503438353538513184e-01
7.023952865661986511e-02,-5.852219218611465212e-01,7.739373708239269400e-02,2.891403555276089287e-03,9.618411243810015901e-03,6.897787765186421012e-03,6.594054698944091797e-01
5.077432488364969076e-02,-5.461591852721855433e-01,8.079477722660027839e-02,5.912123054375430188e-04,5.617964744568828932e-03,-3.680634303286582491e-04,6.125742197036743164e-01
7.097289379604826420e-02,-5.838809041959158730e-01,5.065853904677464215e-02,-1.382714945349018849e-03,-1.539771788978573771e-03,5.476576114087561807e-03,6.450163125991821289e-01
9.779948398301230306e-02,-6.001261088959122247e-01,3.827635581673910492e-02,-3.111055019168775231e-04,3.632908527084384182e-03,1.663870009400352998e-02,6.707986593246459961e-01
6.605676334299123709e-02,-5.769494495562538239e-01,8.149599366212098572e-02,7.645424660825230259e-05,1.364405023345808751e-03,-1.932635425065179708e-03,6.508761048316955566e-01
7.255735186332806785e-02,-5.874938075081470590e-01,7.545283571644018084e-02,-5.932677568283344560e-04,1.144457877945618748e-03,1.588428216830140450e-03,6.615131497383117676e-01
6.396122731851930365e-02,-5.788551961040387939e-01,8.435320254289807584e-02,-8.175068589614763984e-05,4.473870672310595667e-03,3.722746227325608292e-03,6.533289551734924316e-01
6.463718280719715770e-02,-5.843919824019793152e-01,6.558077789801225466e-02,-6.889272494045503830e-04,-7.240741113017225110e-04,3.318031596101599871e-03,6.495292186737060547e-01
6.859700484821401600e-02,-5.777311917396084073e-01,8.304046659369765382e-02,9.433844626837762943e-04,8.388264289437875887e-03,3.215256131415086382e-03,6.538568139076232910e-01
5.105259993491512160e-02,-5.891819356851462075e-01,8.261692714916463176e-02,-4.033806625154665038e-03,2.859997762786889506e-04,-5.066112791786118660e-03,6.566819548606872559e-01
6.602244834236725701e-02,-5.824846393797307176e-01,5.027452052525716031e-02,-1.124541336300856256e-03,-3.062234144673847604e-03,1.356810172579601395e-03,6.408075094223022461e-01
8.921111870047740422e-02,-5.389343352386393171e-01,4.313094892458071983e-02,2.388735045921963271e-02,-5.321399957251547221e-04,7.215220628670727075e-03,6.079587936401367188e-01
8.231036524057305792e-02,-5.620653103978074938e-01,6.352235680775455973e-02,-8.045900811786059308e-04,9.543757719420654928e-03,-1.146146707265265031e-03,6.354097723960876465e-01
8.700488920554647065e-02,-5.715348446024910434e-01,6.280647564536651073e-02,2.632225440832415900e-02,-2.505624109639928345e-03,-2.668840676036180175e-03,6.484159827232360840e-01
8.987847113587088543e-02,-5.508112025354433561e-01,5.072770760337041995e-02,-9.573521516495832632e-04,7.904647498869777841e-03,-2.993354795578811751e-03,6.222134828567504883e-01
4.290716633129559865e-02,-5.828112426506804056e-01,5.011859021092132660e-02,2.785419460014711569e-03,-4.940410933804026405e-03,3.558238896322201382e-03,6.294619441032409668e-01
8.068860729700835788e-02,-5.668907260952934513e-01,5.599991617492974805e-02,1.454972691060993925e-03,2.329639339904996612e-03,4.881852255431227820e-04,6.356130838394165039e-01
7.875166618271334240e-02,-5.661308069814922073e-01,6.062738207576803817e-02,1.959645844356026380e-03,-3.950006292609182807e-04,-2.697321559789359318e-03,6.360406279563903809e-01
6.237493261185500515e-02,-4.373443269241482079e-01,2.383055470271006060e-02,5.413269520608610802e-02,-2.945552366315113378e-03,1.396007597856230992e-03,4.906796813011169434e-01
8.689231061341326501e-02,-5.237136119458876138e-01,3.623895472238666815e-02,2.657586082166601277e-02,8.045199982013659032e-03,6.318629394661647199e-03,5.889897346496582031e-01
7.960421245455215344e-02,-5.072611701484586177e-01,3.606536102180404879e-02,1.900437196010000898e-02,-6.797633775354671067e-03,9.313168963143438409e-03,5.676596760749816895e-01
2.742590976856584817e-01,-9.772265849763294154e-01,1.812548391156226790e-02,-4.707135206213078349e-02,5.628927786955600227e-02,-3.698850371922909885e-02,1.153919577598571777e+00
8.363866426636337725e-02,-5.375816934158907934e-01,5.023922166788677424e-02,1.339213694473785979e-02,3.372528785817525705e-03,-1.911219844556595908e-03,6.056938171386718750e-01
9.103857902823053738e-02,-5.676448766957351566e-01,5.615410299865192245e-02,1.817724882112514272e-03,2.180581275030491015e-03,3.421385959754105494e-03,6.419986486434936523e-01
5.526813080980400028e-02,-5.857528608281867832e-01,6.467583630009102191e-02,-4.814343722471800709e-03,6.103154504706649478e-04,-2.572618181857293154e-03,6.458463072776794434e-01
6.615448170018370377e-02,-5.813144034290608220e-01,6.159553041615328794e-02,-1.430839977948833398e-03,-5.226095671095996528e-03,3.804064116699531345e-03,6.453033685684204102e-01
6.313780412134967213e-02,-5.835230052473534545e-01,6.448460948801582049e-02,-4.791377080563802467e-03,-7.440400917116002941e-04,3.616931839263128490e-03,6.474200487136840820e-01
8.105569113887706179e-02,-5.960495834747513433e-01,6.148513419374371236e-02,-2.846341868523589481e-03,-2.061350902835371122e-03,-1.346782581131097598e-02,6.679703593254089355e-01
9.126636778072225176e-02,-5.314654806231265960e-01,4.062961880458124120e-02,3.330117695063293439e-03,-1.951891387235604779e-03,-2.551595776215111102e-03,5.990744233131408691e-01
8.064718151336788821e-02,-5.666288369186268659e-01,5.652504301595775993e-02,1.298745843534264161e-03,-1.719095443869941581e-03,-4.742785202785266239e-03,6.356223821640014648e-01
6.542086862082369114e-02,-5.851426003883060112e-01,8.041749943205273032e-02,2.372771587230009275e-04,4.475696589259817518e-03,7.758722389990006449e-03,6.583728790283203125e-01
7.813962510974212239e-02,-5.676897916845503600e-01,6.119981432166721191e-02,4.018117021797504643e-03,-1.440500548347561254e-04,-1.644722498009019160e-03,6.375727057456970215e-01
9.934546826962667443e-03,-2.255352821332388680e-01,-8.254203653128053264e-03,2.718275822610196485e-02,-2.099383805074544161e-03,3.421827598575566615e-04,2.317849248647689819e-01
6.422188050769581102e-02,-5.837224206093553081e-01,6.682492251322244559e-02,-1.900439573391277950e-04,2.389851910578479717e-04,-4.861838429972975030e-03,6.493045687675476074e-01
6.610415139695766107e-02,-5.851138587199919971e-01,5.929701266039905105e-02,3.709680671229979181e-04,-3.877778544475729821e-04,2.101267792982165750e-04,6.478420495986938477e-01
6.907878906352646342e-02,-5.862825480082941576e-01,7.034081328366015295e-02,-6.744606814421782830e-04,5.273914459235536090e-04,-1.729894108597181861e-03,6.560018062591552734e-01
5.610104610191959940e-02,-5.851551049729211140e-01,5.891549635063189627e-02,-1.288290932299663780e-03,-2.328621723802825304e-03,7.230025221298730159e-04,6.426857709884643555e-01
6.812697287619343123e-02,-5.854223911595235474e-01,6.638967981784735239e-02,1.656152902815373170e-03,2.551789655950018748e-03,-1.730323303509027997e-03,6.527106165885925293e-01
6.373156536492372015e-02,-5.838662646700516490e-01,6.926347355899234448e-02,-2.106654081303871689e-04,-1.119854739879044521e-03,5.588819035363130471e-04,6.503851413726806641e-01
1.069483626284283839e-01,-6.564585256042233530e-01,8.600826461420324476e-03,5.151991076660377561e-03,-2.059072984231626047e-02,2.189811985624318114e-02,7.212303876876831055e-01
4.078965343428397894e-02,-5.880456626603535186e-01,6.543466782165410778e-02,-1.044178541301894953e-04,2.740168547948857152e-03,-2.083965336913571383e-03,6.415407061576843262e-01
7.073082578732434178e-02,-5.791099434761728393e-01,5.202189579105120920e-02,-2.534682951983220894e-03,-3.165539544614069320e-03,-1.674751372519136779e-03,6.407362818717956543e-01
4.655047206420526162e-02,-5.772892320486249229e-01,4.786390234506682217e-02,1.461942363703163761e-04,-1.016031601929174829e-03,6.440883125736994713e-04,6.245009899139404297e-01
5.298849416531148382e-02,-5.803709347603488444e-01,5.344896608714988506e-02,-2.349931692148506893e-03,-4.857839605463340894e-04,-9.631953000237761372e-04,6.336055994033813477e-01
9.217889960825770279e-02,-6.005665409511470321e-01,1.876633056833323931e-02,-2.169949787717838450e-03,-1.198967822724473185e-02,-1.321676154728695582e-02,6.598476171493530273e-01
7.051482722631260969e-02,-5.897023797855809324e-01,4.384474164196089374e-02,-8.719057206329334370e-03,-1.058038045485091595e-02,-2.686968109154545294e-03,6.477465033531188965e-01
5.485219377057290457e-02,-5.968304348280540905e-01,6.799003372791609379e-02,1.089908396994023788e-02,-6.404664153858759083e-03,9.032912935166628743e-03,6.588996648788452148e-01
9.479474028343021219e-02,-6.301666018816793891e-01,-1.818841611196295172e-02,-4.516844336840939583e-02,-7.556262666012139584e-02,-9.262421588880444256e-02,7.109241485595703125e-01
8.187246362257286081e-02,-5.916415620957993227e-01,4.425789608643074247e-02,8.085518411649816536e-03,-4.717495188678657051e-04,1.773557573364183473e-02,6.563859581947326660e-01
1.052471555663757607e-01,-5.979215303462332987e-01,-6.744570842742159122e-04,-2.831212215863851151e-03,4.982452431498494982e-03,1.050126050197188084e-02,6.569734811782836914e-01
3.210776717984634154e-02,-6.139992098730825409e-01,9.224530857921448002e-02,-2.354099106317631036e-03,-9.433625193611050105e-03,1.789539489966120774e-03,6.783946156501770020e-01
1.113855050233251709e-01,-8.417607230249877226e-01,4.564104294635951131e-02,6.274537579546737853e-02,-1.020417447080599893e-01,-1.296952164646778538e-01,9.714201092720031738e-01
8.180692903211833622e-02,-6.062838388670072076e-01,3.223907403149395279e-02,2.421290078283290861e-02,-6.530631664941514980e-02,-3.410323389862965349e-02,6.781307458877563477e-01
1.574793802119031083e-01,-9.500901821176547246e-01,6.031320529327771629e-02,-1.122692028727658581e-01,-1.207612375267242688e-01,-9.309963185647249229e-02,1.111799836158752441e+00
6.104125540558030805e-02,-5.759184075052512508e-01,6.128652196773107241e-02,-1.687433876964089139e-03,-5.499436644750338096e-03,-1.062310136345021548e-03,6.371629238128662109e-01
7.441800627796749112e-02,-5.965716521610703316e-01,7.101930374653381284e-02,-3.117257578455680505e-03,1.507754619935206073e-03,4.102756801527549131e-03,6.693613529205322266e-01
7.264553907757914653e-02,-5.916052134011441366e-01,1.819915025640045370e-02,9.786662022074054182e-03,-1.751603089221397125e-02,7.773025595944737381e-03,6.398565769195556641e-01
6.749694539760203726e-02,-5.884714662138623709e-01,5.220605060471547598e-02,-6.369460368848817340e-03,-2.712602726248215801e-03,4.272700104321664090e-03,6.486112475395202637e-01
7.145490746151836325e-02,-5.825365966181883515e-01,2.919933994021042811e-02,-4.068643508600297770e-04,-5.944075670227302530e-03,3.495010229290959700e-03,6.340337395668029785e-01
3.037376047025608372e-02,-4.897566257099299492e-01,8.267797402833151899e-02,3.755851607009470187e-04,-1.544639679594953440e-03,2.179021214304067977e-02,5.494619011878967285e-01
3.673328153737531743e-02,-5.858765749198268091e-01,7.961078335069080025e-02,1.932179462973509718e-02,-2.245726466134754726e-02,6.607960812514904712e-03,6.472568511962890625e-01
1.031551599325095103e-02,-6.341792337724849737e-01,1.166839242868731863e-01,3.142921466606767716e-02,-1.235366425770893783e-02,-3.449654946758592012e-03,7.061858773231506348e-01
5.524689300524610047e-02,-5.320855017911660934e-01,7.359499009413428272e-02,-5.067236953828035788e-03,-1.072159681794285398e-02,4.939966962446658456e-03,5.971327424049377441e-01
6.890055227636443513e-02,-5.803564212655636378e-01,7.215766343654056447e-02,-3.812586383982217303e-03,5.660259185781250658e-05,-2.486391727337086081e-03,6.509394049644470215e-01
2.963884561754823177e-02,-5.822023987717516169e-01,5.834905680274077300e-02,5.360450646714882928e-04,-6.840444222898661546e-03,1.151763444317054704e-04,6.268025040626525879e-01
6.717195008077264662e-02,-5.938639955267341897e-01,8.314584932866753153e-02,2.777983263275453450e-03,5.440613851480653740e-03,9.895439287360122040e-04,6.692517399787902832e-01
4.847177992942180991e-02,-5.931289275429730834e-01,7.497011268697734154e-02,-5.570289933009424030e-03,-7.569670529428810385e-03,1.711319739854412535e-03,6.554607152938842773e-01
-2.237834738988853100e-02,-6.008703255170136925e-01,1.145433864084447473e-01,-1.032907382381561970e-03,-7.878014458360227401e-03,-9.611299028802242073e-03,6.580844521522521973e-01
1.333866945030862117e-02,-6.195853128455488523e-01,9.769101351727538241e-02,2.634949612938753197e-02,-1.701746542886881444e-02,3.822460745591775566e-03,6.812431216239929199e-01
5.299176206878697393e-02,-5.819740636102548326e-01,5.701457458737824169e-02,-3.604892219595924076e-03,-1.285166488869842524e-03,7.133487650267297244e-04,6.370224356651306152e-01
-2.159602077984423829e-02,-5.885605625867543766e-01,1.000508420174673341e-01,-5.284027859451235175e-03,-1.742752660109764262e-02,-1.019631546121742890e-03,6.373493671417236328e-01
8.523547900857791904e-02,-6.176785790762930883e-01,6.750397670793881200e-02,-1.429865976850819460e-02,-1.783984991033089884e-02,-3.077830324194872139e-02,6.973872184753417969e-01
6.657430541176867500e-02,-5.978396455569198187e-01,6.758069619072948342e-02,-2.936948948166691635e-04,9.595370033820742415e-04,2.897224723025885150e-03,6.649389266967773438e-01
5.862358978282297683e-02,-5.815858274438887587e-01,4.805540809361477650e-02,-3.553372062642264160e-03,-1.579404721972656103e-03,-2.906849836210410789e-03,6.350469589233398438e-01
5.800065141766527765e-02,-5.829641819950455162e-01,5.208832460600729131e-02,-6.259027058960705582e-03,-2.973487577207862154e-03,1.370072775584758266e-03,6.381465196609497070e-01
6.014472453838348720e-02,-5.786810779826951912e-01,3.867581940319014810e-02,-2.616720253623823446e-04,-5.509710510651806559e-03,2.707767470582016743e-04,6.284393072128295898e-01
5.125938421601067274e-02,-5.934170861107003203e-01,6.752644284615824666e-02,-2.419929186335746229e-03,-3.847985413708510972e-03,4.128315646297334683e-03,6.530485749244689941e-01
5.613039903385710905e-02,-5.500027664780489101e-01,8.370544080234926243e-02,-4.681554043980273513e-03,-1.032401224818303015e-02,-2.269954587929974533e-04,6.206912398338317871e-01
4.256980543816246687e-02,-5.883398434346471806e-01,5.778354279764638668e-02,7.221385528192982711e-03,-1.348532939411375281e-02,5.981655758583267167e-03,6.392857432365417480e-01
6.756224429759624672e-02,-6.003744247821215518e-01,6.804860451614028194e-02,5.718012729331102204e-03,-6.629978155468774486e-04,6.022720335396681418e-03,6.683357954025268555e-01
6.302853958482712571e-02,-5.861654250485657247e-01,5.700130517433482646e-02,1.175097449773339613e-03,3.452898244116216642e-03,-9.594853840678901685e-04,6.462344527244567871e-01
7.245143549550792095e-02,-5.838807284910367823e-01,7.523890696108476162e-02,1.573604328345182268e-02,-3.792912175759755554e-03,-5.909139756702064608e-03,6.584071516990661621e-01
5.297753145677450148e-02,-5.863922906164433790e-01,5.440078714062024368e-02,1.924896661268299825e-03,-5.788875282217335405e-04,3.310565032632295859e-03,6.401177644729614258e-01
5.361426848268174838e-02,-5.889571411776834964e-01,5.860895541487337601e-02,-2.325725463935065932e-04,2.076585053281510863e-03,3.972396377115230970e-04,6.450937986373901367e-01
6.379421558873810127e-02,-5.900205572177530389e-01,5.657944061259581603e-02,5.189344299107768316e-03,7.643370550268233795e-06,4.725134256917056072e-04,6.503000259399414062e-01
1.049271718242651974e-01,-6.555332341941266794e-01,1.853759460776968626e-02,1.770844223909967888e-02,-2.217592383546311552e-02,1.388412433733250163e-02,7.232300639152526855e-01
8.895879338531592628e-02,-5.980015119752493113e-01,1.882638651112020223e-02,-4.188310442831836948e-03,3.021710047379734618e-03,1.111201924337540045e-02,6.550613045692443848e-01
1.227677537413577880e-01,-6.037775415136333867e-01,-5.180660708757575672e-02,-1.623049390134239517e-02,-3.326311839274470605e-02,-5.520475392132640630e-02,6.669035553932189941e-01
6.917900897123716031e-02,-4.909701783353218052e-01,4.830978995851803459e-03,-1.344065817189919188e-01,-3.694469685957928878e-02,-9.957596500136235707e-02,6.081936359405517578e-01
1.069250877814507117e-01,-5.870031592867088754e-01,2.470441548423804590e-02,-2.948520241105936218e-02,-6.594325753256218524e-03,-1.085429869753449239e-01,6.850727796554565430e-01
7.329404987987589437e-02,-5.897837184907648300e-01,7.990573875169729168e-02,-1.087191916011445453e-03,-2.032914263904861754e-03,-1.475496974867919215e-03,6.664250493049621582e-01
1.007747842774676106e-01,-5.965654958191839441e-01,5.218113255592293775e-05,-4.681412089705259960e-03,4.229602664770068694e-03,1.067441123898579640e-02,6.531859040260314941e-01
8.066589412953051319e-02,-5.946008014406900521e-01,5.913338801543249756e-02,-2.620816563327892784e-03,3.599227449344147810e-03,2.811425346755095853e-02,6.665877699851989746e-01
7.294226162320574525e-02,-5.700610642732981681e-01,6.886679464154854546e-02,-3.157803774747264952e-02,-9.253666075250823820e-04,3.146471658182729836e-02,6.456109881401062012e-01
9.876909324078925190e-02,-6.188969239240385001e-01,3.527145600437023298e-02,-7.105545776524288537e-02,4.159369319708358659e-02,1.572333291891396664e-03,7.027450203895568848e-01
5.606266911537616249e-02,-5.992156864656933424e-01,6.824089890294660066e-02,1.782389424047582096e-03,1.674746915847984130e-02,-6.426477404865764062e-03,6.621880531311035156e-01
3.840019049590615019e-02,-5.402057471445873560e-01,8.645281764836387772e-02,3.443827524197927252e-03,-7.413870008491615753e-03,9.358250767349619100e-05,6.042333245277404785e-01
8.170552858385693451e-02,-5.916166868824380698e-01,2.742050703312018389e-02,-1.757055844603305902e-03,7.243210989938120119e-03,5.027405766794849386e-03,6.480746865272521973e-01
6.403055079489636259e-02,-5.951614637853738232e-01,7.976740084636871342e-02,-1.714562314530677532e-03,8.719324709977591126e-03,2.894398117864906920e-03,6.673960089683532715e-01
8.278517948945610105e-02,-5.890474676154138223e-01,6.524434063320155852e-02,1.475780608513519625e-03,4.321631309705925225e-03,-6.397857346323729743e-04,6.632843017578125000e-01
7.211451624380196823e-02,-5.732458477420808718e-01,6.566767115412949773e-02,-6.027697929805884459e-03,3.077570742237426861e-03,-3.792714507708774743e-04,6.422685384750366211e-01
8.226396149759088172e-02,-5.786166298621637782e-01,6.158692925583289512e-02,-5.581569004812539023e-03,6.249235603492144832e-03,1.323407764548067619e-03,6.509543061256408691e-01
7.162855652858099442e-02,-5.389884459656051341e-01,5.453040462357991447e-02,-1.472947473257757434e-02,1.221966231900091168e-02,2.228678334272224480e-03,6.031739115715026855e-01
1.199596785793483056e-01,-5.958335100010669905e-01,-3.031484314956234272e-02,1.226856453327513459e-03,7.084132275054197446e-04,7.932189971108248583e-03,6.538895964622497559e-01
1.073692846917978505e-01,-6.085463567687505737e-01,3.181731024827125220e-02,-1.964965801778324056e-02,3.788433600506511262e-02,-1.891951348652488180e-02,6.860702037811279297e-01
1.755607582536165001e-01,-5.816615867516258254e-01,-5.461639498369663670e-02,-9.460956061365882741e-02,-1.448474813524181122e-03,-2.662195682692033993e-01,8.315946459770202637e-01
8.453119257668806341e-02,-5.979810552957738334e-01,4.076522346319072510e-02,-6.936130730458312313e-03,3.815177454745515549e-04,1.697509682639157177e-02,6.624777913093566895e-01
8.127531253751019147e-02,-5.823486084038222987e-01,6.837243396531980655e-02,-6.729719565791629585e-04,-2.566148018716661334e-03,-1.712351122157084122e-03,6.572902202606201172e-01
8.395757052814176169e-02,-5.784722144952840761e-01,6.712918092682590432e-02,-7.293803251880342283e-04,-4.259229845140378480e-03,-1.473897914737593668e-03,6.542257666587829590e-01
8.455809154704757580e-02,-5.589796106024026434e-01,5.701869342157156462e-02,5.130945633922909428e-03,-7.858473303991780901e-03,-4.380897057595059714e-03,6.304747462272644043e-01
9.070391366738178585e-02,-5.664808137634270713e-01,5.701476984669059944e-02,-7.914616857480793371e-04,-4.619538790889207713e-03,-2.453962224011068446e-03,6.410699486732482910e-01
8.352650908958039744e-02,-5.704681114033935962e-01,6.268214875997182856e-02,1.781353815745044707e-03,-1.542788694995759309e-03,8.818345697417617583e-04,6.438403129577636719e-01
3.820565862802607904e-02,-4.453427375037714020e-01,5.418236699732204009e-02,1.071756433340146156e-02,1.305114062087489417e-02,2.365921824297106957e-02,4.943022131919860840e-01
9.264286854790801384e-02,-5.982391046346248187e-01,3.855257108697254798e-02,3.183216529517730008e-03,-4.223856893427816762e-03,-1.330758505605189601e-02,6.659495830535888672e-01
1.145344243112242921e-01,-5.979927853909822177e-01,-1.910612621592633342e-02,2.059572011036762615e-03,-8.333013149569334140e-04,-5.159830684866622413e-03,6.560693383216857910e-01
6.781845590563748138e-02,-5.851350974100999469e-01,3.043452593315465471e-02,-4.266172867670185199e-03,-6.935829706767112843e-03,2.877338649821068600e-03,6.352635025978088379e-01
5.700297038033411146e-02,-5.552564438471370156e-01,8.104188954101937403e-02,-7.545429593181870141e-03,8.907131833648532573e-03,1.145199297810586912e-03,6.249561905860900879e-01
4.990798880218974554e-02,-5.782119508407030928e-01,4.343271279226421089e-02,-1.331326645139771546e-03,-6.134657934256742239e-03,7.861614774089128142e-04,6.250035166740417480e-01
7.611997993777236404e-03,-3.481422896576981119e-01,2.480257128126284183e-02,-4.457556066076190523e-04,1.024432224804023434e-02,3.415557547525425314e-02,3.698479235172271729e-01
3.774597667505635856e-02,-4.429885496615532103e-01,5.443841774892854701e-02,1.077756509958107886e-02,1.262294150944371501e-02,2.794674649402204350e-02,4.925225973129272461e-01
6.090844598972247614e-02,-5.398264145998448171e-01,6.684594277320357603e-02,-1.630389379685130702e-02,1.333010967242535816e-02,-3.485834254876471212e-03,6.048565506935119629e-01
2.979767945070549429e-02,-3.904475936299285910e-01,3.415921854640471822e-02,2.585572074374453688e-02,1.629551112187302767e-02,1.716912110359972155e-02,4.267839491367340088e-01
6.991809811156399213e-02,-5.178291786213133907e-01,5.002025944919008538e-02,-1.049285723682829219e-03,1.607981783142472740e-02,-3.349801955659643233e-04,5.787289738655090332e-01
6.586242913182985270e-02,-5.884184711288198422e-01,7.211588063005788807e-02,-3.077465599021265031e-03,-1.373923405274620271e-03,-1.220863307560724918e-03,6.574592590332031250e-01
6.820521072929228157e-02,-5.946102513257064404e-01,7.291122229582375214e-02,-8.720341247966072531e-03,-1.393493618627998426e-03,7.890457896672673638e-03,6.654971241950988770e-01
7.695191491604230771e-02,-5.885353122363088385e-01,7.078745458473062468e-02,-1.361216954974951883e-02,-7.165613867981025960e-03,-4.921723537879505936e-03,6.630169153213500977e-01
4.722378669076895963e-02,-5.784343252419478221e-01,4.874313325141016451e-02,-2.463381609427860337e-03,-3.559928255763684067e-03,-1.966823855339876811e-04,6.264641284942626953e-01
5.787064173899197916e-02,-5.885992606156064122e-01,6.384071157226747784e-02,4.305534428836940535e-03,5.086667341562813201e-03,-6.639703631619659624e-03,6.496798992156982422e-01
1.377529527258858355e-01,-6.064197044861479036e-01,-5.485291018966871601e-02,9.225847733012437768e-03,-2.333132971856517746e-02,7.291948827588226600e-02,6.822009086608886719e-01
5.350531411695316764e-02,-5.892921411471150339e-01,7.294194717514465576e-02,2.866089040653503617e-03,3.146825662467976105e-03,-9.412772105337328943e-03,6.529780626296997070e-01
3.764457066728260637e-02,-5.883662797934156030e-01,7.681223320597399540e-02,-1.671597013436353085e-03,1.361518467533959914e-02,-4.274315078906353559e-03,6.469639539718627930e-01
4.963514315068451310e-02,-5.794922502812601683e-01,4.460247839965789107e-02,1.183042143061727863e-03,-3.257561971758265399e-03,7.894249161646716296e-04,6.266564726829528809e-01
8.118896499195374372e-02,-5.778438132113974390e-01,6.529556289378887768e-02,-2.432230837144790797e-02,-1.262415772412171268e-02,2.606264342627085621e-03,6.529745459556579590e-01
7.165935776185894390e-02,-5.797021694998628627e-01,7.187187195097166637e-02,-1.181407173832831059e-02,1.062540214747785539e-02,-9.144008506420255034e-03,6.522411704063415527e-01
7.711117738746967043e-02,-5.862396705773117445e-01,6.632967318113169863e-02,-1.097769107440382808e-02,5.551310787943210950e-03,-1.381386296770493148e-02,6.588058471679687500e-01
5.646329880716144389e-02,-5.821753644645462078e-01,4.008524996747314662e-02,-4.704285605891203419e-03,-5.261674459696014799e-03,4.781630171523181222e-04,6.307281851768493652e-01
5.663473044834674286e-02,-5.801236049078405399e-01,5.069412857396671246e-02,4.220596890361895067e-04,-1.395940510435012211e-03,-1.562878746681766731e-03,6.338196992874145508e-01
6.537842041721952935e-02,-5.833743013759302709e-01,7.386494671228444053e-02,-1.051231554757036443e-03,3.346545535745682875e-03,2.691745697412036595e-04,6.530658006668090820e-01
6.843074661838285944e-02,-5.934799567120270236e-01,7.790007270321352983e-02,-9.155506311129033015e-03,-1.125512345721793594e-02,-4.252868131101301269e-02,6.712234020233154297e-01
7.138081481096075764e-02,-5.486178675105558566e-01,6.228207660613538366e-02,-1.268899897558231800e-02,1.635575846020707186e-02,6.252966909820585617e-02,6.259835362434387207e-01
7.223396397831677307e-02,-5.872323411477911037e-01,8.281305652059278710e-02,-1.147503728745445086e-03,-2.096997509090708142e-03,1.847363561813748821e-03,6.648395657539367676e-01
7.810992718848977501e-02,-5.673718128018692131e-01,6.420053513954990243e-02,-3.263705118302287662e-03,-7.601459738898162788e-03,3.781264923494391961e-03,6.388349533081054688e-01
8.735603903066080367e-02,-5.793614684546675164e-01,6.255936631672970316e-02,-2.570677065171197810e-03,-3.776576929548994439e-03,1.051228190717420994e-03,6.547217965126037598e-01
6.955100090100352350e-02,-5.880020643232374278e-01,7.062392363730671252e-02,3.487492103954902001e-03,-1.933357339364163529e-04,-1.812526730261785355e-03,6.581254601478576660e-01
8.229076359602677249e-02,-5.740628152434255060e-01,6.600288979735485784e-02,-4.349441028982743186e-03,-8.355888416465307236e-03,-3.818621519809846116e-04,6.485686898231506348e-01
5.390664627809177434e-02,-5.824802044294159487e-01,4.517202234223821611e-02,3.809585708108874803e-03,-6.976445528538261290e-03,6.337192914176271361e-06,6.322147250175476074e-01
8.453819136990428640e-02,-5.410603082535820896e-01,4.539711406854862741e-02,-1.113628883923737560e-03,-1.053031603238027691e-02,-1.289751675532330383e-03,6.072563529014587402e-01
-2.606325951526806961e-02,-4.179233733193283284e-01,1.575359081210523371e-01,1.664418959064765113e-01,3.216608457047452629e-02,-4.785816832083596845e-02,5.935419797897338867e-01
4.858779883352873363e-02,-5.877567695104436440e-01,5.901214247054137330e-02,3.197122775395263780e-03,-7.418583318044960455e-03,5.777516682521986746e-03,6.418508291244506836e-01
7.763714414488159798e-02,-5.572730849487042004e-01,6.213725195631236708e-02,-1.731053436574230518e-03,-1.235045051222210567e-02,5.836318839541623999e-04,6.276765465736389160e-01
9.371045823008683495e-02,-5.592956030162008485e-01,5.099787764296162540e-02,3.081936284225703700e-03,1.261971412146969517e-03,-2.567499161581437788e-04,6.327583789825439453e-01
8.857062788370059780e-02,-5.416562158270499250e-01,4.924188810452909126e-02,2.786823817084155665e-04,-4.659848270908604866e-03,4.496773209965264085e-05,6.115651726722717285e-01
3.813215061876515377e-02,-5.893761697511853415e-01,6.341081401240464266e-02,2.013295190354748038e-03,-1.678462398901579486e-02,5.085078175541352975e-03,6.412512660026550293e-01
1.017186632948240965e-01,-5.956468295974086669e-01,-1.481929709226975644e-03,-4.792218160536174630e-03,-5.677665232383059118e-03,1.249686730701482507e-02,6.524067521095275879e-01
3.422081767862622526e-02,-5.858324052088379474e-01,6.054542831861425833e-02,-1.220448617108845207e-03,-8.722164469898421521e-03,4.868819633161125884e-03,6.338654756546020508e-01
7.925044568512210064e-02,-5.948383969296289209e-01,3.486879472730056162e-02,-9.899243510711771762e-03,7.328450870231284844e-03,-4.500829884319140946e-04,6.533789634704589844e-01
4.132709526672889710e-02,-5.860722064877950110e-01,5.874462058007456911e-02,7.646930413448596239e-03,-1.320777720167757609e-02,5.134491599344330817e-03,6.368978619575500488e-01
1.163451285814069980e-01,-5.926387199743181622e-01,-3.659982002011297197e-02,-1.449948755244987158e-03,-6.319949963186008435e-03,-5.913662410245812233e-03,6.464099287986755371e-01
2.058772840544426108e-01,-6.952890084829600470e-01,-4.048384929313381120e-02,-3.226703057615844944e-02,1.585935110552296606e-02,-1.010057820559282504e-01,8.278083801269531250e-01
7.960526059201677995e-02,-5.828564721749212030e-01,7.221304345760720667e-02,1.927658817883614413e-03,-7.522805751784739960e-03,-3.756561028062031706e-03,6.589661836624145508e-01
7.536616908568438689e-02,-5.956956043288699210e-01,6.248753134224133143e-02,-4.709354319112544346e-03,-1.208740822128752694e-04,-1.256019647613568213e-02,6.651219725608825684e-01
8.195430894957361767e-02,-5.868368241281300968e-01,1.605489957456129879e-02,-3.508568318783285896e-03,9.224238449039067270e-03,-3.270093996466716174e-04,6.386265754699707031e-01
8.435047484869473422e-02,-5.826475743759986781e-01,6.776646291786300735e-02,4.223374985689614357e-03,-7.131364718638307995e-03,-1.658903044489198550e-03,6.590252518653869629e-01
7.516966941268901636e-02,-5.821541098377247536e-01,7.432350809036686323e-02,2.094063801693601381e-04,-1.194490873236939013e-03,2.453188745390302419e-05,6.569044589996337891e-01
7.546659685286849495e-02,-5.821617139071015856e-01,7.426118861677566407e-02,-2.569707844561804348e-04,-4.537963004918010336e-03,6.493380971298357593e-05,6.570736169815063477e-01
1.091552751769526708e-01,-6.010625249705789930e-01,-1.518563789362778471e-02,-8.947959393443472367e-03,6.348214752108152260e-03,-5.467456798075090701e-04,6.572083830833435059e-01
7.818173634601199851e-02,-5.822895427594778628e-01,7.152411288917417953e-02,-7.259942571881189887e-04,-8.080028683335458480e-04,-1.168521325854893472e-03,6.571735739707946777e-01
7.957040464271170066e-02,-5.858059124174459509e-01,6.997711656847938055e-02,2.049499186384593722e-03,-5.182983130462861382e-03,-2.304445959690932643e-03,6.607145071029663086e-01
5.344696955640793057e-02,-5.886180019567206489e-01,6.730951137197532796e-02,-5.053610556753584254e-03,1.475851439475767829e-02,-4.063807008629145151e-03,6.497074961662292480e-01
7.900906518925449040e-02,-5.944674303777623958e-01,5.716147226500098433e-02,-2.369517423334882925e-02,1.614749561366467375e-04,1.536575039051043742e-02,6.646253466606140137e-01
4.595026933424206650e-02,-6.480368747877720548e-01,9.247860141369362852e-02,-3.740853448998363810e-03,4.792691546467087865e-02,-1.075311919024897131e-02,7.234313488006591797e-01
6.970034588345330739e-02,-5.949513553271292832e-01,7.072121226308908382e-02,5.175371003073209880e-03,1.203051168480289953e-03,-1.892004138826346550e-03,6.652344465255737305e-01
6.544530716934923720e-02,-6.577092798098891357e-01,4.507162449532958748e-02,-1.183731097821248690e-02,7.625657164559657142e-02,-1.776825336268178165e-02,7.262554764747619629e-01
7.068402055160730169e-02,-5.816557145272092111e-01,1.454075821593431295e-02,4.729381285200205849e-03,-8.915857482295157926e-03,2.393922271239315881e-03,6.264163851737976074e-01
8.017286195499159773e-02,-4.374275526161223171e-01,4.904494774072620800e-03,-8.191389897503878470e-02,-5.714287787273157615e-02,-1.511828037200619312e-01,5.771576166152954102e-01
6.791398626959488372e-03,-5.860222265230410343e-01,7.167551249694389948e-02,2.135429100259497639e-03,-1.650779093666182584e-02,2.670817900003869851e-03,6.284542679786682129e-01
6.487757720244499704e-02,-4.943653437818766316e-01,1.511075542298531693e-02,-1.118650996648223317e-01,8.063972454548971880e-02,7.422116219254522307e-02,6.008108258247375488e-01
1.556646790228033428e-01,-6.930184224642192969e-01,-3.658508750961075862e-04,-3.743720343382095361e-02,8.037034275049977083e-02,1.739761001566287046e-01,8.523930311203002930e-01
1.229258118590359494e-01,-6.195447361118457952e-01,-1.432630753298946846e-02,-5.144925757133747557e-02,5.507797786371203957e-02,6.303671968986586382e-02,7.050940990447998047e-01
7.580925821896378203e-02,-5.505168104761649639e-01,7.045857710055747347e-02,-1.158233709680231843e-01,1.127245536952933280e-01,3.476327605706992785e-02,6.862599849700927734e-01
4.789008609938208427e-02,-5.770899067745534072e-01,4.455466838749175262e-02,1.652550781538493670e-03,-2.754690345878408556e-03,4.468991123694625626e-05,6.233438253402709961e-01
4.969563476874688801e-03,-5.977287971455270688e-01,9.250821711935136582e-02,-5.215335635876450215e-03,-7.440714173110932021e-03,-4.638203999720159551e-03,6.511374115943908691e-01
5.022706081467720463e-02,-7.598162371364640677e-01,1.078808493533566781e-01,-8.593092061562665473e-02,8.290583862995003217e-02,7.747940131334961344e-02,8.757727146148681641e-01
5.982727092795522839e-02,-5.726697931632678262e-01,8.774767871292343813e-02,-2.405630142902900632e-03,-3.159707627460703501e-03,-3.120255586453485222e-04,6.469461321830749512e-01
6.117483988061855893e-02,-5.657443083372419856e-01,7.323960237953044961e-02,-3.370030643882642070e-03,-2.984778332092195320e-03,4.108740322292811845e-03,6.331257820129394531e-01
5.590471235629346225e-02,-5.674201779230969578e-01,9.163391763756351116e-02,1.811200239458498175e-03,6.277628613563752263e-03,5.335734826109197505e-03,6.421019434928894043e-01
5.929912149424504397e-02,-5.678894940733451024e-01,8.932765295731107114e-02,1.295866411726424123e-03,9.459452387042455515e-03,6.408531827256288074e-03,6.430377364158630371e-01
5.794580283919020802e-02,-5.686915335670772453e-01,8.898790542196985398e-02,-3.839290529395666604e-04,1.225043945211759869e-03,-5.897137787519280252e-04,6.427255272865295410e-01
5.545536063330730459e-02,-5.825161154877112057e-01,4.036634453056958671e-02,3.749419035333331676e-04,-3.128036836333884362e-03,-1.227844176594810460e-03,6.305896043777465820e-01
5.168414667767456949e-02,-5.609456850943579376e-01,9.381269190730492924e-02,-1.004949343392443106e-04,3.730974319062912124e-03,-4.700141992750562982e-04,6.347769498825073242e-01
8.307617358866345447e-02,-5.906210314266543415e-01,2.731521938983283437e-02,-2.632432918115824774e-03,7.094317654886259095e-03,9.396103309899008632e-03,6.479566693305969238e-01
2.859373812487941979e-02,-5.833879293506656349e-01,5.634449858907444875e-02,6.542591135985277454e-04,-1.424447619655984029e-02,1.944320079268032058e-03,6.268141269683837891e-01
7.252628323283158429e-02,-6.021535851093287040e-01,7.291915906289861415e-02,1.365231867683883897e-03,4.228983181047958162e-04,-1.695526773562165321e-04,6.748809814453125000e-01
-2.066559984545357498e-03,-2.647013101224520160e-01,-7.287105304155716556e-03,2.352608953803602201e-02,3.113669326313410111e-04,7.937897275633666247e-03,2.635961472988128662e-01
6.899762456041552694e-02,-5.773573122552597692e-01,8.190081503916277206e-02,1.990456144978663012e-03,-5.544063700640139772e-03,-4.530689748603416306e-03,6.530290246009826660e-01
1.979140198157119945e-03,-2.236729080675642911e-01,-1.430495660698383187e-02,9.266420573507838654e-02,3.956136100146624354e-03,7.869161322484465731e-03,2.711128294467926025e-01
2.602658714485137081e-02,-3.398930465409324420e-01,1.422210930261690043e-02,3.865565350403941253e-02,1.423708990878547360e-02,5.131684198558905674e-02,3.777673244476318359e-01
-6.937605555227863152e-03,-2.309960274090057941e-01,5.223722731950458664e-03,-1.576049928169058478e-03,5.992374057799309574e-03,-1.115893062294305918e-02,2.314382493495941162e-01
4.618865367037622294e-03,-3.142754224246752104e-01,3.947828321113316941e-03,1.013205001963501180e-04,-7.874286690610264594e-03,-2.388339326328465378e-02,3.215234279632568359e-01
2.438299089558407240e-02,-3.264988841752414217e-01,-2.912422698051794767e-03,2.857187265384930619e-02,4.526096072012643530e-03,5.049111757866709717e-03,3.418664336204528809e-01
5.729814417673262383e-02,-5.843489970582387283e-01,6.926828247692032314e-02,-4.975578447905634923e-03,8.930727181091247533e-04,-3.387181736546282691e-03,6.478009223937988281e-01
5.044423606280792893e-02,-3.490703143694029453e-01,9.753797204108821672e-03,5.800188066865109848e-02,9.117825613941548182e-03,7.221761600533241343e-03,3.943471610546112061e-01
2.402643264214798791e-02,-3.448540367310543031e-01,5.115674495061783844e-03,3.244718841842297863e-02,-6.191841581987349817e-03,-2.381127366612295973e-02,3.666456341743469238e-01
-6.713837154039276056e-02,-4.811957593457644733e-01,1.920734233495784982e-01,7.775526924023717923e-02,7.281738557902229028e-03,-9.115287898528247335e-02,6.238477826118469238e-01
4.546612729842108847e-02,-6.204406482471962470e-01,1.128267035277734642e-01,9.926654290975697736e-02,-8.033305324555317650e-03,1.859686205293708747e-02,7.236143946647644043e-01
2.254661248902159465e-02,-6.872877056079506053e-01,1.526734146705209239e-01,5.412248032097816824e-02,-9.292522988454243044e-03,-2.194303152950754371e-02,7.897198796272277832e-01
2.049290419125809892e-02,-6.468808645373114175e-01,1.180818244002443396e-01,5.957662367336904324e-02,-2.075639486967313652e-02,-1.311340519964758651e-02,7.297233343124389648e-01
7.799675719391244155e-02,-5.967310586484382284e-01,4.203588219700096773e-02,-7.079059948909869476e-03,4.888884333197398083e-03,-4.595844383468229363e-03,6.577023863792419434e-01
5.819713282787550290e-02,-5.877464212426872781e-01,5.902371367610015351e-02,-1.517062707392100853e-03,7.487483524338996339e-03,-5.151144116537023816e-03,6.465542316436767578e-01
8.401416555025950639e-02,-5.804159295678814612e-01,6.220239097639945758e-02,3.446457728229587736e-02,-1.110808828058155139e-02,-4.022150484064988818e-02,6.604828834533691406e-01
6.458018846445157113e-02,-5.903921768712523388e-01,5.206220015843410209e-02,-5.681759631047549053e-03,3.370910421290552756e-03,-1.539367944600043402e-03,6.489103436470031738e-01
3.171503476473225280e-02,-5.599721748539285837e-01,1.045983699949737389e-01,5.204132674177862350e-02,-3.158769314171936803e-03,-2.508675865824500084e-02,6.391969323158264160e-01
7.715072172590564659e-02,-5.905375843639810718e-01,4.114299700091289536e-02,-3.663835600521374216e-03,4.864738003617059305e-03,-5.832202466170621942e-03,6.505963206291198730e-01
3.175534747919786516e-02,-5.987162045836665891e-01,5.954644750231863348e-02,-4.328400871226654664e-03,4.792923879846242019e-02,-1.830855065364003645e-03,6.501892805099487305e-01
1.506518001006862395e-02,-5.968136632272850184e-01,9.207271229775793042e-02,1.224416582898613581e-04,3.766851695024123203e-02,-1.723753843273610623e-03,6.570470929145812988e-01
5.905579749924558253e-02,-5.868893664921706055e-01,4.645211091036458018e-02,-2.800272535884306031e-03,5.319560841215565175e-03,1.609139579741257486e-03,6.398272514343261719e-01
7.681564164187762445e-02,-5.887872877177102726e-01,2.245937377352341668e-02,3.142511643766689004e-03,-8.947804773322553737e-03,7.653803021109413518e-03,6.405058503150939941e-01
2.251933637354361362e-02,-4.494858665943642917e-01,5.652534509885698277e-02,1.780236353383567996e-03,-1.170829172910652083e-02,2.491696031736542923e-03,4.903424382209777832e-01
6.212924977053518871e-02,-5.879805237627062642e-01,5.122168109768934774e-02,-5.685115133180123313e-03,6.787589211972135279e-03,3.332587472876937830e-03,6.449334025382995605e-01
5.489035679698639481e-02,-5.918288260950883561e-01,6.605320776721052001e-02,9.768246997415084946e-04,1.296086875911663105e-02,-9.994403111188170010e-04,6.527628898620605469e-01
5.220672330395409455e-02,-4.812107758509651667e-01,4.533914090304530520e-02,-3.895528419864462827e-02,4.266980130496680380e-03,-9.780074406259463282e-02,5.605534911155700684e-01
4.714848273937993772e-02,-5.848582829639294989e-01,5.684374517323967368e-02,-3.032330100573348767e-04,6.601119647446542470e-03,-2.343744807462072501e-03,6.370255351066589355e-01
4.878714100371064899e-02,-5.559222869699556036e-01,9.163664345457248062e-02,-7.778510812924739224e-04,6.340861597825430589e-04,-2.714496998924740417e-02,6.289949417114257812e-01
3.725619960607143288e-02,-4.511777913564951059e-01,4.803542548797065659e-02,6.538937674053711376e-04,-1.624271755304406914e-02,-1.806569753463994552e-02,4.957022964954376221e-01
5.767432573651126715e-02,-5.774375851731289311e-01,8.540235815876620618e-02,-1.567963089474310682e-03,2.264526912229163514e-03,1.009951876050778179e-03,6.494399309158325195e-01
4.126735663364053397e-02,-4.892577521802674023e-01,7.523124097802241783e-02,-1.962700889999120790e-03,-2.829731886854809251e-04,-2.841719882207062106e-02,5.505120754241943359e-01
-2.039730870835279597e-02,-6.117714182948135182e-01,1.070697825899725730e-01,3.345560538940027615e-03,-3.840865615571231739e-02,2.850508972323302463e-03,6.677091717720031738e-01
5.464930030583206588e-02,-5.716758643701811415e-01,9.311287975158463737e-02,-2.193707127596398326e-03,6.321962739540026204e-04,1.714274413072596533e-03,6.464347243309020996e-01
7.217574765308423790e-02,-5.937880774306361076e-01,6.301076540003083815e-02,-6.738031496374272643e-03,-1.646818899431929956e-03,-1.356385598784385846e-02,6.619551181793212891e-01
3.592112713470835272e-02,-4.853661406366145958e-01,7.109108344618494946e-02,6.949561341233253392e-04,-7.001489600716671348e-03,-2.778407530702856759e-02,5.420104861259460449e-01
6.207943410855712441e-02,-5.780832970683082994e-01,8.914364993360518463e-02,-9.159930071562616231e-04,2.317325084174317543e-03,1.032065337796808516e-03,6.541315913200378418e-01
8.434996513236947546e-02,-6.003089354999554539e-01,2.584252353254876122e-02,6.307854893204030162e-04,4.212011359485515888e-03,-1.465900249982245163e-02,6.578923463821411133e-01
1.349349313264667227e-01,-6.154728849643882338e-01,-2.993735757295670763e-02,5.663800290559825633e-04,-1.491563203288864652e-02,5.715046631119429649e-02,6.906809806823730469e-01
6.669405737626094011e-02,-5.950484817870724807e-01,5.880133096282258442e-02,8.836108054308315727e-04,-8.504902653029342138e-04,2.454020205541816539e-03,6.578488349914550781e-01
7.662225129384223066e-02,-5.981236410680186300e-01,5.338302319455864864e-02,2.596607845616766188e-03,-1.628382382600302618e-03,-5.486923972207377424e-03,6.635209321975708008e-01
5.689258211804379406e-02,-5.795751110480888979e-01,9.129162173540120162e-02,-1.138140453624850949e-03,1.247918137677968622e-03,-4.160476302634876986e-03,6.543919444084167480e-01
7.358087637673338399e-02,-5.364087143783984324e-01,3.979904008093260170e-02,3.380275246131639322e-02,-1.152559871649544258e-02,8.446964456039866842e-02,6.146980524063110352e-01
6.720046453081479632e-02,-5.953132449703519846e-01,6.910111159157436567e-02,1.871376274683319825e-03,9.431377420659986348e-04,-1.283369014733167293e-03,6.634797453880310059e-01
7.017161864519258496e-02,-4.919666409581179845e-01,4.280031599269693010e-02,-1.739544484155487389e-03,1.505194360172241834e-02,1.664569221866679660e-02,5.503473281860351562e-01
7.151719812522885911e-02,-5.831032128178739171e-01,7.698842286367166277e-02,-4.390262615264616206e-06,4.967578886251781218e-04,-1.476121053551117477e-03,6.573786139488220215e-01
1.294975761788085267e-01,-6.701919295671737720e-01,3.498073882850019634e-02,-7.179199589069490926e-03,-1.036742741416758068e-02,6.686392764237003572e-02,7.659909129142761230e-01
4.564031349646491265e-02,-5.216546609565615444e-01,6.684910548779024464e-02,5.427678932476308858e-03,1.226661277103901354e-02,1.875783654237070993e-03,5.786669254302978516e-01
5.481365444059849157e-02,-5.833882161063943528e-01,4.856605694450605304e-02,2.937002631700408751e-03,-5.434888364563885939e-04,3.428826098007931142e-04,6.351224780082702637e-01
1.232662079170743774e-01,-5.937029751836311320e-01,-1.634226430537066843e-03,-1.064266559883929666e-02,-1.367042333345766872e-02,4.054669372023507468e-02,6.677781939506530762e-01
8.405611704512308546e-02,-6.024705260946778829e-01,6.379098067488581103e-02,1.102904382769877116e-02,1.784955441082065539e-02,-2.738361914900539623e-02,6.792549490928649902e-01
8.592588739378553830e-02,-6.517828199291956226e-01,3.347877955549163898e-02,-7.965184841922639397e-03,-6.101889247367247443e-02,-1.255932021695031764e-02,7.211848497390747070e-01
5.997599387750476851e-02,-5.857125291539502232e-01,4.669817004039969466e-02,5.364429989102741103e-03,-3.493772306868627754e-03,8.130946306767593973e-04,6.392507553100585938e-01
6.777002177209309752e-02,-5.922030523462085139e-01,4.614786001711956853e-02,7.053188883734425214e-03,-7.595156214281647265e-05,-5.388710755592534185e-04,6.495475769042968750e-01
7.735030678730117626e-02,-5.311769400805654850e-01,5.747850915825036822e-02,1.371940189878568042e-02,1.352382781151148516e-02,3.673617252001040809e-03,5.998013019561767578e-01
7.717319829449528767e-02,-5.923876534715160069e-01,2.130713272932829860e-02,1.037449311816423733e-02,-2.730458497338629498e-02,8.083193820622322501e-03,6.455869674682617188e-01
6.816362955440480320e-02,-5.897368565277514296e-01,7.511957841647379230e-02,-2.171514288003422149e-03,-3.895723604571853975e-04,-8.709844042933798016e-04,6.614186763763427734e-01
1.177903847424530692e-01,-7.853415066841664682e-01,4.275107898778202076e-02,9.375568106549560243e-02,1.245296511004120865e-01,-5.036412870852624568e-02,9.132418036460876465e-01
-2.453909759318011197e-02,-3.633614723983251693e-01,1.325423632475935531e-01,1.452986633197509703e-01,4.542147299092731683e-02,-1.194242054843814987e-01,5.522759556770324707e-01
6.100200205769359951e-02,-5.906240858216984524e-01,5.146279827584149258e-02,-9.143663265322371503e-03,2.247748155805811068e-02,6.223689094992930319e-03,6.483627557754516602e-01
7.863964725367517117e-02,-6.414804648543057652e-01,3.370350131395286053e-02,-2.783788607458470392e-03,5.740899898877378782e-02,-4.474581700371930634e-03,7.058353424072265625e-01
6.985735120631822448e-02,-5.895830949126936726e-01,6.714327441997142154e-02,1.445474248488970046e-03,3.237974669565042100e-03,-1.112220011187883655e-03,6.581190824508666992e-01
3.616769751836568236e-02,-6.391389858042613170e-01,4.558969128249662495e-02,5.751329783185346774e-03,9.219124286335847462e-02,-1.347032448279817177e-02,6.990221142768859863e-01
8.153329357551813983e-02,-5.441321260131595228e-01,5.642100381378190033e-02,1.981358397043759059e-02,-8.322624459417247988e-03,-1.242326308928941823e-02,6.149995923042297363e-01
6.845796479795107636e-02,-6.000891013698108623e-01,6.873012850451667988e-02,1.274263399175738602e-02,7.295216363403415200e-03,-3.044476808920228844e-02,6.712411046028137207e-01
-1.387077605308136008e-02,-3.458673557466827586e-01,5.398780770123440265e-02,1.494487506350593020e-01,1.969614010533897452e-02,-1.731933449673484643e-02,4.543388783931732178e-01
-3.479130503977473365e-02,-3.402976547664105511e-01,5.039398753304180634e-02,1.897966568181494729e-01,-2.165038577666113934e-02,8.033180809083285967e-02,5.054200887680053711e-01
5.691084544072977369e-02,-5.378938136156720118e-01,6.450317612827261016e-02,4.752610317186645172e-02,-4.085116399403137914e-03,4.670949093822812127e-03,6.043657064437866211e-01
1.248631771395020129e-01,-7.330801884806705804e-01,9.486447481071236254e-02,5.002700932169673598e-02,1.365366507662480744e-01,-1.771494511134872052e-01,9.320998787879943848e-01
7.088207692242973201e-02,-5.902676197053877694e-01,6.868465908565352107e-02,-9.958590977150042541e-04,2.050628525766855161e-04,-2.831478863070599483e-03,6.600742936134338379e-01
7.383911602691087261e-02,-5.934568804745117276e-01,5.194022922312477308e-02,-4.143779967300731913e-03,1.580464100007218610e-03,5.338109475970487586e-03,6.567305326461791992e-01
8.220393452997751260e-02,-5.737145381486858930e-01,6.428957376935665047e-02,2.178380875821321009e-03,1.468307085422217119e-03,8.268005673315424612e-04,6.471648812294006348e-01
6.465643088748979084e-02,-5.916455700415015340e-01,7.027186246590186314e-02,-5.578557339315852806e-03,2.102042720595251150e-03,-2.372893095907162905e-03,6.592213511466979980e-01
6.185768521048873314e-02,-5.590539711768144349e-01,7.689591339290763328e-02,7.935251305437295011e-02,-8.482081980820178370e-05,-1.158976247176951926e-02,6.437299847602844238e-01
2.813524501022371394e-02,-5.309358054143299421e-01,6.707318533025077856e-02,4.860294426843854432e-02,-1.944664852511029940e-02,5.614130384308827111e-03,5.866527557373046875e-01
5.470833107102074377e-02,-5.919956363044075465e-01,8.600285196620638395e-02,4.836486202455336086e-02,-6.609026508309329140e-03,-6.694516983219878092e-03,6.683760881423950195e-01
7.402392666785526099e-02,-5.068506503764076410e-01,4.020794463179894196e-02,5.745700912911413244e-02,1.228778599828838150e-02,2.201549366101016036e-02,5.750886201858520508e-01
9.829772600388420045e-03,-6.179703446486287666e-01,1.004890454649109977e-01,8.990103601987263146e-03,-2.187098261854152070e-02,-4.934443985508157014e-03,6.789834499359130859e-01
5.721013138245173435e-02,-4.579004856485116570e-01,4.128704333617660982e-02,1.901494154003956910e-02,1.791188715748368368e-02,5.802810229299866680e-03,5.094493031501770020e-01
7.196191286599754044e-02,-5.646505130429083641e-01,6.646664581854686005e-02,-2.780988957368159611e-02,3.095619957049141301e-03,-7.232851942397645374e-03,6.358562111854553223e-01
7.687214495986965934e-02,-5.957734393073229606e-01,6.203075075649186476e-02,-6.793247785170271336e-03,3.987147966060885119e-05,-1.343124082231973888e-02,6.658595800399780273e-01
5.738872830203495257e-02,-5.258744169758788889e-01,6.706935184421294882e-02,1.253799990434505303e-02,4.512537900045711196e-03,-1.234754311850679411e-03,5.886197686195373535e-01
5.562557364506598434e-02,-4.171408399635088693e-01,1.722000509423984860e-02,-1.199450157459473892e-01,-3.041233733132984660e-02,-5.316838962372542887e-02,5.111183524131774902e-01
6.384150067026067576e-02,-5.877497350018145994e-01,8.027712929014624299e-02,-2.715959992026407629e-03,-2.961816770658654116e-04,-7.446463964174625076e-03,6.601055264472961426e-01
7.380268083833005366e-02,-5.796461188449408830e-01,7.399763255470576118e-02,-4.912509126139595096e-03,-6.409135696283621737e-03,-6.627997119998267671e-04,6.536969542503356934e-01
6.947907185439902711e-02,-5.924499679153207854e-01,7.567535808257297436e-02,-5.476512965439869762e-04,7.115311163049206980e-03,1.679919619467884527e-03,6.651700735092163086e-01
7.841015327973457905e-02,-5.876616973315300640e-01,7.439293764407076126e-02,-2.081257020057014628e-03,-6.677335370918399682e-03,-4.928827636278847093e-04,6.641833782196044922e-01
7.526483686700569109e-02,-5.840608497142771860e-01,7.624511302833150705e-02,-1.647445861395605655e-03,-3.637964963471608960e-03,2.597702251915651444e-03,6.598679423332214355e-01
7.728229285482707267e-02,-5.839464079092436810e-01,7.379111037487065539e-02,-3.530378521226372641e-03,-3.912979961579538674e-03,7.347675886880622670e-04,6.595544219017028809e-01
7.670293837606639853e-02,-5.763298344753492453e-01,7.291546738793003302e-02,-4.152536684847397616e-03,-6.637692087792159551e-03,2.765700573633509025e-03,6.513060927391052246e-01
7.818262503241910077e-02,-5.899478275209149025e-01,7.455644705960481899e-02,-2.641081069901777059e-03,-3.907420959309060131e-03,-6.476236608690781604e-04,6.663757562637329102e-01
9.660043901098153141e-02,-5.871589716219943744e-01,-1.504523797357257275e-02,1.594135296754573819e-03,-1.078175087518117373e-02,-1.207251985535871992e-03,6.356206536293029785e-01
6.590594894715673391e-02,-5.903446114315490378e-01,8.280480566029999046e-02,-7.084226635426146270e-04,4.387757961581226045e-03,1.478576846954582748e-03,6.649105548858642578e-01
6.708032448268541614e-02,-5.869184413161467884e-01,7.619481048747323015e-02,-7.798327486456611401e-05,1.771103385200808967e-03,4.659275601405609389e-03,6.586599349975585938e-01
7.416178844083201604e-02,-5.968506257270045356e-01,4.914663596464804995e-02,7.134254850889852097e-03,-2.095782253595839667e-03,-3.362482746514438778e-03,6.590126752853393555e-01
7.849187975554672292e-02,-5.871597357263470540e-01,7.088063410896913719e-02,-2.851868984606157481e-03,-3.684232998712261287e-03,-2.441082614168832183e-04,6.619281172752380371e-01
6.478511894482649747e-02,-5.951119683849249720e-01,6.145150871189011821e-02,1.364240249399555982e-03,-4.645417690443292050e-04,1.732748368190280231e-03,6.582481861114501953e-01
7.731014345933370779e-02,-5.825286102427120749e-01,7.396810611083071141e-02,-2.618231319231053861e-03,-5.321556567393340501e-03,-8.262055637213046571e-04,6.582558155059814453e-01
3.380665567748136757e-02,-4.329723580106597525e-01,4.121420404949641125e-02,-4.624140665951781415e-02,-2.836205979597441638e-04,-2.641559000084319972e-02,4.794826507568359375e-01
4.534735149860896763e-02,-5.678433699393199419e-01,7.177999567598922215e-02,-3.487316733952912362e-02,9.909550246792814959e-03,1.737578596284776802e-03,6.299697160720825195e-01
5.476328386463488740e-02,-5.836290891160162975e-01,6.858078161732281131e-02,-3.832720345299881100e-03,-3.628447565337517174e-03,-2.488262422862820046e-03,6.454911828041076660e-01
8.068002456331585526e-02,-5.983817279736212136e-01,2.633713273486390505e-02,8.891136870385353205e-03,-7.067979272366564474e-03,1.323701397234266358e-02,6.542847156524658203e-01
5.609783548906208117e-02,-5.918706877727457627e-01,6.556659664384503761e-02,6.322423838564597727e-03,-8.831887310185382658e-03,-1.469500737547430567e-03,6.530303955078125000e-01
6.863456264725267819e-02,-5.572676564609391203e-01,6.376688552691167633e-02,-1.628197451837376172e-02,5.718467999728845362e-03,-8.983738233170116688e-03,6.243926286697387695e-01
5.834863975404000480e-02,-5.735083860560428182e-01,6.084844338484238224e-02,-3.101324852791719280e-02,-2.140899422805569996e-02,-2.054480578471306815e-02,6.374604701995849609e-01
4.176475580270697097e-02,-6.036197823219846548e-01,7.112902265299897442e-02,-6.254201775612814457e-03,-3.223315003769429421e-02,1.495525750227054418e-02,6.635057926177978516e-01
6.356158134594597220e-02,-5.982401896965439114e-01,7.023665576299353841e-02,2.184630576405740317e-03,3.222160181819274435e-03,-1.796381600258987722e-05,6.651986241340637207e-01
5.808872570204509644e-02,-5.954230802794634458e-01,6.888432422835677471e-02,4.177380052646993171e-03,-2.589486109148643033e-03,6.590860207330090197e-03,6.591297984123229980e-01
7.530325207442226110e-02,-5.899965314167123775e-01,7.923889520932678177e-02,-9.389314446111787652e-04,-1.409669364047217398e-03,7.121493157484880395e-04,6.672838926315307617e-01
4.659597909622778533e-02,-4.986681193855680982e-01,5.362849276668560372e-02,-7.791003993031624109e-02,2.159007481805676198e-03,-5.481852246025962355e-02,5.730934143066406250e-01
7.021469832197865801e-02,-4.048510498517323697e-01,4.072890821099772740e-02,-5.182215645469715436e-03,-4.180181427329066751e-02,-1.425111385046043677e-01,5.280153155326843262e-01
-1.341403569581643695e-02,-4.545111553356459000e-01,7.255102645589095456e-02,-1.378195796357370162e-01,-4.126471539945209682e-02,-1.095068564452165022e-01,5.813276767730712891e-01
6.634391031729136579e-02,-5.847068783700193340e-01,8.636430330284922130e-02,-1.918617974234788611e-03,-3.113255050770583586e-03,-2.714872800127433611e-03,6.613353490829467773e-01
8.771963621141756762e-02,-5.682172632046262883e-01,5.834715333166812234e-02,3.324199373040486426e-05,-2.269487768575607824e-03,-2.151648744847494809e-03,6.417778730392456055e-01
7.665429218418090551e-02,-5.889856848067857031e-01,7.533957557198942001e-02,1.541302176536116220e-04,-8.438454685108881482e-04,-1.474391649102325193e-04,6.649852991104125977e-01
7.393592482344149563e-02,-5.897730319623135653e-01,7.681781732322590095e-02,-1.112459755478048063e-03,-5.102132453411603943e-04,1.436079719743621952e-03,6.651626229286193848e-01
7.442239833073821531e-02,-5.901829759777220685e-01,3.413641999965116858e-02,7.161422488125128612e-03,-1.817034258458013682e-02,2.120893831553603316e-03,6.463024020195007324e-01
6.397701315501225228e-02,-5.926782800084011704e-01,5.071662280714611670e-02,5.505863650467860727e-03,-2.156278667469972710e-03,-2.414961013301047520e-03,6.502206325531005859e-01
6.101742851010191759e-02,-5.934921916513504758e-01,5.726284810872633857e-02,4.352267200348884126e-03,-5.812739889797043265e-03,1.481670336725346860e-03,6.527666449546813965e-01
5.724989354661613739e-02,-5.899948351038551975e-01,3.784050018933945991e-02,4.892241677326147724e-03,-1.818180262365304625e-02,3.106229568763988445e-03,6.386175155639648438e-01
5.830216168201346472e-02,-5.967336302397705516e-01,6.631073146072033464e-02,3.388311140715750871e-03,-5.242478804613347372e-03,5.998084619134313143e-03,6.592471003532409668e-01
7.106855399869005385e-02,-5.845417527606491248e-01,7.947763725659037770e-02,8.634943020855053971e-04,-2.128314212095004827e-03,-1.174826914359333816e-03,6.598701477050781250e-01
6.692276988247106151e-02,-5.787956300585739289e-01,8.249424741405911310e-02,-1.324718073766905030e-03,-4.670387734032057162e-03,7.490880790171806783e-04,6.536986231803894043e-01
5.794131663425655665e-02,-5.879622308599685709e-01,5.227070056788213348e-02,6.967399613979976007e-04,-8.440410115508426361e-03,4.081711557030043638e-03,6.432931423187255859e-01
6.656622827707817103e-02,-5.966460918330560581e-01,3.693342394040899368e-02,7.898126936695101796e-03,-1.698601448163811894e-02,4.652294033170269877e-03,6.497641801834106445e-01
6.525591390267254654e-02,-5.790017072186082192e-01,8.693605907517804043e-02,-1.352384490498384408e-03,-2.578370572824249373e-03,9.014433780128780884e-04,6.553879380226135254e-01
5.300399424709473228e-02,-5.858634827216799845e-01,5.213742563838938415e-02,5.268821769135295305e-03,-4.958844463597519327e-03,5.080075851531066881e-03,6.386182308197021484e-01
7.884265701084053335e-02,-5.822248789456249130e-01,6.877436142761036986e-02,3.253193483498855246e-03,3.427896571520881990e-03,6.050361386074665270e-04,6.561432480812072754e-01
7.139008555040760040e-02,-6.478051660756691810e-01,9.994399759588118437e-02,2.118186453430751653e-02,1.926312320378578691e-02,-3.867343758750497323e-02,7.386061549186706543e-01
6.345221069707052131e-02,-5.915681865563500175e-01,6.034442930069308653e-02,-1.541249165430485799e-05,1.405505644259484425e-02,-4.482424541649574629e-03,6.539714336395263672e-01
6.511549888337717085e-02,-5.853497096343778239e-01,8.905156425347893201e-02,-1.996511679492530677e-03,-2.368795674797856410e-03,-3.256836060608035450e-03,6.628032326698303223e-01
5.669057941726182714e-02,-5.556686364435501346e-01,8.526728001561278969e-02,-1.167404575354902318e-03,-8.779456692488838560e-03,-3.559526923643478572e-04,6.273239850997924805e-01
9.145810343183305435e-03,-3.585817280358265524e-01,4.352089559644056749e-03,1.091459541772516750e-01,6.549843899232038469e-02,-1.403378638399895295e-01,4.910972714424133301e-01
4.699553879676454660e-02,-5.425768209406426346e-01,8.523220884113541507e-02,-1.717727813578645915e-03,1.531088898976643888e-03,1.411486262327252142e-03,6.096087098121643066e-01
3.788133796967507738e-02,-5.314571219637376220e-01,7.344366449018935317e-02,2.723304106214395615e-02,2.882123845949681462e-02,-2.214503639452197054e-02,5.931661725044250488e-01
9.887498857297538635e-02,-5.815302347206043887e-01,6.374622666687673744e-03,6.048649696428327893e-02,6.620076288850415547e-02,-5.165675749982925891e-02,6.638513207435607910e-01
5.727150806343891953e-02,-5.784804982058620038e-01,8.609094435759712116e-02,2.302860961703184371e-04,3.677671183438921583e-04,2.042878963929587767e-03,6.506506800651550293e-01
2.395143253616199841e-03,-5.669790145215702903e-01,6.797544349720041623e-02,8.920069608285328966e-02,8.346705436893898933e-02,-1.090365585943177673e-01,6.680306196212768555e-01
7.106747610660857362e-02,-5.884853585563307732e-01,8.306668170601672063e-02,-1.789350781733750314e-03,-3.523814668059688411e-03,-8.322414640395492044e-03,6.658248305320739746e-01
5.607616508840657099e-02,-5.802624918042300628e-01,9.314532754044321794e-02,1.206933888007778190e-04,-1.564037547328989315e-03,-9.357282927391132391e-03,6.558655500411987305e-01
6.142915591598632763e-02,-5.859814277966421958e-01,9.018343895642982888e-02,-1.417378886638144802e-03,9.932112312262010839e-04,-3.554353334474236181e-03,6.622914671897888184e-01
7.389387164481736603e-02,-5.818651679944597532e-01,2.986473650146717618e-02,-2.598878048324776251e-03,-2.459184014501083343e-02,2.145531162730934804e-02,6.374178528785705566e-01
7.043836039027326357e-02,-5.836017907786115178e-01,7.799878685335134842e-02,1.931834426626762458e-03,8.050419262436204343e-03,5.221002562831312567e-03,6.580713391304016113e-01
6.531741179439018441e-02,-5.828348660729902875e-01,7.019646035111845594e-02,-2.381594389114258074e-03,1.109230951943227048e-03,-1.662443748200696488e-03,6.506277918815612793e-01
7.361218604379554664e-02,-5.919480810647437252e-01,7.889809179161119679e-02,4.448632199037177797e-04,-2.889636610147631752e-03,-6.513671547115777553e-03,6.683332920074462891e-01
7.151969526497217733e-02,-5.953642012943707318e-01,7.453049857978774617e-02,2.074423687667262695e-03,-4.757680959414985092e-04,-3.404069459270206519e-03,6.684305667877197266e-01
7.707647477964685301e-02,-5.830063676332463141e-01,6.863257985996928934e-02,2.060296401766290465e-03,7.459339310006410026e-03,-1.324901841048022966e-03,6.560426354408264160e-01
1.170703174489680087e-01,-6.316674713290189036e-01,1.009593205051320663e-02,1.742656101824218741e-03,-1.624940002642426620e-02,1.357644970042012032e-02,7.023604512214660645e-01
6.943461262718098048e-02,-5.975153278903497789e-01,7.122937041352059295e-02,3.408298298089338946e-03,1.396866060332099205e-03,-1.187326663086619083e-03,6.678827404975891113e-01
5.937839710215178646e-02,-5.830494480229571064e-01,6.173055696206491971e-02,-3.040062452430631647e-03,-2.157136315595460825e-03,-2.937600077747816278e-03,6.436596512794494629e-01
6.702143423129766631e-02,-5.911604580872129588e-01,7.477058769606431676e-02,2.045079397782352624e-03,7.074587965728041392e-04,-4.480507027293427827e-03,6.621465682983398438e-01
6.671230402531730386e-02,-5.673290834862332321e-01,7.092782687633381045e-02,2.729347175769794142e-03,1.156497204238703287e-02,-7.638322765920529597e-03,6.366299390792846680e-01
7.185190083321421617e-02,-5.987019079912108133e-01,7.292453188383896112e-02,4.447113489988269511e-03,6.664754004898049145e-03,4.083332149644068251e-03,6.712715029716491699e-01
6.033560339719348797e-02,-5.835193846656407946e-01,6.485125446434517049e-02,-3.273123104040120881e-03,1.999300660012347426e-04,-2.062086016959392091e-03,6.461594700813293457e-01
3.363488030309361165e-02,-5.458319872301560238e-01,7.381311385156016924e-02,-3.192154656230426768e-02,6.359512430549585892e-03,-4.559512799823816492e-03,6.032567620277404785e-01
6.867218195198038222e-02,-5.991155545965316520e-01,7.876016727841622656e-02,-2.445165137546161755e-04,1.903323242692786174e-03,4.773897009774407448e-05,6.728966832160949707e-01
7.766842599764223198e-02,-5.727563432107194430e-01,6.217729405430377776e-02,-5.397152077033516571e-02,5.329365730413932432e-03,-1.892778757304854065e-02,6.504731178283691406e-01
7.008274682861503901e-02,-5.974291846984516319e-01,6.942954773911955146e-02,3.802515982213973151e-03,2.273562917998303481e-03,-1.581754530475483955e-03,6.672353148460388184e-01
5.857014406174718135e-02,-5.848043511056298938e-01,6.801749670882470400e-02,-4.922832334767522980e-03,-6.774081281311637769e-04,-4.729794096545551774e-03,6.482587456703186035e-01
7.181269458493680369e-02,-5.988843077559353745e-01,7.250053857521546186e-02,3.011686022012874994e-03,2.341039349533308167e-03,1.691375833277950934e-03,6.710801124572753906e-01
6.760728463449910963e-03,-6.022801254702015994e-01,1.007814657209641918e-01,-1.312020380999814537e-02,9.993096130903218743e-04,-7.483819406078257019e-03,6.616045236587524414e-01
2.030107634953627616e-02,-3.749698998779636971e-01,4.612336027958904849e-02,-5.938114072108045816e-02,-1.155454546490750252e-02,5.291152606226917632e-02,4.318454563617706299e-01
7.050474684436688899e-02,-6.004804112675783401e-01,6.997402759933221694e-02,2.097316192182682639e-03,3.379938257140550336e-05,2.261724874088431956e-03,6.707412600517272949e-01
7.456538323073794161e-02,-4.945808524808670281e-01,3.453430283737590756e-02,-2.436829479754734629e-02,4.143078536538324745e-03,-2.697872143318493171e-04,5.518872737884521484e-01
6.899634967342180292e-02,-5.885247900588329584e-01,7.443865555626474895e-02,-9.749710508047357846e-04,9.891378501314470120e-03,-2.598907290988719792e-03,6.604988574981689453e-01
7.254446489317611935e-02,-6.023944814361885669e-01,7.241383666273795705e-02,1.529900154906004527e-03,1.604807875533542563e-03,6.995788292902268375e-04,6.748856306076049805e-01
7.002292644276394973e-02,-5.300177170162493345e-01,5.916229068917031042e-02,7.642142723480061656e-03,7.127166747267589704e-03,-5.366454032566471757e-03,5.950326919555664062e-01
7.661801776418036836e-02,-5.013523112357531897e-01,3.869334773625560109e-02,-2.225926495932493629e-02,-6.895908218676451151e-03,-1.209628040300432181e-03,5.614286661148071289e-01
3.673192468689123746e-02,-3.110404391595541496e-01,9.741167903415226537e-03,-1.148807731437022084e-01,1.352710861984230892e-02,-3.179392996308894742e-02,3.942863941192626953e-01
6.753268317325847314e-02,-5.261710484849996261e-01,4.706672607857470547e-02,2.635919894428253793e-02,2.020593870748125728e-02,-8.347873378699506575e-02,6.041254997253417969e-01
5.904618787808343927e-02,-5.790586850065286839e-01,9.164552199631054163e-02,-7.565798310642333352e-04,-1.082106232334242336e-03,-4.717990514284982687e-03,6.550682187080383301e-01
5.677433168980158817e-02,-5.767537481723883364e-01,9.038890801642374129e-02,-8.854023273278755022e-04,-2.387930896092481815e-03,-4.096749721519552662e-03,6.510401964187622070e-01
5.555180555621599958e-02,-5.767853767661106357e-01,9.200018523519154501e-02,-1.407873195520028577e-03,-1.528486184176913861e-03,-4.456987075492235655e-03,6.513823866844177246e-01
5.918054934807831513e-02,-5.743918828445728764e-01,8.729153783188448035e-02,-2.396396954932831884e-03,-2.772009398859921845e-04,-1.241700825237385467e-03,6.481024026870727539e-01
4.956569644689418075e-02,-5.552328499456298250e-01,8.963236157293347217e-02,-4.330457751229298291e-04,-3.882679393514372121e-03,-1.465411067287134515e-02,6.263456940650939941e-01
6.807019956653612147e-02,-5.887650764154372940e-01,7.455472583960195965e-02,-1.145411784032838651e-02,1.459689148998935017e-02,-2.376474191463348595e-03,6.608960628509521484e-01
4.635799997971698505e-02,-5.995135356173444396e-01,8.906370552036069199e-02,-1.035802869236749149e-02,1.146801635078284910e-03,-2.188248996885418674e-03,6.685031056404113770e-01
7.490137296069673822e-02,-5.874049135609820116e-01,6.690425121595558466e-02,3.290603974811556580e-03,2.641077191970537478e-03,3.305558389672651459e-03,6.584095954895019531e-01
6.953810897896348098e-02,-5.951474733520307758e-01,7.624541049953961758e-02,2.512501835147799324e-03,4.262882268991317024e-03,1.169822643342494127e-03,6.681225299835205078e-01
6.959716594411907709e-02,-5.972954802419636611e-01,6.862762427208604632e-02,1.381083251879701304e-03,1.676028935988332609e-03,7.572835352119867101e-03,6.665480732917785645e-01
6.716085575029789867e-02,-6.010721382520454181e-01,7.429421778135503196e-02,8.333608085589335693e-04,4.718114823574233799e-03,2.658842918290877603e-03,6.718950867652893066e-01
6.949994374025658672e-02,-5.731919459419229090e-01,6.898237201589615952e-02,-1.070145363327424997e-03,7.902522487024249420e-03,-7.518354561353706236e-03,6.427136659622192383e-01
7.621141463459241150e-02,-5.943082291017699470e-01,6.941795361692001953e-02,1.559275747695843548e-03,5.208349725711558693e-03,2.432283752278529328e-03,6.672286391258239746e-01
7.150656493554807813e-02,-5.929813723549872684e-01,7.556739693107092370e-02,-1.547987543152444479e-03,8.445281909384533617e-03,9.273389912833689651e-04,6.666954755783081055e-01
7.010722660659529648e-02,-5.995828181318769712e-01,7.223219606492262135e-02,1.369642046837928192e-03,7.630187725240029570e-04,3.398587484748472921e-03,6.707863807678222656e-01
6.975164050112925285e-02,-5.981096836211463597e-01,6.946463181691620026e-02,3.453986508671472600e-03,1.781853510917414622e-03,-1.515923141417182835e-03,6.677569746971130371e-01
4.099156664689540541e-02,-6.178521507711570715e-01,7.762137120181172856e-02,-2.074380973542613860e-02,-2.569427341608886139e-02,4.913959690305969366e-03,6.803631782531738281e-01
6.062219640401952936e-02,-5.943207337123668221e-01,5.965229151081646863e-02,2.658596665098193149e-03,-3.333360439737356826e-03,3.597789392541069203e-03,6.545298695564270020e-01
5.752405103852228918e-02,-5.968255104739395023e-01,7.079125615984602216e-02,5.348771107541846516e-03,-5.761296731827329591e-04,5.994949024938059715e-03,6.612302064895629883e-01
7.119774229468464610e-02,-6.014342405722783447e-01,6.872818686177784020e-02,1.204200592558270352e-03,5.820409208560716570e-04,1.534123288096357564e-04,6.714046597480773926e-01
6.973764882197272530e-02,-6.023644803703553929e-01,7.482413563498069298e-02,-1.567666290730269831e-04,1.909865379470080749e-03,1.051466253767180696e-03,6.746703982353210449e-01
1.394279480242739955e-01,-6.827165469865257297e-01,-1.048501473842994303e-02,-8.989940844633658237e-03,8.587353637826822261e-02,-1.248649801880729604e-01,8.026732802391052246e-01
6.782231921608999903e-02,-5.974059287003555818e-01,6.846835078954027765e-02,4.667283047930031840e-03,1.365703197437575633e-03,5.914963940442388539e-03,6.656836271286010742e-01
7.010321998129898091e-02,-5.995378829841196966e-01,7.088279360256674599e-02,2.378938696661564954e-03,-8.336209364340837905e-04,1.623334058444655080e-03,6.700513362884521484e-01
6.620558259257974809e-02,-5.764424926572695451e-01,5.642568295969646597e-02,4.211839339823950437e-03,-1.111299924445636501e-02,1.027397581032721448e-02,6.383944749832153320e-01
6.771327130104523584e-02,-5.857702798705772818e-01,6.847049042429559362e-02,4.144070170221256059e-03,9.465858935058909162e-04,-2.630271183573480525e-04,6.539040803909301758e-01
6.562297520020271557e-02,-5.952629568832725759e-01,6.118658279373523357e-02,6.009938123245702098e-03,-5.957839740402608945e-04,4.233934721425748962e-03,6.588028073310852051e-01
7.250663256479000784e-02,-6.003524985361379240e-01,7.663767822222425363e-02,2.468561635513752493e-03,6.969031335222363420e-03,2.307482408361641833e-03,6.750674247741699219e-01
7.141147791240948228e-02,-6.014986848412002818e-01,7.695018068220707552e-02,2.309615453842095521e-03,1.293798855310487666e-03,1.560263078178699293e-03,6.757174730300903320e-01
7.241094329194905366e-02,-5.782744231831900006e-01,7.401088697301327901e-02,-1.960781810499062812e-03,-8.891666946947349853e-03,-1.142690305826115542e-03,6.516806483268737793e-01
7.962156589557475850e-02,-5.902703097663648535e-01,6.946138878103905179e-02,-1.129131902574014197e-02,-5.656443803622043624e-03,-3.139764915216537722e-03,6.652519702911376953e-01
7.260133075580205153e-02,-5.865704075411566354e-01,6.567899608231120290e-02,-3.435485281476447026e-03,-4.307810125604244017e-05,-1.879812359858053098e-03,6.557730436325073242e-01
7.285776905269863990e-02,-5.883640703767151203e-01,7.414537293837550336e-02,-2.392359640342963160e-04,-2.361438535878881192e-03,3.733385547259748458e-03,6.619109511375427246e-01
7.296652586154958597e-02,-5.166085853049220411e-01,5.022987147059601587e-02,-1.539057821734796799e-02,-1.328812075419444003e-02,-5.313651712618623364e-04,5.796136260032653809e-01
8.804977281899270536e-02,-5.786075464496722720e-01,6.237689725566897270e-02,-9.950122316442345030e-03,-7.073921470550192069e-03,-9.454073040710705110e-04,6.545425057411193848e-01
5.490519362668264125e-02,-4.871347908983196251e-01,5.397541198730826384e-02,-1.313693867277681421e-02,1.415820771438702774e-02,-3.227125846296605843e-02,5.454792976379394531e-01
6.754584412628367174e-02,-5.231202318892669290e-01,5.944671903819270797e-02,-8.134432503673820133e-03,-1.452004748061956792e-02,1.248920246486756071e-02,5.877644419670104980e-01
8.245349074827432179e-02,-5.854543456737308915e-01,7.042684561594717008e-02,-1.720749555587263195e-03,-3.195026174192115275e-03,5.670970962268355496e-04,6.620070338249206543e-01
7.753589254396425767e-02,-5.946393210475625635e-01,5.596206408263379450e-02,3.759587966687150465e-03,2.111735759958359698e-03,5.160653637667133795e-03,6.617546677589416504e-01
6.895192220576853992e-02,-5.936171135130443588e-01,7.652245026441617526e-02,3.481383016039156335e-03,2.511345153285183922e-03,8.968132239238293425e-04,6.664298176765441895e-01
7.015858134342364827e-02,-5.442708669348365058e-01,6.601239837167402480e-02,-1.055652169967672381e-02,-1.286664643834560008e-02,-4.167611465489878732e-04,6.130454540252685547e-01
8.502520322808623798e-02,-5.893978158175069426e-01,6.533727369666253448e-02,-1.929261725195820232e-02,-7.446762513839581994e-03,-2.866958205494213839e-03,6.657804846763610840e-01
8.891587770984274441e-02,-5.583459118644290564e-01,5.133971724270383619e-02,-1.128475664898147268e-02,-1.952362595454782508e-03,-1.884149313040748219e-04,6.296282410621643066e-01
7.025365906826291917e-02,-5.825461653958230457e-01,7.034767402481079124e-02,-1.376148491427487677e-03,-5.626009177651146789e-04,-2.758160395823214001e-03,6.528694033622741699e-01
6.928172738594814972e-02,-5.829714445123470590e-01,6.995051889131734257e-02,1.463870223458657105e-04,-2.758006002005947187e-04,-2.844111566095255169e-03,6.526066660881042480e-01
8.529490483452348282e-02,-5.853546474622801643e-01,6.617793718603845465e-02,-1.246690666782105175e-03,-2.915966720489323455e-03,1.267877742937631273e-03,6.613247990608215332e-01
6.234630229124726863e-02,-5.793267683809421031e-01,7.969138389537772094e-02,2.370890761406722891e-03,5.288835446970820142e-03,5.520967486126057916e-04,6.505972146987915039e-01
6.321450364358896512e-02,-5.846210031275942409e-01,8.209282295303177435e-02,2.111704472221755460e-03,1.155679587708193044e-03,-1.856108018816158244e-03,6.574990749359130859e-01
6.700520962275299808e-02,-5.862543593758025029e-01,6.923236099808036115e-02,-3.573968198469468140e-03,3.360800475149051773e-03,-1.407724592341680434e-03,6.544356942176818848e-01
7.559156631749650024e-02,-5.652383612303111260e-01,6.319362777257409025e-02,-9.607958413675756620e-03,-1.544999619268536649e-02,3.025898674797744114e-03,6.355251669883728027e-01
8.444164454721736490e-02,-5.793471396082061631e-01,6.529993947339765570e-02,-2.402554255584025186e-04,-2.904622715399925430e-03,-1.956860075606855348e-03,6.544561982154846191e-01
5.697073626084941944e-02,-5.775003505094791212e-01,8.797366254739538705e-02,-1.108968116507696175e-03,3.226877420638419453e-03,-3.851946118096074775e-03,6.505879163742065430e-01
8.148281687445380062e-02,-5.623230755613639609e-01,6.143849603613188437e-02,-6.493335520589535274e-03,-8.627639084508184619e-03,5.226460029901919095e-03,6.343618035316467285e-01
7.914912904115140035e-03,-6.391225820723968054e-01,1.140040063642688839e-01,-1.095699361579647452e-02,2.400660330140690427e-02,-1.059032381585317279e-03,7.075651884078979492e-01
2.358952117213819477e-03,-6.907399651928765039e-01,1.564848501680224935e-01,2.357182609678899754e-02,1.332812875404763495e-02,-2.183265892331560584e-02,7.839612364768981934e-01
-4.797830129582444925e-02,-6.139560330869033855e-01,1.367294489322781748e-01,1.389174292718971804e-01,5.447423987814435653e-02,-4.334779737445557807e-02,7.289868593215942383e-01
1.868846754462752391e-02,-4.538007236585285820e-01,6.228503755733438840e-02,1.850439230751832302e-03,7.768710707102892583e-03,1.749501524978489160e-03,4.959295392036437988e-01
8.272907057458386837e-02,-5.730586209017335397e-01,6.653470746992923290e-02,5.151765704051874083e-03,-7.056911045814799784e-03,-2.822589812960108000e-03,6.480374932289123535e-01
8.684011582818959574e-02,-5.714928788236937063e-01,6.215851931472832215e-02,4.512406256694959724e-04,-1.977848129970422378e-03,1.283147222439370199e-03,6.463590860366821289e-01
-2.609384665581965246e-02,-6.203092044336074862e-01,1.391945887171818774e-01,6.864750215518894416e-02,6.852918938638606627e-02,-8.616395835505769041e-02,7.274118065834045410e-01
-2.157308341375890892e-02,-6.136751628492311816e-01,1.328164468691479527e-01,8.811085392461295851e-03,5.079235798591837797e-02,-3.326752679746952657e-02,6.907445788383483887e-01
-3.033714537537732236e-02,-6.141441972755237177e-01,1.207306510240412356e-01,1.933261698740205287e-02,2.842826193283288366e-02,-8.312132803989534524e-03,6.749811768531799316e-01
3.395540405432134756e-03,-6.106344588835748155e-01,1.027693466455315563e-01,1.335170600896100519e-02,5.013414572769736913e-03,-8.869295035098494553e-03,6.699050068855285645e-01
-2.420638077191913928e-02,-7.163534411020326953e-01,1.534900457916602567e-01,3.147109964437456997e-02,5.808823343769764502e-02,-3.413003255601972791e-02,8.063648343086242676e-01
7.362813468655302063e-02,-5.974671570712480895e-01,6.757505646884207073e-02,3.668599886794835733e-03,2.652150965960105560e-03,-1.255897532314509488e-03,6.681388616561889648e-01
9.176350024094448443e-02,-5.964448995355194905e-01,1.345122352537939103e-02,-7.664901296306484563e-03,2.071596929960378870e-03,-9.697753689606776126e-03,6.529469490051269531e-01
9.361779909899942131e-02,-5.632694677078848855e-01,5.227436478893973670e-02,2.068216115784435316e-03,-1.599316100057912842e-03,2.507552254281611307e-04,6.372385025024414062e-01
7.981017339540580346e-02,-5.960989181475269127e-01,2.947169814725489334e-02,-1.020354190285149669e-02,4.464278843870239655e-03,5.528141345187371179e-03,6.525539159774780273e-01
5.481451629638470213e-02,-6.069005922804496800e-01,7.088011432863794425e-02,-1.012660863040078935e-03,-7.787233696982275022e-03,1.186271533722822692e-03,6.700336337089538574e-01
7.151579560771711974e-02,-5.896748755271714604e-01,7.737412213887143175e-02,-9.947446234447811540e-06,-1.903837745589060998e-03,1.889172122396320019e-03,6.641554832458496094e-01
6.480295829397061946e-02,-5.910822660658339167e-01,7.895712174616006940e-02,-3.864596085640095366e-03,1.437209919375686921e-02,-3.131077837206221789e-03,6.635986566543579102e-01
6.860907323804391056e-02,-5.931875177822201195e-01,7.246660158442783106e-02,2.238100047254565957e-03,1.557235522021010966e-03,3.857159393634547895e-03,6.637842059135437012e-01
-3.291847503479489179e-02,-7.365368558772293905e-01,1.760761598702476061e-01,4.531388508834358064e-02,3.117459720551400346e-02,-7.145573554865549890e-03,8.336898684501647949e-01
7.168571893978947784e-02,-5.973952227130299164e-01,7.210285901478960535e-02,1.585309077298468648e-03,2.243115967192687871e-03,1.961412619853958143e-03,6.693151593208312988e-01
5.268144729602838860e-02,-5.523183209743862676e-01,9.075027172703670209e-02,-1.596016044316275057e-03,-4.284321975424488366e-03,-1.477154808025944559e-02,6.254781484603881836e-01
5.565464040059886486e-02,-5.775515389377006148e-01,9.244735206234958036e-02,-1.463226094857647324e-03,-2.193724066441399018e-03,-3.939533253568961238e-03,6.524327993392944336e-01
6.781721641056517869e-02,-5.934819183520130270e-01,7.686709361943541707e-02,2.769257832861352596e-03,2.948451901081684465e-03,2.771214198372745890e-03,6.659243702888488770e-01
-3.298309705760786581e-02,-2.678844374570628073e-01,2.970761701885334116e-02,1.132587421067147576e-01,-3.214393075711102082e-02,2.368502569682421829e-02,3.421990275382995605e-01
5.757401577876575249e-02,-5.754396034796580572e-01,9.539620616750990600e-02,-1.192306467633863021e-03,-5.364878507748214141e-03,-5.465587737754225815e-04,6.528171300888061523e-01
6.493243988633076724e-02,-5.752237042948165069e-01,7.758014100009200109e-02,1.520845569215855059e-03,1.108358568328180610e-02,-1.275534947086309073e-02,6.472402215003967285e-01
6.359093796092540885e-02,-5.909037147149431846e-01,5.588856438830369644e-02,4.686040725661742325e-03,1.011416904888523495e-03,2.370322231130866301e-04,6.507307887077331543e-01
7.482502282925826420e-02,-5.919765897791109399e-01,5.659963987184282730e-02,3.045370817493008985e-03,-1.489437215913607879e-03,5.163530837528685670e-03,6.579653024673461914e-01
6.730991168714436923e-02,-5.870105380835610731e-01,7.327231987724416862e-02,7.275460482301787137e-03,5.971672827725098449e-04,-3.126164445793195613e-03,6.574658155441284180e-01
6.526752881246297711e-02,-5.861232434367908972e-01,7.888877161353102796e-02,1.902168809367129395e-03,6.375213755719326544e-04,2.406506176403623142e-03,6.583294868469238281e-01
9.273958225101505692e-02,-5.696185231311634567e-01,5.382773938829948923e-02,7.078745948700089843e-03,1.284222132097413965e-03,-1.272976801436603812e-03,6.439090967178344727e-01
8.401587889232889350e-02,-5.975877700702278972e-01,4.250490746282081789e-02,7.021467347381785649e-04,-3.770891568311787040e-02,1.632474045902635243e-02,6.656422019004821777e-01
1.088780089276931706e-01,-6.560149015504010972e-01,3.219533254994860760e-02,3.938733529075638153e-03,-4.806979529274036517e-02,5.332207562300549791e-02,7.401322722434997559e-01
9.624393858062230134e-02,-5.594404919457484082e-01,4.843948494942321159e-02,1.080450998383326866e-02,2.134294550272737654e-03,2.367656664922670844e-04,6.334246397018432617e-01
1.340518775738259172e-01,-6.746874865931036247e-01,3.858863701439646521e-03,-1.649832663650430478e-02,-2.525373625062017624e-02,5.887072786906318023e-03,7.540233135223388672e-01
3.932606343898495393e-02,-5.937941467236700355e-01,8.319767779915940298e-02,1.703839246167644650e-02,-6.133359656130402734e-04,-8.132793351976912166e-03,6.569721698760986328e-01
9.144946022529731877e-02,-5.809254567888419984e-01,-1.119969410410148747e-03,7.733574209554747690e-03,-2.111037598513978986e-02,2.671419553849484901e-02,6.340923309326171875e-01
1.247622905752574507e-01,-6.669650377922189399e-01,4.023815599408436805e-02,1.183523860559461925e-02,-9.445347242369684856e-03,5.455254499130398477e-02,7.593894004821777344e-01
3.233459463674739909e-02,-6.037944806185731039e-01,9.494061227275857329e-02,-1.103955540802161947e-02,2.646396306568782157e-03,-6.100633179276889612e-03,6.700026392936706543e-01
9.725777778302577281e-02,-5.546456011063896074e-01,4.746846928081199790e-02,-1.464971000115162028e-03,4.043104851882187135e-04,-5.743625689587613173e-04,6.284958720207214355e-01
6.939925452953052409e-02,-5.875518368427492533e-01,7.147970247265833521e-02,-3.020480954937288832e-03,-1.191244945554717093e-04,-1.143605080477924169e-04,6.580146551132202148e-01
2.939348189278515044e-02,-4.117133043426114969e-01,3.561458947419962606e-02,2.689426292084663370e-02,-1.529718512359228358e-02,-2.189889082023059597e-02,4.490753412246704102e-01
6.248097104842648131e-02,-5.554733086234268091e-01,7.530247340752310725e-02,-7.694781682150514607e-04,-9.553566651315287608e-03,-2.073744844498098003e-04,6.246844530105590820e-01
3.110884125449284165e-02,-3.760664825458258642e-01,2.954308008959646847e-02,-1.517121000579032880e-03,-1.042233367127710399e-02,-4.361708170997321415e-02,4.137593209743499756e-01
6.805824361773482600e-02,-5.815723166283155443e-01,7.659503840595274782e-02,1.291022812032063816e-02,-9.857331610921851728e-03,-3.328309873331254665e-02,6.570793986320495605e-01
7.500369825240726929e-02,-5.552594582797205636e-01,6.157746464080349202e-02,8.103224549258224163e-02,4.621949856954229996e-03,6.764738031581553346e-02,6.499546766281127930e-01
6.085916428327459160e-02,-5.633346111720625160e-01,8.225899873249842287e-02,1.003927466190138954e-03,-1.193315607758523196e-02,1.528971924831370240e-04,6.355027556419372559e-01
7.304851001794462895e-02,-5.160345055986104157e-01,6.643598455840682426e-02,2.168238677860571603e-02,-1.065529652689570922e-02,-7.562512192952336454e-02,6.017272472381591797e-01
6.381967701731816600e-02,-5.718189358945880985e-01,7.626358220715237501e-02,5.378404320721878566e-03,-3.049947609874503231e-03,-2.768708924698713020e-02,6.438288092613220215e-01
6.629982027081435247e-02,-5.863414122266564776e-01,8.623259117235956839e-02,-2.013088423551898098e-03,-2.806554693241317816e-03,-3.998804181551503766e-03,6.628956198692321777e-01
7.190375496239800879e-02,-5.824837019878958966e-01,7.882622771306047049e-02,-1.933060288884005037e-05,-1.715856311183527492e-03,-1.007035116686684061e-03,6.578850150108337402e-01
7.783246285118505803e-02,-5.895609830896311188e-01,7.877364573983736129e-02,-3.762019172528588439e-04,-2.344771275526330318e-03,3.083411154418120963e-04,6.678774356842041016e-01
6.634094687751701525e-02,-5.350186458427858005e-01,6.195884898401951557e-02,-6.750767635053128322e-04,-1.393986117517810250e-02,4.988776133675095620e-04,5.996685624122619629e-01
5.173487754896829993e-02,-4.768701808178986146e-01,4.988383060009682346e-02,-2.140188693350533744e-02,-5.452611861529539118e-03,-6.764675074263301613e-02,5.418854355812072754e-01
2.335001390891072726e-02,-3.565882491516869646e-01,2.522220516312076444e-02,3.375747077660973955e-02,-1.406048119859412346e-02,-2.255737958709983643e-02,3.880801498889923096e-01
5.591741134119851409e-02,-6.484437952356332246e-01,5.823689140010193666e-02,-1.751992841768470685e-02,3.968658920398258905e-02,5.622035710383718916e-03,7.095805406570434570e-01
5.529999521205744561e-02,-5.895069123864093985e-01,5.759374264760627748e-02,2.661047196690499543e-03,9.106945110402386856e-03,-2.500861951219079688e-03,6.461803317070007324e-01
8.353939043748676019e-02,-5.833275758266053268e-01,7.299647838716916137e-02,-2.977325100668434593e-04,-5.065712067255785135e-03,1.056366306339019895e-03,6.617194414138793945e-01
7.683236309631988337e-02,-5.850045013873557131e-01,7.228239224929458584e-02,2.058457812022959372e-03,-2.160233854265517818e-03,1.482312726820489814e-03,6.595988869667053223e-01
8.317741691776003865e-02,-5.423061349470685855e-01,4.760010875893722071e-02,1.906832426113029555e-02,-7.488705063113255955e-03,-1.040778250708283836e-02,6.097757220268249512e-01
6.690630825673188342e-02,-5.970010238501175515e-01,3.838650854403555246e-02,-1.141956724919619736e-03,1.796550565691061932e-02,1.009909544615160935e-03,6.508663892745971680e-01
-1.016392761163825709e-02,-5.945467657528377137e-01,1.027984881763456260e-01,-4.696780087333478348e-03,6.796356887001610975e-03,-3.524990610236211803e-03,6.484744548797607422e-01
6.510524389226443609e-02,-5.882713340153408188e-01,4.791411710512252786e-02,-3.862572618712290483e-03,2.335166943887545445e-03,2.064252451908051705e-03,6.450101733207702637e-01
9.362151706212981650e-02,-5.542577005676455615e-01,4.595210791029302744e-02,-9.367187915255248236e-04,4.254893074826300581e-03,-8.724904912526181911e-04,6.254558563232421875e-01
6.948090327458114612e-02,-6.006169028045711400e-01,7.210237335792243907e-02,7.540713010685021547e-03,2.020481840931328665e-03,9.384573821921745186e-05,6.715485453605651855e-01
5.419472278521469955e-02,-5.884957240021035929e-01,5.699477035088143517e-02,-5.579887214417717043e-04,1.102378690106156633e-02,-2.905699450297836647e-03,6.443983912467956543e-01
7.620547956355147590e-02,-6.003374588433718628e-01,3.145398222613618455e-02,-7.023654437166307329e-03,3.028925564186592603e-02,5.890217572893613300e-03,6.576025485992431641e-01
7.361385933902980794e-02,-5.988383820084720588e-01,6.948266189611110311e-02,-5.300380201590325748e-04,1.173955751500489839e-03,1.092467209788081399e-03,6.704025864601135254e-01
6.809525604421648448e-02,-5.820471640883654318e-01,7.062732215546316250e-02,2.409824025125446617e-04,-1.134613849864848445e-03,-1.640057822457760637e-03,6.514214277267456055e-01
7.921886430604641038e-02,-5.882156932294485552e-01,6.945326213650848679e-02,-3.182282656117153916e-03,-2.893658434735559958e-03,-5.371191165727900139e-04,6.626482605934143066e-01
7.597743653423380539e-02,-5.888901323990010095e-01,7.729153181414580298e-02,-1.348697270022109753e-03,-1.933021890643496716e-03,9.788231643268314151e-04,6.655402779579162598e-01
8.300055091624022885e-02,-5.978631504600336877e-01,7.095368004047092336e-02,-1.227326170158171172e-02,-8.233165368730808661e-03,5.464585212646715442e-03,6.754724979400634766e-01
7.923972900357539872e-02,-5.881685895702551958e-01,7.419640786602513249e-02,3.731054994453067669e-04,-2.052207329017981165e-03,1.033145633442642211e-06,6.649107933044433594e-01
7.953768671285796343e-02,-5.853765514734488029e-01,7.227535712897761866e-02,4.939582529530986421e-04,-2.042494493746919385e-03,-1.980811211174228134e-03,6.613318920135498047e-01
7.707770467893063082e-02,-6.003684544419481961e-01,7.228364521224855954e-02,2.468412545314758750e-03,6.803459417431008578e-03,2.307343046635166543e-03,6.751900911331176758e-01
-5.810988802538538667e-03,-4.635597088865351934e-01,1.048638307261832436e-01,-9.280857377704165856e-02,1.247372903059822818e-02,4.029264003032934083e-02,5.510187149047851562e-01
6.728912442030396401e-02,-5.895667269867258531e-01,8.222555032756204141e-02,2.407449339763521445e-03,8.934281702361643318e-03,2.408373659275685804e-03,6.646563410758972168e-01
8.297060275566717213e-02,-5.823144185834687736e-01,6.976377227907121226e-02,5.421151221016941215e-04,-3.948494198853950109e-03,-1.190263005960647040e-04,6.588171124458312988e-01
5.971711757052861058e-02,-5.748807021694324337e-01,8.640237487610316625e-02,-4.747902967024551606e-03,-8.329691081045115242e-03,3.132101839242983684e-03,6.485877633094787598e-01
1.007371480797316088e-01,-5.994264483017254230e-01,1.203337011866634221e-02,-5.832440678690224180e-03,3.388183611110636394e-03,-9.593552818229218737e-03,6.606079339981079102e-01
6.658992689237028251e-02,-5.938778098351347179e-01,8.388336019108483255e-02,2.301231224534999416e-04,1.143398205828784209e-02,-1.221080560852717302e-02,6.699090600013732910e-01
8.092889961302568436e-02,-5.991907514089822584e-01,5.990227838804440541e-02,5.531447616175054656e-03,-2.017928593519562486e-03,-3.258851386242991692e-03,6.699553132057189941e-01
7.983123855261031743e-02,-5.678274679107617740e-01,5.793999749050837700e-02,2.593171804674030551e-03,1.345011803803352647e-02,1.577416812935647072e-03,6.374428272247314453e-01
4.462991516746633858e-02,-5.225824766988527159e-01,6.887105462652901022e-02,3.090718099874998574e-03,1.639150101803324780e-02,4.230471149668029243e-03,5.804789662361145020e-01
5.779212432463254334e-02,-5.674531942906650972e-01,9.071687172129078158e-02,-4.935499891769452863e-03,-4.621338106964303742e-03,6.879893139459131515e-03,6.425580978393554688e-01
6.676953952739503317e-02,-5.711692868298797743e-01,8.187406430169480442e-02,-1.722605767156236856e-03,-4.978460345095881215e-03,5.194151405390508638e-03,6.457507610321044922e-01
5.250489077070352728e-02,-5.230465336262222209e-01,6.699420706479838894e-02,3.487250978703879123e-03,1.193800331957679990e-02,4.242450651383510539e-03,5.833753347396850586e-01
7.195699721512052727e-02,-5.860084952250630419e-01,8.241704339574926208e-02,-4.263232265208827601e-03,-4.801883139358053589e-03,1.102709661594983986e-03,6.633533835411071777e-01
5.256047749107137235e-02,-5.557457195266815031e-01,8.633398731766145362e-02,-7.896279687718491935e-04,1.594246716979812227e-03,1.349487038721746204e-03,6.258887052536010742e-01
6.217675806907729807e-02,-5.673362908744231659e-01,8.342016842335794879e-02,-1.434372923583866072e-04,-6.543522692879289067e-03,2.751147764507186951e-03,6.405171155929565430e-01
5.701756138945082708e-02,-5.534048546183332196e-01,8.212197069524135307e-02,-5.740032338110579412e-03,-8.070717121263492125e-03,4.188254577491607247e-03,6.236320734024047852e-01
5.497736720771445595e-02,-5.453094720797206918e-01,8.226376150523057040e-02,-1.691776575882595127e-02,-1.463966857587148743e-02,1.820089992936096968e-02,6.164121031761169434e-01
5.568945233773014980e-02,-5.354203203198955041e-01,7.413981793638738105e-02,-2.747991086302840284e-03,-1.116423896199900123e-02,5.005092751417548891e-03,6.009401679039001465e-01
6.648937174943447825e-02,-5.897902197256652546e-01,6.030065388362698675e-02,-3.977844725376465836e-03,3.845894833884529770e-04,2.535921988677623719e-03,6.532586812973022461e-01
4.550212533860958919e-02,-5.021655355083539662e-01,7.375573711864180648e-02,7.657870771491694095e-05,-1.032720504435178689e-02,-1.225540853087318186e-04,5.626115202903747559e-01
7.243492077292537634e-02,-5.905807504950444375e-01,7.708601462546502137e-02,-1.590315154183155524e-03,-1.461754136374046175e-03,-2.046681320715827007e-03,6.653733849525451660e-01
6.753387784596326382e-02,-6.369938285780043508e-01,4.387285767599785613e-02,3.028095609758051955e-03,4.308045767210418736e-02,-1.555933614977248781e-02,6.975463032722473145e-01
9.647352594654473590e-02,-5.633342413732654874e-01,5.019661972580460874e-02,1.317692452710725326e-03,-6.244999713756219052e-04,-1.319502514398054492e-03,6.379385590553283691e-01
6.474768376091027955e-02,-5.948901207925916257e-01,5.402547422525588727e-02,-7.929345410296736660e-03,1.509921614011666517e-02,6.197039502193481784e-03,6.550969481468200684e-01
4.827557288610934139e-02,-4.553844558279260823e-01,4.308221862661676393e-02,4.701653024967072936e-02,-1.101235258146932884e-02,-3.574927673379880294e-02,5.117755532264709473e-01
5.015314582960955780e-02,-5.841787147375662181e-01,5.468398092182161219e-02,-2.359381042822349638e-04,7.948751999050176348e-03,-1.223612732440217425e-03,6.367619037628173828e-01
6.466715805924577731e-02,-5.894966482747637793e-01,5.782981388919697374e-02,-2.566958888957243147e-03,1.142864650337032870e-02,-3.264196084377630341e-03,6.511127948760986328e-01
6.741571446874081164e-02,-5.901080369438009843e-01,4.574362255455960424e-02,-1.997398817484230971e-03,6.168181909607671314e-03,-5.105737394496664451e-03,6.471179127693176270e-01
6.898342189226971954e-02,-6.020080145449691056e-01,5.205531026331305933e-02,7.305380872570484607e-04,2.288080607634770600e-02,-5.758481026556100391e-03,6.639496684074401855e-01
5.282555460477350584e-02,-5.827705096572459720e-01,5.155707543573914697e-02,-2.794762136545393162e-03,1.093059450303619437e-02,-1.944807857516589423e-03,6.352723240852355957e-01
5.910175842114681610e-02,-5.928084580889130262e-01,5.904241403384499765e-02,-2.682411305010276147e-03,7.979356914138204318e-03,-3.041717123342333080e-03,6.520648598670959473e-01
4.571288583758159607e-02,-5.873592155293037020e-01,7.065498863553368314e-02,-4.895410365150775281e-03,4.877741954098764078e-03,-1.588374594007502510e-03,6.460211873054504395e-01
9.175124427425210283e-02,-5.726912980715552770e-01,5.375596569130111635e-02,8.993323420190994094e-03,1.525601201404815045e-03,-3.418772075275733607e-03,6.465033292770385742e-01
6.350225704590781173e-02,-5.854850194264956675e-01,5.656827955429119537e-02,1.017609154069739653e-03,4.026648486242664915e-03,-6.249661747746699083e-04,6.455892324447631836e-01
7.424884259524333618e-02,-5.823625635953978419e-01,7.481308914654338782e-02,-7.859952765483710618e-04,-5.968588912749775433e-03,1.520352572148858552e-04,6.569765210151672363e-01
7.613836271969776082e-02,-7.017212576318330175e-01,7.563563070100060015e-02,1.481657810033769167e-02,-6.319524304706679307e-02,4.193342837020863287e-03,7.857270836830139160e-01
8.195870328959728446e-02,-4.979762538692357188e-01,3.522765904306046636e-02,1.944328541609544742e-02,8.654752160012260317e-03,-2.158165786742791982e-04,5.592551827430725098e-01
9.305978718695442908e-02,-5.719991057030044956e-01,5.766575469271212340e-02,7.697857039334673329e-03,2.226878068712248408e-03,-1.593141829855319836e-03,6.482416391372680664e-01
5.705302009174956224e-02,-6.124432585551817798e-01,5.210642333606074761e-02,-1.537312786145436389e-03,-3.660393117448705602e-02,2.858270035832769472e-03,6.700665354728698730e-01
-5.321081413307005015e-02,-6.491069452682139973e-01,1.292268751055594689e-01,-7.647558263506747112e-02,-7.439587527443931869e-02,-3.237084589456116351e-02,7.310150861740112305e-01
6.615389605626997849e-02,-4.632868970466421099e-01,2.847985299166413964e-02,8.176002664344731493e-04,-1.006900583608703013e-02,1.652455501518315694e-04,5.119442939758300781e-01
2.847635325057379374e-02,-7.475588242146584683e-01,1.386454424148360065e-01,-1.658132925392753407e-02,-4.192920289867385630e-02,7.126209685662438821e-04,8.402162790298461914e-01
8.065794710040008475e-02,-3.295159251388861121e-01,2.363016631141116874e-02,-1.806455701151209528e-02,8.606258245126158224e-02,1.203148378049029438e-01,4.633893966674804688e-01
1.224111281555709252e-02,-5.803012476549350707e-01,7.179598991481778159e-02,9.978363355154749870e-04,-8.313219510756829356e-03,4.799652897974907495e-04,6.246222853660583496e-01
8.499396611622128672e-02,-5.584154896321860129e-01,5.193277341166699368e-02,1.103566092031256799e-03,8.053019542270906800e-03,-8.051054493403221254e-03,6.278451681137084961e-01
-2.063007709232092535e-02,-7.253922788201037086e-01,1.452282298788652448e-01,-1.587829605626415452e-01,-9.921799262795370777e-02,7.569947506278780665e-03,8.639618158340454102e-01
6.655679983957296653e-02,-8.927588096429348585e-01,1.149872221334775069e-01,-5.481872326158427483e-02,-1.070941212550578642e-01,3.293656417509694539e-02,1.007853746414184570e+00
4.040345279597645778e-02,-4.226544694512818223e-01,3.376703877180176061e-02,-5.049764320289929637e-02,1.103385146365699551e-02,-3.141778030208589728e-02,4.715613722801208496e-01
7.754049252436256978e-02,-5.994581352741263913e-01,3.360825598722438912e-02,6.337756823056354787e-03,-1.695208704460056739e-02,6.744149088471491915e-03,6.569887399673461914e-01
8.188370515620099765e-02,-5.853250969882617394e-01,6.314817028757688244e-02,1.754491558986341539e-03,6.211401097027489417e-03,2.413722601237245843e-03,6.581493616104125977e-01
8.245841583498991767e-02,-5.946688744065489196e-01,6.802975498912439134e-02,2.312781646963563316e-03,1.516297289125583718e-03,2.442314567041440395e-03,6.700599789619445801e-01
-2.699557358064227919e-02,-6.213554796198728081e-01,9.334821280907151797e-02,1.889878342326341623e-02,-5.115881031460290523e-02,2.253235958184101467e-02,6.706117391586303711e-01
5.464135229023947549e-03,-6.807968082123014852e-01,9.422217074191052699e-02,-1.611568415259839390e-02,-1.011132216731176758e-01,-2.245122897943090806e-02,7.567735314369201660e-01
6.382669237115198846e-02,-5.803613398759758235e-01,6.760716028015720247e-02,1.378927210165952107e-02,-2.127677735030828864e-03,-1.283561157127468925e-03,6.465421915054321289e-01
-2.255131139866806134e-03,-5.958979685332093101e-01,9.928505541679943924e-02,-1.016522211199766268e-02,-3.286391201113043805e-03,2.732638537220608184e-03,6.506655216217041016e-01
5.395049506147259200e-02,-4.780687688668435742e-01,6.050706181420748009e-02,8.196114285554634282e-02,5.189713651279081325e-03,1.996203048018487664e-02,5.549818277359008789e-01
7.046393646197579574e-02,-5.988904371331895682e-01,7.084376140823861467e-02,-1.525160856583115433e-03,1.091720511896847193e-03,4.936394699651854880e-03,6.696068644523620605e-01
8.395058701971358506e-02,-5.389741836805088671e-01,4.100776394258182078e-02,1.616021067970770542e-03,8.649931035436441568e-03,-1.605915177983528546e-04,6.027948260307312012e-01
8.224378254625480666e-02,-5.856068932789929571e-01,6.964607042782497426e-02,-1.079018958253627480e-02,3.208405978530711432e-03,-6.811055333469898283e-03,6.620340943336486816e-01
5.666222717642110940e-02,-5.854302622839731018e-01,5.995283961853112298e-02,-5.114953842621066012e-03,-5.090912336718119921e-03,-2.066233834031949192e-03,6.438754200935363770e-01
6.092101228582810779e-02,-5.840620045366080593e-01,6.028306482452014392e-02,-1.182227034125239848e-03,-1.050053858102831424e-03,4.358034093474241364e-04,6.446705460548400879e-01
5.895519136409141381e-02,-5.834247044754943268e-01,6.830797389768183958e-02,-2.248656704013850174e-03,-4.673595082599768970e-06,-4.352328063808109763e-03,6.471626162528991699e-01
6.174109826841853166e-02,-5.544510524758368142e-01,7.722537436561052737e-02,2.571457212604300133e-03,7.316795774617666087e-03,1.188289538453105379e-02,6.245621442794799805e-01
7.119612560361843201e-02,-5.618016668566286898e-01,6.618733215709202145e-02,4.862197132365646615e-03,1.649652936129972908e-02,4.916586197961511466e-03,6.312690377235412598e-01
6.545474352256089312e-02,-5.734562130491661636e-01,7.029216494099521650e-02,6.231958361620976335e-03,-8.577738708505606513e-04,-1.179215017731185177e-03,6.414391398429870605e-01
5.574975694724956798e-02,-5.748691816572504276e-01,8.635369406612425358e-02,8.531975520823375115e-04,5.131029268343197114e-03,1.390305387077064728e-03,6.465317010879516602e-01
6.712446508133768086e-02,-5.839713121579681587e-01,6.665057613397629144e-02,1.677484072036629185e-03,3.914793856178997236e-03,8.007493923222938279e-03,6.510485410690307617e-01
4.697369094983658289e-02,-5.014343470484631249e-01,6.314857405743565244e-02,-1.073206602690942235e-03,-1.514930566995429523e-02,-2.625608112250855507e-03,5.573114752769470215e-01
6.552555880814600608e-02,-5.782402568763496120e-01,6.201787691480920017e-02,-2.734428634109847215e-03,-1.923410025324613897e-03,-2.487591368459381429e-03,6.420597434043884277e-01
2.524295106569737768e-02,-4.291277135981403368e-01,4.261082928136195047e-02,-2.393902503514509436e-02,2.874925408405610509e-03,-3.220162559045443296e-02,4.685089886188507080e-01
7.080391469849006691e-02,-5.588077472351477004e-01,6.852068979866560161e-02,1.335613357664839664e-02,1.314564058634127251e-02,7.672965185031472256e-03,6.294510960578918457e-01
9.023896587958252224e-02,-5.636547301824084144e-01,5.686194921967641092e-02,2.851543847288674771e-03,2.535915069937490392e-03,3.057271164940050193e-03,6.379166841506958008e-01
7.430250673357396973e-02,-5.853409624917685905e-01,7.716444165053013005e-02,8.320211029079216131e-04,2.413986463044244784e-03,-2.451154860705635533e-05,6.610938906669616699e-01
4.788909922982648171e-02,-5.013362105720368112e-01,6.106564164231745306e-02,-9.018018342285907558e-04,-1.429669354352529169e-02,-1.996470704488819900e-03,5.564948916435241699e-01
1.062069409717188995e-01,-5.944651064510999561e-01,-2.620374827607985235e-02,2.381070806548825445e-03,-2.026917178760709315e-02,4.198390713623791765e-03,6.457552313804626465e-01
7.014841676245056612e-02,-5.859151684285753836e-01,6.770167855659381395e-02,-2.111889386483935878e-04,-1.761841782570844870e-04,9.411126562193372494e-04,6.548458337783813477e-01
9.133809680752866256e-02,-5.717408597842230655e-01,5.591636121740170551e-02,8.021722622959602533e-03,-8.062811626115267024e-05,-3.296871227180614861e-03,6.462713479995727539e-01
8.279683422221481570e-02,-5.795470358722620841e-01,6.099412603322965087e-02,-2.376898156138743112e-03,4.726344088669478388e-03,-5.833507684906257939e-04,6.517813205718994141e-01
6.864585403585829471e-02,-5.352401022001787023e-01,6.246294600200491542e-02,-3.194422971811235906e-04,-1.601545158055953100e-02,3.574695279735771460e-04,6.014589667320251465e-01
5.558843120916953651e-02,-5.876661367495270571e-01,6.705892835373861161e-02,-3.737387663082857936e-04,5.950483147566568674e-04,2.038127596122530066e-03,6.490765810012817383e-01
8.720657964884756530e-02,-5.722486012708714043e-01,5.696715222094614339e-02,-9.537848224932520338e-03,5.052454717674700543e-03,-5.409243819727359986e-03,6.452063918113708496e-01
8.073908724663006464e-02,-5.907628392754713520e-01,6.441506589041229303e-02,-2.482968853403709139e-02,2.910307327335436966e-03,-5.404353779604002643e-03,6.649678945541381836e-01
5.617663951777868148e-02,-5.874777193267963771e-01,6.418859565322695970e-02,7.265995713711642223e-04,1.238384554437621391e-03,-9.250811544693285111e-04,6.477042436599731445e-01
8.836804864058173115e-02,-5.757527719073802785e-01,6.038964823735046283e-02,-1.077987099971320500e-02,4.308904682119234046e-03,-3.691394689600401274e-03,6.509250402450561523e-01
5.780625463209596027e-02,-5.833164623039606145e-01,8.414590894700499368e-02,4.535385445150466794e-04,7.585016835845915899e-03,-6.737276468160212578e-04,6.548233628273010254e-01
9.049752097332175449e-02,-5.709083092496478606e-01,6.157941583184056711e-02,-1.791785947105817495e-04,-5.946770098602647409e-03,9.646190775205203865e-04,6.475154757499694824e-01
5.177983506989791707e-02,-5.819614714939390643e-01,7.965479329534813635e-02,6.808115468626487225e-04,-6.807833485771275749e-04,2.535746899148787615e-04,6.481308341026306152e-01
8.588413469590666649e-02,-5.797263770051458431e-01,5.848237372570183612e-02,1.314340080753266483e-03,4.459355081592629921e-04,5.691126297284274799e-04,6.523465514183044434e-01
4.571769234183550856e-02,-3.522124893350137009e-01,1.590674915108522547e-02,6.648484264940853622e-03,4.682941870088849767e-02,-1.726878502076290289e-01,4.935071766376495361e-01
5.716380733053066932e-02,-5.850626257006671382e-01,5.767364785055065224e-02,-2.310395219289449365e-04,-1.181736235033448287e-04,-1.935761443788255745e-03,6.424903869628906250e-01
6.051361878008756912e-02,-5.785264437310559948e-01,5.008473273944233362e-02,-9.138846635928473891e-03,-1.491659329699991307e-02,5.827832884710459210e-03,6.346939802169799805e-01
7.365319025637934169e-02,-5.954870574403101635e-01,7.253188442207905706e-02,-1.957326869404135347e-02,6.810180841073922194e-03,-1.586698834523957505e-02,6.701070070266723633e-01
8.246519946554700664e-02,-5.686521955183314603e-01,6.428868944377985617e-02,5.084254438344695468e-03,-6.380535759858318307e-03,-5.010216618371513345e-03,6.424361467361450195e-01
9.519566573040430524e-02,-5.632312005987437642e-01,5.010778651108357962e-02,2.303183835965560543e-03,-1.816010398954631764e-03,-8.353188228253755304e-05,6.371009349822998047e-01
4.766656047066902824e-02,-5.593857456787383331e-01,9.461662282044128180e-02,2.133586086761248609e-03,5.781469890014124050e-03,8.229635521495210632e-03,6.320878863334655762e-01
5.945571890283518623e-02,-5.679565422343092473e-01,7.583264363669861563e-02,-2.305486612645504501e-05,1.266287245633861179e-03,1.121109888973555592e-04,6.357627511024475098e-01
4.891428587370935666e-02,-4.600744162900335943e-01,4.530557073037036475e-02,1.169469565964014260e-02,1.652601416572041472e-03,6.723339369242942176e-02,5.207928419113159180e-01
6.217253193216148999e-02,-9.021131948095365560e-01,1.268746453082724712e-01,6.899029862279282277e-02,-9.942946931952129086e-02,-2.363034786748970106e-02,1.020802378654479980e+00
6.168127465504674722e-02,-6.120946638940985007e-01,2.566091246616047927e-02,8.119452657549836722e-03,-3.476251340333953721e-02,1.183527803897769549e-02,6.597310900688171387e-01
2.573530028579595896e-02,-6.756362504933779434e-01,9.875461045298289386e-02,3.464288951292583598e-03,-6.948905335963291574e-02,3.018117305343784394e-03,7.503446340560913086e-01
8.970625648065097546e-02,-5.778577921883414348e-01,5.498085789448248217e-02,1.942635357110199549e-03,4.164323227053652078e-03,1.022034837870732004e-03,6.509475111961364746e-01
5.676549123985849543e-02,-5.842409689714804788e-01,4.789369776616977936e-02,-2.830129995737056198e-04,7.769305881011105003e-03,4.457956494565974118e-04,6.367598176002502441e-01
3.575035033701209897e-02,-6.083461871624268325e-01,6.904854795735859696e-02,7.449252364794670990e-04,6.544326610275820466e-02,-1.827254709723712470e-03,6.710264682769775391e-01
8.513174134547327188e-02,-5.863091638860793431e-01,6.364220206799614532e-02,-6.023711203216417821e-03,8.936082413550440126e-03,-3.671501059576413439e-03,6.612522602081298828e-01
3.717554896375999118e-02,-6.746675504948637103e-01,9.626246655505943384e-02,-1.204113450410871679e-02,2.981513702352169351e-02,-1.227120393710489504e-02,7.455374002456665039e-01
7.011240143778993406e-02,-5.890531693531955160e-01,7.801505747943124347e-02,-3.856016434205549858e-03,-2.406744002762975336e-03,-1.764372151836844746e-04,6.631990075111389160e-01
8.887185645033671144e-02,-5.799493621319478098e-01,6.122879848289441984e-02,-4.248482762701000053e-03,5.819922051318972885e-04,-3.505197623412312485e-03,6.555072069168090820e-01
6.438748055091741973e-02,-5.865508312333269636e-01,4.141177230423465083e-02,-1.879799906935692105e-04,3.158680376083288291e-03,-8.089387070223573667e-04,6.397849917411804199e-01
7.270622858567865610e-02,-5.896092365267480151e-01,6.648006501684416980e-02,6.985137013848731393e-04,-1.054995597714054227e-03,1.493695049584568184e-03,6.592331528663635254e-01
8.410821028552503686e-02,-5.984245433970385442e-01,2.808152144234704606e-02,-4.661471875310324586e-03,7.651355828553477005e-03,3.283157423596581512e-03,6.565234661102294922e-01
6.927447020116347942e-02,-6.009145979504372237e-01,3.076441711015034941e-02,-7.169092747902042553e-03,3.363937298368799289e-02,1.144601116441522001e-02,6.548048853874206543e-01
7.038488849969579131e-02,-5.965074996752942615e-01,6.928784190201650595e-02,-2.149604901493507719e-03,7.215816960605322397e-04,4.372292219411664030e-03,6.663991212844848633e-01
2.572742590239776583e-02,-5.799249536395789661e-01,5.443896491229135992e-02,1.904782145774234960e-03,-1.453843459209809563e-02,3.383809777455273112e-03,6.210536956787109375e-01
7.053684384982113198e-03,-1.565485415329942176e-01,6.947094754546731532e-02,4.201348913414593156e-02,2.532532590340416667e-02,-8.132984551475373747e-02,2.606460452079772949e-01
4.396854273475755970e-02,-3.594894965738326120e-01,3.197501145775127895e-02,6.934545604170605504e-02,-4.214954786474345641e-03,-1.104900376792552000e-02,4.158476591110229492e-01
7.700031949029734202e-02,-6.009176400590658940e-01,3.355921354257010436e-02,7.972163904244185598e-03,-1.577244016738253707e-02,4.051255587535646137e-03,6.580247879028320312e-01
-1.063749564102375866e-02,-6.721426437923541108e-01,1.321447663137129136e-01,-3.978890435041213675e-03,-4.681108417730618643e-02,-1.207216469967489726e-03,7.476983070373535156e-01
6.266587549222746301e-02,-5.875078114475776880e-01,3.998959798998388826e-02,-2.158444482743029393e-03,-1.521125083338111146e-02,-2.847911172968222923e-03,6.397100687026977539e-01
2.239814464100553515e-02,-5.877047154301409115e-01,7.216715891754552081e-02,-2.661968825005557593e-03,-7.116149126425315961e-03,-5.926819452602738111e-03,6.366673111915588379e-01
1.344340028875085080e-02,-5.965311314523029651e-01,9.167501577140335645e-02,-3.916829842220124515e-03,-6.488921796323164452e-03,7.093077536017515679e-03,6.528642177581787109e-01
5.244108460746269018e-02,-5.823595139786080788e-01,6.028515754060845278e-02,1.017653550013922139e-04,-1.134871960430898497e-02,-1.124696946162841984e-03,6.390641331672668457e-01
3.415688730106616888e-02,-6.096732028090546818e-01,5.643353361969796755e-02,-1.332496130241511006e-03,-3.276879110408944390e-02,2.367946528256682000e-03,6.577228307723999023e-01
5.661149686196842445e-02,-6.953865683982443091e-01,3.919116430875710377e-02,9.856965372528697644e-03,-1.079684873206754325e-01,2.307844233915180442e-04,7.667905092239379883e-01
4.867351293687610658e-02,-5.573978565907269367e-01,8.887422540284181660e-02,-1.023541244065092346e-03,3.054340792436218213e-03,-1.421121195135082588e-02,6.276465058326721191e-01
1.140569932380944285e-01,-6.593221718175932278e-01,-9.291281046042987324e-04,2.019930636494291290e-02,-3.060743062409337911e-02,1.362976433632129974e-02,7.259483933448791504e-01
1.049834819472594827e-02,-5.294107345157844646e-01,7.989663178175687719e-02,4.136266111103957532e-02,-1.744612546346667806e-02,-1.017675562192921733e-02,5.832179188728332520e-01
4.321001847431757414e-02,-6.513064733642135451e-01,1.380242107666259099e-01,4.947376967164445610e-02,1.210315410412019822e-02,-2.130786031053740620e-02,7.525539398193359375e-01
5.408532899222623369e-02,-5.820546907281944904e-01,8.198907482803738378e-02,4.661471331612616203e-02,-4.895496129118961232e-03,-1.523710721108952927e-02,6.561178565025329590e-01
4.932442922473290192e-02,-5.771101056444748467e-01,7.293154075859067942e-02,-1.190015879438632374e-03,1.125105372156133326e-03,9.781873515182757414e-05,6.385717988014221191e-01
4.284038930460870587e-02,-4.334112514639361091e-01,2.822851281421295822e-02,3.616181553439040686e-03,-1.372009655968058246e-02,-1.079422799867720689e-03,4.697633981704711914e-01
5.175312269645154784e-03,-3.614888786818145072e-01,2.188457378127403596e-02,-3.013051468521152527e-03,1.476619930529714459e-03,8.041619339292576741e-04,3.753454983234405518e-01
6.154071151260631645e-02,-4.717158756544597153e-01,3.968889741817421823e-02,2.204423975262963242e-02,-9.523728408598516534e-03,-1.305022998690022300e-02,5.248126983642578125e-01
2.971028318001028845e-02,-5.943144357421805690e-01,9.149363223757239760e-02,2.219378282552957396e-02,7.979452043751470922e-03,-1.033713074712516548e-02,6.586104035377502441e-01
1.072037344730844555e-02,-6.016991155654777268e-01,1.015646213332231929e-01,-5.383708877674702083e-03,6.509931722975397265e-04,-5.043622259280060305e-03,6.626535058021545410e-01
-5.657139557043860956e-03,-6.140647963131808940e-01,1.179471086764023458e-01,4.109841348476347273e-02,-1.056349947906706950e-03,-1.376839881230158867e-03,6.824338436126708984e-01
6.726169291022437990e-02,-5.059908566840891631e-01,5.151165451407205276e-02,-4.209274296824035123e-04,-1.528026604739482659e-02,-1.623400691011435762e-02,5.668592453002929688e-01
5.335026807136863947e-02,-3.831311125591684297e-01,2.139963680364634357e-02,6.741418466189831593e-02,-3.465348126552805601e-03,-5.171171972521246274e-02,4.464116096496582031e-01
1.089447051288539026e-02,-6.158179534469343519e-01,1.103110452817190335e-01,-8.904853257880280398e-03,-6.641118081366191236e-03,1.371135633775850482e-03,6.821536421775817871e-01
6.726577073885400826e-02,-6.108755367098752664e-01,5.398507869454066688e-02,4.166814069591301926e-03,4.864503298983265805e-02,-3.687893119236028416e-02,6.799096465110778809e-01
9.230754871606655643e-02,-5.432355490587938984e-01,4.276092306437198620e-02,1.260544345356469278e-03,-8.767693579559239156e-03,3.027243386986169338e-04,6.124675869941711426e-01
6.361041325838664995e-02,-5.839116933783423669e-01,6.188856653988636380e-02,-1.000620037958310348e-03,3.213381405770834675e-05,-2.108402244696982401e-03,6.466755270957946777e-01
6.038322029015080750e-02,-5.890639128586490081e-01,6.836424223517020837e-02,2.525822398679886463e-03,2.086134251006792513e-03,-4.795163142991164772e-03,6.535515785217285156e-01
4.979026318208978896e-02,-5.891794809970825053e-01,6.201713127353239430e-02,4.081468575184447369e-03,3.511175875176419676e-03,-4.224687861172282330e-03,6.452789306640625000e-01
4.001339885487190107e-02,-5.963805234582360004e-01,6.544073335609634778e-02,5.368443374953410854e-03,1.072200751438572366e-02,-5.552409975435310986e-03,6.498841643333435059e-01
5.040036073587650378e-02,-5.849110964435566551e-01,5.573599207534482569e-02,1.208842947291841659e-03,6.618268316611000505e-03,-3.155705612026660223e-03,6.381258368492126465e-01
4.051950620677582937e-02,-4.708997701593722884e-01,5.646837594522013948e-02,2.186597259839831789e-02,-7.985713936986689812e-03,8.586231679202083189e-04,5.211415290832519531e-01
9.291641157313573762e-02,-5.628706402782951423e-01,5.247097349417545464e-02,2.786535350958098227e-03,-1.398800128118275928e-03,-1.162217824819556300e-03,6.365548968315124512e-01
8.444214884028752865e-02,-5.431166759026376800e-01,4.935707618954351950e-02,1.038536817158552256e-03,-7.844424078768015562e-03,1.317534331552873785e-04,6.109263300895690918e-01
-7.993661706604676676e-04,-1.939388745739934194e-01,-2.055313526891380804e-03,-8.120897638506048566e-03,-6.713677055696957822e-03,-1.565750349967436061e-02,1.952701061964035034e-01
-1.269884094176769451e-03,-1.532467063857058664e-01,-1.325142116181712848e-02,-1.831306362430325328e-03,4.508587269963149589e-03,-7.628898547320542289e-02,1.973592340946197510e-01
6.467240861008799468e-02,-5.870402202411937331e-01,6.270430962036799283e-02,-5.444896337414192357e-03,6.280801400744116412e-04,-5.130778708053077876e-03,6.508607268333435059e-01
9.843350947788215288e-02,-5.595740482868922783e-01,4.594464936114969755e-02,3.895169301618186782e-04,-8.325617260365197501e-04,1.442521307702359084e-04,6.333984136581420898e-01
6.000918812163849592e-02,-5.813978311971171875e-01,7.092444346789872345e-02,2.120686167244790338e-02,3.719946030086212618e-03,-1.103815707757061122e-02,6.482896208763122559e-01
6.889054904800448464e-02,-4.525274424876933876e-01,1.775953261144294637e-02,1.102878911051369173e-03,1.451580168089735114e-03,-2.158163150106599945e-04,4.978359043598175049e-01
1.515298010955257180e-02,-3.859667820578396302e-01,3.210223089351682546e-02,3.257356078935068106e-04,-5.704728953014068758e-03,-3.885751748813272982e-02,4.154644310474395752e-01
5.063569138706300321e-02,-3.654977790435413043e-01,-5.611380653551302500e-02,-3.019877453918515253e-02,-5.153123555468375194e-02,-1.436948765717200038e-01,4.612888991832733154e-01
9.443871605865147845e-02,-5.783638183588895032e-01,5.707296657833382802e-02,2.866892683412738084e-03,-9.848386359834224255e-04,4.764232530120223732e-04,6.549411416053771973e-01
1.216179661477426177e-05,-1.508637440827854670e-01,7.662790230851702911e-02,1.064852069226581745e-02,5.347945841687131580e-02,-3.625280561110799660e-02,2.303391098976135254e-01
3.445495931538256063e-03,-2.624128903860093454e-01,1.610177834011443376e-02,3.809712559229418670e-03,-4.996464993095541506e-03,-3.665714750373640779e-02,2.799201905727386475e-01
9.405774786568629753e-02,-5.741148554487701672e-01,5.539718428369777570e-02,2.004160715177507116e-03,2.184501927443073283e-04,-1.972824444849972589e-03,6.497239470481872559e-01
7.224217614383657282e-02,-5.887969704752729072e-01,7.976243725110732097e-02,-3.140227327014662520e-03,-1.603485266756288913e-03,-1.876357852122728220e-04,6.648592948913574219e-01
-1.208574879288767945e-02,-1.341208977364505839e-01,4.004205645427513782e-02,5.378739477441663031e-02,-2.358914343533847005e-02,-5.732398274973302121e-02,2.101856768131256104e-01
2.953682717839922756e-02,-2.631115201611787802e-01,-2.203026200998867146e-03,1.721116821092895030e-02,4.315555129129346537e-03,-4.819099346777343945e-02,2.920162975788116455e-01
8.281198471802325711e-02,-5.865452689356061011e-01,6.996386029000875584e-02,-5.583282195541670271e-04,-3.499162420915847855e-03,-3.256393041392194147e-03,6.630789637565612793e-01
7.532603849478758384e-02,-5.840478690678563289e-01,6.866946675148191681e-02,4.920552604099676011e-04,-1.177854841137228326e-03,-7.175316060514791254e-03,6.561923623085021973e-01
8.359778655055546959e-02,-5.761975476075871239e-01,6.269682818312308226e-02,2.058349760166178904e-02,-5.142105820544114539e-03,-3.052014013266465212e-03,6.506571173667907715e-01
1.206960640826069964e-02,-3.607212587926043046e-01,1.508857283163228535e-02,1.253646549562630616e-03,2.082252499532771632e-03,4.940669493507477902e-04,3.743341267108917236e-01
8.808685836246929468e-02,-5.775107529405494322e-01,6.199334541136120036e-02,4.500072157398062392e-03,-5.582243825538685776e-03,-4.267271263920385110e-03,6.531019210815429688e-01
6.191917941722205332e-02,-5.700862918619140629e-01,8.654959436812367790e-02,1.581256866713260040e-03,-2.211524382125121778e-03,-2.885990066691158408e-04,6.446910500526428223e-01
8.678737937771935362e-02,-5.791326014739248684e-01,6.254266158626017869e-02,3.605047633928477099e-03,-2.514198519893530177e-03,-3.755005863584509954e-03,6.542112827301025391e-01
7.131087759426199546e-02,-5.831348571503409683e-01,7.034562294998356058e-02,-2.569084714662684624e-03,-1.663114331467110312e-03,-1.180724121379281592e-03,6.539883017539978027e-01
7.270047264733722758e-02,-5.859118154489051378e-01,6.849046392742205724e-02,1.023725386206655917e-03,-1.302017259263296093e-03,-9.157941977618684962e-03,6.567152738571166992e-01
7.183004907358703228e-02,-5.863754408611308033e-01,7.305048033863703605e-02,9.745624030162719368e-04,-3.257803745919770049e-03,-6.993515894452589530e-04,6.588439941406250000e-01
9.268200057932501901e-02,-6.037863950496974441e-01,2.538018103333114506e-02,1.512521831165024788e-03,-1.796931074264315406e-02,-2.294218493206158851e-02,6.672921180725097656e-01
6.356234704688537573e-02,-5.876329088188825267e-01,6.663352999752014671e-02,2.040259154347222933e-03,1.676252471235961097e-03,-8.749833965910837254e-04,6.527540683746337891e-01
6.955962245306526737e-02,-5.972666881451773602e-01,7.281769504813756511e-02,-6.434827876081722527e-03,2.674230362820719962e-04,-3.364136850405537757e-04,6.685546040534973145e-01
6.778309358794651351e-02,-5.895897119989200741e-01,5.580671034619019699e-02,-3.263594709207731474e-03,7.879642823439544919e-03,-3.446714506854015383e-03,6.516619920730590820e-01
6.972065964215681810e-02,-5.918191564885557643e-01,6.767171743259497996e-02,-1.857713645807115453e-03,3.374249031956306046e-04,-5.974286934967281207e-03,6.606068611145019531e-01
6.575974755519567450e-02,-5.898329760159384261e-01,6.182986026390771550e-02,-2.769823904679388944e-03,2.036848621718342564e-03,3.141362956854771172e-03,6.536864042282104492e-01
8.661485423459652777e-02,-5.779829734110868422e-01,6.125637647858320212e-02,-2.942402898640227374e-02,-5.247431636256026481e-03,9.810143313757964389e-03,6.545599699020385742e-01
3.742423707950987000e-02,-5.396712780870991377e-01,8.060797482825493576e-02,-9.421679130226638665e-02,1.956886568691070319e-02,7.432203288807733010e-03,6.227119565010070801e-01
2.720478941834345021e-03,-2.915644139480110253e-01,-4.288651418345501565e-03,2.459509566455048580e-03,-2.129468455310801461e-03,2.995054544858635672e-03,2.909445166587829590e-01
3.816388351055527428e-02,-4.279462002845777491e-01,4.074838150601681197e-02,-5.422318053244343239e-02,2.944530245320679676e-04,2.906286889662840905e-03,4.767766892910003662e-01
4.096351770137093840e-02,-4.213832867497203649e-01,2.721503520334730974e-02,-5.119507326053048674e-02,-5.164284837435197248e-04,2.950076304236679513e-03,4.642055034637451172e-01
7.465275162072895765e-02,-5.880468094399120549e-01,7.020244272875314495e-02,-1.642343693299217269e-02,-4.876491101816228350e-03,2.546062569893263201e-03,6.611666083335876465e-01
8.409228444974506389e-02,-5.676445601122541706e-01,5.724469249175107022e-02,2.441449222276108333e-02,-6.897971131896425342e-03,9.755814025954439575e-04,6.402483582496643066e-01
7.017669233879372803e-02,-5.152418373042976230e-01,5.716739781810817322e-02,-2.065879133995036226e-02,-1.163281440247118485e-02,5.583686234900631096e-03,5.805584192276000977e-01
6.275619879753102648e-02,-5.185031772301591513e-01,5.591584908038096935e-02,-4.467765380246877666e-02,-7.431429162083835749e-03,8.847074125610341483e-03,5.833712220191955566e-01
1.086022222834964746e-04,-1.746740148795913328e-01,7.629611334370678399e-03,8.785887199035488648e-02,-6.725664767936480153e-03,2.127571067703284274e-02,2.378471940755844116e-01
7.820720575884324011e-02,-5.558136140090730315e-01,6.223892874614131432e-02,-2.018769033339824347e-04,-1.149859711422710797e-02,5.393056244543659866e-03,6.265757679939270020e-01
8.181995369063155277e-02,-5.649735368701281901e-01,6.300835003241414545e-02,-9.348493670609610631e-03,-8.870834855254255621e-03,6.640316813052426007e-03,6.380901336669921875e-01
6.533472754388525150e-02,-5.375611753357807387e-01,7.021123615746363567e-02,8.340156221710856577e-02,1.481219723761920820e-02,3.965214928125806310e-02,6.266496777534484863e-01
9.382954763430370604e-02,-5.427653664603873107e-01,4.627067660429295959e-02,1.033898958232928184e-02,2.093919560755114293e-03,1.329943005291247355e-03,6.144740581512451172e-01
6.670813445925352636e-02,-5.855642807088583535e-01,6.692081560194948486e-02,-1.712789327452945336e-03,1.949707897803874823e-03,1.709736236544647046e-03,6.524009704589843750e-01
7.384938121055750759e-02,-5.895968441411225669e-01,7.406735797045613245e-02,1.701988760429049355e-03,-3.384240802303671147e-03,-1.865084281047430697e-03,6.635955572128295898e-01
8.016093846075617035e-02,-5.720439091595737047e-01,6.551725215829215521e-02,-1.642385965055487675e-03,-2.577395955694087356e-03,-3.949280710695221748e-03,6.450656652450561523e-01
4.221681387478670722e-02,-1.325971820616776431e-01,4.824140970625472730e-02,6.600098420971068107e-04,7.167158294866921020e-02,-2.549724321275352937e-02,2.213854044675827026e-01
9.354109009298763877e-02,-5.586425877642650084e-01,5.185404895882333998e-02,1.364128654178448866e-03,1.606757805421685182e-03,-1.870144893728501595e-03,6.323903799057006836e-01
7.804914885050392992e-02,-5.726378190718287575e-01,7.073479104503044290e-02,3.523856551977146406e-03,-7.394003581188549230e-03,-4.934928691692268450e-03,6.472727656364440918e-01
9.297676656894146574e-02,-5.487758948523433489e-01,4.529825778319224172e-02,5.186597602374343370e-03,-1.871000171605657686e-03,-6.816211843882446749e-04,6.193662285804748535e-01
7.716929488356435995e-02,-5.683953723965919913e-01,7.036006309120468316e-02,-5.216063395617790647e-04,-9.168117558137674900e-03,-3.778063135470881816e-03,6.424173712730407715e-01
9.040892864671307150e-02,-5.252990925280640599e-01,3.353969663211439634e-02,-4.136266563447253686e-04,2.785482984403332869e-03,-9.306345852228811765e-04,5.893573164939880371e-01
7.516812399535419131e-02,-5.865108480590739415e-01,7.881995076391298816e-02,2.367073561445570511e-03,-3.279090464813896270e-03,-1.013442181895270444e-04,6.635494232177734375e-01
7.388260616137889980e-02,-5.586212540817865335e-01,7.023361067229569321e-02,6.041985002643544822e-03,-1.541704047460839416e-02,-9.841636796763876191e-03,6.315691471099853516e-01
5.652757471626645991e-02,-5.833004170945050859e-01,7.271098796503669415e-02,4.088256080363326939e-02,-5.860442507009269199e-03,1.078590445194363250e-02,6.522749066352844238e-01
8.690831249579583639e-02,-5.254154007085456435e-01,3.864289344658033976e-02,-1.510285680345575766e-03,1.004887836963124122e-02,6.273184387478366458e-04,5.899379253387451172e-01
2.320403993195312153e-02,-2.802155908212017321e-01,7.291688122851669451e-02,7.789361479477258099e-02,-3.739125690246169337e-02,2.971390402339334560e-02,3.669659495353698730e-01
6.481097780438391243e-02,-5.866887731127718997e-01,7.154734406286819559e-02,6.412857292290017816e-03,-2.584964936543868424e-03,-3.936706600353920976e-03,6.550388932228088379e-01
8.864153318845829910e-02,-5.563380044143545478e-01,5.502784578609798416e-02,9.380206288526227523e-03,7.840438161863553732e-03,-4.689335960694154966e-04,6.292037963867187500e-01
7.467813770433617826e-02,-5.820355300352738626e-01,7.311370005568515462e-02,-1.288887524633271133e-03,-5.532852573103401103e-03,-1.423726707692029485e-03,6.560112833976745605e-01
7.151020951919040414e-02,-5.874083148778235230e-01,7.239442059576509103e-02,-1.925441836140025665e-03,-1.883834634586734752e-03,-5.531352293307222057e-03,6.594471931457519531e-01
9.311510009867310367e-02,-5.798650129096468708e-01,5.567310727412583260e-02,-5.432603930249069873e-03,-8.505260216391981321e-04,6.722116329795263566e-04,6.551324129104614258e-01
6.273218835465993459e-02,-5.882964545135342949e-01,7.555877282236678205e-02,-5.859055768784611658e-03,1.949725930407839123e-03,-3.505454763052231939e-03,6.576507687568664551e-01
6.673344233660344349e-02,-5.798655815582776096e-01,8.029897818227729744e-02,-1.487327901862742566e-03,-2.269848168029522245e-03,-8.226986796748257148e-04,6.535058617591857910e-01
6.897995070324089428e-02,-5.815119172643707923e-01,8.398956580990948884e-02,4.570242629838483419e-04,-7.448730109145909085e-03,-6.213333859112047698e-03,6.583399176597595215e-01
6.851242356103995346e-02,-5.688144715568911325e-01,7.591897398855701473e-02,-1.930026648717187007e-03,-8.635496753252109442e-03,-1.107624658537455578e-02,6.415323615074157715e-01
7.532049885797087452e-02,-6.039844369396940582e-01,7.195788406828149131e-02,3.341172644185302909e-02,-1.018736090196978479e-03,-2.957882615506191373e-03,6.801181435585021973e-01
-5.184038356293108052e-03,-5.188540802975645239e-01,9.687290221959149461e-02,6.748114470085375682e-02,5.300223300477256705e-02,-2.558009237823171203e-02,5.922397971153259277e-01
-1.838126623914387858e-03,-5.669266020849410559e-01,1.431798026728272055e-01,6.518744564064318792e-02,7.121798966498192607e-02,-4.126503438561086173e-02,6.748153567314147949e-01
-4.787457630335241465e-02,-5.618638977197530915e-01,1.241920509757621915e-01,9.477796727216494799e-02,1.968490216597820752e-02,-2.667225519116791371e-02,6.422442197799682617e-01
6.874095661048532091e-03,-3.554824836249284581e-01,3.344335968707826123e-02,3.938626692380316902e-03,-4.156318491945575413e-03,3.364373081016560144e-03,3.765210211277008057e-01
6.892214498023152558e-02,-6.014960871250820684e-01,8.467841394056346838e-02,2.966950806458001216e-02,5.462004522764960348e-04,-1.145014464796488378e-02,6.806667447090148926e-01
8.841480463094181230e-02,-5.588492078144711162e-01,5.401891237667075241e-02,-1.480719142364789534e-02,5.840260170883104437e-04,-2.012536866688674920e-03,6.313014030456542969e-01
6.995332036390641828e-02,-5.537858732859646249e-01,7.433548332923500812e-02,-1.153802079323635287e-02,-1.246912868286410153e-02,9.125334916539195804e-03,6.268323063850402832e-01
6.364488957556999060e-02,-5.887659281580561732e-01,6.737338953163990452e-02,-2.287505403599452477e-03,-3.195649611263952274e-03,2.807095336207351358e-04,6.543186306953430176e-01
-6.899606224340099070e-02,-4.087204055163685679e-01,1.664137364343030168e-01,1.573441994678886346e-01,5.827466965657938057e-03,-4.153635370804436427e-02,5.747644305229187012e-01
5.657796792574154576e-02,-4.414832508799598210e-01,2.987017385958115612e-02,-1.245972844996446542e-04,-1.016873982945469893e-02,-2.171303595794859490e-03,4.855930209159851074e-01
1.291604189456364293e-01,-3.145013167409859700e-01,1.477133061421087579e-02,-7.850296829498577822e-02,7.375803192101047789e-02,1.349159418057114257e-01,4.985843598842620850e-01
2.231255331147172227e-02,-6.403922355066663519e-01,5.054253794521484933e-02,-2.661961163539600800e-02,1.031545275303757114e-01,5.498769320844413243e-03,7.020126581192016602e-01
4.054258336516525230e-02,-6.208278137030187604e-01,9.599199133780522697e-02,3.852334001573234912e-02,1.248392746856751695e-02,-1.659171525160055283e-02,6.949126124382019043e-01
7.075088251770322856e-02,-5.897583273534166004e-01,6.692373323401393237e-02,-2.643936964882563547e-03,-6.547117465763319924e-04,-2.060384154605817471e-03,6.586305499076843262e-01
6.413604669021813476e-02,-5.888834157524449608e-01,5.989921113326676649e-02,3.045147088377049820e-03,6.259811821884055929e-04,-5.014231943651172897e-03,6.509916186332702637e-01
6.683936669763235194e-02,-5.922044124596215209e-01,6.905847356710051455e-02,-7.446008006595485930e-03,-1.685981206069799487e-03,-1.453690347175670911e-03,6.602933406829833984e-01
8.553239396305534203e-02,-5.393362460916919510e-01,4.793133282989006649e-02,2.201730689030419793e-03,-1.521528458479431088e-04,1.081544372070034760e-03,6.069571971893310547e-01
6.963790551838106024e-02,-5.862494645148277339e-01,6.926309336956834595e-02,-1.323060859304233056e-03,1.818064253943683234e-03,2.478850261851450135e-03,6.557256579399108887e-01
7.192832340864294127e-02,-5.899731791694676764e-01,6.943809965753353075e-02,1.899074401177706234e-03,-4.748082540501642995e-05,-2.039085763371651858e-03,6.606775522232055664e-01
-7.651781640580682109e-03,-2.919687007605342721e-01,1.094194866352482531e-03,1.811907720388818231e-03,-5.733186824690236381e-04,2.785428134068900462e-03,2.888483107089996338e-01
8.776297076552275200e-02,-5.883790994033151200e-01,5.075489680872580234e-02,3.617211774203462141e-03,2.573287912072010422e-03,-6.175528557701653962e-04,6.584643125534057617e-01
2.948843060981648501e-02,-4.284065782638926123e-01,4.004952426854493930e-02,7.757195960979177893e-04,-1.580161888068640566e-02,7.087464086170815842e-04,4.640771746635437012e-01
7.831714092848091058e-02,-6.010667378076678391e-01,7.525795354213662969e-02,-4.344191218428298737e-03,-6.674087325926244749e-03,6.415344972640273785e-03,6.780908107757568359e-01
2.201873787999750198e-02,-3.906106655828161522e-01,3.523991189385156098e-02,1.983737955300766617e-03,9.335315591619397849e-03,3.096546145986818922e-03,4.197562336921691895e-01
9.974751260897130045e-02,-6.257051851855004454e-01,5.426751855382078160e-02,-6.241704771495482779e-02,5.236760194909645394e-02,1.841051735408880813e-02,7.185319066047668457e-01
6.662844332370687628e-02,-5.813200141307962587e-01,8.455110912064281448e-02,-1.897035851757455623e-03,2.508304151804210524e-03,3.435850471398640450e-03,6.571426391601562500e-01
8.010954342070866763e-02,-5.934716878115762206e-01,5.603142887122800064e-02,-2.030078691943231969e-02,3.573000469126034681e-03,1.546238080243267712e-02,6.633737683296203613e-01
6.322232923083781486e-02,-5.951643665750128154e-01,7.059265135710077188e-02,-4.394493851360180888e-04,6.618602301802980516e-03,-8.052874451153982024e-03,6.623491644859313965e-01
3.630999239168569703e-02,-3.858811004061897254e-01,1.852923347363341633e-02,2.818179040866427513e-03,7.889879180771431494e-03,2.742126141395923727e-03,4.138692319393157959e-01
9.012066178876132483e-02,-5.697915082784457130e-01,5.903017569647228679e-02,9.848412306665579180e-03,3.237797707391137144e-03,1.501861865118600406e-03,6.451843976974487305e-01
6.784892097886879858e-02,-5.055581834770077609e-01,4.536400250591815508e-02,-1.436694395305912302e-02,1.111550220942495414e-02,-1.511964764687078085e-02,5.639893412590026855e-01
4.319376602630231599e-02,-4.040560492712514939e-01,3.028382729649750638e-02,-3.734617333577989334e-02,-1.733590270131619288e-02,1.586679129546359271e-02,4.475110769271850586e-01
7.102506231348559851e-02,-5.077846465664355158e-01,4.734010111912700935e-02,-1.976131308558960742e-02,-1.233181189343468889e-02,-7.043947096661663321e-04,5.687721967697143555e-01
8.994951456409169821e-02,-5.563620315462435295e-01,5.136178128656479491e-02,6.333423188079973822e-03,6.387967515384068359e-03,1.060219985937257232e-03,6.281035542488098145e-01
7.250940395499655411e-02,-5.074639367376696519e-01,4.653747106987979332e-02,-1.717110471318630469e-02,-8.847871839254582704e-03,-6.447019016472321567e-04,5.684199333190917969e-01
6.816705614764992371e-02,-5.825139366777442040e-01,6.870143921053142866e-02,3.141118967598320513e-03,1.290958369847921639e-03,1.192340117872308682e-02,6.513024568557739258e-01
6.684328309587139749e-02,-5.637979300027279317e-01,6.663057014924606003e-02,1.375258182572962166e-02,5.093342552678812273e-03,1.633234337819011381e-02,6.316800713539123535e-01
8.780959481489541973e-02,-5.587339439954869258e-01,5.061197877659648348e-02,-1.001488765159623887e-02,-5.906633118972204322e-05,-1.026413217854084056e-03,6.290122270584106445e-01
6.280454612764405087e-02,-5.880594410843018593e-01,7.293509567369613200e-02,-7.925301441543094235e-04,-3.462011539520385480e-03,1.787219927512862135e-03,6.560240983963012695e-01
4.031668987951578242e-02,-3.964408989372584236e-01,3.359131318974761804e-02,5.534200973871885448e-02,9.526801139624327397e-03,2.441072602243368056e-02,4.462210237979888916e-01
7.013006474831706694e-02,-5.455380994988667798e-01,6.659564404006243499e-02,-1.171568458949969090e-02,-1.201656944062830246e-02,-6.990531454455453002e-04,6.145975589752197266e-01
7.503433268182502225e-02,-5.905952166816035298e-01,7.243644865116247167e-02,-2.379893912326230127e-02,-8.960302626268611473e-03,1.795958793244387119e-02,6.665192246437072754e-01
8.751999272567986821e-02,-5.475458716344077104e-01,5.381944392960924528e-02,-2.235059361372333602e-04,9.718912656493584878e-03,-1.355125995505832058e-03,6.191375851631164551e-01
8.040885867506356033e-02,-5.731121822083007356e-01,6.378312284458628745e-02,-6.780260720096425824e-03,-6.465433925957368537e-03,-2.856825313785911653e-03,6.455917358398437500e-01
-3.367033703877159168e-02,-6.053488245663571909e-01,1.232345139201553308e-01,1.071423074463172096e-04,2.785544982167114064e-04,-2.644968477454983247e-03,6.641955971717834473e-01
7.178820268180460817e-02,-5.905561739191573789e-01,7.039257481962840624e-02,5.218513914265323315e-03,-1.186707680798527965e-03,-4.903126112067554727e-03,6.617670655250549316e-01
6.971785558729254317e-02,-5.905027009256134107e-01,7.837763651764220740e-02,5.663033210335400181e-04,-2.295045544732945714e-03,-5.743914373630185088e-03,6.646798253059387207e-01
7.026363069930685601e-02,-5.769560388715062604e-01,6.222993784806160611e-02,-1.319240636239202291e-02,2.428681483390488904e-03,3.241816554771403524e-03,6.436843872070312500e-01
8.157710967801368174e-02,-5.794473646498152775e-01,6.513703160920167323e-02,1.413935682328269598e-02,6.755251241317346625e-03,1.847587394743365635e-04,6.535236239433288574e-01
3.862457953993592152e-03,-5.955642923535178213e-01,9.878762549869868348e-02,8.995818362819426456e-03,3.736227106457486874e-03,-4.499620723218185174e-03,6.523567438125610352e-01
6.636641001161344700e-02,-5.799697932860893301e-01,8.202578341486904678e-02,-1.368411024270002607e-03,-1.039572879427475829e-03,-7.395219523045273727e-04,6.543144583702087402e-01
6.288310462649221444e-02,-5.625626028138903667e-01,7.617032365851819642e-02,4.730431722314379535e-03,-8.328511465408977230e-03,-1.302937072181805343e-02,6.328142285346984863e-01
6.268921500785851197e-02,-5.606796194811489720e-01,7.750953531943119423e-02,2.063082830170580220e-03,8.704226268616938392e-03,7.136908649413086642e-03,6.312208175659179688e-01
7.110979923575222461e-02,-5.849213895366077720e-01,6.764941444868152742e-02,-2.828075506040893857e-03,-1.230334665781419119e-04,2.186117836034269599e-03,6.543371677398681641e-01
6.382464122199438261e-02,-5.808611115339912256e-01,8.521763187897876679e-02,-2.782840146608545583e-03,-7.811764845108567883e-03,-7.234257737740597792e-03,6.559210419654846191e-01
7.369418598770727247e-02,-5.576882350539265065e-01,6.997710454235758770e-02,3.978571072058936266e-03,-1.527196171297767052e-02,-7.189903977629301390e-03,6.302483081817626953e-01
-3.210876798253270437e-02,-6.184585647264404518e-01,1.312225110687095242e-01,-2.165470520699943301e-03,3.377689221677570956e-03,-4.915069313380308891e-03,6.829152107238769531e-01
4.754767590589750736e-02,-5.967784226294193806e-01,7.765288070847892188e-02,5.701598459114389297e-03,3.358435771654779897e-03,-7.088361107225766081e-03,6.601076722145080566e-01
7.738735579702787915e-02,-5.737297124141973459e-01,5.492806674597661143e-02,-2.703680310111222264e-03,4.622267491282663204e-03,-1.937182591342806806e-02,6.411287188529968262e-01
5.119254979393117466e-02,-5.672369006423305660e-01,8.937156702878740200e-02,-8.347420258213137864e-03,4.097133673738689169e-03,1.576157768042876425e-02,6.391621828079223633e-01
2.328233438550228462e-02,-4.359413931891609195e-01,6.084443997022817574e-02,-7.129075064537798191e-03,-5.734491383841281223e-04,4.693603210504433687e-02,4.861164391040802002e-01
7.294477978135430196e-02,-5.838359270494487552e-01,7.777422779305298572e-02,6.071044809325135605e-04,-6.633870714641325545e-04,6.093157146744828181e-04,6.592113971710205078e-01
7.776789349778681637e-02,-5.638986623078100502e-01,6.700127583087275851e-02,-6.142538616347556664e-03,-1.050599412409984786e-02,6.632007067001504698e-03,6.368042230606079102e-01
5.977295534248130982e-02,-5.025061431422241931e-01,5.059534072243798697e-02,-8.193526787469597580e-04,-1.517145855341662207e-02,-1.318137260958311425e-03,5.583720803260803223e-01
7.550897116428118006e-02,-5.871471671467434206e-01,7.779507412714167791e-02,-1.099896681534311572e-03,-2.267629718330735778e-03,-4.070467923766944154e-04,6.638168692588806152e-01
4.083083448480806510e-02,-4.943054376556392238e-01,6.674507171075919065e-02,1.346285106055317756e-03,-1.308657263675824974e-02,-3.164003076485450870e-04,5.490260124206542969e-01
-1.076159895184028437e-02,-3.652754059030712819e-01,5.271204044823132873e-02,-8.666161463061174131e-02,8.567651495160630293e-03,3.747078188595232701e-02,4.232898652553558350e-01
2.697677624327854407e-02,-3.455424748153306247e-01,1.571810745930678210e-02,1.875728881121855500e-03,6.396777898484137109e-03,-1.464378728961485696e-03,3.672097921371459961e-01
7.107230602769876171e-02,-5.887854047007760050e-01,6.488030824730747770e-02,-2.608282982396897733e-03,-1.007675645592090940e-04,-1.035389782907481307e-03,6.568016409873962402e-01
8.748915783761745946e-02,-5.980400620704982018e-01,3.182979721756862279e-02,-6.511809390536923460e-03,5.272789889603285950e-03,6.840554596863920693e-03,6.597295999526977539e-01
7.383874825832895117e-02,-5.890233359455487872e-01,7.384467828486893093e-02,-1.832250033433772355e-03,-2.743835134525988463e-03,1.853422779187640810e-03,6.628974676132202148e-01
6.683908355030149240e-02,-5.717241206959369215e-01,8.235312607127945328e-02,-2.602854700775566413e-03,-6.995175152634085236e-03,5.625792271483912727e-03,6.466625332832336426e-01
5.695960701697516670e-02,-5.648702467448027953e-01,9.064581455326642390e-02,2.363441109284123397e-03,2.596948054732301989e-03,3.082949634674154570e-03,6.393901109695434570e-01
6.600467827689088240e-02,-5.725220722091165504e-01,8.253176287327990135e-02,-5.060994423330445434e-03,-6.600812037934893246e-03,6.122792873882953145e-03,6.471959352493286133e-01
7.724301027281380017e-02,-5.946840590513811087e-01,5.431772226529205105e-02,3.409113480865085238e-03,-3.233486390229940201e-03,3.863119615211202396e-02,6.641918420791625977e-01
4.547554921898128155e-02,-5.891019554342038500e-01,7.562531173613926128e-02,1.011383800050626169e-02,-1.389493093364234854e-03,-3.269533939571636454e-03,6.504419445991516113e-01
-1.555373361426644688e-02,-1.885819254436257586e-01,7.882426697385566672e-02,7.006897350593362106e-02,-2.614468001235067170e-03,-7.913885125511901930e-03,2.647893428802490234e-01
6.218859048462169192e-02,-5.728740900633744193e-01,6.839012509216588209e-02,-9.321368719293942132e-03,5.055199172949780169e-03,1.023514699675180661e-02,6.386963725090026855e-01
5.891644555083228041e-02,-5.586548604348460234e-01,8.431672967038136846e-02,2.530357820260723065e-03,1.225208935001615915e-02,-4.411843447979583695e-04,6.310278177261352539e-01
4.809202544026014436e-02,-5.910812679194453745e-01,8.624208517450610012e-02,-4.120572361832510605e-02,9.522321447109557968e-03,1.779784459773067068e-02,6.638512611389160156e-01
7.447691934897443522e-02,-5.827479847616181541e-01,6.784448367518972067e-02,2.224332724217447602e-03,1.680871972270292503e-03,-7.904783847646893510e-04,6.539531946182250977e-01
5.535657211002439904e-02,-5.384910944114655873e-01,7.652005583748100470e-02,-1.750987026351522383e-02,-1.541736717986201197e-02,3.527939427556230079e-02,6.091285943984985352e-01
8.784706633348379756e-02,-5.725600851455417972e-01,6.046473884338865457e-02,1.595449824441084064e-03,4.176863520805333164e-03,1.431026150475098917e-03,6.472017168998718262e-01
7.595614961241425878e-02,-5.870348774884540655e-01,7.521248608950012460e-02,-4.040767619557609765e-04,1.869320856159618514e-03,2.163915616365057713e-04,6.626278758049011230e-01
2.811704949551763200e-02,-5.586556920677261395e-01,6.526052463993689545e-02,-1.945316445192319388e-01,7.699585372454864629e-02,1.025399246493793742e-01,7.282394766807556152e-01
7.229337695916740469e-02,-5.863773843457635859e-01,7.435583474068072074e-02,-5.262427378420445230e-04,2.148489298911104590e-03,1.350702587640207611e-03,6.597197055816650391e-01
8.162821988991647570e-02,-5.471660263580566674e-01,5.468703947887240679e-02,-1.884288783011200388e-03,1.346973414318324708e-02,-1.276562262540255777e-03,6.162202358245849609e-01
8.205617320387950664e-02,-5.789407797945420597e-01,6.867623198838104792e-02,-4.488442496872388217e-04,4.537371595515593548e-03,4.069975760638255271e-04,6.544576287269592285e-01
6.809510143126537574e-02,-6.047434805017097847e-01,8.095973325351921157e-02,-1.522615046509756716e-02,8.268287804459284809e-03,8.710414245823602450e-03,6.801921129226684570e-01
8.869474509152855402e-02,-5.697918192427400275e-01,5.821074294261410764e-02,-1.671288988525420098e-03,1.078249382380443155e-03,1.386566922113514119e-04,6.437953710556030273e-01
9.132169124403921590e-02,-5.771715975630620221e-01,5.590779959136710220e-02,-4.218820737349338566e-03,-1.363142044944006979e-03,-1.454736645123867180e-03,6.515587568283081055e-01
4.693667705155460390e-02,-5.812981844426265976e-01,8.207710104059648404e-02,-9.170034135964665045e-02,1.600045012120306434e-02,4.141989722858824448e-03,6.663607954978942871e-01
2.978875779647371935e-02,-5.655151967674318936e-01,7.568675013233169824e-02,-3.876420008991251359e-02,6.713632416740529518e-02,3.620127329111275105e-02,6.370071768760681152e-01
-8.735406232078246624e-04,-3.152791169169111285e-01,6.023975508290244085e-03,-1.510877590932037662e-01,6.011351694354935549e-02,1.188934202822964081e-01,4.720142185688018799e-01
6.027817304279087240e-02,-5.861780223545611790e-01,9.148419416045949770e-02,1.550182745935409136e-03,4.990095221103213810e-03,-1.041033929747467966e-02,6.629176139831542969e-01
6.107064067096976134e-02,-5.330585027177574542e-01,6.908229097213777758e-02,2.545106265416022381e-04,-1.697005743353760532e-02,-6.691344542297463123e-04,5.988982319831848145e-01
6.642708526504420563e-02,-5.923642063579883654e-01,7.144753835622164040e-02,-9.019604357669908090e-03,-1.020416128973137626e-03,-5.852653348546688235e-03,6.615803241729736328e-01
6.495764133112827410e-02,-5.806544869594918445e-01,8.065602918015282730e-02,-3.302887171015841689e-03,1.819746311405456233e-03,3.654354811309097444e-03,6.536660194396972656e-01
7.641746035257002134e-02,-5.896667912149444746e-01,7.573358464839757831e-02,-7.828600654906965476e-04,-1.579904898577185997e-03,-1.191341749202829607e-03,6.657527685165405273e-01
6.042688584243760541e-02,-5.327718059868191691e-01,6.610599115904536305e-02,4.069873008104950957e-04,-1.429790542609798640e-02,-1.055694988070711004e-03,5.965759754180908203e-01
5.969366400806344619e-02,-5.800643006395005408e-01,8.937271730598117525e-02,-1.945236710079507924e-03,4.044861129590891259e-03,1.860633420165259998e-03,6.551559567451477051e-01
7.703254304381360051e-02,-5.731052517920811606e-01,5.734155770404630870e-02,-3.659336454280699116e-04,3.968768106221254137e-03,-2.072079450307173776e-02,6.415611505508422852e-01
6.296540533700803466e-02,-5.855987449542874312e-01,8.347478230276142441e-02,2.372550823395011641e-03,1.916736411886497396e-03,-3.362643450243255885e-04,6.590796709060668945e-01
7.600279836294102087e-02,-5.900800202140343842e-01,7.721308375788138445e-02,-5.128728534182320706e-04,-3.607626654275366152e-03,1.458295852149726294e-03,6.667234301567077637e-01
7.337068290625869960e-02,-5.914988984783247083e-01,6.607144464391045968e-02,-3.684751495698369936e-03,5.397988916024963938e-05,1.756640612491611533e-03,6.612879633903503418e-01
7.693755195401766334e-02,-6.015037172474593241e-01,4.041925526211817554e-02,6.557809527867802801e-03,-1.353455328150429335e-02,-3.697169842066019493e-03,6.614833474159240723e-01
6.534722723825481250e-02,-5.934025220646617083e-01,8.432436794164369087e-02,-1.088996017433794487e-03,2.100142072452286512e-03,-1.306592976566904032e-03,6.684567928314208984e-01
6.246278230204621584e-02,-5.661498343024651270e-01,8.057938848040188673e-02,4.340301658574223227e-04,5.493605468982358520e-03,-5.600868334325048714e-04,6.379360556602478027e-01
3.355341095281494379e-02,-4.942313146844434790e-01,7.293846171557966107e-02,2.923869096581273308e-03,-1.227744917414660096e-02,9.269158627263273872e-04,5.489764809608459473e-01
7.893226198053368559e-02,-7.081191955282294115e-02,-9.640236738643209041e-03,-3.895458233964996936e-02,-1.893352289816942549e-02,3.889419918425860573e-02,1.648371368646621704e-01
6.660631026479557626e-02,-5.840298845409441775e-01,8.439273271750924454e-02,-5.133265753328895495e-03,-1.287008473856527009e-03,1.874374388603530913e-03,6.597809195518493652e-01
-7.435254103893867983e-03,-2.488275101155775770e-01,-1.233616034245223203e-02,2.889575901615484832e-02,1.357506049451440199e-03,3.910974020496671422e-03,2.442693412303924561e-01
1.228127649789589326e-01,-6.022200938357786804e-01,-4.413808651726869314e-02,-8.257426751607085599e-03,-5.491312466083727098e-03,2.082088469175919637e-02,6.588595509529113770e-01
1.170620180809482380e-01,-6.221403590267787775e-01,9.952724678650798351e-03,-9.027913753475500999e-03,6.018493248362788428e-03,1.549742318342713738e-03,6.921542286872863770e-01
1.171130405233691274e-01,-6.001386856951345106e-01,-1.840741795556147253e-02,-1.014136780183302541e-02,-1.163798969047807885e-02,9.012891490273320511e-03,6.607360243797302246e-01
1.121145725212637223e-01,-5.961371870592448996e-01,-2.487192846649971534e-02,-1.107885998064609724e-02,1.553890186873040959e-02,1.029899168850550648e-02,6.517482399940490723e-01
1.048197567738998193e-01,-6.038519351599382912e-01,9.412909213955433785e-03,-1.383983509455307716e-02,7.911994541752970928e-03,1.476494476793363325e-04,6.666846275329589844e-01
5.150841847006393248e-02,-5.656808731981427529e-01,9.311223929150055922e-02,-8.225510603893642237e-04,-2.094482178651625552e-03,2.702418533162809743e-03,6.390367746353149414e-01
4.478671392742511470e-02,-5.276301675506014366e-01,8.315694888312394339e-02,3.474941624736689518e-03,7.281764295797559655e-03,2.109999431595067920e-02,5.938249230384826660e-01
9.171484501416143909e-02,-5.903368164205555768e-01,1.549043027214161428e-02,-9.554390304611656490e-03,3.014140205074981871e-02,1.687550625566817258e-02,6.502840518951416016e-01
9.076320887904304469e-02,-5.937181291719080267e-01,4.528468759894649365e-02,5.317431123515899832e-03,-3.872168043274370249e-03,-3.741006322642819858e-03,6.630426645278930664e-01
1.133241276107075923e-01,-6.048572666366198725e-01,-1.577357333590323485e-05,-1.067012797516737541e-02,-7.838627217885300869e-03,4.563874875118878460e-02,6.737999916076660156e-01
6.395655657246759884e-02,-5.689196395093347736e-01,7.775964315029296192e-02,1.423572338262808941e-03,1.651134280784060998e-03,3.289010409641654128e-03,6.399258971214294434e-01
4.204041743406397580e-02,-5.316452689241292218e-01,9.013572633415781188e-02,7.671079386368141609e-04,-2.283516126404033265e-03,1.596062781124543608e-04,5.991973876953125000e-01
6.209738115052110263e-02,-5.689865657774626495e-01,7.626791007373689979e-02,-1.639331774557888045e-03,-9.337858581592823693e-04,3.529959653307657803e-04,6.382958292961120605e-01
2.877967193451552719e-02,-4.667463185188998054e-01,6.934488368329774777e-02,1.797027195808128478e-03,-3.177130928514074453e-03,3.776348586448865390e-05,5.170422196388244629e-01
5.222910327717930623e-02,-5.647449766338004107e-01,9.351976067650957791e-02,1.032122513425741493e-03,2.620679944684017534e-03,2.186201566955362895e-03,6.386511921882629395e-01
4.898564755956913430e-02,-5.502937782038579417e-01,9.106238266102428813e-02,-2.757167539769791401e-03,1.379662808892961759e-03,5.863275344839532187e-03,6.214931011199951172e-01
7.012304650573986109e-02,-5.415962463306996932e-01,6.443308984796586314e-02,-2.070078576826220405e-03,1.538303494194006270e-02,-1.681572813868607375e-03,6.094944477081298828e-01
7.307550366000667430e-02,-5.894822432521418243e-01,4.917230825907747960e-02,-3.004432923028375110e-03,-7.631958411004928326e-03,6.282738462205820877e-03,6.511813402175903320e-01
5.270698117004987693e-02,-5.472790500822051207e-01,8.367943907205668830e-02,-4.280321979372938451e-04,1.385513019523116306e-02,-2.039965539159068007e-03,6.165342926979064941e-01
4.750303384135359797e-02,-4.940148651769429855e-01,6.655443162130056378e-02,-5.546245885112576109e-04,1.524346010082825928e-02,-7.483443865030620481e-05,5.519232749938964844e-01
8.939111445142719492e-02,-5.521601570979137730e-01,5.078286530955530842e-02,7.642421415542975834e-03,6.400943498287302129e-03,1.959654221759627064e-03,6.233932375907897949e-01
7.512206333758938981e-02,-5.839663192584053641e-01,7.480704974547197628e-02,1.100872318310320782e-04,7.373227327800605880e-04,-1.064769766308343952e-03,6.589347720146179199e-01
7.621457380046905983e-02,-5.843970129811036918e-01,7.756935961308142335e-02,-5.238913503832857152e-05,5.853607431233985407e-03,9.614446733232151010e-04,6.613698601722717285e-01
5.656794085482577672e-02,-5.641602128022478180e-01,8.741349530033309945e-02,-1.476441434083119487e-03,5.894564960751975946e-03,-8.248986436379533889e-04,6.368001103401184082e-01
5.726921551031727287e-02,-5.678789998898237101e-01,7.958287852957696140e-02,4.027328276428714278e-03,5.142194337151760608e-03,2.163568677618160033e-04,6.366990208625793457e-01
5.181314667284520059e-02,-5.587025865150032633e-01,9.062580525733018866e-02,4.421821846390227152e-04,2.249293683431747692e-03,1.296499526363415313e-03,6.308346986770629883e-01
7.462012234946541200e-02,-5.871160173735046062e-01,7.373516315027753287e-02,1.608851917013244754e-03,2.253057185628506640e-03,-1.107958695909386790e-03,6.613142490386962891e-01
7.649248799784771902e-02,-5.618528671192821733e-01,6.649756850597676738e-02,-1.882824912423915675e-03,1.167711886018548903e-02,-1.522067903108681366e-03,6.337437629699707031e-01
7.641306183836285570e-02,-5.820960782132151845e-01,7.464644409913559486e-02,1.462610039441450361e-03,5.905392241947552030e-03,-2.127656795636450346e-04,6.577121615409851074e-01
6.019250930810574052e-02,-5.368314802015488052e-01,6.667475952674511985e-02,-1.019322550182004796e-03,2.114877789108657574e-03,3.494331123665420091e-02,6.033484339714050293e-01
4.880570228597741478e-02,-5.575978967893324700e-01,9.702695113633227897e-02,-9.244074014251696088e-04,4.942960021361216547e-04,-9.833401686498001535e-04,6.319006085395812988e-01
6.675811845851076232e-02,-5.867688448369229315e-01,6.959064602207837291e-02,9.579226187183990243e-03,1.569451402733099393e-03,8.290135866308726703e-03,6.553209424018859863e-01
4.915969518487883771e-02,-5.623363813569777214e-01,9.666890943461772800e-02,5.951789762877044603e-04,1.006688702861264573e-03,4.312299735531480681e-03,6.366287469863891602e-01
8.448186711684010919e-02,-5.308280572570169831e-01,4.247378464033621515e-02,1.905519191537853249e-02,-2.330904573646538653e-03,-4.628831920170332209e-03,5.963999032974243164e-01
6.802770621996684364e-02,-5.854152441672033635e-01,6.910669207005751269e-02,-2.582534406787352112e-04,-1.671663731565699394e-03,1.528852159762890449e-03,6.539950370788574219e-01
5.353030218721466227e-02,-4.188053800739620636e-01,2.804902201976253173e-02,5.506631019601283122e-02,-8.042572521777527003e-03,-3.147569388061341542e-03,4.701438546180725098e-01
3.642982136421935024e-02,-3.863003413810672249e-01,3.158664674031821940e-02,5.988443613761872814e-02,5.294772647444660925e-03,-5.257297383402585039e-02,4.425055682659149170e-01
4.605844707846667996e-03,-4.238326847510769935e-01,6.830104191955005399e-02,-4.672098234452011500e-02,3.672093240891468463e-02,2.565428389848206647e-02,4.769427478313446045e-01
7.927843214986526887e-02,-5.862598478241585198e-01,7.248147400974508381e-02,-2.149841260311358723e-04,-1.038748034330981345e-03,-1.059953720990204585e-03,6.621710658073425293e-01
7.400270897908539647e-02,-5.787830993688211079e-01,7.403264507809181882e-02,7.442809990784604200e-04,-6.029069011544481264e-03,-1.139719649495029132e-03,6.528885364532470703e-01
4.011837392865655327e-02,-4.050595601682308589e-01,3.458538318658155308e-02,-2.452844979899502717e-02,-1.454480314817801177e-02,2.679621175212517845e-02,4.475986361503601074e-01
2.130586306899978633e-02,-5.861093158602929121e-01,7.098200315431543728e-02,-6.161056195205029916e-03,-7.070308155079751099e-03,-1.722458373039029633e-03,6.339303851127624512e-01
3.158485012656939150e-02,-6.168524266193369243e-01,6.859345118785342699e-02,-1.184341812319420102e-02,-5.990335094438063723e-02,6.176204378527489110e-03,6.761204004287719727e-01
7.880314447252531607e-02,-5.898122021219602829e-01,7.754676169701324451e-02,5.358263957835628132e-04,-1.702130013593851137e-03,-6.880164334660092418e-04,6.679962277412414551e-01
3.963276959863715199e-02,-5.776259422437151070e-01,4.905978354040560485e-02,1.243531565789757687e-03,-7.288891930465399641e-03,6.131191217820022030e-04,6.221585273742675781e-01
6.799475024585222016e-02,-5.914255427786525576e-01,6.062430675383090328e-02,9.020904777053386642e-03,-9.212823187855625345e-03,5.567333642347783301e-03,6.562171578407287598e-01
7.291216993418778158e-02,-5.842558265400275008e-01,8.353939359401482689e-02,7.441428784502130073e-04,-4.992828047725428146e-03,-8.899249836583634208e-05,6.626032590866088867e-01
5.036766738058237602e-02,-5.079238840839280789e-01,6.706201347014617564e-02,-1.844058034205724519e-02,-1.596380571864782633e-02,-1.169040837489594047e-03,5.683988332748413086e-01
1.502127212925050137e-02,-6.664580166511285819e-01,8.905320723456533472e-02,7.659084852767204972e-03,-4.754688315066559617e-02,2.940144124538453946e-02,7.279405593872070312e-01
7.598055464905942302e-02,-5.792068696071923650e-01,7.777880290433683563e-02,-4.486841806389465793e-05,-1.033903505013657187e-02,5.509737633769529164e-05,6.563327312469482422e-01
6.265708643195475047e-02,-5.614669308693769345e-01,7.756869199686639016e-02,5.411646583412839514e-04,-8.466445408019602006e-03,-3.784329720444776224e-04,6.318830251693725586e-01
4.950174863756040544e-02,-5.129428399813178441e-01,7.447145531978899280e-02,-2.225881227421369743e-04,-1.257661376811934628e-02,-2.118162964313600669e-02,5.769160389900207520e-01
4.333306510711562587e-02,-4.847361102684297207e-01,6.901131582535532938e-02,2.914287247821680926e-03,-7.819064582467002283e-03,-3.074881149927403273e-02,5.441706180572509766e-01
6.151827174395205211e-02,-5.708381274754030787e-01,9.050895189260482754e-02,9.378972223068063547e-04,-5.911698679437249471e-03,6.211401870371244112e-06,6.474218368530273438e-01
4.877710516767083671e-02,-5.511586059786359737e-01,9.466483722112536969e-02,9.863193715798492065e-05,-4.059613573689248994e-03,-1.359237014200213390e-03,6.241900920867919922e-01
5.523345257226200400e-02,-5.700504764704863447e-01,9.266370166892540228e-02,-3.298434185275832698e-03,-1.742092356096948576e-03,4.395728859514086428e-03,6.448916792869567871e-01
8.943270350473764285e-03,-5.965159466218221684e-01,8.120630614234708444e-02,-7.129236928148044265e-03,-1.396629869778046561e-02,-4.899613107517296860e-03,6.452633738517761230e-01
4.383963474637320168e-02,-5.317525053013061331e-01,8.976524734697122199e-02,-1.067354159517229896e-03,4.940873809080999386e-03,4.742042635342985386e-04,5.999393463134765625e-01
4.955348802535008979e-02,-5.608280394778188960e-01,9.304978965997554030e-02,-1.982602795764003278e-03,-1.825394219624037204e-03,4.627192626295129063e-03,6.333189606666564941e-01
8.114748202674326727e-03,-5.296596624877334403e-01,7.981596883159289280e-02,8.028811559845912271e-02,7.613538996204079201e-02,-1.076693287340150934e-01,6.359307169914245605e-01
1.445673134812667793e-01,-7.086142385719228498e-01,7.545921499099439433e-04,-2.391020449480495830e-02,4.689094855714167481e-02,1.583474625947279418e-02,7.968475818634033203e-01
1.883587470082831450e-01,-6.840886498298589524e-01,-3.752464225375090612e-03,-6.667409667866985856e-02,1.051389173858010145e-01,-2.060238289893814509e-02,8.235511779785156250e-01
3.030014920089688091e-02,-5.024741423487404379e-01,7.988703143168962573e-02,-3.522406733714658969e-03,-7.036179830679915523e-03,3.665502300681110215e-02,5.629764199256896973e-01
1.249610779868520205e-01,-6.288989872234083123e-01,-1.807077061431663911e-02,-8.693554872218333188e-03,2.091460717457493956e-02,2.966904376431254639e-02,6.965032815933227539e-01
1.070545349497882270e-01,-6.136457636695172857e-01,-9.412115748833993489e-03,-5.945920997909242590e-03,3.877660967243366091e-02,-1.291786956197131693e-02,6.739090681076049805e-01
4.787735158262573787e-02,-5.546266013333123190e-01,9.671039136619349885e-02,9.887199447062761971e-04,9.968566187539117801e-04,-6.352164499053724765e-04,6.283509135246276855e-01
4.709621912729680671e-02,-5.572548438601772069e-01,9.414704273805030166e-02,-1.194985907777496806e-03,3.928717554776330750e-03,-5.996654257821737184e-04,6.292383074760437012e-01
3.461710550928440155e-02,-5.311995930106785391e-01,9.158588728016162084e-02,-1.676954362605355712e-03,2.156936224840936157e-03,1.652859957918797139e-04,5.963642597198486328e-01
5.759847646411017652e-02,-5.159056103925099279e-01,6.044056380932846806e-02,1.115597681203991422e-02,-1.715415940278249701e-02,5.332913434865941892e-05,5.760217905044555664e-01
4.496904609790583485e-02,-5.437886160699459959e-01,9.374069702748297206e-02,-8.767795088907053480e-04,4.535412419835221226e-03,1.350267252400147444e-02,6.150934100151062012e-01
8.973842307974227994e-02,-6.438052085087113685e-01,3.062599262767770614e-02,2.551098318296434147e-04,9.890726153568948908e-02,-1.088576059446745917e-02,7.265828251838684082e-01
1.383796362160935600e-01,-6.481796410846565326e-01,-1.674763325573339068e-02,-2.190448390632510761e-02,5.411237336842351919e-02,4.783123282985981238e-03,7.287082076072692871e-01
5.359960795494378427e-02,-5.477175858376635009e-01,8.864212833458959273e-02,-1.012895405847159466e-03,9.481149359437904267e-03,-4.076954423849214661e-04,6.198025941848754883e-01
5.913865697107059671e-02,-5.832846620495049095e-01,6.221291040111764925e-02,2.049461429297035238e-03,-5.439261257966556892e-03,-3.251230522307439839e-03,6.440692543983459473e-01
-8.896510171837707093e-03,-2.548391718368335779e-01,-6.918278071072869739e-03,1.638030862542217455e-04,3.103822510166094704e-03,3.339742397435546423e-03,2.470641285181045532e-01
-8.324579879920968040e-03,-2.052327459688655098e-01,-3.033911663294544536e-03,3.698483564346986135e-02,1.014686222966535399e-02,5.335962458024312571e-02,2.297756522893905640e-01
6.680202947607050135e-02,-5.749675123749431460e-01,8.105356371169614160e-02,-1.476478561421263247e-03,5.660414121491095726e-03,-1.030399045340862343e-03,6.490942239761352539e-01
6.546764290946602283e-02,-5.785789289564681193e-01,7.928083498664068030e-02,1.517858108012203966e-03,1.705444151326739521e-03,5.279885864332591397e-03,6.511393189430236816e-01
3.741790281418438946e-03,-3.187050660246267819e-01,-2.178456632280917349e-03,-1.084875913261690826e-02,-3.039298518674316940e-05,-1.193509356965724751e-02,3.207467794418334961e-01
1.121697806789949403e-02,-2.959075800090473773e-01,1.682469914553100243e-02,2.048666542625280848e-02,-4.997288332423440241e-03,-6.429335200486545332e-02,3.313821852207183838e-01
6.213711882430902889e-02,-5.724883080740392760e-01,8.725091317772859512e-02,1.020593231108194842e-03,2.964077204824337036e-03,1.466173758340655548e-03,6.475754380226135254e-01
7.348367144910292192e-02,-5.884086450674987923e-01,3.691465414388508948e-02,-7.738686368394980582e-04,-1.144964622462701660e-03,-7.023939782545480549e-05,6.443910002708435059e-01
6.821939370531640567e-02,-5.634151696456867198e-01,7.718659280304060455e-02,-2.676582765750031359e-03,1.292376131061587739e-02,-2.637512594979728956e-03,6.365925073623657227e-01
6.427111072305716211e-02,-5.636307836835374729e-01,8.403750764465423018e-02,-2.008092786606983059e-03,1.074307512611698441e-02,-1.071723543593388088e-03,6.382982134819030762e-01
7.692689936025196018e-02,-5.841209582463937622e-01,7.488380661922572346e-02,-1.215666796544237482e-03,3.961715245183150894e-03,-9.315667358365870747e-04,6.600697040557861328e-01
7.294958057530287476e-02,-5.775731857077663900e-01,7.859746836660294611e-02,-1.260109560243216761e-03,7.895012888065926215e-03,-1.022779907064685218e-03,6.535141468048095703e-01
6.750878672179419504e-02,-5.517561548756533263e-01,7.215721321468185345e-02,-1.383603414493725977e-03,1.242610762964791934e-02,8.430207879193645296e-03,6.221506595611572266e-01
7.397739170490177929e-02,-5.837016105963007684e-01,7.757152403986911082e-02,4.991251169136856581e-04,6.683201793857861117e-03,1.685434357598809049e-03,6.595920324325561523e-01
7.302422114688827959e-02,-5.865708249332861612e-01,7.933471907493028219e-02,-1.040944723885492808e-03,1.642867151917029632e-03,1.974052003136243447e-03,6.627901792526245117e-01
8.105748898522080470e-02,-5.827795104432709206e-01,6.916304925690516803e-02,-2.239021675862550714e-03,4.369054810583398833e-03,1.304259602070752732e-03,6.580292582511901855e-01
9.200027793610382476e-02,-5.692411613801628967e-01,5.251478364434047919e-02,6.642285660748855312e-04,-1.363281872721374376e-03,-4.536110764915428947e-04,6.424152851104736328e-01
6.221054614182572329e-02,-5.708329349080625281e-01,8.792860869326554751e-02,2.057740137113794020e-03,8.751955560248788832e-03,7.394324258523416946e-03,6.466008424758911133e-01
6.120608101800767420e-02,-5.565155242685584369e-01,8.210121716031823502e-02,1.522092501483108574e-03,1.210181314330457426e-02,-8.951892459059142401e-04,6.287866830825805664e-01
4.840164272994573746e-02,-5.870363423978967043e-01,4.938727788249172579e-02,4.596413838704119649e-04,2.150083304293576997e-02,-4.482095277961544583e-03,6.370686292648315430e-01
2.243500940560702595e-02,-6.024261847742382603e-01,8.649331822482675403e-02,-1.110463315061026301e-02,6.803044925638218263e-04,-1.151730018049810546e-02,6.598119735717773438e-01
6.011075000112378608e-02,-4.997771443347618914e-01,4.545448291911893812e-02,6.788475815341682602e-04,-1.664710658820063582e-02,-6.874951297394199350e-04,5.534596443176269531e-01
6.182894335870262048e-02,-5.714550919625659420e-01,8.702226105962398983e-02,1.455956284627546796e-03,-2.504220045381681196e-03,-1.700908070169827955e-03,6.462752819061279297e-01
6.002505395751478456e-02,-5.870429109274657442e-01,5.504955361790839219e-02,-1.407894306390337826e-03,2.000799519370160314e-03,-4.468141590716040445e-03,6.446549892425537109e-01
4.992835514558294219e-02,-7.120872025408171435e-01,1.299162111576750434e-01,4.825789763370446489e-02,2.361381328556768147e-02,-4.194991922779237742e-02,8.136070370674133301e-01
-5.853519892419806192e-03,-5.803871956186750225e-01,9.764456967291806899e-02,3.569538071664327128e-02,-3.220554632756655162e-04,-9.423441550980351036e-03,6.358876824378967285e-01
7.224858735488712269e-02,-5.903708135941247992e-01,6.982966179411981278e-02,1.607322787448872171e-04,-5.908862862017126627e-06,-2.589423426916693822e-03,6.614285111427307129e-01
2.203495545494745245e-01,-6.625167370055968785e-01,-5.575780463331607428e-02,-1.115654530952429613e-01,5.433359171469587245e-02,2.371990699572144312e-01,9.093456268310546875e-01
8.683074469087140312e-02,-5.471618124399320049e-01,4.993450626159903760e-02,9.284576360956313997e-04,-2.385471751149598370e-03,-3.934848768424428268e-04,6.163895726203918457e-01
6.042168067852426994e-02,-6.000718382704357534e-01,1.082373171106579268e-01,7.878247037757073190e-02,1.122617924664727831e-02,-2.627085428263461683e-02,7.008484601974487305e-01
4.256729242114731804e-04,-2.894629407123915366e-01,8.851371250061343399e-03,1.408417176878076944e-02,-8.344692496873062568e-03,-3.122574617401114444e-02,3.004630506038665771e-01
1.549418034183041026e-01,-6.156193423238314200e-01,-4.473729943554037580e-02,-1.455677950669399465e-02,1.101413145711817657e-02,2.285016759286922702e-02,6.945050954818725586e-01
7.080671835610738429e-02,-5.874622551908017520e-01,6.901308315540766181e-02,-3.003978910504269666e-03,-2.734808978138981951e-04,5.148741976488008590e-03,6.574552655220031738e-01
5.961063836505600677e-02,-5.860807586948739711e-01,7.532376408208799057e-02,2.265293172355279869e-02,7.618313067464530311e-03,-1.810000449574832417e-03,6.550065279006958008e-01
2.202347808165572296e-02,-3.838908405303301241e-01,4.181431964645079824e-02,-1.279291154177461011e-02,2.117472773274443193e-03,-5.735853508505701914e-02,4.284459352493286133e-01
8.565949480936263516e-02,-5.919679594884532658e-01,3.634506899606895769e-02,-7.700317609275554413e-03,6.927578898601032551e-04,1.254107548296825615e-02,6.548627614974975586e-01
6.933823918629941629e-02,-5.708846415196289215e-01,7.648474800862917200e-02,-5.556777036282860120e-03,-7.004575180089916801e-03,1.321452603872981003e-03,6.440161466598510742e-01
6.876056917775927313e-02,-5.892683949290461465e-01,7.066821600960554450e-02,-2.856999550812051609e-03,-5.363800372898898557e-04,4.011957291560619150e-05,6.590040922164916992e-01
5.097963438553182458e-02,-5.833525622183354242e-01,5.378693213069304924e-02,-7.133481114572445174e-04,2.356187089546706026e-03,-2.611260154060276485e-03,6.357708573341369629e-01
2.968460637482389641e-02,-4.213143282461146444e-01,4.863947973551902004e-02,-6.953170301618672583e-03,7.118591307616850029e-03,-3.679030541675099714e-02,4.654735326766967773e-01
4.268031235282973568e-02,-5.899221561518532830e-01,6.452288273992989875e-02,1.288282432275224482e-03,4.730328174803807503e-03,-5.426024194338103547e-03,6.439263224601745605e-01
1.158209713908063543e-02,-3.621482485644296201e-01,1.889760836285356294e-02,2.149621523996527047e-04,-3.161917797247439273e-03,1.915663515104597389e-03,3.774957656860351562e-01
5.899847597416196798e-02,-5.846419940108167346e-01,4.909284487484277815e-02,-1.053286901432820164e-03,3.055640208026377900e-03,-1.593147414579633913e-03,6.387757658958435059e-01
7.085307770899357260e-03,-3.156910710750567839e-01,3.841369617674242343e-03,5.360477859575592339e-04,-5.426264456013689570e-03,-2.178413214016422170e-02,3.235133588314056396e-01
5.390668900018430465e-02,-4.978373609987757353e-01,7.374803981774422090e-02,1.084862780485998032e-02,-4.871592375380315483e-03,-8.555576964473134149e-02,5.815033912658691406e-01
1.708733098655404459e-02,-3.022835985153895511e-01,6.695498525993243133e-03,2.376440689760940875e-02,-8.701155131138782473e-03,-6.534759901366325556e-03,3.175475001335144043e-01
2.038603250267108646e-01,-6.924897025917842175e-01,-2.639349948746505525e-02,-1.521483274331253688e-01,5.352824772451501845e-02,1.449743412718688396e-01,8.894762396812438965e-01
1.308586703756575709e-02,-2.747106932537310420e-01,-3.083298985880666976e-03,7.079737815711523163e-02,-3.885612347374363526e-04,-1.760361964112761718e-02,3.072487413883209229e-01
1.738074077034577891e-02,-3.237543959189421727e-01,1.336086723560685197e-02,7.705237696256846125e-02,-2.517861173456762119e-03,-6.378868791884417799e-02,3.808611631393432617e-01
4.377024320899411403e-02,-5.527061070905918694e-01,9.596593388230195698e-02,-1.505112339617353573e-04,-1.218477464694072646e-03,1.320431260403356758e-04,6.242167353630065918e-01
4.976296502596043447e-02,-1.435096772975463231e-01,6.227016446268274219e-04,4.649489986457240598e-02,3.046248097376020106e-02,1.668746837402538402e-03,1.988697648048400879e-01
8.408520900495636274e-02,-5.705212537906452219e-01,6.296190023174186301e-02,1.226426732522685296e-02,1.464630035196371957e-02,-3.977537573844396003e-04,6.451539397239685059e-01
1.603043561625355773e-01,-7.886286117151299901e-01,2.828212461369161712e-02,8.209515632797602380e-02,-1.111151655843821695e-01,1.400103056862980477e-01,9.532526731491088867e-01
8.312591664078441966e-02,-5.393237440022726759e-01,5.011794169251290731e-02,1.319306881350170053e-02,1.544716696020038103e-02,1.556335276208881124e-02,6.082367897033691406e-01
5.042603524775787771e-02,-5.837167815170910545e-01,5.890143058608796056e-02,-6.377321173086426299e-04,1.447386075814586321e-03,9.813545762645118405e-04,6.384308338165283203e-01
5.554016897735086777e-02,-5.854850657710686246e-01,5.574630517719222911e-02,1.648390082477817773e-03,6.734101526093852442e-04,-2.668944559153141240e-03,6.411523818969726562e-01
6.687162358425330355e-02,-5.867557339973963337e-01,3.983355326736992552e-02,1.015427652327329259e-03,4.231471534375125416e-03,5.047786682910738445e-04,6.405814290046691895e-01
5.791184238314248112e-02,-5.871212648212682517e-01,5.160700925346239920e-02,-2.859514287939336503e-03,8.582208141325847750e-03,-4.804897448587784029e-04,6.420956254005432129e-01
8.703574876901426505e-02,-5.302839606347471424e-01,4.664221744581711904e-02,7.204107064886889657e-03,6.771009052051169506e-03,2.648009149585569839e-03,5.984094142913818359e-01
6.544753165979783072e-02,-5.915617698401298696e-01,4.622717517953350841e-02,-6.822943466184601055e-03,3.018240671903304421e-03,-2.267544215932750656e-03,6.477538943290710449e-01
5.213776446046813895e-02,-5.895327897699317310e-01,6.831772080020565019e-02,5.073315648447738330e-03,1.073538316430797980e-02,-3.671392577026661580e-03,6.502680182456970215e-01
9.148047716278981389e-02,-2.043229699865656279e-01,-2.908379396975841955e-02,-6.695921846648485165e-02,-1.917193173961725949e-02,-7.653840520209287401e-02,3.138467371463775635e-01
5.127052162131301438e-02,-5.818046721978205049e-01,5.344839879497945145e-02,-5.045929721636012444e-04,9.554723808689394304e-04,-1.084727529705593147e-03,6.341724991798400879e-01
6.948774510261324089e-02,-5.909759841250552537e-01,6.862582531528196861e-02,3.238673507489634915e-04,2.195132503338807512e-03,-1.485563836860222036e-03,6.600493788719177246e-01
7.928631449836451295e-02,-5.029319203616067213e-01,4.233333952503534614e-02,2.762311278078763421e-02,9.742232465455399892e-03,-7.742059612511295076e-03,5.670825242996215820e-01
9.093911138731392008e-02,-5.591684062189417048e-01,5.118080524944762510e-02,4.529626024227411882e-03,7.274178231777343913e-03,-9.441946908564515612e-05,6.313427686691284180e-01
6.979020352216772083e-02,-5.788626825235760887e-01,7.014721667452231135e-02,-4.819102784938933100e-04,1.542336026500061531e-03,-1.307794227369943546e-03,6.488414406776428223e-01
2.381182979359922069e-02,-5.863857971224529786e-01,7.072992349552234548e-02,3.147131398735848740e-02,-3.589617542453370919e-02,2.318851430242546349e-02,6.415776014328002930e-01
6.674667214016094530e-02,-5.910995167236792192e-01,7.260891930684071349e-02,-4.794141967892784773e-05,1.186132256011132981e-03,-1.280928598159383975e-03,6.608037352561950684e-01
6.600799816209279580e-02,-5.867017584875304781e-01,5.624017576019260667e-02,-1.487481207581192169e-03,-5.746134844024916111e-04,-1.778322087816274800e-03,6.478942632675170898e-01
6.353919424206042055e-02,-5.788745230264357167e-01,8.899671086210145243e-02,-1.766892914761584348e-03,-5.381932450461281853e-03,-3.253984756967042129e-04,6.555870175361633301e-01
7.830294921803640507e-02,-5.827951786229239595e-01,7.661514054440654586e-02,8.825408570607169018e-04,-1.038446123387662574e-02,-8.397774031491631345e-04,6.605041623115539551e-01
7.702294207995510900e-02,-6.032541943848441779e-01,8.116684884213667961e-02,-4.908951869943377344e-02,1.401883271873332129e-02,-6.084125711842779810e-02,6.960869431495666504e-01
6.201358001275339427e-02,-5.866043398599696257e-01,7.291399009037358159e-02,1.444620121083065858e-03,-1.395718109627438423e-03,1.259654705350801230e-03,6.541491150856018066e-01
6.773509996521551169e-02,-5.860420789708506994e-01,7.051252021158549432e-02,7.533922630489820263e-03,-3.276615593332762345e-04,-4.156735010430435105e-03,6.553400158882141113e-01
6.283334124196543469e-02,-5.893025142618220080e-01,6.889915117629258345e-02,-2.378846837011231591e-03,-9.081437952001116323e-04,-2.115964286885069212e-03,6.552149057388305664e-01
7.233043472542505237e-02,-5.898433226212460578e-01,7.542593170012221182e-02,4.155742473154511478e-04,-2.574345111413806151e-03,-3.472434556447657420e-03,6.637695431709289551e-01
7.295620173092415284e-02,-5.896693675628250642e-01,7.879669501142808063e-02,-2.941424662443905928e-04,-1.208409290069578732e-03,-7.655284060148133700e-04,6.655698418617248535e-01
7.267522731697514948e-02,-5.828134369577877560e-01,8.255039006527897794e-02,-6.861025442193558442e-04,-5.109824088893342997e-03,6.903503288233438272e-04,6.605430841445922852e-01
7.250135693477280374e-02,-5.780781211189680580e-01,6.634586441603546048e-02,-1.847783200566289682e-03,6.465221985802873739e-04,-7.850239406177906155e-04,6.475339531898498535e-01
7.089363933417675012e-02,-5.862766680118778329e-01,8.081693377678761392e-02,-1.443770518000805317e-04,-2.733084892464652301e-03,-2.296222209236327590e-03,6.622166037559509277e-01
7.330215171834203458e-02,-5.898042210747540537e-01,7.729597549286751357e-02,-9.487363974998885190e-04,-8.967608479984659616e-04,1.222282794642626323e-03,6.651194691658020020e-01
5.361938252584744213e-02,-5.906107937047688772e-01,7.689022643964046888e-02,-4.155104561539705102e-03,3.065241796862779988e-03,-4.334177016561598919e-04,6.562365293502807617e-01
7.749546393406500644e-02,-5.733089671656008690e-01,6.346223260414496359e-02,-1.878912607780692037e-03,1.058376904275166227e-03,-2.139296256960725433e-03,6.439239978790283203e-01
6.826504024870236331e-02,-5.835720400699222488e-01,5.871151531738733054e-02,-3.661963623943626650e-03,1.600636822637366654e-04,-2.091999488432510351e-03,6.471545100212097168e-01
6.687351787550399607e-02,-5.851132845170599062e-01,6.700729473316124896e-02,1.047277772762901136e-04,9.689577191465549143e-04,-4.359700969134317275e-03,6.520996093750000000e-01
6.892046487810185584e-02,-5.849041393931020405e-01,6.446011152279196299e-02,4.647396491818193005e-05,-1.244048234284697314e-03,-1.049750309152736949e-03,6.516119837760925293e-01
5.625278684058249157e-02,-5.783935276940588288e-01,6.421407661427111502e-02,2.835589795411734646e-03,-6.301758447126800181e-03,1.105230319901518744e-02,6.390631198883056641e-01
6.814091033700891975e-02,-5.721954309755652446e-01,7.333447409862559052e-02,3.199968995869971965e-04,4.213940107214137962e-03,9.897436925671494225e-04,6.429927945137023926e-01
1.905143414012234748e-01,-8.863421464131613359e-01,5.451030397550710171e-02,-7.066737728440074251e-02,1.162492953052819827e-01,2.760025249673065187e-02,1.043776273727416992e+00
7.000351990894856935e-02,-5.675953424520346902e-01,7.706328422313077353e-02,-3.858136348486515977e-03,-9.382786302670685988e-03,-7.943701610481736838e-04,6.414000988006591797e-01
6.706712754531529708e-02,-5.837961948495096198e-01,8.349301286933363819e-02,-5.278647761829288916e-03,-1.524766956225161217e-03,2.110154365671125694e-03,6.593085527420043945e-01
-1.681061711115999779e-02,-6.170490389375649087e-01,1.215207305431247331e-01,6.590574560776696345e-02,5.459531464758205638e-02,-5.013655869227571366e-02,7.014037370681762695e-01
6.922888687020167797e-02,-5.845481402644729929e-01,7.413303450587407917e-02,-5.495337907631731370e-03,-1.364539176714913002e-03,4.088216673825652812e-03,6.563543081283569336e-01
7.595745630630887368e-02,-5.722381669896241529e-01,7.228631144836830669e-02,2.954704592685181153e-04,-9.949664068878618511e-03,1.335576523943728024e-03,6.466019153594970703e-01
5.763475015015442904e-02,-5.908126569341602963e-01,6.320645445325778766e-02,-1.431200320654728341e-03,3.789514180018262787e-03,-6.694105474711355835e-03,6.513921022415161133e-01
6.016152042640385278e-02,-5.413978938954835396e-01,7.435399065101389038e-02,8.528778323710051428e-05,-1.349267901462049973e-02,8.160799127794722552e-03,6.093921065330505371e-01
6.110610968016103040e-02,-5.658144296537316320e-01,8.349412252718466099e-02,2.595090218925873073e-03,2.676925992017366394e-03,-1.242249963886799761e-03,6.384453177452087402e-01
6.857703268189621615e-02,-5.876879276739768176e-01,3.196880633046098041e-02,2.330455136839756913e-03,1.257774480504769178e-02,-2.672030797302986371e-03,6.391490101814270020e-01
7.336705292369377629e-02,-5.821822488235942616e-01,7.930007335394242962e-02,1.046469904060955396e-03,-7.464057040733330407e-03,-1.794431704202849873e-03,6.586725711822509766e-01
6.163450079333285259e-02,-5.864510433616505480e-01,5.396187567126661810e-02,2.261048287110493840e-04,3.786580283383778577e-03,1.604178390847008345e-03,6.443229913711547852e-01
5.722888508296791743e-02,-5.720219932333838742e-01,8.427051617762768010e-02,3.427612653228807003e-03,-8.920588281476370118e-03,1.533769896248985201e-02,6.439593434333801270e-01
2.085883195040558191e-02,-5.954159373858266546e-01,8.380550136187972510e-02,-7.821386208949683994e-05,5.906375768601186335e-03,-6.988529312767499668e-03,6.502311229705810547e-01
6.391063484644624038e-02,-5.684594841047452274e-01,7.959137658359646816e-02,-7.718291700271643144e-03,-1.314541503103036461e-02,7.876507878275106761e-03,6.410437822341918945e-01
6.547085332215638043e-02,-5.887065216488973629e-01,4.782666762708806529e-02,2.448058110451942215e-03,2.682884849698181137e-03,-3.069795228771177078e-03,6.455886960029602051e-01
8.295590443997008512e-02,-5.728168462252023474e-01,6.511004475859347163e-02,-1.105732510911728618e-03,2.818751122108437927e-03,-2.677271075330393563e-03,6.470723152160644531e-01
5.612752083579097828e-02,-5.721446664638875079e-01,8.979621652242272822e-02,-3.360831188296619070e-03,-1.050813294033488146e-03,6.928835150122043644e-03,6.459054350852966309e-01
6.646710339944997270e-02,-5.718795383838464197e-01,7.983039508609807156e-02,-5.177238027872101134e-03,-2.590885632077794855e-03,-2.056228564513048508e-03,6.452198624610900879e-01
7.880636101007135186e-02,-5.867493022592984442e-01,7.125813727618451887e-02,2.059393941927862768e-04,-4.735649010486466057e-04,-1.029616301158394788e-03,6.618168354034423828e-01
8.137950967564108740e-02,-5.871030644876931159e-01,1.497465742359879726e-02,-4.552636141673562301e-03,8.679600195772893545e-03,-2.203972154304083622e-03,6.381150484085083008e-01
6.854892925560643335e-02,-5.838222499582199632e-01,7.961070273954928833e-02,-3.650123642513569602e-03,-3.434571056484384422e-03,3.370110444880088443e-03,6.580549478530883789e-01
6.235254903922340941e-02,-5.829325648995602460e-01,4.013978776262516757e-02,7.217152204448292179e-04,5.322289902163214806e-03,-3.713836708613556486e-04,6.345389485359191895e-01
6.822292344901173533e-02,-5.781956216532195825e-01,7.213992173116809403e-02,-3.968186311464079637e-03,-3.400676610948664670e-05,-1.771398606889295312e-03,6.484296321868896484e-01
6.129363148431316022e-02,-5.671451638761353387e-01,7.321651063607687027e-02,-3.996248156675598698e-03,-3.462244910429964229e-03,2.705298790193957220e-03,6.345676779747009277e-01
5.362299597555389430e-02,-5.844350259704664818e-01,5.197377427783514414e-02,-2.895018095246455758e-03,2.150690732224676098e-03,-7.166959704824740545e-04,6.372668147087097168e-01
8.516672159371885265e-02,-5.967749468018276326e-01,1.652486871580063910e-02,-2.936402876039179415e-03,6.309817546214132634e-03,-3.856321398504929804e-03,6.504892706871032715e-01
2.481875283840381807e-02,-4.719393667386202473e-01,6.241781716334504626e-02,-6.004764011751988163e-04,-4.205762640155902288e-03,1.472680892100919911e-04,5.166373848915100098e-01
4.129874111144132831e-02,-5.362544299123446212e-01,8.534893170854321309e-02,-2.396128660889034444e-03,-3.558617150044186307e-03,-2.453487606192159259e-03,6.008516550064086914e-01
5.846585512685992247e-02,-5.695571338973959286e-01,8.841189127884788168e-02,-4.978069577219136968e-03,-3.211235958846668948e-03,-1.437679959354442162e-04,6.436006426811218262e-01
7.258626436737097842e-02,-6.003608491682397297e-01,7.284058531783324519e-02,2.100958100755950884e-03,2.600308879203408387e-03,1.766006245864044054e-03,6.731061935424804688e-01
6.849353055548690339e-02,-5.903894466721153478e-01,7.790331073791489924e-02,-3.813734080242211361e-03,-1.048072506999609983e-03,-2.044853417452133747e-03,6.636826992034912109e-01
-2.976593637452404351e-02,-6.173642980551354853e-01,1.243708264832677490e-01,6.393261026573089124e-03,-1.126255705955477200e-02,-3.977346745842325927e-03,6.783443689346313477e-01
-3.196185484231053864e-02,-5.991554236693159563e-01,1.210468691793235574e-01,-3.538707117900781896e-03,-1.073730006218268085e-02,-1.285414027051080040e-03,6.574907898902893066e-01
2.836463730636673564e-02,-4.216330944389244384e-01,4.362967923619340271e-02,2.660015242303484170e-02,-1.276822398182722758e-02,-3.862212160285935503e-02,4.654965102672576904e-01
-1.592817715021355163e-02,-6.009023302630565055e-01,1.004673333555162196e-01,6.926356105686139360e-03,-2.003020605397241860e-02,5.786249831598977433e-03,6.521342396736145020e-01
6.963266363429679306e-02,-5.900543145721925953e-01,7.234403647753515076e-02,-3.481495621370628811e-03,-1.329712271533789632e-03,2.055773589018159223e-03,6.610879302024841309e-01
6.668449796811529162e-02,-5.822550565904931474e-01,6.814091863501930968e-02,-2.795109557941443529e-03,1.454025034112911292e-04,2.396437888813020105e-03,6.497003436088562012e-01
9.277903726198469259e-02,-5.772418994505954526e-01,5.538403008749889778e-02,7.987836306510272954e-07,-6.547854709430525263e-04,2.775989820557128295e-03,6.521467566490173340e-01
-1.423628519052991259e-02,-6.183781914777426447e-01,1.054067351845066058e-01,1.041996860759905608e-02,-1.785818789318156102e-02,1.143638868847439254e-02,6.732444763183593750e-01
6.578501308242248879e-02,-5.807486992930327441e-01,8.537328217390116603e-02,1.162010923784938948e-03,-2.772098784445653150e-03,-3.408158378344587538e-03,6.565942168235778809e-01
9.134993868598481614e-02,-5.693436007935215315e-01,5.459294609087789185e-02,6.629989297186791430e-04,-2.862927672965148479e-04,-4.451931627186923391e-04,6.431050300598144531e-01
6.660921677341979930e-02,-5.559621419238452988e-01,7.758996426109066036e-02,-1.647652238609679642e-03,-1.433709335310097595e-02,3.921501493510378485e-04,6.286312341690063477e-01
7.679515058786537396e-02,-5.929467583227354677e-01,4.808337302517073919e-02,-6.327271074451941771e-03,1.612175202984847877e-03,-6.516096901558510006e-03,6.560521125793457031e-01
-2.655097687259425077e-02,-6.090114004506729239e-01,1.264458529274540832e-01,1.128515896491475400e-02,-2.480652967706276513e-03,3.822968204001621958e-03,6.724783778190612793e-01
2.746261605592001387e-02,-6.486251113286696235e-01,1.242852763895062052e-01,8.369961927278698685e-03,2.565989000046594096e-02,-4.845429846653200728e-03,7.308801412582397461e-01
2.024237776837906067e-02,-6.067965901584447819e-01,8.973267427351261372e-02,-2.442219613957867172e-02,2.578831380762797512e-02,-3.784277978362222787e-03,6.673884391784667969e-01
2.741464741206346423e-01,-9.531493387497252945e-01,-1.813642645111193663e-02,-5.330706644177631709e-02,-4.915546691458807550e-03,1.425446452403170694e-01,1.141280412673950195e+00
7.179815135408396110e-02,-5.906294290327935848e-01,7.211884539844098940e-02,-2.336169325825527936e-03,-1.379273454004778087e-03,-1.350392060892335888e-04,6.626046895980834961e-01
5.403610367797906378e-04,-6.483528120538182282e-01,1.202126849940086672e-01,1.303167635195188372e-03,6.306963222475789332e-02,-1.483780594411424070e-02,7.250084877014160156e-01
2.477033089187408166e-02,-3.522264705182236999e-01,2.792667625775110962e-02,1.302793863108632488e-02,1.030863603530800254e-02,1.132513690791040611e-01,4.273547530174255371e-01
1.460756772541702553e-01,-5.652761456116079941e-01,-3.282154545971353865e-02,-9.320976555844533509e-03,-7.496316138043666866e-02,1.313138223246115011e-01,6.925429701805114746e-01
2.671168286375202872e-03,-5.961671924980838089e-01,8.936332925713202924e-02,4.185702236754359519e-03,3.988858782905879002e-02,-3.350507391182986142e-03,6.503053307533264160e-01
9.236140682530064039e-03,-6.134477853794138014e-01,1.104105410046807290e-01,-4.196280665257130782e-03,2.016393321697848920e-02,-9.157801981405654795e-03,6.800701022148132324e-01
8.336302566606981768e-02,-5.861925707260307039e-01,1.584213367753425916e-02,-9.767777605583271086e-04,7.332735339380343220e-03,-8.543605481619667989e-05,6.386070251464843750e-01
-2.300530346120258085e-02,-6.061292165611057436e-01,1.226547389868310467e-01,4.946661850809999476e-03,1.340432407060175579e-02,-1.627514384028241196e-02,6.690255999565124512e-01
1.270989343411906558e-01,-3.932533334558498406e-01,-1.841762255647880209e-02,2.997247077231928077e-03,-4.167112446455036034e-02,1.559335941541001025e-01,5.425900220870971680e-01
5.062982602370530438e-02,-5.803211305219007077e-01,7.225927670799192626e-02,3.172306967425092550e-02,7.644677350184226835e-05,-2.432707891361889779e-03,6.443996429443359375e-01
1.566187833890415049e-01,-4.387808269664013605e-01,-2.290502128043696295e-02,-1.066322899048538636e-01,8.395687425479436694e-02,1.424208654896982063e-01,6.292454004287719727e-01
3.010342289156758833e-02,-4.681207547575222949e-01,6.702548396694821276e-02,9.930877177995050403e-03,7.058339918498237817e-03,4.524574879429298785e-02,5.239970088005065918e-01
6.107125930400791880e-02,-5.685091413016920558e-01,8.224424254488094110e-02,1.209235093519912861e-03,7.691137428355749326e-04,1.098625723449106299e-02,6.407169103622436523e-01
-4.217403280426659795e-02,-4.478718145175940024e-01,1.077552048904474036e-01,1.201256444810109014e-01,8.851286015035856117e-03,3.747531738954812614e-04,5.398346185684204102e-01
-3.353681861919408091e-02,-3.669206425799170224e-01,9.319104209427045427e-02,1.509326920792841975e-01,-6.620895743472446360e-02,4.562840256360903290e-02,5.071415305137634277e-01
2.506309464918557439e-02,-6.648759116409668213e-01,1.168297235169473147e-01,-3.251464132120014672e-02,6.428163918506339669e-02,-1.063476774813241002e-02,7.507713437080383301e-01
9.182224685919404550e-02,-5.976048339759119088e-01,4.283334037342290124e-02,-4.238975291122229483e-03,3.232472798460751199e-03,1.501075166521192127e-02,6.668557524681091309e-01
2.029630826440165237e-02,-6.341616979665392062e-01,1.024226145071948646e-01,2.820615209674025813e-03,-3.667874196359886124e-02,-1.969989495717837380e-02,7.028743624687194824e-01
1.107225107732221492e-01,-5.997154298325568789e-01,-2.637530376165792001e-03,1.524061338535980664e-03,-5.776679135281614745e-03,-9.370119293784123435e-03,6.613681316375732422e-01
3.999612492427431776e-02,-6.578719842934017681e-01,1.244623337427021581e-01,3.308625602012255779e-02,-2.695058192035911545e-04,-7.611067192927333837e-03,7.460287213325500488e-01
-2.726425933107390343e-02,-6.219281949231714179e-01,1.167714093133313535e-01,1.064718250434920077e-01,-4.629515866313443223e-02,4.536132126646683776e-02,7.117834687232971191e-01
1.124431659007857354e-03,-9.703862832450764753e-01,2.681201504389935097e-01,5.734030293412980400e-02,-1.667161410761950832e-02,-4.468702604035466874e-02,1.136308670043945312e+00
8.201188658074026749e-02,-5.889343544256443463e-01,5.732670525318048216e-02,3.881603627757475631e-04,4.562454422879027444e-03,3.922508799877381241e-03,6.590332388877868652e-01
-9.112299590631839363e-03,-6.824497457870065675e-01,1.400794764565503336e-01,5.191274712123988139e-02,-2.442013798456711335e-02,1.267309899568287539e-02,7.658025622367858887e-01
3.832266374837578482e-02,-6.010668140510099233e-01,9.395553561472436144e-02,2.932992751088556518e-02,-8.811405158857706088e-03,-4.268077672225551594e-03,6.710836887359619141e-01
1.167254084005515669e-01,-6.560866028634798619e-01,7.214307166254985137e-03,-1.875669590541629217e-03,-5.258926315112556760e-02,1.438115294579491756e-02,7.304296493530273438e-01
1.232925473488588608e-01,-6.453869140331391918e-01,-4.670444685605509849e-02,-4.834307304311070280e-02,-7.622338820001267612e-02,-6.329302824393677473e-02,7.249504327774047852e-01
-5.474429643357095476e-02,-6.085391132646450485e-01,1.344530799983379432e-01,1.801760395083997629e-02,-3.528916678361976723e-04,-3.820788592788983140e-03,6.695363521575927734e-01
1.621199620803592811e-02,-6.043430531923770221e-01,1.006979668987281196e-01,-8.855751841664996626e-03,-8.565997444034773034e-03,-7.420475970369308505e-03,6.672894954681396484e-01
-2.517128000148255440e-02,-6.057275523176057774e-01,1.251911235183839066e-01,2.112636234888819187e-02,-3.015392039961072024e-02,-8.314856210368133313e-03,6.717309355735778809e-01
-7.376131945953989799e-03,-5.811697094340291248e-01,1.017245401605571531e-01,3.693188572289769767e-02,-1.209761507513594037e-03,-5.930683621654784902e-03,6.387057900428771973e-01
-1.851775218096815556e-02,-6.199377352573446354e-01,1.144099924576548188e-01,1.564894009994919483e-02,2.231798924452282635e-03,-2.399175667051030650e-03,6.782979369163513184e-01
1.054278020286646966e-01,-6.106008709478718544e-01,-1.617649842023322071e-02,-4.533925142824197195e-03,-3.622426211126994477e-02,9.608583545851289917e-03,6.668491363525390625e-01
3.978127813055792883e-02,-3.904985922399126230e-01,1.378084614260305374e-02,-5.439734316403487934e-04,4.381410623322632737e-03,1.016627677014291312e-02,4.183274507522583008e-01
-1.790306110046965826e-02,-6.203130449746649955e-01,1.225055281811360253e-01,-4.601377866743934682e-03,2.048995621783684939e-03,-8.184601941833639623e-04,6.835744380950927734e-01
7.321735083227381979e-02,-5.868388572351752597e-01,6.836619879653199616e-03,6.736032960919654915e-03,-3.863790590340125675e-02,6.631804890517827705e-04,6.331521868705749512e-01
8.573880306625675241e-03,-6.049274745054491476e-01,1.041980285946471074e-01,-1.026723224047946387e-02,1.179630316030274738e-03,-6.654181911201152624e-04,6.667197346687316895e-01
4.888026270186135447e-02,-5.363154929705526985e-01,7.878772520186552719e-02,-5.090621856797191173e-04,-4.324659351481633524e-03,-9.305277855298193634e-04,6.007576584815979004e-01
5.159371871252102504e-02,-5.700894460595472557e-01,9.266375342302216045e-02,-2.626083385277493479e-04,1.975459356815506985e-03,1.349847072106892878e-03,6.432158350944519043e-01
4.662140720735585830e-02,-5.747838239043844277e-01,8.134897455611184158e-02,-2.541513270566902669e-03,7.327963468499534578e-04,-8.552097340322001306e-03,6.396645903587341309e-01
7.173898701428255142e-02,-5.904371466694313675e-01,7.583433126331223795e-02,-1.147261259156409337e-03,-3.319690331000380891e-03,-1.789587367577863799e-03,6.642683744430541992e-01
7.271118164876716472e-02,-5.830934771731510757e-01,7.211895227479006576e-02,7.621036115996956701e-04,-1.464060516401276225e-03,-3.640822918440629694e-03,6.555452942848205566e-01
4.791725680625660844e-02,-5.623003427415096400e-01,9.738783561808972422e-02,-1.084792980030322308e-03,7.760268678338784086e-04,5.167660752797103435e-03,6.364637613296508789e-01
9.461041226897504153e-03,-6.017413077232289798e-01,9.842752481710131951e-02,-1.234110062448801060e-02,1.505964702981216251e-03,-1.302122192383617025e-02,6.609328389167785645e-01
1.017955987411883756e-02,-6.162513520553016821e-01,1.140649017305183088e-01,-8.916046831730894615e-03,-2.927884520948321762e-03,-9.005583372052096761e-03,6.846840977668762207e-01
7.407795142079173778e-02,-5.763277987893686838e-01,7.014943483634467070e-02,-5.377811771912514513e-03,-6.586648954759152449e-03,-7.957366671232353125e-03,6.487640738487243652e-01
6.071616359143161556e-02,-4.769266043258220678e-01,4.106562858118320558e-02,3.014150603079224743e-03,1.222497639344676326e-02,-2.883034466738858617e-02,5.308955311775207520e-01
5.311335272822753639e-02,-4.768145318658603693e-01,4.003967863473784083e-02,-2.529274590806958670e-02,1.256360466489546933e-02,5.604616660253075935e-03,5.258833765983581543e-01
6.898661697161059814e-02,-5.861886571897044762e-01,7.850709920189324897e-02,2.085487005823634670e-04,-2.030096383981821063e-03,-7.832037712895763282e-03,6.601358652114868164e-01
6.416271241897006372e-02,-4.502123514031340923e-01,2.470153376102282583e-02,9.193204761150849946e-02,-1.649019694681714415e-02,-9.242043922297601966e-02,5.455601811408996582e-01
5.507886838435305243e-02,-4.578295679574202470e-01,4.726961228066142717e-02,-7.468383423796852438e-02,6.182921937633775386e-03,-4.525975322501205739e-02,5.311531424522399902e-01
3.211026282803899901e-02,-3.884490129895010191e-01,4.816907905107886689e-04,-8.061431716739002329e-02,-3.351264144502851677e-02,-1.661097766368959949e-01,5.198186635971069336e-01
5.940417232338948694e-02,-5.538862020602857150e-01,7.853180362894923716e-02,6.023471331265468041e-03,-5.689763417226331634e-04,-8.568533526704754169e-03,6.233392357826232910e-01
7.265158374935909436e-02,-5.980700157978813269e-01,5.399866277327292075e-02,-6.738118177598836217e-03,-1.260399259531351339e-02,8.448668192215317771e-03,6.622170209884643555e-01
6.895514685696127466e-02,-5.062440287617651080e-01,4.495807028433312924e-02,-2.011814230422535529e-02,9.985000075842725281e-03,-1.914380677808269135e-02,5.658971667289733887e-01
7.086981782677673203e-02,-5.447083937085107630e-01,5.903763215893875760e-02,-1.125385956356058856e-02,1.347977532525361684e-02,-3.562678067828828603e-03,6.105375289916992188e-01
7.113164505852784258e-02,-5.806585824133763118e-01,6.624834104578297689e-02,-2.901717868037438641e-03,7.149361681354774595e-03,2.864184048947243481e-03,6.495187878608703613e-01
1.060851880173869222e-01,-5.860870215996583088e-01,5.625954552670989206e-02,4.845543498899736526e-03,2.537859665159144726e-03,7.753051399019424139e-02,6.820701956748962402e-01
5.772360458661865423e-02,-5.724841539727731909e-01,9.149058530620621243e-02,-2.038797437239575020e-03,2.851204154420937387e-03,4.364856977883208727e-03,6.478242278099060059e-01
7.869443492032676679e-02,-5.867525815440213233e-01,6.681820535141577699e-02,-3.272687688443421446e-03,1.528432921227497812e-02,-9.222223811717807432e-03,6.603376865386962891e-01
1.068543769942018606e-01,-5.918561647413840276e-01,-7.173083883871417266e-03,-2.032104607456888465e-03,5.514362650247055068e-03,5.270589861847680031e-03,6.493946909904479980e-01
1.325453103121204679e-01,-6.064127144759663413e-01,-3.641919294412263031e-02,-1.779991517005359829e-03,-1.574089516550063661e-03,6.182998851950689129e-03,6.707323789596557617e-01
7.410675234840685688e-02,-5.879280429713156231e-01,7.216672779657007375e-02,-1.980188081899164447e-03,3.494905245118769548e-04,1.365390605587484506e-02,6.614989638328552246e-01
6.535961007959920077e-02,-5.769332600035304015e-01,8.088553960656583164e-02,1.090312794072643109e-03,2.104348116942778620e-03,4.389554233163847109e-03,6.502522826194763184e-01
5.764051200218686666e-02,-5.724092730591223699e-01,9.185650799878750106e-02,-2.355650822336046411e-03,1.991741400429166385e-03,7.583671170261861195e-03,6.479910016059875488e-01
4.288327608562578219e-02,-5.416694527123946390e-01,9.393566097793387693e-02,-9.844285845304405990e-05,-3.195399030059903811e-04,1.084129265071149401e-02,6.119673252105712891e-01
6.268705900703877565e-02,-5.553765494925001489e-01,6.925597419584750281e-02,-1.078372451933966997e-02,-4.141694537913204015e-03,2.043446556629576610e-02,6.227028369903564453e-01
6.540705729406806612e-02,-5.723364727928241802e-01,8.204992093451884960e-02,2.549098066609949403e-03,2.527430000477401319e-03,3.419256525665203498e-03,6.462827324867248535e-01
8.097204391560938741e-02,-5.952518826632118287e-01,6.118455693496438474e-02,-4.595859834561963689e-03,-2.573049103931976736e-03,-1.025036895393832866e-02,6.668493151664733887e-01
8.334309444363530162e-02,-5.927290109810967600e-01,2.442565812952160464e-02,-4.405128544715414610e-03,2.944948991212706021e-02,-2.489031349291513651e-02,6.520973443984985352e-01
9.134190398258212884e-02,-5.883049092040613104e-01,-1.697875455076108819e-02,6.785015677075781869e-04,-3.589769020230778457e-02,9.439875361503036189e-03,6.357420682907104492e-01
4.397133841795750064e-02,-5.523472342547873781e-01,9.714198758809872158e-02,-9.165837118247635237e-05,-3.029067736499134228e-04,-1.769228971043680107e-06,6.246038079261779785e-01
6.034612015087359449e-02,-5.762925013077677683e-01,8.562829787397541192e-02,-3.774532330739164936e-03,-3.410385271497993077e-03,4.902193491784763088e-03,6.497640013694763184e-01
9.577172234568603892e-02,-6.009460670611473931e-01,-9.573773346691072383e-04,4.747304278217929531e-03,-6.578586624967440628e-03,4.660825965277694098e-03,6.539433598518371582e-01
1.510910648128870326e-01,-6.033278539661317552e-01,-5.414798372268556093e-02,4.192130546600114638e-03,3.692832378539932531e-03,2.231319464918435636e-01,7.783906459808349609e-01
1.837023090573601247e-01,-7.153330611880462930e-01,-2.156452162196828559e-02,-7.531170309197797452e-02,-4.404803308326990519e-02,-1.777575961189183928e-01,8.851476907730102539e-01
3.600989965601200660e-02,-4.727253494056367633e-01,6.061823973663998943e-02,-2.019934583705390097e-04,-1.100571856015556717e-02,1.364712717259556891e-04,5.218235254287719727e-01
8.630878588885060321e-02,-5.900265849689825259e-01,5.008428103531997744e-02,-2.606513951901979955e-03,-2.076374935204499533e-03,-4.296643003873562225e-03,6.590375900268554688e-01
9.686986645919010153e-02,-5.960530557579239996e-01,4.554224257182465374e-03,5.608376924389896212e-03,-9.066388060577001626e-03,4.031920312265824952e-02,6.556787490844726562e-01
9.949928934175406026e-02,-5.935438659591505406e-01,1.523761424692932076e-03,-5.660455345889289433e-03,-3.546104773840506874e-03,1.626228878383942020e-02,6.503337621688842773e-01
8.994069726354192440e-02,-5.983991456647514973e-01,4.049863566091765898e-02,-3.269291015495113129e-03,-2.305684992089587250e-03,1.531843375952729111e-02,6.655638813972473145e-01
1.114230875364607409e-01,-6.074578467416416050e-01,-1.411851763205199117e-02,-7.507725943725391052e-03,6.065474024199968804e-03,-4.307013867855476012e-03,6.653090715408325195e-01
9.059473356384797893e-02,-5.582629484233870842e-01,4.976036146223314360e-02,-1.318760507217843145e-02,-1.701530274897432651e-03,-1.282452685728360927e-03,6.298598051071166992e-01
7.056611943144627808e-02,-5.831738539035922209e-01,7.888333776343711690e-02,-1.409533474148646755e-04,1.334459492071111151e-03,-1.599362720616285399e-03,6.579479575157165527e-01
1.077839396716558928e-01,-6.394959817278563774e-01,1.056009976203278744e-02,1.437668090741044688e-03,-2.352198578555616745e-02,2.039418507161237099e-02,7.057904601097106934e-01
1.059485484779313369e-01,-5.959106556438853453e-01,-2.727161637662595117e-03,-2.265696123191802082e-05,-5.530078740775056650e-03,1.113192096688214554e-02,6.546794772148132324e-01
5.398988328734194431e-02,-5.279487626813307299e-01,7.222557960901293539e-02,-1.717379640565760155e-03,9.351918983730736490e-03,-1.060239463864828292e-02,5.917817354202270508e-01
4.833595171115512290e-02,-5.461426529879090941e-01,8.557287912764297011e-02,-4.243465289519084138e-03,1.019849120054864243e-03,1.877621314555309208e-03,6.139997243881225586e-01
6.801308023220545285e-02,-5.590443541777446734e-01,7.069995676072268753e-02,1.968941392313294791e-03,-9.045041197757241330e-03,-3.862796273797527991e-03,6.286453008651733398e-01
5.576439772180133425e-02,-5.731768262346559339e-01,9.539039996306100666e-02,-3.958814226213381530e-04,-1.690718523807662084e-03,2.177499470208570272e-03,6.496791243553161621e-01
9.793989991083684732e-02,-6.015851343085735214e-01,6.544134550313540633e-02,-2.656902617313426640e-02,4.951255358817963949e-03,-7.117882177055318005e-02,6.964541673660278320e-01
3.052357877591169166e-02,-4.348286698988403920e-01,4.762258030770544215e-02,-1.910842545314383675e-02,4.727017319053631629e-03,-6.135563218304464911e-02,4.870914816856384277e-01
3.175237352940576963e-02,-4.545470141596018587e-01,5.823440616054281760e-02,-1.176206741973942526e-03,1.260027041299585215e-03,1.334009605226586445e-03,5.000808238983154297e-01
9.332127454493757690e-02,-5.973532753805477213e-01,4.353699168134780861e-02,6.052156949649575282e-04,-2.344694703649633383e-03,-1.565443271946545881e-02,6.677408814430236816e-01
6.137513043668910151e-02,-5.849921038244986216e-01,8.890557223219069938e-02,-7.998948062447653901e-04,5.592535925609810844e-04,-3.443792061122711700e-03,6.605919599533081055e-01
6.008103663174640952e-02,-5.777882940329108763e-01,9.132691076970320121e-02,1.855530056715645130e-04,-2.742147823391529338e-03,-2.910118334708610387e-03,6.540890336036682129e-01
6.800315044680349530e-02,-5.888125411750758653e-01,8.633134864491853744e-02,-1.753522819755902462e-03,-1.784235184703741569e-03,-8.221221028460942715e-03,6.663351655006408691e-01
4.942334701020070775e-02,-5.535047580384151455e-01,8.981206452681292363e-02,1.067461889932845966e-03,-9.390127112163286971e-04,-1.679633759104922144e-02,6.247859001159667969e-01
4.241506551499041322e-02,-5.016045708722602914e-01,7.596688245523675054e-02,1.308005457942856310e-02,1.506082748347913579e-02,1.660371912170712991e-02,5.633442401885986328e-01
3.071222931821940283e-02,-4.694305028128736845e-01,7.115700962972365540e-02,3.138158178565712397e-03,7.434890203141055615e-03,-1.338524901438797312e-03,5.217350125312805176e-01
5.763411780309685151e-02,-5.728226727261442885e-01,8.834585738128258869e-02,-2.288638305637126242e-03,-5.014910557556361784e-04,-1.613764813246039258e-03,6.463788747787475586e-01
7.451695220604237502e-02,-3.887224979333176456e-01,2.650039069372611689e-05,5.648523882281335923e-02,-7.455328565734622992e-02,1.505425090577912350e-01,5.290256738662719727e-01
1.995851164624577734e-02,-3.571937945395836644e-01,3.837620964628440934e-02,1.836966307309729693e-02,1.138172076162351741e-02,8.572499946672246240e-02,4.159046113491058350e-01
2.638313904936651078e-02,-3.746113024437519590e-01,2.022702661738162710e-02,3.863242271737560296e-02,1.194504303869929791e-02,4.064763081165970876e-02,4.101560711860656738e-01
3.891909026619713718e-02,-4.023740846023936002e-01,2.170067073886383646e-02,1.550680963481626106e-03,-1.418789348877549754e-02,-9.329000054669949827e-04,4.336490333080291748e-01
8.394388740597202858e-02,-5.628047113240339794e-01,3.671587441306964350e-02,4.983493916189546402e-04,-3.961526977314598977e-03,3.102812646813004477e-02,6.268218755722045898e-01
5.165598398302034822e-02,-5.685993297180025330e-01,9.247248320646053732e-02,-3.526386784943838937e-03,3.397762114061552438e-04,8.534509233378291537e-03,6.418375372886657715e-01
4.880835260233676309e-02,-5.562407039668487707e-01,9.551145339165856285e-02,-2.359535197372280690e-03,-2.530804350170499147e-03,-4.832348472882126559e-04,6.297299861907958984e-01
6.914287063549878765e-02,-5.606870937661070364e-01,6.725877849980213541e-02,4.411612020517291510e-02,-5.666895076709869278e-03,8.429314378488428350e-02,6.501951217651367188e-01
5.331487848955035469e-02,-5.407100179944415164e-01,7.972181198082506359e-02,-6.379745491163830995e-03,6.733052436108831994e-03,1.840746395895801954e-02,6.087067127227783203e-01
1.428008133260227908e-02,-3.684382737711889289e-01,3.322948904018935279e-02,1.268190527557547416e-02,6.700741392053478733e-03,8.791892012698051314e-04,3.933245539665222168e-01
1.235112337895425405e-01,-5.996465095812588686e-01,-3.312598464954363831e-02,2.165424900008429757e-04,-8.206252818984757650e-04,5.374329605896428254e-03,6.590203046798706055e-01
2.566871040950893801e-02,-3.151373841607179038e-01,3.252598315312688060e-02,1.143430320953145729e-01,7.404337026375131664e-03,6.798676351763374703e-02,4.144718050956726074e-01
4.289397670856079370e-02,-5.331731128088375016e-01,8.814308594455105839e-02,6.437047245539746949e-03,-1.831836789341091719e-03,5.718988435573637424e-02,6.082053184509277344e-01
6.261739451556563862e-02,-5.855186703240292667e-01,7.869644263991532052e-02,-7.911874990146998410e-03,1.142881859981614671e-03,2.335750535866346067e-02,6.577147841453552246e-01
5.980676198917969644e-02,-5.769909455630446438e-01,8.699800226450829510e-02,-2.446236177881983085e-03,2.935485769964318262e-03,5.786480821286075701e-03,6.509302854537963867e-01
1.793755009239580978e-02,-4.222866930363876614e-01,5.739133123124062763e-02,1.809061705566542347e-02,8.253793385114217146e-03,4.269651594200922495e-02,4.683776795864105225e-01
2.744794813824638635e-02,-4.308968611666862958e-01,5.455694438866495743e-02,2.042228887981301436e-03,1.078043214171627191e-02,2.663819215391114575e-02,4.751105904579162598e-01
3.383870782643960684e-02,-3.133588744855531072e-01,3.493509850947587592e-02,6.837081704080853750e-02,1.655755498763243280e-02,1.210881303852867769e-01,4.239825308322906494e-01
7.209324076118404923e-02,-1.367151336636279746e-01,9.175203488029215482e-02,-1.928762568225195553e-02,9.621113679315942621e-03,4.166985646875533502e-04,2.224557995796203613e-01
5.426956893482015598e-02,-3.665356898045393219e-01,8.541792239868700731e-03,9.364413535551391332e-02,-7.415890911117301032e-03,-1.549254481045888622e-02,4.325717389583587646e-01
5.959743665850816829e-02,-4.356763227127335991e-01,2.435503449779657936e-02,3.799742404920947170e-02,-5.810322714656295656e-03,2.092759325378731796e-03,4.832487106323242188e-01
9.898181107296616377e-02,-5.902806810161317363e-01,1.081473416999989556e-03,-2.860253656027317640e-03,-4.900410038797552853e-03,1.545314841010262362e-02,6.465301513671875000e-01
5.518997040499762363e-02,-4.161897067641019410e-01,1.507398661608069790e-02,2.838932984114151542e-02,-8.288806397519494010e-03,-2.331234904779483363e-02,4.573320448398590088e-01
5.531415631992581128e-02,-4.166480650753522919e-01,1.465859974165034663e-02,4.810286423229049452e-02,1.584456906180133464e-03,-1.200670887808232294e-04,4.606110751628875732e-01
7.661219440321540008e-03,-2.697176998923906943e-01,8.654321843887785581e-03,7.059164831938613549e-02,2.652893806256451277e-03,-2.760727726628361620e-02,3.073640465736389160e-01
2.017516896459489728e-02,-3.177724423516858909e-01,7.842813806758802686e-03,3.620897150241718376e-02,-9.576227693810421531e-04,1.150501481983684038e-03,3.378357291221618652e-01
1.146067534920322539e-01,-5.988587127872009308e-01,-3.136333299822899323e-02,-4.757550907072537888e-03,2.988113298587927961e-03,5.339539405445055918e-03,6.529746055603027344e-01
8.190290049946497009e-02,-5.792895599889498204e-01,6.802803460152895276e-02,-1.644616023679550728e-04,-2.842862476094416748e-03,-4.511241311217667775e-04,6.543844342231750488e-01
1.852729184693625575e-01,-6.087308200581317275e-01,-4.280085661641361283e-02,6.956037734156671204e-03,-2.834727652202302314e-02,2.183141732715111194e-01,8.043054342269897461e-01
1.375025032632923860e-01,-6.731289768392401118e-01,-1.298166789544405453e-02,4.674735621007312242e-02,-1.209682066524343617e-02,-1.830539494481014384e-01,8.156610131263732910e-01
7.794684380408006819e-02,-5.874986394468615369e-01,7.522794156973552915e-02,4.305626202454634308e-05,-3.126934740957498533e-03,-1.559105338043349255e-03,6.641178131103515625e-01
8.074069604945768863e-02,-5.864451819841908220e-01,7.054614774956655121e-02,1.821917332859944406e-03,-6.581643323896889212e-03,-3.329669169308191977e-03,6.622782349586486816e-01
7.888293504909982268e-02,-5.789933547850936169e-01,7.279667632739519889e-02,4.617351505890777627e-03,-6.416820639590993178e-03,-1.166878480866218742e-04,6.549975275993347168e-01
3.808947404710799622e-02,-5.070353187998809519e-01,8.333902071079246632e-02,-9.003933838027906172e-03,5.344688506771457697e-04,3.014415008696608514e-02,5.717038512229919434e-01
6.384314131263699177e-02,-5.495458822943881660e-01,6.725909684020212054e-02,-5.095641661686418911e-03,1.561453657931626470e-03,3.579437616856891852e-02,6.182895898818969727e-01
1.102588707347716968e-01,-6.553264052436773568e-01,4.032036082834394852e-03,-9.076136919077314527e-03,3.255265026169865822e-02,8.776237246071412479e-03,7.209275364875793457e-01
2.046521498174855291e-02,-4.170783536512454592e-01,5.852165782925095039e-02,-3.286374463729306583e-03,-2.506469201769437956e-04,4.863044144053743634e-02,4.654797315597534180e-01
6.363077214719908836e-02,-5.742219744414489568e-01,8.020191993576639145e-02,-2.138785719043371537e-03,7.728359162216570655e-03,8.895250324009628534e-03,6.466304659843444824e-01
1.002732634686370750e-01,-3.045527345064257263e-01,-5.144198867316854967e-02,-7.392734272108680837e-02,5.329689108598866041e-05,1.600204555638542470e-01,4.676523506641387939e-01
5.955993512786073030e-02,-5.798209442743686992e-01,9.200339867019793894e-02,-5.675217386579409955e-04,-1.182871217254669169e-03,-4.457059561301495061e-03,6.562537550926208496e-01
1.243540179066957574e-01,-6.300028226696047229e-01,1.725496289948111328e-02,-2.406114355378899394e-02,6.565928161653118364e-03,-1.078178116919228068e-02,7.084832191467285156e-01
7.701189988095513694e-02,-6.012656211667846140e-01,3.051030907296317651e-02,6.321184995322886267e-03,-1.138291855911060212e-02,5.629309414851199275e-03,6.567232608795166016e-01
2.399544576153711528e-03,-3.261511298798628333e-01,3.979491619282282677e-02,-3.184977458791204974e-02,1.047946125837650750e-03,8.999175858976253550e-02,3.859693109989166260e-01
9.285094707533042557e-02,-5.969972019683836839e-01,3.551774159746817761e-02,3.695788050589809016e-03,-1.434548351881402605e-03,-1.278882234061699298e-02,6.634486913681030273e-01
6.936227315581050545e-02,-5.863630325868456339e-01,7.368829882565972045e-02,-5.277185153002209202e-03,1.232588388316684103e-03,3.517307819080322390e-02,6.607803106307983398e-01
1.995436351940665931e-02,-5.889490461608822836e-01,8.282054867302329759e-02,2.281934719837709570e-04,6.510270114998501466e-03,-4.639992484616824219e-04,6.427463889122009277e-01
6.002166912443385183e-02,-4.483700118635329801e-01,2.730897492012007710e-02,1.637505046219689397e-02,-1.325907534659490419e-02,-1.294380413891527311e-03,4.942046403884887695e-01
2.866557236014163901e-02,-3.898985375087524741e-01,6.110585556357495118e-02,-3.639757965702902082e-02,8.082579987275337330e-03,7.002666908285638814e-02,4.568458795547485352e-01
7.030197947582553231e-02,-5.890054728632463377e-01,8.157537029231179404e-02,5.238136837659689016e-04,-2.070922089122731111e-03,-7.851014276547383861e-03,6.651651263236999512e-01
5.502412845606713399e-02,-5.625970505572361891e-01,8.541030906174518211e-02,-5.018116301236545456e-04,3.074163465018089989e-03,-6.054554783086392791e-03,6.334709525108337402e-01
1.828774346424577035e-01,-7.101689376154822764e-01,-6.225010907274522443e-02,1.000780363886956230e-02,-2.627221224118726772e-02,1.666580833307987689e-02,8.011950254440307617e-01
4.208240253972933553e-02,-5.550591033722560574e-01,8.756373449101673145e-02,-7.916573546104551220e-04,8.531387508959856550e-03,1.352943761909706881e-03,6.213139891624450684e-01
5.734456212417801679e-02,-5.645429029526847220e-01,8.596417540082121334e-02,-6.259009613749014558e-03,7.674138345733157868e-03,9.447154427065306654e-04,6.369130015373229980e-01
1.286484101945987168e-01,-6.210851935947339086e-01,-1.502710548779756516e-02,-6.110285563792854438e-03,8.177155367281242065e-03,-6.266710983395176911e-03,6.895325779914855957e-01
3.262173351856159642e-02,-4.316638170117801376e-01,5.716247078324715458e-02,6.799511272048608390e-02,3.399876165623532710e-03,5.021896248598347462e-02,4.990268051624298096e-01
1.187110009624518514e-01,-6.025055272789612282e-01,-1.923643472901387375e-02,-4.540380764390555845e-04,-1.455927159815200659e-03,-4.237197618935270062e-03,6.631392240524291992e-01
1.031228139828644363e-01,-5.999053938050308288e-01,-1.623350575442866761e-02,-1.193865031354675484e-02,3.237155854096324809e-02,5.999531783185760823e-03,6.544181108474731445e-01
4.239806552119937400e-02,-5.416828900828385418e-01,9.385436927351267777e-02,1.846431408907226054e-04,-4.364111491100101394e-04,1.281540159412625397e-02,6.118385195732116699e-01
8.432637280495844379e-02,-2.123290884110855536e-01,4.852140714861633009e-02,-6.905730536728114932e-02,8.924753995204991880e-03,-7.343331081821997952e-02,3.307382166385650635e-01
1.330065185722943411e-01,-6.459516004291809832e-01,1.044984480935698401e-02,-5.005438843989334224e-03,-2.247721355096076248e-02,1.335692119359956770e-02,7.269493937492370605e-01
7.192667031521543519e-02,-5.698947624651440336e-01,7.281074146817434478e-02,-5.082084185307138941e-05,5.529063615979843381e-03,4.634837912961938195e-04,6.423358321189880371e-01
1.516906670000778834e-01,-7.147101760411371796e-01,-2.950851813917990119e-02,2.316779431524809956e-03,-3.665353863706977133e-02,6.956346607135202760e-03,7.941562533378601074e-01
4.638582844955113638e-02,-5.563437235321104790e-01,9.606252775638879360e-02,-1.991136173502936965e-03,-2.607707364531772296e-03,-1.143125330329225822e-03,6.290695667266845703e-01
5.267641010333173890e-02,-5.576490831729015163e-01,9.262597574773523412e-02,3.966703547241816341e-03,3.119262274919444231e-03,1.073619890719109521e-04,6.313096284866333008e-01
1.134755889368562753e-01,-6.156597383616984054e-01,-1.193285209278402426e-02,4.506326553553889093e-03,-1.321175276942396747e-02,1.184165076736044993e-02,6.759667992591857910e-01
9.616300881020989344e-02,-5.938236533674784434e-01,8.618567897065526617e-03,2.730972824693428478e-03,-1.170028041131551677e-02,1.238710896390099458e-02,6.513328552246093750e-01
7.079417849656663431e-02,-5.865157891302907878e-01,8.327417110622015173e-02,-1.660499347482140894e-03,3.651280544879949991e-03,1.065566421361585636e-02,6.639308929443359375e-01
6.850016090083982379e-02,-5.832971775665398706e-01,6.751133859003768944e-02,8.742697257118339435e-03,1.598742085121652567e-03,2.391454223378157006e-03,6.514985561370849609e-01
1.219140257843100983e-01,-6.024569092689432415e-01,-2.583573729531446483e-02,-7.293730458558576532e-03,-4.689551661256020215e-02,1.410947653332056276e-03,6.680424809455871582e-01
1.484615207698513628e-01,-6.256267207527909102e-01,-3.128764606459341624e-02,-1.334939421236764137e-02,1.982366916388780473e-02,-1.122624026885292794e-02,7.031872272491455078e-01
1.101544575589769592e-01,-7.012569991280062087e-01,2.746476196803857017e-02,2.400245205477278404e-02,-5.442296647394720410e-02,2.255570646217855413e-02,7.811984419822692871e-01
5.826349680908593509e-02,-4.318477677246881918e-01,-2.673552684728451589e-02,7.864199230549846764e-02,-4.902342910529784020e-02,1.424736870236287256e-01,5.407723784446716309e-01
4.885366006490127200e-02,-5.591204950825356956e-01,9.660370136150348008e-02,1.427490838033866269e-03,-5.415512955744216338e-04,3.954328752000945031e-03,6.332435011863708496e-01
7.186892992128848801e-02,-5.757783400446921940e-01,7.780829163701336038e-02,4.637921819224056548e-05,5.368339609078550366e-03,3.921687674399220586e-03,6.507391929626464844e-01
7.445419787837062597e-02,-5.860912019366852910e-01,7.780741872650345781e-02,-3.100710891628059851e-02,2.763220881229635530e-03,-1.570141797966355043e-02,6.649761199951171875e-01
7.947175689326152481e-02,-5.915467872428983309e-01,4.422874703232257398e-02,-4.218879774250151871e-03,-2.244535864826281528e-03,6.780593392807519708e-03,6.542673110961914062e-01
7.026326952003308923e-02,-5.427442117222553986e-01,6.862779669684807016e-02,-2.057871480966416179e-03,1.864897305018429693e-02,-1.351508048533580112e-03,6.130577921867370605e-01
8.279396572330793846e-02,-6.262596853607044212e-01,3.309509584643957614e-02,5.627753709012109536e-03,-1.836194075378261639e-02,1.112271012181255576e-02,6.866334676742553711e-01
9.464193349266775135e-02,-6.165108550016139555e-01,3.025750266125884491e-02,7.776683233799107191e-03,-4.587377574605770031e-02,-1.733855593770074546e-02,6.866534948348999023e-01
-1.394702395092217717e-02,-5.929006934381100269e-01,9.683177606806547821e-02,3.245398629607603065e-03,-1.137706097427386431e-02,2.435507273495382107e-03,6.418977975845336914e-01
5.719571306294676805e-02,-5.864205879866645210e-01,3.587355120991134183e-02,-8.009816665553835466e-03,-4.097163048708360455e-02,-1.601122814428993998e-02,6.379426717758178711e-01
6.122603107246260556e-02,-5.961878233276500794e-01,8.548391500436858248e-02,1.053855639211531865e-02,1.096484833905893817e-02,-1.249731802956758828e-02,6.707393527030944824e-01
1.120420959982947051e-02,-1.366851676340783972e-01,-3.048291732258859299e-03,6.453641114831164260e-02,7.909930429784174091e-04,8.771715506527981432e-02,2.356824725866317749e-01
8.990639665589489349e-02,-5.930959278813471292e-01,4.122078828354622249e-02,-2.049021002037125852e-02,-1.877929066541030728e-02,-6.903051024760285814e-02,6.724754571914672852e-01
4.302909728768916642e-02,-5.884680613326896959e-01,8.026552098564784798e-02,9.684552098065743811e-03,-3.335464828951830579e-03,-6.019134740993407028e-03,6.512398719787597656e-01
7.004363513818184783e-02,-5.868666288390309571e-01,6.489087569363310992e-02,3.868445839804924256e-03,3.735321497637800105e-03,-4.486649516958315237e-03,6.544615030288696289e-01
8.481780616112874482e-02,-5.891262345388579291e-01,1.803791549270344907e-02,-2.384345887601479683e-03,-5.940402192796847940e-03,9.720488253161897046e-03,6.434754133224487305e-01
4.228056934089963192e-02,-6.013072882940049269e-01,4.967020608837560691e-02,3.816826446767847161e-04,-3.205367813179359204e-02,5.966264215253327952e-03,6.497732996940612793e-01
6.781157528968514980e-02,-5.855094972917143092e-01,6.891666360679987724e-02,5.705725720815684084e-03,3.349974859038349923e-03,-8.756804055533385159e-03,6.541506052017211914e-01
8.018637548911089485e-02,-5.943013961738631279e-01,4.105890421549462932e-02,-4.633110869841902679e-03,9.989149175399550905e-04,7.743573570168408270e-03,6.559885740280151367e-01
5.245104169976225195e-02,-5.907949266183155634e-01,6.742492272326588987e-02,5.052240339839742444e-04,-1.897104013204134118e-03,3.124875082430713345e-03,6.508935093879699707e-01
5.486792704345871963e-02,-5.854558347183693723e-01,2.802130948739173233e-02,8.355680439096513368e-03,-1.445633237308492983e-02,7.072734653231538098e-03,6.281172037124633789e-01
1.061183685167277901e-01,-5.999588811432298163e-01,-1.991354167964531907e-02,7.158486599688823268e-03,-1.545323563732113256e-02,5.214198378497542953e-03,6.529874205589294434e-01
2.182037507748326166e-01,-9.391787598066795306e-01,1.726362543916587500e-02,-7.114762600853062613e-02,7.554656987472277430e-02,-5.684910303204822324e-02,1.090573191642761230e+00
1.183467028042632929e-01,-6.088981100138707303e-01,-1.220713550804977676e-02,-6.964706060551955139e-03,1.365788332206006699e-02,9.014858370136626803e-03,6.722601056098937988e-01
7.336038544278922213e-02,-5.928281156550379016e-01,7.793951137499635640e-02,1.666598510607513340e-03,-6.819603733244665109e-04,-8.371469801626826857e-03,6.686543226242065430e-01
5.957868120473069906e-02,-5.577643598980128736e-01,6.037345209340222452e-02,-6.276597083997587610e-03,2.253732814600283539e-03,-2.959240941322040588e-02,6.199711561203002930e-01
1.237963332123502291e-01,-6.082167863756774429e-01,-1.838808567605745847e-02,-1.880173612313064142e-03,5.986703352469658831e-03,-6.492286049435766135e-03,6.724755167961120605e-01
1.718802942631365016e-01,-7.058976069013643828e-01,-3.214804145410277147e-02,6.235348558914017431e-02,-8.053554974682178291e-02,7.872858221644665755e-02,8.262847065925598145e-01
6.771687393963651824e-02,-5.929725381831332243e-01,7.864925306047731990e-02,2.537631128126780714e-03,2.977215397581563878e-04,4.455645284555991015e-03,6.662822961807250977e-01
1.255324877054591060e-01,-6.202758246786064245e-01,-1.990335887770489087e-02,-4.024243643469656295e-03,9.166830128375378847e-03,1.688500408815884633e-04,6.849927902221679688e-01
1.972585750864070953e-01,-7.103523167882933587e-01,-8.184878481561676244e-02,-6.436536382786126878e-04,-5.243108110463236965e-02,-7.050623363816987954e-02,8.194505572319030762e-01
8.303396932285209142e-02,-5.689681884586494931e-01,6.750040928066156076e-02,1.006043844434382313e-03,1.363215129592714597e-02,-5.548861958883235601e-04,6.448113322257995605e-01
7.589261769199923124e-02,-5.871550797828706258e-01,7.377964051853400096e-02,1.070294437623042414e-04,7.495813600360959122e-04,1.431756604291706909e-03,6.619997024536132812e-01
7.505115089920824656e-02,-5.865370786663260949e-01,7.547214221941855872e-02,-1.821345146897939327e-04,1.445789567890521776e-03,-1.187559111671261354e-03,6.618068218231201172e-01
7.378191796823752036e-02,-5.862459391451264601e-01,7.618509648673596479e-02,8.478115786500554614e-05,-5.095195558875800518e-05,4.191141145274283929e-04,6.612331271171569824e-01
7.539428689531546546e-02,-5.739693499523885745e-01,7.119953667781123152e-02,1.992766887780936420e-03,7.996370978592431955e-03,1.869766751457305155e-03,6.474419236183166504e-01
8.731275319482728614e-02,-5.938707432456261648e-01,1.832052480185097920e-02,-3.891525160978802182e-03,-5.481643368034955395e-03,8.656450854355131341e-03,6.497191190719604492e-01
3.164312399036550705e-02,-3.755599104031521751e-01,3.852418364332521605e-02,-5.976336305918100722e-02,-3.254788049568296728e-03,5.236200758866079580e-02,4.331694245338439941e-01
6.619821144681173331e-02,-5.849169741664339561e-01,7.460236226153471595e-02,-2.410187545938679947e-03,1.151020552299148033e-03,7.495729195292533467e-03,6.555026173591613770e-01
7.432753109903764144e-02,-5.856719308815059311e-01,7.787169646931463296e-02,-3.677033097569028935e-04,2.260632401380070072e-03,-8.527130179323725526e-05,6.617905497550964355e-01
7.282962598028230872e-02,-5.864295027559998097e-01,7.963222309446107983e-02,-1.044934034668615385e-03,1.512564265490136698e-03,1.533390181818953917e-03,6.626995801925659180e-01
7.067120879232155484e-02,-5.808332394926097875e-01,7.912955333556567772e-02,1.165421476445762002e-03,1.588254568219492607e-03,1.255943642670320206e-03,6.557869911193847656e-01
3.661828133659300599e-02,-5.995594867594511435e-01,7.653090135002166283e-02,-4.410244647497563175e-03,-2.429900696866463955e-02,-1.526285058589032205e-02,6.589652895927429199e-01
8.324381949208226050e-02,-5.950762732006442679e-01,2.350643424054363329e-02,-3.288739801099678506e-03,-2.194755043168114886e-02,3.722083142000060744e-03,6.516783833503723145e-01
9.647197427960141347e-02,-5.949946569618891345e-01,-9.003847290936506376e-03,2.662677014084899817e-04,-1.075655156157624345e-02,2.591122615195149120e-03,6.455119848251342773e-01
6.931393017273387858e-02,-5.860496256513254565e-01,6.973286800423592058e-02,-1.163270892045434150e-03,7.237706989919721499e-04,4.448809398149535660e-03,6.556227207183837891e-01
5.524150823234477703e-02,-5.898280226730627795e-01,7.516630105086422042e-02,-4.773046328281301855e-03,-1.502392324973938998e-03,-5.135608790935882600e-03,6.553768515586853027e-01
7.308903875132236050e-02,-4.769944889960934797e-01,3.034425794373540874e-02,-2.121836481978929198e-03,6.479962372087164600e-03,4.459415415213592235e-03,5.301933288574218750e-01
6.915852501931704643e-02,-5.319576522844379207e-01,6.215644887987215039e-02,4.064779228246494756e-03,1.571055519766738004e-02,1.203432306288847176e-02,5.986694693565368652e-01
7.105731452471400478e-02,-5.836747966085509276e-01,6.810431804213851192e-02,2.433735431829859924e-04,7.112021832516882093e-04,3.006074946997291421e-03,6.532826423645019531e-01
7.138516885206899754e-02,-5.724056423558369078e-01,7.254160148450428114e-02,9.570627826152070753e-04,3.432883569143689497e-03,1.071936877614186514e-03,6.444020271301269531e-01
7.247023078085979009e-02,-5.858166653993709394e-01,7.392098421260104302e-02,-2.559701099115215765e-03,2.198201699999461928e-03,-1.486130558466328523e-03,6.590443849563598633e-01
9.406819775185670807e-02,-6.017432895986346564e-01,3.089758941844877871e-03,1.668936881088095917e-03,-8.545085755718681217e-03,-5.227781276203277185e-03,6.553138494491577148e-01
1.173495693742798718e-02,-5.775578179547179447e-01,6.485385290810583014e-02,6.169475713285929586e-02,-8.966559410163410515e-02,7.951217323578801954e-02,6.602236032485961914e-01
5.365380804673330895e-02,-6.272585074526493276e-01,6.079907308450654968e-02,5.317691147004079133e-02,-6.059453297008444289e-02,4.428678919626290178e-02,7.028089165687561035e-01
3.893206164572934891e-02,-6.650220572922967976e-01,1.200498399958489504e-01,6.432292008751007428e-02,-3.299374903913231821e-02,2.089574924906179715e-02,7.590933442115783691e-01
4.642093737942112885e-02,-5.761977369367732305e-01,6.949269232304139399e-02,5.754361071434333647e-03,-1.255908574961436645e-02,8.327285632140890223e-03,6.350840926170349121e-01
4.706057151358361557e-02,-5.799297479512227627e-01,5.104060920630559828e-02,1.646419637144131603e-03,3.918916309077175681e-04,-3.381557973632964603e-04,6.289969086647033691e-01
5.271000057352587254e-02,-5.875950951286130763e-01,7.686157254104694636e-02,1.966232751319454963e-02,-9.455929485206246779e-03,-1.286582643360783358e-03,6.538128852844238281e-01
4.459183011347012116e-02,-8.929028054749408305e-01,1.582424161908475013e-01,5.681989830640404859e-02,-1.080501742375383628e-01,1.762182190204559379e-02,1.021763682365417480e+00
3.434025871711360312e-02,-4.153240843321777676e-01,4.257666820262120955e-02,1.035196332130327614e-02,-9.489339682679438434e-03,-4.523603362078681273e-02,4.611940979957580566e-01
6.708212751005457330e-02,-5.618427719509823115e-01,7.085546734433256777e-02,4.977612169055299456e-03,1.607942999347013180e-02,5.056225080589977529e-03,6.315541267395019531e-01
-2.507924522943461021e-03,-2.221390947664449722e-01,-8.323637158391766766e-03,-7.574114496557160688e-03,-7.818785698008069718e-03,-3.645135284113516089e-02,2.265744209289550781e-01
5.725688402755096940e-02,-5.553668411030843188e-01,8.190858934796638180e-02,-6.145826381145779935e-03,-6.503334385149913202e-03,1.180843679468095847e-02,6.258404254913330078e-01
6.314087069915194639e-02,-4.760594549792062646e-01,4.386258251031319166e-02,2.794223290512750854e-02,-1.818155181065673424e-03,-5.750114592041547651e-02,5.412810444831848145e-01
7.221687674144477986e-02,-5.869123566921303770e-01,5.499359316275065357e-02,-2.852746104743510928e-03,-1.677732429392367504e-03,7.230562874665830489e-03,6.508343219757080078e-01
3.592961848684336768e-02,-4.991086075499988617e-01,7.277770139673436778e-02,1.979487372257034486e-03,5.471126221965591507e-03,-2.475976908068099405e-02,5.561290383338928223e-01
7.399448533326566380e-02,-5.936142635514796151e-01,6.043591274700388372e-02,1.940173014140417901e-03,3.323061465983121431e-04,-3.936797862622235487e-03,6.609777212142944336e-01
4.160027457979087462e-02,-4.908611881295141810e-01,7.044365526765344887e-02,2.915444525776067324e-03,-7.091896289871313895e-03,-2.600542104900081114e-02,5.494636893272399902e-01
4.156566063526079269e-02,-4.799883371072616312e-01,6.070789492243791607e-02,2.869315208267490380e-03,-1.210254133451617482e-02,9.060041479389606368e-04,5.318226218223571777e-01
7.080386631381263562e-02,-5.708577537650879608e-01,7.600361452107728955e-02,-4.920544579982034407e-03,-7.043702593606301042e-03,3.286761912357789601e-03,6.444742083549499512e-01
3.851622694109199663e-02,-5.448350823470718973e-01,8.525337365823087987e-02,-6.015905658874582534e-02,-1.281057384387826806e-02,-1.586258451406440464e-02,6.179416179656982422e-01
6.695781101326783724e-02,-5.939380509701110977e-01,8.291056674248406533e-02,-1.492169687783634954e-03,1.576278218273228886e-03,-3.269374858476742189e-03,6.690494418144226074e-01
8.056663078846626469e-02,-5.787862963061166655e-01,6.336601515581113953e-02,1.004487121455933290e-03,1.170904629984206510e-02,-2.325624080580106917e-03,6.512537598609924316e-01
7.350964209507540592e-02,-6.013480836643734229e-01,7.282280788030745522e-02,2.310918655273192391e-03,2.840657278995843259e-03,1.561140963243697836e-03,6.745498180389404297e-01
4.708405198870471708e-02,-5.455831558317094654e-01,9.206561955618300375e-02,-4.887334738083502425e-03,-2.717460607198344657e-03,1.380724635972010138e-02,6.169299483299255371e-01
6.822698121109360692e-02,-5.547531223654562638e-01,6.455743899903235161e-02,-7.146172011321938466e-02,3.804683440029031985e-03,-3.778286020831791298e-02,6.367715597152709961e-01
7.311515532204715395e-02,-5.941918061414235286e-01,5.375535031481351589e-02,7.121600917177122944e-03,-1.052785659340056820e-03,5.409836535425260884e-03,6.580256223678588867e-01
6.032526568685367407e-02,-5.943970671505273140e-01,6.038106839725082553e-02,2.471788376860287705e-03,-3.300548591291225554e-03,2.118676713201354204e-03,6.547994613647460938e-01
5.429730672932117641e-02,-5.920535406065734474e-01,5.993423073359399611e-02,1.002446194646156334e-03,-4.345911705984058584e-03,8.428417956445811987e-03,6.493977308273315430e-01
7.581958340349576053e-02,-6.011730608083662997e-01,6.948411055319186902e-02,2.079613468613049094e-03,3.562709691682291579e-03,-5.769431183416879987e-03,6.739591956138610840e-01
4.446637620613796971e-02,-5.893937316376858249e-01,6.049765594426576021e-02,6.598260514206148904e-03,-1.716850151159728458e-02,7.584130320129141636e-03,6.429499983787536621e-01
1.433790009585904079e-01,-6.853356605100638932e-01,-5.105335501505492424e-03,-1.486192309953923707e-02,1.845291979208038211e-02,7.157885588401462218e-02,7.764143347740173340e-01
6.729255192780989048e-02,-5.826816729874724210e-01,8.146570023176941122e-02,-1.337546023427249294e-03,2.081072871376174124e-03,4.507220319882762789e-03,6.572357416152954102e-01
8.615670360418073437e-02,-5.992730384682267708e-01,4.103095056655858830e-02,-9.845096661964248402e-03,2.849244189146567675e-03,5.966852070343782802e-03,6.643354892730712891e-01
6.400955545159647819e-02,-5.840613984380997881e-01,6.251521501061982344e-02,1.850160851732323775e-03,3.537829287910504938e-04,1.277511471815417736e-03,6.473370790481567383e-01
6.541004644742443030e-02,-5.663153915681313766e-01,7.688526763125044794e-02,-1.017265949889460154e-02,-2.740270646657378198e-03,6.529035443809990368e-03,6.379018425941467285e-01
1.157503823784978847e-01,-6.385326658333088101e-01,-1.960110974081089030e-02,-1.931216756799237697e-02,6.294728739596282263e-02,9.413273045275073400e-03,7.060038447380065918e-01
1.405710983017497973e-01,-6.720280842754970951e-01,8.666832260944862254e-03,-2.293723783428088664e-02,7.548289888762675127e-03,1.413076291628965336e-02,7.568878531455993652e-01
4.740111154238280111e-02,-5.801188059259136942e-01,5.293206881786294282e-02,2.222674800516454344e-03,-1.115435388259592353e-03,-1.355179144203652250e-03,6.303226947784423828e-01
1.270387665349119732e-01,-6.470515968430565756e-01,-5.117197280433805062e-03,-2.318798299605143165e-02,3.007366199117706904e-02,1.099378663362863932e-02,7.204646468162536621e-01
9.990326896033874249e-02,-6.054580786899367295e-01,1.519865464133501876e-02,-2.227999817947824528e-03,1.884766837998408471e-03,-4.405029558516610107e-03,6.671175956726074219e-01
5.734645273851590730e-02,-5.729757688876560007e-01,9.447307511355096388e-02,-1.121465380749045015e-03,1.547194524112934042e-03,5.355759701024165667e-03,6.497563123703002930e-01
4.926424940270437980e-02,-5.927178345886410238e-01,7.323319643500372789e-02,-1.219937619941568498e-03,-2.214163529371983210e-03,5.441706466407588913e-03,6.543784737586975098e-01
1.122026292440704287e-01,-6.143509053555854527e-01,1.104887599221612837e-02,-3.653622869079978588e-03,2.264720665788098278e-03,-1.017645264873578460e-02,6.818978190422058105e-01
7.053009779645100230e-02,-5.865256221554223659e-01,5.011128477877047072e-02,-1.198153219943662220e-03,-2.978585040052670121e-03,6.023859670317512766e-03,6.471959948539733887e-01
6.715179594378220540e-02,-5.853625616856614755e-01,6.178342459363628247e-02,9.710275729368864767e-04,2.161068192193886170e-03,2.083059946409651555e-03,6.498697996139526367e-01
1.681864851753717693e-01,-7.028336512377423295e-01,-3.043087026333488043e-02,-3.260052616674102149e-02,5.282147607861626543e-02,2.025231576533449013e-02,7.986954450607299805e-01
1.488507116820143583e-01,-6.754294687687993903e-01,5.519993328744476901e-04,1.615635642721028470e-02,-1.611389610156607755e-02,1.199154258074154773e-02,7.623543143272399902e-01
-3.236065963342049656e-02,-6.864900295423572718e-01,1.293348312726498306e-01,-7.022088604583535953e-02,-7.424783763029299544e-02,-2.041149840006038427e-02,7.696632146835327148e-01
2.309411432091790228e-04,-6.003258045187733760e-01,9.324703172409487539e-02,6.593112727646124709e-03,-3.329840586264468105e-02,6.022220548242852162e-03,6.547880768775939941e-01
1.206130737041822276e-01,-6.052586010428788743e-01,-3.718227169093155093e-02,-5.566391526501335979e-03,-1.051063271638562856e-02,3.018519077926956444e-03,6.615902185440063477e-01
3.039811746687187677e-04,-1.471319328948205163e-01,-1.592261399267714400e-02,3.827812614787305667e-02,4.976326513019529302e-03,-2.242922325060644345e-02,1.599606722593307495e-01
5.946515932083026867e-02,-5.862387319622688331e-01,5.741681181031269010e-02,-6.401140336221185050e-03,-3.337156645381996085e-03,8.892654860801328274e-04,6.448052525520324707e-01
1.035555598464664440e-02,-3.270367686814639185e-01,8.190466559261214141e-03,-1.304205783883093973e-02,-9.890398909704802705e-03,7.159731288277355454e-04,3.375101089477539062e-01
-2.227050804543070917e-02,-5.923981008773090418e-01,1.099817373140941634e-01,-3.456227012538711646e-02,-6.020255976312617607e-02,-2.970672626761882221e-02,6.595763564109802246e-01
7.462253889665632078e-02,-5.849917079513144991e-01,3.284713534902700127e-03,4.745382773916960277e-03,-2.106237532683723560e-02,4.311538603933654998e-03,6.281550526618957520e-01
7.456648822627481854e-02,-5.975189989927170986e-01,6.099282769477143429e-02,2.803663655907864555e-03,2.194199261265560269e-04,-3.684315548507058422e-03,6.654509305953979492e-01
4.090043816075730754e-02,-5.974629911021451800e-01,6.231801227045971614e-02,-1.081739767122404106e-02,-2.235722146630438403e-02,-2.703935765139593370e-03,6.507774591445922852e-01
-3.709375513790275081e-04,-3.065940742517273554e-01,1.143926965100620918e-02,4.650573956151448133e-04,-8.007097794552418130e-03,-3.017253650894591646e-02,3.169428706169128418e-01
5.189921686288684333e-02,-5.677255051720543344e-01,9.472434839223692338e-02,-1.082384891685546835e-03,-4.737175484976861314e-05,6.858414114916951132e-03,6.422218680381774902e-01
6.665204773240257508e-02,-5.284003347690118257e-01,5.408194875780880650e-02,3.154785812714608513e-03,1.225672654655051569e-02,2.762999150067689102e-03,5.892952680587768555e-01
5.098655387729023047e-02,-5.609837624156066571e-01,9.375040409936852281e-02,1.089919054138647732e-03,-2.231870826139996963e-04,6.574851947855443919e-03,6.345392465591430664e-01
7.024480382320569261e-02,-5.972933291914762632e-01,7.646703284544856261e-02,3.715105219806154411e-04,2.575230568864290276e-03,3.738618221659469401e-04,6.706863641738891602e-01
7.088345278079677403e-02,-5.893032114309246783e-01,7.506517423134903555e-02,2.409836036756637934e-03,1.164183309505800561e-02,2.410764271917936654e-03,6.626206040382385254e-01
1.887721709452902519e-02,-3.372946710292617500e-01,1.205475977594898385e-02,3.568576730168264433e-02,-6.850616619669930296e-03,-3.628418593637757622e-02,3.638486266136169434e-01
5.019977591478111401e-02,-3.531875792659246449e-01,8.128970222899711828e-03,7.399250225350863241e-02,-7.694241395991897360e-03,-1.670958393854066193e-02,4.061531424522399902e-01
2.543457071240716461e-02,-2.714006510053692534e-01,4.580915722015521663e-03,1.001219240552029405e-01,1.576275805479436173e-02,-2.116861752773406373e-03,3.364341855049133301e-01
6.926008798643296105e-02,-5.994312248386910458e-01,7.053711892366126834e-02,-2.896855113161332347e-04,8.159139628916688841e-04,2.957012067348627725e-03,6.693519949913024902e-01
1.643729072605837338e-02,-2.715751376729163002e-01,-9.015749585378873832e-03,4.718179586345420951e-02,2.564517955942696194e-03,7.758188215246926249e-03,2.883520126342773438e-01
2.503908659719542018e-02,-2.947297833085019692e-01,2.334365800974327887e-02,8.505538456530384317e-02,1.494658009917463996e-02,5.520729119150562247e-02,3.650066554546356201e-01
1.370064621127184412e-01,-6.411358073361547172e-01,-8.383716203605812156e-03,-3.088126662238106779e-02,3.358644049308458918e-02,-6.844121891242455590e-03,7.210375070571899414e-01
6.809837612185309919e-02,-5.989326928667610961e-01,6.855949278500395039e-02,3.057729738287928104e-03,1.569416399311159135e-03,-3.365552426098930507e-04,6.672885417938232422e-01
7.023389917539707428e-02,-5.982031163396829276e-01,7.024328370435897750e-02,2.656240766595653092e-03,8.215698232224684589e-04,-7.186101208944568322e-04,6.684601902961730957e-01
1.368877042847052583e-01,-6.244489501096370798e-01,-2.976850174557199580e-02,-3.235730003236748573e-04,-5.534509576609535249e-03,4.128567738933669982e-03,6.933034658432006836e-01
7.229418731022405065e-02,-5.931788814122520570e-01,7.207216947419156639e-02,-2.873905045778842038e-03,5.583879084235500445e-03,-5.075579748629664538e-04,6.654515862464904785e-01
5.601493573025712047e-02,-5.436020078293614111e-01,7.585388178337038045e-02,-1.116809936601975087e-03,-3.316010031173564042e-03,-2.509746058690782988e-02,6.113560199737548828e-01
9.824181514194735287e-02,-6.044896484658467406e-01,1.863446049123540504e-02,-3.881165212841977555e-04,-1.956652211625981626e-03,9.060544906742885873e-03,6.666966676712036133e-01
6.615745059051608701e-02,-5.875052557437566714e-01,7.417189072260590987e-02,-6.186782077236185375e-03,-1.074674091910989308e-03,-4.087888686787572584e-02,6.615961194038391113e-01
7.124971822833808810e-02,-5.996700062875122139e-01,6.999773735081396553e-02,3.177447252792398036e-03,-9.300215598192156747e-04,8.150934309538518385e-04,6.703206300735473633e-01
1.100553349997331343e-01,-6.069911216093264450e-01,4.166872423910408796e-02,-1.866446121683224685e-02,2.978857531335946454e-02,-3.022118235078941409e-02,6.901037096977233887e-01
5.299640665771501724e-02,-5.876498676982317981e-01,5.839379451925577613e-02,-2.748325085262238055e-03,-1.422395671769839665e-02,-5.800810784454065068e-03,6.439294815063476562e-01
4.626140304161086014e-02,-5.426085643972677897e-01,9.473939981103970953e-02,1.336468649142617425e-03,2.377224085076032421e-03,1.179307818940031685e-02,6.149021983146667480e-01
1.123665614844296390e-01,-5.833666407193168757e-01,1.700053179276028725e-02,5.158100166734191222e-02,4.418792040931490694e-02,-9.647091064122979842e-02,6.845067143440246582e-01
9.903270126537838669e-02,-4.668937404859155316e-01,-3.638707182548023278e-02,-2.098980015787975037e-02,1.103080161394664506e-02,-1.183553972902251367e-01,5.528873205184936523e-01
3.374366436044090589e-02,-5.941688188790172909e-01,8.270981332001628439e-02,-8.685018704182765129e-03,-1.238709246467143213e-02,1.551881831600790580e-03,6.543027162551879883e-01
6.806314277997274620e-02,-5.747957296322994125e-01,7.807028901689055944e-02,2.796999521493080589e-03,1.853088596516720048e-03,-5.542185297097316837e-04,6.479471921920776367e-01
6.914794246941816103e-02,-5.834571868918817517e-01,6.875612049986087881e-02,-3.085281056905523744e-03,-4.140384803155187855e-04,-8.794032410574813318e-04,6.524333357810974121e-01
6.142459445629044890e-02,-5.683215873403777429e-01,6.685511231241419994e-02,1.722490870003805241e-03,7.419636218902306887e-05,-3.350796803316127229e-03,6.325126290321350098e-01
6.518729683677348952e-02,-5.847738076502058124e-01,7.041667671923229621e-02,1.013115064779175492e-03,1.774038491547908413e-03,-3.428851392868228522e-03,6.526281237602233887e-01
8.688896681358260210e-02,-4.287969293210175947e-01,-4.534322642627507116e-02,6.919106407005871234e-03,-4.428647855029024805e-02,1.809383275386078072e-01,5.652172565460205078e-01
7.922749345568769197e-02,-5.796927528340888314e-01,6.474271586908778020e-02,8.058908125555782828e-03,6.027689729736311446e-03,3.767717831882148091e-03,6.520642638206481934e-01
8.254702609770953048e-02,-5.580036529472676143e-01,6.092717152518703494e-02,-8.531224961375819676e-04,1.160799940527534532e-02,2.336996461593604524e-03,6.303544640541076660e-01
3.435316633655341456e-02,-4.305148901544140760e-01,4.230978171262336773e-02,4.785227261180618336e-02,2.646651500591020757e-03,6.814501550077044223e-02,4.905977547168731689e-01
5.820985778968121305e-02,-4.573928080550367370e-01,3.912674605140611939e-02,2.305635672641970224e-02,1.730714046520548388e-02,1.010334518139346591e-02,5.090880393981933594e-01
6.007963801492929856e-02,-4.914271852836712973e-01,5.836678423997537779e-02,2.227016523921887189e-02,1.827024803617342819e-02,1.771504997995783717e-02,5.537588000297546387e-01
7.912679402526201500e-02,-5.256954999039793464e-01,4.943535051838179872e-02,1.082414514326231550e-02,1.352572634363811456e-02,4.042602923079153762e-04,5.912988781929016113e-01
5.875058099168112280e-02,-5.843033720928840768e-01,6.626106321639294028e-02,-1.951139778890394790e-04,-6.476494208108369470e-04,-2.418265893171508225e-04,6.468430757522583008e-01
7.635011233492089433e-02,-5.024393957863035887e-01,4.333397932262156305e-02,1.457061607151426304e-02,1.274498155815543404e-02,1.690918959203780228e-02,5.647653937339782715e-01
7.633926599634782706e-02,-5.676570540182076519e-01,6.740054758661817580e-02,-1.190964456566931742e-02,-7.883688942547231043e-03,8.275646910406815257e-03,6.402125358581542969e-01
7.759359225133996563e-02,-5.880011323207980922e-01,7.757220769207581745e-02,9.968538578411708653e-05,2.069110235073071992e-03,-2.614489576101924309e-04,6.655938625335693359e-01
-8.837415375422964792e-02,-6.958990794941719571e-01,1.952462100655553701e-01,7.723188238389248894e-02,-6.124224498759335208e-03,-3.539686953183207585e-02,8.022462725639343262e-01
6.256496564257482684e-02,-5.838559639929588041e-01,3.011838608931008410e-02,5.449457468211668654e-03,-5.868977301089854486e-03,-3.443139122882251421e-05,6.309763193130493164e-01
-8.956051060824365972e-03,-6.077246332091414960e-01,1.217637787087009205e-01,-1.027074109795002022e-01,5.973112546805977446e-02,-5.467300767222650452e-03,7.045012116432189941e-01
5.816651423149205025e-02,-6.124729041809844343e-01,1.007310346241542809e-01,1.875438617942655917e-03,1.074905709302281277e-02,-1.469038128857116585e-03,6.931652426719665527e-01
8.851238867468083638e-02,-5.912762067996512050e-01,7.718990626334434890e-02,-2.303585588044874261e-02,1.382673550232970359e-02,-1.242851784324934018e-02,6.761454939842224121e-01
7.418469549165515597e-02,-5.863825156606361499e-01,7.441710195505135683e-02,5.709717051801061952e-05,-7.739670868204603243e-05,-8.244441332398983044e-04,6.606850028038024902e-01
-1.976305815771528529e-02,-6.079266948857786623e-01,1.178808672801431867e-01,2.881405655832668198e-03,-9.114108879563764809e-03,-6.222359936513501737e-04,6.679182052612304688e-01
4.550113107665529344e-02,-5.801379476569918925e-01,5.503453214805714699e-02,7.592439685166647032e-04,9.211680015164621814e-04,-1.868440865796059487e-03,6.304715275764465332e-01
4.423934383852862195e-02,-6.008137368351313956e-01,8.800580515673603332e-02,9.597709481660244082e-03,8.040717642960854006e-03,-6.939337163434094666e-03,6.684724688529968262e-01
9.074710154081466751e-02,-5.041412990925607795e-01,5.355139947132872558e-02,-8.525477890376448320e-02,-6.164710562533504482e-04,4.270198962493652883e-02,6.003541350364685059e-01
8.165145315066893450e-02,-5.759420770568572934e-01,6.478949222855773238e-02,3.811806981142080390e-03,2.932849816865375214e-03,-2.135534115235494020e-03,6.493907570838928223e-01
1.275747323379694542e-02,-5.859692141104627661e-01,7.397950414381729289e-02,1.609721417418611984e-03,-8.159131998330213659e-03,2.784233986282291188e-03,6.317498087882995605e-01
7.216341810019871739e-02,-6.272784044710743023e-01,7.966811586369385023e-02,-5.137341036221087370e-02,-2.478144590244214449e-02,-5.504863730974148689e-02,7.165021896362304688e-01
2.801202879453787431e-02,-5.866208588652715994e-01,6.280091235079382495e-02,-4.813226909152108941e-03,-1.318093800063867109e-02,-1.426194525581189884e-03,6.332164406776428223e-01
8.114558781166875123e-03,-6.002112076011103525e-01,8.468003572452909022e-02,6.901447650727328582e-03,-1.523167789924810903e-02,8.503882393038583384e-03,6.508111357688903809e-01
-1.587749926947493173e-02,-6.168720778157286144e-01,1.159174451797685412e-01,7.260230571248832421e-03,-7.258446542578504690e-03,3.427519845129846279e-03,6.768484711647033691e-01
5.594195035117677239e-02,-6.081538357686837593e-01,8.341699698088481107e-02,-1.131376353898821182e-03,8.861114388712913595e-06,3.212514392690788388e-03,6.782764792442321777e-01
8.322933514804900512e-02,-5.758773200796201142e-01,6.257432646324967429e-02,6.373754597852322908e-03,3.948085484285771690e-03,3.452026832662003115e-03,6.491831541061401367e-01
6.732029855322288481e-02,-5.930287329574172039e-01,5.164034325835462069e-02,7.629910411589770243e-03,1.039285902144784909e-03,-3.794488655563656794e-04,6.527869105339050293e-01
7.967168338565994157e-02,-5.382394573390598680e-01,4.579071543059978766e-02,-1.305456473192914517e-02,-6.252418002377576473e-03,-5.770323439578324207e-03,6.022915244102478027e-01
3.513653918285919442e-02,-4.012302532069691452e-01,3.073316870533110423e-02,6.815416590783009154e-02,5.761831146017914150e-03,9.463177391720858575e-03,4.503521919250488281e-01
6.791379816658216217e-02,-5.963500164256758662e-01,7.756820990681795314e-02,1.994101458612631238e-03,4.154970956064804599e-03,1.241351357536472997e-03,6.691943407058715820e-01
8.643117856138068933e-02,-6.022378900504259391e-01,4.596093885501659204e-02,2.658052459544129036e-04,-6.625421175736897518e-03,1.139832999833866219e-02,6.697417497634887695e-01
7.292863227161119899e-02,-5.997082749154989401e-01,7.120208318457901808e-02,1.591677406017073587e-03,2.644116493613956308e-03,3.429842134331106789e-03,6.718228459358215332e-01
6.993509996585253741e-02,-6.031720420923295523e-01,7.312096576862964215e-02,-5.090479191514656531e-04,1.648857688563669724e-03,7.132789445322533246e-04,6.747134923934936523e-01
8.897926683522044966e-02,-5.991559399370940397e-01,3.897687636299923541e-02,2.811566748452395698e-03,-7.579975926411572536e-03,8.386060469693878278e-03,6.648525595664978027e-01
7.601821107875131323e-02,-5.842440308150144146e-01,2.572458865338542178e-02,-4.369549315974107472e-03,-8.888639161748848952e-03,-5.893817625150654313e-03,6.369200944900512695e-01
7.217116669255640993e-02,-5.852493276231394148e-01,7.717872469403627700e-02,-4.891875839892170091e-03,-6.783066356270956235e-03,3.370028612225783871e-02,6.626732349395751953e-01
6.423748711043081316e-02,-5.987742920742312736e-01,7.035009272281647630e-02,2.445143210879497774e-03,2.827754422689865346e-03,2.110318424372191384e-04,6.661207079887390137e-01
7.017492046701218067e-02,-6.008719822278909550e-01,6.959120137129476413e-02,1.728238627479692117e-03,9.790937677398340536e-05,1.433713882711358306e-03,6.707665324211120605e-01
7.881472338002562528e-02,-5.847362915487271939e-01,5.027722142325699584e-02,6.631747484415339774e-03,-1.915630604687247303e-03,3.821201711773685328e-03,6.498961448669433594e-01
-2.607920390932934318e-02,-4.221554373643215397e-01,6.509210010080601627e-02,1.073807346025776321e-01,-4.242720005737662947e-02,4.517164385556837747e-02,4.974061548709869385e-01
9.117679530196093340e-02,-5.639981463174504883e-01,5.686370875536356229e-02,1.979296839312447848e-03,6.009079659760992870e-03,2.155097961438649096e-03,6.388149261474609375e-01
6.787859655266401115e-02,-6.237315350890355603e-01,6.859619658161286715e-02,1.006183680323508023e-02,-1.628511434454072912e-02,3.635397486565715430e-02,6.956188082695007324e-01
5.372758720486217610e-02,-5.817638023538047598e-01,7.695354674055274180e-02,9.059771854443660066e-02,-2.302500389307962289e-02,6.940560964457190285e-02,6.780961155891418457e-01
6.072785449864670504e-02,-5.482637770203593330e-01,6.905856365979143319e-02,7.687395911108620269e-04,1.195238226628298752e-03,-1.778132553829438883e-02,6.139773130416870117e-01
5.191430588307027749e-02,-4.572118346836612224e-01,4.759098722652116420e-02,-3.722721208348392374e-02,7.397827934067943700e-03,-5.276432036119987901e-02,5.193274617195129395e-01
6.027859426608675464e-02,-5.851241735044795389e-01,6.762600397977261424e-02,-3.267923367370434689e-03,-1.062095690371337667e-03,7.840195020353087811e-04,6.491363644599914551e-01
7.448081297538386436e-02,-5.876048247373868438e-01,6.890336864294524521e-02,6.567747738781426091e-04,2.321226287940536016e-03,1.466659175861055684e-03,6.593327522277832031e-01
5.494172610439182480e-02,-5.735930263471584745e-01,8.838354749487731254e-02,7.534080949497956592e-02,-3.196283117428998233e-03,-1.183606853334846429e-02,6.592975854873657227e-01
6.795607413791471263e-02,-5.860615931188086769e-01,7.443464143922298715e-02,-1.692167401507482707e-03,-2.308637902724714201e-04,7.643788312733990932e-04,6.572889089584350586e-01
4.910620817250362091e-02,-2.343950274354651975e-01,2.307719030072254152e-02,-9.513002503809898924e-02,3.226835854192246222e-02,-5.787905487711742653e-02,3.376300632953643799e-01
6.160831738318314765e-02,-5.793000873757131464e-01,4.183559114650040045e-02,-9.865134303103897300e-05,-4.407970870339950054e-03,1.455933939782296654e-03,6.313055753707885742e-01
1.070826616265467546e-02,-3.674680095545406200e-01,3.806049460751378954e-02,4.565893637623684009e-04,-4.349819811816893651e-03,-4.413991793228753263e-02,4.000147283077239990e-01
7.784090875318760983e-02,-5.883598981189545052e-01,5.367181460084194389e-02,2.460345764483554219e-03,-1.371716229163941116e-03,5.856770969636822081e-03,6.545478701591491699e-01
5.521909946662489910e-02,-5.510827730075624764e-01,7.363719647955319081e-02,-3.703575412729502581e-02,9.547895139537746628e-03,-4.680216609293222363e-02,6.245541572570800781e-01
3.666050655680819226e-02,-4.480714683659666187e-01,5.015002621547554051e-02,-1.685461889424493681e-02,1.083925198135960062e-02,-2.265972361311638372e-02,4.943995773792266846e-01
4.627444779979866807e-02,-5.166740119414072741e-01,7.381739113874283276e-02,-1.754044582825390816e-02,7.866605706428336439e-03,-2.546740982277994822e-02,5.798528194427490234e-01
5.447812340670454834e-02,-5.776852911861719564e-01,4.458719821990372867e-02,1.238906623384224137e-03,-4.665025179209145514e-03,-4.736896812463297583e-04,6.273326873779296875e-01
5.481121954724066381e-02,-5.901100447163267759e-01,6.298828546619814062e-02,5.838220921623087176e-04,-3.561405070916129866e-03,-5.120760065973084009e-04,6.490791440010070801e-01
8.910489666233073480e-02,-6.043987455687180876e-01,2.729264693514024676e-02,5.475911019341164060e-03,-4.683622303684346899e-03,8.632741306707627377e-03,6.650416254997253418e-01
1.073913337534478929e-01,-6.025771131418196092e-01,-7.110336039948261799e-04,-1.561413128909012148e-03,-2.084237421962962036e-03,-8.088235604202693996e-03,6.627281904220581055e-01
8.953404340589121713e-02,-5.940300262730389136e-01,2.571203635934338205e-02,5.073190071220830873e-04,-3.300113290578726363e-03,3.873996485454624735e-04,6.540187597274780273e-01
1.175110683869832195e-01,-6.169532052900005281e-01,-2.811540511384777452e-02,1.725429692249846100e-03,-3.037312548312580060e-02,1.579109417288046329e-03,6.756266355514526367e-01
6.583657032107759211e-02,-5.866344983560595194e-01,5.625100366136634444e-02,-3.642196135876820100e-04,-5.839194063108345614e-03,5.405004710202515432e-03,6.478784084320068359e-01
2.526277384989980557e-02,-6.488868777774063901e-01,1.206913033643619571e-01,-2.277262987092348867e-02,-1.862724238319501957e-02,1.381195976039307008e-02,7.287567853927612305e-01
6.104116622768965272e-02,-5.828466169882580150e-01,4.737721938751801587e-02,-4.914243413019109795e-03,-1.766687684497355356e-03,-3.247527548410141136e-03,6.372547149658203125e-01
1.250654302191461786e-01,-6.161003447414783452e-01,-1.423733209120608967e-02,-1.323829737954322974e-02,4.730163863971109661e-02,-1.008824915986551544e-02,6.877709627151489258e-01
1.303694512653275073e-03,-6.271465400807549884e-01,1.072992783330118938e-01,-3.729234313390464295e-02,-4.898262836393187103e-02,9.588333384256823508e-03,6.960198283195495605e-01
7.596688328963221992e-02,-5.856874828896341256e-01,5.770083402759473845e-03,-3.141334002747399930e-03,-1.784752135149067498e-02,-1.166717067774011287e-03,6.302835345268249512e-01
1.077917421444008483e-01,-5.996814016832431316e-01,-5.194710275458397364e-03,1.238308931684494775e-03,-2.425428056394490772e-02,-6.856531398654382853e-03,6.597421765327453613e-01
8.252279057818887043e-02,-5.404536243372504156e-01,5.544050971553859952e-02,-3.812689218493071214e-02,-6.545207341343448233e-03,1.252458843557873076e-02,6.139393448829650879e-01
4.777013009924363507e-02,-5.814670753015414029e-01,4.823272837745781749e-02,1.317622846727671548e-03,3.058075053230214793e-07,1.230880492407316262e-03,6.294763684272766113e-01
5.797084967976048886e-02,-4.469499105818502960e-01,2.839794013316385146e-02,2.711805902626918379e-03,1.359428606646854044e-03,-5.748902135909268393e-03,4.909320771694183350e-01
7.885301678717004936e-02,-5.379805885438840862e-01,4.873610467626718346e-02,-2.722001593672568331e-02,-2.083054594277435837e-03,-2.669948055149507036e-03,6.042109131813049316e-01
7.059663736121074562e-03,-4.094513099293975444e-01,3.738988534567033728e-02,-1.674242826868049538e-01,-2.517776193103606411e-02,-6.227460796131787518e-02,5.335381627082824707e-01
4.426855261545770137e-02,-4.002821474192836959e-01,3.610111210457592201e-02,-9.982820603128882142e-02,5.024594577486451302e-03,-2.222190387472399928e-02,4.748845994472503662e-01
5.911251844983519965e-02,-5.720995635542003299e-01,8.861525056958516333e-02,-3.992904645839539211e-03,-3.942222234873241082e-03,7.625514026408429600e-04,6.465429663658142090e-01
7.566575219687243781e-02,-5.074282793679443238e-01,3.419753766656699612e-02,-3.116079974657490551e-02,2.238051178774218969e-03,-5.183575182340946323e-04,5.660982131958007812e-01
9.646455010428686694e-02,-5.376278481429210832e-01,2.931865023549834470e-02,-4.576994081407439324e-02,9.161575760382612704e-03,4.254915767124686776e-02,6.131662130355834961e-01
6.102930913371865107e-02,-5.970712660976387198e-01,7.516541780441265974e-02,-1.951941012376141524e-02,5.162509820099008689e-03,1.090330583981768617e-02,6.664674282073974609e-01
7.365554875381058464e-02,-6.037130590173156452e-01,7.203025607923077556e-02,5.304515581443739608e-04,7.518944239605729416e-04,4.915889462249337441e-04,6.765598654747009277e-01
7.263439275273980700e-02,-6.115328465253375700e-01,4.154482515394825048e-02,-3.405389573681380923e-04,2.743748603084323126e-02,-3.370908165341684505e-03,6.708753705024719238e-01
2.063797149209289916e-03,-6.074919833605647579e-01,1.057628199833378080e-01,2.545938688732987502e-03,5.513801871509971426e-03,-8.826372278172373020e-03,6.677322983741760254e-01
6.423985483360056259e-02,-5.729769369029760195e-01,8.210818639857289658e-02,8.599210406255969981e-04,-2.864905708576885590e-03,-3.166262900073149675e-03,6.463802456855773926e-01
8.633323322027874891e-03,-6.569844823397439360e-01,1.277583545520216690e-01,-2.970094845436630632e-02,1.127954705930335616e-01,-1.292923249649787984e-02,7.601618170738220215e-01
8.121547492112887734e-02,-5.757336049312212767e-01,6.714197708836680545e-02,1.560383678386849122e-03,6.091994685445430331e-03,2.106954206119498931e-03,6.501281261444091797e-01
2.880472576496323489e-02,-5.960427633484315368e-01,9.051281700067193015e-02,-7.738724656546421173e-03,9.779530333433509789e-03,-3.879192839078116073e-03,6.582645177841186523e-01
6.854412616555213833e-02,-5.622680569874025647e-01,6.285318291302435800e-02,-6.643523700063771846e-03,-1.838679245068143477e-03,1.326704371565139151e-02,6.285197734832763672e-01
5.058441051158257817e-02,-5.505854129589862200e-01,8.541454185322000514e-02,3.858537237020571238e-04,-7.309564094517654285e-03,-8.689904541748749408e-04,6.194514632225036621e-01
4.392115920334727086e-03,-2.973399249764491215e-01,1.551819050638177100e-02,-3.021099668416592915e-02,-2.477872187626831493e-03,4.698987515363833162e-03,3.120030164718627930e-01
4.233956736881361316e-02,-5.328818762626919003e-01,9.028908157749743202e-02,1.282597759675924067e-03,-8.427821025101589480e-03,-1.215322547150867816e-03,6.008185148239135742e-01
7.983930002618513933e-02,-4.973845465698339963e-01,3.217424164450705115e-02,3.260661302175311971e-02,6.710930758970057308e-03,5.117253656789068003e-03,5.579866766929626465e-01
7.567643321570036163e-02,-5.410624131919407054e-01,5.135978343054425910e-02,-2.230232181171748831e-02,-6.773892859359012010e-03,-1.870518465395999350e-03,6.063014268875122070e-01
6.041515552420373414e-02,-5.845178901741896471e-01,6.592488525054066018e-02,-1.340087100416692111e-03,-6.082844019626850937e-04,-1.458456482579785713e-04,6.477105617523193359e-01
7.270215763238957463e-02,-5.313664775669235674e-01,5.896908547783566434e-02,-9.822280674369235354e-02,-1.845521487670864769e-03,7.868278658323339669e-03,6.212333440780639648e-01
2.262940302540562831e-02,-3.251260348792948118e-01,3.353410142995703891e-02,-6.589871649597074665e-02,-2.642534149199687096e-03,4.915286846445418578e-03,3.714381158351898193e-01
1.994591232678440407e-01,-5.603047671272280983e-01,-4.743348874892602818e-02,-1.008189177634599976e-01,4.892143306625345439e-02,1.841140576827978714e-01,7.681043148040771484e-01
4.924370396925781268e-02,-5.799520933646065135e-01,5.325625012617080101e-02,-4.594600575979523632e-04,-6.559221059190140264e-03,5.421782996646596622e-04,6.313150525093078613e-01
6.751948614753533473e-02,-5.795909702019382825e-01,7.289296264593536634e-02,-5.754295575708277474e-04,4.444229560861367827e-04,-2.275864523793102480e-03,6.498270630836486816e-01
8.437043950966649497e-02,-5.809352228977143762e-01,6.505282890048855182e-02,9.389761113724327639e-04,2.493133202394613897e-03,2.416074910468126065e-03,6.558898687362670898e-01
5.522013119430330130e-02,-5.689144963945895750e-01,8.355951605873751520e-02,-2.508992110841342001e-03,2.810475052989156244e-03,1.123605132860443397e-02,6.391056776046752930e-01
5.050039910895653961e-02,-4.693013156937276831e-01,4.665581566421353465e-02,-2.974928822093006117e-02,-1.401421196928027794e-02,3.140204959310261695e-02,5.238441824913024902e-01
4.669525109232469662e-02,-5.782818028520071429e-01,4.800896464731785329e-02,8.850477939271335066e-05,-1.023710365034619660e-03,5.792776437134995000e-04,6.256383061408996582e-01
3.710584310798326069e-02,-4.661956233424585649e-01,4.993595740127190763e-02,-1.851608137997563797e-02,-1.662148995672386997e-02,2.893357892626450753e-02,5.141042470932006836e-01
9.260002517260265686e-02,-5.752140613224392407e-01,5.353081071815754544e-02,5.614738935628758691e-04,2.136022794463931281e-03,1.114580065313091738e-03,6.491760015487670898e-01
5.677805424267007295e-02,-5.816701179586558634e-01,3.643581030948714328e-02,-7.899970829048284478e-05,-5.085799856433312512e-03,-2.252447626075984219e-04,6.285858750343322754e-01
5.989555836563481561e-02,-4.858891053458208598e-01,3.922907017187030054e-02,-1.023398146502208682e-04,-1.531401375080185603e-02,6.404646890865129880e-03,5.365213751792907715e-01
6.662397159039737393e-02,-5.462628037429706485e-01,6.407259231618236961e-02,2.517701680580224088e-02,-1.258982345786639192e-03,-6.424970809688171879e-03,6.132725477218627930e-01
9.233859236769215162e-02,-3.854429679057032043e-01,-2.258533707663505641e-02,-5.211154504907393459e-02,-3.036907277472527741e-02,-1.504269145589847145e-01,5.151433348655700684e-01
8.253196635472306864e-02,-5.767082382053363432e-01,5.926713988515416864e-02,1.571795485721504473e-02,8.868096196524953220e-03,6.283717000430593357e-03,6.487660408020019531e-01
5.764647079723905776e-02,-4.228361945576903924e-01,2.189829594287845405e-02,3.956417592255583732e-02,1.374159923312566305e-02,1.898731662147898867e-04,4.692842662334442139e-01
5.684369879348283305e-02,-5.900302553726246568e-01,5.359143475890063013e-02,4.655900845815614197e-04,-1.193104114119666144e-03,5.079971163826464513e-03,6.453177928924560547e-01
6.767913038849951435e-02,-4.583950069688098594e-01,2.883127310458719061e-02,1.264927806437910049e-04,7.558727890091042866e-03,1.526610729573514569e-02,5.086225867271423340e-01
7.111754693309640940e-02,-5.870573496805596703e-01,7.010763638386313668e-02,7.081187343641610031e-03,-1.163811613878042205e-03,-6.892418353846599573e-03,6.578962802886962891e-01
7.182802033248947282e-02,-5.341005032807335517e-01,6.120600082842347911e-02,7.451053894315640656e-03,1.467005540181429840e-02,1.064490944253681376e-02,6.016461849212646484e-01
5.748798794199513895e-02,-4.420170400416684742e-01,3.881485618638477741e-02,3.360849875455355212e-02,1.631361052690429372e-02,1.368282634186258374e-02,4.952527582645416260e-01
4.867247266172550213e-02,-5.785579492045664907e-01,4.599907998434976664e-02,-2.814317826743973835e-03,-1.368574535159021921e-03,1.620715774961258850e-04,6.259215474128723145e-01
6.772037643795644768e-02,-5.452765130465360155e-01,6.285398103764111566e-02,1.030350074660202689e-02,6.106753432852652513e-03,2.776873000907746983e-02,6.128209233283996582e-01
7.738194673851048200e-02,-5.836145530173433293e-01,7.205804686735078901e-02,-7.148722453750726595e-04,7.560388516208762719e-03,6.721012893150395172e-04,6.584830880165100098e-01
7.981005806009219827e-02,-4.887343120028700416e-01,3.131406987949986176e-02,2.616646623832800250e-02,6.176536863946764655e-03,9.015778796914524287e-03,5.481193065643310547e-01
5.597965325978668250e-02,-4.410623640382984045e-01,3.678009712564334066e-02,2.226091130348935992e-02,1.891381589042785000e-02,2.235659408605070522e-02,4.918695986270904541e-01
7.336707452781815464e-02,-5.931052226396471561e-01,6.709833467082215730e-02,2.226794000985981084e-03,5.276885242735659086e-03,2.290075196404391968e-04,6.634344458580017090e-01
7.988619929325455060e-02,-5.838092800164907947e-01,7.091998532961882318e-02,-6.523776221198854383e-04,7.591499593881534044e-03,3.925681724226694441e-04,6.593905091285705566e-01
6.855874909978515452e-02,-5.774453743115934845e-01,8.291943548278182807e-02,3.935721730725724385e-03,8.218990541202815872e-03,4.110193183563521854e-03,6.535322666168212891e-01
8.803648239442027346e-02,-5.751194489138155008e-01,5.695147632473374077e-02,1.876691048489134955e-04,1.283228009693266345e-03,1.356278062169168075e-03,6.481808423995971680e-01
9.147445472167736735e-02,-5.715636646793063047e-01,5.581405229980446192e-02,1.312207036035728134e-03,1.172666221433254921e-03,-2.636332812734683718e-03,6.459699273109436035e-01
5.406344168571763920e-02,-4.609371326836697591e-01,5.366154621240362688e-02,8.468192306498488475e-02,1.709809559174447482e-03,7.909436710380112964e-03,5.354701876640319824e-01
5.803185823244916275e-02,-5.816581222572116960e-01,3.071477188434870720e-02,4.111520675269957591e-03,-3.089775520731695511e-03,-1.158992800349107483e-03,6.265448331832885742e-01
4.183295719298490978e-02,-5.861061439678968421e-01,5.625622384867665082e-02,1.293782150549043983e-03,-5.956274221474933996e-03,7.480480991260367481e-03,6.354933381080627441e-01
1.396016880880929234e-02,-5.924865691460183825e-01,7.367953659181777915e-02,-9.394979607434354035e-04,-5.934618684890129864e-03,8.124543494416091097e-03,6.386446356773376465e-01
4.493324547841331951e-02,-5.768831305511659124e-01,4.097103368209367713e-02,3.217194554861422260e-04,-6.815226166951756856e-03,6.895842556326191612e-05,6.199574470520019531e-01
6.941437070831119049e-02,-5.766961503781735665e-01,7.784376572624540636e-02,1.699097142581772668e-03,5.671150308162379965e-03,1.611061521600763236e-03,6.504530310630798340e-01
7.365328801113754653e-02,-5.802171162038832763e-01,7.739816407580024649e-02,-2.246719483198823288e-04,5.494394354391279878e-03,2.579321155137537670e-03,6.558352708816528320e-01
7.311121471863923915e-02,-6.020210218475897657e-01,6.915217387234959268e-02,2.764876677515189663e-04,4.917790823328117063e-04,9.909911542136328431e-04,6.731643676757812500e-01
6.891561831615536371e-02,-5.881574281920379788e-01,7.451341267629524312e-02,-2.718891052519276878e-03,3.182863722177941765e-03,-5.456044690990560298e-04,6.599302291870117188e-01
7.069199846063045634e-02,-5.995922568286733423e-01,7.335981271775204871e-02,4.074541788616391040e-03,2.803665252616492284e-03,1.930783668613685619e-03,6.716850996017456055e-01
7.706742071149744189e-02,-6.016827300422771252e-01,7.141872264270796022e-02,2.192060038579270002e-03,1.452352133637960794e-03,1.774245349052226825e-03,6.759658455848693848e-01
7.297789349551547788e-02,-6.015242101050206625e-01,7.337644706477830514e-02,1.070992217327741301e-03,3.076549250781384845e-03,1.437220765825997356e-03,6.747296452522277832e-01
7.012342420789108299e-02,-5.794327020335039435e-01,7.257424052007324655e-02,3.985753196317836852e-04,4.000164661410828514e-03,-1.109185596753216232e-03,6.508250832557678223e-01
7.700078082960454262e-02,-5.868374971447576360e-01,6.764928173170459136e-02,-1.390860879329448776e-04,2.727755511661374838e-03,2.234877104814946783e-03,6.592406034469604492e-01
8.699709838718150401e-03,-3.200835254561769094e-01,5.834215344996521169e-03,-1.356990826780867486e-02,-8.140013403089604860e-03,-4.127384472177077213e-02,3.361938297748565674e-01
6.973000023947850678e-03,-2.741707760268974892e-01,3.216360095720895151e-02,-9.703042493320881642e-05,1.380824779918895899e-02,6.528002930100862411e-02,3.164096176624298096e-01
3.491131456086024598e-03,-3.195990646014920666e-01,2.106864872721071757e-02,7.532725041076123937e-03,-2.192310165881949501e-03,5.747502030783895044e-02,3.470880985260009766e-01
4.953400396434926023e-02,-2.964002976084586516e-01,1.042315201996499296e-02,-1.420374169447472142e-02,8.904878277656578037e-03,6.283437361673671617e-02,3.469265401363372803e-01
2.945149360504747960e-02,-3.809851191706208895e-01,2.657730502946695217e-02,3.655378893456236178e-02,1.331821071389541027e-02,3.021253119682095964e-02,4.178107976913452148e-01
8.551939759573043420e-02,-5.882654809967255982e-01,6.429819073554929321e-02,-7.784463063959397820e-04,9.321699488656227592e-03,1.223629869800483758e-03,6.636300683021545410e-01
7.118654814789662777e-02,-5.811503973547653690e-01,1.547051022121051500e-02,3.232574646958866899e-03,-7.579307342562926347e-03,2.709988198306221251e-03,6.265204548835754395e-01
7.799393459100917303e-02,-5.960404698564940595e-01,7.009128248849408327e-02,-9.999343833941643552e-04,6.699771265322193234e-03,1.830425942971485075e-03,6.702282428741455078e-01
7.651634741590407351e-02,-5.991054711158170232e-01,7.014464434075620702e-02,-8.786703809438033185e-04,3.910403744080388246e-03,7.356037891567415114e-04,6.724956631660461426e-01
4.615449643699429116e-02,-5.807747702594618922e-01,5.922758810663894535e-02,1.202472701728277919e-03,-2.878958139073678393e-03,-1.955756445242355906e-03,6.335991024971008301e-01
5.628810007560347550e-02,-5.959991989142343627e-01,7.122168745662674216e-02,5.534522147836621470e-03,-1.057528804590504535e-03,7.550486076186134141e-03,6.600825786590576172e-01
6.775748603888853694e-02,-5.498986167633195254e-01,6.428699224867867601e-02,1.956810860481419251e-02,3.452875680844858571e-03,9.846537689348256253e-03,6.171246767044067383e-01
8.686498865845104778e-02,-5.897033910880736807e-01,6.673903079335158361e-02,-9.869118000362274087e-04,5.766329477189996444e-03,3.465686435033412879e-03,6.668372750282287598e-01
7.457297893211878304e-02,-5.967205491469785850e-01,6.956691911382217874e-02,4.099969715207369206e-03,3.681898856353043453e-04,3.581873015418598431e-03,6.688713431358337402e-01
6.808451112143443229e-02,-5.842400440979937937e-01,2.899062536053989558e-02,7.239245846645654681e-03,-6.901384222588684454e-03,-5.929454706323574083e-04,6.339202523231506348e-01
9.053020144565473992e-02,-5.332797565619551428e-01,4.043477665693881451e-02,-9.977272707260139914e-04,5.904454862932481500e-03,-1.074524921034145314e-03,6.004243493080139160e-01
6.175960578707925808e-02,-5.817368262622149011e-01,7.777831895075906776e-02,1.712470178412358462e-03,1.196407938221099579e-03,-1.064876194523066682e-03,6.516661047935485840e-01
7.327767530948886554e-02,-5.840301738978133095e-01,6.902544802890017706e-02,3.533485859862297521e-03,5.860922466123378791e-03,1.513950896265195542e-03,6.553045511245727539e-01
8.388030242123017954e-02,-5.986388451905574337e-01,5.289347369634037066e-02,4.659113264879186610e-03,-9.280393189595165584e-03,-1.468637622660646375e-02,6.682918667793273926e-01
6.781300536162085391e-02,-5.835496281273966357e-01,7.132378636924965876e-02,1.090103848407598421e-02,3.438670370192808490e-04,-2.003684112567771878e-03,6.534074544906616211e-01
1.392736677811821644e-01,-6.240351345008892103e-01,-5.019324738859598511e-02,-9.865311307800470747e-03,9.712887013783201920e-03,-3.735293479666239660e-03,6.888636350631713867e-01
7.960246000839946157e-02,-5.981817001630048702e-01,5.194957711615391660e-02,-7.885846697141631056e-03,-1.130453957557818207e-03,-1.286572253875659620e-02,6.649062633514404297e-01
5.819664716668124238e-02,-5.426141407144997597e-01,7.845147295114771047e-02,1.514919715221860370e-02,8.265064684561789984e-03,1.444097188618156773e-02,6.124314069747924805e-01
4.660257587652552602e-02,-5.838909674180907672e-01,5.968785833962189646e-02,1.445744787511395830e-03,-2.716268500423201556e-03,-3.022536499325714603e-03,6.371807456016540527e-01
1.118321138821989913e-01,-6.091399887665740476e-01,-9.301604739415381129e-04,5.738402471581437181e-04,-2.773466958277814778e-03,-2.130102599704661662e-02,6.727576851844787598e-01
9.929870945851981823e-02,-6.062288117366558815e-01,-6.836468662647171568e-03,-5.155381745350026169e-03,-9.209980996637381553e-03,5.161131222859104660e-03,6.592166423797607422e-01
9.327783939279121750e-02,-5.637828033477703116e-01,5.257275250216064677e-02,6.934336492708604964e-03,-3.468071231299231592e-03,-9.770008120470576388e-04,6.378268599510192871e-01
-1.133972953486023227e-02,-6.784997492835282973e-01,1.585918499255393188e-01,1.738950303124542074e-01,-7.758716830551515287e-02,8.277907555294802822e-02,8.465728759765625000e-01
8.354131226441113833e-02,-5.636051578966854159e-01,5.789561315152427778e-02,3.478234724268409756e-03,-6.103518272790821667e-03,-4.188774722606676895e-03,6.348704099655151367e-01
5.605026287120759565e-02,-3.447474032362390362e-01,-6.979476985055144134e-02,1.558833528509493034e-02,-9.654711310169828906e-03,-1.107898177847107118e-01,4.048075079917907715e-01
4.342182421078705223e-02,-2.815053294500319270e-01,2.540219897312054331e-02,8.410165502713902452e-02,6.251722331374903741e-02,-3.648220741606855722e-02,3.701143264770507812e-01
2.201737663566644132e-02,-2.688248512532710466e-01,6.630133630135037759e-03,1.213548861827574293e-01,1.860221658216941465e-02,-3.074594846269469717e-02,3.583375513553619385e-01
6.037976594397181929e-02,-4.483591376120052985e-01,1.973606891986406930e-02,1.862881417961088568e-02,-1.060074140791780924e-02,-2.464700710090857172e-02,4.929409623146057129e-01
4.927318813734127279e-02,-5.877984778292819623e-01,5.855793782496501731e-02,2.718380078110262457e-03,-3.678906973550171919e-03,5.906377447843772464e-03,6.418948173522949219e-01
8.508444790092009602e-02,-5.683414646711639762e-01,5.959430467296772393e-02,1.041717943893815919e-03,8.243598896791983974e-03,2.318359337557705183e-03,6.412351131439208984e-01
3.773281372144549062e-02,-6.049182903629219954e-01,9.354342678421562196e-02,3.415181822205757417e-02,-1.081194040516215635e-02,4.101276537457295736e-03,6.751905083656311035e-01
-1.981836670418662960e-02,-2.769143697486426969e-01,3.773487905273942289e-02,1.149143452308732105e-01,3.287290213102400660e-02,-1.015023236550099441e-02,3.568953871726989746e-01
-1.521129620690211959e-02,-3.272779144943112617e-01,5.319209857624662696e-02,1.408647672142883944e-01,1.099878861728782568e-02,-2.030850659478588768e-02,4.295810759067535400e-01
6.808091138068084192e-02,-5.970477752745979583e-01,6.873869658455003528e-02,1.653361762116225923e-03,1.891305391792184659e-03,1.415343844060177551e-03,6.654765605926513672e-01
5.918085210087309367e-02,-5.966580872680897762e-01,6.699813915173707946e-02,5.533770368643302004e-03,-5.099592419041781540e-04,5.634434726143190512e-03,6.599246859550476074e-01
5.868513348874232483e-02,-5.902764223095722240e-01,5.303673758011712147e-02,4.203762318787579444e-03,-1.473987611651859540e-03,2.236991386540068693e-04,6.462020277976989746e-01
1.089577951348062457e-01,-9.803907992774790747e-01,1.326432045435920193e-01,4.446869738880200942e-03,-1.101049549746482142e-01,1.999066524981728526e-03,1.117803096771240234e+00
5.369097546095483175e-02,-4.424314549699634447e-01,4.327771690659851234e-02,4.514469881659413653e-02,-7.601470839255030200e-04,-4.962861329182657183e-02,5.045636892318725586e-01
3.025349927073173184e-02,-6.789379886797941577e-01,1.075097037630603491e-01,-2.990167099890731709e-03,2.630237725727083142e-02,3.066016588894138716e-03,7.522240281105041504e-01
8.083376496919569831e-02,-5.845060961038894831e-01,6.673772997734234158e-02,2.261752465654420091e-03,9.020556208183035801e-03,2.967635913003529267e-03,6.586220860481262207e-01
8.881517041153624836e-02,-6.053601102224708264e-01,5.742638623827694966e-02,-3.559579015303968030e-02,-1.497066040271824786e-02,-5.446723363320731676e-02,6.888024806976318359e-01
-4.479834671917785893e-02,-4.708400764503002933e-01,9.996065035596479742e-02,-1.314497187100421294e-01,-4.555653249751009264e-04,-2.137222573570420753e-02,5.633366107940673828e-01
7.145907690539499146e-02,-5.086674767926153695e-01,5.020965408708688571e-02,2.989385341437556312e-02,9.660661811207059066e-03,9.396389092420926598e-03,5.726227164268493652e-01
6.170353054116028968e-02,-5.654028069842977899e-01,8.280063355399097658e-02,1.537005226823711865e-03,-7.046897583297799701e-03,-6.659139312446694936e-03,6.381431221961975098e-01
7.170103661240273540e-02,-5.897994733147362556e-01,7.841282148317213485e-02,4.910257939695785280e-04,-1.467570686988876666e-03,5.272846414032028367e-04,6.648878455162048340e-01
5.746522582616236940e-02,-5.962893830964016706e-01,6.605439292414980179e-02,4.210985593462400305e-03,-2.504072237104264156e-03,4.283596870196344428e-03,6.581877470016479492e-01
6.607588005660808284e-02,-5.013594099238607438e-01,4.733385626050204409e-02,-7.001069447194275056e-04,-1.534155964356579381e-02,-1.776360082099312163e-02,5.597797632217407227e-01
5.000503875420331257e-02,-5.865523119922972928e-01,5.415571098792415494e-02,3.273801775342740760e-03,-9.734781473014708642e-03,5.519551910141705202e-03,6.389620304107666016e-01
5.870767552297942449e-02,-5.149779254345876467e-01,6.113160397034117510e-02,8.580264993039599108e-03,-1.705695973599922685e-02,-5.426463113308779970e-04,5.758525729179382324e-01
6.718729997026315348e-02,-5.865773672672068839e-01,6.842363196273820725e-02,-2.530150524006228273e-03,2.829721283826024635e-03,1.969536701088462976e-04,6.544167995452880859e-01
2.477642228591925289e-03,-5.221688756879954152e-01,6.458828797629875829e-02,6.605671683427048746e-02,6.881386708039739786e-02,-8.666843931043589910e-02,6.012724637985229492e-01
7.462062286035567316e-02,-5.937038943921921774e-01,6.771576080572153100e-02,-4.539718325132774328e-06,-2.044741647716523576e-04,-1.016160868211037462e-03,6.649013757705688477e-01
1.353661863737812276e-02,-4.192681198781633700e-01,3.556439641267922225e-02,-1.620437191761140150e-01,-4.830172926341066986e-02,-1.018726050439374420e-01,5.605770945549011230e-01
7.031642753903849519e-02,-5.984278140099033028e-01,6.488057477875325274e-02,-4.439737179079459401e-04,-6.094073230966240689e-04,5.706396048319276396e-03,6.661175489425659180e-01
6.932512246318317528e-02,-6.019633448220347294e-01,7.358496585503923604e-02,-3.972550328842302278e-04,8.932473876563249088e-04,2.591640076760266310e-04,6.734308004379272461e-01
5.569640239611439725e-02,-5.941977375968052755e-01,6.679916798761698082e-02,3.199113637126583219e-03,-4.788879214568450907e-03,3.579954096085820932e-03,6.556212902069091797e-01
4.597723519104518486e-02,-5.886992591691866394e-01,6.181169498503266690e-02,3.593765159239918627e-03,-3.011159830848835709e-03,6.777534252116166474e-03,6.428984999656677246e-01
6.957535822824070793e-02,-5.973455464168504481e-01,6.876527635533860594e-02,6.319545575220243162e-03,1.035733375982362484e-03,-4.205471770639749836e-04,6.666089296340942383e-01
9.236823179915681914e-02,-5.707214886626309491e-01,5.853883539134757674e-02,8.296882051858587084e-03,-4.607682437948525957e-04,-2.746533894189098855e-03,6.470164060592651367e-01
9.159110992931240869e-02,-5.709262390933158571e-01,5.868242181158697668e-02,9.234331573226988582e-03,-1.803569429439573404e-03,-3.901191670004979049e-03,6.469318866729736328e-01
6.584447413756466805e-02,-3.808846207266211037e-01,4.020698437348008136e-02,5.454295514202541634e-02,-5.782535944068484257e-02,1.127064044187886388e-01,4.958179891109466553e-01
3.052183686092296844e-02,-5.833990610265922250e-01,6.957754002806015858e-02,5.216221414109330212e-03,-5.621352551040403878e-03,-4.358394151031915083e-03,6.345350742340087891e-01
6.133185162970414273e-02,-5.944841947339627453e-01,6.281402195276558631e-02,3.180507789894692575e-03,-6.272450985932956531e-04,3.233330031720168130e-03,6.566062569618225098e-01
6.283593969874606833e-02,-5.977244597919171287e-01,6.719688949827665181e-02,-4.570877982650755245e-04,2.100353208245934068e-03,2.643312341428911928e-04,6.627622246742248535e-01
7.118610124541002726e-02,-5.984634134480817380e-01,6.550391839308991604e-02,4.054490753708868758e-03,1.777977200548699422e-03,2.717593625115397190e-04,6.668708324432373047e-01
3.114874390325375608e-02,-5.905271142307084720e-01,7.244284318820842783e-02,4.704419635692813108e-03,-5.775639354436766341e-03,-1.540402876884757258e-03,6.434525847434997559e-01
9.507495901703150176e-02,-5.573543068681959811e-01,4.868611163656885732e-02,-4.238424774025833521e-04,-1.837206165584812870e-03,-1.810477152813517706e-03,6.305322647094726562e-01
4.827301897979272005e-02,-5.484525492026713911e-01,9.197488918502658151e-02,-9.337557775805205686e-04,1.542318738662028666e-03,1.241989162640951905e-03,6.197448372840881348e-01
7.250020378980637226e-02,-5.901437206173560934e-01,3.563373547275217046e-02,-3.116753998713115998e-03,3.154358811518160471e-02,-1.624895918208400444e-02,6.479452252388000488e-01
8.474366101699754017e-02,-6.068891399478439919e-01,1.576614200726120241e-02,-9.603331741614333852e-03,2.469125195578733556e-02,6.570867145599765084e-03,6.615450978279113770e-01
5.813138965043976314e-02,-5.691866567048959880e-01,8.439715339260445148e-02,4.544941525125084300e-03,1.513366791184300730e-04,7.136873229570734993e-03,6.410223245620727539e-01
5.329411258834304554e-02,-5.884310709189226607e-01,6.979790579306394127e-02,5.679334385782917188e-03,-1.206610568975177190e-03,-3.336344085549267525e-03,6.502376794815063477e-01
5.666357218686329800e-02,-5.495926874917660410e-01,7.813328690602602822e-02,6.757386495031582341e-03,-1.743560632195982315e-03,7.326946057721628672e-03,6.175199747085571289e-01
5.531195655989767923e-02,-5.673414983079538843e-01,9.154164850651833052e-02,1.637261327100757819e-03,2.366591956680530722e-03,2.540671470163690954e-04,6.415555477142333984e-01
-4.707470762283408328e-02,-6.029476800903027511e-01,1.837175986453142285e-01,1.776334193613410550e-01,-5.128562303902676339e-02,5.773119597274850578e-02,7.765959501266479492e-01
4.711928464182926768e-02,-5.598065453681685399e-01,9.625031560271551934e-02,-1.517444453425100806e-03,1.201931516473301676e-03,4.500609442715699203e-03,6.329800486564636230e-01
3.793266680227100340e-02,-5.062718119258688976e-01,8.728486996673981424e-02,1.228254090233554460e-02,5.428051937651137866e-03,2.396063407794852065e-02,5.724641084671020508e-01
4.638861833968996318e-02,-5.213609901858903273e-01,8.242495432822286028e-02,3.013814598448096710e-03,5.428559657377902449e-03,8.232601820851205565e-03,5.868703722953796387e-01
5.674778760093007746e-02,-5.819014900379806399e-01,5.019071150730428088e-02,9.767961015762201358e-04,3.568265340442827727e-03,-9.515538031251905937e-05,6.354284286499023438e-01
3.307198537326280774e-02,-5.965314112967663451e-01,8.276836521003566594e-02,-9.677853845761199073e-03,5.674404566254025520e-03,2.953303264935743053e-03,6.561729311943054199e-01
5.039796567270549144e-02,-5.477903972425024470e-01,8.956114811948487353e-02,-1.692864362089541814e-03,8.001621174295219310e-03,-1.303483968642267119e-03,6.188665628433227539e-01
5.384204389579283490e-02,-5.837048739516306206e-01,5.113963217120467974e-02,-1.910013697717140259e-03,2.621049725979693323e-03,-6.355889709794439570e-04,6.362257599830627441e-01
8.936761095374895492e-02,-5.700981297717093721e-01,5.519395333119636593e-02,2.661258713829927833e-02,-1.139084283557318094e-03,-7.070719410737441070e-03,6.448295116424560547e-01
4.473899447202719926e-02,-5.434472505204279713e-01,9.364836354608804814e-02,-4.108581768740109639e-05,3.561366734706298024e-04,1.206467314244040641e-02,6.144591569900512695e-01
1.769304713924613193e-02,-1.017413827046355301e+00,2.186251465171285546e-01,1.438516903769798336e-02,-5.369663372974918525e-02,-2.205171266099656066e-02,1.153488516807556152e+00
8.773044015940928420e-02,-7.240264797080667725e-01,5.837665060304708664e-02,1.837795522872618381e-01,-1.212368127930321116e-01,1.101274178051837027e-01,9.043156504631042480e-01
4.605269563453764925e-02,-5.830780291623518519e-01,8.556246338772477422e-02,1.157405847332330191e-03,-5.890831197478963973e-04,-2.227938938614869475e-03,6.498024463653564453e-01
7.544498188774098613e-02,-5.882775391855570302e-01,7.605412921001541982e-02,-1.952694994742822446e-03,-2.009934651239048912e-03,6.837083944908028650e-04,6.640461087226867676e-01
7.967632456369944105e-02,-5.872193299826466983e-01,7.510042915653758477e-02,2.272588555090830804e-03,-7.988860114576230853e-03,-2.628492891084335727e-03,6.647908091545104980e-01
7.957059188338899691e-02,-5.891528072825813478e-01,7.760575793351381924e-02,1.590102345967091269e-03,-7.262376441689389131e-03,-3.742348186842967255e-03,6.678987741470336914e-01
7.546680857791854269e-02,-5.893436241643187357e-01,7.708162445377861327e-02,-1.974376620691059223e-03,-1.134318439449374721e-03,1.026053350508249456e-03,6.656333804130554199e-01
7.358273110923554960e-02,-5.896941526223518082e-01,7.839667522329790694e-02,-2.329023666842452241e-04,-9.983968298856338731e-04,-3.499801676992113494e-04,6.656995415687561035e-01
7.576169438824320590e-02,-5.913891604171360727e-01,7.822058041255178229e-02,7.254668481891607196e-08,-4.348161407447530161e-04,-7.592187680539156953e-04,6.683853864669799805e-01
7.824827914857535038e-02,-5.891087522473540394e-01,7.543952113109275714e-02,8.468696237320332389e-04,-3.101980104603495846e-03,-1.598410586212495408e-03,6.659861207008361816e-01
7.657694951218005364e-02,-5.914062211782314948e-01,7.764142184576211525e-02,7.649376090001144823e-04,-2.610602417053279234e-04,-4.390270820597981677e-08,6.685175299644470215e-01
5.032356443912833210e-02,-5.925745538390108091e-01,6.821894487261140338e-02,-1.177544682218732664e-03,-3.611827639185090887e-03,8.376119009016993328e-03,6.522246003150939941e-01
-9.742042991113364359e-03,-6.637652269437195329e-01,1.534358774711981899e-01,-2.606790408905800341e-02,-7.893247485625008025e-03,-9.946260663170419791e-03,7.507448196411132812e-01
5.918509309635044957e-02,-4.603635279988831930e-01,3.331255200132632321e-02,2.140189007435697264e-03,1.977808420224395815e-03,-3.797809267553713640e-04,5.071331262588500977e-01
1.040320997037521566e-01,-6.066372398618971040e-01,1.907631716096838681e-02,-3.572155890398417358e-03,3.261527920733186918e-03,8.754280739346217630e-03,6.724529862403869629e-01
8.175915516044257592e-02,-5.939547105527781534e-01,6.641917387243723159e-02,-2.209203671357999436e-03,4.352758902479095769e-03,-4.846939590086316919e-04,6.682299971580505371e-01
1.118967860563188088e-01,-6.188704982066668414e-01,-6.596837156808976754e-03,-5.186949829816048067e-03,4.317520427747686268e-03,-4.851195332758889874e-03,6.794685721397399902e-01
1.304523069164331139e-01,-6.230589537547932544e-01,-2.424376807738665152e-02,-6.251542001846026493e-03,7.314062666168771702e-03,5.734011035206689789e-03,6.895805001258850098e-01
5.585697487792068427e-02,-5.974582704255360088e-01,7.785841188136119473e-02,7.212903728942871018e-03,-2.271239128034831418e-03,7.398416857676256078e-03,6.648417115211486816e-01
6.880788267220019905e-02,-5.461267790150727830e-01,6.205074113876857256e-02,-7.125021486936775235e-03,1.350495230997972133e-02,-1.565696238748370828e-02,6.127560138702392578e-01
5.713657000134911290e-02,-5.976201683162042366e-01,8.036501427476247517e-02,4.342303290113639323e-03,5.793393475977014944e-04,4.120719665748544952e-03,6.667559146881103516e-01
-2.315084804114020400e-02,-6.778063686683133415e-01,1.563701062179488344e-01,-4.828699259657753297e-03,-3.421764143513666978e-02,-2.415511433413702891e-02,7.639757394790649414e-01
4.821238366415289689e-02,-5.977884897945735521e-01,7.910877425233822646e-02,-1.065273807372821638e-02,-1.572810171210838699e-03,2.715722130279998436e-03,6.622694134712219238e-01
6.686132142598966155e-02,-5.933508745960905939e-01,7.470709327286345625e-02,-7.831090633007553245e-03,1.230160993022865867e-03,4.466606805716965287e-04,6.643121838569641113e-01
8.005574294301462390e-02,-5.858552828134513391e-01,6.437682736109631709e-02,-3.744264487238652128e-02,1.098711171737395617e-02,-2.522175611461167054e-03,6.616869568824768066e-01
3.705161546350840829e-02,-3.547598047932857268e-01,9.079583313629985275e-03,-1.133809639863426061e-01,1.004584699913886386e-03,-4.941571854144859860e-02,4.350095987319946289e-01
2.738414699695129739e-02,-5.378190508782845214e-01,8.368899767354501251e-02,3.705583439701472942e-02,9.004617558650885450e-03,1.803705657329767722e-03,5.990166664123535156e-01
7.841306179492410489e-02,-5.672500141166556542e-01,6.083459620661244016e-02,3.671790327022668356e-03,5.914200647695122895e-04,-1.685907449866692236e-03,6.370950341224670410e-01
3.340074447851207329e-02,-3.581797739214903631e-01,3.339945334899488416e-02,-1.125345364074239185e-01,-1.097189461304335593e-03,-4.741647455854251791e-02,4.450566768646240234e-01
6.024605275318414832e-02,-4.746756603686728138e-01,4.383396091914737447e-02,2.282608130475561811e-02,1.852244159925242259e-02,5.186832614910409861e-04,5.293623805046081543e-01
6.186627693630170066e-02,-5.855525342070573291e-01,6.327199565200383735e-02,1.632497039399608690e-03,-2.847087416111476321e-03,7.183755927767161058e-04,6.481489539146423340e-01
-8.883910147425636006e-03,-1.783329023203499564e-01,9.186243209824765388e-03,-8.553670381296227254e-02,8.519941316900956491e-03,2.712224349045299666e-03,2.330040335655212402e-01
7.115218231902875612e-02,-5.820952695519151510e-01,7.388217686155651442e-02,1.518800795981664793e-02,-9.646393892573537718e-04,-6.933879705189640620e-03,6.552572846412658691e-01
8.950979855047519473e-02,-5.289362356886504468e-01,3.428096488588819324e-02,-4.176066860914812889e-05,-3.705222697225521878e-03,-2.292310688131153715e-03,5.928124785423278809e-01
7.553773074323258396e-02,-5.975839555881395926e-01,6.343079029839096550e-02,-8.183574471970090497e-03,9.392381999545755837e-04,-2.192295342614890286e-02,6.683826446533203125e-01
1.690220222598359801e-02,-5.964495647018673852e-01,8.750531165840425007e-02,1.098588086172731272e-02,-7.877140102870112959e-03,-8.831859981312689158e-04,6.519511342048645020e-01
6.841082542009552236e-02,-5.813503309173864153e-01,6.676558687807743198e-02,1.082036754677694751e-02,1.329089349249703363e-04,-6.838959827683006691e-04,6.492117643356323242e-01
5.759028995189313660e-02,-5.846130981131354432e-01,5.162181872599991284e-02,8.973283893513685000e-04,2.009204173589157049e-03,-9.917366516808136213e-05,6.392514109611511230e-01
7.331538450421865027e-02,-5.831532803282708510e-01,6.466732388682822075e-02,1.530939751655601387e-02,-1.511190253098574146e-03,-8.106691830898145497e-04,6.527332067489624023e-01
9.637526918286792865e-02,-5.586191901839459018e-01,4.811942589510559420e-02,1.185231009355162436e-02,1.921775185852813306e-03,-1.654149597317840963e-03,6.325976252555847168e-01
6.227958751827022965e-02,-5.861555557081753465e-01,8.210719326963747400e-02,1.608652023829879388e-03,2.498790355672151752e-03,2.876821238528788193e-03,6.586118340492248535e-01
9.497982083502479189e-02,-5.619853707751474303e-01,5.291003375983130419e-02,-1.385591357649236435e-03,-3.301512542261000687e-04,2.879134943063562562e-04,6.369780898094177246e-01
1.598871406825744246e-02,-3.973330326684343938e-01,3.655211248694939519e-02,-6.144331107874605354e-04,-5.915168236711526410e-03,-4.412830352005170376e-02,4.309350848197937012e-01
9.990882726148711535e-02,-6.067079796895977761e-01,6.812856591920574134e-02,-1.528866798821638777e-02,1.958303274417511758e-02,-1.155021899158296776e-02,6.929017305374145508e-01
7.893198802986881035e-02,-5.893315298703725169e-01,7.113589411064083490e-02,-1.159583260265107177e-02,-5.320608642974774226e-03,-6.524629443530571534e-04,6.647680997848510742e-01
6.485221249470163318e-02,-5.495379045799169138e-01,6.553570342561426676e-02,-1.415519838583531934e-02,1.423721907221175975e-02,-1.058826194721594893e-01,6.424470543861389160e-01
9.350195042305770032e-02,-6.026989998829130890e-01,1.868348333406091855e-02,7.616734500848578761e-03,-6.686018335253902066e-03,1.285146256679851363e-02,6.625771522521972656e-01
4.202592438939886654e-02,-4.536122635885794785e-01,5.061655659237659921e-02,-9.901969350087806016e-03,1.536379893155824343e-02,-2.451489864400252169e-02,5.027863383293151855e-01
2.422812399713150655e-02,-4.252169874563297980e-01,5.349500380498126151e-02,-2.428488434514678058e-03,5.408191235765852714e-03,-9.255755107641729096e-02,4.917493760585784912e-01
5.719256814444720338e-02,-5.794748103103157799e-01,2.692144433446197471e-02,1.715073879082386349e-05,-1.074346649587383518e-02,2.331776327960339364e-04,6.223628520965576172e-01
4.032860972802407296e-02,-4.181177450752132096e-01,4.257528287581738291e-02,-1.471441846277166642e-02,-8.167998192494625373e-03,5.158757608625577640e-02,4.690859317779541016e-01
-4.547520607582761221e-03,-5.979488917136355219e-01,1.058466875816398423e-01,1.514756372718843030e-02,1.375799489348776376e-03,-1.316076372252486006e-03,6.561397314071655273e-01
2.572247421198281536e-02,-3.678505590000185066e-01,4.331895140660832477e-02,5.028419784116042179e-02,1.180593408735223539e-02,8.068824941990092314e-02,4.355115294456481934e-01
-1.133288461468626163e-02,-6.040758857270356330e-01,1.095216093374892785e-01,-7.594981627431929977e-03,-1.252468869768472506e-02,-5.179120082893283981e-03,6.620497107505798340e-01
8.829372612246924601e-02,-5.792131316797926033e-01,6.560430235757963580e-02,6.168442166680085587e-05,-6.003731848185174004e-03,-1.376261511376667508e-03,6.565430164337158203e-01
3.224457377853526263e-03,-2.980752320926743915e-01,1.619986698621876664e-02,-1.229725627699048210e-02,-6.554861189480998968e-03,3.371912661103104031e-02,3.144087493419647217e-01
-4.470817981775532246e-02,-8.285289825225166105e-01,2.540989824572167377e-01,1.863464459182531119e-01,-1.147649196607189621e-02,-4.729035743737169950e-02,1.024280905723571777e+00
7.881081223648794820e-02,-2.312993576838042187e-01,-3.119724160656305034e-03,3.750400217133200570e-02,-1.871258009687007048e-02,1.096004303862284368e-01,3.446452319622039795e-01
7.747884753143352565e-02,-5.898146046817781540e-01,7.132109563614180692e-02,-5.245033238180184416e-03,2.465449032547108871e-03,-4.067084787185377970e-03,6.643491983413696289e-01
6.512023831165172916e-02,-6.336167291223316900e-01,1.078168373957772985e-01,1.786618028260713795e-02,1.870080835169601538e-02,-2.447339021465011824e-02,7.236667871475219727e-01
1.001808190203190563e-02,-5.958371625718434927e-01,9.629107356196536793e-02,7.092336563044350159e-03,1.148900199472564082e-02,-8.798397897324816350e-03,6.538743376731872559e-01
8.194763757546308369e-02,-5.386959774949261481e-01,4.875686215818178515e-02,-7.921777529640770766e-04,-7.503678880021815573e-03,-1.235731024754512571e-03,6.048767566680908203e-01
2.411559017517092562e-02,-6.456544785895271810e-01,9.608656804138399066e-02,-6.856318790384670174e-03,3.025558604160957094e-02,-9.183868803865756492e-03,7.107151746749877930e-01
3.308786167181557158e-02,-6.045739733315543818e-01,1.050270280254163024e-01,-2.198242427721334991e-02,1.208529192758475023e-04,1.208302501617051009e-02,6.779000163078308105e-01
7.988599974321677899e-02,-6.066175687285416673e-01,5.593945506893738262e-02,-1.278190840450754186e-02,7.455900034890158151e-03,8.967818163072450305e-03,6.755141615867614746e-01
2.278453277632394580e-02,-2.299278685840194514e-01,1.269780159803841901e-02,-2.939278489485520549e-02,-7.333844311309717541e-03,8.151460745534952479e-02,2.900057137012481689e-01
8.824296206657883390e-02,-5.788295893207344722e-01,5.753245854631794387e-02,-2.003821414230529899e-03,1.714033059536679033e-04,3.185786410088690024e-04,6.522693037986755371e-01
7.460653309496714791e-02,-5.935870853726963325e-01,6.995652595302281895e-02,-5.081652347987823323e-03,4.388300153928746845e-03,3.612255835802788938e-03,6.660117506980895996e-01
8.821594035573920856e-02,-5.877962033018766519e-01,6.171297325722360783e-02,-2.855270453818347948e-03,5.228406757101154885e-03,6.266628399537469080e-04,6.632391214370727539e-01
9.089606834413860303e-02,-5.556669612342322040e-01,4.968904035950355569e-02,-1.533792535684667425e-02,-3.967031996140157543e-03,5.743836070681561943e-04,6.275768876075744629e-01
1.372429002993436065e-02,-5.911080309572254166e-01,8.603706600513041924e-02,-3.212230349061094645e-03,-3.154447580306004965e-03,7.001130085218797670e-03,6.442019939422607422e-01
8.780734731328437848e-02,-5.720294884553451809e-01,5.671815163890614464e-02,-6.169356020847378483e-04,-1.954343010110686039e-03,-2.560808852686433969e-03,6.448795795440673828e-01
7.312633868145054783e-02,-6.298617629202725166e-01,8.197984961982138219e-02,-1.004371702711487520e-02,1.422919133381497087e-02,-2.994435154456045762e-03,7.081182599067687988e-01
8.853232844092948084e-02,-5.853064557412639424e-01,6.143471644007539312e-02,-3.099338021148389556e-03,7.547971095555278207e-04,-1.407773535806147464e-03,6.607344746589660645e-01
7.721820912199739428e-02,-6.629704337650500490e-01,7.591830683444622530e-02,-2.715311953777979972e-02,4.299800673139235474e-02,-2.686784433843559822e-03,7.447810173034667969e-01
1.697032294026142307e-01,-8.760139959069958016e-01,2.238154003707726325e-02,-7.524459824043115697e-02,6.121046773418200443e-02,3.775887695872279931e-02,9.968319535255432129e-01
5.342235665433220371e-02,-8.563933289867058374e-01,1.762185155553966931e-01,-4.158741051079440504e-02,1.028871219620989680e-01,-1.001132364582928980e-01,1.010731935501098633e+00
6.830884884731242002e-02,-5.964366617322849340e-01,7.050747473764504281e-02,-7.622088643876344556e-03,8.859473648279225311e-04,4.890853830731665443e-03,6.660340428352355957e-01
6.580800089587879320e-02,-5.875898746062646616e-01,6.374890494552160058e-02,4.226039353035501234e-04,3.676175260559043909e-04,2.359095364331631126e-03,6.523842811584472656e-01
-6.403642932710619518e-02,-6.477416370992303829e-01,1.569728678096438679e-01,-3.723649568754527905e-02,-3.424622489997283803e-02,-8.696610920950144721e-03,7.255798578262329102e-01
-4.477711950945684194e-02,-6.211813031634371152e-01,1.487690337195189394e-01,5.114629717387846703e-04,-4.219673265410955193e-02,-1.011525853418590061e-02,6.977909207344055176e-01
5.802060103456385676e-02,-5.749379573609600946e-01,7.789529509358578130e-02,1.630820598323318030e-03,6.304112707898721800e-04,-1.187413225376932578e-02,6.434621810913085938e-01
9.399873275269104989e-02,-5.420836288838994932e-01,4.587452809376274532e-02,1.275353425336071302e-02,1.897831693516760076e-03,-1.264300042232156568e-04,6.138440966606140137e-01
5.566336479204606058e-02,-5.860607440350561470e-01,5.858029674938511344e-02,-3.174032429696381583e-03,1.414264927697231680e-03,-1.052820719110196621e-03,6.432182788848876953e-01
5.354094784683588459e-02,-4.946288472403697067e-01,6.542772350565514983e-02,-4.414273556477989191e-02,-1.333913763151280650e-02,3.982004611067383598e-02,5.641664862632751465e-01
8.016822150817981552e-02,-5.884762651511472598e-01,7.158730955690542630e-02,-1.739792600364999109e-02,-2.094256524914842998e-03,-2.107783138102694166e-04,6.650885939598083496e-01
7.686712634351616780e-02,-5.828774219069376983e-01,7.148172598673749323e-02,-1.571558428982994119e-03,6.332639827484933806e-04,7.536157089610610958e-04,6.570762395858764648e-01
-2.086277085197338343e-02,-6.156736137725704605e-01,1.505358893524065822e-01,4.487980243185649143e-02,-5.145047846925198190e-03,-7.617687711123154876e-03,7.010158896446228027e-01
1.284432448510294256e-01,-6.388460105900953812e-01,-4.980598232202909648e-02,4.917120705599827002e-02,-6.596889950076008369e-02,1.078038341051485161e-01,7.341055870056152344e-01
1.170889945087602024e-01,-6.917647367939678826e-01,1.179064173617377920e-03,1.909262457750718345e-02,-5.577165341505622292e-02,3.224802136940079639e-02,7.664659619331359863e-01
4.443762967221440152e-02,-5.941212193356528726e-01,7.827915533121954095e-02,1.006719790147396661e-02,-3.539451079482283484e-03,-1.243461615951108002e-03,6.563982963562011719e-01
8.622167546473508137e-02,-5.851230539927644303e-01,6.127591243345070771e-02,-3.007296988313749864e-03,3.218244073166484035e-03,-1.549778902550599498e-03,6.592755317687988281e-01
-6.016686511310301300e-02,-4.039431085615260431e-01,9.290817714610050126e-02,1.663207961445609118e-01,-3.745503706574702246e-02,7.664538386670934067e-02,5.468616485595703125e-01
2.010929955300845839e-01,-9.482062524670876735e-01,-4.672167819782191422e-03,4.896482181558599323e-02,-8.417953052118222479e-02,8.547063888878254911e-02,1.084946632385253906e+00
1.964571665775839415e-01,-8.736337360184467382e-01,4.693839621895706804e-03,-2.055132528664173688e-02,4.693818871371874257e-02,5.644313467815087471e-02,9.970444440841674805e-01
-4.920189447142869765e-03,-5.988184945636839673e-01,1.038129773066130968e-01,1.012449562948473762e-02,-5.646606346020575234e-03,-2.321656479973766528e-03,6.553883552551269531e-01
1.386384928405932082e-01,-6.636899686307258239e-01,-3.695622994279895712e-02,-1.360359736718943190e-02,3.925414012132163316e-02,-1.942341922591285172e-02,7.348397374153137207e-01
1.128967350515672763e-01,-6.043982984787283907e-01,-1.375055862445442867e-02,-8.702342437149731408e-03,-1.271808387330730129e-02,-2.537164907196791819e-03,6.636565327644348145e-01
6.323597304167771771e-02,-5.802549361068979339e-01,7.434027808449386598e-02,-1.617264422838127907e-02,2.434115678767131193e-03,-8.074931899605945762e-03,6.498826146125793457e-01
7.921966027201685079e-02,-5.487173062729155948e-01,5.513429995218355195e-02,-1.360247098810151876e-04,-1.027871665264290177e-02,-1.881067741907940186e-03,6.165131330490112305e-01
1.105836221437812017e-01,-6.254650142210405050e-01,-1.024512193572693630e-02,5.874924515512876429e-03,-1.719684196194310594e-02,2.511474026500402652e-03,6.844274997711181641e-01
7.250115760105743656e-02,-5.869983294306456711e-01,6.773108172709046970e-02,9.357051487509667961e-03,-5.410516167573686678e-04,-1.922586440674881134e-03,6.573363542556762695e-01
6.551906056841930170e-02,-5.890856253224363570e-01,5.236074546939989416e-02,-2.402980665424418131e-03,7.272707250634519865e-03,1.009821914697372688e-03,6.482638120651245117e-01
6.853951682428666148e-02,-5.269571439675734270e-01,5.546222389632682326e-02,2.743868493069906433e-02,-1.463094585182842487e-02,-1.839204565428562838e-02,5.923811793327331543e-01
3.250852237975498937e-02,-1.023895224624086886e+00,2.795466793257296301e-01,-5.796015948201276025e-02,7.142084636903228700e-02,-3.089781172195120093e-02,1.210881352424621582e+00
6.182114488944540076e-03,-3.610345440506198544e-01,2.748960163369551513e-02,9.449947970021031762e-02,5.542071639796450344e-02,-1.558701471145734763e-01,5.020138025283813477e-01
5.828721827003371936e-02,-4.409321411409451441e-01,2.168285165865613262e-02,-6.076743029947102506e-05,-5.533385604396167702e-03,-2.237253395200149503e-05,4.820561110973358154e-01
4.068866771830723095e-02,-5.072685719018990014e-01,5.282863796184894545e-02,-3.081519284953123522e-02,2.809568647147800760e-03,8.243892762165873876e-04,5.567145943641662598e-01
7.098992247522625809e-02,-4.716230986547922388e-01,3.601749217885444332e-02,4.818969816945057466e-02,-1.341497163650319296e-03,-1.155795923625581485e-02,5.329619050025939941e-01
-2.919514568040626479e-02,-5.997270381813111229e-01,1.144704641776534970e-01,6.255758974974312374e-03,-7.753696923155301360e-03,4.713475156462935663e-04,6.545308828353881836e-01
-5.741478758934720483e-02,-7.070549221359808678e-01,1.810202512286288590e-01,-9.108424227263572925e-02,-6.468056993764105533e-02,-1.291403641239447821e-02,8.195856213569641113e-01
7.867153658033862462e-02,-5.952025054945633276e-01,3.124040883671941327e-02,2.032710600881740270e-03,7.442502294111482709e-03,-8.961302616712116254e-03,6.517766714096069336e-01
9.415085517137197768e-02,-5.696672865360866700e-01,5.134335732241226968e-02,9.013781263961387694e-04,-1.297217417531302533e-03,-5.643591834471392696e-04,6.434897184371948242e-01
5.552787470129016967e-02,-5.845494758899675292e-01,7.515246673404876732e-02,4.548932201200973739e-03,-2.535159828224225250e-03,5.829478047895480467e-04,6.501752138137817383e-01
2.046056011496430460e-01,-9.028810807665323956e-01,-1.001724483159022183e-03,-3.067345448445324418e-02,3.761994846316572827e-02,9.066073716761277601e-02,1.035770297050476074e+00
1.318739166030789556e-01,-9.157233842630694287e-01,8.653148683301004063e-02,-4.103813331426944128e-02,8.947256776119320854e-02,1.583529599350051026e-02,1.040113449096679688e+00
9.311205327940455523e-02,-5.697816596348854734e-01,5.399059127079078313e-02,8.338241570861608561e-04,-2.509691943153079165e-03,-8.903670018439913039e-04,6.442426443099975586e-01
2.181143067889845799e-02,-5.952069984698863392e-01,8.223629452579853116e-02,-4.825505328493575122e-03,7.974238768940485750e-03,-1.043680830125260153e-03,6.495460271835327148e-01
9.282686734533196482e-02,-5.705205426717739892e-01,5.592604930744793368e-02,2.903524252356193551e-04,-5.027201662173652087e-03,-1.186153007315973902e-03,6.457504630088806152e-01
1.104752764661356967e-01,-7.041421606981210779e-01,5.317128487379935153e-02,-1.702611261949154089e-02,7.957159547390524335e-02,6.135102004201023994e-03,8.001137375831604004e-01
8.329153253115903488e-02,-5.788309694534606864e-01,6.545540671473212835e-02,-6.154391844274176336e-04,-2.122739433177163199e-03,-1.222814447539940889e-03,6.534016728401184082e-01
2.441469656560413259e-02,-6.046359458869747794e-01,7.125396371437286991e-02,3.386651264499717772e-03,4.099728377543862545e-02,-1.497240252389747846e-02,6.581125855445861816e-01
9.615905168151295257e-02,-5.599993624815182702e-01,4.995916247280490774e-02,4.727247616967398570e-03,4.079334770842463751e-04,-1.808578763450941927e-03,6.343825459480285645e-01
1.155372461972937748e-01,-5.960977090223491537e-01,-2.245157120656623984e-02,1.500364797149205765e-04,2.027946680607426930e-02,7.691062301363169040e-03,6.547356843948364258e-01
9.309220909797713550e-02,-5.720628796138481631e-01,5.259081681069238678e-02,8.844220523010820276e-03,8.482839470908020742e-05,4.019141498990302691e-04,6.460395455360412598e-01
-2.528163079536391300e-02,-7.098713087951999956e-01,1.681108869383108328e-01,9.356903345202853897e-03,2.564490919039457903e-02,-1.514037695931103565e-02,8.008630275726318359e-01
6.065242837082085448e-02,-6.091540195962359405e-01,5.494209141653549899e-02,9.969070017742304168e-03,7.374535136137887192e-02,2.027019926160426259e-03,6.793188452720642090e-01
4.975820860280660840e-02,-5.818975188177977209e-01,5.713166371954353506e-02,-1.194051505010848742e-04,3.393776856313048072e-03,-1.213636871523921532e-03,6.354052424430847168e-01
4.346996329280483629e-02,-5.960667497371663348e-01,9.002925041747888990e-02,1.288276794282402007e-02,2.501319541355152875e-04,-7.346134450844131816e-03,6.645384430885314941e-01
7.488940886064721081e-02,-5.846705114289403316e-01,6.454352128344215123e-02,1.541733026263131419e-02,-7.559937413766868721e-04,9.458198977407054290e-04,6.549962162971496582e-01
6.601756850196613402e-02,-5.838106332739823046e-01,4.009332003761367780e-02,-1.059868445693032879e-03,5.291274866852350642e-03,4.898897146756276495e-05,6.373302340507507324e-01
7.921662677867019609e-02,-6.186267940269349896e-01,6.100047064454472423e-02,1.159540968207630959e-02,3.631821908172511160e-02,-3.672991755056831398e-02,6.949912905693054199e-01
2.024732287095659666e-02,-8.601380526784572211e-01,2.196777327965824811e-01,3.434303772678825965e-03,1.132523431244860934e-01,-5.916444579605530107e-02,1.019530057907104492e+00
9.165385068293513404e-02,-5.990587253479920937e-01,2.179544303688896179e-02,-1.198435572653266598e-02,2.381862509245514029e-02,-2.875928545354265731e-02,6.620620489120483398e-01
6.833263232830227851e-02,-5.857505418758973681e-01,6.860657714789886175e-02,1.800417320324098529e-03,-1.349410384104911395e-03,4.113551329152244753e-04,6.542322039604187012e-01
7.992531639800673493e-02,-5.688522782042413350e-01,6.810806424408341608e-02,-1.046844562041640558e-03,-1.325494811540711693e-02,-1.299009764254112690e-04,6.433627605438232422e-01
7.466974639573861761e-02,-5.843979935677752202e-01,7.521297512493743675e-02,-1.290069726682436038e-03,1.593983471277731889e-03,-8.557867440068743200e-04,6.593507528305053711e-01
2.284239423944348091e-02,-5.890841452433905889e-01,8.366873029807858630e-02,-5.114506744034197101e-04,9.041104852424784732e-03,-3.634910143727134672e-03,6.447176337242126465e-01
2.996901173827717924e-02,-5.864145143092756030e-01,7.157011776536131853e-02,-5.556146758283213218e-04,-6.122387722199742685e-03,2.518036394032821968e-03,6.383055448532104492e-01
7.247833333424669178e-02,-5.874374879395145577e-01,7.476616078313835789e-02,-7.339646902869844010e-04,2.144200449956974210e-03,1.655665467041030157e-03,6.610805988311767578e-01
4.116971344266223687e-02,-5.954012564269980379e-01,8.407159913971906651e-02,1.996859557948527097e-02,-5.468836394978811516e-04,-2.941357425233947684e-04,6.599777936935424805e-01
7.331914898422681182e-02,-5.851948944976982370e-01,6.902109683495599723e-02,-7.699611824465196937e-04,2.499135679041379534e-03,-1.144045200972569534e-03,6.563941836357116699e-01
7.023313541178755059e-02,-5.818058042713478706e-01,6.188578981793277367e-02,1.246057516682349316e-03,-1.018830426539063809e-04,-2.493809889492217772e-03,6.479235887527465820e-01
2.314568066284530823e-02,-4.279899320222199099e-01,4.173341165080995951e-02,2.693716307108743029e-03,-1.248107993005998125e-02,8.866717836354357386e-04,4.612438380718231201e-01
2.651881342743428460e-02,-5.866063413611037891e-01,7.527723156349969136e-02,-3.109344818653463592e-03,-9.453368068499966304e-03,-5.678338667173561845e-03,6.392094492912292480e-01
9.629403656612689488e-02,-5.974943044136633574e-01,2.604529602708338665e-02,-6.135038795110864078e-03,9.891310603379213293e-03,8.319935032885644385e-03,6.619316339492797852e-01
9.849310483467599298e-02,-5.962691615260772293e-01,1.547068470439871835e-02,-6.502430506908123131e-03,2.114643506826719560e-02,-2.706356112001622599e-02,6.599789261817932129e-01
-3.450771424390200459e-02,-5.972350737773752805e-01,1.207587889338759823e-01,-9.327579314681450073e-04,-7.793523474732527278e-04,-7.069004544654891760e-03,6.544439196586608887e-01
-9.405056851159609987e-03,-8.103437615295722152e-01,2.044475136399692139e-01,-7.815739813599728580e-02,7.335753680744839383e-03,-4.689372894611939374e-02,9.400014877319335938e-01
8.463137889938796010e-02,-5.896506142945701079e-01,6.187592260718216552e-02,-9.634492677503461028e-03,7.673485047786429833e-04,3.107961341838846089e-04,6.634085774421691895e-01
8.401732559467198214e-02,-5.798730738400330598e-01,6.729743635792298506e-02,-8.672506070511020598e-04,-5.303438296616633761e-03,-2.197082790960781622e-03,6.557674407958984375e-01
5.487622852823548225e-02,-6.003798891035887486e-01,9.382602050697952389e-02,-2.067955219939391839e-02,2.204788604929268196e-03,-1.017752193938036530e-02,6.767628788948059082e-01
7.754421525916938007e-02,-5.938083515386450850e-01,4.628085788005839585e-02,-3.104163763112190687e-03,2.776041543128275786e-03,5.607102998992592735e-03,6.563910841941833496e-01
8.323338878975508615e-02,-5.956119422786408935e-01,2.235905301249327404e-02,-3.306346438690576858e-03,1.584234332305177809e-02,-6.993343286187308182e-03,6.512640714645385742e-01
1.036856855294521207e-01,-6.119183509535578436e-01,3.691722825718696255e-03,1.491691967523650457e-03,2.802976965792654956e-02,-9.438322056637769852e-03,6.731736660003662109e-01
4.592145840819647495e-02,-3.848362761071537075e-01,3.089107965115789334e-02,7.293839649726731322e-02,-7.162728495093265146e-03,-5.446905901682155132e-02,4.520157873630523682e-01
1.093413700681167833e-01,-6.136810571352834254e-01,-8.426179592985472144e-03,-6.739651108230232217e-03,1.446485395156792489e-02,7.906540310084629944e-03,6.726318001747131348e-01
-3.313314704258646382e-02,-6.237723491917546159e-01,1.276843543029126393e-01,-1.435510661350789842e-02,2.571997472801680965e-02,-6.047069865968932381e-03,6.873241662979125977e-01
1.349589849493401661e-01,-6.837227339178779673e-01,3.279756055946458915e-02,-1.432048555361501059e-02,2.122824965415436374e-02,-1.616986902583763402e-02,7.744614481925964355e-01
8.665952673787097327e-02,-5.600249232880474271e-01,5.545977529327986155e-02,-1.040589485130473044e-02,-6.980319203814946277e-03,-3.336181721520344251e-04,6.320357322692871094e-01
1.182166690678496113e-01,-6.033098862088689396e-01,-3.297273313522747218e-02,-9.619364989760877463e-03,-1.373942647216847522e-02,-6.086006685966777012e-03,6.597929000854492188e-01
7.979672898477119247e-04,-2.071703430298506843e-01,2.630429533319003643e-03,1.155611014770569211e-01,2.644157816840042238e-02,-2.306735914572789412e-02,2.956216335296630859e-01
1.092581527426786381e-02,-5.659591986009314679e-01,1.115652252731673122e-01,-8.464364032004936811e-02,4.957623323171914120e-02,5.607391496639847067e-02,6.627834439277648926e-01
9.019687844561041778e-02,-5.713690995722926491e-01,5.836058515547673520e-02,1.767605208232214892e-03,-2.608284161591419709e-03,-2.797085387932489019e-03,6.462774276733398438e-01
7.213727141630080220e-02,-5.141098692404598713e-01,5.117636537669922880e-02,1.105983365044520966e-02,-1.371783486180808490e-02,-1.941132592265235393e-02,5.778396725654602051e-01
1.098706161937394454e-01,-6.164469909799933367e-01,-1.079974404985828418e-02,-6.106444392504602539e-03,6.759044526852137948e-03,-8.395587035516913557e-03,6.744731068611145020e-01
1.126539062154177651e-01,-6.096094242379616057e-01,1.001965294612597313e-02,-1.413531404009201430e-02,2.429110922590536556e-02,6.031489221869639102e-03,6.786367893218994141e-01
1.271778347324714065e-01,-6.199027675535695447e-01,-2.514801328059768082e-02,-8.708259966708549460e-03,6.785930265047839492e-03,1.025464029530086425e-02,6.842616796493530273e-01
8.740386090610127723e-02,-5.723167274591064446e-01,6.205036471480240845e-02,7.009234251410817115e-03,-3.038677012226221816e-03,-7.167791548397948326e-03,6.476705074310302734e-01
9.804668886002249062e-02,-6.396128735367974105e-01,1.931383610298020859e-02,1.247859784185648309e-03,-2.221857530881203233e-02,2.741738037998025374e-02,7.042750120162963867e-01
8.257955587683618592e-02,-5.790888074100339900e-01,6.629618309016754862e-02,4.742883895608342518e-03,-2.178427517163670536e-03,-4.901597270885171657e-03,6.537964344024658203e-01
7.351776333745607683e-02,-5.527506385597704686e-01,7.728721177788222541e-04,-1.878890716263448973e-02,-6.045492300322478918e-02,-3.800280331130489325e-02,6.068790555000305176e-01
4.948829001701321451e-02,-5.908098591083708051e-01,7.640975878797642840e-02,3.498396324606762881e-03,3.049331385258036153e-03,-1.750158436126253523e-03,6.542308926582336426e-01
1.174186881472284449e-01,-6.721878942509458277e-01,-1.134593916858550600e-03,8.570702455812040594e-04,-5.390444003927028632e-02,3.999544333086257203e-03,7.434313893318176270e-01
2.958969311158854421e-03,-5.985151406673436814e-01,1.053483753236619247e-01,8.387535414111021298e-03,2.080714778987010315e-03,-6.614220914739876375e-03,6.589344143867492676e-01
2.434779710013615373e-02,-5.958168227002544892e-01,8.209188049806798171e-02,-2.092177011734669845e-03,9.732626103599218911e-03,1.608738368005448345e-03,6.511946320533752441e-01
1.056252886500727572e-01,-6.032255970420892233e-01,-1.959249290807366095e-02,-1.179579980311474402e-03,-2.911149807211238852e-02,-4.324914923358018533e-03,6.572602987289428711e-01
4.693591385961762286e-02,-5.874276788528152160e-01,5.221642375122179103e-02,4.760719305112391143e-03,2.014508923117899405e-02,-8.042858408718753238e-03,6.381804943084716797e-01
1.004963203066535082e-01,-6.072789120462969148e-01,2.254525045273825246e-02,-5.912912520480474894e-03,3.125532918285348245e-03,-8.878113100760001014e-03,6.724737882614135742e-01
-6.060463852767888904e-02,-5.767651962529252163e-01,1.898836069020271577e-01,2.223986917033141109e-01,1.782884964219889901e-02,-7.412216451008589446e-02,7.901124358177185059e-01
2.260261201544372378e-02,-2.594497016211217977e-01,-8.648620794045103199e-03,2.307452078686973371e-03,-4.126528519780442612e-03,-6.289785097374886447e-02,2.892250716686248779e-01
4.507111793534604449e-02,-5.950401913358329686e-01,8.178894551658025258e-02,1.302371114249013632e-02,2.411588437438637496e-03,-3.032269267147045567e-03,6.596575379371643066e-01
2.428479911868593188e-02,-1.511483736587562188e-01,2.107185903123795501e-03,3.862258247940372063e-02,4.706972386497115107e-02,-8.284899560046016243e-02,2.430876642465591431e-01
9.986853084563709904e-02,-2.172648009908599021e-01,-2.590807585509259658e-02,-7.213947687982873169e-02,-5.849444069685991003e-03,-6.199003637322513666e-02,3.221003115177154541e-01
8.086442018430048395e-02,-6.041781400053775064e-01,7.265259746318597500e-02,-3.853761396510471410e-03,7.122347334154584438e-03,-7.764151942562581843e-02,6.942669749259948730e-01
1.543848900880223640e-02,-5.958200156496951116e-01,1.005342453786026713e-01,-1.287318620791654683e-02,6.220261801495324469e-03,-9.526348144998629877e-03,6.586191654205322266e-01
5.355701474550583763e-02,-5.865545251180905861e-01,6.137128281729276047e-02,-2.797552319345588193e-03,3.039568326343676779e-03,-4.511866176854853472e-03,6.441413760185241699e-01
1.003882760843154420e-01,-6.443731952456752676e-01,4.405968425144624057e-02,-3.045221279188039306e-03,-4.844337635816675994e-03,5.580712797704855122e-03,7.183890938758850098e-01
8.468860716161766278e-02,-5.519951882498554951e-01,5.360231532523673792e-02,3.660015798854278379e-04,-8.960467036336173391e-03,-3.230852638588349937e-03,6.219429969787597656e-01
2.889561949994337575e-02,-3.555062940282224249e-01,2.826713356439114477e-02,8.780331035838376263e-03,1.111079865214338429e-02,-1.200653599571645663e-01,4.374612569808959961e-01
1.299661753868847081e-01,-4.837980187002908217e-01,3.791690147579895864e-02,3.424391649058348280e-02,7.326961876239085347e-02,-1.658004223699477975e-01,6.563349962234497070e-01
7.312600078030570550e-02,-5.830464079065440508e-01,6.899466207151069841e-02,-3.361727207631170188e-03,2.084993514510890536e-04,-2.696898499116653480e-03,6.541591882705688477e-01
4.477539651034759260e-02,-3.797366521240352899e-01,-2.091762323090472220e-02,-2.130230333163443679e-02,-8.570113471610891695e-03,-1.701902804783837764e-01,4.950903654098510742e-01
6.382351058092042284e-02,-5.770522147248066114e-01,6.481356101093566080e-02,1.791509355579002814e-03,-1.743940247700339220e-03,1.888490660039064467e-03,6.413942575454711914e-01
6.773604468618840690e-03,-3.092352939139338397e-01,-1.084022127673625602e-03,9.169370095587868474e-02,6.034934127181178221e-02,-1.276350535257405883e-01,4.271554052829742432e-01
7.751128598175768825e-02,-5.899250576399333035e-01,7.621278789316690561e-02,-1.863126351624272393e-04,-1.015136033891916000e-03,-1.151796255077591497e-03,6.667934060096740723e-01
7.658886366416972624e-02,-5.684607000877484051e-01,6.625988143664446328e-02,2.879917376361582781e-05,-9.369083872853477268e-03,-8.597083533876475302e-04,6.401550173759460449e-01
3.586455044836520112e-02,-5.637741578060100345e-01,6.517200545142401436e-02,1.587575661753359568e-01,8.580864843527002961e-02,-8.307834269266313465e-02,7.045613527297973633e-01
1.017742662717520119e-01,-4.738742418267398171e-01,2.603897643178712529e-02,4.048657703688940401e-02,1.093435290776358093e-01,-1.614658879004280678e-01,6.422688961029052734e-01
8.837461049266054358e-02,-5.747256019562475560e-01,6.159810875150151244e-02,9.499744226304140862e-04,-4.779968926054234055e-03,8.211960531973903975e-05,6.501804590225219727e-01
6.390885225532039193e-02,-4.964496641531118137e-01,3.783036452989546605e-02,3.075929231831035521e-03,-1.402000896485322903e-02,2.981910723871373028e-02,5.507758855819702148e-01
8.430742413145322911e-02,-5.862459265745059156e-01,6.797330918164998237e-02,-8.263570327575442062e-03,2.786488652172001987e-05,-3.335461361952357477e-03,6.627171039581298828e-01
7.888145831718634815e-02,-5.552881022478211026e-01,6.085134226164454208e-02,-1.767726748079929966e-02,-6.547246257629760896e-03,2.602188575281918961e-04,6.262014508247375488e-01
7.992903626953351548e-02,-6.060511129021726173e-01,6.844067743292239769e-02,3.513450972879915944e-03,2.838779913772201176e-03,-1.375302106008102938e-02,6.807705760002136230e-01
8.096172910696283753e-02,-5.869739666481712526e-01,7.105856299684568111e-02,6.973406644787545324e-04,-2.454110230516035746e-03,-9.413072405185390640e-04,6.630563139915466309e-01
8.172780495964765413e-02,-5.859929825391703151e-01,6.705127042253786196e-02,-4.634373288706559318e-03,-2.082469459266720127e-03,-2.168219144866641995e-03,6.605741381645202637e-01
8.825106999899773319e-02,-4.534867169820445132e-01,6.446878349625151383e-03,5.287802105700641769e-02,4.719535378196552944e-02,-6.082350064869775780e-02,5.310595631599426270e-01
1.272503700299264517e-01,-6.109812521140309816e-01,-2.900969618724022481e-02,-1.235230900939797080e-02,-4.034335121595644148e-03,-8.957451263738621175e-03,6.743843555450439453e-01
6.621396328952081078e-02,-5.896241547062954780e-01,7.442811876001909077e-02,1.168312915320707376e-03,-2.471212942605964882e-05,-9.765061625160595610e-04,6.599888205528259277e-01
1.014660986160743072e-01,-5.956810614593421871e-01,2.042072919081860949e-02,-6.291074365317671745e-03,1.800535323552059780e-02,5.303167291805278155e-02,6.675405502319335938e-01
5.842367465513337299e-02,-5.892260463510251567e-01,6.619652409636306301e-02,2.145819384167598539e-03,-4.217843509159209352e-03,-6.944638254206266870e-05,6.516224741935729980e-01
8.852358384579198103e-02,-5.776726474915622189e-01,6.192917812683371159e-02,9.899011126416150646e-04,-2.271780259079874895e-03,-4.199556299373587674e-03,6.533597111701965332e-01
8.520918265680371695e-02,-5.757365190636596353e-01,6.608047544308620624e-02,6.020327483436298602e-03,-8.574785070400759573e-03,-4.865927643973225365e-03,6.518990993499755859e-01
4.972610557265610964e-02,-5.951963042174344132e-01,7.883782801388783401e-02,2.351630959406583645e-03,2.510452428315776766e-03,-4.484265972628330823e-04,6.599873304367065430e-01
6.072661853965283241e-02,-5.872268616301485888e-01,6.918377540836490036e-02,1.607923959950973564e-03,1.050845543816188599e-03,8.174551407759378082e-04,6.522331833839416504e-01
1.184325624695373169e-01,-6.035911920193910429e-01,-2.735165852384027763e-02,1.432774547459700343e-02,-5.351842774346127207e-02,2.275569389077756188e-01,7.758006453514099121e-01
7.325195281452767659e-02,-5.853539779372627372e-01,7.021182350904120462e-02,1.246141136242927185e-03,-2.641451196308983130e-04,-1.433016592699783631e-03,6.570995450019836426e-01
6.893115032925140051e-02,-5.796835796625459114e-01,8.343748794877484110e-02,2.677146601000813175e-04,-5.564454193770110996e-03,-2.915319888236210695e-03,6.560785770416259766e-01
2.258228224237301962e-01,-6.423420962547479185e-01,-6.537096683955490040e-02,-2.426186839564074826e-02,6.434487343627814590e-03,1.146424823105184065e-01,7.918451428413391113e-01
7.778580516100866427e-02,-5.374789851804564478e-01,5.571368018710723402e-02,9.413338507093141350e-02,-8.276997488026158895e-03,-3.189559793233285451e-02,6.287277340888977051e-01
1.314477787570312306e-01,-5.729592108943528661e-01,-6.781701874011233921e-02,-3.494856748555305592e-02,-3.211263867629089719e-02,1.141096649213712427e-01,6.643440723419189453e-01
4.165673240574430114e-02,-5.890873133867337019e-01,6.543890841901489619e-02,-1.787344377833564142e-04,6.372647902162955832e-03,1.502856695108374619e-03,6.430651545524597168e-01
3.611674144332877034e-02,-5.898610055040443001e-01,7.808175055860677727e-02,-9.022504650700409121e-03,5.237230215885443907e-03,-7.591622005060191108e-03,6.483654379844665527e-01
7.838646888046282846e-02,-5.816954045228730497e-01,4.648771955032596215e-02,-2.417620725798262649e-02,1.883675299198254646e-02,-6.204254908838815162e-03,6.469955444335937500e-01
5.744646725231827844e-02,-5.864496978873612321e-01,4.716763632588275024e-02,-1.279830114915898225e-03,6.655120239696041273e-03,-1.359978906209470279e-03,6.389309763908386230e-01
9.943257180933412487e-02,-5.872048288185236498e-01,3.191993643100246580e-02,-7.392198600478655512e-02,4.170970372157600109e-02,4.429118672151889646e-02,6.761432886123657227e-01
3.607256938086444986e-02,-3.610862916538742362e-01,2.519874857481907426e-02,1.009713981136894367e-01,7.889822467501155304e-03,-5.744200364876703158e-03,4.294253885746002197e-01
2.307907616726478928e-02,-3.344497202669977076e-01,8.720388718001709227e-03,4.730842768284928418e-02,-2.248542076199701138e-03,-1.205483922835585628e-02,3.606449067592620850e-01
2.077496200808978677e-02,-3.530736626137507272e-01,1.481879760609666752e-02,3.522825105954396907e-02,-6.391613402603410661e-03,-2.568074999189945418e-02,3.786762654781341553e-01
3.998117147039648156e-02,-5.830814265540285035e-01,6.832605055363444313e-02,1.424704652825984621e-03,5.270453393617549609e-03,-4.040410987872383210e-03,6.378161907196044922e-01
5.606930579090832478e-02,-5.847154535449567980e-01,5.560823719671506571e-02,-1.848204153412331659e-03,6.510088833716343171e-04,1.561428929043290120e-03,6.405690312385559082e-01
8.048011436478053060e-02,-5.968212774624448436e-01,1.034256094228247491e-02,-3.245143790211912210e-03,2.990945355949011647e-02,2.114514710325949328e-05,6.471997499465942383e-01
4.078496574871451341e-02,-5.887855260580856509e-01,6.456279538683631913e-02,-1.895838502362748356e-03,3.997590528730206837e-03,-8.503927404665920665e-04,6.418372988700866699e-01
6.809293926138773601e-02,-5.917032551569640919e-01,4.252933243043424683e-02,-1.208201218779766982e-03,4.454031776196335293e-03,8.540845560049219708e-04,6.474440693855285645e-01
2.321942515930344730e-02,-3.581127642330663163e-01,3.313655368689064074e-02,3.581931957544517292e-02,-9.589957934488857472e-03,-8.772258186945195227e-03,3.919823169708251953e-01
5.305466665607441734e-02,-5.902867095539390263e-01,6.670934037920941972e-02,-3.725675267938667688e-03,1.581222886173425188e-03,-5.348079295737466141e-03,6.503800153732299805e-01
2.081360155689235270e-02,-5.885868832670665407e-01,8.153493020361277099e-02,-5.132359599504495058e-03,7.979114795005770241e-03,-4.845491227075687628e-03,6.421838402748107910e-01
4.048793520584884065e-02,-4.901599957381122530e-01,7.234955967307743485e-02,2.127224657491350035e-02,-7.335401172842338606e-03,-1.902948419134010624e-02,5.496498942375183105e-01
6.498297146127399171e-02,-5.882468529545259450e-01,6.078440942725960028e-02,1.786165973329862603e-03,1.053026847123617223e-03,-3.459867444518894067e-03,6.511781811714172363e-01
7.167173147429767299e-02,-5.896463943566156996e-01,6.831835135942576631e-02,-4.098475783903834935e-03,-1.674641282178655809e-03,6.291541430168991027e-03,6.597824096679687500e-01
8.326876115836215342e-02,-5.789149394592996156e-01,6.592327843023881861e-02,-1.758204000340826733e-03,-2.683088488467829692e-03,1.702556929948261877e-03,6.537138223648071289e-01
5.592480724875778519e-02,-5.134819252815849833e-01,6.651985240743032990e-02,-1.302774798506275283e-02,7.699827547685087620e-03,2.369931515030013550e-02,5.768372416496276855e-01
6.530277436770495769e-02,-6.799378339817946371e-01,7.820746359261865344e-02,-6.265755186245396124e-02,5.064712077798625561e-02,2.296501669815571509e-02,7.656518220901489258e-01
8.291536074778191323e-02,-5.865976208258576463e-01,7.346752452665725186e-02,7.708312205459247367e-05,-4.534479592961004196e-03,-1.189745597724177961e-03,6.648890376091003418e-01
1.010940412047239834e-01,-5.945733145624474414e-01,-1.405488365639254167e-02,6.188216998398572656e-04,-1.529699535103791301e-02,-3.513462714721820538e-03,6.464110016822814941e-01
8.861177504109463143e-02,-6.607398425714458012e-01,5.073339829779296983e-02,1.780034159084432563e-02,-2.247273823247370600e-02,5.012698765471286511e-02,7.379581332206726074e-01
1.272710268932678579e-01,-8.195353487070781151e-01,8.175006304253024103e-03,1.322512076539279213e-01,-9.680469517261842960e-02,1.871427032299038395e-01,9.917243123054504395e-01
6.730021843704869777e-02,-5.891015694305904438e-01,6.339847474745091693e-02,-2.837897951218635358e-03,-5.188873303023856971e-04,-2.806782136331837166e-03,6.544967889785766602e-01
8.189312527877856684e-02,-5.883199658546596211e-01,6.816382048795496806e-02,-4.017812620550535382e-03,-1.845059296137364002e-03,-1.372997333068524733e-03,6.635034680366516113e-01
7.177406877740355462e-02,-5.836700569462887067e-01,7.784695217311907167e-02,-1.299478588281318802e-03,-5.990008951553921169e-04,-1.249063401943666953e-04,6.585062742233276367e-01
1.352232252518794642e-01,-6.595202288660102496e-01,-4.188249134681959474e-02,4.959710047265951383e-02,-4.806121038134167356e-02,1.154029057846360923e-01,7.592712044715881348e-01
1.872751571060761733e-01,-6.946052165572080828e-01,-9.743792468637928195e-02,-1.566402135404777046e-02,-3.461461322332388263e-02,-6.108105492564604860e-02,7.894396185874938965e-01
6.060096743549389653e-02,-5.755193165653589293e-01,8.284711527660940100e-02,-3.283324431088020540e-03,-5.364775732737957561e-03,2.129989875892558671e-02,6.486716270446777344e-01
1.200615687739752246e-01,-6.049400610972230918e-01,-2.080587054909990852e-02,4.161806971803781730e-02,-4.219270601107535934e-02,7.000096358697618926e-02,6.845284104347229004e-01
7.752691878798501079e-02,-5.882691495337517562e-01,7.179795149964088297e-02,-1.726832280430185343e-03,-2.008003182347387148e-03,-3.425055377767586076e-03,6.629925370216369629e-01
7.314880763780193251e-02,-5.899012949382644866e-01,7.435104874642955997e-02,1.315740243315860871e-03,-2.013541893595434233e-04,-1.055599355355963352e-03,6.636585593223571777e-01
5.901377430172594085e-02,-5.847320447941866117e-01,5.234954451396311992e-02,-2.450280789524667967e-04,3.473168122476045366e-03,7.407465814429619461e-04,6.404693722724914551e-01
7.275092152368850540e-02,-5.896385069929814815e-01,7.117667233853680608e-02,5.020244608504629375e-04,-6.840298536608790524e-05,1.100741941365039871e-03,6.616070270538330078e-01
7.290134727725464114e-02,-5.897821629945219080e-01,7.298655071921511528e-02,1.463694502013975721e-03,-1.303539306944662439e-03,-7.721116312201597130e-04,6.627361774444580078e-01
8.399519493966570161e-02,-5.816317341959047482e-01,6.795317202610132168e-02,1.419729165904805085e-03,-3.727307748668471418e-03,-2.280861771174356924e-03,6.578007936477661133e-01
8.537123544715721768e-02,-5.663015874252235182e-01,6.215752837629132110e-02,9.439864557390027430e-03,-7.261679833345102177e-03,9.731705531366875576e-05,6.407138109207153320e-01
7.480243317214244070e-02,-5.912033444259563453e-01,7.394127013320317410e-02,8.560437810109486389e-04,1.610426580213113971e-03,-1.170145676454975190e-03,6.655861735343933105e-01
2.595493250156782894e-02,-3.168800130115161373e-01,1.029824219854923728e-01,7.079095969965315538e-02,5.730464311084243478e-02,-7.830865886942593723e-02,4.394986033439636230e-01
1.430830324203002935e-01,-6.733769106907845359e-01,-2.634059972922175863e-02,1.209478365172569556e-02,2.111358485875673707e-02,-7.412250896527818565e-03,7.476125955581665039e-01
1.210784513358660330e-01,-6.003149793037738657e-01,-2.210531241275007219e-02,-3.901567640896834617e-03,8.930386258398433086e-03,2.604431721962720877e-03,6.617578864097595215e-01
1.458619701758865905e-01,-6.730123081399081997e-01,2.145803718492877987e-03,-7.689867170291806234e-03,-3.028324400203342981e-02,2.510928126335707031e-03,7.592571973800659180e-01
5.719511477755584439e-02,-5.874083641825157409e-01,6.298763632396822687e-02,-1.517364757815776490e-03,4.351353025933131155e-03,2.251361257392300950e-03,6.475800871849060059e-01
-4.878944199864171383e-02,-4.042658948423024090e-01,9.160283710768654664e-02,1.572494931648430461e-01,3.436075512949066102e-02,-3.208781858940491782e-02,5.261109471321105957e-01
6.264277924984429369e-02,-5.882457866133270485e-01,6.454714507550141089e-02,-3.730683958338968775e-03,2.999659714195282713e-05,1.699688246083053654e-03,6.518815159797668457e-01
4.088193379730126198e-02,-4.390452442440601066e-01,5.491135830882920565e-02,9.122189534378595532e-02,1.746158065605655715e-03,-1.300175691026007668e-03,5.120922923088073730e-01
7.916968583813771554e-03,-6.178161906823205207e-01,1.263216899742972132e-01,4.549767724608782399e-02,2.767011988742439435e-02,-1.643936289347757221e-02,6.992633342742919922e-01
5.806312352993298065e-02,-5.884275697286525109e-01,5.648662664911546782e-02,1.135737095462212488e-04,1.836550248378998520e-03,4.174124298873073402e-03,6.457522511482238770e-01
7.462053999685849814e-02,-5.882195666604483897e-01,7.614120927368103753e-02,-2.179330860488897740e-03,-5.129146616758901989e-03,7.182510506598497333e-04,6.636731028556823730e-01
5.139589069507322083e-02,-5.902270398090245784e-01,6.711647657071714845e-02,5.000098468533754892e-03,9.676894735962840270e-04,2.282544195683053161e-03,6.496978402137756348e-01
-3.147811579365786261e-02,-5.961193586474888839e-01,1.268772638512217776e-01,1.997294815070638496e-01,3.590344583246418697e-02,-2.140980016024136151e-02,7.471466064453125000e-01
8.613244666087571666e-02,-5.364651671616238460e-01,4.104326264638857857e-02,1.884862143417691607e-02,-5.360307440602646301e-03,-9.175114881999053493e-03,6.024889945983886719e-01
3.729922605386243317e-02,-5.626614650457985034e-01,8.965832704229909078e-02,4.828813877940336258e-02,2.535922725424556278e-03,1.328746211598849777e-03,6.333463191986083984e-01
6.415326484451275291e-02,-5.895975961446486835e-01,7.302677893678766186e-02,7.410297796478083725e-04,2.587026994139215042e-03,-1.919792318015280585e-03,6.582573652267456055e-01
7.317584273685931451e-02,-5.834225742390313219e-01,6.825562987694336337e-02,1.334016800629380696e-02,7.033364798733128965e-04,-3.316733526825298324e-03,6.545864939689636230e-01
5.057985691425392893e-02,-5.827695313580040226e-01,5.405240473627129227e-02,1.544226423354612486e-04,2.491562930764185460e-03,1.189073584684191814e-03,6.351108551025390625e-01
1.912062486295507124e-02,-5.870870172129778464e-01,1.014296043584532181e-01,2.433960023176352100e-02,2.233999251405568640e-02,-2.134438871430277551e-03,6.537942886352539062e-01
3.987867369761066705e-02,-5.840655369179632572e-01,6.491852626536886994e-02,-6.240550678748622935e-04,3.678242534872174733e-03,-4.056618069919760636e-03,6.369050145149230957e-01
6.850287424110643175e-02,-5.879882499201394275e-01,3.557392976935494500e-02,-1.948586947842496529e-03,9.924630304760475794e-03,-1.520852206130859832e-03,6.409065127372741699e-01
7.463612793653709443e-02,-6.380880638753634315e-01,9.156151657259317678e-02,-5.520439131117556991e-02,2.906296707695654041e-02,5.662119441198057435e-02,7.359482049942016602e-01
5.141796141637783313e-02,-5.843418800368469501e-01,5.685499955347572687e-02,-6.988380058441228402e-04,1.634361567529632854e-03,-1.164024628548750856e-03,6.385063529014587402e-01
3.301863649539804602e-02,-6.007131670296381731e-01,8.664026449335762714e-02,1.379282463958119917e-02,2.277970824106418865e-02,-3.050469330976741944e-02,6.658769249916076660e-01
5.907164290737157430e-02,-5.871709093862251816e-01,6.357575304526230653e-02,-1.183855986095303219e-03,6.137861836187700993e-04,-3.438544103736773053e-03,6.485378146171569824e-01
6.058163238492092484e-02,-5.852023103047752084e-01,5.501716041086934794e-02,-1.570575243053779846e-03,-1.865160888362170323e-03,4.397487969880190428e-04,6.430341005325317383e-01
-8.337698114091046664e-02,-7.224386954841379715e-01,1.932927534323635177e-01,6.562351876638873593e-02,1.091347898623240163e-03,-1.974130122053034328e-02,8.220992088317871094e-01
6.296860833610878894e-02,-5.760315975440238878e-01,7.816857840050522865e-02,-2.660827736834120785e-03,-1.464181507187885169e-03,-8.111515419626331644e-03,6.469081640243530273e-01
6.897300492987415432e-02,-5.703863168954650398e-01,7.708202670137134782e-02,-1.099118524847988911e-03,-1.008772782756820439e-02,3.922233935866402507e-04,6.436924934387207031e-01
6.621159593253952980e-02,-5.923233572525333779e-01,7.101626992712242736e-02,-3.588632010208976045e-03,-2.690006875978638579e-03,-5.307923823613055342e-03,6.610599756240844727e-01
7.254800959920953973e-02,-5.904937040807023418e-01,5.734586056675905485e-02,2.202086776199771358e-03,2.339799326464111432e-03,-3.868819944067518075e-03,6.556307077407836914e-01
6.831287250676959522e-02,-5.961535850145174287e-01,2.994285690291403901e-02,-2.246964240368374676e-03,1.601325619402484829e-02,-3.945427940201261079e-03,6.467792987823486328e-01
6.535319411407009005e-02,-5.445087245088915395e-01,7.215585591127476883e-02,-5.460381824231745401e-04,-1.434154328667982745e-02,-9.565837037333822443e-03,6.140186786651611328e-01
6.826031451817785034e-02,-5.896974552808986747e-01,7.018447650472328658e-02,-1.263879842271467286e-03,-9.800393918986505075e-04,-3.391545330022647815e-03,6.589539647102355957e-01
6.858005628760552308e-02,-5.800097251674589671e-01,8.341577887063214569e-02,-4.185718734505239455e-04,-6.018016562510072540e-03,-3.183344931397975950e-03,6.562398076057434082e-01
8.048660708145632947e-02,-5.897926842745901954e-01,7.141884963119113361e-02,-4.182835326940620717e-04,-1.708808239711902049e-03,1.283602497795805451e-03,6.658024191856384277e-01
7.278010470425624878e-02,-5.844791124074922850e-01,7.558215121329678321e-02,-2.656977104165704744e-03,-2.085059505857557449e-03,-1.851662710132795245e-03,6.586984992027282715e-01
6.989536694083431367e-02,-5.643562754595468078e-01,7.448895525296764242e-02,5.259809044162955466e-05,-1.305567014868505571e-02,-9.303963913268511327e-03,6.371662020683288574e-01
8.551569514849932663e-02,-5.801332435684678490e-01,6.565284788150158035e-02,-2.688267610309206645e-03,-3.115271438276565399e-03,2.188935293838470408e-03,6.559928059577941895e-01
6.080982420458808102e-02,-5.621180911938850056e-01,8.101596506709621281e-02,-6.524402866258020937e-04,-1.266986213718017049e-02,-2.041681340498039884e-02,6.346399188041687012e-01
7.724742961718336631e-02,-5.896509683345559916e-01,7.493236337193945329e-02,6.431856443506719966e-04,-1.222779902857602276e-03,-3.666323910300782539e-04,6.657484769821166992e-01
7.649760281878634216e-02,-5.894765776535132451e-01,7.439547643910476848e-02,7.922510479082568984e-04,3.061932358572395013e-05,-7.954450958763889523e-04,6.649284362792968750e-01
9.287121460452235633e-02,-5.940430275293291373e-01,3.331230193743819901e-02,5.938736581043541855e-04,2.626489293512705540e-03,9.306256358463622230e-03,6.593695282936096191e-01
8.661539861246705940e-02,-5.990310559356417652e-01,3.551327406314111479e-02,-6.344360391180838867e-03,4.075803555435946607e-03,1.032881500455169570e-02,6.619479656219482422e-01
-3.078949237701425479e-02,-6.381451760331255940e-01,1.485897130030808810e-01,-1.232870705041211844e-02,4.606823676287254837e-03,-2.205488020387504425e-02,7.155303955078125000e-01
1.070162651204136783e-01,-5.701878841897027872e-01,6.311650221388159787e-03,-6.782834962969785941e-02,2.464211679836772820e-02,7.847566191333291141e-02,6.592786312103271484e-01
1.090724640897550168e-01,-6.014918500633318343e-01,-1.060711737104572117e-02,-6.112250392027965273e-03,-1.272012405909040854e-03,1.213222745136650731e-02,6.593506932258605957e-01
4.609577403897749392e-02,-4.025948462800692518e-01,2.107416358315486460e-02,4.474220757467085169e-02,4.421703173554831882e-03,3.499950971803057059e-02,4.477293193340301514e-01
1.770078227492657419e-01,-6.442746535561281185e-01,-4.391662658889960991e-02,6.760776550516614525e-02,-5.914276212022108459e-02,2.048392361194820710e-01,8.318380117416381836e-01
1.150729282149483002e-01,-6.013116635605824101e-01,-1.866077542139993328e-02,-1.913766917553830563e-03,3.353910241793775092e-04,-4.670087296514171572e-03,6.598208546638488770e-01
7.205465786676731876e-02,-5.707181754467655077e-01,5.745970592503996111e-02,-5.198562776580613505e-03,2.001005360269720451e-03,-2.161893235685266590e-02,6.367762088775634766e-01
8.822459132644761004e-02,-5.827729770953233857e-01,6.607254767984671595e-02,7.957125677764272879e-04,-2.780292126732268523e-03,-1.990217441300911466e-03,6.602283120155334473e-01
5.831359772923039309e-02,-5.994569118236630079e-01,7.722635929051527293e-02,-2.074497138768753232e-02,1.555758200748753037e-04,-8.403756654092851570e-04,6.683959960937500000e-01
5.723153281140008763e-02,-5.858531166499409970e-01,5.428399085313728722e-02,2.200948191826812561e-03,1.296522026044551754e-03,-2.575122442604072751e-03,6.416467428207397461e-01
8.111956606684478377e-02,-6.632397531448593897e-01,-4.150533919565935204e-03,-2.382317942419631338e-02,-1.083263353596149586e-01,-1.908532431535021195e-02,7.320309877395629883e-01
8.547328443252152907e-02,-6.288520500620934373e-01,8.106651286587671090e-02,-1.982138989774626936e-01,1.123763558689280517e-01,1.504086912803931364e-01,8.548403978347778320e-01
-1.997780725472786401e-02,-5.969378342394162651e-01,1.138348169291508727e-01,-2.933395296629664507e-03,-7.498356148173864963e-03,7.685255056088705072e-03,6.544958949089050293e-01
1.499765942348836867e-01,-4.943142410137478793e-01,2.254012993845319612e-02,-1.383223490422029467e-02,3.953178721291713410e-02,-1.371586725410120500e-01,6.410494446754455566e-01
6.854523856827629547e-02,-5.999094228511128168e-01,7.373765787504010794e-02,-1.242431584800260391e-02,-7.743931909578527853e-04,-3.481608493083250197e-03,6.714392900466918945e-01
7.822561222049373431e-02,-5.854923665783973163e-01,6.080952377323406433e-02,-2.281149897027874834e-03,2.478930278656365192e-03,1.521759743136149538e-03,6.552148461341857910e-01
-3.377651837601003404e-02,-6.004623613714192842e-01,1.266534588851637166e-01,-1.778170708368615927e-05,-3.686441294825685069e-03,-7.417643353279118439e-03,6.618080139160156250e-01
8.267917390666951194e-02,-5.488670387922084393e-01,5.355031059265394355e-02,-1.047331918390853904e-03,-1.167194112427224865e-02,-2.141082147188708151e-03,6.178418993949890137e-01
9.077587320697991236e-02,-6.053830640015482878e-01,4.179329431591830013e-02,3.934649007376828447e-03,-3.921597369909219331e-03,2.350987046994063370e-02,6.743052601814270020e-01
6.666800197712624554e-02,-5.952419543162681403e-01,7.265598221639299470e-02,-9.035026139704221970e-03,-1.024476587375401215e-03,-4.761004666547731176e-03,6.651617884635925293e-01
7.531927565658236290e-04,-9.228907820673647455e-01,2.643668748489933495e-01,8.354303581775598952e-02,7.643828859071727377e-02,-4.520765175752832626e-02,1.100315213203430176e+00
-6.386490700249602970e-03,-5.997370334950489212e-01,1.158609083780730020e-01,1.466459731000913612e-02,-3.242056865345840661e-03,-6.290763857693928464e-03,6.635813713073730469e-01
7.984961894923559012e-02,-5.912314143071021322e-01,4.241126813452841815e-02,-5.152879906152548796e-03,-1.691238648351582998e-03,1.673377363727868161e-02,6.538773179054260254e-01
1.086039075251367669e-01,-7.664500359829440335e-01,5.699295777941920660e-02,1.211297431161688920e-01,-1.054047250985239575e-01,1.303229021976493041e-01,9.227787256240844727e-01
4.838993428462712298e-02,-5.586779650115161200e-01,8.871495453544459009e-02,-6.523781534497914009e-03,-4.971432919563673926e-03,-2.946448488499986765e-02,6.304314732551574707e-01
5.737284848625084921e-02,-5.532535529480950842e-01,7.777928038703879610e-02,-4.296797515465109601e-03,-1.080609766857721130e-04,1.114073606975639515e-02,6.214253902435302734e-01
3.618252050592796198e-03,-8.401503422131442189e-01,2.255812600917060373e-01,-1.116608133333166913e-01,-1.300129779447278290e-02,-3.482660480564982869e-02,9.950118660926818848e-01
4.326624005448082011e-02,-4.640869029607708751e-01,6.080061169596726045e-02,1.750751624647544497e-02,-4.766804837779027061e-03,-9.739419024728179775e-02,5.441097021102905273e-01
6.821180694391040800e-02,-5.814337306286616602e-01,8.216495744114069022e-02,-2.711895265353976396e-03,-3.463121172867105607e-03,-2.361869749731781922e-04,6.567776203155517578e-01
-6.356764801292630329e-03,-5.964165480041866418e-01,1.086033746938971367e-01,1.045610389558346634e-02,-6.372097440839597643e-03,-6.793354178345777962e-03,6.555974483489990234e-01
4.513890513954957329e-02,-4.301705909095138725e-01,4.510344180605616038e-02,6.796592974627729822e-02,-4.958751581694611707e-03,-3.403455896900087901e-02,4.932638108730316162e-01
8.474447397111267710e-02,-5.760629291540384500e-01,6.249868597441252116e-02,4.131886080246067799e-04,-4.324946099111874609e-03,6.705279843821790407e-04,6.500146985054016113e-01
6.940545669723194311e-02,-5.925972759747424323e-01,4.943469210033835104e-02,6.984765104768205814e-03,-2.024998463088550655e-03,-3.423827468586116037e-03,6.523952484130859375e-01
7.688712925580015733e-02,-5.124761016484598031e-01,4.871490355673158135e-02,2.036020794113461638e-02,-9.119243302405504251e-03,-3.429243349674544750e-03,5.771198868751525879e-01
7.379456892576521931e-02,-4.975173521412519229e-01,4.051813746402369021e-02,-8.187240466243283707e-04,-8.438972658904747917e-03,7.247123263042141951e-04,5.556173324584960938e-01
8.767994292690756142e-02,-5.816551369986207032e-01,6.451971078215132382e-02,4.019664481032420543e-03,-2.151726298539999218e-03,1.503658470427870217e-03,6.581132411956787109e-01
2.555338502100429343e-02,-3.810046716457795579e-01,2.085226861638289630e-02,1.492064770895730128e-02,-9.672177225509621945e-03,1.834776919703804852e-03,4.054120182991027832e-01
2.368838148350933814e-02,-2.286621964613248237e-01,-1.627490510793456330e-02,-1.477934279736007293e-02,-2.182644190837676468e-02,-7.622838544333093713e-02,2.733311057090759277e-01
7.827794431617918214e-02,-5.670872180408073060e-01,6.429710643075248200e-02,5.214631756628616485e-04,1.202290235437552006e-03,-4.472210134162958421e-03,6.385405659675598145e-01
4.986889189111332055e-02,-5.632309963367458927e-01,9.612779770755588982e-02,-1.960613871120391906e-03,-1.818588333449064473e-03,1.022759169277367292e-02,6.377522945404052734e-01
9.067796922286094907e-02,-5.997182390013475750e-01,5.973369600759168008e-02,-1.032072143917987534e-03,-4.413525450126129686e-03,-1.246160540382247259e-02,6.758462786674499512e-01
-7.100697269173001161e-03,-3.009322791740825370e-02,-1.427462342011311461e-02,-1.406689314644919177e-02,4.135991753744885403e-03,-3.646961062414130067e-02,7.106492668390274048e-02
-5.074102279694514550e-03,-2.788328754835363021e-01,-5.237312134385593843e-03,-7.870810407895471525e-03,-7.378970896645075349e-04,2.486876946119963901e-03,2.740533649921417236e-01
1.511109932758036289e-01,-6.629178342134998125e-01,-2.416609313130091419e-02,1.545649162784355074e-02,2.821484380459932106e-02,-1.715518438940636659e-01,8.012986183166503906e-01
6.308692100440621564e-02,-5.668511633298980446e-01,7.493937684912574393e-02,-3.124483785250988747e-03,1.824393545596298717e-04,3.300087382343621766e-03,6.359959244728088379e-01
7.736838792673039755e-02,-5.932202667867065848e-01,5.385589999356860114e-02,-8.749013259039716472e-04,-4.442467191669568528e-03,3.843028447998238922e-02,6.625458002090454102e-01
4.596652271551035507e-02,-5.436231223088565656e-01,8.936776735155210760e-02,-3.143604454245349164e-03,-5.548100965144310212e-03,1.025610503892358284e-02,6.128018498420715332e-01
8.944541467695005243e-02,-1.811680961775499754e-01,5.419784690214611567e-02,2.642336260954578162e-03,4.171631176656098033e-02,-5.683217583438056331e-02,2.826074659824371338e-01
4.858103852567102754e-02,-5.899551348638402137e-01,7.701836822891483525e-02,5.592317286539015900e-03,3.856464974552777005e-03,-1.990869411502354473e-04,6.533253192901611328e-01
6.244008553763416569e-02,-5.740495957742236532e-01,8.614733333264704140e-02,-7.068934838792425082e-03,-4.342670378941940190e-03,1.901863102275761983e-02,6.496631503105163574e-01
7.223493711135259288e-03,-3.035409834874467361e-01,8.955104739529790026e-03,4.753886882669577929e-02,-5.782374149423140375e-03,3.806820510731145999e-03,3.225512206554412842e-01
1.547895279985889161e-01,-6.725066215009851689e-01,-2.109228421769929196e-02,-3.029623052741753711e-02,3.644328143929626007e-02,1.756506897328749192e-02,7.599411010742187500e-01
7.255728739508507386e-02,-5.875423141522654324e-01,1.516565744254863568e-02,2.105222082699029391e-03,-8.763913452135976140e-03,1.535601536953714284e-03,6.335549354553222656e-01
5.725883952564256307e-02,-4.405336270607008720e-01,2.854298140456287824e-02,3.879458123925150909e-02,-1.462457138118389982e-02,1.646168206464260122e-03,4.893794357776641846e-01
2.715876002121933586e-03,-1.359840144359709957e-01,-1.704098334732007808e-02,1.519859179734968715e-02,2.910960987525640885e-03,-5.348370511602378030e-02,1.618259847164154053e-01
6.582850463944031616e-02,-5.964168309273052415e-01,7.083863697421866057e-02,-1.420568982357177086e-04,6.574747447472388279e-04,6.272579275483629313e-03,6.648543477058410645e-01
7.481176893936675176e-02,-6.122395960188771191e-01,2.009481659168724232e-02,5.490182832639967092e-03,-4.493481212616754622e-02,6.605941793016325940e-03,6.661223173141479492e-01
3.962415005564751125e-02,-3.841810599822265693e-01,4.134362110437800331e-03,3.436112861769555736e-04,-4.844037715646253885e-03,-2.394379391205204381e-03,4.073297977447509766e-01
8.282694756733482988e-02,-5.825170124261197513e-01,6.799949023267665149e-02,1.574067060847695329e-03,-5.401907147392341450e-03,-2.121579202602902076e-03,6.581379175186157227e-01
5.583426683853559558e-02,-5.447132132372705104e-01,8.192876375310267911e-02,-4.396124362659291872e-03,-4.049724534901913767e-03,1.579598588759108593e-02,6.147071719169616699e-01
1.411408483664976787e-01,-3.829471078712839982e-01,-6.591789100165917903e-03,-3.713357876819963627e-02,4.301996097630685079e-02,-1.448624478198145271e-01,5.401041507720947266e-01
5.881197426673862028e-02,-9.350429101278883159e-01,2.207005429685436892e-01,-1.740581051697527928e-02,1.203530559391694232e-01,-8.906254390486492700e-02,1.114903211593627930e+00
2.745682800904600263e-02,-6.081686472473568639e-01,9.891492616509695024e-02,-4.633425279046972205e-03,1.283098346293190702e-02,-8.793717893180565473e-03,6.747865676879882812e-01
6.217392743727415128e-02,-4.921698769927806416e-01,4.325279436148257717e-02,2.645060734126067088e-03,-8.983871323809200851e-03,3.195840417503147644e-03,5.453989505767822266e-01
9.851070699712943801e-03,-2.719188641394149064e-01,1.350499758126179339e-02,7.707270846580159540e-02,4.432597117459542127e-04,-6.164204606752084203e-02,3.311459422111511230e-01
8.411266992047111701e-03,-5.985518206244401229e-01,1.000591544203213168e-01,-9.957617396251314951e-03,1.146066920414685495e-03,-5.017669664490059973e-03,6.578809618949890137e-01
2.735890288094094958e-02,-6.450409670632391013e-01,6.187790909213264356e-02,3.140356432785356561e-02,-8.689574221019874534e-02,2.926482334716923664e-02,7.104253172874450684e-01
7.619247373108511967e-03,-6.051389859571691954e-01,1.112601573831779045e-01,-1.028561753195507238e-02,-2.143713567180392278e-03,1.702207051756546166e-03,6.708657145500183105e-01
2.990616551663571876e-02,-1.016746234202482224e+00,2.777630503478216717e-01,-5.906100025261747793e-02,9.157971389210686763e-02,-5.966904162251045196e-02,1.209396839141845703e+00
7.096288795252542192e-02,-5.836508930120355432e-01,7.167826588356823736e-02,-1.325369514108121595e-03,2.997525943914731116e-03,-5.781821259468783621e-04,6.549971103668212891e-01
2.773173390290703533e-02,-2.941743874929977909e-01,7.538227471981850947e-03,6.120959758662763983e-02,2.053264219605381580e-02,-1.336609595645284754e-01,4.045136272907257080e-01
8.820770990410667367e-02,-5.775302425138109097e-01,6.191436010051484806e-02,1.377239352487689148e-04,-3.904073333247805744e-03,1.113601003715369896e-03,6.530263423919677734e-01
2.250052859944595696e-02,-6.551667482759186978e-01,1.211634218988477119e-01,3.035633882153375776e-02,2.441810125284566216e-02,8.914232828473179614e-04,7.351078391075134277e-01
-6.945185869096352771e-02,-6.858413632062794196e-01,1.760600318485271987e-01,1.559834555986759110e-02,-8.211334024524860262e-03,-2.881466079837480959e-02,7.713404893875122070e-01
7.774615869116366373e-02,-5.487124742555467005e-01,6.017786914286762934e-02,2.301882481461095878e-02,1.030702149327371309e-02,1.508965604383329800e-02,6.199553608894348145e-01
8.309528075918201639e-02,-5.457323091015180427e-01,5.386396773040452723e-02,5.577782709792333815e-02,1.462740308250867240e-03,9.730115516290908581e-03,6.225119233131408691e-01
5.331474755060386372e-02,-5.933937460760720928e-01,8.857864634698484063e-02,-1.233546201491493750e-02,-3.983121739559647954e-03,-1.028349747226833377e-03,6.654232740402221680e-01
2.719624660375087322e-01,-1.002422989163293199e+00,-3.769086177611902233e-03,-4.646649510925780768e-02,-5.243333314999473749e-02,4.815319388837461384e-02,1.170632004737854004e+00
1.779043029480489868e-02,-3.607356501671365456e-01,7.328610196710272362e-03,-5.077484922107564080e-03,3.530365217548790766e-03,6.944832824635514129e-03,3.737523257732391357e-01
8.242221321773157694e-03,-5.907067572693014412e-01,1.000319128667007673e-01,1.382435945592099154e-02,-1.969032186723452746e-02,-3.029226698295051003e-03,6.510810852050781250e-01
6.522043467833918418e-02,-5.915393930698602531e-01,8.493297920997158745e-02,2.505696869963493678e-04,1.086089900598723569e-03,-2.544902142372623341e-02,6.682927012443542480e-01
-2.680441922890286488e-02,-6.191641249361679034e-01,9.764908403874761333e-02,2.254891818291648517e-02,-5.482420259187085337e-02,1.336158766672244751e-02,6.716978549957275391e-01
6.416399813864226420e-02,-5.879084032858944431e-01,4.823627258053828082e-02,-5.472084937564057963e-03,-7.760079958806981315e-03,-2.912742950833129528e-03,6.444858312606811523e-01
-1.774465907517153163e-02,-6.236162670180749323e-01,1.256289712694352301e-01,-4.942800097260183212e-03,1.132505265291916183e-02,-7.599592333063360378e-03,6.892994642257690430e-01
-4.149210177199491589e-03,-5.720403804281470883e-01,8.999392739569767041e-02,-6.250412065003951856e-02,-3.597779675328787851e-03,2.150907076982967042e-02,6.308513283729553223e-01
5.419226886764341722e-02,-5.813420408399816441e-01,4.518568581759649372e-02,8.327252668853927803e-04,-2.197668130720996371e-03,1.814080572864289892e-03,6.311001777648925781e-01
3.575423729464510814e-02,-4.381717652668004059e-01,5.093124139507515524e-02,-2.053731782913673781e-02,1.367378654574821252e-02,-3.668405928022754059e-02,4.877421557903289795e-01
5.492815713925819354e-03,-6.070259536397508704e-01,9.678038506664654594e-02,-1.118273548082352083e-02,-2.163768329790195788e-02,4.332983457871406908e-03,6.642770767211914062e-01
2.229017446547493231e-02,-4.329195154243161703e-01,8.830472694424898461e-02,-2.244252756899196843e-02,-4.031417383823295009e-02,-1.875765685090236001e-01,5.946140289306640625e-01
1.429929736765350734e-02,-2.916486429638651678e-01,1.324782922985293099e-02,-3.165145435131118401e-02,-1.340279806458230007e-02,-6.469453604635648503e-02,3.307325839996337891e-01
5.499049853801424304e-02,-5.858834819240563707e-01,5.688881144399957068e-02,1.025166934577723468e-03,7.428651583677597231e-03,-5.294155505611343199e-04,6.419572830200195312e-01
3.842581933180283515e-02,-3.944648618967997455e-01,2.338395761064376854e-02,-5.300448119328542845e-02,7.570530261912699656e-03,-5.933015558542499394e-03,4.356777369976043701e-01
7.217992647928517247e-02,-5.940915295858006928e-01,6.677815358949407143e-02,-5.986074315906237883e-03,2.132544037982077157e-05,-6.885599049209389227e-03,6.637752056121826172e-01
1.024375397419799438e-02,-5.975394922805353781e-01,9.676701255744596386e-02,1.243351596964234647e-02,-3.303320125771837170e-03,2.511556532464186749e-03,6.557359099388122559e-01
6.652463442151410056e-02,-5.957625080413224694e-01,7.970302763161360438e-02,-1.243668848832132218e-02,-7.035073041941890693e-04,-9.624039575721004755e-03,6.695290803909301758e-01
1.801911239760115024e-02,-5.988339104917135280e-01,9.097282311668336563e-02,-1.198452941887696681e-02,3.407397066494780545e-03,-1.807318139588253532e-03,6.567397713661193848e-01
7.866675278548196371e-02,-5.899991099315491372e-01,6.791163281317427747e-02,-1.307224106172603538e-03,-3.000314480153988203e-03,-4.298618672654158239e-05,6.633779406547546387e-01
-9.871216527802678664e-03,-6.995088749804354578e-01,1.473651447841181072e-01,-2.955508055141728430e-02,5.130891437267809385e-02,-2.593124215497964735e-02,7.882227301597595215e-01
9.202611900116081101e-02,-5.854496449249884105e-01,-9.689666960584319977e-03,3.699246977679768525e-03,-1.151505980842207517e-02,4.769037819405864617e-03,6.331797838211059570e-01
4.609552718766976587e-02,-4.408883429971730550e-01,4.778722275815966425e-02,-3.536745819079325365e-02,6.086902546874431094e-03,-2.811756323985424577e-02,4.941816329956054688e-01
5.345211516478456937e-02,-5.854207784649075874e-01,6.663355591696182301e-02,5.574794745844507786e-03,-1.318838039121470514e-03,-3.352860775854802754e-03,6.456668972969055176e-01
3.008515178090920283e-04,-9.944293743450739465e-01,2.632944790472901975e-01,1.696199617518819036e-02,-5.744235160997755024e-02,-6.160999597061372207e-02,1.158624649047851562e+00
4.232907637493293906e-02,-1.025860521321065644e+00,2.206786468578255112e-01,9.019243025212097739e-03,-8.958914438812416725e-02,-3.174373530598247062e-02,1.179277062416076660e+00
-5.168449278132083990e-02,-6.797859519675816253e-01,1.577411853647506246e-01,8.315662632801844312e-02,-6.707675674379261210e-02,-4.691987648341112462e-03,7.773159742355346680e-01
6.972839593160909399e-02,-5.887028101238092059e-01,2.837071333641566495e-02,-5.771180752361680655e-03,-6.496367442666045600e-03,2.348105195382809828e-03,6.389475464820861816e-01
3.447906585805055046e-02,-6.464945215976877213e-01,1.079725323822965377e-01,1.827929457696602089e-01,-9.630163330311339309e-02,8.065027028212844173e-02,8.165467381477355957e-01
5.089558732287724485e-02,-5.799441002779277543e-01,5.186003917245329831e-02,-1.529071675670638916e-03,-4.024757914250805604e-03,7.610325332508053025e-04,6.313678622245788574e-01
-8.728337877450989546e-03,-4.305116662733056154e-01,1.120429859157463237e-01,-1.525208437184057408e-01,-3.731753870842094423e-02,-6.785853149893542047e-02,5.755051374435424805e-01
6.674250138094739437e-02,-5.910781276342502721e-01,6.804714134261086178e-02,-2.222767984812204500e-03,-3.687693100834041771e-04,2.362958159093030489e-03,6.584982275962829590e-01
-1.756039478054591263e-02,-6.149101709422963857e-01,1.140999758616555448e-01,-4.715390806250813367e-03,7.111448847582176568e-03,-1.160410874586017237e-02,6.733727455139160156e-01
-3.958330969902471019e-02,-7.228162452539849125e-01,2.305638517507484497e-01,3.026158708580782564e-02,7.111688524082708518e-02,-4.524117074325215149e-02,8.651130199432373047e-01
-5.961791285770923210e-02,-6.715482126450645906e-01,2.175991160333224372e-01,2.281926279569882199e-01,-2.982648362878551063e-02,-5.049814217433494512e-02,8.874008059501647949e-01
1.593112706867501338e-02,-3.301355921724241083e-01,2.183127782205807055e-02,-3.270030576545474021e-02,1.596254016502808570e-02,-1.911612865975697087e-02,3.562407195568084717e-01
2.645057532292713343e-02,-4.327216420336138514e-01,4.358707064405309417e-02,-2.750548438306199203e-02,9.247362459330762952e-03,-4.509669403701495327e-02,4.771045148372650146e-01
4.471142078501127992e-02,-5.947276865976601767e-01,8.184495583675266417e-02,1.541999599023234635e-02,-3.160754224468651126e-03,-2.618448672599079513e-03,6.593707203865051270e-01
4.247651546554481738e-02,-5.951046628632487012e-01,9.251153037932496881e-02,1.536895586681274670e-02,-2.623415707413292910e-03,-8.760171087643726234e-03,6.647361516952514648e-01
8.275213362101763170e-02,-5.960601073001274841e-01,3.753322577686249439e-02,-1.764746533167433577e-03,-4.216221875387365058e-03,-1.274577764445351293e-02,6.577885150909423828e-01
7.961350679642317796e-02,-5.872574626420614674e-01,6.449539287832772860e-02,-1.028402413472569166e-02,1.156295554188740450e-02,-1.860596747420662986e-02,6.607726812362670898e-01
1.245669184863663070e-01,-6.060206498836855360e-01,-3.228236020151467600e-02,-6.629224798713026674e-04,-8.056748560059572364e-04,5.440623958976198264e-03,6.662280559539794922e-01
2.209731303403350555e-04,-2.845879188559782280e-01,-5.543542063246933993e-03,-2.792483567716686280e-02,-3.368062831081286156e-04,-1.499072812534447442e-02,2.872654497623443604e-01
7.073270377529067288e-02,-5.872424381825374073e-01,3.644144330599277670e-02,-6.910423372158281362e-03,-3.199990992127715699e-03,-5.133038880030265164e-03,6.417144536972045898e-01
1.196218436422571973e-01,-6.076257416583952242e-01,-2.111847186149062860e-02,-2.925114840036372853e-03,7.467117062127155312e-04,-7.325513962064461593e-03,6.682305932044982910e-01
5.857629755298837670e-02,-5.864212398722361552e-01,4.716571065230590332e-02,3.425937844391295593e-03,-3.967423386970076078e-03,3.163906786318486635e-03,6.394565701484680176e-01
2.617128144042492055e-01,-9.859961177284266576e-01,7.850117719226279434e-03,-3.272580317941526512e-02,-5.290283730266003709e-02,7.783497227620216063e-02,1.155102133750915527e+00
7.728394944339794792e-02,-5.881283681689561949e-01,4.410770217645645919e-02,-3.382273332397653549e-03,-2.708682089964681988e-03,7.588247659807959358e-03,6.496363878250122070e-01
6.202994242682752235e-02,-5.927187681596752800e-01,4.596955743719874365e-02,-7.506511313266378983e-04,-8.664814834338820104e-03,-3.912842700444199746e-03,6.470789313316345215e-01
4.027030620001925687e-02,-5.917539582514167451e-01,5.133983668039771020e-02,-1.238960885758093279e-03,-3.054952486891512539e-02,-6.559470473972239899e-04,6.398274302482604980e-01
5.409231787419988002e-02,-5.896251049433585134e-01,5.773295738967179624e-02,-1.946371899664680932e-04,1.086122200998319680e-03,2.327874687893158843e-04,6.455484032630920410e-01
7.886883422342697014e-02,-5.939200447407142480e-01,4.605731577029467672e-02,-5.889043107519320759e-03,-4.201455593716739607e-03,-1.539455895381620400e-02,6.576581597328186035e-01
4.278683802572783024e-02,-5.780739539648849235e-01,4.815195685592146835e-02,1.347028788487480500e-03,-9.415069496771922078e-03,7.543505305761026786e-04,6.237795948982238770e-01
5.939402263611226473e-02,-9.359354642024487747e-01,1.636680644694797349e-01,6.828269148969581814e-02,-1.041770944032766183e-01,3.402913406423820064e-02,1.074877262115478516e+00
1.056146720190334065e-01,-5.959679699520228358e-01,-1.482532609010137059e-02,-3.613191987067465062e-03,6.084620786485687993e-03,-4.371284725693837074e-03,6.499484181404113770e-01
4.141827179392801317e-02,-5.915529976095768028e-01,6.457215804614349630e-02,8.428333386140258315e-03,-1.132372585940590384e-02,1.033498431362054638e-02,6.455715894699096680e-01
5.133803487705285162e-02,-5.923500203496145922e-01,6.660779190753191026e-02,-1.475698634757296535e-03,-1.385969490114342473e-03,6.005219401546028207e-03,6.515496373176574707e-01
5.836211977130301154e-02,-5.973952688589576621e-01,7.160964309530704064e-02,8.043496944550863545e-03,-2.873066048743805508e-03,4.779824891572222526e-03,6.626973748207092285e-01
9.351920555340892394e-02,-6.058118609698809331e-01,1.630816565498868775e-02,-9.003864824520160792e-02,-3.634977764311510262e-02,-1.149937092708936681e-01,7.134317755699157715e-01
1.319868560453463235e-02,-5.961586238785943070e-01,9.251574856222410936e-02,-5.120240257860713545e-03,-5.798148336066509187e-03,6.285424551677829680e-03,6.528690457344055176e-01
2.409093760677599172e-01,-1.000562106788367878e+00,5.603321695847279793e-02,-4.964419105647598085e-02,1.112507106390198813e-01,-3.901935988677010525e-02,1.181102633476257324e+00
7.376449284180158772e-02,-6.071116398004900994e-01,7.658546803350679832e-02,5.505535532326905415e-03,9.654094664678111379e-03,-5.288296239707975313e-03,6.826239228248596191e-01
5.747846473458093075e-02,-5.831022035358248701e-01,3.442025269404000443e-02,3.945985157360582841e-03,-2.956821794956285797e-03,-3.195917606864942789e-03,6.294507384300231934e-01
4.863438887956594847e-03,-5.948343727024067995e-01,9.195782422255599498e-02,-3.665993387162235634e-03,1.673040200176786549e-02,-1.841956629341931278e-03,6.483389735221862793e-01
5.169314491261353672e-02,-5.449135724574982742e-01,7.608462887321326695e-02,2.201365319655178461e-03,-2.318289187226138092e-03,-2.304643465875082578e-02,6.105003952980041504e-01
-3.440913647644872064e-03,-6.045540063290992805e-01,1.038827419157266063e-01,1.033419818726123880e-02,5.669327398381273329e-03,-8.297191798062753670e-03,6.618098616600036621e-01
-1.593588483454306398e-02,-2.302581334892647991e-01,2.188879534268965699e-02,-2.110661259175562396e-02,-3.297397513316703468e-03,-5.912397564167096164e-02,2.594752907752990723e-01
7.403437250978986417e-02,-5.938275891574520404e-01,6.243426099902577020e-02,-7.856405197813042321e-03,-1.141904581107497228e-04,-1.059250911179446947e-02,6.625320315361022949e-01
5.068790381599905248e-02,-5.505130421352724124e-01,8.564655211296934301e-02,2.569546793904053418e-03,-7.546318046120913288e-03,2.162204493987314306e-04,6.195745468139648438e-01
8.298922765885807795e-02,-5.666147992130936561e-01,3.105969806116662402e-02,-4.607668215766254566e-04,-3.531388251030290627e-03,-2.004618105772812756e-02,6.262523531913757324e-01
5.294908031730297115e-02,-5.578198572595927107e-01,9.018310729190867625e-02,-1.264006217105033631e-03,-1.503316470387776891e-03,-1.412156553161624667e-02,6.306951045989990234e-01
1.780766823103638319e-02,-3.966304248827743351e-01,3.730222319860418412e-02,9.938417919107521165e-04,-9.889831955358925619e-03,-4.648203086644826093e-02,4.324307739734649658e-01
6.969933782554216251e-02,-5.930015366509979735e-01,4.891467977957036917e-02,6.869459937726858471e-03,-2.330527090275965729e-03,-2.916942903617224074e-03,6.526973247528076172e-01
6.133593151942728916e-02,-5.686142226848315273e-01,8.395795013332485457e-02,-4.684287359870251848e-04,7.578157829455089110e-03,3.325281482226149447e-03,6.417209506034851074e-01
1.261716361739689818e-02,-3.618908310633592307e-01,1.867791162552082107e-02,-6.468950118743129266e-04,-1.467785779055919698e-03,1.482156885636780374e-03,3.775938153266906738e-01
6.933525320896133382e-02,-5.826997769834820762e-01,7.912715021779115343e-02,1.673525518284998828e-03,5.694152095104542365e-03,8.886655425325657104e-05,6.570661664009094238e-01
6.479193407952521522e-02,-5.892454660494446106e-01,6.745089789970770688e-02,-4.273776374860289301e-02,-1.513080208085785909e-02,-3.275428827434541390e-02,6.624922156333923340e-01
1.143056210897644420e-02,-6.773345126128076377e-01,1.644809808637649473e-01,-1.066738032690810467e-01,-4.880871052511671915e-02,-3.657990954066460410e-02,8.053176999092102051e-01
6.490255316522683393e-02,-5.725275827615832203e-01,8.340285174992725925e-02,2.549258682401294319e-03,2.574547669069028426e-03,2.333516408988727756e-03,6.469218134880065918e-01
6.938186234935159180e-02,-5.812995695822310571e-01,8.156335049990093289e-02,1.236560202046691056e-03,3.805248124987447265e-03,1.283753892210514561e-03,6.568971872329711914e-01
7.577809988030606569e-02,-5.979627750853653279e-01,4.917712379686833835e-02,-8.478519233261453888e-03,2.637814770100136482e-03,-4.882795184033981301e-03,6.610751152038574219e-01
5.643041466819487262e-02,-5.846056888116315520e-01,8.476062740090692382e-02,-1.978032216700744209e-02,5.504749436042478267e-02,-3.104599598515066922e-02,6.656174659729003906e-01
6.498029753501485817e-02,-5.753136068900337463e-01,8.754573685237904135e-02,-1.567200171270724746e-03,2.142916692956766539e-03,-2.127748377544621920e-03,6.518962383270263672e-01
4.402781803089680923e-02,-5.789687112000694302e-01,4.839511666706983184e-02,-1.076310907338547855e-03,-7.949368197329423694e-03,7.141919926926928921e-04,6.253471970558166504e-01
6.283899333520465147e-02,-5.673263387904289301e-01,7.300247376428353752e-02,1.518812910873145253e-02,-9.424816626056643082e-03,-1.682920879991837287e-02,6.367295384407043457e-01
7.674126690302646159e-02,-5.926123729487944303e-01,4.803808959215652430e-02,-4.514324622996183402e-03,2.054047172164442242e-03,-6.474888514955266620e-03,6.556257605552673340e-01
1.521234338366433958e-02,-3.395021235445928598e-01,2.032543295874433831e-02,1.663169481473892371e-03,9.836729256744078040e-03,-5.588078575845763923e-02,3.705789446830749512e-01
3.717350140368425038e-02,-6.467253249375064517e-01,1.468484019359756476e-01,-6.018814367121334136e-02,1.133631000717982701e-01,-1.130798459790934296e-01,8.015829920768737793e-01
4.262278532183680357e-02,-5.409672322367549135e-01,9.315047205062165769e-02,4.869299407254746963e-03,3.313052137557827032e-03,-7.058380527618341544e-04,6.105107665061950684e-01
5.110753163150696943e-02,-5.421315010215330688e-01,8.022001912645168598e-02,2.852152860414223362e-02,8.480258601568575402e-03,5.708289708113521710e-02,6.184515357017517090e-01
6.921628881823330137e-02,-5.812008413286844366e-01,7.425562220746242947e-02,-2.083657528310507365e-03,4.956833934801557241e-03,3.261622789240195813e-03,6.530422568321228027e-01
8.000892136966161750e-02,-5.915874035538501996e-01,4.479038569022944505e-02,-8.170624903080046103e-03,-5.932284398379232505e-04,2.171119185956670028e-02,6.559304594993591309e-01
8.585194139125662538e-02,-5.783700596335860089e-01,6.317438953285231529e-02,-4.861579108482984518e-04,-3.125756295887396549e-03,1.085290700220058625e-03,6.532042026519775391e-01
2.952620309623926742e-02,-4.036475293682253440e-01,3.288419796848107701e-02,-1.065862164219221224e-03,-1.236417162895577480e-02,-1.451127715092055855e-03,4.354006052017211914e-01
1.544796359543341713e-01,-6.243553031588308100e-01,-5.049403213522861422e-02,-1.705995821375129798e-02,2.508572113157097466e-02,-5.821605606964255428e-03,7.012988328933715820e-01
-1.618331641196699144e-02,-6.914171483917300742e-01,1.484775627800979381e-01,1.303572644026885184e-02,6.860136254716063531e-02,-3.203543001433139387e-02,7.822694778442382812e-01
5.249111721804383679e-02,-5.982501958034907030e-01,8.440516370780498656e-02,-1.891285981775246011e-02,6.886495642589110251e-04,7.507863547278293900e-03,6.682021617889404297e-01
6.127556712744236522e-02,-5.639220907586974807e-01,8.500132082467171113e-02,9.078604378038075554e-04,-8.803849194446074569e-03,-1.671813067443919231e-03,6.375827193260192871e-01
5.779072171327664931e-02,-5.336235117286228791e-01,5.056332865845455937e-02,3.171128046862588257e-02,-1.137561705511665883e-02,4.752552509101167638e-02,5.964307785034179688e-01
4.212217464405784706e-02,-4.019180230578030533e-01,3.336587039339561356e-02,-5.098440777286288722e-02,-1.577499419179294662e-02,-1.043690289405105028e-03,4.493420422077178955e-01
1.380034704734136586e-01,-4.331806654611739527e-01,-1.967945970612119955e-02,-8.983073851680985558e-03,-3.676624628082159063e-02,1.730008111833769846e-01,5.959315896034240723e-01
4.823655610057994703e-02,-4.937850553713352131e-01,6.293361672170599830e-02,-5.387915213996054015e-04,1.735913506466359515e-02,8.342045027864869889e-04,5.503422021865844727e-01
1.117841138431877046e-01,-5.435339570240516061e-01,-2.676840053023091248e-02,1.783236353425718054e-03,-2.861165227970906277e-02,5.471301273463673176e-02,6.076911687850952148e-01
4.677724291831808490e-02,-5.838908999643307451e-01,4.498985769982441485e-02,-2.087713233638308075e-03,2.238171698088970915e-02,-2.836147950915848467e-03,6.309978365898132324e-01
6.983390726485078082e-02,-5.911810720714104628e-01,6.971294971501795779e-02,-6.076331092728210446e-03,-7.556786459204426452e-04,-5.594786042643478188e-03,6.611106395721435547e-01
-1.045259407602819324e-02,-2.542442260083542793e-01,-1.105449940334812808e-02,4.533593876826058741e-04,-2.251860058968285176e-03,3.519003657675016158e-03,2.436000108718872070e-01
1.919053345747465111e-02,-2.214177058366274542e-01,2.957447893724422794e-02,6.008586388879020440e-02,1.767758824413716637e-02,3.826229532613571738e-02,2.768737077713012695e-01
1.987960325603280731e-01,-7.009713927371142850e-01,-6.912770988648828108e-02,1.883808321705704447e-02,-4.713602295314358454e-02,2.729693065432000632e-01,9.335749745368957520e-01
3.972601195352223891e-02,-5.060807858682870863e-01,7.735021690646196046e-02,1.905114899286037688e-04,-1.046400850008143320e-02,1.762422833496358685e-02,5.666715502738952637e-01
1.755589947579466736e-01,-5.856207820366127192e-01,-8.417753788641568757e-03,-1.502089068871388655e-01,9.145991357132055022e-02,1.654173325525992444e-01,8.050306439399719238e-01
1.996855415258846911e-02,-3.547780421707200094e-01,1.680386534922140296e-02,-1.017432054029560051e-01,4.478236632194158157e-02,5.800534734976586088e-02,4.317688643932342529e-01
6.864623260039370845e-02,-5.646450543210878026e-01,7.227261568535056635e-02,-4.081949638849206689e-03,-5.675203048218218672e-03,7.155048819030089199e-03,6.353485584259033203e-01
6.266934450358335740e-02,-5.871771187287169180e-01,4.215660744068447374e-02,-4.633207329890572622e-03,2.457649285859085219e-03,9.852482126566473473e-05,6.399012804031372070e-01
6.133176372812038091e-02,-5.820652893318851717e-01,3.391786487561915253e-02,-1.255949017937881560e-03,-6.225867211663148326e-03,3.930967656040766471e-03,6.302703022956848145e-01
6.374782110117058198e-02,-5.734717719206562370e-01,8.393434328577581427e-02,-3.158852937000711583e-03,-1.455205652890245987e-03,1.490502074794850104e-03,6.475820541381835938e-01
8.644439241721860179e-02,-5.657251891186441117e-01,6.066828006293353837e-02,-1.370356231928064605e-02,-7.800540493825450054e-03,2.701723880588976796e-03,6.402710080146789551e-01
4.099844527082677215e-02,-3.837938306912781483e-01,8.468723453240717403e-02,-1.791025658552004296e-01,7.404833240505788450e-02,4.067663126328697337e-02,5.644131898880004883e-01
4.201678421404378416e-02,-5.850368850411320487e-01,6.378875451973342603e-02,-1.387565911758262098e-03,3.697038163009497107e-03,-4.469357472582720543e-03,6.383018493652343750e-01
5.044059066816999892e-02,-5.628462209984483877e-01,9.319109756249507881e-02,-2.327394868597967847e-03,-1.569639538886648906e-03,9.040574767875160381e-04,6.357615590095520020e-01
1.607714566553267166e-02,-5.888718680885962620e-01,8.660873363581383932e-02,5.740293111071281991e-03,-5.746846988104085431e-03,4.296327975142835579e-04,6.432763934135437012e-01
5.274920910898223125e-02,-4.768944249040638073e-01,5.189373409215816690e-02,-4.515833740436762250e-02,-1.713607726949303725e-03,2.746710690984382683e-02,5.370846986770629883e-01
8.202508939402050614e-02,-5.913487958854546367e-01,6.810893369792248020e-02,-9.847507776689128078e-03,-1.922236809900827086e-03,-3.666033376307467357e-03,6.667815446853637695e-01
1.159347051442908283e-01,-2.623838635102071493e-01,1.086949791904284757e-02,-3.730331594214586488e-02,2.231796518701130091e-02,1.215669897031828733e-01,4.054873585700988770e-01
6.216547352557119654e-02,-4.635739719473881970e-01,3.600865878354753136e-02,1.444017093668602952e-03,-1.263250573131053343e-02,1.800838286155307484e-03,5.136430859565734863e-01
8.353222484465416819e-02,-5.902287358093596392e-01,6.615936769755126345e-02,-2.858633273665624197e-03,4.524401469026884115e-03,-1.667322878837518762e-03,6.653155088424682617e-01
-4.472018516141387789e-03,-3.127833184228634433e-01,1.815948613301346382e-02,1.733093722583883790e-03,-9.314707430506139613e-03,4.893881730755849507e-02,3.316623568534851074e-01
4.971408163365659272e-02,-5.584588370604868235e-01,9.376428453028745613e-02,-2.009973542468207041e-03,-4.767356996361399248e-04,2.622783038544101997e-03,6.313781142234802246e-01
1.229468060321767253e-01,-2.493269844224829113e-01,9.195633665256490452e-03,-1.547649923489518783e-02,1.184761392472209046e-02,7.578208472600876655e-02,3.571399748325347900e-01
5.332482754421344340e-02,-5.806191394234185843e-01,5.340131959297744757e-02,-2.350264327556899919e-03,1.187859890788312293e-04,-1.506873415493335637e-03,6.340007185935974121e-01
5.827614127054420168e-02,-4.391732799116663255e-01,3.710143623708836436e-02,5.586209638664117738e-02,5.486282319107150737e-03,1.752836018491230703e-03,4.968220889568328857e-01
1.760017831590053594e-02,-3.142935036028399187e-01,8.509132099049354636e-03,9.510525426566211749e-02,-2.409733155043091487e-03,-2.988632669708163325e-02,3.702037632465362549e-01
9.117389930053579339e-02,-1.528380284610579287e-01,8.992254860253227899e-02,-3.328582823683713665e-02,2.509357856982116428e-02,2.705605447101391489e-02,2.581608593463897705e-01
7.429149379314536894e-02,-6.125805317733050703e-01,7.955977337653052928e-02,4.571611735020018191e-02,1.623925224364017664e-02,-4.795538323906219091e-02,6.995711326599121094e-01
8.104888335986429326e-02,-5.957322551720798387e-01,2.646886059021538729e-02,-4.156629074243529628e-04,1.516288246991813818e-02,-1.078263833440896817e-02,6.520061492919921875e-01
4.789120589811951545e-02,-5.830478793938193016e-01,5.331683720400592907e-02,-5.842190064492691496e-04,8.314403756089371392e-03,8.591536552073117785e-04,6.338354945182800293e-01
7.083589489017169671e-02,-5.963873612652517142e-01,3.764846098262475405e-02,-7.015046888394845144e-03,9.099312041973962525e-03,6.620942016586705420e-03,6.516689062118530273e-01
7.796762248970401377e-02,-5.664307515601683107e-01,5.701521179972521280e-02,1.293628902354163404e-03,-2.055699170683686610e-03,-7.030477061762603966e-03,6.343126296997070312e-01
-1.003988629613947192e-02,-2.675099547312539405e-01,8.413944977528106661e-03,9.229251314586973606e-03,3.571500394683884121e-03,2.658052014332577123e-02,2.716543078422546387e-01
-7.043788389332589217e-03,-1.990739882484962309e-01,6.809576575185974368e-02,1.086427183907930361e-01,8.292585101517086291e-03,-5.550771200299328689e-02,3.190767168998718262e-01
5.647378535882108253e-02,-9.361166118798224245e-01,2.005833912088321180e-01,1.680682064055988578e-01,1.235280404462661408e-01,-1.259819578582924704e-01,1.152032017707824707e+00
-2.307325237274319985e-02,-1.639244308950946749e-01,9.920721547015284858e-02,6.838208104649602659e-02,-4.474651417988832411e-03,4.522799669563950381e-02,2.687750458717346191e-01
7.548638155781201009e-02,-5.887935691736236876e-01,4.842534771699832929e-02,-4.482471660818973351e-03,-1.981284944616740554e-03,1.074543685290351748e-02,6.514925360679626465e-01
9.296458085964515172e-02,-5.627695791043366702e-01,5.117942799645211482e-02,1.520574158023703208e-02,7.809300001381897123e-03,7.909219900522226551e-03,6.367084383964538574e-01
7.141477756270264710e-02,-5.858407009854271763e-01,7.781232556576619941e-02,1.382599736384594938e-04,-3.901879467753147871e-03,-2.812708225620333055e-02,6.623063087463378906e-01
-2.869520229071290118e-03,-2.904425762296806157e-01,-5.061467887413934053e-03,9.284772161064201203e-04,-8.669777536138962258e-05,-1.490074457422805275e-02,2.876480817794799805e-01
6.501936009752465329e-02,-5.858017935664723286e-01,2.631803740178020878e-02,-3.611364757769653603e-03,1.390212920421495489e-02,4.880154459656309155e-04,6.328490972518920898e-01
1.721998641272162039e-02,-2.245895265176037769e-01,9.444197016678193557e-02,7.612924579043114925e-02,-7.487143973827800440e-03,-3.934499679201425293e-03,3.173478841781616211e-01
-2.081250946947942049e-02,-1.592659033829875101e-02,-7.023243093730205215e-03,2.343208050769812409e-02,3.207192535956562753e-03,3.900349916013142598e-02,7.992813736200332642e-02
2.033097780979656322e-02,-6.014500077662467969e-01,9.618296688501876135e-02,-8.313564268672836433e-03,3.226018432834937364e-03,-3.545916351446083692e-03,6.631777286529541016e-01
2.549629954611720706e-02,-5.679528715929442750e-01,1.264195464747748243e-01,1.440820804470520078e-01,9.976606192021393593e-02,-1.308413635460864144e-01,7.521684169769287109e-01
6.860057214420289817e-02,-5.962141478481732815e-01,7.794550873935868207e-02,2.360555947039394246e-03,3.972217178545378244e-03,2.785349748494941706e-03,6.696013212203979492e-01
9.699212475837348801e-02,-5.620572890475228345e-01,4.771596134620248453e-02,5.008829362692765810e-03,5.613720938982605640e-05,7.866483025753804757e-04,6.359056234359741211e-01
7.382845941793914069e-02,-5.961701032091220043e-01,7.071996201215410838e-02,-1.886656097501031130e-03,-9.389940407757496003e-04,-4.625981033794366974e-03,6.685076951980590820e-01
1.285758542554022998e-01,-6.251881005287882598e-01,-1.998277074809920451e-02,-9.716918445696632115e-03,1.273809165349569332e-02,-5.118531420521932980e-04,6.921144723892211914e-01
8.379993279439909570e-02,-5.858357682009949219e-01,6.607243826837910783e-02,2.907860597228205651e-03,-1.827186237176516882e-03,-5.763604987218546574e-04,6.609777808189392090e-01
-3.033596504610375222e-02,-5.931586333909533160e-01,1.146241306306720609e-01,6.281063222017360149e-03,-7.748108326573844434e-03,-3.897556148662638994e-03,6.478530764579772949e-01
6.495858734878140472e-02,-5.841986873096245425e-01,7.650886317647567769e-02,-1.525865903248840470e-03,7.171451938172830783e-03,-3.231192039175869932e-03,6.551557779312133789e-01
8.229804244241870070e-02,-5.769505207939154001e-01,6.716643263101343408e-02,-4.434695368771597243e-03,-8.713407081048419114e-03,-9.333436595128736732e-04,6.520364284515380859e-01
7.477946044033836892e-02,-5.886628080638263150e-01,7.912114336552694693e-02,3.839088465975185678e-04,-2.274484044263426485e-03,3.111657740282597470e-04,6.656359434127807617e-01
6.877115916808226870e-02,-5.946100172028919717e-01,7.343323935245582579e-02,3.583321477844692189e-03,1.815321870199446521e-04,2.158526269389250078e-03,6.657639741897583008e-01
1.178584322972590637e-01,-6.107052557121501746e-01,-2.384915102758078387e-02,-9.420331381098717358e-03,-6.296579951619457778e-03,-6.650883804457240200e-03,6.694482564926147461e-01
5.493855802079100625e-02,-5.803938663038744616e-01,3.998540668447120305e-02,-1.378881461373683386e-03,-2.179553855628495879e-03,-1.080255809426087588e-03,6.280080676078796387e-01
1.103858626072863891e-01,-6.010235633115177389e-01,4.695936906072284422e-04,-3.812311903596576554e-03,-8.622046521945745919e-04,1.459615207842264277e-02,6.638331413269042969e-01
7.549720627103556625e-02,-5.949401458752157090e-01,7.044602692420554035e-02,-5.022572776277484455e-03,9.929125596002390253e-03,3.934635250344262376e-03,6.682388186454772949e-01
1.294841318945522679e-01,-8.308600755230601820e-01,3.823418558980906656e-02,1.290783998105641261e-01,-1.179156657784792561e-01,1.835536726208747693e-01,1.017707228660583496e+00
7.241840218301814902e-02,-5.864704014402499777e-01,7.548747777149866778e-02,-6.446211356534822150e-04,9.772546939878150145e-04,1.435319870946909866e-03,6.604365110397338867e-01
-2.564066554399449527e-02,-6.934834883301657094e-01,1.592133400936336929e-01,3.077440947888402181e-02,-2.073316942875423272e-02,-3.016709066212030013e-03,7.796130776405334473e-01
9.610453553428999207e-02,-6.857610549822941159e-01,6.344176972104947909e-02,-5.799607201044137267e-02,6.360478248026933679e-02,3.372159709330628530e-02,7.826120257377624512e-01
6.501775339360219008e-02,-5.791055433578451428e-01,6.873217976076417823e-02,1.095750125838066032e-03,4.017761719710911429e-03,-4.211311701196005473e-03,6.460699439048767090e-01
1.041246122439302146e-01,-6.176043174670227121e-01,4.981382043966531281e-03,-3.117059962625262203e-03,1.616274101965586851e-02,1.594361444395893813e-04,6.782185435295104980e-01
-1.447958375065022674e-02,-4.200935077484277413e-01,8.286367123138266289e-02,-1.192297744523376501e-01,-2.878179463914199224e-02,-2.705436550697051454e-02,5.106959342956542969e-01
1.254165693840264550e-03,-7.674500485601200017e-01,1.770417609979396123e-01,-1.070675910240958123e-01,-2.479861975803553803e-02,-9.476729972321373818e-02,9.056014418601989746e-01
6.856943375455795686e-02,-5.958089764950335043e-01,7.301640594486621949e-02,1.960010437494689658e-03,9.858831219584551688e-04,3.540792099978107028e-03,6.666520833969116211e-01
8.692971169574970070e-02,-5.751012174750412820e-01,6.250933482466222713e-02,-9.351397854694777634e-03,-6.314804805153722590e-03,8.324791268736547126e-04,6.504600644111633301e-01
4.584775937135146529e-02,-6.564328486443318234e-01,2.892609423767811272e-02,6.706218932467181149e-02,-1.105497976503898305e-01,8.707017448560856743e-02,7.446476221084594727e-01
-9.650689827224390172e-03,-5.951581952809035236e-01,9.725288431906337072e-02,-4.333457678481235364e-03,-2.142164837357744822e-02,6.664609939284977212e-03,6.468434929847717285e-01
4.606861865093250796e-02,-6.873641361009240613e-01,1.019295999058075775e-01,-1.145430983576176467e-02,-3.910813702497386440e-02,-2.487724410366458708e-02,7.673675417900085449e-01
6.899826478669043861e-02,-5.688087863167226033e-01,4.966187139715380616e-02,1.716895753187512325e-03,1.473261125478891181e-04,1.919045396753925586e-03,6.283779144287109375e-01
6.689093423267511440e-02,-1.004257627406640374e+00,1.852141047333362711e-01,-1.395771049928205311e-02,-1.130165403636748389e-01,-4.973931936370920570e-02,1.155173540115356445e+00
3.840999453063209668e-02,-5.820028079403086751e-01,5.625968451135393567e-02,3.112073531548513895e-03,-3.410466357375765718e-03,3.108962875182817980e-03,6.296012997627258301e-01
6.298354746487044853e-03,-3.857559701140169661e-01,1.031196582060547873e-01,-2.109409490256715369e-01,5.736340419601541202e-02,-2.601276542547683885e-03,5.868734121322631836e-01
7.726093644403470018e-02,-5.713341604734660795e-01,8.509301697137139353e-02,-2.075493517378674269e-01,1.245093240223426601e-01,8.916580002373640512e-02,7.908263802528381348e-01
5.320364852007075651e-02,-5.579063352252355834e-01,8.889276743208984755e-02,3.560350357214425027e-03,4.914495036204989155e-03,2.730688287196585823e-02,6.315746903419494629e-01
7.543001798493223498e-02,-5.891313838515721546e-01,3.811251516284702712e-02,-6.551561719479550606e-03,-1.615219654752023115e-02,-2.015868248338306603e-03,6.474243998527526855e-01
4.453848760088299774e-02,-5.340918104444061232e-01,8.879396181695339840e-02,-3.558981503428940586e-03,-4.571513570948963594e-03,-4.289231628100925015e-04,6.020634174346923828e-01
7.561755787640550563e-02,-5.817556905431942038e-01,5.185996566236669714e-02,2.503048368695003686e-04,-2.926030570681273976e-03,-4.272866756168354659e-03,6.458846926689147949e-01
4.189433744287873740e-03,-8.279097604639799046e-01,2.201945835224246584e-01,-1.191929258873121872e-01,-1.481613866932288137e-02,-1.815238111656113443e-02,9.813526272773742676e-01
6.702633977072694482e-02,-5.185929199110274057e-01,5.816638510971638976e-02,-9.159300508160800325e-03,-1.361075940722125503e-02,1.482916958364334167e-02,5.825006365776062012e-01
7.201265248151117460e-02,-5.970813772254662810e-01,7.114376769583621862e-02,2.960629082850883918e-03,2.229265635423593322e-03,4.243963894862599721e-03,6.687312126159667969e-01
1.809405793515464489e-02,-3.299577662830971425e-01,2.032012471272455489e-02,-3.726825604199492104e-02,-7.255465460895032430e-04,2.348954632839817674e-02,3.574121296405792236e-01
6.181779806166465274e-02,-5.733972660357280482e-01,6.843839640977716909e-02,-3.097488810159605352e-02,7.585861396260331138e-03,-3.417569439409901683e-02,6.436632871627807617e-01
-1.344426377643456044e-02,-7.344385316617121906e-02,-1.887237405725924674e-02,-4.602692010148635299e-02,-9.821678130360852240e-04,1.379794066133939576e-04,9.829605370759963989e-02
6.375207266776172776e-02,-5.939022342220852124e-01,5.679940716923684296e-02,4.447495878115052988e-03,-5.831782431490574806e-03,3.757764543142799209e-03,6.543613672256469727e-01
4.603131657741815763e-02,-6.387114833294764704e-01,7.261418122972848610e-02,-3.466428627148433750e-02,-3.761519391384071653e-02,-1.000093728295813056e-02,7.042239308357238770e-01
1.013684940014675795e-01,-5.987620914160631802e-01,-1.032868248114632292e-03,-2.536239527455993840e-03,-1.377089872844787727e-03,-1.113623920655605962e-02,6.552644968032836914e-01
6.836549092975222064e-02,-5.776758570966301631e-01,7.386733456145630483e-02,-1.177333184851051678e-02,-1.979173403458402841e-03,3.328736196411047690e-03,6.491647958755493164e-01
6.402457844747905247e-02,-5.883630089409132014e-01,7.918016194117696860e-02,-1.065661396793512843e-03,-1.087844598992027123e-03,-8.216316918122679863e-03,6.602545380592346191e-01
5.639385088414217151e-02,-5.446213600585170234e-01,7.801813178290248341e-02,-4.069054527584340698e-03,-7.587965799542534945e-03,1.698915916378692173e-02,6.130022406578063965e-01
3.366162586104323728e-02,-5.060857621959709007e-01,8.410206558337335325e-02,7.347721841898476915e-03,1.102879423766656153e-02,2.934437993772284758e-02,5.693915486335754395e-01
1.704079754845891914e-01,-6.786448427744662393e-01,6.551428814681486967e-03,-5.557135368716064477e-02,-2.779131787315900631e-02,-1.368555936499714076e-01,8.224273324012756348e-01
6.299079500935791942e-02,-5.597079751272624470e-01,7.642364096732573442e-02,8.946213620991485833e-04,1.272711765542100353e-02,5.562192431732820158e-03,6.299840807914733887e-01
3.555907672034114286e-02,-6.099333984098251893e-01,6.583637868472994037e-02,4.394319016658734117e-02,-8.173265718650332690e-02,-2.498516799815292400e-02,6.817826032638549805e-01
8.071496612032894036e-02,-6.174821209685941170e-01,4.557880780809300814e-02,-2.428004090170252007e-03,-1.097900696048791265e-02,-8.087377406354265968e-03,6.817311048507690430e-01
1.629110003132439033e-02,-3.637022611851004616e-01,1.824773696605244688e-02,1.822070486813362911e-04,-9.935152517317856133e-03,-4.735796211492231621e-04,3.813649117946624756e-01
5.902796993714726215e-02,-4.716630816704448503e-01,4.062356155618188081e-02,4.164286105697029977e-02,8.109340618889666332e-05,6.349623886086878943e-02,5.380542278289794922e-01
5.873769707011003427e-02,-5.792649916699376123e-01,8.227606381352209342e-02,1.598100684460521765e-03,1.358794136269834800e-02,2.627322166944512111e-03,6.505392193794250488e-01
1.240738313773565582e-01,-6.910058206597652353e-01,7.504001925713024712e-02,1.117349163071309770e-01,1.275131397157258928e-01,-1.756864919310654749e-01,8.975649476051330566e-01
4.054478304573286285e-02,-5.135872852340097605e-01,7.984677106142237801e-02,-6.240300176179289530e-04,1.283175435655778233e-02,1.672956935903725101e-02,5.759516358375549316e-01
6.473271857781517924e-02,-5.731727214921219504e-01,7.447014767109158551e-02,-1.875472866282293935e-03,2.866816375706133634e-03,3.899968912241699682e-04,6.428571939468383789e-01
2.350239403577591979e-02,-5.958261942439639913e-01,6.126027666467309674e-02,4.954394041414499419e-03,5.281989852934947105e-02,8.695344293964636304e-04,6.456189751625061035e-01
2.289828821857514130e-01,-8.565008761306523999e-01,3.748288717071973641e-03,-4.462927006080818354e-02,1.694494576071741256e-03,-1.072209818800751446e-01,1.012417912483215332e+00
5.935972909404610420e-02,-5.291379625140653076e-01,7.035316497395277535e-02,1.484039685624310989e-02,3.704983225879347579e-03,1.555088628001449931e-02,5.952708721160888672e-01
8.083765183895683104e-02,-5.916513822076432394e-01,4.417016560980654982e-02,-7.039486056731895404e-03,2.117261341511087695e-03,1.555118729293795965e-02,6.556028723716735840e-01
7.069551644575450267e-02,-4.812881451447978964e-01,2.680798110815410529e-02,1.660699349344331205e-04,1.338830122808920726e-02,1.960803971253503788e-04,5.319067835807800293e-01
1.113690615093403391e-01,-6.164141257644839555e-01,1.219533642815842645e-02,-3.462998063906140480e-03,-3.458848302277548088e-03,9.495992328557125491e-04,6.836676001548767090e-01
7.528370234551493012e-02,-5.844756700297202290e-01,7.794760410956660945e-02,1.840109240513553013e-03,5.554266121840758380e-03,1.225012378172763870e-03,6.611764430999755859e-01
6.690014894815990432e-02,-5.724499887343262872e-01,8.109167676780273948e-02,2.379660485520555422e-05,7.026720772373338218e-03,-1.147418036526992027e-04,6.466773152351379395e-01
7.043993767620235213e-02,-6.326264046033044375e-01,3.858143694579443950e-02,-1.470553758507268070e-02,3.576902448570642296e-02,4.570158584740232309e-03,6.909908056259155273e-01
9.899699146366663927e-02,-6.164874567117804016e-01,1.995688700365247370e-02,-9.820637715410970164e-03,3.234769465292559182e-02,-1.248339434618884677e-02,6.822824478149414062e-01
6.789192545908590004e-02,-5.290316069034854962e-01,2.807380142221210795e-02,2.068134437778093408e-03,-6.592354764042893112e-03,3.423363811900371340e-02,5.812003612518310547e-01
1.048297931375945513e-01,-6.051617962242966664e-01,8.871624729407029397e-03,-1.238518365380232751e-02,8.935272958353276257e-03,-5.031842854921309005e-03,6.677890419960021973e-01
6.121262332687249508e-02,-5.641268637406007258e-01,8.702286991249902348e-02,3.626505330416131007e-03,8.785807827206899845e-03,5.001418809343607420e-03,6.389067769050598145e-01
3.154017290976260379e-02,-5.836131551468423106e-01,5.900006418453268564e-02,1.663666228985823392e-01,7.160692021774084370e-02,-1.806564241200931953e-01,7.696662545204162598e-01
1.545675781796959081e-01,-6.109910273189973484e-01,-5.207975852745358458e-02,-1.545398812480467364e-02,3.409665148555850872e-02,9.368263049351403804e-02,7.078954577445983887e-01
1.695750723904679846e-01,-9.411566310213643760e-01,7.100917427503655732e-02,-1.044531560592166022e-02,8.171025705881683476e-02,3.750708232291035532e-02,1.076353669166564941e+00
4.985237245628032499e-02,-5.537898795070641533e-01,8.239788749148549418e-02,2.862386332257384897e-02,-9.561879277675773559e-03,-1.718714141514320753e-02,6.234641075134277344e-01
6.431176250795034299e-02,-7.215393838872412591e-01,1.255389442302288217e-01,-1.716260274085257831e-01,9.718316039543849205e-02,4.597850496479208293e-02,8.902069926261901855e-01
5.545716184026919238e-02,-5.883426738214921903e-01,5.413975120902786431e-02,3.308970108016011120e-03,1.151666948178373118e-02,-5.339093800619362090e-03,6.435433626174926758e-01
8.531710228403827090e-02,-5.966850134811210182e-01,1.578187595755886630e-02,-8.305994516181729875e-03,8.916310926387739297e-03,-2.967452012679340848e-03,6.503927707672119141e-01
9.524254637610835017e-03,-6.016299725421987432e-01,9.378548238974476758e-02,-3.807518236237419137e-03,2.026888639258607114e-02,-3.640531298032071046e-03,6.583477854728698730e-01
8.830085379809571311e-02,-5.789763462863899424e-01,5.784388598715409224e-02,-7.929633721281885081e-03,5.088086903095826764e-03,-4.056613706670613231e-03,6.528238058090209961e-01
-8.936307760765815900e-02,-6.576708462127588417e-01,1.747981349682122820e-01,-2.758818548190593301e-02,-2.628492528009995170e-03,-2.362670267012121489e-02,7.394987940788269043e-01
1.163987941899281009e-01,-8.227740267624964465e-01,1.364012127700345856e-01,-1.194713113511734204e-01,1.251997193988521051e-01,6.569759747285483509e-02,1.002010464668273926e+00
6.069902802294604993e-02,-5.699701694255605577e-01,8.898799257329262358e-02,1.586592313859133945e-03,6.217289157617727872e-03,4.219920436999536652e-03,6.454160213470458984e-01
-1.550084631508533151e-02,-6.111444806661372464e-01,1.058008969570464197e-01,-1.438326834100935384e-02,2.724105501142342831e-02,-5.917999698731268333e-03,6.668658256530761719e-01
8.958790025476678909e-02,-5.739395495390577917e-01,2.830748114452327768e-02,-6.492216390084332156e-02,5.689272087239195114e-02,1.319756700771793252e-02,6.528707742691040039e-01
7.136724065042371334e-02,-5.958913433682506700e-01,2.703910722230257191e-02,-2.329066142620613532e-03,1.198399853640359260e-02,-1.386861541747496339e-03,6.465860605239868164e-01
1.319231155152005286e-01,-9.175353544385355109e-01,1.347784584364836724e-01,-4.687534951091687496e-02,1.333297528085275463e-01,-5.527936146593497545e-03,1.079065203666687012e+00
5.474801571290180413e-02,-5.552822068577860648e-01,8.748478489644609390e-02,2.054228522316190960e-05,7.205820539291455176e-03,7.632977044544988349e-03,6.273034214973449707e-01
6.909866132922004578e-02,-5.479678420182414467e-01,6.116532758879028586e-02,-9.559651698263114603e-03,1.319359937957031818e-02,-1.323019364829507508e-02,6.142150163650512695e-01
7.434754276630622938e-02,-5.922408274752404278e-01,2.678303092037881417e-02,5.901143304124936359e-03,-7.848150069508881208e-03,-2.676060446683534415e-03,6.443657279014587402e-01
7.907726746505866489e-02,-5.992523488767431683e-01,6.955393911189095002e-02,-2.567323381559901991e-03,1.982577133057632744e-03,2.881887527244291706e-03,6.736603379249572754e-01
2.016436808482596765e-02,-2.943522432501447517e-01,8.947344280468549904e-02,-1.347266405451404414e-01,-2.441217032217982488e-02,-7.763624556720337411e-02,4.470426440238952637e-01
4.975169404338150581e-02,-3.232726863007996387e-01,3.623567623414905570e-02,-1.536987215558782705e-01,6.799399245246114110e-02,2.727812318894235269e-02,4.703826010227203369e-01
-7.914860983646160308e-03,-5.603349983404616319e-01,5.865955961107743866e-02,-1.144855770758083924e-01,-7.280081428895242290e-02,-7.458563774030439741e-02,6.467511057853698730e-01
7.362137589066175547e-04,-6.002444698554225688e-01,9.322991793317753073e-02,1.218239444659468054e-02,-8.161971252554814371e-03,8.545736416282511891e-03,6.528276801109313965e-01
4.654743032217770193e-02,-3.450630033087075388e-01,1.010967450775446252e-03,-6.016335895154017316e-02,3.221778812252084484e-02,6.879148124045363077e-02,4.071478843688964844e-01
8.246843132938327936e-02,-5.565314882545009390e-01,5.828589324507607583e-02,1.407908601399112942e-04,1.131734358543885072e-02,2.423843944582771120e-03,6.275786757469177246e-01
7.113997792749301996e-02,-5.823521725099896074e-01,6.886736611129984365e-02,6.675815014840495026e-03,1.980143104096201891e-03,-6.495173233771267074e-05,6.524702906608581543e-01
6.560673180707868313e-02,-5.371728066999988949e-01,5.995318362763280007e-02,3.352124560440205691e-03,1.545826135899363261e-02,-1.279195471946477022e-02,6.010064482688903809e-01
1.297039288649033395e-01,-5.999184595295529165e-01,-3.604595460175025190e-03,1.894334853806057054e-02,-1.142672866306087831e-01,1.106443496847126229e-01,7.278937101364135742e-01
8.283507164082765106e-02,-6.037921144144757779e-01,-4.837417854131997874e-03,-8.075898678441177994e-03,-4.853027476630704384e-02,-1.335962094207840054e-02,6.532546877861022949e-01
3.095178473945905950e-02,-6.972320808764151945e-01,6.890813167320963828e-02,-1.948095991877970418e-02,-9.277857570284446520e-02,-2.474634586268527336e-02,7.668969035148620605e-01
7.841731510400207217e-02,-5.938394725046716172e-01,6.823073632164414204e-02,-1.683069811525925380e-03,2.082660372209644683e-03,2.850634520912663375e-04,6.672381162643432617e-01
7.133054146283526742e-02,-5.994948302484836011e-01,7.009561490101484660e-02,1.977066006211892959e-03,4.278325208134654400e-04,2.255736889779992680e-03,6.702293157577514648e-01
8.686392833172218442e-02,-7.297960149556180776e-01,3.749566356099912068e-02,2.443962183466438093e-02,-8.852800524266662974e-02,5.656971760773874675e-02,8.148359060287475586e-01
1.059976093996511382e-01,-1.616260716055406832e-01,5.523694728089619671e-02,3.177434448836550379e-02,3.539034543952544742e-02,-2.814976013397675267e-02,2.641548812389373779e-01
7.890268352323108469e-02,-1.839865669048139918e-01,6.990572374328216099e-02,-8.721072020480581666e-02,-9.115010669834023097e-03,-7.866167269280807672e-02,3.293263614177703857e-01
1.307090678493222358e-01,-7.060624402713071568e-01,-3.130351105645770571e-02,1.036742733691219109e-02,-7.538216724727017648e-02,5.569498015747709196e-02,7.858389019966125488e-01
-1.019681550416715043e-02,-2.713118667295072450e-01,-1.316091937684726876e-03,-1.781424754781913821e-03,-7.311075020035794850e-04,1.031254773661846504e-03,2.656936943531036377e-01
-9.962196004003553984e-03,-2.473064385679368815e-01,1.378605188446238583e-02,2.310109375530467607e-02,2.084633644419465939e-03,7.035126762010870949e-02,2.810599505901336670e-01
5.898575404412197132e-02,-1.716123007295510261e-01,7.841196126906592456e-02,-4.788294380552648652e-03,7.843940906298428216e-04,2.567963239571445164e-02,2.451151609420776367e-01
6.886407174754971550e-02,-5.921911548636423772e-01,7.699214002077442442e-02,1.365247175993260969e-03,6.686691258217601630e-03,-2.380257286157167178e-03,6.652743220329284668e-01
6.449788435025644029e-02,-6.409997683680668246e-01,5.762431070743331829e-02,1.246144863322995455e-02,-3.258179615443828475e-02,-7.928943084874504055e-03,7.048149108886718750e-01
5.853361794020081610e-02,-5.595641943471640900e-01,9.053407956338213602e-02,-6.060297556287441538e-03,3.154508520937862603e-03,-2.915866553972026876e-02,6.368194818496704102e-01
2.859844911645711973e-02,-3.537883740565292978e-01,2.869382808493073367e-02,-7.696480599374926068e-02,6.551290968945485023e-03,-6.613698829405191548e-02,4.210439026355743408e-01
-5.250817857221812268e-03,-2.919374949993954749e-01,-1.601134780616492170e-03,1.897030956620816269e-03,-3.764563356303744605e-04,2.885003890086910126e-03,2.885915338993072510e-01
4.384536463009125473e-03,-6.340431891682356547e-01,9.095291215024159381e-02,1.546931546480904626e-02,-3.480740108845797876e-02,8.746729572384284029e-03,6.891543865203857422e-01
-1.330624186900128403e-02,-5.990907118396961994e-01,1.026288677405141625e-01,3.876307395734612110e-02,-4.440894236179194349e-02,-2.423279852663802383e-03,6.594991683959960938e-01
6.857391646871371926e-02,-5.804708185259226383e-01,5.799528168572262721e-02,-1.242045527970458800e-03,4.225400041740024555e-04,2.296739348697431505e-03,6.438369154930114746e-01
-4.935641767381260259e-04,-5.909714001485606438e-01,9.174701906354920666e-02,-9.047586429584473068e-04,-8.150241448009180878e-03,-2.129542619926161405e-04,6.417478322982788086e-01
5.903382664969977767e-02,-2.618500164706560884e-01,7.476250043670359946e-02,-8.692767092826093889e-02,-3.801436706659662261e-03,-4.922660870908268649e-02,3.718108236789703369e-01
-2.279628450788784982e-02,-1.910820030750033927e-01,1.011711229805753731e-01,7.057902804456704648e-02,-2.589300415718282997e-02,3.016131293610874869e-02,2.902319729328155518e-01
8.375882530205963628e-03,-2.652055612473238622e-01,1.891030735804467844e-02,-2.854020096181288449e-02,9.346263744783990610e-04,-2.464073789120113656e-02,2.865441441535949707e-01
2.252155445534245737e-02,-5.940171378536904800e-01,7.522975607923929053e-02,-3.018397160753869771e-03,-5.523781334504596942e-03,6.734085429331751471e-03,6.447089910507202148e-01
7.134244563948283213e-02,-5.913824714339541710e-01,6.062125141712881859e-02,1.769494467365470688e-03,-7.887584754022897724e-04,-3.039555824135950230e-03,6.574595570564270020e-01
-1.710229794902079492e-02,-6.192119537264821894e-01,1.165019936353489105e-01,-1.042053535840258005e-02,3.361382872894118964e-03,-5.649729065789489343e-03,6.791803836822509766e-01
2.542779298297270785e-02,-6.044889009833909199e-01,8.681093571441705903e-02,-1.547400569941662953e-02,3.007175583487436965e-02,-4.708700083950830353e-03,6.653773188591003418e-01
7.350623058656113873e-02,-5.995750574570888336e-01,6.842538563809316687e-02,1.531452717378540889e-03,2.466927379054368458e-03,9.348894471381149996e-04,6.705760955810546875e-01
4.867963220694818127e-02,-7.143847220289906153e-01,1.027635932667549934e-01,-2.128775226724838321e-02,8.194786640325912863e-02,-1.481196153324391626e-02,8.053731322288513184e-01
5.008651079248471749e-02,-4.892412490720191021e-01,6.145744408811129600e-02,-4.634572423704095417e-02,-1.918947460862586302e-02,3.228862133139314555e-02,5.548085570335388184e-01
4.734984826365268296e-02,-5.816886396510430046e-01,5.034705768431846362e-02,2.068176999237629726e-04,1.297229752008053055e-03,1.927352040704631683e-04,6.305466294288635254e-01
7.174877031066959066e-02,-5.852743849289132605e-01,7.354501961831697021e-02,2.392740305612961558e-03,-4.223180731420431155e-03,-6.870501263286627955e-03,6.580844521522521973e-01
8.449179881854265717e-02,-5.753165474990540318e-01,6.118741187061366160e-02,1.110741433571065277e-03,7.467002029542081165e-04,-3.819476140763229232e-03,6.485081911087036133e-01
4.577137709361980833e-02,-5.821065319112479486e-01,4.900140323752877336e-02,5.588435364302215885e-04,-6.244171476094233231e-03,3.535948713782563566e-03,6.296225786209106445e-01
2.086525672411010390e-02,-5.913046951068603452e-01,7.817128823890126532e-02,-3.840807930298012571e-03,-4.673644007439739165e-03,3.312876463695955519e-03,6.428528428077697754e-01
5.884454960180485195e-02,-5.519266881979262296e-01,7.865667432384262914e-02,1.542467472812863137e-03,9.043770898235792624e-03,9.758919494052505084e-03,6.213476657867431641e-01
7.788844553998391929e-02,-5.902406066627294834e-01,6.832105109735028825e-02,-9.720936348865054366e-03,7.043460169275896771e-03,2.723902471889980484e-02,6.653975844383239746e-01
7.683522182162091929e-02,-5.924199163537263724e-01,2.331707533896834605e-02,1.366843392589822811e-03,-2.951014993384077148e-02,-8.393660392338012392e-04,6.461962461471557617e-01
5.740261447702854625e-02,-5.726175459815585622e-01,9.189014767071415624e-02,-2.177043666112163725e-03,2.716585320737389866e-03,4.392950926351234936e-03,6.480253934860229492e-01
6.883060096669696426e-03,-5.908433471811032067e-01,7.782252628265490246e-02,-1.081454526826092683e-04,-1.983798562111577929e-02,3.063546231453293921e-03,6.371188759803771973e-01
7.724289063714404047e-02,-5.993387510832629550e-01,7.035578082585142168e-02,-2.140384782642724883e-03,5.246212915422581585e-03,3.219213679856885914e-03,6.732591390609741211e-01
1.012069425012437351e-01,-7.933110888125607385e-01,9.994471307023777840e-02,-9.811974972391257488e-02,-9.105358008534226999e-02,-1.494121151888660737e-01,9.590420722961425781e-01
5.360159250198892611e-02,-5.895230004700064974e-01,7.431309898481519571e-02,5.978353558865181182e-03,-9.270452442822352127e-04,6.590830586509781493e-03,6.539101004600524902e-01
-7.283583454580438987e-03,-5.934672172045335481e-01,1.016608616678539301e-01,-4.246008170348698069e-02,2.167999337252262543e-02,6.328617937733831481e-03,6.529015302658081055e-01
7.502817039610368277e-02,-5.728150445963526849e-01,6.449080752720920406e-02,-8.829353988479801338e-03,-4.252489836596580995e-03,-1.781225512153827373e-03,6.428708434104919434e-01
2.456679115353790910e-02,-4.135404606819788054e-01,9.815165439035686279e-02,-5.086377979683550515e-02,9.924928759532301165e-03,1.489943600617233029e-02,4.881737530231475830e-01
1.518192069646406850e-02,-3.271916969971350730e-01,1.111859177429026790e-02,8.637215348779514121e-04,7.034252202753705704e-03,5.051310583900185842e-03,3.406937718391418457e-01
2.342567910022708144e-02,-5.853666408625488593e-01,6.766996717838169584e-02,9.354526267962740699e-03,-3.230965925868225369e-02,-5.213341846165619152e-03,6.348204612731933594e-01
2.384417344364464508e-02,-3.165160774033808355e-01,4.856767863665026330e-03,4.812851196120847275e-02,8.948975084894205886e-03,8.094611902142018894e-03,3.422410488128662109e-01
2.348136266540641615e-02,-3.228268085303519497e-01,-2.172550321258182038e-03,4.125752302943958699e-02,-3.986776445869195983e-04,7.666446935786387770e-04,3.417778611183166504e-01
6.198573399165163700e-02,-5.282646609945376159e-01,5.752405853425643367e-02,5.044444181120246590e-02,-1.409898212378567347e-03,-3.121466897763029713e-02,5.969462990760803223e-01
-3.706500511810881249e-02,-5.992847633277529340e-01,1.238080326763250638e-01,-2.086931004852238605e-03,-3.399001808149470540e-03,-4.172579198300756936e-03,6.576603651046752930e-01
4.298065961334804341e-02,-5.811121497996440954e-01,4.814730341582973416e-02,2.592617823655424432e-03,-3.715563680933237599e-03,1.578662058530864391e-03,6.267471909523010254e-01
6.951875535782339743e-02,-4.543359676051242912e-01,1.813074789128313324e-02,4.120649958699987986e-02,7.437786032000745853e-03,1.994652163025593603e-02,5.065551400184631348e-01
6.565230510584188495e-02,-5.900949737700289521e-01,7.685777547741332039e-02,-5.319983328832115534e-03,-6.381119096967225899e-04,-2.497405554928117805e-02,6.628991365432739258e-01
1.060822612168302870e-01,-6.074040565724312390e-01,-1.982403327524667747e-03,-1.038801458427459495e-02,5.654968705539392335e-03,1.736976072703746293e-02,6.670553684234619141e-01
5.883089738719435302e-02,-5.901653574554749371e-01,7.767122980305068980e-02,-2.153168694466755812e-03,1.266890100527811105e-02,-2.235121492154464734e-02,6.601306796073913574e-01
1.721107971501353306e-01,-6.067309135029550493e-01,-3.890338031849539802e-02,-2.490679167368306524e-02,-5.013207091426360312e-02,8.053227071649633750e-02,7.180750966072082520e-01
4.837979375424039663e-02,-5.820837748474276818e-01,5.401974875826298650e-02,5.673212051950484239e-04,-2.115995236691439740e-03,-2.245437844139978759e-04,6.333138942718505859e-01
7.811387256574620075e-02,-5.967160806400783057e-01,7.017505278427427218e-02,-3.497959222398702890e-03,6.719002059318501460e-03,-2.125024301677663850e-03,6.710341572761535645e-01
7.210119366704717536e-02,-5.919105818213930004e-01,6.641557967269812179e-02,-4.664983371419169009e-03,-3.104037566093364921e-05,-7.314853284387912158e-03,6.613580584526062012e-01
5.728381335462165436e-02,-5.270263666567835958e-01,7.109793283264528863e-02,1.181921770159546740e-02,-1.512957864462601866e-02,-1.190342286505248308e-02,5.926312804222106934e-01
1.106296314224213817e-01,-6.352758867108535545e-01,-8.574104220968048473e-05,6.740949104369090006e-02,7.545949475618406177e-02,-9.153757692431009618e-02,7.361397147178649902e-01
-1.924237655435886984e-02,-6.658884805864289103e-01,1.741213601628920915e-01,1.868158057396148986e-01,7.456257015162172375e-02,-1.207648387150043190e-01,8.635451793670654297e-01
6.201089489354605355e-02,-8.598790999756005249e-01,9.954339650209964585e-02,-2.916899546851545871e-02,-9.688056192652576282e-02,2.148848475555110646e-02,9.581158757209777832e-01
2.711805360320906910e-02,-3.781161008528616807e-01,3.954541207420608773e-02,-3.634554408068654818e-02,3.683181611934717090e-03,-9.936731220927290387e-02,4.505889713764190674e-01
8.509409041172102950e-03,-2.119648209558497864e-01,4.926801414051884542e-04,2.137888385207139044e-02,2.915287139141813436e-03,-1.333041827512279447e-02,2.209874242544174194e-01
6.956481499661820722e-02,-9.264352117943389642e-01,1.896862414705312583e-01,9.889660995422734635e-02,1.323754415767957604e-01,-9.653792688016891999e-02,1.111735701560974121e+00
1.434835515496348246e-01,-6.717572125491444446e-01,-2.492008722447142111e-02,-8.813082616382661785e-03,4.604542334718859931e-02,-1.357248457600642721e-01,7.858403325080871582e-01
6.585037020397516150e-02,-5.824138935782232629e-01,6.942403480557035600e-02,-4.091850270596367536e-03,6.200302281791842448e-04,1.317089213779604542e-02,6.504980921745300293e-01
1.721258588745706031e-01,-3.990204005920098274e-01,-5.403148491773168693e-02,-3.323871326442516538e-02,3.107541091385783785e-02,1.410108881061566399e-01,5.604016184806823730e-01
8.569757712379538761e-02,-6.036831947338403559e-01,1.956181017567928948e-02,-6.424393375855730684e-04,8.431098242597924106e-03,-7.156578504257280274e-03,6.590866446495056152e-01
1.799046213572625397e-01,-9.420406494456184943e-01,3.943913304704649292e-02,2.469451689267111727e-02,-9.784383062752961824e-02,1.205517304366238718e-01,1.093181133270263672e+00
5.499405359076384170e-02,-4.629307795609575726e-01,5.251142456606178177e-02,8.107846014535012580e-02,1.282631981710727689e-03,1.915786216430628852e-02,5.364640355110168457e-01
-1.905661763824145760e-02,-5.956153675986973484e-02,-1.050306505361824766e-02,7.266025385776975209e-02,1.960620426017994477e-03,5.053308867962367189e-03,1.341154426336288452e-01
6.256866356883569735e-02,-5.888299238537404445e-01,6.689542759658559379e-02,1.752795236580066002e-03,-7.392186959345009275e-04,-9.294297872749811631e-04,6.535829901695251465e-01
4.193335273065121327e-02,-3.751083570828441238e-01,1.748594001797917907e-02,6.380095643696015451e-02,8.150998712154260487e-03,2.867373998297990251e-02,4.233242571353912354e-01
2.438899561367992297e-02,-3.242435538637087333e-01,1.117184721383307489e-02,-3.680794091298143084e-02,5.279256791639738537e-03,-6.645483880306758684e-02,3.667536377906799316e-01
7.431642052147172106e-02,-5.828195697604444669e-01,6.495416596250450092e-02,-3.093623456992582437e-03,6.592823083605040685e-03,-2.493933708338950690e-03,6.526414155960083008e-01
1.055312076792513376e-01,-9.376262959175321043e-01,1.582426230256691602e-01,5.425221685211232409e-02,1.322088878490913499e-01,-1.437508250666103826e-01,1.126588940620422363e+00
4.718128793242071239e-02,-5.574087032664175601e-01,9.387615896044690378e-02,-1.642126512134046805e-03,8.208431027565017950e-04,1.962662322118145959e-03,6.292554140090942383e-01
3.715597992536172345e-02,-1.451574124573372371e-01,7.124982093690002127e-03,-4.353056091911010339e-02,-4.405327997016769692e-02,2.197588843585336627e-02,2.040112763643264771e-01
2.160871114326501363e-03,-6.124733106711770514e-01,1.012134182592691611e-01,-8.804301981597706817e-04,3.417752922495734952e-02,-1.163063765825981567e-02,6.725921034812927246e-01
6.851850679685972390e-02,-1.780698472566586421e-01,8.617550276457268399e-02,5.520782606961689709e-02,-2.358126904697218067e-03,4.970033387056594504e-02,2.864303886890411377e-01
9.267819267061419564e-02,-2.278458990527206518e-01,1.633278355142777499e-02,3.786329478650828084e-02,-1.608880298363630015e-02,6.450980983814884329e-02,3.188349902629852295e-01
8.620762416605959322e-02,-3.625286373869769929e-01,-1.226853366906351106e-02,1.974699936041887302e-02,-6.709349242864591500e-02,1.060840324627532749e-01,4.640128016471862793e-01
6.322892784004163769e-02,-4.356229513560634925e-01,2.333463226517820677e-02,4.111148601873231001e-02,1.403661313904734989e-02,3.583601734321214248e-04,4.860095977783203125e-01
-1.519131128880432668e-02,-7.964774417501216952e-01,2.170523541676320223e-01,-2.091282138081973774e-01,3.639814526272333595e-02,-3.292460346563127332e-02,9.920808076858520508e-01
6.349683985472620584e-02,-6.332559356162152930e-01,8.995700726128891267e-02,-1.551287939508641522e-02,1.880596641350008522e-02,-1.012858557664553759e-02,7.118226289749145508e-01
6.680046018639179684e-02,-5.960027637602827166e-01,7.780024860037013101e-02,2.028890916941277888e-03,7.111823510924324306e-03,2.582416070371971843e-03,6.685087084770202637e-01
-3.412674055529363315e-03,-5.310696991384281640e-01,7.608959426200823106e-02,-9.742020435581635884e-02,4.810252327222796359e-02,4.412410910909011358e-02,6.065862774848937988e-01
-4.786604489820003860e-02,-3.826330630012164113e-01,6.613458553972617615e-02,1.490432036380519576e-01,2.885430628020373145e-02,-5.217365622522442126e-02,4.904430210590362549e-01
4.077801454115631552e-02,-5.958459434475598115e-01,9.029057913639682020e-02,1.690129526295906792e-02,2.723501758847760804e-03,-1.310901075714590754e-02,6.638201475143432617e-01
6.906134229119931245e-02,-5.209530298172192486e-01,5.280703899442554250e-02,-8.912111663653618510e-04,1.790458340871227058e-02,-1.444849005817226912e-03,5.828904509544372559e-01
2.522971442732488412e-02,-5.556619998030019048e-01,1.269775144889193630e-01,-1.634875325312382388e-01,8.161369284617749076e-02,3.107463607936711628e-02,7.141121029853820801e-01
5.243467127288375940e-03,-6.596991071631117531e-01,1.327472014627050778e-01,1.236970624048758065e-02,1.877646217998855255e-02,-2.835450503482031537e-02,7.396736741065979004e-01
7.169093128532147419e-02,-6.160015207417356420e-01,7.817276747136481241e-02,2.039148689307363274e-02,-1.695478373778810032e-03,-1.583332834491749108e-02,6.924077868461608887e-01
7.507380833814572552e-02,-6.028168919994423280e-01,7.192842416520353610e-02,3.201901097299477555e-02,-1.107411111358456079e-03,-7.779512807468387872e-03,6.787299513816833496e-01
5.481868157918506901e-02,-5.829175897849990795e-01,4.894087590340243099e-02,3.919570167104351015e-03,-1.119415270217606877e-03,4.110073261406811023e-04,6.348574161529541016e-01
2.171604626058202259e-01,-1.029835873153825521e+00,3.741038864153628518e-02,-1.049508161437422323e-02,-9.997627089612694251e-02,8.779030437235074702e-03,1.180554866790771484e+00
1.762061066314316027e-01,-9.589229338321303420e-01,5.338841484537065751e-02,-4.439083413906302206e-02,-1.153627056787046162e-01,-2.388975457425723467e-02,1.100789546966552734e+00
5.030764004451038218e-02,-5.866136615143563438e-01,7.698319807274786597e-02,8.625014689792599417e-04,4.927731418725733205e-03,-7.652866411924501809e-03,6.508619785308837891e-01
6.299606302966867521e-02,-5.824609066719281802e-01,8.991685748117894672e-02,-2.393188672167179207e-03,5.071796476384229750e-03,-1.019608220031573143e-02,6.596376895904541016e-01
7.244018041926544860e-02,-5.917090196363870014e-01,5.536206439992436001e-02,3.663673702763009347e-03,1.303356595888671612e-03,4.529003944203554947e-03,6.558584570884704590e-01
5.622838271679428401e-02,-5.739151074851247536e-01,8.904523187367838211e-02,1.120128175602396955e-03,1.314910653251827712e-03,-8.927926047803129872e-05,6.471831798553466797e-01
8.743292230647736751e-02,-6.099035200539161261e-01,4.899893620815071182e-02,-3.592967685378932290e-03,-2.028250386248339841e-03,3.393802903483864129e-03,6.789988875389099121e-01
9.367250788797681915e-02,-5.993381661300507535e-01,2.116124607067851326e-02,6.031360001574422383e-03,-6.828257088575817590e-03,-1.803282035669268729e-02,6.606777906417846680e-01
6.164204578771528831e-02,-5.881030775487164908e-01,8.535841194326410086e-02,-3.874840159858648075e-03,8.411187972553161793e-03,-3.081213157381058887e-03,6.621378660202026367e-01
3.028759743274944682e-02,-4.678146604363352945e-01,6.066446172023337580e-02,8.793065044798820118e-03,9.786948429474900263e-04,1.578420872403547707e-03,5.142000317573547363e-01
8.702807930059155983e-02,-5.967962057361058115e-01,4.274213622081821096e-02,-3.537019465859332634e-03,3.065226127439122511e-03,-1.436772013936216640e-02,6.633084416389465332e-01
8.271677902576823893e-04,-2.424188498700783623e-01,8.545303047643629246e-03,-9.483981270582579615e-02,-5.241879804020150441e-03,6.423556190717638267e-03,2.971457242965698242e-01
2.962776713793582872e-02,-4.375849175424265658e-01,6.055398902592140642e-02,-3.163692993423643934e-02,-5.941623691868729885e-04,-2.138431928420508887e-02,4.879229962825775146e-01
6.745674650832728103e-02,-5.883819569354042933e-01,4.139700283740271880e-02,2.135091769028867482e-03,2.171450247819383880e-02,-5.557750209505956177e-03,6.443861126899719238e-01
5.235758771271165068e-02,-5.865300766377149477e-01,5.394516809540159108e-02,2.911976511517867273e-03,-4.679750237942233642e-05,3.405360738520467941e-03,6.397300362586975098e-01
6.308512793608828106e-02,-5.673271744760788327e-01,8.190693385862482523e-02,-3.722810770937650288e-05,-8.360412070553499900e-03,-8.174132776251964369e-03,6.403511166572570801e-01
8.479665368849603757e-02,-1.000135259083572564e-01,-1.947414243114032467e-02,1.952711814708887363e-03,6.347664123339479512e-03,3.571323107671730418e-02,1.723818928003311157e-01
8.519073088811990324e-02,-5.140398007552737791e-01,-2.457514048813336238e-02,4.152476135942668317e-02,2.215137031461854311e-02,-1.729275989723740303e-01,6.338040232658386230e-01
8.834186633127721899e-02,-5.713702570732840380e-01,5.629443151161345194e-02,7.691576673723251765e-04,-4.824327605762341112e-03,-1.236816396312720228e-03,6.443455815315246582e-01
2.699711168851504084e-01,-9.447498650839273315e-01,-2.999987661087000212e-04,-3.371761076350271447e-02,5.288339186717932322e-02,-7.266062820358470953e-02,1.117107391357421875e+00
2.327703005163833661e-01,-8.575655935322247236e-01,3.308475348929612592e-03,-4.628063212332080706e-02,-6.362188894145337156e-03,-1.085474984023446221e-01,1.016459226608276367e+00
4.481555188873329043e-02,-2.161411226431103061e-01,1.009641891946193165e-01,2.836394402719038740e-02,4.411336837638914904e-02,-3.940881401081153951e-02,3.143470883369445801e-01
-1.164882552541605248e-02,-1.293578366919157507e-01,-1.042427653805862164e-02,5.422728033155824190e-02,-7.641320148064107906e-03,8.598775266466639894e-03,1.523805409669876099e-01
1.159024917034943147e-01,-4.925621174446634942e-01,1.643784032917916527e-02,-2.607063132730718085e-03,5.295751019246002639e-02,-1.601103857253599883e-01,6.363502144813537598e-01
1.012336709879185781e-03,-2.553000448477059647e-01,1.221570315880145252e-02,-7.162461803697565965e-02,-6.212520342667112588e-03,6.366968422124556770e-02,3.104200959205627441e-01
2.939880284598550553e-02,-4.507379945298277124e-01,5.982502936339073596e-02,7.067591986393589008e-03,5.965699895501611755e-03,4.054519186034512279e-02,5.012526512145996094e-01
1.918461517089442570e-02,-5.641242404714035263e-01,1.142129796954003962e-01,-2.124580281211077282e-01,8.611272528696964357e-02,3.804776170414765624e-02,7.528046369552612305e-01
6.303353184702034651e-02,-5.812607191865257761e-01,7.414363694282680162e-02,-6.736156284480094951e-03,4.317491412741886799e-04,1.772102558114154250e-02,6.507499217987060547e-01
1.625487233098751871e-02,-4.660669292625345128e-01,7.344857471502705404e-02,1.092171860578946933e-03,2.939511031057020357e-03,-6.994492537124647380e-05,5.133426785469055176e-01
-8.680162196184358636e-03,-1.703751459917423605e-01,3.659408014567146206e-02,8.377064720471131144e-04,-2.910458798508493497e-02,6.589038199743303681e-02,2.260168343782424927e-01
-1.264587290114871192e-02,-1.611667973946199206e-01,9.475709050207324624e-02,-3.770497434970417755e-02,3.767848186779088754e-02,1.250210236038512383e-02,2.419470101594924927e-01
5.569166101815536951e-02,-5.883445656144323799e-01,5.381493655460264924e-02,3.288181815459898221e-03,4.798053966367107036e-03,-2.445704166298477960e-03,6.431927680969238281e-01
1.100357321380597830e-01,-8.014016204871710070e-01,1.035402081557698639e-01,-1.559172857278096624e-01,1.252856099522927646e-01,8.129340810255389349e-02,9.821842312812805176e-01
-2.158367867548130481e-02,-6.477530218024201147e-01,1.586587200134977338e-01,-1.525183163036439304e-01,4.513776117106922670e-02,2.616739055730731706e-02,7.844676971435546875e-01
1.870347145881373074e-01,-8.617185305768799708e-01,4.358766250608703263e-02,-1.591109593843335335e-01,1.322057151684546683e-01,1.717032235258245665e-01,1.089426398277282715e+00
6.034434453872525306e-02,-5.873281864144939135e-01,6.060327365273451838e-02,-9.966567854547971842e-04,5.099049976175839410e-03,-1.815240415318056071e-03,6.478721499443054199e-01
3.951389711139197125e-02,-5.313535359929340007e-01,8.878620029389552859e-02,1.093625687481928569e-03,8.883521524844872549e-03,-4.083490526748535365e-04,5.972321033477783203e-01
3.039831907967893709e-02,-5.785710260017817852e-01,8.461224942395703663e-02,1.388160828978772174e-02,-6.971348601122042375e-03,-1.037500826905840730e-02,6.386268734931945801e-01
1.088137993144652205e-01,-6.048844404500459682e-01,-1.671539513999056870e-02,-5.923783834255659519e-03,-3.186873670217516691e-03,-7.421074434393708230e-03,6.601770520210266113e-01
5.812761911481142962e-02,-5.856764760254944413e-01,6.268807572243287329e-02,-1.128342349826238133e-03,3.295602525069985661e-03,9.702283843316295182e-04,6.461267471313476562e-01
6.885169372144897548e-02,-5.884139739057532292e-01,5.500689961509111492e-02,-6.031035777744956673e-03,5.271747486227187224e-03,1.150924803379025632e-03,6.506047844886779785e-01
6.973224305116926258e-02,-5.927606157427010025e-01,5.013594619348341053e-02,-3.608857443905019984e-03,1.876876197645861461e-03,8.252040634505243902e-03,6.531097292900085449e-01
7.619301783886431312e-02,-5.922423745052437516e-01,6.981693605036043415e-02,9.132188204991388298e-04,8.469715429346479432e-03,-1.308629267387031309e-03,6.654377579689025879e-01
8.484633160245230732e-02,-5.987139350942867200e-01,5.172904164861569232e-02,-1.285113718814693412e-02,1.365431717277042732e-03,4.049791519712268514e-03,6.680299043655395508e-01
7.380499585499797344e-02,-5.882242738592904363e-01,6.880510595447919542e-02,9.047937583495844994e-05,6.275172562445571376e-05,-2.069948702929173042e-03,6.595532894134521484e-01
6.880085541589739395e-02,-5.839269104643014519e-01,7.284636318476817030e-02,-2.156077535159268629e-03,3.180221165923355028e-04,-2.484902913256683155e-03,6.547849178314208984e-01
5.508959436062824122e-02,-5.470808864035994201e-01,8.387356026297582146e-02,5.285795401762803832e-03,-1.050278942493734421e-02,-2.933724139174892498e-03,6.174230575561523438e-01
5.928656916724883708e-02,-6.114566524435833816e-01,3.449938802032459506e-02,1.552608135835893341e-03,4.555941889024071184e-02,-9.997949190934650801e-03,6.636407971382141113e-01
1.384907575384350387e-01,-6.174669480661691967e-01,-5.198957713691972071e-02,1.244873781102331109e-03,4.832831137753038249e-03,-3.934621809745015956e-03,6.810880303382873535e-01
2.136834651147036523e-01,-9.373053870778348395e-01,4.818612230773383631e-02,-1.128877072729195241e-02,1.154953039962612199e-01,-1.490381281536792279e-01,1.126372933387756348e+00
7.049443186898454727e-02,-5.912368269862886550e-01,7.008089691587712777e-02,-4.246951043373026202e-03,-2.066203111064716361e-04,-9.748189140379411640e-04,6.615677475929260254e-01
1.007768945791195914e-02,-5.903857240398924233e-01,9.432305891819592336e-02,1.378028712419583114e-02,2.660804234326255915e-02,-2.858209909945708636e-03,6.488127708435058594e-01
1.557707907308159001e-02,-7.996092080582251072e-01,2.018064381333218860e-01,-5.189149174677182286e-02,7.830044765913499183e-02,-1.151040132899511792e-01,9.577262401580810547e-01
-6.621059303435566923e-03,-8.028119085155805967e-01,1.669018497314140870e-01,1.391791472659626161e-01,5.912113149787857902e-02,-2.031094131126891938e-02,9.338219761848449707e-01
6.646500315797901348e-02,-5.869806538725361733e-01,5.569710313986370176e-02,2.421000287342324388e-03,-9.670597745046322340e-04,1.407397957832703299e-04,6.481445431709289551e-01
5.740011636818678764e-02,-5.734828321805949258e-01,9.006185501632096857e-02,1.268990629494946409e-03,2.640414653297636256e-03,5.637663489084287181e-03,6.479250788688659668e-01
3.366000335115781894e-02,-5.814449643872841023e-01,4.993452227981129421e-02,5.732442684586434162e-02,-1.192747654158722720e-01,9.859200034913082056e-02,6.858049035072326660e-01
7.745198303523123662e-02,-5.854086324343856784e-01,6.585007528067005067e-02,-3.337270116342455888e-03,5.816961554883297129e-03,-1.128165311577012655e-03,6.572420597076416016e-01
6.888868824417423986e-02,-5.964313864611967553e-01,6.999319171190013233e-02,-6.065575129323503428e-03,1.242393926730410837e-04,4.541699258017639000e-04,6.659563779830932617e-01
1.086162006181258799e-01,-6.170059951482227412e-01,-2.769061247624407529e-02,5.178191430660189498e-02,-7.166093338085005593e-02,8.225239104656237310e-02,6.999616026878356934e-01
7.614418325215255301e-02,-5.966430252835783765e-01,3.314450391283041419e-02,-2.507726837675100778e-03,-8.290284011294633826e-03,-6.293928848305955712e-03,6.526146531105041504e-01
8.508439675406637148e-02,-5.954999791485735550e-01,2.580083750980366464e-02,-6.641921470329944545e-03,-4.611036060385599947e-03,-6.017125820128094681e-03,6.531974673271179199e-01
1.733337081238589539e-01,-5.665794102189880554e-01,-6.713952958370004998e-02,-4.089948277168268392e-02,-4.347360419333563125e-02,8.670062714016610328e-02,6.786815524101257324e-01
2.929677772471214747e-02,-4.765184151782391742e-01,6.729288960608537096e-02,-6.670786522539479948e-04,1.477864776961052874e-02,-2.155845420918825603e-04,5.264678597450256348e-01
5.671376633151389846e-02,-6.104496413239417496e-01,1.092709200900748856e-02,7.732442999724441213e-02,-9.692365821569626227e-02,1.021335210967458801e-01,7.029010057449340820e-01
1.282908980952075506e-01,-6.201814324661938382e-01,-3.390536319017789513e-02,-4.454054472634042840e-03,-3.041202039197774334e-02,4.724498030906210469e-03,6.841199994087219238e-01
8.701915442776508858e-02,-6.041011371011888453e-01,9.601378876814004037e-03,1.285816530329643870e-03,-1.416974744720515995e-02,-9.573710431827436688e-04,6.563122868537902832e-01
7.784996578734118544e-02,-5.935716990979730268e-01,5.364965683811895314e-02,-3.462569313327206171e-03,-1.592947439794320909e-03,-2.909896537076763628e-03,6.597068309783935547e-01
7.062517024266734555e-02,-5.912182517101680634e-01,3.403170946045205869e-02,-4.166619732108429314e-03,9.099131087544591254e-03,3.743261107806380907e-03,6.445922255516052246e-01
7.735362484707339337e-02,-5.889034381222260084e-01,6.956324600120722401e-02,-2.630357910861276429e-03,3.201132282679398314e-04,1.445832924323100892e-02,6.628853082656860352e-01
1.411921477138643743e-01,-3.733812827295491243e-01,-3.127207323256125937e-02,-8.756049932448183026e-02,3.064579656341009234e-02,1.593165462016152001e-01,5.547499656677246094e-01
7.194580980027154293e-02,-5.657219897016243504e-01,7.620243556636119298e-02,-1.204973208621997784e-02,-1.290985515160565991e-02,9.911217373503450334e-03,6.407674551010131836e-01
5.149873036785770908e-02,-5.884500717507336054e-01,6.708375698753066274e-02,6.078058178031501765e-04,7.449001812448352751e-03,-3.738532266002121945e-03,6.480435729026794434e-01
8.423789569511377917e-02,-6.043480063691988313e-01,2.718786057884775564e-02,1.361697815930362808e-03,1.779156480951555111e-02,-6.540228572551575088e-03,6.627253890037536621e-01
4.189182898184906634e-02,-4.760318400918796544e-01,6.399425317484624953e-02,-1.022853702985732430e-02,2.480988541376073688e-03,9.733968742958473697e-02,5.558220744132995605e-01
9.717035083324518374e-02,-2.040796441218817869e-01,1.737597763514073940e-02,8.972813132736843708e-03,-8.307674613984326190e-03,4.624825443247082557e-02,2.827471196651458740e-01
5.481107010964716975e-02,-5.879085879853283014e-01,5.426759123963012521e-02,-4.826519169584134530e-03,4.986632086536556957e-03,1.444019052640782737e-03,6.425653696060180664e-01
4.043054983746999231e-02,-5.931215479784104350e-01,7.074394239535747309e-02,8.866637068302117564e-03,-1.269563568686267983e-02,7.545535340778172957e-03,6.499249935150146484e-01
1.198992205833862568e-01,-6.033649674329011336e-01,-3.550230135772239337e-02,-8.838871132374109818e-03,-3.294444367117616707e-02,8.937173875016425715e-04,6.620854735374450684e-01
6.744401914071243564e-02,-5.864358968333975852e-01,2.625540861677458371e-02,-3.728891211829733245e-03,1.478399246470483812e-02,-4.349438562029223358e-04,6.348393559455871582e-01
1.430045724589062428e-01,-6.945542402150424177e-01,5.883753695086924029e-03,-1.421424234957390474e-03,-1.186913384600665061e-02,1.438375670037483380e-02,7.787871956825256348e-01
1.016605459471850992e-01,-6.076739494157668009e-01,8.117863094234734067e-03,-2.359345096151462678e-02,5.049429592134548755e-02,-9.283030464606396165e-03,6.746333241462707520e-01
5.053743119753367763e-02,-5.795948818747013176e-01,5.132537889542157505e-02,-2.525171492024602150e-03,-3.858212988788012159e-03,-9.348642846760088802e-04,6.305792927742004395e-01
9.720555238351524796e-02,-6.039100877177032700e-01,-3.654624809450474077e-03,-1.291929448679168509e-03,-8.049330914882864285e-03,9.558957784813955664e-04,6.566759943962097168e-01
1.234974973957567168e-01,-6.553613344754726233e-01,3.107663733266821660e-02,-8.394936564877386598e-02,-6.041716126827885447e-02,-1.637974765466409521e-01,8.097912669181823730e-01
1.024493954025544329e-01,-6.023614990054653173e-01,3.607321829858511908e-03,-1.082720139384490271e-02,1.760960998407593708e-02,-3.094365287335187724e-03,6.619470715522766113e-01
5.624288843834548968e-02,-5.960330863431059223e-01,7.229605825888940629e-02,5.989163131903661209e-03,-1.623232619537087491e-03,6.578773384324603825e-03,6.606346368789672852e-01
1.210904558976417245e-01,-6.315578475245086087e-01,-2.045151243394932594e-02,2.723012492898293016e-02,-7.903743535095575368e-02,2.100175989108595265e-01,7.957823872566223145e-01
2.727069575420999481e-01,-8.461873302106982520e-01,-4.365643005990807457e-02,-9.562574572374214765e-02,3.420223835655569755e-02,9.421532468843389629e-02,1.027426362037658691e+00
1.182062941868623485e-01,-6.087852190973421784e-01,-2.761197740646087473e-02,6.912319996573838311e-04,-4.962275592494240668e-03,1.194673902983940141e-02,6.665391921997070312e-01
2.521349555772192108e-01,-9.495759674072068446e-01,2.353242903477603676e-03,-3.147258606901912059e-02,1.371652921284896576e-02,-5.360353525117315249e-02,1.103852629661560059e+00
1.831259506243773649e-02,-2.747785004059155600e-01,2.128944907560129107e-02,6.275200626497173806e-02,2.019334444644212828e-02,8.752397526099633951e-02,3.504309356212615967e-01
1.313306352650551734e-01,-6.220349347258740114e-01,-3.656607026246369574e-02,-6.606385352120082433e-03,2.344769330032499960e-02,1.811939589946297627e-02,6.870419383049011230e-01
6.192601768540195728e-02,-5.962840644729034967e-01,7.487530499161243469e-02,-4.676343329409333484e-03,-1.206628403912877464e-04,1.940352178350062589e-03,6.648371815681457520e-01
6.437376078694723169e-02,-6.311268803005001260e-01,6.783300812291895299e-02,-3.430731310197446086e-03,6.725504135734819422e-02,-5.605472920449764557e-02,7.135617733001708984e-01
2.314324545943480249e-02,-3.409317321332077100e-01,1.203603908433699410e-02,2.824374078652232625e-02,8.707977564814325944e-05,-1.197509958996648277e-01,4.171859920024871826e-01
2.664229356359112955e-02,-3.803402844964539620e-01,2.947932243612896852e-02,-1.016517137359119159e-02,-2.838959237899664218e-03,-4.038599017348284970e-02,4.147586524486541748e-01
1.695186160632372596e-01,-8.607029515296434896e-01,3.894638487712964725e-02,6.118723078519306552e-02,-1.102991211789078052e-01,7.738954214104264151e-02,1.004780530929565430e+00
8.910983065765265554e-02,-5.928668547476236839e-01,1.904767361729417519e-02,6.197033000075361821e-03,-6.019750879797335606e-03,-3.769422184392919907e-03,6.499897837638854980e-01
-2.446937089741890725e-03,-2.335026370969572884e-01,-7.890739571293284293e-03,3.827657467159260862e-02,1.833613102307846132e-02,-1.526207684230410366e-01,3.569898903369903564e-01
6.460245904853220700e-02,-5.430903752473368318e-01,5.997868079740648062e-02,4.766146862186066563e-02,2.135564119937952143e-02,-5.679135165775055921e-02,6.199684739112854004e-01
7.490400839176539205e-02,-2.864540559327011238e-01,-1.022535613160011070e-02,4.279292754836377943e-02,1.177380273654196445e-02,-4.628434176592104848e-02,3.455441594123840332e-01
5.585011023239458416e-02,-4.499183469305375049e-01,4.156717985212493582e-02,1.689332856754423642e-02,4.355202510766285895e-02,-1.624366372588619545e-01,5.783470869064331055e-01
6.818229908834083641e-02,-5.446600040958399225e-01,6.643308011704265881e-02,2.069195979642295125e-02,1.258305777412853724e-02,1.438081980985924865e-02,6.139109730720520020e-01
-8.860024085269938010e-03,-2.656370288536172852e-01,9.798103737090821386e-03,-5.263750527525046415e-03,-3.421938615895501936e-03,3.346236218292261005e-02,2.730402350425720215e-01
2.308191964257230167e-01,-8.528621683136843323e-01,-7.817121566599721794e-03,-2.692373865580311929e-02,1.818620171228691254e-02,-1.541068740431002504e-01,1.023289084434509277e+00
1.769012424977377540e-01,-5.839561715671925946e-01,-2.850353561416368864e-02,-1.579019535173070143e-01,-1.345031030648813006e-02,-8.007512597943078347e-02,7.479233145713806152e-01
-2.206882730093620570e-02,-6.134765908963069059e-01,1.277514171276933896e-01,-1.727346270919335623e-03,5.686179222900637591e-03,-7.187016706981758790e-03,6.790250539779663086e-01
-1.869619431335522997e-02,-6.200595209714838685e-01,1.236118051898115744e-01,-1.070481502761070139e-02,9.802185343343566837e-03,6.121484483457063398e-04,6.841793656349182129e-01
6.873540406676154069e-02,-5.894678698171416098e-01,6.984515257568499336e-02,3.117558278464693886e-03,-2.058867648985392585e-03,-3.735060431257547151e-03,6.588224172592163086e-01
-3.036214423028371634e-04,-7.257105174211386789e-01,1.474294586841234378e-01,9.430050355863068114e-04,2.341380086159236193e-02,-1.332017829819318738e-02,8.107936978340148926e-01
2.533575535778004317e-02,-9.689577829730980918e-01,2.169545936079949056e-01,-4.292924676157878344e-02,-1.000674367904558631e-01,-7.848319942405464211e-02,1.126903176307678223e+00
4.208367867345455537e-02,-5.933675419009645235e-01,7.059310059331602716e-02,4.002783866774693028e-03,-5.663763705598673717e-03,7.574790993610099228e-03,6.504181623458862305e-01
-1.773276742440516029e-02,-6.174368001255869931e-01,1.166816885227113243e-01,1.006832631247947703e-02,-6.782171218965228794e-03,-1.443148504952850258e-04,6.773205995559692383e-01
-2.100398732336343499e-02,-3.631896727071965425e-01,4.486196191199690042e-02,-1.237171906868120286e-01,-1.372306830219825052e-02,-8.885597507875347967e-03,4.366776943206787109e-01
2.210387787552580141e-01,-9.523735655241331033e-01,-9.146204562744758571e-03,-4.890618901695978349e-02,-2.482002497262870283e-02,-6.833526778750646791e-02,1.087571859359741211e+00
-6.783592875294566782e-02,-6.098336890736283378e-01,1.323871061675029881e-01,6.435248851756040014e-03,-1.998290164134605348e-02,-7.630692994179960262e-03,6.662343144416809082e-01
-1.611682946850015452e-02,-5.920485867621136933e-01,9.502916275113243438e-02,1.034429366529547416e-02,-4.010462640456304712e-02,7.855914708350910563e-04,6.428151726722717285e-01
7.152289450259077808e-02,-6.003117909038477862e-01,1.098124932853530855e-02,-1.174853618310622676e-02,-3.928321709284251367e-02,-8.123169716702811211e-03,6.477612853050231934e-01
6.547240625458608521e-02,-4.952053674814899109e-01,6.484741294574186687e-02,9.375158722116486154e-02,1.301397506819253029e-02,2.809512270105973125e-02,5.858786106109619141e-01
-2.442294111799064860e-02,-6.005912166684277409e-01,1.269877667766821649e-01,-2.706456376978268359e-03,9.880419908761265552e-03,-4.918168933243486501e-03,6.652221679687500000e-01
-1.324909445694241739e-02,-6.195058186410149492e-01,1.280533286897310719e-01,9.086542313297666859e-03,9.793740958563123405e-03,-3.981102836709776369e-03,6.883038282394409180e-01
-5.582148035374129291e-03,-6.297619839926267282e-01,1.283584698606846097e-01,-3.996198198346016806e-02,1.526750483356188737e-02,-4.624257174198985638e-03,7.047680020332336426e-01
-1.608767718389964019e-02,-6.393435632213315678e-01,1.330868196026377959e-01,-1.356244792979491472e-02,2.523860718278046408e-02,-1.057844962733135675e-03,7.114358544349670410e-01
-2.463862358946755649e-02,-6.148403196133240822e-01,1.190279624654568269e-01,1.368284014916654363e-02,7.895076735117693067e-04,-5.062085500746171113e-03,6.740999817848205566e-01
1.122517748907127522e-01,-7.929201185043864841e-01,8.722658322381610096e-02,-1.276276718768902807e-01,-9.155619875334632118e-02,-1.147181318542427192e-01,9.543611407279968262e-01
4.600604660273985291e-02,-5.989547799001405659e-01,9.983178426142996775e-02,-1.712469242859695692e-02,2.222312541517966825e-02,-1.159059280498565478e-02,6.755380034446716309e-01
8.241244666305297395e-02,-5.803539338948817683e-01,6.757881151269107267e-02,-4.340230879947156416e-03,-6.532987083313446935e-03,8.845338025764745270e-04,6.556180119514465332e-01
4.683046091033218894e-02,-5.947105493352872196e-01,7.671364401488364737e-02,-7.140433631276579471e-03,-1.939838488188877280e-03,4.010460277720289887e-03,6.571542024612426758e-01
8.389944221351430809e-02,-5.924942240849615516e-01,6.616243913025657286e-02,-2.778620844392687417e-02,-4.168766874993802204e-03,-4.052888240758520909e-03,6.695098280906677246e-01
2.755165487370553334e-02,-5.829124509158751799e-01,6.858608334734347944e-02,1.033844717391314881e-03,-5.665764485695734716e-03,2.783152999450508574e-03,6.320783495903015137e-01
7.988303798230569908e-02,-5.828437964205104294e-01,7.074234652828231829e-02,-6.639675079535677787e-04,2.838390846837786190e-03,1.465906552049610779e-03,6.582283377647399902e-01
8.141787582625251152e-02,-5.810805000394425601e-01,7.002773869670692042e-02,1.454861836396940857e-03,2.789832295107914136e-03,1.578389975048230661e-03,6.569056510925292969e-01
8.808418717530425157e-02,-5.750882686850857795e-01,6.551251554690906698e-02,5.962015299259042439e-04,5.776233394670137258e-03,-1.531167490260702639e-03,6.522625684738159180e-01
6.131151751486804691e-02,-6.087676767880971784e-01,8.842852468762593676e-02,-3.847635428234654625e-03,8.415402356182785301e-03,-4.313697038709683154e-04,6.842290759086608887e-01
8.650978764429412271e-04,-2.977705464372046307e-01,6.592046165142625980e-02,-1.152451042982457902e-01,-5.621788267619117624e-02,-5.889990787536120848e-02,4.154233336448669434e-01
6.076688571169569508e-02,-5.806624641710070867e-01,8.916979425367610457e-02,-2.529188945550103849e-03,-3.515581598671416522e-03,-6.075282410542796364e-03,6.562193036079406738e-01
3.590540478174086836e-02,-5.966873259482401437e-01,1.143470148144222209e-01,-1.423412992254523279e-01,-5.719882655106184322e-02,-8.410148928726618456e-02,7.401119470596313477e-01
8.241707494818020785e-02,-5.746691741261940045e-01,6.553543691355093181e-02,4.205819747929085057e-04,1.531381468653132856e-03,-1.568274860461456571e-03,6.488217115402221680e-01
5.630477273743605959e-03,-5.953382989711581974e-01,9.586164404237418335e-02,8.430180662384356358e-03,-1.107663753980597451e-02,3.652458933641056747e-03,6.512699723243713379e-01
6.094913325032710882e-02,-5.908842845846437042e-01,5.373986040629877281e-02,-4.596119604194406384e-03,-5.580288081450081143e-03,-7.449392923818951885e-03,6.485081315040588379e-01
4.586999270186720157e-02,-5.952103905470215173e-01,8.154732076774973137e-02,-7.098295825551151003e-03,-2.916125046485318513e-03,6.583948675949892471e-03,6.598755121231079102e-01
9.240777250738885229e-02,-5.773476286747121211e-01,5.718999212364389573e-02,1.730119006436176524e-06,-3.390490298189597490e-03,-5.605319276727503859e-03,6.529579162597656250e-01
1.371778843034145989e-01,-9.268027305852453157e-01,5.612226185228008646e-02,-1.377103205719794610e-01,-9.702833677257982625e-02,-3.798715703344073685e-02,1.068572878837585449e+00
4.904109823008073743e-02,-5.947845515142839989e-01,7.304185576614455333e-02,-2.965554225662244119e-03,-2.238357065369731176e-03,7.000401102312285226e-03,6.562988758087158203e-01
2.457925785189843393e-02,-5.981211369237514619e-01,7.759582103567616573e-02,5.897380076551764737e-03,-2.723105258371972051e-02,-4.339377417022705595e-03,6.526602506637573242e-01
-1.454146724321875306e-02,-6.182077867357733680e-01,1.094870854888495004e-01,1.297074075118632118e-02,-3.823281665516587574e-02,8.622253329686455081e-03,6.780714988708496094e-01
7.175601881144466621e-02,-9.674084995930848363e-01,1.642214123144554172e-01,-1.062502145314412200e-01,-1.033102047568285470e-01,-1.084655060004369037e-01,1.133878350257873535e+00
6.628970442991424794e-02,-5.588759859358536364e-01,6.612857865139962210e-02,3.547981260741956203e-03,1.383088333375777877e-02,3.348748706639646886e-03,6.256011128425598145e-01
7.923705550084009230e-02,-6.293627142606041946e-01,5.860540601349245593e-02,1.451335358421675971e-02,-2.185392952760900967e-02,1.096727784984238147e-02,7.002465724945068359e-01
5.524253071614818045e-02,-4.915740662555545537e-01,5.412334556080614090e-02,-2.151676534662183907e-02,1.471571650582561598e-02,-2.335153416421463513e-02,5.496108531951904297e-01
1.955419713156008599e-01,-7.844856484366444782e-01,7.840568033979561369e-03,-6.975163551909928372e-02,-4.265463491367828264e-02,-1.164959972392213272e-01,9.340778589248657227e-01
-1.647361322543494655e-02,-5.881960092102127557e-01,1.018649860239538851e-01,-1.351874381982954903e-03,-1.653306224046660264e-02,-6.189518796466322338e-03,6.398966908454895020e-01
3.960851892445629852e-02,-3.976651283141003357e-01,1.571425637217852000e-02,2.491255250540552442e-04,-5.004231501219269691e-03,-8.550098905781117545e-03,4.261754155158996582e-01
1.242936143039932717e-02,-5.752929064286199656e-01,9.468389077714617352e-02,1.729254478703333084e-02,-3.310142942883318590e-02,-8.620801118781575706e-03,6.363436579704284668e-01
-1.576151985778440068e-02,-6.196556519261624540e-01,1.216821568940218978e-01,2.092313782008134102e-02,-2.862674310628734314e-02,-2.593667429261439783e-03,6.858369112014770508e-01
6.860498973849876725e-02,-5.844028224990803766e-01,7.115614353982160911e-02,6.671629020671972048e-03,6.570977393884400337e-03,5.422486309968262662e-03,6.545554995536804199e-01
7.309274941887955457e-02,-5.983590618020026008e-01,7.284457065885235894e-02,1.183945398722879416e-03,4.927580237173188188e-03,1.172401647247498652e-03,6.713882088661193848e-01
2.226793864711951176e-02,-6.131888175651116768e-01,1.131788144166740451e-01,1.881419914412615635e-01,-9.963921105242615206e-02,1.061976095970979250e-01,7.997812032699584961e-01
8.106590750848516325e-02,-6.024173780036441439e-01,9.359422939838246691e-02,9.225495721707856200e-02,3.244518170384196390e-03,-5.255942665964508792e-02,7.139476537704467773e-01
7.203930680283204824e-02,-6.018986707568274586e-01,7.387740453454136325e-02,1.454052626820690353e-03,5.611995457664136887e-04,5.012706392396943300e-04,6.748648881912231445e-01
1.103648829501893136e-01,-3.851985018213399115e-01,1.650475072714931157e-02,-3.823236113659123775e-02,8.866227052255813354e-03,-1.307112482097651796e-01,5.135722160339355469e-01
3.887273382312517178e-02,-3.842407466428719998e-01,1.290467656257217322e-02,1.694821457149896932e-03,-4.912241466010392084e-03,2.037717346854745534e-03,4.108593165874481201e-01
2.090165856293010882e-02,-3.534025917289575491e-01,4.316038606613387119e-02,3.346210521334937876e-02,1.260475024398434278e-02,1.122506150009666276e-01,4.365398585796356201e-01
6.935839809235558318e-02,-5.950275886164396733e-01,7.218721716877107841e-02,2.099999118834964401e-03,2.949865288560357766e-03,-3.431374427165554720e-03,6.658609509468078613e-01
6.624067757143881074e-02,-5.941136884679247832e-01,8.401286904088633989e-02,3.000532184375405767e-03,5.855785307116321593e-03,-3.124193346911909724e-03,6.695362925529479980e-01
6.052526539881530887e-02,-5.905974884995423002e-01,6.884465865548103358e-02,-1.946781142648464297e-03,6.704123517324298617e-04,-7.558816343813968283e-04,6.553330421447753906e-01
1.122183708302925687e-01,-5.069245883553847865e-01,4.656203047138435247e-02,4.010210427133329564e-02,8.559315337068378049e-02,-1.426688242060218936e-01,6.594424843788146973e-01
6.133663340801517871e-02,-5.955659984856993550e-01,5.993996678339780226e-02,6.533699561737839855e-03,-2.433754855826568246e-03,4.739945776343534346e-03,6.563678979873657227e-01
6.242301722578530443e-02,-5.863534522051032649e-01,8.710701939028372975e-02,-3.527663036849780932e-03,-1.785491341351493023e-03,-8.226997624734439310e-03,6.616529226303100586e-01
4.928493467285174900e-03,-3.083166990074893143e-01,3.387549019296220987e-03,2.411112413949598101e-03,4.014394430175137821e-03,3.658843827020804435e-03,3.126470446586608887e-01
-6.575582564028435023e-03,-1.125587897198967041e-01,4.521573074640677925e-02,-2.799212845144371034e-02,-4.693837201979548374e-02,-4.514505483916877310e-02,1.856834143400192261e-01
6.826237794377409962e-02,-5.934728773949639047e-01,7.683932084371689064e-02,2.729391764709554209e-03,1.484262296877624562e-03,-5.702116119264340503e-04,6.660876274108886719e-01
6.958787830214535619e-02,-5.990921572788693306e-01,7.753606062511619879e-02,-1.970329566926408047e-04,2.140253613674958887e-03,-4.599157729576045427e-07,6.726996302604675293e-01
5.629560372446756888e-02,-4.279895725618935720e-01,4.051114891331883405e-02,-1.322323607456484806e-01,-6.016175811272347906e-02,-1.207598337401609712e-01,5.781006813049316406e-01
5.851127851343060349e-02,-2.475309650434455722e-01,7.911937744757611968e-02,-8.529035671491493054e-02,-2.990618548277846744e-03,-6.915227268325567500e-02,3.695805370807647705e-01
7.813144154743462133e-03,-2.264837751944488720e-01,-8.731591495799329028e-03,-1.435511826700297620e-03,-4.222780866543955278e-03,-3.631866822222337005e-02,2.351790964603424072e-01
-2.001789108383000837e-03,-2.772770401485644132e-01,-9.886182671390728038e-03,8.623661897993576547e-03,-2.956744811987938666e-04,4.050533640969070613e-03,2.719206511974334717e-01
1.188847561657749297e-02,-3.874130433666688189e-01,5.174780410991391966e-02,-1.409629119416475236e-02,-5.811002907038584006e-03,4.195043273895061181e-02,4.276953339576721191e-01
1.300458244701850896e-01,-2.497623233281424382e-01,1.883412278529309619e-02,-4.971143380547028007e-02,4.982563354727876509e-02,6.155880398463157988e-02,3.749841153621673584e-01
1.632411525512096895e-01,-5.620462365562315377e-01,-1.228840291446375854e-03,-6.944074424406435075e-02,7.607921234781701847e-02,1.815611857654017003e-01,7.513506412506103516e-01
1.082263611006255288e-02,-1.947010554859929521e-01,-6.036561445134078219e-03,2.911734568485888422e-02,-1.353829476304697736e-02,1.155412671989502343e-01,2.867087721824645996e-01
7.040411775002455852e-02,-5.704502708239720388e-01,7.871085403112268453e-02,-3.097327493032132201e-02,-9.663414260518655638e-03,2.984120260263012706e-02,6.495509147644042969e-01
3.098754687379828843e-03,-2.241144643034249928e-01,8.394381324612204542e-04,1.188245059353933292e-01,-1.668050797430312496e-02,5.417470392360515530e-02,3.211149573326110840e-01
2.583810988468715486e-02,-3.219210477473651300e-01,1.078679972561742972e-01,-1.576942269318510337e-01,3.819865975194366298e-02,-1.095268631500466265e-02,4.853160679340362549e-01
6.837196779282722625e-02,-5.647349793848487343e-01,7.367830150706139447e-02,7.124301062699443495e-04,8.387186597090269188e-03,6.801451708186694207e-03,6.360529661178588867e-01
6.442459843177009149e-02,-7.916754674326934027e-02,6.924976744070365786e-02,-1.869139777104352612e-02,1.272189507980160499e-02,-3.837094166730484895e-02,1.651831567287445068e-01
6.344600155822119336e-02,-5.023773949901211289e-01,4.530535228000598380e-02,-1.551690329984379548e-03,-1.398981711954897650e-02,-2.577875831234403663e-03,5.575258731842041016e-01
1.069066399261391076e-02,-3.234728848574120463e-01,1.446447596133000613e-02,-5.507285502395609794e-02,8.650206581747039991e-03,-4.576938285300501813e-02,3.585368096828460693e-01
1.993344194116566936e-02,-3.807321832566644138e-01,1.948780287679460765e-02,2.533994942537493716e-03,-1.253748471095229508e-02,1.752469479122075553e-03,4.010668694972991943e-01
4.107942095473998689e-02,-4.821876340873594846e-01,6.571554133958620869e-02,-1.879651226077370951e-02,9.100797638679092999e-03,6.215564349364613439e-02,5.479096770286560059e-01
4.776000964986629183e-02,-5.040803586393387548e-01,7.232440484016058879e-02,-1.843015454923151511e-02,-1.125444583020872302e-02,4.773479734087698184e-02,5.717706084251403809e-01
1.241943085238317313e-02,-1.622168026490225512e-01,-5.383973869801314538e-02,-2.344064834541840711e-02,-6.178949361187156125e-03,1.405695351462283582e-01,2.904464602470397949e-01
1.463741429243031744e-02,-2.433060808898488137e-01,2.468285676420797770e-02,2.175000683403903803e-02,-2.830925004341426979e-02,9.217461720016877080e-02,3.139089345932006836e-01
2.948401637719400004e-02,-2.566891558304700283e-01,-3.425292589392055220e-02,1.006821679119952566e-02,-2.584420833719408214e-02,1.430777905042654730e-01,3.625456094741821289e-01
-1.413446384611408146e-02,-5.921596464774634416e-01,8.615771581402315027e-02,9.482467679219029610e-03,-3.912543957294575825e-02,5.417502253632865833e-03,6.380385756492614746e-01
8.190293508692106372e-02,-1.616412515351274837e-01,8.235563337676746198e-02,-6.298617881079295044e-02,3.152173156140674476e-02,3.078761345504546585e-03,2.726449966430664062e-01
6.572200663213972893e-02,-4.898486101909634294e-01,-4.192296173556875338e-03,-1.104987177324949776e-01,7.049504770052351932e-02,7.367912742611514021e-02,5.852596163749694824e-01
1.003277804550671837e-01,-2.093716991592964594e-01,4.326373325624013888e-02,-4.902504418415346010e-02,3.473096003773808171e-02,6.489092733181005268e-02,3.239736855030059814e-01
7.257664831714927267e-02,-5.793596074656082173e-01,7.412915633656524950e-02,-2.411566778808685915e-03,-6.312516059779113738e-03,1.971586773531321026e-03,6.528277397155761719e-01
7.630574213301818953e-02,-5.845313363180528743e-01,1.436534119482019145e-02,-1.036317079862825044e-03,-1.589050167050861176e-02,5.386638362304471163e-03,6.328171491622924805e-01
5.633366781276516466e-02,-5.623195523837376530e-01,9.013920344564932408e-02,-6.667686107741695699e-03,-4.195659023199089371e-03,-7.978439404435865153e-04,6.363777518272399902e-01
1.150540939489543280e-01,-6.173814064003404489e-01,7.028919175947306863e-03,-1.241381200236368471e-01,-4.252580035964106248e-02,-6.180898086558767046e-02,7.294703125953674316e-01
8.510776012217458053e-02,-5.970361322956716510e-01,4.754511486176088431e-03,5.350128707911565307e-03,-1.264190291760192326e-02,1.006104218380695151e-02,6.464003920555114746e-01
1.976526029200115220e-01,-9.774232307055610303e-01,5.484945617358305547e-02,-5.664831455981430425e-02,-8.237850230154837583e-02,-5.463757317114349699e-02,1.127977371215820312e+00
2.028802962490019457e-01,-9.686035401839112602e-01,4.386693003173236516e-02,-6.876178671747619486e-02,-9.082020534817983326e-02,-5.629146236387335550e-02,1.122414231300354004e+00
5.822955538072371873e-02,-5.836453852130504272e-01,7.740448394268875654e-02,-3.347385167921643635e-03,2.820234179090445187e-03,3.519964530253812205e-03,6.517466306686401367e-01
6.302125608249695143e-02,-5.794736399077333733e-01,8.452133242004269964e-02,-2.862287679966962328e-03,-1.586230388400689537e-03,6.646444025127782500e-04,6.535358428955078125e-01
2.401757683465596815e-02,-6.635668061351294167e-01,9.595993138376557319e-02,2.318780223186086079e-02,-7.556502532839969033e-02,2.155015379258978445e-02,7.399668097496032715e-01
1.075820875781385855e-01,-6.614336947591332727e-01,6.989994932309415154e-02,5.484676362684296619e-02,1.085012149090450739e-01,-1.807440217719908926e-01,8.403418064117431641e-01
5.547328770334009063e-02,-4.570503629507025600e-01,4.236705087382847124e-02,2.523272189317617500e-02,-1.429585969954167909e-02,-3.281788011294173302e-02,5.117511749267578125e-01
2.953430020838729297e-02,-5.620536046657231832e-01,4.108214045987196306e-02,5.914189312902393830e-02,-1.244317367957535059e-01,1.079605895902380763e-01,6.699631810188293457e-01
-2.097194639873170563e-02,-6.134470687227642216e-01,1.164590917610207055e-01,4.769820496133408798e-03,1.398656956524958403e-02,-3.529510237182093002e-03,6.723325252532958984e-01
8.274253979281043225e-02,-5.113664643830053702e-01,2.992263793071675559e-02,3.208007490646612447e-02,-5.539848211062281362e-03,-1.137545020982060583e-02,5.726624727249145508e-01
7.401492015860186569e-02,-5.464811034639140974e-01,6.228136656667734861e-02,8.873617723473961605e-03,-1.364106809822642798e-02,3.299243881016547574e-04,6.153593659400939941e-01
6.288560628956091358e-02,-5.881970003396326252e-01,8.303591254990050352e-02,-3.364865417192007806e-03,-2.074122956432065783e-03,-7.863136731947916944e-03,6.615636348724365234e-01
-1.089847179050873471e-02,-2.044051673503257116e-01,8.321015523344424403e-03,-2.619643465949316298e-04,1.512627226306728460e-02,1.484666122231992347e-02,2.070778012275695801e-01
6.896116983139238821e-02,-4.655131827121025134e-01,3.666056788178209680e-02,1.055630950724375378e-01,9.802787386033193565e-03,-1.580527614580333213e-03,5.506076812744140625e-01
8.578117526439071883e-02,-5.352784719059844321e-01,4.899231401425238608e-02,2.690044632813646738e-02,-9.855087332482988412e-04,-1.914861219413445002e-03,6.053141951560974121e-01
-1.615908613283048578e-02,-3.629987454735874586e-01,1.244573289783680314e-01,1.343170514107653035e-01,-1.415968724225381489e-02,1.919450426610635335e-02,4.946433603763580322e-01
5.029948476818921210e-02,-5.202895769349664690e-01,7.773214400765843246e-02,2.167001461204091928e-02,-1.290384675881901290e-02,-3.927100858704540148e-02,5.903491377830505371e-01
5.457690586033417390e-02,-2.072140302352876162e-01,8.462459994595018797e-02,4.496378607320041659e-02,9.514468246632327725e-04,3.055833214687178612e-03,2.887897789478302002e-01
2.468839467745573280e-02,-3.316825522542889981e-01,3.404710383871939472e-03,2.935912749113286577e-02,7.668204747268108148e-03,2.307821353562263065e-03,3.502093851566314697e-01
2.992569017215096494e-02,-3.891066829603015420e-01,3.342615187679090494e-02,2.650432184578203551e-02,1.728636630416407680e-02,2.078200083311087382e-02,4.258717596530914307e-01
-6.121746048677573215e-03,-6.399007950520496646e-01,1.188241339893434390e-01,2.215793540043290988e-01,-7.665343033379372339e-02,1.146385404156134713e-01,8.371504545211791992e-01
8.524907691250666053e-02,-6.033925719349026995e-01,1.053551749886000310e-03,2.055378835066590162e-03,-3.820271246953265559e-02,5.439280013741310503e-03,6.540760397911071777e-01
5.841523304181955867e-02,-5.158993762393514482e-01,8.331357415403511935e-02,3.449159589509435270e-02,1.000266385607993455e-02,-6.986565073757257383e-02,6.027184128761291504e-01
1.107502751739399827e-01,-8.707722987741972620e-01,1.338898357622209656e-01,8.792865313011241635e-02,1.353113228575303917e-01,-1.687868397006900278e-01,1.072484374046325684e+00
8.788945250539659249e-02,-6.016752054600349453e-01,1.733019829821641489e-02,2.327738711773920822e-03,3.121721762555756605e-02,-8.793479679759822962e-03,6.595412492752075195e-01
8.658775284908643011e-02,-5.644850573318029863e-01,5.789595158079172132e-02,-3.915966436557079657e-04,-3.059237771086569403e-03,-5.324329032824513114e-03,6.373006701469421387e-01
6.659063536320461441e-02,-6.018695796661230890e-01,2.638147527176132323e-02,-1.294684077833993877e-02,3.952656092168005397e-02,1.035673922837305853e-02,6.535207033157348633e-01
7.693893243572672014e-02,-5.697152651201815576e-01,6.457598736364936198e-02,1.133731842102377388e-02,-1.061607034246679973e-02,-1.271405620610983195e-02,6.415049433708190918e-01
5.618205019391828148e-02,-4.973571303233710328e-01,5.242762829447888961e-02,-4.169192679895522211e-03,-6.363272970799293063e-03,-5.160677807751035823e-02,5.590213537216186523e-01
5.386761605755482907e-02,-5.704553697960861314e-01,9.532319182559337301e-02,-1.038046571181792119e-03,-1.735003449759100775e-03,2.218286688906570114e-03,6.460700035095214844e-01
3.971501304122676546e-02,-5.061909170936302882e-01,7.997093030863935970e-02,-3.396762436931553657e-03,-6.098840006131734347e-03,-8.458840151357015225e-02,5.858511328697204590e-01
8.377232722224714490e-02,-6.853168907824175315e-01,7.085128701456447353e-02,-1.062740713561056982e-02,6.163934546049287810e-02,8.732593796190620677e-03,7.705151438713073730e-01
2.877820976787545670e-02,-2.705540398295044335e-01,1.149393903923669746e-01,8.691230252875373208e-02,4.966305431258700998e-02,-7.926780283294879159e-02,4.143971800804138184e-01
7.725516356067610446e-02,-5.707738586326217556e-01,6.645131898111064639e-02,4.798887763967437541e-04,-1.349210060728402768e-03,-9.298634125631262404e-03,6.429017782211303711e-01
-4.695524913918946996e-03,-5.922664720959046614e-01,1.010471152069855050e-01,2.392676507024575627e-02,1.904927634760919183e-02,-1.415588036956794311e-02,6.495842337608337402e-01
7.861738604103893358e-02,-1.568581347236586154e-01,3.461999545319699445e-03,-5.925904607313074030e-02,1.556183469349383362e-02,-1.762355192493633704e-01,3.844971954822540283e-01
8.056664315850423086e-02,-2.134664204319597358e-01,8.084429126677443456e-02,-3.623791321158619460e-04,3.601303638826169884e-02,-3.387167187087671699e-02,3.063825070858001709e-01
3.012555407036421329e-02,-6.915748844655472682e-01,1.464413312818175217e-01,-2.445398652821131457e-03,1.175845689966454749e-01,-4.774027096463707986e-02,8.164923787117004395e-01
3.982903598280539137e-03,-1.800204090033109272e-01,1.605668433442955512e-02,4.493543971027589082e-03,1.163071430397367816e-02,-1.779019015935236481e-01,3.628198802471160889e-01
6.877593354052238817e-02,-2.965846188156591179e-01,4.267555111039056381e-02,-9.476586357197930299e-02,-2.729822997467546558e-02,-1.124745298357440609e-01,4.379068017005920410e-01
2.545689631267902819e-02,-4.145336486852180813e-01,1.155216266230994215e-01,-1.196514970536219497e-01,-9.742269455746915482e-03,-4.495216151028189749e-02,5.390985608100891113e-01
7.561420290895842777e-02,-1.380314355884772748e-01,7.979350055171000045e-02,9.291997629826544841e-03,2.970830370728218955e-02,-3.550581389321840614e-02,2.307457029819488525e-01
3.054282588403012255e-02,-4.053196147104614067e-01,4.341804037130961302e-02,2.759191736469780026e-02,1.839726287724742157e-02,1.000509532010374937e-02,4.464899599552154541e-01
8.136102195631368661e-02,-1.606190716299368548e-01,8.197545290061239442e-02,-6.855303291703618296e-02,3.201014094836661383e-02,1.252184624915550319e-02,2.763083577156066895e-01
9.418176262257510478e-02,-6.527191346892989854e-01,8.905206459603692837e-02,-1.077061489813651018e-01,1.301818533452241966e-01,4.938768077791710204e-03,7.998580336570739746e-01
6.220703502326255241e-02,-5.660694609782568332e-01,8.340758926978028565e-02,1.377748822443463847e-04,-7.603885288625922105e-03,2.815618723520111211e-03,6.392948627471923828e-01
7.585685913567655203e-02,-5.867099745011941092e-01,4.720762490455351901e-02,-2.950428545060323864e-03,1.601501985252437327e-03,-4.137971146964482955e-03,6.487824916839599609e-01
6.264206369164132537e-02,-5.703847549784375470e-01,8.334260500180065701e-02,8.642736862372273456e-04,-1.377187773366780974e-03,1.699316556824064265e-03,6.436396837234497070e-01
4.265853326613683327e-02,-5.737871116546129358e-01,7.939434627479843853e-02,-2.325157115128611510e-03,1.034135186412609569e-03,2.499176579755870258e-05,6.356255412101745605e-01
3.075143249041822902e-02,-6.245015616414204551e-01,1.042321060657617204e-01,3.058736617503354273e-03,6.639034762489952335e-02,-2.032586473599801852e-02,7.052622437477111816e-01
1.113383899001760269e-02,-6.115359505405514318e-01,1.018972389459402716e-01,5.080561426440518245e-03,1.218792266458298360e-03,-3.790175647536224088e-03,6.727527379989624023e-01
9.219986140553318443e-02,-5.434539880938700218e-01,4.447034782558398347e-02,1.197342127888949802e-02,5.197146554870185967e-03,-4.627062249922323216e-04,6.136010289192199707e-01
-1.457254930939241855e-02,-5.957125648362683323e-01,9.477769805958158322e-02,-6.073890779485029666e-03,3.320986789238316444e-02,-5.098967666029658764e-03,6.455434560775756836e-01
6.006054002114730173e-02,-9.054720541572878201e-01,1.980667192706767610e-01,1.066235128146609916e-02,1.141224448061048113e-01,-7.670115628283002973e-02,1.068461656570434570e+00
3.232771254200045297e-03,-8.972445867468545888e-01,2.010658399384483985e-01,1.960331774379867401e-02,-8.467699751833843158e-02,-2.066468058020928256e-01,1.085777997970581055e+00
7.709136536658145467e-02,-5.548025154635163325e-01,6.101031041614932149e-02,1.274321551728297558e-02,6.459588530326726592e-03,1.348976035839195321e-03,6.245036125183105469e-01
-8.463727549859745292e-04,-5.950789701364612716e-01,9.882511947501737559e-02,1.326795291524309785e-02,-3.680196506970172168e-03,-6.718183633387673007e-03,6.503683328628540039e-01
8.983501343717559262e-03,-6.059691357178422777e-01,1.091937675727262524e-01,1.347460406216919974e-02,-8.382849623188286942e-03,-1.181592340815950347e-02,6.715711355209350586e-01
-3.622456751543387532e-02,-6.403413870509777617e-01,1.795051911833458469e-01,1.485609852235377816e-02,-6.664599808375280821e-02,-1.109902720297070017e-01,7.699130773544311523e-01
-2.850722458698537465e-02,-5.597112693484699308e-01,1.191175095436494136e-01,9.566518552515321239e-02,-2.210856450488712932e-02,-4.531644111216912713e-02,6.461209058761596680e-01
-1.960989341619456816e-02,-6.127022891102951174e-01,1.308991643524898274e-01,2.253848812878815611e-01,-9.349415504347116657e-02,8.343395378659371198e-02,8.143583536148071289e-01
8.439128648400379129e-02,-5.757244455284620255e-01,6.302385068355662034e-02,4.794842104706663159e-03,7.090865708861878933e-03,1.677579354664396165e-03,6.498712301254272461e-01
9.018330952117190047e-02,-5.567363510101870361e-01,5.137627299016531146e-02,1.203193875997582386e-03,2.031445733989155258e-03,9.005294177774552733e-04,6.284307241439819336e-01
8.293971784823317428e-02,-5.640293188041329842e-01,6.003987598037152651e-02,5.045159744691247485e-03,7.118576817958791568e-03,1.908525468339878272e-03,6.360166072845458984e-01
8.729060137213653925e-02,-5.642238591066047748e-01,5.662162717687188596e-02,-8.233399407316707025e-04,5.693121799686071474e-03,-1.388266658710875755e-03,6.368166804313659668e-01
1.936453927457201796e-02,-6.088672011655058558e-01,9.465441317565281842e-02,1.362887452100199071e-02,-7.415133515825220178e-03,4.079535466789676809e-03,6.696381568908691406e-01
9.320334290346241057e-02,-5.635169552940395565e-01,5.186947909137559765e-02,2.020860985293661087e-03,2.492168265555050506e-03,1.823056730616276662e-03,6.370919346809387207e-01
-6.354027742509511800e-02,-6.112468339921430793e-01,1.452728928235525463e-01,1.188678523396641002e-03,4.813630274262368190e-03,-1.000358280856478328e-02,6.769990324974060059e-01
-1.507561132545290339e-02,-9.024903276126160501e-01,2.426427133006844872e-01,-6.088533210133716816e-02,-1.321162861322597998e-02,-4.218461902604737218e-02,1.048622846603393555e+00
1.881950808235466344e-02,-6.157327709586670750e-01,1.090081938777801573e-01,1.380176407664137316e-02,5.405770624829240277e-03,-5.116929266954662464e-03,6.846588253974914551e-01
6.811524080037256734e-02,-5.811034470828191356e-01,8.279632840102005287e-02,-2.483902688673105159e-03,-2.891198801779597781e-03,1.950736928566036785e-03,6.567242145538330078e-01
1.622051098016539794e-01,-4.032624098423147618e-01,-3.242672784527724644e-02,-5.099545514045340094e-02,3.242770717127952534e-02,1.762779301964742251e-01,5.930894613265991211e-01
9.332581427214911574e-02,-5.646149387312089374e-01,5.578846445558421907e-02,-1.610277561405189283e-03,1.793220434371797746e-03,-1.338006471047763603e-03,6.400160193443298340e-01
5.606513185075320815e-02,-5.725956269790219988e-01,9.070663868307371480e-02,-4.016683144294675226e-03,-5.982152227106317605e-04,7.061034293665451218e-03,6.468316316604614258e-01
6.494929565354520817e-02,-5.786806510368054379e-01,6.838459751407566234e-02,2.386360766107932540e-04,1.343179627826410335e-03,-1.167139886902283583e-03,6.453619599342346191e-01
6.684941261969390425e-02,-5.829013717636397640e-01,2.303063994921347724e-02,-1.987967555100920436e-01,6.714570569067930539e-02,1.547454119151574214e-01,7.743057608604431152e-01
6.949804765140937812e-02,-5.878036444528215165e-01,6.779949267579674088e-02,-2.075735535971490273e-03,9.688117658084391013e-04,-1.976130117008383872e-03,6.564749479293823242e-01
6.836301035088276912e-02,-5.862565181796334235e-01,8.303743728742807306e-02,-3.172829256130178213e-05,-4.178571856970173491e-03,-2.355574020133689890e-03,6.621308326721191406e-01
6.751009747581937503e-02,-5.856274049164416073e-01,6.963320709660936192e-02,4.068613534915633927e-04,-6.225467685069541179e-04,-8.908726026939405625e-04,6.542047262191772461e-01
4.036839297537683779e-02,-5.171239287964399800e-01,8.362807478453132548e-02,-1.658263164274145600e-03,6.285972226454637941e-03,6.171280218129309228e-03,5.805402994155883789e-01
7.349410895359759222e-02,-5.856521735830795272e-01,7.399173436560815831e-02,2.768816800369722220e-03,3.060906455773928104e-03,3.601244340946767319e-03,6.594634652137756348e-01
6.854858984112929821e-02,-5.894782147386623539e-01,8.012627187483073454e-02,2.323423641867902820e-03,1.205921781751618377e-02,7.251702192604340524e-04,6.642332077026367188e-01
6.940298057884614069e-02,-5.833160581370404607e-01,6.610568117965065493e-02,-1.859284438204868986e-03,7.871750161693075220e-04,-3.276896122163986021e-03,6.511107683181762695e-01
6.930358650106446805e-02,-5.858667127687369192e-01,6.971655356233491529e-02,-1.852188714973551122e-03,-2.831540601219355061e-05,-1.033414914108809340e-03,6.553871631622314453e-01
7.765684215759763309e-02,-5.821168901159016196e-01,7.411288587822950635e-02,5.438198981539314010e-04,-8.144465051374389156e-03,-1.123970282777816314e-03,6.581636667251586914e-01
6.980068635473452021e-02,-5.858695817939733042e-01,6.570092271293773156e-02,1.947841953803196432e-03,-2.818815726893392822e-03,8.094567971039669891e-04,6.536584496498107910e-01
6.156072030302214837e-02,-5.835615137186482837e-01,6.040941696938509353e-02,-2.095060854895739854e-03,2.017272805443483198e-04,-2.590671196704003466e-03,6.445732712745666504e-01
-1.313996414072615693e-02,-6.358176586482904291e-01,1.623383604859776064e-01,-1.747197092036806287e-01,6.591052620352593969e-03,-1.998803306587797202e-02,7.878428697586059570e-01
5.537717157348442942e-02,-6.048074774817888688e-01,7.889444550636626197e-02,2.615024729477521959e-02,-6.501412037305608939e-03,-4.189070371610441670e-03,6.739091277122497559e-01
6.948116336648174629e-02,-5.939802125273061506e-01,6.966587089590206561e-02,4.862074486337008943e-03,8.646088270951591799e-04,-1.860377426824427229e-03,6.636167168617248535e-01
6.377508475823784329e-02,-5.800756117480265761e-01,7.408218489112280980e-02,-2.885294051238294476e-03,2.954522879283738059e-03,1.822102966417612742e-03,6.491127014160156250e-01
8.875944502985366746e-02,-5.892628142325795348e-01,6.280581248450331500e-02,-5.834516978139635789e-03,-2.840443349281513655e-03,-4.301740454114603637e-03,6.655617952346801758e-01
7.859696776077212954e-02,-5.524499254292158934e-01,5.503156417578078385e-02,-1.250310369078858411e-02,-1.256604712359592028e-02,-1.434429778446570745e-03,6.203656196594238281e-01
8.528985381269302279e-02,-5.748106768001244316e-01,5.939429399003581800e-02,-8.243840456836964634e-03,-2.930393339567934855e-03,-1.976556296104745730e-03,6.477275490760803223e-01
4.927492165129512824e-02,-4.884192616359095962e-01,5.631605900547620447e-02,-2.696057911238926297e-02,-1.690481286723955270e-02,1.293266309131780104e-02,5.445092320442199707e-01
-6.918792332027690062e-04,-2.629934305228361358e-01,8.590954511536519345e-03,-1.862292657147327293e-02,-6.398529868466678802e-03,3.945525311967199716e-02,2.777707576751708984e-01
1.328318443141213168e-03,-3.599568118588374888e-01,2.490978559928619385e-02,-1.659280974864861535e-01,6.506778763459622472e-02,1.108236064427328554e-01,5.212927460670471191e-01
7.466528202946237647e-02,-8.834192843850305898e-01,1.262092115454189201e-01,7.710184634285024985e-02,-1.149880661818959843e-01,5.731742184894818293e-02,1.018490552902221680e+00
6.448875373323678661e-02,-5.763865031781900683e-01,8.276372125125397439e-02,-2.173218112266584682e-03,-1.990700739036447252e-03,4.090815522823338692e-03,6.502640247344970703e-01
8.144735072803940823e-02,-5.548426138172348754e-01,5.516123110598739054e-02,-1.701465262094360026e-02,-7.109356955076606178e-03,-3.890461167955118352e-04,6.243804097175598145e-01
5.762165240448557935e-02,-5.264118181222288140e-01,5.921759759847719518e-02,3.218956226761911926e-02,-2.769850886667886598e-03,2.827095697884872069e-02,5.895413160324096680e-01
-1.057499292442784511e-02,-6.549570683238048474e-01,1.254744297049213975e-01,-2.283011856553916405e-02,-3.134469685986962517e-02,2.028303412094609876e-02,7.260515093803405762e-01
6.457695370300250981e-02,-5.228229482634118019e-01,5.331162310553139161e-02,3.307133916072637313e-03,1.523829961496203471e-02,3.526395184778314488e-03,5.825075507164001465e-01
6.070256506040982991e-02,-5.352678930147735104e-01,6.452343862085280213e-02,-1.514522264841011365e-02,1.632418478163895695e-02,2.693596020580059716e-03,5.991509556770324707e-01
6.882676737827442270e-04,-5.872806044138687565e-01,8.101262778195528202e-02,1.724845774846446361e-03,-2.285085065062305090e-02,2.571562814485250405e-03,6.332320570945739746e-01
-5.149356641425928416e-02,-6.443755756726534667e-01,1.571183282163701178e-01,1.112734750622238963e-02,-8.662011269245354153e-03,3.083267325394264957e-02,7.226055264472961426e-01
-1.760890911016488314e-02,-7.003325621451395033e-01,1.708058141908744831e-01,1.764876497206647674e-04,2.975199603965673900e-03,-1.407686437464597887e-02,7.942720055580139160e-01
-8.952032476138141459e-02,-7.011343847163452603e-01,1.906472591865169819e-01,6.897086577604012725e-02,3.245069498860669518e-03,-3.724440385436570550e-03,7.989143729209899902e-01
6.938589964757929662e-02,-5.895641531278028591e-01,6.619406454924381400e-02,-5.153128459398815956e-04,1.292746769501500496e-03,-5.174530512327080167e-03,6.574254631996154785e-01
-6.079422386877458839e-02,-7.594953273272012639e-01,2.292707224996390902e-01,4.815824569658623544e-02,-5.228379084005085192e-02,-2.384331752267227281e-02,8.898615241050720215e-01
8.904283804679680170e-02,-5.996897051588692129e-01,2.024163732923978110e-02,1.788915558846363362e-03,-6.040006956776582114e-03,-3.830023493765059763e-03,6.571632623672485352e-01
4.420290696753453874e-03,-5.946368475225478623e-01,9.179345147671807981e-02,-3.863030961626272037e-03,1.962406547395430245e-02,-2.463621693956831275e-03,6.481229066848754883e-01
5.422953196903176898e-02,-5.809053033226748708e-01,4.370925567734523787e-02,-5.574010257025240403e-03,-6.506221729545302174e-03,9.410079793976438211e-04,6.301174759864807129e-01
-4.371520130425496364e-02,-7.010995292516128963e-01,1.465338987529248849e-01,8.705368199127430651e-02,-7.338031633580467672e-02,1.694225387216666961e-02,7.957171797752380371e-01
-2.253191338996424209e-02,-6.639979945330183320e-01,1.398631550588788075e-01,-6.014258524353170016e-03,-2.986220776887342498e-02,-2.547515080579263250e-02,7.394271492958068848e-01
7.199453848585679605e-02,-5.855990792410172840e-01,8.331231110839626419e-02,8.322563239979312083e-04,-1.356573658939397211e-03,-1.560695069026900696e-03,6.633361577987670898e-01
7.431422472250537314e-02,-5.853361528370999434e-01,7.739144854811302876e-02,8.133729435181900414e-04,-4.081820038145041706e-03,-1.465773064429634663e-03,6.612385511398315430e-01
7.313051164515230185e-02,-5.869653104206020711e-01,6.980107301518762020e-02,1.230635232889517022e-03,-2.458076845113780400e-04,-1.072123653677002630e-03,6.584436297416687012e-01
7.485995416296203908e-02,-5.904457320118766672e-01,7.680693488857501250e-02,-1.092243312424000419e-03,-1.316261513624948339e-03,-1.184887220468341202e-03,6.662910580635070801e-01
6.407103301141736651e-02,-5.533264223595386611e-01,7.091543226772314967e-02,3.539783723045625882e-03,9.844910907367755704e-03,-2.787591742282451504e-02,6.229861378669738770e-01
7.038212881079453087e-02,-5.868213596056748305e-01,7.096198132283834670e-02,-5.912228760091725079e-03,7.973869147438084493e-04,1.812446710435505239e-03,6.575822830200195312e-01
7.050397657768145421e-02,-5.868827922864068292e-01,7.140529663978453789e-02,-1.606616856788684001e-03,3.756838095001555750e-04,-2.492774322781012540e-03,6.578582525253295898e-01
7.795447010472533744e-02,-5.830166136827872325e-01,7.347700351715769074e-02,-2.252630691275016653e-03,-4.324620404036240602e-03,8.538433324494661397e-04,6.587995886802673340e-01
6.890040064462008007e-02,-5.837405767094165920e-01,8.133853691498355021e-02,-1.717551332136576375e-03,-2.513404457344638188e-03,-8.737026124645727284e-04,6.589709520339965820e-01
7.733269887276331134e-02,-5.869532713662031220e-01,7.526151660890792461e-02,-6.734035876377221638e-04,9.747135253561472470e-04,-6.601119237055367650e-04,6.632569432258605957e-01
7.190635688562679873e-02,-5.863320753196437085e-01,7.760052490419525051e-02,-1.053572859254841990e-03,-8.190428203670363158e-04,-2.216358632939461996e-03,6.611191034317016602e-01
7.355852340011692636e-02,-5.823208475895668146e-01,7.773486879032570629e-02,4.359432607685663507e-04,-6.551684192087037575e-03,-4.199700645790209290e-03,6.581159830093383789e-01
9.184859809605386283e-03,-2.570468882116238030e-01,7.124742392336014252e-03,1.107535576668406546e-01,-2.464900653826160304e-02,1.015323217001623812e-01,3.740097880363464355e-01
8.576097562636886273e-02,-5.846240662024381196e-01,6.441025844915829190e-02,-1.215259752621015423e-03,-2.441085307803496623e-03,5.148089652579744156e-04,6.599862575531005859e-01
7.943478974305803741e-02,-5.899596285788215599e-01,7.507460911690813643e-02,-3.529095386294659451e-04,-3.285809959895675744e-03,-2.009792133608037711e-04,6.672496795654296875e-01
3.365454454860619671e-02,-3.730335351904552899e-01,2.416534831994637811e-03,1.325816482926168438e-01,-4.932018616310415021e-02,1.533438226638184632e-01,5.331425666809082031e-01
4.922415807816787892e-02,-4.037620545401320871e-01,4.496567788459757131e-02,6.747488455153759224e-02,2.292649963567751012e-02,3.903886593549574929e-02,4.723273813724517822e-01
-3.684242848146876415e-03,-3.753258974591371921e-01,8.413299956858216744e-02,-2.017897999714931556e-01,7.812547964019785074e-02,-2.691447501411095566e-02,5.666632652282714844e-01
6.117848111712878567e-02,-4.545225527437281032e-01,2.752308377861997779e-02,3.461055420159167562e-02,1.342017925638357319e-02,1.592201367566269425e-03,5.038508772850036621e-01
6.927609310789151209e-02,-5.901556514452539481e-01,6.941034692788705662e-02,-8.492583227019586669e-04,1.265475990869923502e-03,1.384470736758878573e-03,6.595085263252258301e-01
7.451068709696997971e-02,-5.843226552170324162e-01,5.268745035594118997e-02,-7.634141326011398862e-05,-1.761437760226263033e-05,-4.003772481254800827e-03,6.482344269752502441e-01
7.079857250235327415e-02,-5.891043045218850027e-01,6.931821063509696623e-02,-3.482772849686524563e-03,-4.971911471861033835e-04,5.138162956791187883e-03,6.592521667480468750e-01
5.243563091544045651e-02,-5.896452769999650512e-01,7.887809319032068611e-02,-5.067097354137357033e-03,-1.552867021477545963e-03,-6.880132585047364462e-03,6.558746695518493652e-01
7.014504689480299815e-02,-5.888507100105533354e-01,6.680319754690453027e-02,-4.641520448118806492e-03,4.912838451800917037e-05,-1.984371156660910771e-03,6.573893427848815918e-01
7.169037431234262514e-02,-5.901050964217550154e-01,7.015746694251301374e-02,9.426523587863499002e-04,-5.724766078680126923e-04,3.901944427594268984e-04,6.610334515571594238e-01
7.285272058340844237e-02,-5.898365151195229528e-01,6.662347706611612685e-02,2.529733212110055370e-03,-1.812303717241287547e-03,-2.334421904450718411e-04,6.596187949180603027e-01
4.633035135608865041e-03,-6.741358996652428992e-01,8.722887392129158313e-02,-2.164875003971003867e-02,-9.755560901005416730e-02,-1.136921430644229243e-02,7.442834973335266113e-01
2.080635963743876493e-02,-3.727131213663451015e-01,3.919038137581551395e-02,-5.943805990477481899e-02,-7.719908867356908670e-03,6.025371379852970111e-02,4.290675818920135498e-01
5.456126665510332985e-02,-6.107144023781339026e-01,1.717451415666809700e-02,-4.087617200905600302e-03,-6.939735562461463170e-02,-5.772809274549799835e-03,6.585704684257507324e-01
-4.416150075636823824e-03,-3.137826562513236217e-01,1.294786095840569362e-02,5.781599979475439237e-03,2.774591757679511442e-03,1.634015734034107228e-02,3.198521137237548828e-01
4.519055169411725914e-02,-5.871578300765678549e-01,4.230122058892143988e-02,-1.405266996587705873e-03,-1.649233382714746649e-02,-1.100517806463032931e-03,6.315625905990600586e-01
7.140718274005924959e-02,-5.829755117007668908e-01,7.562843901252996881e-02,3.093495230709192696e-05,1.745178435704573990e-03,-1.386313867994962276e-03,6.565148234367370605e-01
8.075719190018904037e-02,-5.713672035781451886e-01,6.642934416422216493e-02,1.083034705013401038e-03,7.378381873707550581e-03,-6.065227358245851462e-04,6.452099680900573730e-01
5.995468581594212698e-02,-5.527806067931255729e-01,8.756520721908453431e-02,4.835300439540312495e-02,-2.593944627206905707e-03,1.730544787623224806e-02,6.332910060882568359e-01
7.586775857409169821e-02,-5.852499331823222128e-01,7.473249106062351821e-02,9.462720142459171181e-04,-4.513554851440199946e-03,-2.243556716043706815e-03,6.606104969978332520e-01
7.319539957776302619e-03,-3.084577235030152575e-01,1.941922099825300896e-02,1.765538533132522681e-02,5.876439284295278086e-04,6.037498674119869124e-02,3.399324715137481689e-01
2.137149505886148937e-02,-4.088312851486709532e-01,5.162684760107791315e-02,1.332186527034645920e-02,1.499572268763885163e-02,3.681774895196703035e-02,4.519728124141693115e-01
3.553616441588658414e-02,-4.732128257868944421e-01,7.297775057801689225e-02,1.173881596287312985e-02,1.100093070669024529e-02,5.159851165584689731e-02,5.366930961608886719e-01
1.872399307605031316e-02,-3.622143855947118074e-01,3.568894936628999592e-02,-3.491619882878433528e-02,-1.309030785987062330e-02,3.604963519009478368e-02,3.999183475971221924e-01
8.717856625700245998e-02,-5.383836272978050896e-01,3.925241714448365893e-02,-1.671423777417932769e-03,-4.318908165265649898e-03,-3.452295866412595938e-03,6.031121611595153809e-01
8.525559910852456569e-02,-5.397222423960570392e-01,4.958083700602811117e-02,1.308443476592829500e-03,1.291733822363650037e-03,7.249199313894525180e-04,6.079356670379638672e-01
-4.292421395486228919e-02,-8.412064916469202958e-01,2.187954294140084799e-01,-4.755024378840776861e-02,-1.849617353695349672e-02,7.792405218462736260e-02,9.698988795280456543e-01
-4.666913360866692395e-03,-2.577274203938946240e-01,6.487241160980330990e-03,2.201257549433109986e-02,3.468272481661350236e-03,2.989767651242372995e-02,2.667547166347503662e-01
1.222247625706068819e-02,-6.051032267344013116e-01,8.235506636174810824e-02,-7.125226389329677133e-03,-3.253618839086853953e-02,8.974350132455200316e-03,6.579316258430480957e-01
8.617416067178934602e-02,-5.610352089756838190e-01,5.741221612983435363e-02,7.289650544996222579e-03,-6.348503156600787158e-03,-2.790503436575533704e-03,6.335581541061401367e-01
8.940974539337545601e-02,-5.790126937081097047e-01,5.812961668950564209e-02,5.137893451339551817e-03,-1.575952346017901219e-03,-6.965408935111915174e-04,6.534116268157958984e-01
1.552418505059713350e-02,-8.417948489546668300e-01,1.599811911827989097e-01,-2.523731939894092655e-02,-1.042386304263576841e-01,-6.711430381333811923e-02,9.631875753402709961e-01
8.993576638694747438e-02,-5.804810461558078671e-01,5.768277422831602497e-02,-9.065858466353196934e-03,2.385729059498163402e-03,8.292319427955613907e-04,6.550890803337097168e-01
-1.273819965249955999e-02,-7.060160538580774192e-01,1.335825783460103389e-01,6.192866598930650557e-02,-8.047959232277458741e-02,5.403102613987856122e-03,7.965606451034545898e-01
7.885074644654727072e-02,-5.810422825838796879e-01,7.205541506528712059e-02,-9.984675171672491908e-04,1.451074338598129466e-03,-2.014599269982491388e-03,6.565381288528442383e-01
-6.816631821306369521e-02,-6.587232762262578145e-01,1.526951338017584203e-01,-3.837907222254135359e-02,-3.868811626148802724e-02,-2.928587765490805322e-02,7.344731092453002930e-01
5.704035669753609872e-03,-6.667114242953632308e-01,7.601485874922192520e-02,-9.062740226406820060e-03,-9.082356541148303708e-02,-7.372919619243693129e-03,7.276815772056579590e-01
8.416813512785270568e-02,-6.017846496359784414e-01,8.336992379476379500e-02,-8.211050865675567634e-02,1.961881414791624700e-02,4.828332438215806460e-02,7.059456706047058105e-01
8.758621667665147936e-02,-6.146841459760665760e-01,5.938711213379777032e-02,-3.079782006808681749e-03,7.053243222846908300e-03,1.786241654159109390e-02,6.894275546073913574e-01
9.828555763510526955e-02,-6.648638298796356594e-01,7.325673701916168845e-02,-6.195515109554967925e-02,3.126754382036117663e-02,2.576074648086644492e-02,7.618148326873779297e-01
8.032999268166496343e-02,-5.540656694095411616e-01,3.109581425374546848e-02,-1.068980036987103067e-02,1.091009543124147642e-02,3.439265004741755977e-02,6.147327423095703125e-01
8.239449923862893210e-02,-6.005708583526541133e-01,5.541258237238305684e-02,-6.511148534047715361e-03,2.171765982955861651e-03,-6.103520133809966879e-03,6.700709462165832520e-01
8.303169759611764289e-02,-5.946581230614278457e-01,5.853488543840332237e-02,-8.994458787576936273e-03,3.955080102641269323e-03,2.880716532042112629e-02,6.678634285926818848e-01
9.107495323332920334e-02,-6.356830918168434597e-01,3.422128599064092058e-02,1.074439273897248408e-02,2.924379361864592672e-02,-1.921451622571519399e-02,7.029297351837158203e-01
1.991294734513579523e-02,-9.011968289645002628e-01,2.388801577171631996e-01,-1.770284553700718633e-01,6.851704209055559103e-02,-2.943499788778139795e-02,1.099446654319763184e+00
-3.674507151563100038e-02,-5.988376606419291148e-01,1.219483850127310309e-01,-2.096757615718756670e-03,-3.340445015386228796e-03,-5.028334527534364905e-03,6.560904383659362793e-01
5.122205848285482643e-02,-5.960930748469990270e-01,8.544209236702118848e-02,-1.016282733267617408e-02,4.183762627365447402e-04,-2.429711469383108099e-03,6.653323173522949219e-01
7.993713229594295866e-02,-5.866042356776568489e-01,7.146374006198918938e-02,-1.433593718743180357e-03,1.571648083953600507e-03,1.807666386057136003e-03,6.623629927635192871e-01
8.374053488517052557e-02,-5.876044772005504235e-01,6.460316775389593480e-02,-8.612917651992001503e-03,3.029685608663872727e-04,-2.057136009390551912e-03,6.621617078781127930e-01
1.026985929367655315e-01,-5.791576948515960721e-01,4.644028345707734706e-03,-4.036701323821722219e-03,4.569510935332750747e-04,1.400975805218920671e-03,6.385444402694702148e-01
6.190510662435272371e-02,-1.022578086885624682e+00,1.972690867192543052e-01,-6.946296149355837835e-02,8.961091855437768039e-02,9.981484938303286300e-03,1.174773097038269043e+00
4.970618083838823642e-02,-5.385725387138580178e-01,6.583966639521979247e-02,-4.612224304075138864e-02,6.706534692863195526e-04,-4.122036737017248376e-03,6.018781065940856934e-01
6.229338462218222960e-02,-5.874333871624641823e-01,6.020622045497650565e-02,1.112884089179983025e-03,2.909775474460266510e-03,-1.737911601986687898e-03,6.487151384353637695e-01
5.741839340907575751e-02,-5.866115194057228699e-01,5.119125412609717984e-02,3.300354155652743867e-03,-2.263826225407574583e-03,2.686229547141611145e-03,6.409934163093566895e-01
-1.212192695456182356e-02,-6.694664264869460979e-01,1.310636088519331888e-01,-2.949362470384130162e-03,-1.884941757057584724e-02,-1.070073061415093875e-02,7.403793931007385254e-01
7.012570561337755359e-02,-4.897336682419972664e-01,3.478361622433873146e-02,-2.558146151588906389e-02,-8.048192130825910021e-03,-2.650627088170969675e-04,5.450346469879150391e-01
7.191758345987128709e-02,-5.457882043310973152e-01,5.224873851985989415e-02,3.222826645587347633e-02,-3.829390021557311369e-02,4.491697956871693737e-02,6.191652417182922363e-01
8.124951594100726648e-02,-5.783420674429504693e-01,6.487035778266184161e-02,3.376238187082969931e-03,1.792758749319809308e-03,3.849659131703014447e-04,6.515904068946838379e-01
6.124294968416227336e-02,-5.674664184015898449e-01,8.158972158859217894e-02,6.582624356492349123e-03,1.524258297201513783e-02,4.098566811576150049e-02,6.436988115310668945e-01
1.050212472820804543e-01,-8.739146008217382189e-01,9.233820337495229902e-02,4.290279274164385259e-02,-1.086871196661394756e-01,6.166637917831691712e-02,9.992142915725708008e-01
6.738946437514242715e-02,-5.836293210877925297e-01,6.702174441406755223e-02,-1.422515613190945133e-03,6.088397732317923049e-04,5.841373786464592634e-03,6.509191393852233887e-01
4.692232641775465063e-02,-4.626191579808405785e-01,4.976652892386287941e-02,-1.865742552826106515e-02,1.602731543480171231e-02,1.702185173133290499e-02,5.135893225669860840e-01
3.168554283255567428e-02,-5.847825924501159900e-01,5.823670048207760241e-02,-1.614828865896584967e-04,-8.527987292454521431e-03,1.508451945575409485e-03,6.303419470787048340e-01
1.546387609083510473e-01,-7.581899166244989718e-01,1.502160304285812820e-02,-1.258086601556540271e-02,7.020441696081985983e-02,3.467423299959399713e-02,8.626530766487121582e-01
7.168928049769218713e-02,-5.935074161698632444e-01,3.984856767763841900e-02,9.862916880755733320e-03,-4.050077047552374382e-03,5.369375657842769857e-03,6.501904726028442383e-01
6.857567813690773617e-02,-5.878189205086750135e-01,7.742770232311235734e-02,-1.711307046041829222e-03,-2.025440039117066019e-04,-9.563792157848505313e-04,6.608738899230957031e-01
7.273679233315202830e-02,-5.897497051421523029e-01,7.773948119974369297e-02,-2.017081421416571827e-04,-1.087743416444215440e-03,9.954431806545593897e-04,6.650069355964660645e-01
8.054214359083983199e-02,-4.868121390808085591e-01,2.934070675302391518e-02,2.765840523723722688e-02,2.742269004168349563e-03,-9.190935927293260744e-04,5.456951260566711426e-01
1.425862121839251428e-01,-6.077670128239829328e-01,3.119637743455580536e-02,-1.010162030478238132e-01,1.183703531620208943e-01,-5.098347856592985033e-02,7.565060257911682129e-01
9.894378207492637856e-02,-5.963071653808287298e-01,1.981014028163360918e-02,-6.919990591052137784e-03,1.230608149575645495e-02,-1.412707066507068454e-02,6.601628661155700684e-01
1.008661809050853120e-01,-5.965519391065923216e-01,2.375605332660263302e-03,-8.982013751646205843e-03,1.765544884662523586e-02,-1.445401055978066387e-03,6.546653509140014648e-01
7.799178462360206732e-02,-5.860469633685915225e-01,7.414699367878629932e-02,-9.609217407827685931e-05,1.834866508187161724e-03,-8.028789253579315900e-04,6.621338129043579102e-01
6.837528434772893737e-02,-5.911087236448241411e-01,5.692848206399020450e-02,2.209189102445574884e-03,1.104627940935731627e-02,-7.067782062272571532e-03,6.542413830757141113e-01
-7.835959297626921005e-02,-5.920889892895273565e-01,1.371788352358883079e-01,1.345370307491704220e-01,3.178216257628189989e-02,-3.086699908227530723e-02,6.937524080276489258e-01
2.497594854077900273e-02,-6.355660854036548901e-01,4.929790586459992241e-02,-3.178411464677497605e-02,1.050140279745509497e-01,3.769759797861382128e-03,6.993784308433532715e-01
5.735055038552727691e-02,-5.044999735645853134e-01,6.793655630054373784e-02,5.450075456896771864e-02,2.775105134865861467e-03,-6.730037820576295626e-02,5.867350101470947266e-01
1.089323747198117087e-01,-9.627973208305609099e-01,1.141420295831492293e-01,8.227733259712752267e-02,9.598260287107369948e-02,-9.663816417912743373e-02,1.109134078025817871e+00
8.050240247596121557e-02,-5.742360577490457363e-01,6.913924713862976135e-02,1.941120104062430286e-03,6.217085319440655150e-03,1.601690459422812091e-03,6.492354273796081543e-01
6.767004625644076898e-02,-6.006291411990970497e-01,4.978957214670651221e-02,2.718239821997089651e-03,1.711405127624571545e-02,-6.525269905656528278e-03,6.603200435638427734e-01
5.423812412393688720e-02,-6.022340970323647458e-01,7.336002910749633843e-02,-8.944557450234523824e-04,2.625149546412497772e-02,-2.155583638660467025e-02,6.688334941864013672e-01
9.494908968247844916e-02,-6.768793315916153963e-01,7.489701340245952244e-02,-1.552365498229933173e-02,4.786168414499981927e-02,-3.158937936981013467e-02,7.689169645309448242e-01
8.242989444854670333e-02,-5.839798050502382765e-01,7.298141082242934341e-02,-1.470534438175131119e-04,4.421463909263071562e-03,-1.434980912043725895e-03,6.617850661277770996e-01
8.211889697202634508e-02,-5.781723357551902254e-01,6.976147089494458275e-02,-7.515410435909926790e-04,3.752232733111811585e-03,3.488250133738523000e-04,6.542339324951171875e-01
7.353094841830690176e-02,-5.186579312013379628e-01,5.217427963341794706e-02,-6.622284631933109122e-02,1.698495451421131591e-02,1.218892087449864464e-01,6.301503181457519531e-01
5.198647286347601870e-02,-5.611436602152043429e-01,9.145522029005442866e-02,-5.346123070098363246e-03,-7.477590531222504892e-04,2.174896688216769805e-02,6.349742412567138672e-01
6.974415684870718946e-02,-5.890323312822121071e-01,7.664970515944524720e-02,-3.736948431173130539e-03,-1.926169733630544480e-03,-7.188732305121455857e-04,6.622974872589111328e-01
8.317152043894032731e-02,-5.886521224538117103e-01,7.133597411261180521e-02,0.000000000000000000e+00,-2.257919037749000699e-03,-7.384666626556380580e-04,6.659974455833435059e-01
3.951818716959165645e-02,-6.294393373719663343e-01,9.861606004481821008e-02,-3.608075057597634472e-02,7.415737638982275448e-02,-2.053850786508399501e-03,7.148054242134094238e-01
9.710426131418548046e-02,-5.817485274099916115e-01,2.366159655771743475e-02,6.808029257013370819e-04,-1.501023054872556352e-03,3.379181089008927164e-02,6.479290127754211426e-01
7.788416759659219646e-02,-5.836262151885327487e-01,7.270303170998551612e-02,1.080800707708823001e-03,7.773507468116177578e-04,-1.116182374949797624e-03,6.589419841766357422e-01
8.151197992961736749e-02,-5.674136714938893267e-01,6.000535142512439246e-02,-2.075034226654205380e-02,-8.852807030446467260e-03,1.319749474930867472e-02,6.400470137596130371e-01
3.967357997703796491e-02,-5.801297580515369923e-01,5.294141687623074577e-02,-7.527389291019914979e-04,-2.297664581610245685e-02,-3.905884466479234238e-03,6.278430819511413574e-01
3.321047699355622607e-02,-5.807081846598833863e-01,5.613674990462061420e-02,1.669279192784496775e-03,-5.676332295822812506e-03,3.015127697165216874e-03,6.258025765419006348e-01
3.256259438413183771e-02,-5.778353443120205490e-01,5.679076071105634838e-02,2.214168134444108055e-03,-5.895695011249883245e-03,7.896427048371941568e-04,6.229625344276428223e-01
6.456027227811111935e-02,-9.957273694023872634e-01,1.733350745045657004e-01,-7.650013755029248970e-03,-1.039890588732282350e-01,-5.788489295375458948e-02,1.137560129165649414e+00
6.256519197535273524e-02,-5.450921860664907914e-01,6.725166336382790155e-02,-9.741452774076547749e-02,-8.672497951378983772e-03,4.359247094708344761e-02,6.375833749771118164e-01
2.954741206275088294e-02,-6.538858266663162278e-01,1.155195490960623239e-01,3.951410547097663345e-02,-3.008389543624524504e-03,-2.913810034771533580e-02,7.351780533790588379e-01
4.658544440677941934e-02,-5.773581578701048045e-01,4.775906925215264720e-02,6.290705637846806357e-04,-9.477798476757439902e-04,1.451074141208540688e-04,6.245344281196594238e-01
1.141276302449475977e-02,-3.451315825056753828e-01,2.172263291258352824e-02,-1.835352303999103832e-02,-1.295676552307516074e-03,2.414255584438137342e-02,3.656094372272491455e-01
4.195548580458632881e-02,-5.778071361972678677e-01,4.716802122503388484e-02,1.007843747566200803e-03,-7.033051722717579592e-03,2.174829149400272620e-03,6.225183010101318359e-01
2.140852554781660921e-02,-5.812200703689945902e-01,7.332665755902775806e-02,3.558301212218167777e-03,-1.677711655934576579e-02,-2.327844275101677469e-03,6.309062838554382324e-01
7.103249598521538255e-02,-5.867924186988349167e-01,6.896639133323326232e-02,-1.800111778980390247e-03,-1.215423820986826463e-03,-3.390520607036975106e-03,6.568313241004943848e-01
4.782417484406362163e-02,-5.296477398956416227e-01,8.662908685101536332e-02,-3.931985116755225967e-03,-8.570566441462464623e-04,2.271974898152703121e-02,5.991539955139160156e-01
1.999063618832036537e-03,-2.931346798811060861e-01,1.017420506779526113e-03,-2.755814081021688844e-02,-6.381586460103992955e-03,2.345490781101050581e-03,2.987175881862640381e-01
6.544603158009384969e-02,-5.855207349161885011e-01,2.437767877268939842e-02,-2.949642926206127568e-03,-8.660644410605270599e-03,-4.884647951558214810e-03,6.316905021667480469e-01
8.085581068206840194e-02,-5.807428605439743929e-01,6.761044882296082803e-02,-3.095893516044428279e-03,-4.316487808319998537e-03,1.254952323593657663e-03,6.551446318626403809e-01
2.459853679916457203e-02,-4.076662840776509311e-01,3.761073907936129945e-02,3.942932166397867394e-03,-1.327965492844266834e-02,-1.339444216549257006e-03,4.395770430564880371e-01
3.611091934755292221e-02,-4.658574095450527253e-01,5.701256010900968008e-02,-1.967266984552488301e-02,-1.450542608294190863e-02,2.431780276633958501e-02,5.162047743797302246e-01
6.470513903842961545e-02,-5.877793922133041082e-01,6.163331052679080213e-02,1.688147156957091940e-03,-4.651870154174672601e-04,-2.674025969206749159e-03,6.509776115417480469e-01
6.309249017324963793e-02,-5.345658437346966219e-01,6.571731002371766772e-02,-2.610333216537770798e-02,-6.636614510158150848e-03,1.946055383176061374e-02,6.017338037490844727e-01
7.291776293262633435e-02,-5.894365628364182097e-01,7.035361268551787450e-02,-1.751874468000002736e-03,7.764596938079553834e-04,-6.796710412573990457e-04,6.610853672027587891e-01
8.221248580834025765e-02,-5.809049083735771113e-01,7.078212758356033918e-02,-4.507844315902590979e-03,-8.407404038061077126e-03,2.365192595129658563e-03,6.576970815658569336e-01
4.280132536622874295e-02,-5.808466584011844347e-01,5.094873144870801229e-02,-3.284898892348972997e-03,-4.154712023182780857e-03,-1.781400426495251916e-03,6.278359293937683105e-01
8.142594976642683613e-02,-5.874735888127078365e-01,6.777803079754568527e-02,-6.363489701955296791e-03,-1.708573406523585534e-03,-1.446186053266030822e-03,6.622841358184814453e-01
8.188675845572745970e-02,-5.809690970222320949e-01,6.782494900574151386e-02,-3.631842200044285100e-03,-3.297111853174456136e-03,1.158231654293479006e-03,6.559960842132568359e-01
7.327801482605938999e-02,-5.904265300921789361e-01,2.930742497674249103e-02,5.283444396861240906e-03,-1.046242111867962989e-02,4.629908208857363115e-03,6.432185173034667969e-01
7.455202839367935930e-02,-5.891537867581739807e-01,7.339789361002174717e-02,-3.980088218961188597e-04,-3.476447511937558014e-03,9.545524950754843019e-04,6.631592512130737305e-01
8.066715168692548121e-02,-5.806423531142974603e-01,6.794786183022780146e-02,1.724767134396664034e-03,-2.128350427753813480e-03,6.907886647814887688e-04,6.550607681274414062e-01
7.748026899920926192e-02,-5.899425275856657880e-01,6.916017236183158445e-02,3.286069590518575739e-04,7.598917336937398292e-04,-4.905951141272483026e-05,6.633034348487854004e-01
6.873894552672199509e-02,-5.893960051793076804e-01,7.118073888326287291e-02,-2.862816781661606334e-03,1.590827313546194495e-04,-6.957718598909186456e-04,6.593790650367736816e-01
6.339535947198635113e-02,-5.851092812787288544e-01,8.938034460121566105e-02,-2.865666640642560489e-03,-1.457972343140246122e-03,-3.327340919649569417e-03,6.619282960891723633e-01
7.746370778055794437e-02,-6.060667818351495040e-01,6.620298043722550041e-03,1.201209253638351425e-02,-4.417610057645247890e-02,2.004261729837161082e-02,6.567355990409851074e-01
5.298498380979863032e-02,-4.736720653646894208e-01,5.762624919627309938e-02,4.259125180413549094e-02,3.244674124667563508e-03,8.265645987183120602e-02,5.529949665069580078e-01
7.478818976357209936e-02,-5.832213973893867198e-01,-6.209333160029945065e-03,8.445794590306246116e-03,-4.846784892948608620e-02,1.062264387305987719e-02,6.275666952133178711e-01
6.832026630796605993e-02,-5.811980146612676368e-01,7.073381283390950403e-02,-5.552439469084261177e-03,-1.135009291976074803e-03,2.149089432030645060e-03,6.508131027221679688e-01
7.274933327862223575e-02,-4.294889561443769321e-01,-8.429431388059668850e-03,4.202193581849460180e-02,-3.416071400025531835e-02,1.772815409036669065e-01,5.666981935501098633e-01
6.226717399023395938e-02,-5.769883606523054098e-01,8.821134365258928578e-02,6.404794186031751314e-04,-2.820373189330683227e-03,-4.902361645042075354e-03,6.526889801025390625e-01
6.255606118246406777e-02,-5.849899819591076744e-01,8.681527619851844846e-02,1.994941018952088238e-03,1.905819945704832156e-03,-5.380691315246799097e-03,6.600931882858276367e-01
6.221850555188945808e-02,-5.742485943999140474e-01,8.676376157441559323e-02,-3.690626443998926295e-04,-3.392331204662707086e-03,1.097757411679949638e-04,6.491148471832275391e-01
5.468974865067893765e-02,-5.890692842174438670e-01,2.477773881165157288e-02,1.623970524552246445e-03,-4.531047374589395466e-02,-7.538930988905422938e-03,6.343514919281005859e-01
2.204828093708063874e-02,-5.889254790001243745e-01,7.246182132729994674e-02,-1.406535220922553245e-03,-1.020089789635816521e-02,4.472795864727162167e-03,6.379733085632324219e-01
6.541302320943739868e-02,-5.931036380946337339e-01,4.203496584640914469e-02,7.767468899735514853e-03,-4.910474903358616819e-03,6.280693137134482108e-03,6.474314928054809570e-01
7.381418669773481822e-02,-5.914662917164031919e-01,2.901655107422815294e-02,6.093031331030492569e-03,-5.848151008689407918e-03,-1.996304782202090386e-03,6.442265510559082031e-01
1.073816600458371573e-01,-7.012849923878021752e-01,2.001040270152362743e-02,-6.779737001650685754e-03,-7.514915022979422321e-02,4.655473702608155934e-03,7.797861099243164062e-01
1.185384155300869269e-01,-8.996515977621118987e-01,6.220737968673201168e-02,-4.173001666501553047e-02,-1.051052924521857779e-01,7.316080600658889099e-02,1.018308162689208984e+00
7.218362446996173798e-02,-5.211594739253549990e-01,5.234553971562808106e-02,-1.346890458123453128e-03,1.593410249500083406e-02,-1.423873051241497569e-03,5.843389630317687988e-01
4.579639026436085891e-02,-3.671654852030896143e-01,1.455015604004951391e-02,5.534506345926085841e-02,7.367516284947734848e-03,3.223919956539938320e-02,4.136187732219696045e-01
7.131780239454732495e-02,-5.929805190536405757e-01,5.098873061890507596e-02,1.017768253428555326e-03,3.258853365178867998e-05,3.630908996025663821e-03,6.544032692909240723e-01
5.091442119303932201e-02,-6.028559836992091192e-01,6.796498437566067530e-02,-7.555089620489774220e-03,2.014535421180626770e-02,-8.914206713417343469e-03,6.636872291564941406e-01
-4.225627040373122756e-02,-8.220317139874313561e-01,2.548866730830599558e-01,1.338626851803385309e-01,1.973210663143185745e-02,-7.276740294016727228e-02,9.994295835494995117e-01
9.437762554263895431e-02,-9.899682189376626251e-01,1.910461705969837554e-01,-1.104037402115197047e-01,1.336968520379430703e-01,-2.685504190812326025e-02,1.175724387168884277e+00
-5.044889002211117024e-03,-6.133337331100391365e-01,1.104671325069387366e-01,7.371596287073696203e-04,3.616323967196842862e-03,-1.183566231364213423e-03,6.735488772392272949e-01
6.300193532175435429e-02,-6.581131176016029594e-01,9.739272174750318589e-02,-2.860985518770015751e-02,7.335288656510032673e-03,-3.457893912503796994e-03,7.407038807868957520e-01
4.436652128987916832e-03,-6.076969908612637195e-01,1.158967871103218084e-01,-1.190013034989568022e-02,-3.349407273277416747e-03,-1.763573206167221800e-03,6.751497983932495117e-01
3.256838494893871117e-02,-5.991234954658275491e-01,9.011917989510342952e-02,-1.266172727463613090e-02,4.361716879977169982e-03,-6.047782992517868918e-03,6.628339290618896484e-01
5.204547218099428441e-02,-4.491012087036571621e-01,4.187827445197067622e-02,5.570618461337897842e-03,6.966442936659241044e-04,7.318681321026429543e-02,5.121714472770690918e-01
7.389270500951197751e-02,-5.856924645202133961e-01,6.811746764478490701e-02,6.355451863103502323e-04,-5.836505733758663283e-04,-2.036357544482838514e-03,6.567277908325195312e-01
7.465226105180669536e-02,-5.881746288369934517e-01,7.322482547030767508e-02,8.755886882389707577e-04,-7.714988390682567341e-04,4.383156860522855044e-04,6.621178388595581055e-01
7.517783018421164698e-02,-5.873404680802745137e-01,7.439099157869560885e-02,-1.230789680908340924e-03,3.785587005381084013e-04,-9.461927326970245768e-04,6.621310114860534668e-01
7.073888293016578066e-02,-5.812018900743987082e-01,7.889855697403075352e-02,9.526732185555831546e-04,1.928521850307335058e-03,1.090066116891659758e-03,6.560719609260559082e-01
4.063935813152744214e-02,-5.164906908116334572e-01,8.440430334675150248e-02,6.452694178417648415e-04,4.208539924699273606e-03,5.172994601083476598e-03,5.803677439689636230e-01
7.424107756663400615e-02,-5.828394286015781134e-01,7.674759187802493443e-02,-1.032153828384538546e-03,3.581367984800826187e-03,-8.737260518630655080e-04,6.583707332611083984e-01
6.861014747513874412e-02,-5.727290516179985858e-01,7.869034479552700079e-02,3.240056202657678672e-03,1.002710665075573666e-02,-1.090886239580787776e-04,6.466958522796630859e-01
8.286702999215095344e-02,-5.738948903813483327e-01,6.781936606223865072e-02,6.355689805132505241e-03,7.335339159926757349e-03,1.772471251737371039e-03,6.495937108993530273e-01
7.692378934218296882e-02,-5.695508552944710257e-01,7.065895438507674431e-02,-5.603488410079574033e-04,1.006900573921874417e-02,1.603349940464104170e-03,6.436081528663635254e-01
5.982900847469746486e-02,-5.122905898646044065e-01,5.918495747296703691e-02,6.198553472467037417e-02,1.131692086051176022e-02,6.280176471912084224e-02,5.921957492828369141e-01
7.198952306837844151e-02,-5.830103578651011365e-01,8.132935572130062241e-02,-1.208764546316049232e-03,1.820486902455471529e-03,-1.427059691225678745e-03,6.597348451614379883e-01
8.752400273284907661e-02,-6.027532280914756901e-01,5.043011053149770717e-02,-1.624151517007365805e-02,5.728900110112914324e-04,1.811834079862586610e-03,6.730941534042358398e-01
5.004034485406225197e-02,-5.524627453583046410e-01,9.000830407729576432e-02,1.480230643433990193e-04,-5.479152797919369620e-03,9.747483598815182698e-03,6.237494945526123047e-01
6.355250441010856788e-02,-3.746131949350716139e-01,-1.216453444298615238e-02,-5.121976630181492018e-02,4.054744840510902948e-02,1.504427435672427427e-01,4.952245652675628662e-01
6.447488008945764792e-02,-5.790979218514513693e-01,8.073978526425662494e-02,1.570944960684994129e-03,6.752190923705846982e-03,9.849857580399795989e-03,6.521912217140197754e-01
5.214535729415137322e-02,-5.616414227923836044e-01,9.250549725615186958e-02,-1.085866818982481443e-03,9.093489851498308884e-04,1.378677973003850478e-03,6.349388957023620605e-01
6.342065400368709915e-02,-5.853188005568543684e-01,8.465299668068554384e-02,-5.297415362552827800e-03,7.163950986386081196e-04,1.095419265904120851e-02,6.599497199058532715e-01
6.725522785120635616e-02,-5.698909977682256045e-01,7.736141731694168300e-02,-1.071028456081155175e-03,8.927168829086737714e-03,-9.969786534568170124e-04,6.424500346183776855e-01
9.392395292751290481e-02,-1.497983903238244985e-01,6.156682396802248824e-02,-3.979384570336680360e-02,3.295761978141598797e-02,3.977322918095094195e-02,2.555707395076751709e-01
7.732136045031201554e-02,-5.894612759872681629e-01,6.833847586440214283e-02,-4.578782300046695813e-03,6.567579607224236643e-03,1.828421262042850739e-03,6.624895930290222168e-01
8.292480544738989323e-02,-5.972967642509671160e-01,3.751724135458406328e-03,2.552870113449741841e-03,-8.240570541668549437e-03,-9.947757245746756058e-03,6.446973681449890137e-01
9.280231718654863293e-02,-6.020261060839385836e-01,2.007736233710052942e-02,-1.874986185538119301e-03,-5.477943941036833835e-04,1.037376380813245444e-02,6.617237925529479980e-01
9.077050746577236540e-02,-6.073098557767483419e-01,3.462821239744257040e-02,2.040798333952437843e-02,-1.061655716948675492e-02,8.852990703238028392e-03,6.731263399124145508e-01
7.492440498700930762e-02,-5.978639644059748903e-01,4.863123082231818328e-02,6.911822110501159196e-03,-2.301422018531785064e-03,-2.943178306108497344e-03,6.601749658584594727e-01
7.029108135591982665e-02,-5.981153113801688237e-01,6.891113755031191834e-02,6.454919669809367627e-03,1.362299992961289339e-03,-8.742597060614219884e-06,6.678152680397033691e-01
1.121905791022466681e-01,-6.028427467503671977e-01,-2.659768409563750824e-03,1.420599651546228465e-03,-3.581872187098924729e-03,-1.047527035366829090e-02,6.653684377670288086e-01
1.314119918544575105e-01,-6.433650838793791849e-01,-2.630717118152298140e-02,-2.157529200656026994e-03,5.108586442221505104e-03,6.326999260104430867e-03,7.093448042869567871e-01
6.827325747207660389e-02,-5.901782660480110465e-01,7.651224949250148843e-02,-1.657116390757918875e-02,4.772595075837099757e-03,-1.912531762148809641e-02,6.641089916229248047e-01
6.069035910285192070e-02,-5.798238897665599634e-01,8.789780917271200478e-02,2.509875198047517575e-03,7.853618954730367391e-03,8.268490501974774115e-04,6.546995639801025391e-01
6.720498734526547668e-02,-5.930064177651898083e-01,7.786170225242491916e-02,1.373860190724902636e-03,1.920238136442117263e-03,4.996929789395828866e-03,6.656726002693176270e-01
1.671454069058925240e-02,-9.223837194424933106e-01,1.883415042208881340e-01,8.991538148166410005e-02,5.324870627064648421e-02,-2.585382433979117184e-02,1.052284121513366699e+00
-1.485238646731000534e-02,-3.556034527941545620e-01,1.186882097234640832e-01,1.351042279423354253e-01,-1.959579510554102302e-02,-8.282393087344359917e-03,4.853511154651641846e-01
7.329955265646836970e-02,-5.848780872997048075e-01,6.900543937965880614e-02,1.133230534122604133e-02,-6.492732084342633546e-04,-8.623646930852603767e-03,6.565055847167968750e-01
9.356059956847262438e-02,-5.706559934240253984e-01,5.290501053775817364e-02,8.254669434095031691e-03,8.257465824880087053e-04,5.343674199355467327e-04,6.450114250183105469e-01
8.433055334427877470e-02,-5.701420503225890224e-01,5.888120201476601534e-02,7.549500702064253742e-03,2.318128078500568054e-03,-4.628390373120687905e-04,6.422724723815917969e-01
7.049355860753858671e-02,-5.397089402699943861e-01,6.290879831082735185e-02,2.103346696496299212e-02,1.656728984958472095e-02,2.708979572865208990e-02,6.100234389305114746e-01
1.118030865578465427e-01,-5.697264600468611162e-01,-2.483667745923107129e-02,2.935811480223535826e-03,-4.034115251809299030e-02,5.475574205158864616e-02,6.355561017990112305e-01
-6.127412933339895784e-02,-5.800444506708490877e-01,1.410254204807753764e-01,1.277768396463880018e-01,-2.005278733888160581e-02,-4.027381266717450919e-02,6.856003403663635254e-01
8.751334879189698324e-02,-5.732618907557971433e-01,5.780732897365237211e-02,2.070428152170111086e-02,5.247426323016207879e-03,2.839996538538650753e-03,6.475107669830322266e-01
8.255929659170518908e-02,-5.328782893880530391e-01,4.616286959963303294e-02,1.371230535874985376e-02,6.365294882321794259e-03,3.327255220043003232e-04,5.986437797546386719e-01
5.676027974692046674e-02,-5.794985009871562731e-01,7.069958370707601913e-02,-3.931749053648118074e-04,9.123814056191144458e-04,2.772408115750796503e-04,6.433441638946533203e-01
5.907076055445958929e-02,-5.859643556462408309e-01,6.537012131354197342e-02,3.062643715800392793e-03,-8.863565065892265935e-03,-8.840729052293761197e-04,6.484130620956420898e-01
-3.955783861755195197e-02,-5.504911351840509059e-01,1.088892536876925332e-01,2.020714456680593740e-01,-1.698609502389981929e-02,4.903204037163613749e-02,6.996517181396484375e-01
9.192991820060272823e-02,-5.433405042308219191e-01,4.462827107833988727e-02,-1.422647173891470641e-03,-3.009868916842323161e-03,-2.134248979745459126e-04,6.130171418190002441e-01
6.614520979007551538e-02,-4.596338671451092317e-01,2.543620406923979838e-02,-8.977505105997705829e-04,-5.698212357591492250e-03,-3.741533667543222100e-03,5.067926049232482910e-01
5.302669893454128869e-02,-4.558822697214960362e-01,5.271293698774337511e-02,5.377265203764688972e-02,1.937018321770713619e-02,3.335973140906541706e-02,5.215049982070922852e-01
4.013412777159577893e-02,-3.946497478978914231e-01,1.469546980052199858e-02,9.251627645654056592e-04,-8.257005896807627712e-03,-2.051702321306094270e-02,4.243745803833007812e-01
8.259322085788448065e-02,-4.226819336464754939e-01,-4.820949968716986556e-02,3.465855307632223492e-02,-7.639475874633175519e-03,1.755627669277541603e-01,5.500605106353759766e-01
-1.794526637792701745e-02,-1.635286294325389300e-01,-1.717482623527157720e-02,-6.856048989074137179e-02,3.645178444004617407e-02,1.426514154352396535e-01,3.169280290603637695e-01
8.894529507998369389e-02,-1.375269684736558085e-01,-6.074376533430160541e-03,-4.543342884857456271e-02,-8.070008244135112993e-04,2.119072800169761669e-02,2.152691036462783813e-01
2.335325459665732462e-02,-3.038382212684634931e-01,2.165226815310417052e-02,-9.214494446650234316e-02,1.541196749558142870e-02,-1.443067545336985252e-02,3.651164174079895020e-01
2.948061176535524130e-02,-3.681172090111387019e-01,2.796828174432805514e-02,-4.070906431256254843e-02,4.773419909492292341e-03,-5.644456319714036968e-02,4.148288965225219727e-01
2.407648119943400777e-02,-6.359304127798476314e-01,1.062159734848406867e-01,5.606208270814910972e-03,-1.723648709885363881e-02,1.816392797467188819e-02,7.060765027999877930e-01
4.015435076186923968e-02,-3.591000242172063261e-01,4.207862678587442895e-02,-3.550283916067183132e-02,1.717169389062303585e-03,7.095841694129152721e-02,4.231684505939483643e-01
3.057907735137038729e-02,-2.718435838044377384e-01,1.102279150667505314e-02,5.621622763366315029e-02,1.885478601191216061e-02,7.143680432570501115e-02,3.343420326709747314e-01
3.887471424827304567e-02,-4.135087531918532067e-01,5.719035539653388733e-03,-9.896575330336944420e-02,-5.128793136007171044e-02,-1.755368157358347669e-01,5.660958886146545410e-01
-3.284693011949169072e-03,-2.588379001480911601e-01,6.330153057632292857e-03,1.167755206278768727e-02,-8.828143841356333663e-03,-1.612694656628838388e-02,2.632111907005310059e-01
7.617060763741589913e-02,-5.137839861423372234e-01,4.274983557877282125e-02,-2.239768478579568650e-02,6.691392711572867469e-03,-8.042331356445905563e-03,5.755692720413208008e-01
-2.039845736355336281e-02,-7.861475649889334560e-01,1.930476694441641272e-01,1.498933478996003488e-01,-7.442642700490663399e-02,7.267979252869086193e-02,9.461744427680969238e-01
1.018854099581179007e-02,-6.696369219751606705e-01,1.363946513207933697e-01,-2.034333713472384186e-03,4.523997136880652387e-02,-2.291661009386522507e-02,7.560533285140991211e-01
5.142603303036558104e-02,-5.881487668713978323e-01,7.832893808395050006e-02,-1.793312663950423101e-03,-2.655634126029888815e-03,-2.628310031292568818e-04,6.534654498100280762e-01
7.615373191653779239e-02,-5.893969498734554779e-01,7.220397246736973140e-02,-8.077195594218069836e-04,-9.616628256781116393e-05,-1.971778056292261203e-03,6.635949015617370605e-01
1.541905653710679003e-02,-5.907246683889810779e-01,8.979893565035956815e-02,1.147859001863601840e-02,-8.170903967475788912e-03,-5.940828992899535588e-03,6.470927000045776367e-01
1.144543361021979622e-02,-6.029652951743403877e-01,1.008961003871095552e-01,-1.001547967361596583e-02,-2.617565845676847643e-03,-8.863398393451427451e-03,6.640923023223876953e-01
5.131480242590311103e-02,-5.846140382369717781e-01,7.861909309384931821e-02,-2.878492176768467775e-03,-1.594685880859484728e-03,-7.875874595005908849e-03,6.501793265342712402e-01
-6.211240297482400335e-02,-4.454688898026131771e-01,1.415740164757566255e-01,1.599859341089484022e-01,-5.430429560997911825e-02,4.038609001698111045e-02,5.975461006164550781e-01
7.799448899789424017e-02,-5.822641620213802049e-01,7.316718520787540703e-02,4.358912674902690187e-02,-9.385669743462589365e-03,5.958218507339226727e-02,6.703670024871826172e-01
3.866131003604938998e-02,-5.953425179437461523e-01,9.567046964893938243e-02,2.010562975148721607e-02,-3.641157939179067750e-03,-7.310866030969313117e-03,6.654079556465148926e-01
5.998481761058563344e-03,-2.992402358796792949e-01,-3.213910474918882376e-03,3.137780582449096068e-03,-5.082705555455221394e-04,-3.754267778280083456e-02,3.077372908592224121e-01
9.058117409043123236e-02,-5.752604544743311621e-01,5.633607302931969985e-02,-1.201868235406666069e-02,6.428930366839952096e-04,-3.659939426148506748e-03,6.497620940208435059e-01
8.919324305027337418e-02,-5.816903482028285000e-01,6.046918661727962441e-02,1.394477770985072312e-03,3.293078149284481108e-03,5.049107187487090440e-05,6.570218801498413086e-01
1.944586447820514929e-03,-2.878283892750357342e-01,3.306500736509866700e-02,-6.939943520928527898e-02,-7.938803478580220077e-03,-6.465497072301881233e-03,3.297241926193237305e-01
4.332489246437740138e-02,-4.112517980831936759e-01,3.263197826442076899e-02,-1.142483020387272119e-01,1.087362130864081254e-02,-1.121193362145555053e-02,4.917147755622863770e-01
7.747029576266958872e-02,-5.875897040929469739e-01,6.698711164830678522e-02,4.055749094246516827e-03,-4.847229551872022681e-04,3.175217521365808742e-03,6.599417328834533691e-01
9.058262538249500784e-02,-5.875275589947579480e-01,5.943333251627255787e-02,-5.229572368350768330e-03,9.830683661413593382e-04,2.264775365694159971e-03,6.631601452827453613e-01
8.594607031957277044e-02,-5.739976767480592379e-01,5.985406826350922471e-02,-6.872893721934066925e-03,5.156006704064112003e-03,-7.518669785223343555e-04,6.474646329879760742e-01
-1.322700458409353103e-02,-2.376756100877333022e-01,9.433776709393018600e-02,-7.470012273223769483e-02,7.120727521826163045e-05,-7.780229415493306044e-02,3.478362560272216797e-01
6.583528733562915569e-02,-5.845602804138202435e-01,7.022276124045384593e-02,-2.312580487266295733e-03,-1.546200804796239758e-04,4.759125403173203490e-03,6.526647806167602539e-01
1.374343586253261584e-01,-9.266522037955737812e-01,5.719503870201819717e-02,8.005992580124227098e-02,-1.241403195578216628e-01,9.635072936816613254e-02,1.070816755294799805e+00
6.688603638881235325e-02,-5.878508011149823353e-01,5.112852841198270437e-02,-4.229614252660370520e-03,-3.091689182078026163e-03,5.991201470854372671e-03,6.471488475799560547e-01
5.289703119868124914e-02,-5.822190484847975522e-01,5.559334283445110936e-02,-4.377829826792483184e-03,-1.526302275937693265e-03,8.217315711285241636e-04,6.365207433700561523e-01
7.576120725226914709e-02,-5.692858162470295635e-01,7.267981822880070775e-02,-1.699695297819325390e-03,1.051502204790440154e-02,-2.107800610848936489e-03,6.437866091728210449e-01
3.091992645363125791e-02,-4.011135347130573847e-01,3.683205523994001473e-02,2.811873712039871659e-02,1.823081519578168344e-02,3.844153514709885283e-04,4.388754069805145264e-01
4.689205541233190666e-02,-6.891383510114701405e-01,7.409393344594811248e-02,4.250465018052725086e-02,-1.031413344653912406e-01,6.764824302303669434e-02,7.833040952682495117e-01
6.437121870048592709e-02,-5.279499739117405888e-01,6.203419924362571503e-02,1.484435967098666868e-02,1.691407164083416972e-02,8.229855078010616526e-03,5.926112532615661621e-01
5.690761011247083556e-02,-5.803939606169049581e-01,3.716559035888775120e-02,-2.028050617387455929e-05,-2.067554920588059522e-02,1.627849690989539464e-03,6.286905407905578613e-01
6.550630799050446984e-02,-5.841377280289070661e-01,6.898708209427326099e-02,2.464655871293856132e-02,3.469509132926250155e-04,7.184398950951871761e-04,6.527901887893676758e-01
8.521464043591925330e-02,-6.747515947906721490e-01,4.939540311225432134e-02,1.490353404750143114e-02,-6.458459200856488114e-02,2.152883134618427050e-02,7.524497509002685547e-01
4.350916450732553176e-02,-5.271524180537954241e-01,8.606306831732840612e-02,3.598071927134707543e-03,1.866308230567780913e-03,2.011682511137652396e-02,5.941486954689025879e-01
1.645725505650360576e-01,-6.757874106658237068e-01,-1.880276323248816772e-02,4.462677578815534701e-02,-7.372618271691323832e-02,2.226217922931993942e-01,8.698809146881103516e-01
1.841710225967621573e-01,-7.148775779508369510e-01,-4.605144305564118357e-02,-8.695091953042192318e-03,-1.342385671602354391e-02,1.138317372111229825e-02,8.096083998680114746e-01
6.824280626867579302e-02,-5.694284300040346469e-01,7.699499032599749215e-02,7.355012871750696984e-03,1.229235092544988563e-02,4.442519832168830181e-03,6.426173448562622070e-01
7.483589993810502161e-02,-5.838840746047053720e-01,7.405315843797025122e-02,-3.441844425841091015e-04,2.359511107401181598e-03,-8.911602746679310851e-04,6.583437323570251465e-01
2.104858996486014266e-02,-5.865176220964186671e-01,8.477894593578164106e-02,-6.874280392862392765e-03,-6.073065852726679953e-03,-9.627269460207728627e-03,6.422220468521118164e-01
4.209531813859920812e-02,-5.876838872762679689e-01,5.304890997993919055e-02,-1.372136575711114343e-03,-2.073014910455719603e-02,1.141289525066959071e-03,6.363481283187866211e-01
7.160796565635285660e-02,-5.933000517480740976e-01,7.302717184708432119e-02,-8.320453777753037544e-03,-4.423658285263438322e-03,1.471228167218004319e-02,6.663063168525695801e-01
6.452779998865584843e-02,-4.350348452780801178e-01,5.260835887044679193e-03,1.008513485585805364e-01,-2.545426909286445383e-02,1.164612222244637840e-01,5.446230173110961914e-01
5.561479636026439577e-02,-5.538202042442506023e-01,8.904269041264062379e-02,5.510396707539029623e-04,-3.941119150068538197e-03,1.048467308194686066e-02,6.271187067031860352e-01
1.300219849643282632e-01,-6.208399190811866308e-01,-1.138382094087664331e-02,-2.717034528772306959e-02,4.594852763804962992e-02,1.768317518775536570e-02,6.979251503944396973e-01
5.331290912517225311e-02,-5.814437712950699666e-01,5.095582767700310156e-02,-9.878809602830590248e-04,1.334513535162857017e-03,-6.497770225792347427e-04,6.335889697074890137e-01
4.772809066663066813e-02,-5.825241547332005165e-01,5.253669218453746459e-02,-7.167030528178035828e-04,6.701495101948386386e-03,-1.808205633052599286e-03,6.327856779098510742e-01
8.488069167775055823e-02,-5.918594340554074185e-01,1.649300436590267482e-02,-3.691822181455884592e-03,7.163857734100328306e-03,1.282875551852987513e-03,6.454247832298278809e-01
5.118777384526346230e-02,-5.829176749935280899e-01,5.366382783102527365e-02,-1.105645828876867685e-03,1.094007339838056489e-03,-8.745310684874897742e-04,6.353546380996704102e-01
3.671023369745562981e-02,-5.909860859259791210e-01,9.117700560934122178e-02,-4.980828242556156749e-02,6.970266986897476202e-02,2.859353796286676162e-03,6.732016205787658691e-01
4.869840336942596326e-02,-6.887926732029956423e-01,5.854618397650002137e-02,8.025696402021761933e-03,1.014367451203689874e-01,-5.522786791151507169e-03,7.631551027297973633e-01
5.862237608948420164e-02,-5.834444013867213785e-01,5.015817644476611159e-02,9.362699819816166710e-04,2.039533315640828202e-03,-8.590300094819619753e-04,6.378903985023498535e-01
6.720441632210885641e-02,-5.175607420529426683e-01,5.793495781888641227e-02,2.186721346862660620e-02,1.867453154189576206e-02,2.760071467567239145e-02,5.842789411544799805e-01
1.386506242136772982e-01,-4.941692308782490994e-01,-1.251472706630442355e-02,6.899932855186424741e-02,-5.168145768718773736e-02,1.899020324993586362e-01,6.768570542335510254e-01
1.029944378001514949e-01,-6.070266096916032694e-01,3.647480420396248535e-02,-1.584772718566373681e-02,3.025189690422491057e-03,1.911234723634256880e-02,6.805888414382934570e-01
6.947999759523579288e-02,-5.654858414663750388e-01,6.962996470378185476e-02,-1.340701510395197159e-02,-6.794147165604562562e-03,2.377944896779776371e-02,6.369073390960693359e-01
8.463673386782522012e-02,-5.453693506987901118e-01,5.691852499857852354e-02,1.667250520445277828e-02,1.965531710813134009e-03,1.116575497730848410e-01,6.468856334686279297e-01
6.304395211715529967e-02,-5.781696325472494014e-01,6.647104027180775199e-02,-2.670194094360616843e-03,-1.843351901541955256e-03,-1.410580350360135038e-03,6.429631710052490234e-01
3.719162765726083397e-02,-5.287790704783423834e-01,8.645064126396945214e-02,7.407861040241714434e-03,7.493261625837380376e-03,2.179665185461720708e-02,5.936217904090881348e-01
8.537596773863595501e-02,-5.853062942183688833e-01,6.226008070298769126e-02,-8.436526440178292868e-03,-1.636711933179736721e-03,-5.431321454291763952e-04,6.595969200134277344e-01
6.114642096474821875e-02,-1.154246654110966525e-01,-6.891576906409816947e-03,-2.624341886948886385e-03,1.855821625422304777e-02,5.978000351016423547e-02,1.885942816734313965e-01
8.265587769335971946e-02,-5.792061894122014776e-01,6.569637829608293567e-02,-6.269243796665014204e-04,-1.620510308927871918e-03,-1.317723819405844420e-03,6.535583138465881348e-01
3.501609351715143092e-02,-4.718453445175163630e-01,6.894626831388428467e-02,-1.368405544371453439e-02,-8.599414296070950411e-03,-1.916985074153797425e-03,5.254067778587341309e-01
3.790701584476630082e-02,-5.018037343434644804e-01,7.788418535576704937e-02,-1.255716579752529441e-02,-8.846617332779152520e-03,3.590019691530939305e-02,5.648329854011535645e-01
6.626678168796606982e-02,-5.430255699058514907e-01,7.301766313155635957e-02,-3.840927710037247977e-02,-1.576486507936199211e-02,3.815162046939288287e-02,6.204305291175842285e-01
6.282608428762528896e-02,-5.719984930733736928e-01,8.495526093725325190e-02,-2.791760808052078276e-03,-1.479912825792766961e-03,3.265546228103647004e-04,6.461968421936035156e-01
3.704831379134926328e-02,-5.956994271414286501e-01,7.848555986037364374e-02,-7.649629617438364129e-03,5.118082606329381161e-03,-4.124438566248421652e-03,6.546840667724609375e-01
3.564043377344827679e-02,-5.968520318004462144e-01,8.668683988500092141e-02,1.055710084721373128e-02,-6.315701465425667361e-04,-9.839634686644392267e-03,6.599734425544738770e-01
-2.575776456310324702e-02,-6.048381607401631666e-01,1.180555260076633917e-01,-2.676892895379710119e-02,5.910268843535113927e-03,-9.338025037502643150e-03,6.646893620491027832e-01
5.233878047845788584e-02,-5.217253046218393031e-01,7.661793678313771894e-02,-4.761053970825771670e-02,8.571719264321193618e-03,8.695622543908126945e-02,6.113768815994262695e-01
7.073563730159837526e-02,-5.881292352292282199e-01,7.956419194123909300e-02,9.685676422161815322e-04,-3.459302107312834437e-03,-3.580858409748975766e-03,6.633813977241516113e-01
7.634740903145753599e-02,-5.905206273247748383e-01,7.083568348975766149e-02,-1.773420124891201058e-02,-6.653856355747183107e-03,3.151182276665884241e-02,6.671754717826843262e-01
8.655015337968691158e-02,-5.729507005875251746e-01,5.992586805336116984e-02,-1.704566519447825055e-03,-2.113148483168079787e-03,-1.453554505246336869e-03,6.466219425201416016e-01
-2.287370889158805293e-02,-1.253679597580122929e-01,-3.138232727934654742e-03,-4.646062157201576864e-02,3.872377803765763779e-03,4.939011888067137979e-02,1.635733395814895630e-01
7.403128049152987722e-02,-6.004566303983374098e-01,5.717504183913033056e-02,2.183080657752968414e-03,9.784744906421227739e-03,-7.134541495575964266e-03,6.665605306625366211e-01
2.575751962644914905e-02,-5.650019110386883536e-01,6.171119487632850675e-02,-6.318591603500040010e-02,5.450306335768928534e-02,-3.692621268645047278e-03,6.264657974243164062e-01
7.360892166438715023e-02,-5.129322986929029105e-01,6.018660970729666770e-02,-3.130256830231040177e-02,-3.163750703440611645e-03,8.476303976957084985e-02,6.007178425788879395e-01
1.975871426402797670e-02,-5.922682514064299131e-01,9.181729850416453509e-02,-1.011218198290626813e-02,1.966694059210466125e-02,-8.792490513265815294e-03,6.523575186729431152e-01
2.301378361602055000e-02,-5.958122811977206723e-01,8.237616555454660427e-02,-2.990651407556992047e-03,5.949777171847901204e-03,-2.396108414096096480e-03,6.506572365760803223e-01
1.595119989527399307e-01,-6.708354486871223044e-01,-3.656135623050724148e-02,-2.422564360618668575e-02,2.255873974335908388e-02,6.124928341143778994e-03,7.539976835250854492e-01
6.872388583155492059e-02,-5.895060103058638035e-01,7.233204950984484238e-02,-1.916303790615097756e-03,-5.451470101963459955e-04,1.919857389966131292e-03,6.600587964057922363e-01
1.130830488272376311e-01,-6.020184063463334123e-01,-8.524206328145711442e-03,-3.477420988331579935e-03,-6.762636970164412169e-03,1.101750163063443602e-02,6.631247997283935547e-01
1.123001817132890934e-01,-5.984981073220809744e-01,-1.040565714894181593e-02,3.686384109286063287e-03,-9.767672530613006471e-03,-6.079914001887472448e-03,6.584145426750183105e-01
1.896234958913564639e-01,-7.051885750015772780e-01,-7.636918031794012740e-02,-2.880650003066402218e-02,-1.272867606657037721e-02,-5.783696085634372486e-03,7.978114485740661621e-01
1.453056550627735977e-01,-7.377144255164824749e-01,2.914423841326843623e-02,-6.731823315170218369e-02,1.162504290142588603e-01,-1.090005555858538366e-01,8.834173083305358887e-01
9.277889903113117898e-02,-6.047076503829666994e-01,2.547942049855378421e-02,1.309960514851636355e-03,-3.503097337337014380e-03,4.730531438770420663e-03,6.664723157882690430e-01
2.910892771937917400e-02,-6.632191264272382369e-01,3.279722274664012560e-02,-7.253524900374573592e-02,-1.069389415020361722e-01,-7.418642647191495132e-02,7.405997514724731445e-01
3.114117026783952413e-02,-5.891578488766930910e-01,6.668648823901299205e-02,-3.369114797890285836e-03,1.189055903980947883e-02,-7.653230032068712285e-04,6.391736865043640137e-01
5.526886450219731239e-02,-6.099419929150804442e-01,5.962769451756902428e-02,1.456433317789730111e-03,1.632026204628556770e-02,4.721125003717049733e-03,6.680541038513183594e-01
4.691075002441166819e-02,-5.832590877295522613e-01,5.668471332946797836e-02,-1.035316646505487267e-03,6.478981519320118135e-03,-1.917369703357336280e-03,6.352235674858093262e-01
5.383321278402614096e-02,-5.874358590278563330e-01,4.460679310598175684e-02,3.213117425840596435e-03,1.991162968023769270e-02,-5.133720533515256750e-03,6.377256512641906738e-01
6.310287318100671339e-02,-5.807094261478523700e-01,8.750928219536655006e-02,2.951095222192760652e-04,-3.152030439137892825e-03,-3.443683441037423496e-03,6.564059257507324219e-01
1.239200867427965869e-01,-5.787171395781902650e-01,3.186964775891901192e-02,2.909310774065987371e-02,1.052550142638848524e-01,-1.944767839662275843e-01,7.659850120544433594e-01
6.469471440645743754e-02,-5.807163100792440691e-01,8.602658093971887743e-02,-4.116041568400632196e-04,-3.084362718286791805e-03,-2.799783870781178633e-03,6.563770174980163574e-01
6.956298339233013550e-02,-5.846669480123973806e-01,8.265284584812665480e-02,2.664126680529280231e-04,-3.681447712459507207e-03,-6.466990021229006335e-04,6.609039902687072754e-01
3.528029531444351607e-02,-4.637718142256991305e-01,6.802028109931565480e-02,1.756625735319026702e-02,-1.540882839100694672e-02,-9.999102357336422942e-02,5.459821224212646484e-01
6.650232002435116363e-02,-5.846975278791601838e-01,8.104322995804350005e-02,1.860015901993167025e-03,-2.416459549866519212e-03,-9.499689644090007420e-03,6.588174104690551758e-01
7.431783899253299741e-02,-5.940360556115027446e-01,6.416731589319019102e-02,-1.430886201720605200e-03,9.485940812333314544e-04,-1.047746189152869677e-02,6.635917425155639648e-01
1.248896004033385465e-02,-3.246095270114702780e-01,3.521670610905117127e-02,-8.415447377741559765e-02,-1.547679312775723012e-04,-7.982997546276207612e-02,4.027131795883178711e-01
7.208862623951917126e-02,-5.961262216162052097e-01,7.195904366099370453e-02,-2.730034034475523411e-02,6.738212123295069834e-03,-7.929705359302331377e-03,6.700636148452758789e-01
5.930337577511454739e-02,-5.895469675575747415e-01,5.122206048773464415e-02,1.716183019722155147e-03,-1.791857879390304845e-02,6.050914215336501353e-03,6.456860303878784180e-01
4.965767057388745243e-02,-5.934198536291667159e-01,6.910643778426850403e-02,-2.982187285707172189e-03,-2.184140111151784171e-03,5.512709684271643873e-03,6.531203389167785645e-01
3.925152029887757354e-02,-5.845459112761124398e-01,6.253920902701853857e-02,-1.590696783233981406e-05,-3.652859172861442662e-03,5.930408205401918424e-03,6.358757019042968750e-01
1.266020942934561466e-01,-6.564047277575371098e-01,1.162151412378742421e-03,-2.644296818849707284e-02,-9.872025801121422223e-03,-5.645223175551492695e-02,7.365902066230773926e-01
7.080634495296789233e-02,-5.499621498149394050e-01,1.900208816434489911e-03,-2.303923260013270718e-02,-5.832873046693636682e-02,-2.910366310681970076e-02,6.013875603675842285e-01
2.306404718429383438e-02,-3.968456822017229491e-01,2.915821469019777568e-02,-3.881590828774832830e-02,1.038107238767587044e-02,3.083791538409913231e-03,4.287098944187164307e-01
3.567985905754203491e-02,-5.816940231726477339e-01,5.619770330737761110e-02,-4.368075565485203711e-03,-3.342814924781523870e-03,-2.334727194927546743e-03,6.279695630073547363e-01
5.814461221538713698e-02,-5.934659819008163417e-01,5.224897475212308962e-02,8.207976341523042993e-03,-1.038992956255279168e-02,5.929631328603722669e-03,6.491693854331970215e-01
6.801022425959168949e-02,-5.870977343251264635e-01,7.151704399058506079e-02,-2.079641248044535994e-03,2.669274428290715085e-04,-7.171292846707706670e-03,6.569958329200744629e-01
8.263867230661922636e-02,-6.002168149945477094e-01,5.453015215164921936e-02,-1.992720747682850436e-03,7.423158073956083892e-04,-4.625716765604871369e-03,6.693021655082702637e-01
1.007762195149455309e-01,-6.000848195606189872e-01,8.651625376844163107e-03,-1.617303553392342511e-02,1.805805261290539462e-02,3.141227088305968002e-02,6.632117033004760742e-01
6.005548891103201781e-02,-5.767036107670540090e-01,8.661753307075095720e-02,-4.550825182300272630e-03,-3.440539292676488350e-03,4.996023861493885387e-03,6.505796313285827637e-01
9.030925817035165282e-02,-5.998395629699979636e-01,4.330542551527727380e-02,-1.678736665363781549e-02,-5.121192931316163183e-03,1.935488826240124374e-02,6.694199442863464355e-01
6.899909519151231629e-02,-5.837237867048149509e-01,7.278440652018083878e-02,7.026808827029827707e-04,-4.408585352845849131e-04,1.893082179240183904e-02,6.554459929466247559e-01
7.222794621727476883e-02,-5.900953431050881548e-01,6.946180769245910436e-02,6.363853159341434839e-04,1.711548702984603816e-04,-3.257841993874769845e-03,6.609696149826049805e-01
6.998489223887813249e-02,-5.888029025213485923e-01,6.149618300263182125e-02,-1.340622651873539604e-03,-2.913574721962949431e-03,1.217906199991030183e-03,6.546117067337036133e-01
7.099034718269578437e-02,-6.106171466836269879e-01,8.364468849790354654e-02,-1.445774403429644396e-02,3.114727634950393773e-03,1.767536137123836264e-03,6.885054707527160645e-01
5.580999732370101052e-02,-4.780446193939660304e-01,4.278586551444554797e-02,-2.030986882459957094e-02,1.625013382732785894e-02,2.984574212322158374e-03,5.294088721275329590e-01
3.833160141390265507e-02,-4.271132262546330494e-01,3.510148624871425871e-02,-4.211572824692196015e-02,6.810438614014425497e-03,-5.353052271737450754e-03,4.697788655757904053e-01
2.213017221121257871e-03,-3.216276968238334089e-01,1.223059328339837215e-02,-1.326629729438072447e-02,3.146546335459995351e-03,-2.341652007503250421e-02,3.322949707508087158e-01
7.493598965198081108e-02,-5.891096750394498871e-01,6.877499186080834881e-02,2.008909525153071765e-03,6.845085339761076797e-03,-2.405515857837048788e-03,6.611152887344360352e-01
7.540866330728313027e-04,-2.924697789991274055e-01,-4.278286600036512732e-03,-2.742730606699267382e-02,-2.292764107259296150e-03,1.967133299872452206e-03,2.946423292160034180e-01
-6.276083847849431296e-03,-2.855850779947260998e-01,1.116912486882457034e-02,5.022811665464473529e-04,2.645917604977781647e-03,-3.855802925324090802e-02,2.960952222347259521e-01
1.082653697318729236e-01,-4.096733817649563236e-01,3.066280692505796157e-02,-4.234785111488558601e-02,-1.351831377134864003e-02,-1.113443388289823005e-01,5.265076160430908203e-01
4.391529771069074828e-02,-4.179808203835769786e-01,2.720850583197742534e-02,-4.883332995810157201e-02,6.878253562673060893e-03,-4.526590119262130507e-02,4.683517515659332275e-01
1.678811984270764390e-02,-4.054765526472781656e-01,4.531055004484940696e-02,2.037485690179824654e-03,5.858728133291042812e-03,-5.504639075496423756e-02,4.476279020309448242e-01
-1.084955301546989756e-02,-1.173273802576795671e-01,7.922997703583442575e-02,-8.721855073590275079e-03,4.737653072895953166e-02,5.693665866317845076e-02,2.138468921184539795e-01
-1.475951129621022595e-02,-1.770460682337814395e-01,-1.888709324939889106e-02,-8.143589634519471376e-03,-2.413864050822984433e-04,-1.227427396935271663e-02,1.622812896966934204e-01
2.393977538188385434e-02,-4.364620057830144728e-01,5.658720949466000683e-02,4.933710195481493031e-05,1.443567509512402348e-02,4.528225431242827864e-02,4.846062362194061279e-01
1.194734776910927332e-02,-3.952173992409282466e-01,4.191700632867587095e-02,-2.331330501849404645e-04,1.692368696278266681e-03,-6.391193894953631043e-04,4.229584932327270508e-01
3.189526006096753130e-02,-2.266142373249974973e-01,9.122550421560213230e-02,6.187424711947423633e-02,-1.884933249058063851e-02,1.766879368532780700e-02,3.149164915084838867e-01
-3.800031531393958939e-03,-1.809495304116410797e-01,-2.300971086275832578e-03,2.171712553745487259e-02,3.692469657374145876e-03,1.109454683086350396e-01,2.646360695362091064e-01
4.655229080016948240e-02,-5.609358598508034088e-01,2.985075623686292423e-02,-9.197681325353095072e-02,5.698699625589272177e-02,1.548740271506548749e-01,6.828283071517944336e-01
4.600045953160455947e-02,-3.126907799739000460e-01,-1.355053911244831488e-02,9.724090052548914342e-02,-2.919859161756288221e-02,1.089771944921068131e-01,4.211869537830352783e-01
9.005412501229173583e-02,-5.615629139529678682e-01,5.220797886220518436e-02,-7.057845121672597652e-04,-4.546629720366965680e-03,5.120937939993258463e-04,6.335930824279785156e-01
9.283148588937903400e-02,-5.571561557318491786e-01,4.911892766194372872e-02,8.019375905907928995e-03,-3.724288988334557935e-03,-3.316900655004045590e-03,6.294836401939392090e-01
9.391056937045511033e-02,-5.713811990991738421e-01,5.468752837624479834e-02,5.096194940901023832e-03,-1.617970795667544696e-03,1.495675948171186443e-03,6.466446518898010254e-01
5.736278686908069524e-02,-5.636869672773672235e-01,5.659436766582487399e-02,2.520987623332994476e-02,-1.296370173857352807e-02,1.495593359632650492e-02,6.231436133384704590e-01
6.886336400825637805e-02,-5.863259660046898913e-01,6.294638683203435114e-02,-1.579501109633623876e-03,-3.316915288054580763e-03,1.357813867623635859e-02,6.527058482170104980e-01
6.771701911267691276e-02,-5.795824844047381408e-01,4.294298746265548528e-02,-4.310566454186471469e-03,-8.805111951486770464e-03,-4.358618777317130560e-04,6.355022192001342773e-01
4.738782339537137012e-02,-5.447389772501393113e-01,9.340958143573549477e-02,-1.639555630060333122e-03,-1.853456156981100715e-03,1.232233052005866220e-02,6.168117523193359375e-01
9.934933766691161905e-02,-5.906973398358530414e-01,3.231017347644773996e-02,-3.400212485931448231e-02,-1.193598447135503678e-02,4.648293626921483346e-02,6.669155359268188477e-01
6.234903291392529523e-02,-5.701510683274766400e-01,8.176595233793165773e-02,1.190568006812850813e-02,9.350680117578303099e-03,1.952996993654321917e-02,6.438527703285217285e-01
7.033122854976275873e-02,-5.805714558175036899e-01,7.055121770319935925e-02,-1.580521929859974922e-03,1.498021933336096331e-03,-7.152932366060850769e-04,6.510248184204101562e-01
1.014888429007170245e-01,-6.662969282251689496e-01,4.287879680619666178e-03,-5.026853928561086926e-03,-8.102340468993515787e-02,4.361144880337147062e-02,7.414779663085937500e-01
6.680321660017810026e-02,-5.851397390736943205e-01,6.991539475480171295e-02,-6.733653113482101354e-03,-1.553720361432607772e-03,4.223384241185611926e-02,6.576949357986450195e-01
9.867929356502547211e-02,-6.144210804116176927e-01,7.231302225165547881e-03,-1.473119625629472698e-02,-2.924916954321802112e-02,1.049154882578713513e-03,6.744509935379028320e-01
5.829919424520774163e-02,-5.928937734260520953e-01,5.700730616962526587e-02,3.331621325209285496e-05,7.938261797714772985e-03,-5.577256502622709132e-03,6.507650017738342285e-01
1.707632179518404070e-01,-6.962494175228216564e-01,-2.477007361118985229e-02,6.020740533330959376e-02,7.829026396984575809e-02,-1.673346838854785357e-01,8.565511703491210938e-01
2.753145908845588963e-01,-9.670915766153371784e-01,5.061216471533291905e-04,-4.145662587159824192e-02,5.322685119167917117e-02,-9.166872500179057415e-02,1.147403001785278320e+00
6.272833419734308302e-02,-5.807355268543006321e-01,8.737383430656617267e-02,1.521607455120567876e-03,4.125903270805011437e-03,-3.833622386381694072e-03,6.562116742134094238e-01
5.594137495595871701e-02,-4.576791660485354796e-01,3.890752566509131372e-02,5.276872524698361655e-02,-5.727947107263612649e-03,-3.861530338850561322e-02,5.179505348205566406e-01
1.181375930374647387e-01,-5.985428913375727689e-01,-2.233221414745201194e-02,-1.750075818584031205e-04,8.175219612797205728e-05,-8.419448461291801147e-03,6.579540371894836426e-01
1.035946058965422911e-01,-6.382645583632489128e-01,5.660611907183837888e-03,8.580639717588009127e-03,4.727825786847571904e-02,-1.723250008534586361e-02,7.036407589912414551e-01
6.347425686524343913e-02,-6.207906071387647717e-01,8.203213834364828094e-02,5.055568434192474377e-03,8.532565660620822570e-03,-1.911694935036509918e-02,6.947321295738220215e-01
7.973836273325740631e-02,-5.730478434198202908e-01,6.589324130534304769e-02,1.198516086094470433e-02,-5.428239284836005978e-03,-5.113070019868836552e-03,6.464374661445617676e-01
7.421942060702060862e-02,-5.810797372595137844e-01,5.698361894383111026e-02,-4.377536062715589246e-04,-1.029399295062698953e-03,1.863131730559113713e-03,6.468644738197326660e-01
1.065904762935996897e-01,-6.348395044445840352e-01,-2.935390256898762207e-04,6.441788073762225175e-02,5.958617795734991868e-02,-1.227090452081441158e-01,7.417335510253906250e-01
-3.176340703412716682e-03,-6.642437688409241758e-01,1.023942940882310304e-01,8.255330803567467735e-03,-8.958271886499846737e-02,2.050359697115461746e-02,7.372146248817443848e-01
5.547329045602286679e-02,-6.903944799778343189e-01,9.167633754253584621e-02,1.260147590680027810e-02,-9.550254730969415240e-02,-1.170793832335430412e-01,8.084512352943420410e-01
2.622082257162000607e-02,-6.374505429189719630e-01,1.262622031906873166e-01,-3.498337652692972560e-02,2.303518559480134328e-02,-4.072385245255135539e-02,7.260173559188842773e-01
8.711652531097446861e-02,-6.222317171317339746e-01,3.112208063093083177e-02,-1.210623390206960574e-03,-2.123372002636060921e-02,-3.427716370100326827e-04,6.840673089027404785e-01
6.045753239410003865e-02,-5.889897585749928055e-01,4.717235344734324598e-02,4.703376715021203268e-03,-3.538613593909268034e-03,7.078112412175123578e-04,6.429896354675292969e-01
8.364752961604215997e-03,-5.872554352559145041e-01,1.070429743979958159e-01,-1.299188926587557802e-01,-2.920445418788794600e-02,-8.640173468007852908e-02,7.063050270080566406e-01
5.490859901424557932e-02,-5.790538547308532458e-01,6.933515155475633573e-02,-4.791916459138911150e-03,-3.081026213887133863e-03,-9.700816937933298863e-04,6.413755416870117188e-01
5.263727675525542438e-02,-5.791426581924545847e-01,7.230507238073488607e-02,-3.713114234929731049e-03,-1.255586446659451771e-03,-3.478489448267615709e-03,6.419040560722351074e-01
1.085437669602658528e-01,-6.039839808346330052e-01,-1.661151424708967594e-02,-8.850738786293194105e-03,-5.167901824215772461e-02,9.399466251306294335e-04,6.651562452316284180e-01
3.090697126455960175e-02,-5.885942162835923197e-01,6.889559478386031444e-02,2.649109303863326614e-03,-7.466363149404628592e-03,-5.841935865817080714e-03,6.395698189735412598e-01
2.543430504255281277e-02,-6.356124985161386576e-01,8.825610785944970615e-02,1.021014952011112253e-02,-4.779124727270669948e-02,1.343832598311359150e-02,7.001172304153442383e-01
7.616248208560807975e-02,-5.814400651123599051e-01,7.103363092207123919e-02,-1.132255747191563810e-03,7.740913682394909550e-04,-2.142884664974821691e-04,6.550576090812683105e-01
9.568691705592508034e-02,-5.596690993028379246e-01,4.976159920178907514e-02,5.969239641263802574e-04,-3.706034473286263023e-03,1.088247175277740135e-04,6.336761713027954102e-01
8.998734548029727054e-02,-5.714170433945445771e-01,5.794206935073739628e-02,2.773796130044018336e-03,-3.727792016219965213e-03,-3.339084004268682172e-03,6.460541486740112305e-01
9.190967335739214095e-02,-5.635269267023135242e-01,5.443603036359018210e-02,3.565554289035578316e-03,-1.109745584516497793e-03,-1.820215223797141870e-03,6.375669240951538086e-01
9.049458374215371692e-02,-5.594592403161331440e-01,5.229238026256277649e-02,1.388302882314336939e-03,-1.723108129693808532e-03,3.621828026253771406e-04,6.317315697669982910e-01
9.568104347048994596e-02,-5.605493870039524040e-01,4.468213161407658118e-02,8.159280758812210640e-03,-1.056250499274025232e-03,-4.336554391557286003e-03,6.324806213378906250e-01
9.115840584001433378e-02,-5.586505735854420118e-01,5.563304679127176189e-02,8.096842400066871920e-03,-5.163158612417058195e-03,-2.840873173743493386e-03,6.330323219299316406e-01
9.590601809670801225e-02,-5.602872929524955747e-01,4.808164164723363609e-02,2.234311347134233794e-03,3.495028959678474559e-04,-1.826179956469160424e-03,6.336561441421508789e-01
6.799006837135693204e-02,-5.844965469598280006e-01,6.622059162007323807e-02,4.014584565207626222e-03,6.865663780254040562e-04,-7.729539166519210861e-04,6.516432166099548340e-01
6.122651394268921465e-02,-5.706901476568136955e-01,7.174662824778210712e-02,5.669731487680257191e-03,5.828097456847632606e-03,-1.404502659573590804e-03,6.374021172523498535e-01
1.103204795940516125e-01,-6.022772562310367839e-01,-2.193439439900662924e-03,-3.797556695778991822e-03,-3.217958806444734272e-03,1.074387145959725121e-02,6.638511419296264648e-01
6.559667363168952825e-02,-5.776560842274498508e-01,7.374277826585642903e-02,-1.447187265114887027e-03,-1.956201388500108083e-04,-4.104627886611366371e-03,6.474082469940185547e-01
6.477865862263437746e-02,-5.088792670689359365e-01,5.851442547332383337e-02,2.889621186689066146e-02,-1.583957089137696603e-02,5.406487483875830474e-02,5.809955596923828125e-01
6.852201022649681561e-02,-5.830266690775325333e-01,6.977161737512010964e-02,-2.683299719220444152e-03,-2.598118698994723711e-04,-1.580208095626995518e-03,6.521968245506286621e-01
7.747730856890025497e-02,-5.967268938426342206e-01,4.620952056970178967e-02,4.977332313275870113e-02,-4.861045823389048559e-02,7.546462401116250940e-02,6.826814413070678711e-01
7.635443548020662274e-02,-5.565474184363556898e-01,6.444982630461268402e-02,2.286365183732331705e-03,1.587437338803468143e-02,4.824635100481064302e-03,6.277049779891967773e-01
5.315027230640873013e-02,-5.108206231581269297e-01,7.488937178620355684e-02,8.592388747604577659e-02,-1.204727942442922368e-03,3.677241531567963795e-02,5.974995493888854980e-01
6.324395010637373638e-02,-5.894478138395191635e-01,5.120084846389097444e-02,3.748097539265172161e-03,-6.422478836037590413e-03,5.713754170566443490e-03,6.469582319259643555e-01
4.960662691970790794e-02,-5.200145927524679745e-01,7.697863671838373056e-02,1.979656571131008908e-04,1.445388482455246641e-02,1.173992546430764096e-02,5.846790671348571777e-01
4.214903186463064833e-02,-4.808886557581718013e-01,6.547065626705983465e-02,5.180575842469556554e-03,1.498510762611074583e-02,-2.574842175418468851e-04,5.357842445373535156e-01
3.035294834397211927e-02,-4.451634829413707029e-01,5.609663579911541853e-02,-8.873074505213936767e-04,1.066551961679449746e-02,2.475997995241438140e-02,4.911241829395294189e-01
6.281673870486262357e-02,-5.823555354599394551e-01,5.495635574195545381e-02,2.050539757524802095e-03,-4.124603681790066367e-03,6.455983756730175908e-04,6.413288116455078125e-01
7.515216646578423698e-02,-4.688260766530577550e-01,4.198795266554092298e-02,2.807378771602210554e-02,3.838612158350331906e-03,9.823920538229413690e-02,5.570754408836364746e-01
7.955002848035272467e-02,-5.714095184259171400e-01,7.792988461446911930e-02,-6.019066626653939156e-02,7.432002957157914612e-03,7.243614943081937846e-03,6.587018966674804688e-01
7.096049281107075224e-02,-5.882752469681171714e-01,7.936338116416349897e-02,2.915058889318534931e-03,-6.136759595749843865e-03,-3.561650573891985555e-03,6.636101007461547852e-01
4.369064966880817358e-02,-6.508134772494849063e-01,1.232412063746476383e-01,4.829541187488600035e-02,-7.008001213475086597e-04,-2.704612141226736891e-02,7.437108159065246582e-01
9.422743995352664270e-02,-5.482623062074409859e-01,4.334426819114728380e-02,1.101348098934022517e-02,-1.438535764116130513e-03,-4.066914443892838751e-03,6.189587712287902832e-01
-3.801970134329415996e-02,-2.844937254896714451e-01,5.154928517120338505e-02,1.660021426217463403e-01,1.359203263234127178e-02,9.851656569129492100e-03,4.175691604614257812e-01
7.176149913276616554e-02,-5.875906433254363126e-01,7.084328851411467176e-02,-1.286353664944619611e-03,-9.318893611929350259e-04,-2.983494017757758968e-03,6.589195132255554199e-01
5.421464475035078778e-02,-5.911063040876800567e-01,7.484974506166613972e-02,3.467688637621128833e-02,-1.395581466206721223e-02,3.974097382150814685e-03,6.591057181358337402e-01
6.394946772198295548e-02,-5.335310739838364791e-01,6.193519692721477510e-02,2.281751356219595059e-02,1.294173506993999932e-02,1.107110626876194048e-02,5.985112190246582031e-01
9.225183932420005783e-02,-5.574210460141266754e-01,4.923701996435009276e-02,1.115400893852700522e-03,-1.109042277955374182e-03,-3.175134131902295105e-03,6.292989850044250488e-01
7.903908058122127711e-02,-5.644450369170517234e-01,5.602183861501999762e-02,6.038743322101010206e-04,1.674241184907281250e-03,-1.077494127333619147e-03,6.323000788688659668e-01
4.069058277758152986e-02,-6.127167090656933102e-01,8.562915959258868281e-02,3.311627574272230784e-02,-1.219927408021848243e-02,-5.754438492090595443e-03,6.798232197761535645e-01
3.931204862719553383e-02,-4.216105210245440493e-01,3.459756835694494104e-02,2.715066246655368793e-04,1.793763223043142244e-02,1.667574999838519409e-02,4.605416059494018555e-01
2.625656479130777932e-02,-4.259135368766201468e-01,5.831863095862147017e-02,-1.058734195762616424e-02,-1.004626009549327431e-02,3.441031841146381665e-02,4.734707474708557129e-01
1.077571027918214353e-02,-7.066752043361782532e-01,1.716175544436138733e-01,-1.550626547126095489e-01,-2.636288312151816721e-02,-6.118765754666437295e-02,8.610761165618896484e-01
5.897659168519653328e-02,-4.810962159299887464e-01,4.571714830897047332e-02,-4.845867063436395950e-02,-8.328656329308223305e-03,1.134158306909530903e-03,5.403240323066711426e-01
7.082189147877110402e-02,-4.806431036184760641e-01,2.885301507816412370e-02,-4.580656173997295355e-02,-6.497791978325827625e-03,-1.827590935619328354e-03,5.377379059791564941e-01
8.950509352362345794e-02,-5.773785032568417019e-01,6.063232769039278436e-02,-4.138740701692028394e-03,-2.817611140174247457e-03,2.974986161235356643e-05,6.529837846755981445e-01
6.011545101580462180e-02,-4.618664970400860881e-01,3.189321817547438598e-02,1.490572754943210714e-03,2.011031152258019924e-03,2.311665951384425308e-03,5.084928274154663086e-01
4.241962214581879165e-02,-5.259591097007220162e-01,8.832915975190561153e-02,3.018669569596584175e-03,2.733647548727455908e-03,1.816824277515730751e-02,5.935453772544860840e-01
6.972605200131212766e-02,-5.798852477289744289e-01,7.348632493161741386e-02,1.393511233314534197e-03,-1.964666122914618916e-03,-2.154197995186414236e-03,6.515235900878906250e-01
7.351590331739751849e-02,-5.791578679120980011e-01,8.050520075383787999e-02,-5.745675123641686560e-02,-6.694235606494884465e-03,-2.867165989884115293e-02,6.656561493873596191e-01
6.003167556318494968e-03,-6.321565788700698185e-01,1.150277962371679674e-01,-3.464196949031710798e-02,-3.308529629723423043e-02,3.878254882936069559e-03,7.040160298347473145e-01
2.502036579717525910e-02,-3.927546066054927731e-01,4.822277009886646870e-02,-4.053868601855199760e-02,-1.320239258766510784e-02,5.289037710705929429e-02,4.456600844860076904e-01
8.220700970053129719e-02,-5.929377341307232596e-01,6.126967732185548132e-02,-2.209107358548176997e-02,2.554331327248460064e-03,1.360355204266236462e-03,6.660422086715698242e-01
7.045941877671185738e-02,-5.078565893717718049e-01,4.665764062174024285e-02,-2.572509414755969753e-02,7.165059520918982960e-03,-5.424583794612587717e-03,5.687518119812011719e-01
6.999243090565712699e-02,-5.103593021902239624e-01,4.634801477125616298e-02,-1.000232002602112306e-02,-3.770717012071607855e-04,5.014256115385980856e-04,5.691629052162170410e-01
7.291405314562116047e-02,-5.381821151167118789e-01,5.440916292529585085e-02,-1.353910277308674123e-02,1.204188900512282237e-02,2.684000767208898595e-03,6.028923988342285156e-01
8.381012217149633181e-02,-5.788113140735493545e-01,6.828303763163359741e-02,4.793766104041746225e-03,7.398135414120656297e-03,-4.102667736110252885e-04,6.551742553710937500e-01
7.097910847618282837e-02,-5.006543872053446087e-01,4.120100892292158368e-02,-2.685743475970708144e-02,-7.020804853070956170e-03,1.281681262822889633e-02,5.598518252372741699e-01
7.586551149349285428e-02,-5.170085612552238752e-01,4.779433765759760755e-02,-3.382791009850178582e-02,-1.245624759272279287e-02,1.798354346244054186e-02,5.835354924201965332e-01
1.106827408452179529e-02,-4.484876960430040915e-01,5.387739522956086491e-02,-1.737226663106327118e-01,-4.769337865708443702e-02,-1.123091031612774432e-01,6.065477728843688965e-01
2.361644953332260322e-01,-7.519886158105564267e-01,-3.737637700765272797e-02,-5.222456158555573158e-02,3.621670568763682430e-02,1.945530812393333475e-01,9.521768689155578613e-01
6.575415372012888282e-02,-5.883827860402678356e-01,8.206720876951792421e-02,-1.065866323926150522e-02,-9.633214898395077701e-04,7.074914018211015884e-03,6.628167033195495605e-01
7.191984762515293839e-02,-5.891704997616658002e-01,6.906957285790366052e-02,-3.418751696942777616e-03,-2.801080283067523911e-04,5.160799499646487147e-03,6.597571372985839844e-01
7.817349363059908351e-02,-5.835750051123054227e-01,6.377663368377584074e-02,6.629577683749403230e-04,8.312959081573771149e-04,1.865397720429605444e-02,6.554681658744812012e-01
2.438707411468421515e-02,-4.374267863181811045e-01,6.384627294949848930e-02,-1.663079142261227050e-02,-1.115449747787739844e-02,4.029798116964673771e-02,4.890058040618896484e-01
7.775822045415206607e-02,-5.969576770823221690e-01,4.861033994037106121e-02,-3.274075815199225387e-03,3.351217152753973184e-03,9.421754101120996192e-03,6.608757376670837402e-01
8.063550214221157364e-02,-5.226970507703907476e-01,2.662657829882947302e-02,-4.908992422149652257e-02,7.240053352539629894e-02,1.509906190282235272e-01,6.524502038955688477e-01
8.622754847954697266e-02,-6.008988498809066936e-01,3.476179279586735782e-02,-3.988182141594979503e-03,1.696175090545298109e-02,2.807619897512654561e-02,6.653597354888916016e-01
5.048888810601075139e-02,-2.257503315794286147e-01,8.839786846717018198e-04,-2.285805816293627959e-02,6.466892848299109209e-02,1.303205643661074220e-01,3.607352972030639648e-01
2.180492300545217033e-02,-3.979008595234603818e-01,4.207498169748888350e-02,-4.595439559670866717e-03,2.975435528407959114e-03,8.663183065920476711e-02,4.557152688503265381e-01
3.061480869026211860e-02,-4.724100034717868546e-01,6.870863936877724676e-02,2.052495500463611625e-03,7.185014672452826913e-03,-4.304662909127565662e-04,5.232736468315124512e-01
5.998116799961528134e-02,-5.101930535628593777e-01,6.085465482994989461e-02,8.692597810814019915e-03,-2.697513837746474529e-03,1.055154789198960164e-01,5.993717312812805176e-01
7.935396320756576971e-02,-5.486843527971398959e-01,-2.793341667282009388e-02,8.327223377755099687e-02,-7.138511285409425422e-02,1.479110665833849036e-01,6.635401248931884766e-01
5.273542377872997289e-02,-6.022162178692699319e-01,6.744146169457460038e-02,-1.010305214804513643e-02,2.665296274947870012e-02,3.497363719203717709e-03,6.642919182777404785e-01
4.724675012326839951e-02,-5.588523228996966630e-01,9.123811809364967829e-02,-4.087490435881985067e-04,1.713865918915996860e-03,2.002454546640433999e-02,6.302116513252258301e-01
6.187493173209024366e-02,-5.160415777177888019e-01,5.153551060644365189e-02,-2.578420010101866236e-02,-1.426301051450795665e-02,2.609522281356157006e-02,5.768593549728393555e-01
5.087076991402106341e-02,-5.028576860189226672e-01,6.791137757781881557e-02,-1.896175127328014742e-02,-1.509813624475949204e-02,-1.060999543439221761e-03,5.640100240707397461e-01
7.044766983628081292e-02,-5.498265888656845846e-01,6.797852951429092516e-02,-1.267011583359274260e-02,-1.032144045493991504e-02,4.125543773771721788e-03,6.197313666343688965e-01
5.786320026290531215e-02,-5.247215716260442697e-01,6.404216506041379708e-02,-3.435996547794131425e-03,-2.673848427405658545e-03,2.658696770461602479e-02,5.875546336174011230e-01
9.415066599295873750e-02,-5.954114297819574908e-01,1.522277477974121052e-02,-6.180249181924157668e-03,-1.513823784801331812e-02,-6.603615599683105436e-03,6.543949246406555176e-01
9.832905047873996551e-02,-6.058122586698608814e-01,1.130672392483933475e-02,-2.225601779407480191e-03,-4.324433834389422929e-03,-1.004439257706509110e-02,6.651958227157592773e-01
2.481043188571843694e-02,-4.333456308407284130e-01,5.525671499019560451e-02,-1.054654501730932763e-03,1.400062963390683209e-02,2.947329294608181868e-02,4.774730503559112549e-01
4.738720647110458706e-02,-4.116222670884443491e-01,4.180178007419335651e-02,1.805563472553369658e-02,-2.376348049423152118e-03,1.140457387979861986e-01,4.981680214405059814e-01
7.465085509436233946e-02,-5.888204095402469473e-01,5.336175842589832574e-02,-3.163330060081533286e-03,-1.688553491767289189e-03,-1.321567211892931857e-03,6.531205773353576660e-01
1.060777994972497140e-01,-6.062015198694794549e-01,6.482934432315706763e-03,-5.799469075351811401e-03,-1.396710285214081962e-03,-8.400904741959366179e-03,6.683113574981689453e-01
2.230191501235717633e-01,-6.294520916430804691e-01,-7.930428049652638034e-02,-7.001195580853651623e-02,1.674552948789445952e-02,8.936795223759623485e-02,7.745261788368225098e-01
2.391587819820968908e-01,-1.006275701572810100e+00,-1.360903962357487562e-02,-9.072007428064005063e-02,-1.775568224640662954e-02,9.104037164554772132e-02,1.162193655967712402e+00
1.415824166983832288e-01,-6.090378406605774231e-01,-2.832449326767683129e-02,-8.794696054052354023e-03,-4.777543921906993001e-03,5.004488439136097616e-02,6.874427795410156250e-01
8.618210606773604732e-02,-5.134205630261863273e-01,3.709357221892467527e-02,-3.369743203024863631e-02,-1.302965173529610672e-02,4.419807470973412256e-02,5.850433111190795898e-01
6.999143541932359436e-02,-5.183538566265588621e-01,2.612772064304474950e-02,2.254150338755255001e-02,-8.805310047712715943e-03,3.419604438800596946e-02,5.723043680191040039e-01
5.482728861286284561e-02,-5.657494277272570038e-01,9.118899057520976625e-02,-2.464508296590486782e-03,-1.468513269775190535e-03,3.507924451004572602e-03,6.395815014839172363e-01
1.016026440281387055e-01,-5.715513689265190322e-01,2.571461252680673493e-02,-6.260398752001435085e-02,2.364959674280814328e-02,6.415229715044348802e-02,6.584779620170593262e-01
9.977000003836650199e-02,-3.640897567849048500e-01,3.050785748848566792e-02,-5.270921122300951250e-02,5.880302652337601049e-02,7.316679251312638299e-02,4.718087613582611084e-01
1.292473040229702441e-01,-6.353428085965682204e-01,-1.310776073835626110e-02,-8.484724625590508995e-03,-4.046744692382783087e-02,2.211292251636532563e-02,7.089537978172302246e-01
5.210261153260267730e-02,-4.746855652220277055e-01,2.284092752140809424e-03,8.086116089903737369e-02,-5.196021940900330538e-02,1.881235296579685523e-01,6.225997209548950195e-01
7.541968972781090685e-02,-5.945124307555524901e-01,5.688844488300284774e-02,-7.675074822798072342e-03,-5.817509314968213191e-04,-2.804204600482155130e-03,6.610137224197387695e-01
7.115035941675462716e-02,-5.884548449119617608e-01,7.018556801953695912e-02,-1.076003838737150248e-02,-2.162750210574986010e-03,1.192556089057049580e-02,6.597208380699157715e-01
1.237434900696982032e-01,-8.360713875254063288e-01,4.443592897840431544e-02,-1.370548273312370835e-01,9.117888261383344517e-02,1.724253938211010584e-01,1.010889768600463867e+00
5.234738971062671831e-02,-5.624895160196987653e-01,9.062142780623888560e-02,-2.655276744609955976e-03,-2.980527406954625123e-03,9.055984198009479902e-03,6.350712180137634277e-01
1.313376581707516311e-02,-3.841392677941890543e-01,3.668017123153763381e-02,-2.199020976677512271e-02,-1.089068714190563093e-02,-3.018187487739618091e-04,4.117541015148162842e-01
4.926737317238735758e-02,-5.396184166014248440e-01,8.509728041199543513e-02,-6.451681032735635292e-03,-9.617891681290530875e-03,6.532871745744278820e-03,6.080299615859985352e-01
5.328665326685766424e-02,-5.615840365212328988e-01,8.731724920561304004e-02,-5.403542864762173221e-03,-1.075171932725284578e-03,1.136665572413506943e-02,6.329511404037475586e-01
6.800924844240299749e-02,-5.781022991122193311e-01,5.287317192521837073e-02,9.898810993497449747e-04,-4.315915357195340175e-03,-9.986126332916238531e-04,6.387264132499694824e-01
7.044577647969163525e-02,-5.884870492266769393e-01,4.988473195441842090e-02,-1.959957516145182873e-04,-2.510551536060777553e-03,9.789476968929252884e-03,6.491327881813049316e-01
5.804317382482240828e-02,-5.853045600700292894e-01,5.767513633179993660e-02,8.825902759829556098e-04,-3.256270956637144411e-03,-5.960108064295966540e-03,6.432731747627258301e-01
6.109606916115753461e-02,-5.833355219307945205e-01,6.155960486999187409e-02,-2.745166782151068578e-03,1.204629380877981690e-04,-1.853715382414626578e-03,6.446890234947204590e-01
6.708463274018749978e-02,-5.777755557041219792e-01,6.861928332488467785e-02,2.270301358854918180e-03,-1.065089977098048732e-04,4.224299742693134359e-03,6.456823348999023438e-01
6.132027013348084754e-02,-5.725846455443470706e-01,8.764344109744354183e-02,1.519574687860797283e-03,4.032998481292004826e-03,1.528035282066229168e-03,6.475163698196411133e-01
3.194887260149154029e-02,-4.880472161396859354e-01,7.910008871956430987e-02,5.078781385058518151e-03,6.580830107693902593e-03,2.101603260503360701e-02,5.465070605278015137e-01
5.620721568880024388e-02,-5.675613954723702781e-01,9.120807022346430482e-02,1.829429702200967116e-03,2.299376020320146718e-03,1.731234120570612853e-03,6.420121788978576660e-01
4.758182898204690869e-03,-2.490657551021436822e-01,2.900889338442458332e-04,1.056332206109000249e-01,-2.657768027632702139e-03,-5.102485482389055270e-03,3.112665712833404541e-01
6.090709121391743586e-02,-5.650444413057215121e-01,8.333042343760893589e-02,1.745122161411135102e-03,7.453364345448123748e-03,4.319689799353992540e-03,6.376408338546752930e-01
7.069278548483681757e-02,-5.837075369208174491e-01,7.284831375588737834e-02,-1.322797019253507114e-03,4.633123181490061970e-03,2.757133874599394796e-04,6.555340290069580078e-01
4.362193022741150950e-02,-5.820946747867364879e-01,5.251101454569551130e-02,2.060469228674709479e-03,-6.803915473183925859e-03,2.796478942238762519e-03,6.303470730781555176e-01
3.213462587472892817e-02,-5.875548989577116243e-01,5.398332400752650639e-02,9.902175228717264785e-03,-2.978036168730624836e-02,8.167679676716272166e-03,6.333930492401123047e-01
7.319382202092014622e-02,-6.011356162788947799e-01,7.435181486717823418e-02,1.227693138122622684e-03,6.486370538025981389e-03,1.834101008536230624e-03,6.750134825706481934e-01
7.071901596975016524e-02,-6.043048996519893024e-01,7.280109020962738375e-02,-5.198523676693333345e-03,3.983377516842275326e-03,6.000879458654210727e-03,6.762424111366271973e-01
5.367241956968210603e-02,-5.857841848223168668e-01,4.957907484710533108e-02,5.368008814001685135e-03,-5.999191247084283661e-03,5.615803406825681590e-03,6.376464962959289551e-01
5.384257078076840064e-02,-5.825134814664257865e-01,4.504971902380561222e-02,3.379459652207034929e-03,-6.499594297141192759e-03,1.178815600966870935e-04,6.321328878402709961e-01
9.404192079599651977e-03,-2.139614523002891511e-01,-1.850689778614582337e-02,3.289072822173483984e-02,-3.843282147016596761e-02,1.190876153303152135e-01,3.076671659946441650e-01
-1.778309175424530597e-02,-3.555339099899461619e-01,4.213689057189773379e-02,1.718930815559318592e-01,-3.152205387922286939e-02,1.150811577410162656e-01,5.189004540443420410e-01
6.908745724190892834e-02,-5.279758894494657184e-01,6.235797707343682106e-02,-1.991365954647512232e-03,1.867047855066057693e-02,9.929658328140227724e-03,5.948659181594848633e-01
8.598061405452711581e-02,-5.343029847650531128e-01,4.379652122130470171e-02,1.473874510303783102e-02,3.928755336895963304e-03,5.159227518414698926e-03,6.009517312049865723e-01
4.711760078769566817e-02,-4.281611269983319756e-01,6.150120573336564922e-02,9.904860145265534377e-02,1.939193618250988418e-02,6.374720400324418446e-02,5.250563025474548340e-01
5.334578392763156263e-02,-4.711383830922590832e-01,4.879199627131014516e-02,5.125152798941982890e-02,1.267622345433565799e-02,7.367376583508150611e-02,5.453087687492370605e-01
5.385975381054519673e-02,-6.771124593124444591e-01,6.117534305450633703e-02,1.889704608047038104e-01,-1.076406089680433664e-01,1.293725339208442460e-01,8.554660677909851074e-01
1.599863429479209120e-04,-5.854446187175854632e-01,7.977621517476268798e-02,1.315260330098331869e-03,-2.177606323942152602e-02,2.204757682715474763e-03,6.303471326828002930e-01
9.056466327432824426e-02,-5.860735318896538315e-01,6.403992482333886738e-02,-1.021739087849781076e-02,8.155069272639916319e-04,-4.320529044116543788e-03,6.640529632568359375e-01
9.849202110596450011e-02,-6.569324297539065327e-01,8.627736022470058885e-02,-6.910527736806126864e-02,4.236848192566436411e-02,1.070666444705001101e-02,7.626557946205139160e-01
6.900974907788462454e-02,-5.825188494080462132e-01,7.187835342773235547e-02,-1.528255117264337628e-03,-1.266485326611335770e-03,-3.087204562161445590e-05,6.529766917228698730e-01
8.298678458934788393e-02,-5.859675201687688517e-01,6.548325902004328847e-02,-5.478092815942380879e-03,-2.850408476913333065e-03,-4.894526995151208789e-04,6.604636907577514648e-01
3.678575372945781796e-02,-3.549137238398775707e-01,9.707783012552523294e-02,-1.584619002970698576e-01,4.547003934194129848e-02,-1.748577827728093823e-02,5.129623413085937500e-01
7.528724340421202865e-02,-5.539429634244719125e-01,6.131680028700609020e-02,-1.557246634424090670e-02,-9.145483001502920442e-03,3.438099355453221560e-03,6.231766343116760254e-01
5.893298711674385681e-02,-5.650746756399431803e-01,6.961025518176799931e-02,-1.290121123002614147e-02,2.158534038548009983e-03,-4.124565552018684411e-03,6.298623681068420410e-01
5.092037122226111823e-02,-5.269231701718429806e-01,7.927489672498458373e-02,-1.955089556279525353e-02,-1.446058538849276549e-02,2.182639482635586464e-02,5.952267050743103027e-01
8.079624503866364438e-02,-5.920206324223935557e-01,4.628851904120431793e-02,5.077179791077639725e-05,1.755062314688470362e-02,9.292835026325921635e-03,6.571446657180786133e-01
7.244587584296116600e-02,-5.443296839669909959e-01,2.936299432149108712e-02,3.163840273046687052e-02,-2.019329591654980480e-02,3.810818072280709040e-02,6.035550832748413086e-01
6.298870597880615319e-02,-5.730740000849989801e-01,8.440155589867692765e-02,2.258187191833678595e-05,2.353630899889777497e-03,-1.053037335333929835e-03,6.470503211021423340e-01
6.638321034742758475e-02,-5.757650173240529412e-01,8.202628012420934422e-02,-1.168163877632823460e-03,1.589626842185035051e-03,1.802931333444750457e-04,6.501199603080749512e-01
3.323281285164690624e-02,-3.236755885199634752e-01,3.664563272712972886e-02,3.429298417302449609e-02,1.026476383929533906e-03,6.574445634572563535e-02,3.809350430965423584e-01
6.938251249619534211e-02,-5.524898799732387289e-01,5.141604749173461775e-02,2.667083496180305130e-02,-2.604634746923168917e-02,4.528221136331624791e-02,6.214466094970703125e-01
4.772494134641505625e-02,-5.257732607909498812e-01,5.289676899904446894e-02,2.183805977937694834e-02,-1.012300752691827968e-02,2.136921089297551257e-02,5.787927508354187012e-01
5.301932659754987620e-02,-5.332672312669470838e-01,7.269394819278543474e-02,3.479001074914833246e-03,1.198932327754304375e-02,-1.283429854333812715e-02,5.971730947494506836e-01
-1.871801091529742833e-02,-4.858109139712752933e-01,6.313356229391867136e-02,-6.777028009014726684e-02,-7.225731597183490673e-02,-2.972611456452362369e-02,5.433235168457031250e-01
3.548060552626206010e-02,-5.977486069123535417e-01,9.082653257772749233e-02,-9.914330424771597081e-03,1.112791593625990852e-02,9.557778541569305090e-04,6.631426811218261719e-01
2.376204091022002252e-02,-5.930019299746407402e-01,7.937907128048216077e-02,2.593342698435635498e-03,-1.043534093343995335e-02,2.216580484223578881e-03,6.466492414474487305e-01
5.489402565702122816e-02,-5.903215702120812036e-01,5.912790748677337893e-02,-4.193763986840828763e-05,-2.323390682442737568e-04,4.186917597913277986e-03,6.473836898803710938e-01
7.484910498385330402e-02,-5.337441740306356763e-01,5.002849180598611945e-02,-2.285738221232719997e-02,6.815298280739404829e-03,-4.548022199682364049e-03,5.980509519577026367e-01
4.752828145214255118e-02,-4.424792684696664535e-01,3.430760781783662172e-02,-3.828050322691516766e-02,1.164200015571918191e-02,-2.078931704558421162e-02,4.897992908954620361e-01
6.838015484645632025e-02,-5.398455907029287015e-01,6.184420732987824798e-02,3.637536003467552875e-03,1.840951563792133858e-02,-1.312051387021216133e-02,6.062827706336975098e-01
9.201442382731678249e-02,-6.359299895817979165e-01,6.926345225501143177e-02,-8.525202113011379201e-02,-6.003218245281521925e-02,-9.945529906523102592e-02,7.590445280075073242e-01
3.178701007292178415e-02,-3.548939413993887904e-01,2.697046279414505587e-02,-1.371572458032677688e-01,-1.957587197070316011e-03,5.593317215025082889e-02,4.620782136917114258e-01
7.964678590423909799e-02,-5.233954853359014114e-01,7.721680707747335948e-02,-3.478712379390429266e-02,-1.847405448375858891e-02,8.417191896883728652e-02,6.229844093322753906e-01
8.068160430964005370e-02,-3.085426156187531244e-01,9.114380968593488452e-03,-3.839805684105856293e-02,-4.475613034653059402e-02,-5.066303163210538613e-02,3.832681179046630859e-01
-1.799863943414870340e-02,-6.442832469472722923e-02,-1.521091272121857796e-02,-3.367273450533420781e-02,7.751958978279848388e-03,2.853231242751501015e-02,9.119778871536254883e-02
2.589426551897136553e-02,-3.732407561505638460e-01,2.936006477389202507e-02,-6.535132651087724454e-02,-1.619574635125963988e-02,4.781578787778251183e-02,4.256318211555480957e-01
2.565745494588198006e-02,-3.920791608235618120e-01,1.297637276223551073e-02,-5.261403267268337930e-02,-9.514125020470214078e-03,-4.582998951952788752e-03,4.219082891941070557e-01
4.907556063716997374e-02,-4.979721053726431368e-01,6.127778052478266568e-02,-1.828541280950553988e-02,-1.508164435693291200e-02,1.936114354773916385e-02,5.557834506034851074e-01
3.691310230294694850e-02,-5.915724157587289866e-01,8.380533206587992279e-02,1.545057425649019357e-02,2.949032793803045300e-03,-5.546202566901273397e-03,6.538337469100952148e-01
2.855476470581502779e-02,-5.978213492432546960e-01,8.286565338611262543e-02,7.454564194209182702e-04,6.978841895183158887e-03,-3.558491347282627566e-03,6.553636789321899414e-01
2.462254978028527441e-02,-6.023756650337818153e-01,8.607592120697127314e-02,-1.483262730100527726e-04,9.476549506805542755e-03,-9.523215146548084237e-03,6.602847576141357422e-01
-2.569064567790313447e-02,-6.122324284119254889e-01,1.220143702819896925e-01,-1.953314299812586047e-03,-1.472901455921996105e-03,-7.032847953935123658e-03,6.727923154830932617e-01
-1.686083196518767258e-02,-5.586090857063952253e-01,1.023870996136735378e-01,6.708734177089814565e-02,-4.342663945684119980e-02,4.118919648758510160e-02,6.297324895858764648e-01
5.574019094366297611e-02,-5.860496767454883571e-01,5.835019165064669888e-02,-3.991981609570223639e-03,1.538857260958057709e-03,-9.302212550300599601e-04,6.431435346603393555e-01
-4.602011128442246024e-02,-7.298114937660039603e-01,2.113458368174724877e-01,2.328269932854225843e-01,6.276221925024047521e-02,-1.234320611371822196e-01,9.643347263336181641e-01
-2.129904045714459127e-02,-5.974313855318179600e-01,1.116939989149360879e-01,7.321038450910633683e-03,-1.091325159809386405e-03,-3.396808529144559625e-03,6.530207991600036621e-01
6.993370287037689592e-02,-5.603802328648679332e-01,7.152758891924590468e-02,-3.560956877662036901e-03,-8.912989429187698903e-03,4.817639414776827222e-04,6.313318610191345215e-01
6.667251824274686434e-02,-4.999290850317846258e-01,4.776174699645249766e-02,-3.979007232899920560e-02,-1.333116050198792334e-02,1.209677376627754999e-02,5.624962449073791504e-01
5.995510925461508545e-02,-5.148934751561697887e-01,5.978326287567303776e-02,3.345774674962891088e-05,-1.724422781346633682e-02,1.099924104718430669e-02,5.758534669876098633e-01
6.912973235334850253e-02,-2.040175584929672103e-01,1.467157306497808567e-02,-5.483123636531814921e-02,7.414079917964866429e-02,6.960600326773666580e-02,3.205385804176330566e-01
8.168108061827364375e-02,-5.419514819251205484e-01,5.269137427752326741e-02,3.104290096932387573e-04,-1.019543300141256999e-02,1.639105223220720196e-03,6.099174022674560547e-01
7.255675691453428167e-02,-5.124005479172794031e-01,4.950712836229556602e-02,-1.413614795294978500e-02,-1.205396070088285074e-02,1.849682045949452638e-03,5.746902823448181152e-01
8.096809433973156667e-02,-5.850074728443431793e-01,7.819530177332201237e-02,-8.804847509541138817e-02,1.674849070366685178e-02,3.427790465481441590e-02,6.850610375404357910e-01
7.767275505462620244e-02,-5.408150423787638772e-01,5.912614174620756113e-02,-2.770249311129455855e-02,1.316995428578874921e-03,-1.490854155769310652e-03,6.113218665122985840e-01
8.555015572054916473e-02,-5.704238081619469325e-01,6.073367646354330129e-02,-1.099708895491255823e-04,3.051439813292288090e-03,-8.975254558623719766e-04,6.439480781555175781e-01
5.161994108401721237e-02,-5.248112150228723127e-01,6.747781955748066718e-02,-1.015035162882718840e-02,-3.434368845426816804e-03,3.004259378714106699e-02,5.871264338493347168e-01
7.022334041944988670e-02,-5.293735139696096326e-01,6.138123497173075815e-02,4.268804868650357548e-02,1.662720939916463581e-02,3.041060447118239946e-02,6.027963757514953613e-01
5.387245775444426954e-02,-5.601239311999564041e-01,8.566725698085694840e-02,2.604936711136024170e-03,7.040961875820443173e-03,7.731016790735560640e-03,6.307715773582458496e-01
8.225130839920641312e-02,-6.011131402140846847e-01,6.608176657830197587e-02,-1.419993253214256457e-02,1.672985383323476139e-03,2.981642090752716426e-02,6.778488755226135254e-01
9.334387943375971330e-02,-3.661934233323601573e-01,-7.538110257181628027e-02,-1.292390611056445579e-02,7.382839182477813657e-03,1.861549719777695899e-01,5.164618492126464844e-01
4.321163684363521496e-02,-4.303461355602836713e-01,3.738812576962291523e-02,-1.453354702868510807e-03,1.672649786400495428e-02,2.139783915425649830e-02,4.730246961116790771e-01
1.074673080099922129e-02,-3.903104784449107911e-01,4.301763992463442099e-02,3.596875664023012819e-04,1.181094458233477099e-02,2.139913590110409120e-03,4.186447262763977051e-01
6.830144187203882056e-02,-5.260830866387714577e-01,6.068803737570019341e-02,-7.415449923059309065e-04,1.728459383818170200e-02,9.262060662340299705e-03,5.915918350219726562e-01
1.935059253067951401e-02,-3.297672603917645162e-01,9.935537854520254397e-03,-3.803603432146136082e-02,-3.795535684105698793e-03,1.955873836852413741e-02,3.524429500102996826e-01
6.037871036915432033e-02,-5.123231782290534886e-01,6.351985307850985252e-02,1.830057944949012652e-02,1.874429133008943121e-02,3.085721190824887287e-04,5.760688781738281250e-01
4.307068000588357148e-02,-3.567103086944172219e-01,8.481398472602749705e-03,4.366651039914194732e-02,2.002970490762057045e-03,-4.170504890263403153e-03,3.911235332489013672e-01
9.089102013763011856e-02,-6.131494834786161974e-01,3.373263017387403973e-02,1.134860121143510276e-03,1.849752196195305481e-02,1.119203602848838595e-02,6.783099770545959473e-01
8.268439919585229836e-02,-5.677973333234760389e-01,6.440123763512686783e-02,5.316470034965649523e-03,7.835154163066430574e-03,-3.104019347890906691e-04,6.417453885078430176e-01
6.920701190270989178e-02,-5.837075690391690941e-01,7.273916776157246522e-02,-1.162130669360636817e-02,-1.987653212911115203e-03,1.898889272603316442e-02,6.558314561843872070e-01
5.372934094775305702e-02,-5.726029689997320649e-01,9.297900539714260004e-02,-9.228259826759642025e-04,-2.216336325165404759e-03,5.490139763641750312e-03,6.469340920448303223e-01
9.527887437953969085e-02,-5.983875589307745546e-01,1.323083192669621821e-02,-1.356437318538702280e-02,4.186406712455564318e-03,-2.933937445641005611e-03,6.569790244102478027e-01
8.454808764764781825e-02,-5.938028340706400510e-01,3.910761221234057561e-02,-5.803870507226365112e-03,8.013312046723489526e-03,6.960058687858022147e-03,6.571447849273681641e-01
8.071748217132013181e-02,-5.887239458177173645e-01,5.063122065770445102e-02,-5.695373029030878498e-03,-5.894472954618505656e-05,-2.987694281522469339e-03,6.550115346908569336e-01
6.621879418811740803e-02,-4.370115657369536555e-01,1.462661511172450024e-02,4.435951423506954289e-02,-4.141965378118085510e-03,-2.411265249869881666e-02,4.874821305274963379e-01
8.526371390852252596e-02,-5.605646635905849884e-01,6.120182723035166861e-02,1.407461000094225624e-02,-8.321804637060413457e-03,-1.440680898224461909e-02,6.352622509002685547e-01
7.268319827942143485e-02,-4.846723806400931034e-01,3.544608416433819853e-02,-2.053815988574452401e-03,-6.776005121620102753e-03,-6.226902133222036138e-03,5.399484038352966309e-01
-6.086417018605372320e-02,-5.622042749604629908e-01,1.339815238723818247e-01,1.567530191583027255e-01,-4.661590100686586330e-02,8.957962383098779999e-03,6.837142109870910645e-01
8.094603950006801218e-03,-7.159610851658736452e-01,1.490508380251199805e-01,1.187681276460823554e-01,9.893849566331548717e-02,-1.105890617996739406e-01,8.686537742614746094e-01
-5.133032125306427607e-03,-3.398365615733138223e-01,4.523082188307764318e-02,1.251332442252237054e-01,4.805211080990959976e-02,-2.440708315192552727e-02,4.325610399246215820e-01
3.524654181700584421e-02,-4.023672165682928847e-01,3.516492487713093751e-02,1.017455395122832248e-03,-7.893932380850714886e-03,-4.650764595972994853e-02,4.451393187046051025e-01
7.980035293753684478e-02,-5.783672383877733747e-01,6.894108842159077377e-02,-2.152555063390095642e-04,2.839715057372524734e-03,-4.090983429275032264e-04,6.528246998786926270e-01
8.574635226029239665e-02,-6.118625664606576198e-01,5.674605838836743743e-02,4.033155838087405104e-03,-1.055727686091404403e-02,3.081664377818784197e-04,6.838507056236267090e-01
3.012977719852308334e-02,-4.646727264922313472e-01,6.137148420183255459e-02,-1.378362446826573648e-02,-1.088026370801656274e-03,4.278325803150090194e-03,5.117542743682861328e-01
7.931943703768060128e-02,-5.747523831255408888e-01,6.780774744711171031e-02,3.900471978867951946e-03,-5.961156736033238271e-03,-2.485901587645189016e-03,6.485242843627929688e-01
2.538362702862466402e-02,-3.077661411606861241e-01,1.046472358712341455e-02,4.346816562283558477e-02,1.552780737102077945e-02,8.833278416840402436e-03,3.359568119049072266e-01
6.892705091265868833e-02,-5.593297214017370900e-01,5.397914188346597530e-02,-5.856448881932925336e-04,5.928279744665991904e-03,-2.464573238685286230e-02,6.224689483642578125e-01
7.022254160014118618e-02,-5.124634767433493554e-01,4.962927229550592734e-02,-1.363428120769310387e-02,1.419651264022974042e-02,-7.904115445471535106e-02,5.897902250289916992e-01
7.221908351896413891e-02,-5.893278967730792850e-01,6.318484563303805590e-02,-1.016223509763525094e-02,2.244188552718435949e-03,2.393309092505167476e-02,6.586294770240783691e-01
3.052349259956682603e-02,-3.798650733798191736e-01,-7.383810233012585988e-03,-9.390323614955063680e-02,4.836469283361308907e-02,1.418534706400165768e-01,4.981336295604705811e-01
9.667568762450926001e-02,-5.636327966764780317e-01,3.107532287444772501e-02,-2.248538119107943226e-02,2.390994893672478052e-03,2.607136019063678936e-02,6.329038739204406738e-01
8.359594537553410865e-02,-5.913321608636976645e-01,7.136720958089726174e-02,-2.634030626594447647e-03,8.951796672137917734e-04,3.417342460324678671e-02,6.715285778045654297e-01
7.405145260660081497e-02,-5.874515188489518591e-01,5.356049215924502116e-02,-9.924133383044111967e-03,-9.442137008290396117e-04,-5.365898243587997234e-04,6.517286300659179688e-01
4.121869841494832376e-02,-5.138598644406708882e-01,8.043452311517948483e-02,4.399015005129765796e-04,-1.071032772194735645e-02,2.341870137968461024e-02,5.774149298667907715e-01
5.740754540265469164e-02,-5.538814901531476931e-01,8.186443576385452059e-02,-7.011777373154472887e-03,-6.038684663106268571e-03,6.532816368782716487e-03,6.241855025291442871e-01
9.957211627136064447e-02,-5.914980695765106322e-01,3.678431870817253091e-02,-2.559996192525045011e-02,5.653032335259696416e-03,1.072818945668071317e-01,6.889990568161010742e-01
7.266977412945416215e-02,-5.756262980171249488e-01,5.070106887738340395e-02,-5.103262831530138918e-03,-1.787579751380784709e-03,-9.243548806674044055e-04,6.376664042472839355e-01
6.555364054486537140e-02,-5.747432670123708842e-01,6.927274300068234081e-02,-3.641596057595272284e-03,1.950308065376150013e-03,1.803615363667727825e-03,6.422119736671447754e-01
6.534685279463972596e-02,-5.579839617125752493e-01,7.636591853676061303e-02,9.233339152362235805e-03,1.588605864161761819e-02,7.203392474349535647e-03,6.298410892486572266e-01
5.945345277023103558e-02,-5.590387771847260545e-01,7.182319598691752627e-02,2.574540730111163009e-02,2.227580348843504268e-03,-1.896771592375971413e-03,6.263787746429443359e-01
5.131975265350874338e-02,-5.595771094644468313e-01,9.264060039589819273e-02,-1.173914340957477606e-03,6.076512369897890805e-04,1.894015543558375805e-03,6.325829625129699707e-01
6.747842325010844355e-02,-5.814499066194805943e-01,7.222012937070163008e-02,2.101386612489712386e-03,1.790548681652034610e-03,1.503620962334793754e-02,6.518501639366149902e-01
5.146193135601839774e-02,-5.530391730364302427e-01,9.003443568413141418e-02,1.862519923850052645e-03,6.777871663988205113e-03,7.287387177940603429e-03,6.249272823333740234e-01
8.711907544429123296e-02,-5.910499689343702290e-01,3.266106460689494062e-02,1.755401177739870314e-03,7.189180285035718862e-03,1.334126265270841119e-02,6.531810164451599121e-01
1.199275910481683027e-01,-6.228741188708216692e-01,-2.637173595160297035e-02,-9.414891197452404138e-04,-6.861046665367197088e-03,4.257311794566362093e-03,6.816778779029846191e-01
7.354725187926056118e-02,-3.523820969963056826e-01,-5.442553820306846035e-02,5.720864128084866482e-03,-9.635478469915630118e-03,1.465310794920288984e-01,4.561537802219390869e-01
6.124439024914510310e-02,-5.481190664459452133e-01,7.260144825909353727e-02,-1.846383314882491661e-02,-9.932960369331361727e-03,1.568894783284445482e-02,6.167905330657958984e-01
7.355097222245993160e-02,-5.914123319602915263e-01,4.962358514690726197e-02,-2.529324529273373721e-03,3.191628424601811349e-03,4.733340364844831373e-03,6.534178256988525391e-01
6.680955887357981071e-02,-5.888182908026649010e-01,4.602521578629831245e-02,1.467710928620193436e-03,3.117777706146457675e-03,-4.716024235916749761e-03,6.455659866333007812e-01
3.281722131925643438e-02,-5.945501185429257207e-01,7.249038751048630935e-02,-1.026837092520362961e-02,3.144772723674300885e-02,8.170870834881074213e-03,6.507971286773681641e-01
6.383031998529309359e-02,-5.843561639078542758e-01,4.216355094287754790e-02,8.910164985902761705e-04,4.355095826074446494e-03,1.044635638218463459e-03,6.376783251762390137e-01
5.355608728901412041e-02,-5.893638807168745108e-01,5.790587573221819828e-02,3.039453186352072348e-03,4.524433092192677551e-03,-2.630629480274900359e-03,6.451910138130187988e-01
5.219871954118052160e-02,-5.991059731371346508e-01,7.281027356514804816e-02,9.736736362432298758e-03,2.421973642188810817e-03,-5.556027986859560924e-03,6.621492505073547363e-01
6.330443136793778569e-02,-5.873247075773466719e-01,5.627242712186791840e-02,3.617912011436980307e-04,3.219336507486594574e-03,1.384912841817464340e-03,6.471705436706542969e-01
-6.041943836397889456e-04,-7.329582713714414277e-01,1.441010284196638791e-01,-1.425087990964468143e-01,6.396917433224208471e-02,2.321368860972830225e-03,8.581818938255310059e-01
3.957984820968993289e-02,-5.993621590168500823e-01,7.464056830876075743e-02,-3.223801450452095513e-02,7.299824401382269679e-02,6.652607594402129565e-02,6.813656687736511230e-01
-8.028443256494127711e-03,-8.713540951035619875e-01,2.560326741384067462e-01,-8.672021375167922319e-02,2.653953379354089676e-02,-3.312869436294273162e-02,1.034889817237854004e+00
7.624381103382169012e-02,-5.848206356351683954e-01,7.754156632881289979e-02,1.704356193213847452e-03,5.717659149308061510e-03,1.841210070565772652e-03,6.618026494979858398e-01
1.719862325911811207e-02,-6.087265221640454360e-01,9.536084515063608658e-02,-2.116982319524895323e-02,2.164662109292709788e-02,-3.894470011105286966e-03,6.705304384231567383e-01
4.637072669864492069e-02,-5.879479699828106254e-01,5.832553763951695003e-02,-3.965277227909390595e-04,6.190884310712784291e-03,-2.993527712625430187e-03,6.404909491539001465e-01
1.056312176130574931e-02,-5.972364245084731404e-01,9.191684554819556929e-02,4.941994269996616979e-03,1.615599938366518371e-02,-8.671363267770371488e-03,6.531212329864501953e-01
-3.414849086379465049e-02,-5.999366246433754934e-01,1.212068374518749936e-01,-1.378100736652661988e-03,-7.979444261200550697e-05,-4.919283511029572814e-03,6.574404835700988770e-01
6.434862725797352301e-04,-2.959795178878160682e-01,3.043746460234669771e-04,8.951308087164763089e-03,2.563440662574019251e-03,2.099174092611674064e-03,2.969141900539398193e-01
3.525599162928855224e-02,-4.035226742653212351e-01,2.009951182948141457e-02,-3.864914550172586505e-02,-1.077121629178376568e-02,2.313623833682090271e-03,4.369799494743347168e-01
1.799393872827509400e-02,-3.874762153118876951e-01,3.581895527739617502e-02,2.516907872239824723e-03,-1.254743098822030077e-02,2.421142373429110983e-02,4.173741638660430908e-01
-1.384954758471295538e-02,-1.392829153946245069e-01,-5.427579886821617960e-04,-3.875221115975314989e-02,6.209214798193030778e-04,2.108949733022414882e-02,1.530371606349945068e-01
9.176175041587047998e-03,-3.446810339945872714e-01,1.881152565539495614e-02,-2.517925984200377817e-02,-6.413213139860621421e-03,3.847784941513608670e-02,3.676742017269134521e-01
4.703811195446902516e-02,-4.200276538938148563e-01,2.499210199787629816e-02,-3.811196322436560813e-02,7.843031576233625360e-03,2.641562255894539576e-03,4.614136517047882080e-01
7.798375845797117512e-02,-5.376196098537655566e-01,4.636738138566542933e-02,-4.225919189587718644e-03,8.196543465588092964e-03,-9.133754294592556083e-03,6.008405685424804688e-01
-5.864017868769805242e-03,-2.374417723526669466e-01,-5.690512914288375912e-03,-5.424555655551587668e-02,2.698109753134329478e-02,1.084592936393243140e-01,3.161809742450714111e-01
2.345027472516235389e-02,-3.294201782208600049e-01,4.470527553719683134e-03,3.808400954252384729e-02,3.945983485555028931e-04,6.652367854454254814e-05,3.500457704067230225e-01
1.332153588632863095e-02,-2.802610422070905827e-01,-5.640547328099626556e-03,-4.203222111190289129e-02,-5.029043444285509826e-03,5.270042018020310894e-03,2.940113544464111328e-01
1.860500878271074965e-03,-8.690933044783491490e-02,-3.201447231191828502e-02,-5.378961098676470452e-03,3.405145015893144486e-03,-4.041383470296996266e-02,1.050806343555450439e-01
7.201090705838583683e-02,-5.867714695344297127e-01,6.998032548395891062e-02,4.653067748232000869e-04,-1.543346223447985286e-03,-3.857306843204711799e-03,6.578093171119689941e-01
8.067172267756100856e-02,-5.816306641630722973e-01,7.131641779311262419e-02,1.578444745737615350e-03,-2.015343502633823187e-03,-2.549180146343981487e-03,6.577044129371643066e-01
7.449047006941680871e-02,-5.426457481005783068e-01,6.034955004139791468e-02,5.531962898290025341e-03,-1.264433871953683786e-02,2.678298136321826512e-04,6.106569170951843262e-01
6.792528917602250194e-02,-5.509796301359114468e-01,7.159899212466050433e-02,4.493950042186582380e-03,-1.212392407655706918e-02,-1.259511050714192879e-02,6.215367317199707031e-01
7.656960916210364676e-02,-5.696092180856318077e-01,6.798610685862344072e-02,1.156256054814017512e-02,-5.056216005591460116e-03,-5.776511466274875280e-03,6.423800587654113770e-01
6.959646112214712410e-02,-5.870360520193242948e-01,7.129189301851426852e-02,-3.742908203737301855e-03,4.640426484535644584e-04,-4.418255404593734141e-05,6.575143337249755859e-01
8.159156968021819001e-02,-5.891828944370081089e-01,7.310490842809982959e-02,3.128442731899360937e-03,-1.850042063713554057e-03,1.097203771527024063e-03,6.666041016578674316e-01
7.507386168419055705e-02,-5.861066944281683178e-01,7.560962226016948451e-02,6.906682325126700011e-04,-3.077230416896492831e-03,-1.469385056693406832e-03,6.614760756492614746e-01
7.181553657763223297e-02,-5.911915262365637913e-01,7.676350821970762128e-02,7.826633657514361474e-04,1.306377452739884053e-03,-1.248588368401758446e-03,6.655035614967346191e-01
7.852530436052576612e-02,-5.676760152602751131e-01,6.632839586167757484e-02,4.652158425789500217e-04,-1.001072366884208330e-02,-3.425102926768777353e-03,6.404527425765991211e-01
8.132424040398356091e-02,-5.675159886198632986e-01,6.188205053612899631e-02,-1.758737038632799538e-02,-1.035802808348292373e-02,-2.660106446736058491e-02,6.419730782508850098e-01
2.801940389639778761e-02,-5.874004094906740692e-01,4.977332091754760324e-02,5.451193529600877920e-03,-3.535614915710477701e-02,8.147820604053470500e-03,6.297944784164428711e-01
3.400505554473604031e-02,-5.975635090709864317e-01,3.511477915319480281e-02,-2.569412671513376586e-02,-8.380676566676042993e-02,-3.163869496549915478e-02,6.524072885513305664e-01
2.428697922862146918e-02,-6.171675468682753518e-01,8.888151924878162635e-02,-5.343492373126672822e-03,-9.579472726116217141e-02,-6.988560220523575006e-02,7.066387534141540527e-01
2.203958395827262939e-02,-6.569977255929526638e-01,9.946394515333389919e-02,-1.130769792194928763e-01,-4.935912828935623553e-02,-1.073586861238747248e-01,7.745360136032104492e-01
1.664867713435469465e-02,-6.990739224309179267e-01,1.040379724747989565e-01,-5.068440751188803273e-02,-1.108799763878258876e-01,-9.822391515194778266e-02,8.099233508110046387e-01
8.980772974872708314e-03,-5.862134992461993654e-01,5.527023133631187024e-02,2.184675337329598354e-03,-3.881349007973490528e-02,5.558633055958051017e-03,6.233591437339782715e-01
6.033638404037119929e-02,-5.740520594204167049e-01,9.398972567675301093e-02,-3.725803213174156553e-02,-9.105778353575698369e-03,-2.542001391420086950e-02,6.567208766937255859e-01
8.807800420969447153e-02,-6.022184004035587845e-01,4.031107843208239783e-02,3.951660668672656485e-04,-7.762528674369230906e-03,-1.412096996854587949e-02,6.682790517807006836e-01
1.510950850924860922e-02,-4.120740828891012453e-01,2.554516157835892698e-02,-1.082193137296726948e-01,-2.470700148673603963e-02,-1.424085032916078131e-01,5.337216258049011230e-01
7.519198477983468631e-02,-5.654477291221302604e-01,7.110444774691443426e-02,2.168848807394646930e-03,1.220567420379368474e-02,-1.918408155363643581e-04,6.389667391777038574e-01
1.731371509921453278e-02,-4.010484738793785309e-01,4.339401061248540636e-02,1.530997876403934537e-03,-6.813158692643693851e-03,-4.187428944631531313e-02,4.382063150405883789e-01
6.888071410291637942e-02,-5.701248885103233910e-01,6.898523970799699812e-02,2.878519466710643179e-03,1.108487057140004547e-02,-5.951122270697392982e-03,6.394487619400024414e-01
4.081273066971166652e-02,-4.012240207332279929e-01,1.589011585655600300e-02,-5.447327337420581478e-02,8.958314713320333564e-03,2.755318207259788849e-03,4.406432211399078369e-01
4.188642612116050268e-02,-4.742373406163334359e-01,5.942627948696418971e-02,-5.786544462987160131e-03,5.237934377134066677e-03,-4.736964246130267314e-02,5.316563844680786133e-01
2.561812772174458519e-02,-1.867500912078138564e-01,-9.525001568741787994e-03,-4.493826019854919862e-02,4.984453067207510191e-03,-8.804311342285585373e-02,2.612654864788055420e-01
7.307020285223972400e-02,-5.871003234129534842e-01,7.505237912800236111e-02,7.886442550921250695e-04,1.257764211476613322e-03,-2.498260995348525800e-03,6.611829996109008789e-01
7.469234094866020190e-02,-5.879477508626704818e-01,7.331191787169924479e-02,1.132030625124594249e-03,-8.464697742511574120e-04,8.907576158217107333e-04,6.619572639465332031e-01
6.893516804611538040e-02,-5.858925233604153071e-01,6.974048107087679749e-02,-1.230990981813492001e-03,2.964157210281805890e-04,-1.802772487089756345e-03,6.552418470382690430e-01
6.214048889118614638e-02,-4.483144186302849277e-01,5.018569846273968071e-02,4.571288363112933212e-02,-3.551636851625118892e-03,4.046110673346221126e-02,5.155801773071289062e-01
6.576150989640730526e-02,-5.788397256728785578e-01,6.709398621843734589e-02,3.131079514542140494e-04,1.207260875176555505e-03,-6.245507744482111561e-04,6.452730298042297363e-01
6.897288373517865279e-02,-5.743940553048103581e-01,7.980736953453856919e-02,2.381134172397417984e-03,5.019544220288519980e-03,1.586626258206783697e-03,6.489291787147521973e-01
6.899377346567833746e-02,-5.825657447603547201e-01,7.824677315318492865e-02,2.830681399498094801e-04,3.316888290824819563e-03,2.943861460479034117e-03,6.562801003456115723e-01
6.726971927867050893e-02,-5.842986263999810914e-01,6.778102254019907624e-02,4.632819639202133410e-02,-4.314546928214193708e-03,1.403387176665634763e-02,6.572368741035461426e-01
7.232555448752320260e-02,-5.590090568567813722e-01,7.286938146715271625e-02,7.592083887142385065e-03,1.050423240596534344e-02,6.737026545509123242e-03,6.321132183074951172e-01
7.505326670958570312e-02,-5.714617925243852259e-01,7.516914838181187886e-02,6.170771106011657160e-03,1.169737012834721861e-02,5.882276892158329502e-03,6.470588445663452148e-01
6.464293498186454712e-02,-5.843239923697129967e-01,6.519643413405870613e-02,2.872306501298660386e-03,-2.008876316406270259e-03,-7.454836452581837082e-04,6.492735147476196289e-01
7.934718895676479145e-02,-6.138382544650797801e-01,4.749786707583586454e-02,4.155961029349644620e-02,-2.275650773971951008e-02,7.932169174454425931e-02,6.964581012725830078e-01
1.233920425348241368e-01,-2.526318060566135060e-01,-4.600388402037534907e-02,5.065724040057566907e-02,-4.383577775929662496e-02,1.334258445816287886e-01,4.162482023239135742e-01
1.149096906148783792e-01,-5.903018174291910780e-01,-2.275921024929691838e-02,2.964990656493548052e-02,-5.635847296793417699e-02,6.168499086497908346e-02,6.654108762741088867e-01
7.060952365065251146e-02,-5.951459742483633519e-01,7.051359146981070469e-02,-3.820995033380146944e-03,3.706714900336914673e-03,1.985017674375988070e-02,6.666585803031921387e-01
6.107118924037080454e-02,-4.058342678674005666e-01,-3.901313861261190841e-03,9.850301737758525300e-02,-7.473836518583377997e-02,1.361593164299181868e-01,5.416365861892700195e-01
1.283826897377442211e-02,-3.129728048565610932e-01,3.071971158564147653e-02,1.183730821480720452e-01,-1.994453452279243769e-02,6.615102108614857868e-02,4.106779396533966064e-01
8.799537635164161875e-02,-4.581468899511909054e-01,-3.173389531157490284e-02,1.189262016520625798e-02,-4.987621221102458979e-02,1.252601298757011483e-01,5.497042536735534668e-01
1.569792925333097777e-01,-6.098658478712049025e-01,-9.839820673278534824e-02,-6.163485312707530500e-02,-1.302064385129567819e-02,3.140765767190301094e-01,8.747980594635009766e-01
7.176087568784111914e-02,-5.785148699013179519e-01,6.509508893903825921e-02,-2.642233937839611434e-03,3.415342051455495277e-04,-2.002842933752643686e-03,6.469943523406982422e-01
-2.222856087804821190e-03,-1.200914355180927734e-01,-7.995798701415673948e-03,3.420479894193054898e-02,1.540870696532109334e-02,9.129091299946703875e-02,2.060828953981399536e-01
5.776811329278319640e-02,-4.357259660118396050e-01,4.855275288417529311e-02,8.381369049880411926e-02,6.851110104317712120e-03,8.868352464585657624e-02,5.328066349029541016e-01
6.719633667255434095e-02,-5.828355028845215724e-01,6.883469716554532769e-02,1.548456878825326712e-02,-4.413143505637435147e-03,6.932642182025865012e-04,6.514508724212646484e-01
6.559470713834797406e-02,-5.450687140220060733e-01,7.106831629598361899e-02,2.266350569478774862e-02,1.526422229210544837e-02,1.892801702950787715e-02,6.161144375801086426e-01
4.680731390664774616e-02,-5.534202935811347590e-01,9.376444907488756808e-02,4.096186426287936298e-03,5.757248844278173815e-03,9.174527420252555007e-03,6.253522038459777832e-01
1.717360514937785188e-02,-3.718743959499268836e-01,1.391983014639719407e-05,7.650692755652004073e-02,-5.944169808518801751e-02,1.011882771722707047e-01,4.515018761157989502e-01
4.830834956879703768e-02,-4.096161107779231481e-01,-7.037102587013344124e-04,8.005666743226409754e-02,-3.836498784635231085e-02,8.879974810492347048e-02,4.867773354053497314e-01
-4.063489084752958114e-03,-6.418345412725998678e-01,1.014314790352147111e-01,1.560240863989569571e-01,-5.634407784511505368e-02,9.058686003531764286e-02,7.696331739425659180e-01
8.232663187324007481e-02,-5.503997494835229931e-01,6.301774295162487771e-03,7.177609648503828488e-02,-9.989049914905780148e-02,1.779922301231109671e-01,7.060120105743408203e-01
1.014388121172446477e-02,-2.718383156073990170e-01,4.179725351592514238e-03,1.267476363651281190e-01,-1.748901757386806324e-02,9.810452765046118184e-02,3.947831392288208008e-01
-7.680342073737571329e-03,-1.219551845488215103e-01,4.061901858303289259e-03,8.863380750111897466e-02,5.352676411415114438e-03,5.230194518263023978e-02,2.154036909341812134e-01
7.377570657464116444e-02,-5.859338671791807229e-01,7.152025771813480537e-02,2.504012052607041891e-03,1.551356158477827478e-03,3.419692702476447564e-04,6.586048007011413574e-01
8.244730193623195369e-02,-5.483129240018439488e-01,5.352262708792041024e-02,1.072717478721883690e-03,9.233833777254446887e-03,-4.068439383781256857e-04,6.170172691345214844e-01
8.961588734623060493e-02,-5.517615092165319979e-01,5.016776390234242711e-02,5.616256002986205059e-03,7.003160438777369066e-03,1.922275868063118330e-03,6.227943897247314453e-01
2.807524412193987406e-02,-4.245892575555946791e-01,5.330671906635936486e-02,7.336081080449047276e-02,-8.512843407613166283e-03,2.192462204628775613e-02,4.845287203788757324e-01
7.251792515745988932e-02,-5.820753190952906442e-01,7.120075114852109088e-02,7.985967080540991260e-04,2.130430931499135636e-03,-1.727305756665833665e-04,6.539475917816162109e-01
5.843409869214055696e-03,-1.878319574888274723e-01,-5.745886367821757823e-03,9.915155666437447390e-02,-8.599207086701282643e-03,3.281509217250336979e-02,2.614293694496154785e-01
-6.282323936002517928e-03,-2.575260942587599411e-01,3.243979766014079558e-03,2.114280057489269227e-02,2.251899406336588965e-04,2.876412792913895025e-02,2.634975016117095947e-01
4.239636255471346260e-02,-7.086965351545891911e-01,1.223329646067894960e-01,2.728754610088724233e-02,4.117130848705308904e-02,-9.446314651069218429e-03,7.988472580909729004e-01
2.131088599118499682e-02,-3.194146764086232548e-01,3.725096595834559432e-03,5.227095437080431922e-02,1.314923641308464106e-02,2.149477112141764523e-03,3.451674580574035645e-01
6.766444950498926025e-03,-3.459136423091991874e-01,1.948525044112417448e-02,8.361102120898596069e-04,9.581103364752055485e-03,3.068826584133688140e-02,3.635016977787017822e-01
2.204847562120132443e-02,-3.176078176318528068e-01,-4.970949906290017539e-03,4.261599282595933402e-02,1.568738649305102600e-03,-2.098992094618979364e-03,3.352433443069458008e-01
4.853379930187931568e-02,-4.057781224074601401e-01,3.377206482488523398e-02,1.079352141414289534e-01,1.763108118488914203e-02,5.035175248449087065e-02,4.933551251888275146e-01
9.586144577763688890e-03,-2.495231631746921697e-01,-1.055409935699147539e-02,9.962468672721326579e-02,-2.234083208758110613e-03,8.301276668589392194e-04,3.035078346729278564e-01
6.198581974433223230e-02,-4.064437300325458025e-01,1.044799175630792276e-02,4.630117477516570296e-02,1.166656548277028804e-04,-4.549595442810787089e-04,4.520758986473083496e-01
-5.861758968426154098e-02,-3.707388024961062456e-01,7.725020983577907119e-02,1.750224218668009757e-01,-1.588399152045771173e-02,3.088619712610982462e-02,5.037899017333984375e-01
2.244857925574475499e-02,-5.630306977180969952e-01,1.147175939853344317e-01,2.016344830828777773e-02,2.637535014717615027e-04,1.876034244626526709e-02,6.384331583976745605e-01
4.979230151607993982e-02,-4.361643133241546733e-01,4.124473503106501626e-02,5.730736991024207305e-02,1.547876018532313470e-02,3.440775988800304219e-02,4.961814284324645996e-01
1.529124881859425522e-02,-5.942483236261181245e-01,9.364684162648939658e-02,-9.036185645786256465e-03,-9.487869382320346726e-03,1.498506895201886071e-03,6.526566147804260254e-01
-1.741480782759824431e-02,-6.057866338217066104e-01,1.113927007109151712e-01,-9.296443677092708011e-03,2.483902309508899051e-03,-6.234603428276836758e-03,6.625359654426574707e-01
7.443732347020318163e-02,-5.829956040003148043e-01,6.658581265973009811e-02,1.259750654260852545e-02,3.169854193463091303e-04,-3.218159271837740202e-03,6.539306640625000000e-01
-5.163845653851274753e-02,-5.600793604781759694e-01,1.248174804634403223e-01,9.478387615812201850e-02,2.210292889390965201e-02,-2.508529754171055434e-02,6.400559544563293457e-01
2.219178475720845478e-02,-5.900098623498176709e-01,7.521570493846074790e-02,8.340424476115899238e-03,-1.234039495105067677e-02,3.310521980750609061e-03,6.409072875976562500e-01
7.727946564277077268e-02,-5.741233780237309237e-01,6.635130174542760995e-02,1.899634697560464340e-03,-1.697402924896536077e-03,-6.593095554079000768e-03,6.461240649223327637e-01
-5.377430950449013647e-03,-3.142631202485396402e-01,1.802460054158402936e-02,2.182624765988152877e-03,-1.380761202715118877e-03,3.861912171123009496e-02,3.281476795673370361e-01
4.127495687503709987e-02,-5.012567087018928724e-01,7.983743127165679465e-02,3.308691253220617107e-03,1.013106299906004794e-02,2.125228195424656158e-02,5.643091201782226562e-01
8.267845246299906914e-02,-5.907685190019504873e-01,2.990137063673825590e-02,1.130103934127251603e-02,-2.337377333617471353e-02,2.567423828060539856e-02,6.517463326454162598e-01
1.398954712437933123e-02,-3.730091305324710338e-01,4.476305671696820254e-02,-7.006744786698623773e-02,-9.026104208730446193e-03,5.327445664285882648e-02,4.314064681529998779e-01
2.879361819075101914e-02,-4.273859733066942002e-01,6.881731253076497912e-02,1.003054346666872876e-01,-8.376645703342945615e-02,4.946501965040028120e-02,5.352887511253356934e-01
-4.150272818392367058e-02,-6.807465806221481008e-01,1.593439581283425666e-01,6.370800752710829851e-02,-5.863010767219123398e-02,-1.431900875840927054e-02,7.748972773551940918e-01
8.976357279318669669e-02,-5.705249325741648114e-01,5.447743303266230908e-02,2.763390930310917828e-02,-2.808319262823995191e-04,1.719543549434696767e-03,6.451565623283386230e-01
4.546381711438987616e-02,-5.751027415802785203e-01,8.564327650705558237e-02,-2.705307902007904677e-03,3.663449270255743611e-03,-1.557050206965999647e-02,6.422155499458312988e-01
3.065952074829608742e-02,-5.302169472743085699e-01,6.958874999029751596e-03,1.258344889205931516e-01,-7.769169274933507285e-02,1.647917282166200537e-01,6.700230836868286133e-01
7.833588390681328617e-02,-5.695820576918619871e-01,1.643281981593808228e-02,1.033130509875629897e-02,-2.875002295225282875e-02,1.003060259618641578e-02,6.217904090881347656e-01
5.216908705822184689e-02,-4.727800565471030336e-01,5.399503919607917535e-02,4.739822315472719261e-02,-1.095770092722534936e-02,7.418584971509034620e-02,5.478540658950805664e-01
7.470742962690560263e-02,-5.853734412761097960e-01,5.370055676735283057e-02,-4.525644016656285400e-03,-2.114740674160996061e-03,-5.870390112943910804e-03,6.499692797660827637e-01
-1.732884414174207244e-02,-6.420379314505403334e-01,1.249165588562007323e-01,2.924891591579166852e-02,-6.106301135953128706e-02,-4.801343857277270456e-03,7.163650989532470703e-01
-1.151835693877281686e-02,-6.738023913551720590e-01,1.176547659345806851e-01,8.253340535679352941e-04,-3.623378176493879943e-02,-1.026680030562693129e-02,7.383170723915100098e-01
6.852574180279505378e-02,-5.831883245661872994e-01,5.667356849812665853e-02,-3.811896841985439651e-03,-1.597756742794418077e-03,-3.208513540849585680e-03,6.459331512451171875e-01
7.505008031774715316e-02,-5.644661263108678995e-01,6.653709504885352288e-02,5.282272412393454637e-03,5.534302321456396716e-03,1.577962593337197978e-03,6.354465484619140625e-01
4.425360476785739072e-02,-5.265026246485526862e-01,6.479795931767126649e-02,2.395042174243054364e-02,-1.240243417914330126e-02,1.726369844282308469e-02,5.839409232139587402e-01
7.035689641296169472e-02,-5.894170910755532899e-01,3.660642261262853081e-02,-5.084834301924317027e-03,-3.770676790752130157e-03,-5.740694847618671610e-03,6.437330245971679688e-01
7.249150617923996731e-02,-5.879982569381769775e-01,4.740401263823243450e-02,-2.210700835990989446e-03,-4.571675490580981958e-03,7.033303780808982872e-03,6.484842896461486816e-01
2.796463547277899808e-02,-5.920474732072533719e-01,8.195213122657288296e-02,-1.000409525020225059e-02,6.860949643488900920e-03,3.161546554562861232e-03,6.490562558174133301e-01
1.302293635894478663e-01,-6.464588179525535550e-01,-1.772277569711599998e-03,-1.445641616312015945e-02,7.683705368363573374e-02,-9.328311852363771473e-02,7.500592470169067383e-01
7.098737621593698144e-02,-5.681836419266873550e-01,6.324205950992292657e-02,1.688919125824044423e-02,8.831353120524281647e-03,-2.164027959471378701e-02,6.372939944267272949e-01
3.991763944727422242e-02,-5.811198573101721276e-01,4.182297885926355985e-02,6.339604278625904452e-04,-1.868376080351757604e-02,7.992706021691408681e-04,6.228361725807189941e-01
2.670550842227475963e-02,-5.914164040251490562e-01,7.709114685350271223e-02,-2.942071406883467119e-03,-1.636226820558742481e-02,6.453645470793325373e-03,6.455323100090026855e-01
4.728717660789796828e-02,-5.965643618355918054e-01,7.274433892491088960e-02,-6.578393366250380805e-04,-1.230125125855121952e-02,4.044839859821948609e-03,6.573339104652404785e-01
8.314300796936299753e-02,-5.870815544370800998e-01,7.042832148137345705e-02,-4.133264264252544534e-03,-7.306441273530805969e-03,-1.047379378490651556e-03,6.641201972961425781e-01
6.979907444032018571e-02,-5.774566037946058383e-01,6.862310478078303966e-02,-1.521744427262329905e-03,-1.981664621518800570e-03,-3.749130172381967899e-03,6.467155814170837402e-01
5.988963374108102755e-02,-5.968054649413394586e-01,7.351819240071452710e-02,2.250336882865283834e-03,2.066266327541576089e-03,2.534922338632395779e-03,6.636499762535095215e-01
6.796021967227872107e-02,-5.905860380291814149e-01,7.239364669486098025e-02,-1.227854754684591480e-02,3.320499655676484654e-03,-1.944182524163104095e-02,6.619983315467834473e-01
8.499096858775412322e-02,-6.241461271044641546e-01,-1.278158623110514647e-02,-7.607725944367645099e-02,-8.499594218531479617e-02,-1.181523900275275596e-01,7.238901257514953613e-01
7.272926520654587890e-02,-5.934850638277184842e-01,2.171977109922229587e-02,9.620823717166819555e-03,-4.224101035342901767e-02,2.089535221225941215e-03,6.466095447540283203e-01
2.362493250302949432e-02,-8.723250949825875900e-01,1.635942304166171368e-01,-9.854263565093316149e-03,-9.882370808219978486e-02,-5.127775291891310122e-02,9.925730824470520020e-01
7.139937871668761149e-02,-7.332863557927893350e-01,4.049853549786741613e-02,5.717058734495480271e-02,-1.237619543413165796e-01,-1.291218856630711176e-01,8.540388941764831543e-01
5.229678543365923193e-03,-2.922115515103981265e-01,1.844527550093566504e-02,2.465963191403520906e-03,-5.697340628968420488e-04,6.935737151482170015e-02,3.271503448486328125e-01
7.602036412880819327e-03,-5.993813158208254332e-01,1.054912996193374530e-01,-6.116381089620764530e-03,1.017937837983528713e-03,-8.016125186941235091e-04,6.614722609519958496e-01
8.078507494308576065e-02,-5.237478296124923327e-01,5.584169066914812518e-02,1.830330216888792494e-02,3.679233762234352095e-03,-1.058746088628655380e-01,6.210290193557739258e-01
6.618754319089495408e-02,-5.427458714097155301e-01,6.344539186404535291e-02,2.590241308625862784e-02,-1.167267443254586942e-03,-1.869727826688599801e-03,6.092331409454345703e-01
-2.976733460026185357e-02,-2.056219663785688878e-01,2.357588249652706192e-02,1.216296722616111992e-01,-5.893008872270151001e-03,-4.738433041830395279e-03,2.961483895778656006e-01
-3.607667591121839490e-02,-2.012882423300797474e-01,2.143835201879347452e-02,1.267077867725464324e-01,-2.755721345420908408e-02,3.354126642439897443e-02,3.064683079719543457e-01
5.920821630432190896e-02,-4.635242823913813814e-01,3.897609405304375274e-02,2.864544835906880638e-02,-1.197889152524452341e-02,-1.477620840175556186e-02,5.163620710372924805e-01
1.025586143986183529e-01,-6.218067492714239863e-01,2.468213571839483755e-02,-2.797401840552641520e-03,6.099724042883239222e-04,2.866331499644728543e-03,6.887729167938232422e-01
1.542904676918914475e-02,-2.724406931979509450e-01,2.532540737315625012e-03,5.140983162047247507e-02,-1.469911288456288980e-03,-1.770499121195057927e-03,2.954108715057373047e-01
6.649560974521176449e-02,-5.896286620281511182e-01,7.039108690054446393e-02,-2.473500644337055937e-03,-8.776357013284694563e-04,9.433911437950164968e-04,6.580983996391296387e-01
7.456911684245179361e-02,-5.893963558303250139e-01,6.813814438243920302e-02,-1.160481659319218461e-03,-2.079230132268646935e-04,-1.905139535481549431e-03,6.607848405838012695e-01
8.312174489178927872e-02,-5.859933968218626887e-01,6.622760749557476956e-02,2.343198874460299206e-03,-3.713745369895025267e-03,-1.951684511521170661e-03,6.608824729919433594e-01
6.660926802741995445e-02,-5.497052432606288619e-01,7.387900540889133505e-02,-1.355457574021310535e-03,1.446990023997519505e-02,4.947361148177000997e-03,6.205513477325439453e-01
6.926432203715376934e-02,-5.828011280776854708e-01,7.989514626178254031e-02,1.918948354878627100e-03,2.336541324726412131e-03,4.051868454445885031e-04,6.574665307998657227e-01
6.298361473516295161e-02,-5.763567838068137661e-01,8.640667237120414068e-02,1.847197380647151678e-03,3.444459194345154528e-03,4.182317646044666831e-04,6.514034271240234375e-01
6.114886230229765740e-02,-5.688594730352629636e-01,8.540068704299089153e-02,-5.589817223372079043e-04,2.984891750418706708e-03,3.245630865396510311e-04,6.424993872642517090e-01
6.681331546461552473e-02,-5.558711490667530564e-01,7.345492816684545678e-02,4.219163315585802883e-03,1.143636459477990162e-02,8.340551638789481248e-03,6.265541911125183105e-01
3.554491641155568815e-02,-4.955353972703477883e-01,7.987992357409057220e-02,1.862462659156445305e-04,7.776551316469605332e-03,1.778023759121599365e-02,5.555963516235351562e-01
5.921166992929249862e-02,-5.660073526222202389e-01,8.902157014950048963e-02,3.732001358929856738e-03,9.409611052190501937e-03,6.382227203033111022e-03,6.409795284271240234e-01
6.236959255606461250e-02,-5.293067641145916546e-01,7.185805287666827135e-02,1.561996166481099436e-02,1.586407322794506844e-02,9.507810249891493135e-03,5.979491472244262695e-01
6.175044589838671327e-02,-5.863802464776735057e-01,5.159162063085817596e-02,-1.029951944564136196e-03,2.529256200735262305e-03,-7.650625681523727517e-04,6.431302428245544434e-01
5.500764457065390745e-02,-5.828620461340863201e-01,4.668632763045499345e-02,3.313898143628816215e-04,9.124371428480878427e-03,-5.875224042638032499e-04,6.339480876922607422e-01
5.253717163807988810e-02,-5.852460098004517164e-01,5.555016978681395767e-02,-2.666237724123107951e-03,1.002868759471760990e-02,-2.226083468059239599e-03,6.395592689514160156e-01
3.066768542126413477e-02,-5.843079252299303583e-01,6.540685853752559176e-02,-5.262987540275622204e-03,1.119316024365653132e-02,-6.173873916111761615e-04,6.334237456321716309e-01
5.388050743740882553e-02,-5.825354594983611634e-01,4.703766110301862979e-02,-2.751627789160911077e-03,7.147725928091684840e-03,-3.394909662350607295e-04,6.331615447998046875e-01
-3.202339279507857017e-02,-8.303496464032301683e-01,1.964908373048316892e-01,1.993718535045918561e-01,-4.271737094821167341e-02,-2.724785467394445077e-02,9.994606375694274902e-01
6.068426438134927325e-02,-4.209159797598138741e-01,2.482833112375806839e-02,3.891843857016951541e-02,1.140713523146802758e-02,1.220354377865787328e-02,4.704649746417999268e-01
3.697296552606521569e-02,-6.969449097844133689e-01,1.090481599092509302e-01,1.429259285980738307e-02,-5.513350991609270585e-02,1.196031243594271147e-02,7.790305614471435547e-01
3.799868877122167254e-02,-5.806464472264865062e-01,5.507831528879872374e-02,-3.527304805168226132e-03,-2.477111291241529747e-03,-2.563425647016157050e-03,6.274194717407226562e-01
2.812261481182293243e-02,-5.801834761743918101e-01,5.348366334136750444e-02,3.359646595048094552e-03,-1.389827381474925162e-02,4.554583215962220398e-03,6.219182610511779785e-01
6.747106388305942892e-02,-5.635507681240679023e-01,6.388908964210440744e-02,-1.072348124954123315e-02,8.327702353865977514e-03,-5.036125069233872778e-03,6.297382116317749023e-01
3.111720623375574535e-02,-5.889861459921068576e-01,6.569340318979507987e-02,3.397099869264064587e-03,-1.428795251159395950e-02,6.354585046781939701e-03,6.386960744857788086e-01
-2.002339749393272639e-02,-6.898818138404468892e-01,1.675043024865282559e-01,1.716793509157056932e-02,-9.346370077695221462e-03,-2.377689982909860292e-02,7.825191617012023926e-01
-6.135804714251402725e-03,-5.922130400729743727e-01,1.069272791415248336e-01,2.642137141028130104e-02,1.894432548084926810e-02,1.048732056343803024e-03,6.524627804756164551e-01
4.134791228113429695e-02,-6.000583007433217819e-01,6.616587139824520181e-02,6.859744121084449843e-03,-2.250146550170834328e-02,1.544832695989174082e-02,6.559819579124450684e-01
5.645008871305587372e-02,-4.662032533696356396e-01,-3.105876378609727373e-02,-4.867501351554300720e-02,-6.985151510822767973e-02,-6.091041481384031064e-02,5.176516771316528320e-01
9.388656019240088080e-02,-5.932742568074642620e-01,-4.410091424778439517e-03,2.015132654165743484e-03,-1.950516484650611018e-02,-7.099879111636157696e-03,6.446793079376220703e-01
7.917610053952872651e-02,-5.904564840275037252e-01,1.109326297133897410e-02,6.405115478496789354e-03,-1.395453949694393063e-02,-1.659918069059195672e-03,6.388803720474243164e-01
7.189666842105446598e-02,-5.935256057816518105e-01,3.939433761134208956e-02,8.902321186036649125e-03,-3.732693761982725216e-03,5.740185600059964470e-03,6.500721573829650879e-01
6.125846946153715167e-02,-5.930908264176174560e-01,7.977940112013109930e-02,1.903168655448318064e-02,9.120779935693195534e-03,-6.448309013107685235e-03,6.649031043052673340e-01
7.739770377980770277e-02,-5.985815758454698932e-01,5.539615495731339823e-02,6.042736260927043801e-03,6.214184602611239755e-03,-3.511114573972418280e-03,6.654486060142517090e-01
4.357530005544080209e-02,-3.303340652187503057e-01,1.476752557636351604e-03,5.531086178729956171e-02,3.543638629820800023e-02,-1.354127091697469309e-01,4.402208030223846436e-01
1.292176134451374914e-01,-6.296897498165172635e-01,-3.699013529063233108e-02,-1.282890183350032104e-02,4.723572409496958058e-02,-1.773179698353332667e-01,7.608820199966430664e-01
4.061701293413824687e-02,-3.364245588585976776e-01,5.175808701727666050e-03,1.106534241289373055e-01,4.105839985460743580e-02,-1.209038778255585450e-01,4.644316732883453369e-01
1.965962919637061490e-01,-9.202647679443669571e-01,8.584561545774171964e-02,-2.531286574810168860e-03,1.413145502621343530e-01,-1.149124000558923303e-01,1.111527919769287109e+00
2.832619048557041830e-02,-5.452617132707596737e-01,7.479772481463242695e-02,3.627771016554698358e-02,-6.143200944805070904e-04,-1.223102684245560429e-02,6.018441319465637207e-01
6.799349275776600532e-02,-5.864161304853814372e-01,5.062834246560424245e-02,-1.118057535649925448e-03,3.260143521373398950e-03,-1.635346074754972590e-03,6.459359526634216309e-01
-1.859812999653689958e-02,-8.186139510242030903e-01,1.869796752465706646e-01,1.248570049209273697e-01,3.500405912477378562e-02,-5.323456642468232108e-02,9.516819119453430176e-01
9.941137421549089970e-03,-5.882110086268121929e-01,9.512463216254768428e-02,-7.359436395985449741e-03,-2.760014982854192868e-03,-9.060011071852558384e-03,6.453111767768859863e-01
1.281842626369589233e-02,-5.664994342092064539e-01,7.683310398707438038e-02,1.652269577515981872e-02,-2.269707111138933794e-02,8.717686445990599151e-03,6.159418821334838867e-01
-2.789615601213130125e-03,-6.291252246305605311e-01,1.219942063336179050e-01,1.936875381567829818e-02,1.612051412743994300e-02,1.259974588291302468e-02,6.988599300384521484e-01
9.337947303915700159e-02,-6.448424384319910718e-01,3.503775879018580786e-02,-1.012823171212913348e-01,8.746143841672870956e-02,4.761285068506733442e-02,7.522166967391967773e-01
-1.595809539460710247e-02,-6.332031138163909390e-01,1.448903724185943709e-01,4.144854955480434255e-02,1.538010288972892735e-02,-1.813216703879347649e-02,7.162377238273620605e-01
7.126669146065614524e-02,-5.921255338548250258e-01,4.747414487700760133e-02,-2.238549061351608523e-03,-1.860261352512895816e-03,-5.402390113822780164e-03,6.519083380699157715e-01
1.288139141438632285e-02,-6.905461029914843341e-01,1.342345768066911527e-01,1.383903624038877178e-01,7.549951584569272733e-02,-4.752072687578267479e-02,8.223325610160827637e-01
-6.152721031716808231e-02,-6.371134165780621972e-01,2.203797957645989292e-01,9.509577914549101341e-02,1.836006510650541393e-02,-6.440876768184113088e-02,7.833384871482849121e-01
-5.810541319007522798e-02,-7.709734856646471846e-01,2.466298252930909096e-01,2.583853040283767832e-01,3.367950315111725018e-02,-5.963860781591345112e-02,1.016190290451049805e+00
6.689164932791175078e-02,-5.829191544067845454e-01,7.058724102259192335e-02,1.537310294882811117e-02,3.544775796974480994e-04,-1.086931050779716204e-02,6.524821519851684570e-01
5.726277857312062070e-02,-4.507976569040756387e-01,4.022940253670082011e-02,9.316689325606353211e-02,5.533354871024872765e-03,3.571520085550754231e-02,5.288859605789184570e-01
-1.691746277820457833e-02,-5.816186857542813282e-01,1.036367828494395571e-01,-3.553359151593914883e-02,-2.136754500091925940e-02,-1.426486879022368856e-02,6.381739377975463867e-01
4.609467893529065052e-02,-5.785581443361554888e-01,8.000364756120370568e-02,1.307582156241757654e-03,-7.840041273255990222e-05,-2.038351086088679466e-03,6.422926783561706543e-01
-2.947618811964328178e-02,-5.984366164400336530e-01,1.217039098571116584e-01,1.062975836081532857e-02,9.673273322176845559e-03,-2.310506271339374078e-03,6.581964492797851562e-01
3.230004667859634471e-02,-6.407105078373348528e-01,1.130968727038183519e-01,6.583372482031159267e-02,-2.532834527416518919e-02,6.026093408137321410e-03,7.272442579269409180e-01
-2.250972494888334174e-02,-8.811081274742487146e-01,2.365730513473888741e-01,1.968008870105986685e-01,-6.697966065160901317e-02,-1.706855675212302220e-02,1.075773119926452637e+00
8.115055535236243012e-02,-5.923213675752306839e-01,8.803875632080154778e-03,9.462129885132165158e-03,-1.534460269666432057e-02,1.282132693230713565e-03,6.411356329917907715e-01
7.896476587607009767e-02,-6.005064601726344264e-01,8.534838113519571667e-03,2.690895226247796979e-03,-3.495254423111469194e-02,3.751727498674836507e-03,6.500118374824523926e-01
2.455031306955326453e-01,-1.016852572277280320e+00,7.781539459639497114e-03,1.753654160120260474e-03,-7.734939610569221968e-02,1.057133268804250209e-01,1.183827757835388184e+00
7.122543572783274213e-02,-6.153027909066810519e-01,1.326235127081326626e-03,2.186800152625354658e-03,-6.340040520815198866e-02,-4.540272258207584365e-03,6.635918617248535156e-01
1.185534133633380227e-01,-6.184944021945428805e-01,-1.714744204581608589e-02,1.454926251485318079e-03,-3.618900432624732027e-03,8.160741790485950137e-03,6.796187162399291992e-01
9.204398114909140283e-02,-5.969634122372564633e-01,-6.214575900206908976e-05,-6.561877473306613334e-03,-7.748362273950861086e-03,-6.386524521275752792e-03,6.482164263725280762e-01
9.010195565630269021e-02,-6.961093357118693925e-01,5.458249194205427868e-03,-3.260693166763872775e-02,-1.020269982716675988e-01,-3.179524323343641684e-02,7.721372246742248535e-01
7.809245962207803093e-02,-5.952068518673563347e-01,6.817945292188529183e-02,-7.117457834917162093e-03,3.686241428051144700e-03,-4.002645294566091992e-04,6.685424447059631348e-01
7.601240402311618127e-02,-5.873266370452302487e-01,6.710840284268992928e-02,-4.801983032587452821e-03,1.107651701969358457e-02,-1.356127171505594128e-02,6.596821546554565430e-01
4.567688782637557843e-02,-6.528521466001531159e-01,1.165964804892777318e-01,3.114777552856915627e-02,1.572452984374498111e-02,-3.325386477808032343e-02,7.412702441215515137e-01
7.754564319271148309e-02,-5.579520752264894856e-01,5.513784719015996094e-02,-6.842640191297058583e-02,-4.800175550435949699e-03,-1.184590177697421830e-02,6.361257433891296387e-01
6.448645004206404741e-02,-4.907356041734642904e-01,4.365896178379796710e-02,4.983508446462019473e-03,1.105817180823894137e-02,-1.419804772467982840e-02,5.460655093193054199e-01
6.481276529216845050e-03,-2.936525534913270175e-01,2.124770448090052000e-02,-1.069161557621046976e-01,8.665820740564702737e-03,-1.602723549740281070e-02,3.605819940567016602e-01
-1.677370607555470766e-02,-2.763641313285982726e-01,5.924801150759517743e-02,1.140343853851127909e-01,3.363148947340342289e-03,1.764414178175970419e-02,3.645276427268981934e-01
-8.671154860308560863e-03,-5.720808962074511728e-01,1.231670533077793284e-01,8.445502662999093690e-02,-8.896455563941541023e-02,1.048370084265948070e-02,6.742125153541564941e-01
5.690049620556000831e-02,-4.182282522272938174e-01,2.095478564197442162e-02,4.777756152086609642e-02,-3.411704509069741435e-03,8.179470222505168253e-04,4.656668305397033691e-01
8.331226721267115387e-02,-5.171298120770904116e-01,3.971370964834775030e-02,8.528398486049195218e-03,-3.321918697896229615e-03,-1.960463181996166798e-03,5.800999402999877930e-01
-4.099790185229887363e-02,-2.568514390272396142e-01,1.208406373325761896e-01,1.175533662197175838e-01,2.726162021075779693e-02,-6.352791713544446439e-02,4.043652415275573730e-01
-2.425636163180117794e-02,-1.624893134230915095e-02,-1.525226480003681086e-02,3.514864658175055612e-02,3.697503587579351915e-03,1.541784946758687283e-02,6.733141839504241943e-02
2.534152561071550958e-02,-3.225992669508954691e-01,-3.651593712970691019e-03,3.335840732002780251e-02,3.632386009086784745e-03,5.044412346071182416e-04,3.394027054309844971e-01
1.587392905163231838e-02,-6.112296152695457785e-01,1.077658988854367506e-01,-3.003614527014146149e-02,-6.890076523368349713e-03,8.465957125730255717e-03,6.799946427345275879e-01
1.548130352438964463e-02,-6.029834697397273846e-01,1.007865946665676415e-01,-1.199708698593599139e-02,1.405622724720436909e-02,-4.909545255306167234e-03,6.660561561584472656e-01
3.433184368938435593e-02,-5.889256295566986932e-01,8.788641223694662608e-02,4.151343359185928443e-03,4.019566822430468804e-03,-8.551880138200778497e-03,6.519323587417602539e-01
-5.584307031304525104e-03,-6.091211071012232470e-01,1.026260660845694783e-01,-4.663562002497870229e-02,2.330088928043643967e-02,1.222976275854459165e-02,6.707288622856140137e-01
-2.364569574923924833e-02,-6.186686395453184772e-01,1.244957862189526865e-01,1.223848108961161398e-02,-2.746212887860992671e-03,-2.396226677457237442e-03,6.816413998603820801e-01
7.036142460348909777e-02,-5.899920351378309391e-01,7.852411911199363992e-02,-4.255779256136653886e-03,-6.679598299842528543e-03,-7.619090178702807130e-03,6.647450327873229980e-01
-3.824309955533561345e-02,-6.994160952175070278e-01,1.735541367683459124e-01,-7.355591158279778038e-03,2.752004255717214673e-02,3.187820075964292212e-03,7.902577519416809082e-01
9.022383911709982995e-02,-5.794061774963348288e-01,6.023610371847876177e-02,-3.563664225739000650e-03,-2.723876561508964400e-03,-2.098781531950361231e-04,6.551972627639770508e-01
9.035438846198598495e-02,-5.560528266187638735e-01,5.350074607153104678e-02,-1.508974354836838117e-02,-5.032998902104987397e-03,-5.021567391672897892e-04,6.293948292732238770e-01
8.515908755346107695e-02,-5.790752587960024123e-01,6.300126753191703788e-02,2.855120698008788288e-05,-2.679491248403118812e-03,-1.200038793316794694e-03,6.534570455551147461e-01
8.505880700835422026e-02,-5.852231277121722197e-01,6.140158755649124944e-02,-7.324278575553094806e-03,-6.572086160112319874e-04,-3.163167318656460742e-03,6.589179039001464844e-01
9.013422868185289039e-02,-5.760717470369037807e-01,5.795231397851383082e-02,-3.157749036557879179e-03,-2.467498196234057476e-03,-9.345601771987809003e-04,6.507511734962463379e-01
9.289137079672224462e-02,-5.701755686345373331e-01,5.534394711724557880e-02,1.354344996865424790e-03,-3.327788492815557386e-03,-1.137595536555641206e-03,6.451463103294372559e-01
6.725593669406151887e-02,-5.953934797700550785e-01,7.419255317130329930e-02,-1.038604802503602029e-02,-2.580944483061558149e-03,-2.701711946032275390e-03,6.664190888404846191e-01
8.628520792785590587e-02,-5.830915781874849158e-01,5.564321530377588920e-02,-2.168023453852577914e-02,2.028865592587425829e-04,-7.782562037413496593e-03,6.558087468147277832e-01
7.372122128107139183e-02,-5.869942263294165574e-01,5.741840685164187330e-02,-7.217465013173282942e-03,-5.210077529170751296e-04,-3.255469085452671941e-04,6.528373360633850098e-01
7.174374574511552249e-02,-5.865472781884057962e-01,6.597328113819447837e-02,-5.862392390848243651e-03,1.117842525922070401e-03,2.064677219639322794e-03,6.555160880088806152e-01
7.232552689395760348e-02,-5.941926384945426243e-01,6.888854702183008771e-02,-3.870726673163109571e-03,-5.919938728946614681e-04,3.298921290848371574e-02,6.672917604446411133e-01
5.703033137356278148e-02,-6.173070734255865499e-01,7.058957262429427226e-02,-3.857369709035195823e-03,2.337161899423552749e-02,-8.287718869927832369e-03,6.826035976409912109e-01
7.823147053280582464e-02,-5.842938811592800485e-01,5.021747771985185516e-02,-1.461641629921327625e-03,7.123332410098051019e-04,-2.684785887762188711e-03,6.489947438240051270e-01
7.043453080598496840e-02,-5.875943176783113842e-01,7.180009371187390244e-02,-1.065690614387622415e-02,-2.634961487503087712e-03,1.098557989071391981e-02,6.592617034912109375e-01
7.320435475535616576e-02,-5.869486389546981764e-01,6.950515619323077710e-02,1.228475441261246432e-03,-1.820571705410899827e-03,-7.736616610376347101e-04,6.583235263824462891e-01
5.861387292330619281e-02,-5.751566074747700430e-01,5.462389249287205595e-02,1.585343508722594124e-03,1.537331347336252929e-02,-3.992623448647310107e-03,6.323896050453186035e-01
6.713734906438315053e-02,-6.433583846417718632e-01,6.237066151477399512e-02,2.715145874755387281e-02,4.819007243499631027e-02,-1.921010258031002893e-02,7.153500914573669434e-01
2.420125892905203302e-02,-6.044299537269741673e-01,9.140827079238367237e-02,-9.458767220828695477e-03,2.578710471444050842e-02,-8.679144823126138178e-03,6.666571497917175293e-01
9.295421123781283379e-02,-5.704478132338397511e-01,5.723840990512912841e-02,6.474981926376948554e-03,-5.238137954740451109e-03,-1.833826738684668327e-03,6.464534997940063477e-01
7.251797994829753402e-02,-6.172303513374746142e-01,8.920230367927320381e-02,-6.247867529870851366e-02,3.145710255899378249e-02,2.992612643884308421e-02,7.105668187141418457e-01
-5.217576996061684680e-02,-6.646015878010387290e-01,1.572786124525509255e-01,-2.910363775295689640e-02,-4.666286770908290721e-02,-3.475436376372572495e-02,7.482705116271972656e-01
1.500905491486557997e-02,-2.805699767101904052e-01,-2.060770829360208944e-03,-2.988263892126502216e-02,-9.247875800613246725e-03,-2.714441505484828637e-03,2.925242781639099121e-01
-3.770365275221482237e-03,-6.004129264690611922e-01,1.099430808330740250e-01,-1.021173128481133244e-02,-3.462109666964125095e-03,-8.830737993032488665e-04,6.611433625221252441e-01
9.294066243433993235e-02,-5.733703219948382834e-01,5.579252017258767848e-02,-1.307696605530479610e-02,-5.071758792507568246e-03,-2.839594398124440505e-03,6.490088701248168945e-01
9.241743287019041353e-02,-5.763440895523754826e-01,5.810252726442668991e-02,-1.099018758741126048e-02,-3.592304864679393347e-03,-3.071263703311475322e-03,6.526104211807250977e-01
4.619993506738354072e-02,-4.500327625941534793e-01,4.025584661736661407e-02,-2.621525106479752690e-02,-1.708846421842965396e-02,3.380466816083179597e-04,4.962566792964935303e-01
6.918449040441287945e-02,-5.794897275937416214e-01,6.735388867965319548e-02,-1.008550486607326033e-03,-2.988371837224917948e-03,-9.852338168542581348e-04,6.477861404418945312e-01
7.546615276451029697e-02,-5.915898484986124028e-01,7.489977590250210260e-02,-8.324774870664616855e-03,-8.257994219411906450e-03,1.973213242797960693e-03,6.670910120010375977e-01
6.049598841715828068e-02,-5.768721383003670988e-01,8.037381605605525836e-02,-2.576529059747593303e-04,1.612943678619844492e-03,-5.369802088713025766e-04,6.475427746772766113e-01
7.203018030375696323e-02,-5.308724713175219101e-01,5.981908871418664675e-02,-5.817439262612764811e-02,2.295380694105435965e-02,-3.220462592410826969e-02,6.091990470886230469e-01
7.013396898636564680e-02,-5.922979302457355155e-01,7.406230390609055969e-02,-2.610451582772930351e-03,9.195642505727151528e-03,-7.048057137530856428e-03,6.647231578826904297e-01
7.801833349688500063e-02,-5.962641509497619285e-01,4.177404579660856654e-02,-5.614079045810647928e-03,-1.290004265012563260e-02,-1.131956100868270268e-02,6.576547622680664062e-01
7.882447926820734807e-02,-5.930956210646445292e-01,2.815366813181416350e-02,7.520699616694105118e-03,-8.089965138244552267e-03,7.620394879503956595e-03,6.484887599945068359e-01
8.735649515704146939e-02,-5.699720407219704965e-01,3.244545109059099319e-02,-2.032788591413241253e-02,-7.005758000523224643e-03,-9.793833017347505429e-03,6.329898238182067871e-01
8.753311095978733025e-02,-5.940700031483635568e-01,2.584875973441574937e-02,7.236566499133795759e-03,-4.681525633935773416e-03,6.595965772256486698e-03,6.532204151153564453e-01
1.254565012667133161e-01,-8.703274369533124943e-01,4.962214286926081019e-02,-1.876905271361491989e-01,-1.057620658352253495e-01,6.501677131031269319e-02,1.036215901374816895e+00
6.463495534613819538e-02,-4.460590761665679804e-01,-7.114218124551638378e-03,-1.241108963350452676e-01,-3.924006079080908510e-02,-1.628429511414757058e-01,5.997481346130371094e-01
1.601675913361195747e-01,-6.072441540974797825e-01,-3.567100773804371405e-02,1.138400383984771169e-01,-4.802076823912144327e-02,-8.203183191847691902e-02,7.368643283843994141e-01
1.454995898444744751e-01,-7.138261421343796709e-01,2.770460224055215637e-02,-9.693107595113965858e-02,-1.346315473278292957e-02,-1.252204717398758271e-01,8.525627851486206055e-01
5.796023818006962314e-02,-3.492318067013125971e-01,-2.635100378270670285e-02,1.688773206488097117e-02,1.495809900434061541e-02,-1.072210347808951469e-01,4.178501665592193604e-01
5.423936289544870060e-02,-5.916192314357555659e-01,2.615338197320626890e-02,1.110399404995763596e-02,-3.753292785678878640e-02,2.966198116376400021e-03,6.359284520149230957e-01
6.447755183116779532e-02,-5.896602425419001925e-01,4.853752415654238872e-02,3.956468909994460305e-03,2.378578352591498649e-02,-1.560900929646004539e-03,6.476688385009765625e-01
7.991074560902508561e-02,-2.742480430216286402e-01,-6.032549398977543609e-04,-5.769246922245566817e-02,6.613017703966746208e-02,-2.002000730117434735e-01,4.967305958271026611e-01
7.887407074668972840e-02,-5.942236928252837558e-01,7.518294222374555247e-02,-9.502934598810637351e-04,2.467625765805597522e-03,-2.362690355843981987e-02,6.725216507911682129e-01
7.644710842428248387e-02,-6.020916830187857949e-01,4.320254838812817577e-02,3.339585599636849238e-03,-9.410589218752539106e-03,-1.372728630816041212e-02,6.631944179534912109e-01
-1.064040786710432340e-02,-6.753066392797117956e-01,1.411059555084500095e-01,-2.863004926708089763e-03,-9.063682998051708975e-03,-1.689534287591984429e-03,7.522954344749450684e-01
-2.580408563824193591e-02,-6.117926116258058933e-01,1.262077574925279388e-01,-9.716342071714362304e-04,-4.844377884655332034e-03,-9.615323823517747323e-03,6.752169728279113770e-01
1.643117045185116254e-02,-9.807792345540543577e-01,2.237550303734448520e-01,4.861135734624193183e-02,-8.611042711776790981e-02,-1.368194186814183227e-02,1.128739595413208008e+00
9.364611329968153264e-02,-5.584234832962247097e-01,5.022038649587384773e-02,2.243118882229047303e-03,8.229481571095160390e-04,-9.628209106369024469e-04,6.314933896064758301e-01
6.722196191251689212e-02,-6.581715708786824992e-01,9.412146026394535570e-02,-2.850510151657461785e-02,-5.583813845308048356e-03,-3.993517852030081285e-03,7.409528493881225586e-01
7.060253749096856435e-03,-5.994397649257109384e-01,8.118177495675921174e-02,1.089128981331168554e-02,-1.843072229982886320e-02,9.849949566224897035e-03,6.480408906936645508e-01
4.087778054936150318e-02,-4.661512660178581124e-01,5.722562060051003541e-02,4.715726065954048375e-04,1.765947882465250529e-02,1.331296317476392092e-02,5.168195962905883789e-01
5.357764509984369594e-02,-4.908286972083768518e-01,5.903534240930544130e-02,1.352400502437083041e-02,2.233948649932399402e-02,2.612457409583340134e-02,5.508834719657897949e-01
5.723699974115614708e-02,-5.212540177934559260e-01,6.771118982070462033e-02,1.423359318684908580e-02,1.912550764426663302e-02,-1.026486318578781042e-03,5.852598547935485840e-01
5.785024775856406620e-02,-5.284377045399997197e-01,6.303967659071271767e-02,5.531755074686312001e-03,2.097545903497706823e-02,1.681823146132455787e-02,5.908157825469970703e-01
4.799948355043257009e-02,-4.558029885838024708e-01,5.436965780236194257e-02,4.127752597814725311e-02,2.192070772997009934e-02,4.614106543948996719e-02,5.196218490600585938e-01
1.686088681836880876e-02,-3.315489985431340769e-01,4.297448616020749235e-02,4.971839489509543436e-02,3.584970567269195416e-03,6.710641310514701974e-02,3.900432288646697998e-01
6.030919071364193584e-02,-4.608190900766691023e-01,3.706508788079704297e-02,2.732115223257460673e-02,1.731837778318726789e-02,1.662175826747906704e-02,5.137798786163330078e-01
6.115157018998904070e-02,-5.744551094853111994e-01,7.082403083796212639e-02,1.720642039070983953e-02,-2.611893235510231222e-03,4.646609975458582294e-03,6.412571072578430176e-01
4.735382255580614097e-02,-5.777196629324872212e-01,4.343429729388748051e-02,8.266213012397127932e-04,-4.159780991312292744e-03,4.987108688431602602e-04,6.231668591499328613e-01
9.012067144122631879e-02,-6.460342056583623371e-01,2.527896124528805633e-03,-1.219967556006448794e-02,-5.039993924151046217e-02,-4.349692540564773988e-03,7.023093104362487793e-01
3.158458285606852156e-02,-8.469376781209655425e-01,1.300387767324241439e-01,1.199610078851752193e-01,-9.561641892953451349e-02,4.864643933522977415e-02,9.724647402763366699e-01
2.673429487970557794e-02,-5.946162762492503973e-01,7.838600928760516839e-02,-8.000627014778377913e-03,-4.605636434212996913e-03,-2.416463415218092319e-03,6.489309668540954590e-01
2.131629513738794723e-02,-5.885374457750656152e-01,7.762929259140227689e-02,6.349366753543216925e-03,-9.972223632537345964e-03,-1.290882711156532024e-03,6.402028799057006836e-01
4.682843595211505505e-02,-6.592668474687767288e-01,7.346548727171131610e-02,7.909255633856721035e-02,-7.103293866022766800e-02,2.410415876235434685e-02,7.441339492797851562e-01
8.671652828271270153e-02,-6.871710130551682560e-01,-1.617749359529824238e-03,5.184240850226299463e-02,-9.115964168017294533e-02,1.509837061013982185e-01,7.998284101486206055e-01
6.165795835035439709e-02,-5.900745455804607964e-01,5.366995677386113273e-02,2.749722266073514800e-03,-1.086159772492703915e-02,1.453000285549070798e-03,6.480709314346313477e-01
4.207081369479626076e-02,-8.343832305491131196e-01,1.259952796914220463e-01,-1.374283319762169449e-03,-1.008255447416431527e-01,4.860277157507143786e-02,9.414672851562500000e-01
4.749108783388117372e-02,-8.177322013642667198e-01,1.295944850790924363e-01,-4.114743988107236183e-02,-1.084437131822501288e-01,6.709554719710286719e-02,9.382190704345703125e-01
4.654520911470191868e-02,-5.890086521073725212e-01,6.489813922744336327e-02,4.720680933383671236e-03,-1.174088491533331093e-02,5.877973738508075752e-03,6.453788280487060547e-01
7.448554479076041623e-02,-5.465307674864002818e-01,5.761672217804081342e-02,5.984267860667218802e-02,8.057003153168644516e-03,1.783600136915714299e-02,6.223845481872558594e-01
5.023508441231561150e-02,-5.823558310103680302e-01,5.154344367239183100e-02,-2.814925969891526598e-04,-1.318538478135599171e-02,-2.074418059847324327e-03,6.336681842803955078e-01
3.689377728977208393e-02,-5.869605188974500454e-01,7.046211812471772640e-02,-4.513540105325247569e-03,-3.739414109002425074e-03,-7.057952706275313556e-03,6.414945721626281738e-01
6.376054707303199787e-02,-5.833864712018768106e-01,5.173537020627605454e-02,-1.790609794447403993e-03,1.030667938258168293e-03,5.670948284109435938e-03,6.413041949272155762e-01
6.518654107560398203e-02,-5.850847636192432200e-01,6.124201113119498441e-02,4.674605684034448629e-04,1.261364272574881564e-03,-9.585967979501494596e-04,6.483143568038940430e-01
2.308685587164560626e-02,-5.976985021493451677e-01,8.669207770367445831e-02,-4.238996013369440187e-03,-4.416701244627073246e-03,-3.789254928381837698e-03,6.550273299217224121e-01
1.352120229361458703e-02,-6.077721465671991341e-01,1.084438779436413536e-01,-9.840734849122749830e-03,-4.862003307239856111e-03,-3.903423720998405559e-03,6.740902662277221680e-01
-1.962159666636956179e-02,-5.995361142823002476e-01,1.142428605885619786e-01,-2.661332927256297980e-03,-5.835329286120920569e-03,-3.332998025130363929e-04,6.572474837303161621e-01
2.497433200670734488e-02,-5.865145865535967840e-01,8.802062500294344227e-02,2.414325374799113771e-02,1.463163195263752006e-02,2.998304025741840655e-04,6.471760869026184082e-01
7.599047809880468685e-02,-5.736598837153852326e-01,6.469455283565969661e-02,-6.331857918523335713e-04,4.652774857956819450e-04,-3.929202959707435612e-03,6.441140770912170410e-01
5.655238569073084420e-02,-5.883972531378287574e-01,7.444435245824754244e-02,-5.713417095413164497e-03,2.150840986721202358e-03,-9.819292020773693881e-05,6.541646718978881836e-01
5.202364479155591193e-02,-5.819465033452182467e-01,7.326189523979362295e-02,-9.304270930998639194e-04,3.132504369031596878e-03,-4.376985290115066422e-03,6.449210047721862793e-01
-1.990841115567648645e-02,-6.131079950901834330e-01,1.336880127177905164e-01,1.196946140856870178e-01,-9.393425169259066176e-02,1.198482304942686920e-02,7.324432730674743652e-01
3.076791382601537506e-02,-5.885270460747741295e-01,6.935180706798427241e-02,1.152145996102401119e-03,1.231818384690909658e-02,5.096326212233317707e-05,6.398195028305053711e-01
5.387687165078208773e-02,-5.843975760073428782e-01,5.501010689877083859e-02,1.346881447917879838e-04,1.181203033880320712e-02,-1.562083651187532634e-03,6.391751170158386230e-01
5.380608157717001183e-02,-5.840941756187014722e-01,5.161808546781199158e-02,3.620722256109505611e-04,1.330639244668479050e-03,-9.829055252375908970e-04,6.368158459663391113e-01
4.488765608504968752e-02,-5.925763023830947773e-01,6.896929055973294309e-02,-7.499604928212215849e-04,1.775992355379399411e-03,3.157159674850694951e-03,6.498711109161376953e-01
4.314918121360938885e-02,-6.039921995818211542e-01,7.285901469874048186e-02,-1.237854768650419567e-02,4.214048694993157568e-02,-2.920293296486813853e-03,6.668686866760253906e-01
5.295960666990859322e-02,-5.857653943419238729e-01,5.749967800604266488e-02,1.610059609171353391e-03,2.882924962705945161e-03,-5.426640565438316764e-04,6.410332918167114258e-01
4.985421979120729929e-02,-5.802903333529568775e-01,7.342551777027328530e-02,-3.028054158131991951e-03,6.358118969063608281e-04,-5.830731054868385464e-03,6.423564553260803223e-01
7.019178952750626532e-02,-6.139183714289253579e-01,2.604795871163637089e-02,3.737785982185734199e-03,9.082992719935946424e-02,-4.106179800067680935e-02,6.852784156799316406e-01
4.280431275755997023e-02,-6.085011726279678790e-01,7.782945035263089117e-02,-5.226772424507981039e-03,3.349723299754542305e-02,2.020759636856397489e-03,6.720848679542541504e-01
5.537167487150260192e-02,-5.862162158195008965e-01,6.765762187917775949e-02,-3.813981039311278875e-04,5.667303027551777971e-03,-1.401561443252515374e-03,6.478974819183349609e-01
1.265225730012518035e-01,-7.225813540715207983e-01,4.660067217629965119e-02,-7.576644542593363035e-03,4.037404868018031057e-02,1.996271713933648120e-02,8.159417510032653809e-01
1.304424485430156211e-01,-6.479905318278670334e-01,2.435418682887138808e-02,-1.540494293955343118e-02,1.160102817857446150e-01,1.178856133528260845e-02,7.590349316596984863e-01
4.162875518710185130e-02,-6.702602085428290835e-01,7.468534219402966912e-02,9.726016604476930838e-02,-7.686932391596316971e-02,4.089246635394104545e-02,7.632386088371276855e-01
5.363386045803228419e-02,-4.841286782886207729e-01,-7.967908757068792314e-03,1.100097542782018101e-01,-6.734647915508444604e-02,9.764894262175288775e-02,5.817002654075622559e-01
1.635383562546055547e-02,-4.173164855789431305e-01,3.997379588480870494e-03,1.327508100389209189e-01,-8.560207637674625836e-02,1.445589446552117685e-01,5.660453438758850098e-01
-4.224955522845436073e-03,-4.185192667849451653e-01,4.597345342651509847e-02,1.173770093162093547e-01,-5.857709337875483674e-02,1.361165452148025701e-01,5.496959686279296875e-01
3.328437890235513841e-03,-7.096069267183839901e-01,1.243314439729082399e-01,3.819442449510826454e-02,-4.192050281035090975e-02,-8.933041119720416812e-03,7.868123650550842285e-01
8.249459696001870679e-02,-5.713638538876784079e-01,5.533081150804111670e-02,2.879881865073601402e-02,7.241689491949509713e-03,-5.550478085252546524e-03,6.428416371345520020e-01
6.980019124098266192e-02,-6.036693047755649078e-01,7.320787944667686564e-02,1.852303677430854403e-02,-1.018827370157734946e-02,2.644979832625012767e-02,6.777220964431762695e-01
6.278128056904444532e-02,-5.865355084449774825e-01,7.951530328737230202e-02,3.690767832147130723e-02,-1.075673061055165561e-03,-5.069267177507583849e-03,6.610031127929687500e-01
4.399744012140976990e-02,-4.751441697575570777e-01,4.965839593400586671e-02,4.208622853282796561e-02,-1.835042705746193006e-02,-5.871608976115313960e-03,5.281158089637756348e-01
5.707838946886623077e-02,-5.648891226413448319e-01,9.031589924815847104e-02,2.288469779133947037e-03,2.777443376794607767e-03,3.157991412866031477e-03,6.392884850502014160e-01
6.181230441033075396e-02,-5.706058626814998203e-01,8.771120759547884616e-02,3.415120370871064495e-05,4.383964190872903163e-03,-2.998260627598321065e-04,6.458020806312561035e-01
5.750742929816951565e-02,-5.667668434427666213e-01,8.796482546655401413e-02,-1.593983297095598762e-03,2.146460726360286796e-03,1.050123842003324081e-03,6.400660276412963867e-01
5.929906612701002500e-02,-5.416145778041536740e-01,7.893730790802891417e-02,1.148363619340799120e-02,1.523539446739115809e-02,1.464043693386575355e-02,6.123877763748168945e-01
4.671385840371616860e-02,-5.126358406835600512e-01,7.683344934907226920e-02,1.101349878001982481e-03,1.510765661014782345e-02,1.736518530599623009e-02,5.763850212097167969e-01
7.131888332532504426e-02,-5.724186478494197594e-01,5.528310656399826328e-02,2.631386505608221404e-03,2.420949488070536608e-03,9.699637819594587179e-03,6.361233592033386230e-01
6.017881690007151341e-02,-5.504726507495518728e-01,8.016376667077276807e-02,9.452604033036497017e-03,1.548164544596288342e-02,1.573310304781043792e-02,6.222766041755676270e-01
5.232720776711391464e-02,-5.390491822012264400e-01,7.371641980381604675e-02,2.529179552057643412e-03,5.571234265871137167e-03,1.616411517233218992e-02,6.030992865562438965e-01
8.460984834649359909e-02,-5.443535103472474379e-01,5.099619042429751059e-02,2.271686977177624078e-02,-8.549077394601053634e-03,-9.330628356055270869e-03,6.145011186599731445e-01
4.322388735508836399e-02,-4.507096288701130660e-01,3.909571159569510956e-02,-2.742608257775877687e-04,-1.653972643421393676e-02,-2.397631137123346773e-02,4.944631755352020264e-01
2.822939251756438617e-02,-2.173678681456837347e-01,3.377458863792168198e-02,7.679095214095880972e-02,-4.889665588483814440e-02,3.999160438790112793e-02,3.022777438163757324e-01
4.664484559945430986e-02,-3.954928618825308551e-01,3.005930306651885542e-02,9.430216818967827874e-02,1.161014815252880798e-02,5.255110027522286176e-02,4.730704724788665771e-01
-5.762457080230133644e-03,-1.621143119857959003e-01,2.056943868713931312e-02,1.125155830606906909e-01,-1.668848007284231064e-03,3.710004739323101430e-02,2.671575844287872314e-01
-2.657016759676878587e-02,-2.229256591324798031e-01,1.096975250786557943e-01,7.253287137490413428e-02,4.763104306651209929e-02,1.647416165089014145e-03,3.263106048107147217e-01
-2.810497084942148102e-02,-1.468728982553925144e-01,4.278845985083261361e-03,6.129331803335272277e-02,-1.250518859560264748e-02,2.337440408935806402e-02,1.799431294202804565e-01
5.859100115573434575e-02,-5.887697150751679542e-01,6.322939313391409688e-02,-2.574602820456373033e-03,-5.898492244812918173e-03,-5.057171136588347465e-03,6.498469710350036621e-01
4.793038810199123922e-02,-5.826619324402582123e-01,5.939577011202176737e-02,-3.770584446746173476e-03,-9.456444922082471840e-04,-3.757523554847660031e-03,6.364713907241821289e-01
5.396941389073109385e-02,-5.854270203133105088e-01,6.346001631009340338e-02,4.751989430554168573e-03,-2.176784098238548123e-03,-1.896397277680981043e-03,6.442661285400390625e-01
4.470014798651875121e-02,-4.156963786922618365e-01,4.440301693093676172e-02,6.603972276787836715e-02,6.342332900346023435e-03,4.926991409911166131e-02,4.819909036159515381e-01
6.989225288241210365e-02,-5.862961818259442293e-01,6.657464672849267018e-02,1.258797789794512643e-03,-1.264283738303666194e-03,8.539615123813085835e-04,6.545448899269104004e-01
6.563188891115229184e-02,-5.871763330051511520e-01,3.961455517600548371e-02,-5.375591756163592555e-03,-4.457956061042627448e-03,-5.752920907729609269e-03,6.403879523277282715e-01
6.102194948105468808e-02,-5.840995519953141590e-01,6.195667764123458099e-02,4.337255392798358006e-03,-6.272802329988175739e-03,1.664996043481530626e-03,6.457309126853942871e-01
8.468226001084613874e-02,-5.745678602511632427e-01,6.221786810949583857e-02,4.371744328872656645e-04,-2.317691959326328207e-03,3.587230151862153232e-04,6.483230590820312500e-01
6.368374662999931601e-02,-6.348916901995049766e-01,8.592107063060658301e-02,-1.735555344481894829e-02,3.071888493665773240e-02,-1.658150067846609786e-03,7.125864624977111816e-01
9.131161175897448135e-02,-5.716968493005276652e-01,5.773425928744121971e-02,1.300732775387557737e-03,-1.505004923922108415e-03,-9.052058171173593074e-04,6.468847990036010742e-01
4.829201851649989052e-02,-4.653199476991721206e-01,5.393167449430605331e-02,-2.550778346772711661e-02,-1.473421850688214595e-02,1.536821687389729185e-02,5.196512341499328613e-01
6.556336622645869694e-02,-5.912702327108738665e-01,7.304907909813534994e-02,5.522781070439997629e-04,-9.858640477372641528e-04,-3.074062381219681492e-03,6.606326103210449219e-01
4.444951002745251012e-02,-5.291164222835260666e-01,8.509556131451309624e-02,-3.071974828422012731e-03,-4.686000225092410050e-03,2.392058259789611036e-02,5.964511036872863770e-01
1.808850002762449338e-02,-4.224216129531770392e-01,5.379227614860590534e-02,-7.535854373574010301e-04,-1.595680618773577877e-03,2.585950281998550260e-02,4.615921080112457275e-01
6.364556037037111258e-02,-4.219999116189429023e-01,1.840975384364840206e-02,-6.163361792086688787e-03,4.404765194682704055e-02,1.135742016018478073e-01,5.104518532752990723e-01
7.565596673034405417e-02,-5.713219797470427963e-01,6.547408023561504531e-02,-1.030502271899168265e-02,-1.461041603789735299e-02,1.348222775840085368e-02,6.431181430816650391e-01
9.131450046250458308e-02,-5.721137302038117323e-01,5.516779425960410821e-02,5.704500489737160916e-03,-7.902089612951081112e-04,-5.850348441314811090e-03,6.462700963020324707e-01
8.273389783263340735e-02,-5.763676418348203656e-01,6.551060760324126098e-02,2.109919764854219920e-02,-4.265656745975703566e-03,-6.280292773211459088e-03,6.518189907073974609e-01
9.394562759869387603e-02,-5.591316039865716903e-01,5.172367222272378218e-02,1.063831962778236150e-03,-3.418928539308730601e-04,2.512410833695850822e-04,6.330263018608093262e-01
8.039714577078019286e-02,-5.402077398786973017e-01,5.114598860844316031e-02,1.355161409159176544e-02,-5.333871623059760481e-03,-9.876796724567748001e-03,6.072738766670227051e-01
9.242209189004360614e-02,-5.669768822785916651e-01,5.447579060089247083e-02,8.280977270177250493e-03,-6.266290276393230232e-03,-3.147729197555019370e-03,6.415438055992126465e-01
9.095210057469133025e-02,-5.536953625497589293e-01,4.798669541874481248e-02,-8.163082436449743857e-04,7.696875227651756544e-03,6.040419525553482240e-04,6.244194507598876953e-01
6.150916277475418359e-02,-5.908662115617301369e-01,7.395905598404697856e-02,-7.797011622752633708e-03,3.137657664343297247e-03,-3.646514601998001801e-03,6.588796973228454590e-01
3.020321380023788249e-02,-4.926613781465589703e-01,7.768468044320026022e-02,-1.452575461979959889e-02,-7.948929729962953342e-03,4.973729893339111363e-02,5.556187629699707031e-01
3.289007693291259860e-02,-5.973701334849013111e-01,8.011170304497874928e-02,3.775347517316027333e-03,5.578708578546707000e-03,-8.713823909211092580e-03,6.554263234138488770e-01
4.133712481559473351e-02,-5.883156143476304667e-01,6.565363633030835144e-02,-7.890615071894686730e-04,5.966527293672490087e-03,-2.339164871560377060e-04,6.422411203384399414e-01
8.506794669814077281e-03,-6.160737957039859047e-01,1.089700865333543822e-01,-3.275985062309500623e-02,3.794334650408430487e-02,2.895560638985776244e-02,6.877464652061462402e-01
6.879444343281884700e-02,-6.127133138676393864e-01,7.786176299615191199e-02,-6.900460497759174083e-02,4.058332363388257417e-03,-6.129608381170240268e-03,6.965353488922119141e-01
2.217228705277848877e-02,-7.155634096904748276e-01,1.163369257808938295e-01,-9.200697484552690375e-02,8.498802470528740716e-02,2.431173872695072818e-02,8.194068074226379395e-01
8.772332212320815836e-02,-6.406504726534936189e-01,4.252298178436569875e-02,-2.804976697159698371e-02,4.547024493640338533e-02,4.198611170175908791e-02,7.165892720222473145e-01
4.930637566636103530e-02,-5.816552781527728477e-01,7.848680350433936970e-02,-1.841116885348559285e-03,2.192912763386313350e-03,-2.361451108477135782e-03,6.460782885551452637e-01
-4.142688353902097137e-02,-3.749808652652295571e-01,1.140164345014190173e-01,1.866134744980576243e-01,1.550786818242568151e-02,-5.557125102321607696e-02,5.492990016937255859e-01
5.568315972116258394e-02,-5.862748975121011563e-01,6.570956013095957671e-02,-5.978374885343482178e-04,4.579541106000967025e-03,-2.714116323516878142e-03,6.470960378646850586e-01
7.839521145222300147e-02,-5.510467030554360157e-01,6.461718253502607423e-02,5.080953284516237511e-02,-7.313409360952156067e-03,-1.626026585525835663e-02,6.296133399009704590e-01
-4.482874185609759393e-02,-2.823441691028519829e-01,1.250145201830940855e-01,1.435624105599121181e-01,-3.129568336972819026e-02,3.890303851552269487e-02,4.414859116077423096e-01
5.018279260466465552e-02,-5.210780112490034366e-01,6.206073691369695666e-02,4.673703276637287962e-02,4.795263493121669496e-03,-2.176134695878524303e-02,5.842158198356628418e-01
1.209562308201077574e-01,-6.751862245500482862e-01,4.197268712263643731e-02,-2.068544360877528493e-02,4.337502416616917378e-02,6.567801777774577229e-03,7.643666267395019531e-01
1.192032657048452404e-01,-6.175509887284829080e-01,3.416759081297054967e-02,-2.052764472218233938e-02,5.833082942371201757e-03,2.192607961973075045e-02,7.001399993896484375e-01
9.151138923489163246e-02,-5.999778232115802190e-01,4.300084544987484159e-02,3.080595110777638573e-03,3.983995409713729681e-03,1.920882760648829485e-02,6.694393754005432129e-01
1.561594477277002957e-01,-6.439088083631590020e-01,-3.469639965028964435e-02,-1.156519211424426007e-02,4.211662049521507079e-02,9.174670276975473160e-02,7.448573708534240723e-01
8.341896536218854075e-02,-5.850066020491723195e-01,2.102587290510790630e-02,-7.199292121385607660e-03,-5.131079243927168590e-03,-4.213625137740049757e-03,6.397407650947570801e-01
1.693582024088512994e-01,-7.082634601521924367e-01,-2.622524658670605247e-02,-1.909378880406137347e-02,1.181765886462388115e-02,1.954263098474522120e-02,7.996767163276672363e-01
9.385909959370580813e-02,-5.691560398608743743e-01,-1.292375287108843418e-02,9.272758089720108121e-02,-5.272384757987113452e-02,1.586179055483112055e-01,6.998618245124816895e-01
8.387864004748507574e-02,-6.251622066779931597e-01,2.516165596674846405e-02,-1.125960777854110098e-02,-6.462648908656108693e-02,7.444349786369569566e-02,7.029149532318115234e-01
7.400940075383818928e-02,-6.001096070489726486e-01,4.574962235002427713e-02,-1.292890694749632488e-03,-1.382933551777380463e-02,1.103635180199994889e-02,6.611571311950683594e-01
1.483995172538601359e-01,-4.266203704035049782e-01,-5.945921123537582093e-02,-1.679535534228223867e-02,-1.324205706177179753e-02,1.718165027076482831e-01,5.867412090301513672e-01
7.570986719972541690e-02,-5.724325005358830154e-01,4.901607823067524738e-02,-5.420978996258187833e-03,-1.334561195932999159e-03,4.246943057686896478e-03,6.353324651718139648e-01
8.061067016558795539e-02,-5.860855800364189738e-01,6.992121706013276761e-02,5.868426972148223404e-03,6.863952542837514076e-03,4.609496932929906671e-02,6.664010882377624512e-01
9.894687272207491890e-02,-5.920239829815627797e-01,2.289806648487180407e-02,-6.604028214924085975e-03,1.287458819414626955e-02,1.202558565755672444e-02,6.570681929588317871e-01
8.391529814156900580e-02,-5.700313017392448778e-01,6.102865609086377541e-02,4.026330274220034540e-03,7.393290638101839007e-03,-7.272920582364427291e-04,6.429755091667175293e-01
8.721809909550454210e-02,-5.732527516275294222e-01,6.427570701113130558e-02,-1.362146253980744699e-03,2.020898379775585250e-03,-1.446286586378503882e-03,6.493222713470458984e-01
8.170528983870056772e-02,-5.729327624103863759e-01,6.547356601320994396e-02,-1.131968105605278552e-03,5.268482174516922294e-03,-1.443938274385275647e-03,6.467471718788146973e-01
7.393609606513798505e-02,-5.746482625553644974e-01,6.482507707640200456e-02,-1.331034750754480972e-03,2.156293309455189870e-03,-1.266417229269009743e-03,6.440958976745605469e-01
7.126567802229080706e-02,-5.786232164470916928e-01,6.704892573067094963e-02,-2.915332500800536103e-03,-9.192483184619932722e-05,-1.429972472424979185e-03,6.478152275085449219e-01
7.099083468063621671e-02,-5.289317752579683063e-01,5.513719490111165800e-02,5.945649317511608745e-02,1.963834582525542799e-03,3.997358689677585342e-02,6.050272583961486816e-01
7.272138422303128791e-02,-5.572435994239305357e-01,7.019086324481821348e-02,7.991057486615316813e-03,1.146953352871531162e-02,5.214994131413804024e-03,6.292344331741333008e-01
4.780755607326228618e-02,-4.195260995595743725e-01,4.201220533169311433e-02,-1.670190463849799967e-01,9.717112881423915771e-02,1.137693955527360606e-01,6.054495573043823242e-01
1.617157599513710520e-02,-4.230092619813805577e-01,5.710625371925706628e-02,-1.689763476873549358e-02,-5.665521959639926303e-03,4.083094349584013433e-02,4.674265384674072266e-01
3.376478094248738793e-02,-3.209674045597794567e-01,5.607843275792873117e-02,-1.632901949997568603e-01,6.200084935564326161e-02,1.787649823733726074e-03,4.751643538475036621e-01
9.525433360188201304e-02,-4.880140535515744005e-01,-3.133983914527774250e-02,-5.806773519168366426e-02,2.954444542825926390e-02,2.053571055538580270e-01,6.493369936943054199e-01
1.317528543656362738e-02,-3.209176431552181463e-01,1.137444992998430660e-02,-4.375590188230926020e-02,-5.313091360967811018e-03,1.188066087244431246e-02,3.424493372440338135e-01
1.280403720565001513e-02,-3.553038296243447580e-01,3.445545167428809563e-02,-7.181453936708692698e-02,-1.121323541329341707e-02,4.808976799582725947e-02,4.083250164985656738e-01
4.571634991105533175e-02,-4.660217562630557531e-01,5.511898216725691357e-02,-2.879574068365757175e-02,-1.705806804683541317e-02,2.058870811906788126e-02,5.209684967994689941e-01
1.289661271409647814e-02,-1.482507829711858516e-01,-6.173023530160087757e-02,-2.928092260367388261e-02,-4.120252680891224074e-03,9.935631172902270603e-02,2.274858355522155762e-01
9.257070992141205878e-02,-5.117466328027540090e-01,2.782463322900063929e-02,-4.213730894205824223e-02,1.062690663574365410e-02,5.706971858770524403e-02,5.879631042480468750e-01
1.178445862730979343e-01,-4.891624652551765928e-01,-2.088710671922697215e-02,-1.316232501554472599e-02,6.513649674243207621e-02,1.226930960782647573e-01,6.015827059745788574e-01
4.659206405924665173e-02,-4.209237379765137232e-01,2.568433376314016581e-05,-1.597055122253579207e-01,6.541603738516930944e-02,1.332911855838570803e-01,5.844860076904296875e-01
4.830173542661500563e-02,-5.452178668050602361e-01,8.351869087822078042e-02,-1.030641062031580416e-02,-1.106881026324939982e-02,1.796977889562812250e-02,6.132394671440124512e-01
3.855362184626384692e-02,-4.179053712360604189e-01,5.653426056643540143e-02,-4.637067793587844322e-02,2.099582716550270345e-02,4.826989282463832465e-02,4.812989532947540283e-01
5.976798794619420097e-02,-5.376057338315634038e-01,5.906675074038467144e-02,-8.306455616502120276e-02,3.803000365869218125e-03,3.993777891928102647e-02,6.180328130722045898e-01
8.474349808975970011e-02,-5.938332502972685223e-01,6.710955891322942235e-02,-2.444995047654133918e-02,-2.763723263032482128e-03,3.595401244709092638e-03,6.713169813156127930e-01
5.943839038180900869e-02,-5.132025568588993725e-01,5.975194086220197986e-02,5.013527440270343664e-04,-1.626402410089643896e-02,1.217619476692824443e-02,5.738784074783325195e-01
9.506013721606060285e-03,-3.971820405799423304e-01,1.065637457359535634e-01,-9.223833198045051918e-02,6.357636653298633089e-02,7.681348015142285164e-03,5.021097660064697266e-01
7.896426495542319124e-02,-5.388396688813084090e-01,5.035881991869892160e-02,-1.686516743323456663e-02,-9.470655481223562433e-03,-2.582669432762985280e-03,6.049543619155883789e-01
-2.641490187432131431e-02,-4.288194944489229776e-01,8.167179761960594031e-02,-8.739614488996241826e-02,2.802636351497833633e-02,5.623190271061504625e-02,5.018600821495056152e-01
2.875898168564716695e-02,-4.055124948976968624e-01,4.718099176136741901e-02,-1.159397395009095777e-01,4.196631228407124957e-03,7.647370895869505525e-02,5.048314929008483887e-01
5.199966687123391829e-02,-5.221596127881673599e-01,7.800811034188898097e-02,-1.865288276853687213e-02,-1.410849150454489276e-02,1.875655064877640790e-02,5.898852944374084473e-01
1.233143387995946361e-01,-6.119372379378609228e-01,-2.481710173496268212e-02,-6.260758416238548785e-03,1.598305816646567595e-02,1.276634604298701112e-02,6.745345592498779297e-01
7.832235582002133878e-02,-5.894351943675177896e-01,7.408000376139142751e-02,1.162621318539181110e-03,-5.714809354269025955e-03,-3.005774602277819316e-03,6.657435297966003418e-01
6.984514903793911933e-02,-5.896247489265165065e-01,7.360891570661315386e-02,-1.930546567683689768e-03,-1.516542916133770905e-03,-9.644607788393428369e-04,6.613755822181701660e-01
7.018336160273228042e-02,-5.854427512115440990e-01,7.008454597270333264e-02,-4.144984197658838077e-03,1.941222529201098188e-04,2.963120340795480671e-04,6.556162834167480469e-01
6.619738386292667309e-02,-5.877686845663679938e-01,7.086922045966603800e-02,3.549697087486830376e-03,-5.056445772631987592e-03,-1.696746708370297594e-03,6.564082503318786621e-01
6.108037744443273187e-02,-5.896912688167956773e-01,6.953491392796892767e-02,1.310293924853090947e-03,5.433462379409552401e-04,-1.290762781869240778e-03,6.550482511520385742e-01
6.796303416109658602e-02,-5.022876080741975890e-01,6.368100493445397192e-02,9.092870918752822551e-02,2.156464917365495931e-03,-6.830764701540047168e-02,6.013137102127075195e-01
7.142594970577881286e-02,-5.936198560386602985e-01,7.963502800479518862e-02,-3.572135354572333020e-03,-6.686881648031269693e-03,-8.602350383745049553e-03,6.694827675819396973e-01
6.101315318080691164e-02,-5.895449266377055242e-01,6.905218155905987198e-02,-3.806086753767559845e-03,-4.123408066906681621e-05,-1.281987929608752446e-03,6.546515822410583496e-01
5.845788381981140147e-02,-5.836886139042462007e-01,6.061400133310529403e-02,4.849015843831108697e-05,-2.729266957414788232e-03,3.423160104552233803e-03,6.432719826698303223e-01
8.567463102363559457e-04,-5.856911118477499123e-01,7.731007683597754254e-02,1.993952222632639978e-02,-4.828919002496040447e-02,2.116770853802717872e-02,6.358140707015991211e-01
3.012959255994648866e-02,-5.836535343349643634e-01,8.415719109984831636e-02,-5.198738384594284168e-02,4.746007051094295465e-03,-5.260604665201668376e-03,6.488980054855346680e-01
6.743122438595405832e-02,-5.891982066962035969e-01,6.912075675513743023e-02,3.063226310782295788e-03,5.169495884196659112e-04,-4.199897834395707220e-03,6.575380563735961914e-01
8.098661274134133503e-02,-5.466924529728869331e-01,5.347563128035642821e-02,1.410165297928422587e-02,-6.091567965256071242e-03,-2.987113111487799903e-03,6.149833202362060547e-01
-1.131859478825750220e-02,-5.960660482135222704e-01,9.590345099527219919e-02,-2.563452911146633321e-03,-2.569293071064534043e-02,5.377002285038402253e-03,6.466922163963317871e-01
8.387105661060842432e-02,-5.472178906253631903e-01,5.073118373311322205e-02,8.324877934219541411e-04,-7.651546656814520696e-03,-1.872875365487881687e-03,6.153417825698852539e-01
2.348203763774836528e-02,-5.989601518401292957e-01,8.721614127815432993e-02,8.854669701914142169e-03,-5.867960911734857940e-03,9.468258187785176527e-03,6.570955514907836914e-01
6.603152956167024357e-02,-5.296929713205464907e-01,5.319844294336878443e-02,-8.866734921691874979e-03,4.087952341520060227e-03,-3.052901487484791301e-02,5.920214653015136719e-01
8.288236874614321459e-02,-5.795097905193262733e-01,6.165235671170721243e-02,6.333317420487251988e-04,3.032516981010808361e-04,-5.899560074380998196e-04,6.520383358001708984e-01
5.737237761795604962e-02,-6.142526842010016530e-01,8.198788278943189289e-02,-1.245093639938712549e-03,-7.741187603698959164e-04,-4.410607114578901471e-03,6.843123435974121094e-01
-1.051144950531424094e-02,-6.110443641892727706e-01,1.164035666661887292e-01,1.149432150786170760e-02,-5.555559585946371129e-03,-1.613536630284666956e-03,6.733948588371276855e-01
8.024193495922116171e-02,-5.888723429903774953e-01,6.448401036834278122e-02,-9.148257953164790068e-03,1.967846809864585804e-04,-4.554186090454803368e-03,6.616130471229553223e-01
7.344626564162576310e-02,-5.931501739859973421e-01,6.997830505030069870e-02,-1.569084217398309528e-02,6.084357131235140249e-03,-8.423268898378753798e-04,6.655095219612121582e-01
8.263997791500629631e-02,-5.727347228032957371e-01,3.452012863881656624e-02,1.152900253422661954e-02,-3.254784900685548862e-03,5.465967520702497140e-03,6.330996155738830566e-01
3.121871264282333192e-02,-5.050404707659861270e-01,8.653382110663485061e-02,-9.936189634819358324e-03,1.651532637129432589e-03,-4.188154914061877065e-02,5.708445310592651367e-01
6.064638698629762348e-02,-5.773458717083190805e-01,9.227369504819310508e-02,-4.703942665138951748e-03,6.512514123268921826e-04,-1.108622826199880639e-02,6.547127366065979004e-01
1.349123569132144596e-01,-6.878517657851878075e-01,-2.045479084093435040e-02,-9.696721844030269447e-03,-1.083408882918495270e-01,3.150301535524534235e-02,7.821264863014221191e-01
6.880048031108657036e-03,-2.113013850802225868e-01,-2.806067546904517096e-04,-2.666149260760262291e-02,-8.873247730766547006e-03,-3.653127042571883282e-02,2.290510833263397217e-01
6.152801690510795174e-02,-5.847419764133756637e-01,8.447073532793000772e-02,-5.107399655854156888e-03,-1.829983739233833739e-03,-8.874693014110899419e-03,6.582879424095153809e-01
9.143257385211139843e-02,-5.952835899028701139e-01,1.615622615632450465e-02,-8.308991408297361795e-04,-8.137623124960552401e-03,4.989286790234694416e-03,6.525546312332153320e-01
9.308349081510530754e-02,-5.994153919751049608e-01,1.315013125574129860e-02,-6.929799396658045327e-03,-8.536931042409231715e-03,-1.220792878803657680e-02,6.568105220794677734e-01
8.139970917232283720e-02,-6.014417551141775231e-01,6.134407682483106194e-02,-6.141235556670036769e-04,4.260801560251881864e-02,-3.360603654441797483e-02,6.795700192451477051e-01
6.824791413021980002e-02,-5.954219700770879697e-01,8.122400224736878172e-02,2.574937095382861130e-03,1.460242722693098124e-03,2.320089106859491313e-03,6.702837944030761719e-01
6.742867756078327335e-02,-5.912861831666200718e-01,8.197554054370245757e-02,-2.469056500934273951e-03,4.118310025514346738e-03,5.846942403160271381e-04,6.661601066589355469e-01
3.486506311431938898e-02,-4.886156447882302190e-01,7.100043909445288848e-02,-4.278481274843970276e-03,7.591301100814046299e-03,-2.614506541397228212e-02,5.445479750633239746e-01
6.038980269635693676e-02,-5.771235342439116067e-01,8.575023670929166064e-02,9.168624606475310294e-04,4.612642190453101337e-03,1.060509740848323288e-03,6.506179571151733398e-01
6.156224516520453216e-02,-5.797391585756817012e-01,8.595384302492753426e-02,2.106864793915228223e-03,1.154425674210464740e-03,3.865509339917898995e-03,6.538860201835632324e-01
6.075465281804481865e-02,-5.409423885241748664e-01,6.549387457291624970e-02,-1.495523073305231147e-02,1.222801607536840376e-02,-2.387879044188397602e-03,6.050207018852233887e-01
1.028543962521752397e-01,-6.636211459674677959e-01,5.124503841294650308e-02,-2.934169773498271003e-03,-1.763896250190159082e-02,-5.308228663487703919e-02,7.483337521553039551e-01
6.173688663536550103e-02,-5.777877677694007730e-01,8.145308108661042379e-02,5.403572655255287462e-04,-4.002631164338471418e-04,-4.757180217447753881e-04,6.496087312698364258e-01
6.870423096439109978e-02,-5.994455317986371323e-01,7.759874575746025793e-02,-3.145338763430048689e-04,2.169094896303361275e-03,-7.866081753531266058e-04,6.726531982421875000e-01
9.539825863446563248e-02,-5.565018605425137155e-01,4.446129639906298836e-02,9.691071567792881175e-03,-1.470984471944211842e-03,-3.955688300385102815e-03,6.282497048377990723e-01
-5.466100944637253267e-02,-5.437833404097744960e-01,1.089887052706139392e-01,1.446457983428803828e-01,-4.742988242221735790e-02,2.981858776745856254e-02,6.467225551605224609e-01
-2.004176295865245372e-03,-6.888295943546232092e-01,1.323328283896576529e-01,1.713753559357781425e-02,-9.962086214765733180e-03,-2.862286224892099037e-02,7.652962207794189453e-01
2.028866248264638017e-02,-1.025453980488018946e+00,2.349553978363291828e-01,1.078351647102352047e-02,-7.697421482890526301e-02,-3.092782155237420311e-02,1.176919341087341309e+00
2.284855224124884843e-02,-5.694276433944076565e-01,9.943087390759719479e-02,6.514861718355653697e-02,-2.601862215458958932e-02,7.232422991811567406e-03,6.457048058509826660e-01
-5.424857404860540522e-02,-6.107496580821467624e-01,1.298550358001634430e-01,-4.149630677777849976e-03,-2.285439861094707217e-02,-2.544344733041350743e-03,6.690885424613952637e-01
-6.433187864073144913e-02,-7.656335036365640168e-01,2.155864453782135870e-01,1.291991106475820494e-01,2.083910658922005082e-02,2.776387310991176166e-02,9.056367874145507812e-01
1.558707310890780628e-02,-7.932919235256103985e-01,1.407958114959410589e-01,4.661722646639968222e-03,-8.987339900076049548e-02,7.336912164894857091e-02,9.009368419647216797e-01
-4.672002572268010856e-02,-6.288345553517848963e-01,1.357366617570573974e-01,-1.650333638327673366e-02,-1.466944877217030326e-02,-4.118025301346328083e-03,6.927279233932495117e-01
7.553568483370837194e-02,-5.916463808860992213e-01,7.858309793308865254e-02,1.251781373024077078e-07,-4.317531311247296702e-04,-1.319460811461226719e-03,6.687152981758117676e-01
7.519540890493647822e-02,-5.893365282592815113e-01,7.831519345148707512e-02,3.780717833686757061e-04,3.154384407667421002e-09,3.238109941601072288e-05,6.660976409912109375e-01
7.306215862334367039e-02,-5.909406847822114006e-01,7.121520414200224747e-02,-7.772142086320460766e-05,-2.200579866877021371e-03,-2.560443407922754523e-03,6.631070971488952637e-01
6.786146572884954598e-02,-5.901229580224145455e-01,7.547730650858036627e-02,-2.058432288569005293e-03,-6.146913014894042973e-04,-1.352798564804500803e-03,6.618398427963256836e-01
7.799547615291838043e-02,-5.828972485882979448e-01,7.266259650541267989e-02,9.187084854619962998e-04,-6.279529159230533113e-04,7.416279272222419316e-04,6.582465767860412598e-01
8.305431668103180343e-02,-5.816229860356818548e-01,6.790971213501204029e-02,1.801565629812171580e-03,-3.048346498895392834e-03,-2.536453762056683093e-03,6.572791934013366699e-01
2.131249364784287836e-03,-5.918612026762655187e-01,7.739420381165262874e-02,7.365333951069820938e-03,-3.167738263090910666e-02,5.898907835972553443e-03,6.375536918640136719e-01
8.042459079595898341e-02,-5.061405853773977004e-01,3.804436520263348998e-02,3.015824981883902592e-02,8.320477161163412211e-03,-3.221407456418055447e-05,5.691505074501037598e-01
-1.363617445838855025e-02,-6.121285671426369701e-01,1.128675039240578659e-01,2.647761237719644962e-03,-1.280044723847294404e-02,1.494285323793319775e-03,6.711386442184448242e-01
-1.727279072726686793e-02,-5.936559825277888391e-01,9.807655479367410889e-02,1.131168195616364357e-02,-5.973856959793220206e-03,6.710844098134103805e-03,6.423663496971130371e-01
1.361029523060916513e-02,-5.931955918924113336e-01,8.224080747628456645e-02,-3.617720378279087358e-03,-1.493689208587592378e-03,2.645428707274379270e-03,6.439222693443298340e-01
4.837089026849039630e-02,-6.105842579487447130e-01,8.372169297477893846e-02,6.527591392656563636e-03,-4.429434971970829665e-03,3.507705388016086126e-03,6.774878501892089844e-01
9.064067032633293941e-02,-5.755514089411906120e-01,5.459714602175841369e-02,-1.431417227918786901e-02,3.645542288133045514e-03,-7.674605194181945839e-03,6.495616436004638672e-01
8.905631758941737197e-02,-5.625101038716310287e-01,5.253364462168597093e-02,-1.646103744792413656e-02,2.719822578502318310e-03,1.635307679248229184e-03,6.347588896751403809e-01
-1.560682296899548738e-02,-7.034348518618533941e-01,1.705404213464597474e-01,-4.839940700097651442e-04,1.873206161105935019e-02,1.384292634879922147e-03,7.980316877365112305e-01
6.083009243099252172e-02,-5.719250239256179480e-01,7.187192435525682765e-02,-3.472576364485245159e-03,-4.305887394492606979e-04,-2.816951196910569277e-03,6.383950710296630859e-01
7.378642984400929361e-02,-5.169127150834602613e-01,5.896909319407381278e-02,-9.304556006427057435e-02,1.392867838210011359e-02,1.802942336624378111e-02,6.065658330917358398e-01
3.741777813420252286e-02,-5.531531106071426729e-01,7.771909331507906304e-02,2.791364419841745395e-02,1.073255715082010661e-02,-3.144600129981055953e-02,6.163185834884643555e-01
9.293079039758184168e-02,-5.589653680253936496e-01,5.038763530519221878e-02,7.300223301170863204e-03,-3.414311022559034670e-03,-7.415155379036689719e-04,6.318554282188415527e-01
6.393594117247117237e-02,-6.211263794503136815e-01,9.701897741384080120e-02,7.159995993898660149e-02,2.402865508468758626e-02,-3.101516361977978836e-02,7.162865400314331055e-01
5.414442400972227509e-02,-5.896374034935465414e-01,7.329518969971135500e-02,-4.257561421884358162e-03,2.098488723427183091e-03,6.507119722308453078e-04,6.536203622817993164e-01
7.799380155402976800e-02,-5.972043157399951063e-01,3.760789695068869620e-02,7.379342324573159688e-04,1.188335300996505063e-02,-1.193242554221437060e-02,6.565877199172973633e-01
7.496495002171804645e-02,-5.481754806836605098e-01,4.900377228795313456e-02,5.136636475362523629e-02,-7.357830546094296618e-03,-4.942791704643218625e-02,6.230632662773132324e-01
3.525775936661892929e-02,-5.865550599882467520e-01,7.509542654709336351e-02,5.042554017640065063e-03,-1.641010534708046975e-02,-4.274378980238642545e-03,6.433885097503662109e-01
5.793585395258446513e-02,-5.882180795053990607e-01,5.515983718976102956e-02,6.710781075461148479e-03,-5.512852748052055572e-03,8.174658323254171272e-03,6.451012492179870605e-01
7.326472006146997340e-02,-5.968556926843679999e-01,6.210379811397784278e-02,-8.215305767728414048e-04,1.594347306904630697e-03,4.448979702114895345e-03,6.646621823310852051e-01
4.777135095082510330e-02,-5.874851572259085497e-01,5.645906349072463137e-02,2.921228632894154291e-03,-4.434521912205219643e-03,6.533124875442834940e-03,6.398108005523681641e-01
6.074426319063372381e-02,-5.549434836353484002e-01,7.690743886339190816e-02,-3.515563636779828281e-03,-1.226785151270997449e-03,-1.687485061522824709e-02,6.246439218521118164e-01
7.253113820720399896e-02,-6.007617755817949989e-01,7.334011511389870730e-02,4.508840736861345340e-04,3.949329811960776079e-03,9.901124446725529261e-04,6.737351417541503906e-01
4.676494013446252929e-02,-5.891782412404152902e-01,8.700007017937100295e-02,-6.057259971411747823e-02,-2.819723147357702797e-02,-4.742118904237798555e-02,6.721372604370117188e-01
6.099974773936436834e-02,-5.954023663972896063e-01,7.049081097254081274e-02,-1.083683924996511894e-02,-7.668557045478563514e-04,5.658310497567289182e-03,6.615390181541442871e-01
2.478714410032856197e-02,-5.916151690205209146e-01,7.880770650169688363e-02,5.088640728006401000e-03,-8.849610440351764543e-03,7.191578358221027180e-03,6.454736590385437012e-01
3.556909147976985985e-02,-5.913542901462548462e-01,7.124557199319547784e-02,7.637196977493512090e-03,-4.007730327531672937e-03,8.829150492298336664e-03,6.458553671836853027e-01
6.812867573247069486e-02,-5.932607446699299514e-01,7.730882620984683151e-02,-9.495239431401237206e-05,4.770772178601489881e-03,-3.286277471278253176e-03,6.661025285720825195e-01
7.110081417576558094e-02,-6.015546544633856296e-01,7.792560194655259731e-02,3.051733902636873715e-03,5.481801906829254604e-03,2.265622158692418649e-04,6.761811375617980957e-01
6.570519731154603194e-02,-5.855143825103262811e-01,8.004425528415437530e-02,-2.543685591606599170e-03,4.189531558238258381e-03,-3.665389182046216768e-05,6.585609316825866699e-01
6.472647341449755398e-02,-5.831773072384525136e-01,8.166590569817852585e-02,-5.758780770925032299e-05,1.047335392674676735e-02,9.703601129511609837e-04,6.567901372909545898e-01
6.670151714921590536e-02,-5.938031084345745114e-01,8.131929050495576017e-02,-9.061360571445172939e-04,4.443701561925108429e-03,-3.496199104119617623e-03,6.680071353912353516e-01
7.206389103551066877e-02,-5.950961243102323994e-01,5.453701102108629573e-02,6.935731629915506576e-03,-2.430580245387537006e-03,6.286018087455476876e-03,6.587845087051391602e-01
7.312252493088214345e-02,-5.945525745146800212e-01,5.410504081415065669e-02,5.927624993983399322e-03,-2.671448794754146920e-03,6.618521979228906768e-03,6.585685014724731445e-01
7.082572943021542278e-02,-5.937308695382547130e-01,6.516347264353072877e-02,1.313588379354880056e-03,-4.334419221896619080e-03,-3.628002005390160503e-03,6.618199944496154785e-01
8.051546645618559706e-02,-4.864994898407555834e-01,2.929328248904161658e-02,2.137821561992381617e-02,-1.815285859422027716e-03,-5.642397307566128983e-04,5.444886088371276855e-01
7.232104756899404574e-02,-5.939246682841228253e-01,5.513548293666403755e-02,6.791560256716604876e-03,-2.214082580857081647e-03,6.161834287825847072e-03,6.580241918563842773e-01
6.518577438413653002e-02,-5.783774014320937074e-01,7.892181793374791754e-02,-2.599905887532261237e-03,1.088432938549350852e-02,1.783270211553825233e-03,6.508359909057617188e-01
1.521545853458484698e-01,-6.580553382224941794e-01,-2.686657542757375783e-02,-2.619979847192571362e-02,-7.560955358775450774e-02,-9.776991246351107723e-02,7.689802050590515137e-01
7.459276132783904112e-02,-6.521769864538352612e-01,4.174252317186416539e-02,-8.969574911182975896e-02,-5.821262844270447961e-02,-1.657996694820691452e-01,7.887772321701049805e-01
8.330994830178622967e-02,-6.847013340814516180e-01,5.447632806175828346e-03,2.336645216421354143e-02,-9.795295798329323178e-02,5.726729182198344453e-02,7.591875195503234863e-01
5.089899891568017143e-02,-6.448511750670674614e-01,2.023437323105362062e-02,2.504947311626177717e-02,-9.784136873428704584e-02,2.958753847300435447e-02,7.049121856689453125e-01
7.181829860948779620e-02,-5.798607068369899809e-01,6.712623091174124701e-02,-2.264960651700945703e-03,2.811874587367143869e-03,2.506062563678199042e-03,6.493902802467346191e-01
5.528738567841190443e-02,-4.927511177719338109e-01,5.463150664647078991e-02,-2.438679490955500059e-02,1.459932994701652886e-02,-1.970583504358918922e-02,5.509770512580871582e-01
6.800637050467461808e-02,-5.913428159044205046e-01,7.724892241710987206e-02,2.158079261336896381e-03,6.779854053356055774e-03,2.041250659169431157e-04,6.641331315040588379e-01
6.725488775167090538e-02,-5.848562805229362560e-01,7.283418965126642330e-02,-3.428651479086746519e-04,2.988080764493530276e-03,6.513391473278525197e-03,6.550365090370178223e-01
2.525772881835436356e-02,-3.189649906634821619e-01,3.374870824745512810e-02,2.959410234708128445e-02,1.020387228920813759e-02,7.630632671981098236e-02,3.766854405403137207e-01
5.937896757131982950e-02,-5.412582276214239485e-01,6.736953088724972893e-02,3.634095032566674998e-03,2.501657736365937423e-03,2.005826506858308933e-02,6.057175397872924805e-01
6.603024342864108331e-02,-5.725426744946656710e-01,7.635459502220443007e-02,-2.144486115712558941e-02,-3.961950972851189037e-03,2.380816538453894501e-02,6.462213397026062012e-01
2.351606238449114317e-01,-7.530868658818067329e-01,-6.971413541071491693e-02,5.339179988218836770e-02,1.412012447082358971e-02,-3.389847678728515751e-02,8.836783766746520996e-01
7.325105104664611511e-02,-5.823433534837202386e-01,6.695993271896233390e-02,1.026061366161536322e-02,2.293929467979080074e-03,3.783893608389018396e-03,6.527585983276367188e-01
6.907514093908620478e-02,-4.872197670179834184e-01,4.640490250162204733e-02,4.374810341466907337e-02,9.852748575221044122e-03,3.156607886411968295e-02,5.535239577293395996e-01
5.277691085313371278e-02,-6.174101337430063507e-01,9.818400440966640330e-02,5.044262720800777450e-02,-1.591708617039540308e-02,1.056777957900530314e-02,7.002658247947692871e-01
9.136350008594673611e-02,-5.484451699754273601e-01,4.922362267725155505e-02,7.065284129020394863e-03,-3.309461965852606748e-03,-3.192294471621854018e-03,6.199859976768493652e-01
6.141802132768633959e-02,-4.519157572216416785e-01,3.659535591294646450e-02,4.850643530019937283e-02,2.609816253681980849e-03,5.353877095397970715e-03,5.084785819053649902e-01
4.670508973408171727e-02,-5.895339536688577464e-01,8.893274415356886009e-02,-3.626774471245204461e-03,-1.959296105813293151e-03,-3.916291844181000840e-03,6.584429740905761719e-01
6.463308542900617071e-02,-5.357178398593828161e-01,6.845588763391011189e-02,8.899268061609647007e-02,1.649344189772185667e-03,7.342096723221521078e-03,6.218197941780090332e-01
-2.290814547625512343e-02,-5.179744033568831618e-01,9.768512682653068824e-02,5.409256164393129451e-02,-2.318985791865919507e-02,9.214907711256709391e-03,5.744397640228271484e-01
6.832996715890132799e-02,-5.113460258031374828e-01,4.617422267499551869e-02,2.208977412093657972e-02,2.089344763673029598e-02,2.217624832107154345e-02,5.726436972618103027e-01
5.808739079342500888e-02,-5.861685646396297411e-01,7.352391693211232648e-02,-2.290710149326015410e-02,2.033002574107210022e-03,-4.444551684405530223e-03,6.533719897270202637e-01
7.413101143049408148e-02,-5.720899319701578944e-01,7.040771926385938628e-02,-3.819041404120421257e-02,-3.903333667464652709e-03,1.680519946619895080e-02,6.484425663948059082e-01
-1.703576763937068861e-02,-4.590950613532728264e-01,8.006910511970150024e-02,-8.727296436197351515e-02,3.756694199775498927e-02,3.276465917540812706e-02,5.273290872573852539e-01
4.524624308806984851e-02,-5.449854062987748993e-01,9.176265512453887774e-02,-2.931590331300554676e-03,-1.396767442461456944e-03,1.290423719729805879e-02,6.152428984642028809e-01
4.555369579082535481e-02,-5.387997983700563154e-01,8.602110127946108187e-02,-7.535809277913911586e-03,-6.423587586351783667e-03,8.935797678710884900e-03,6.060425639152526855e-01
5.277655954145463180e-02,-5.689276972391558163e-01,9.394873407588114067e-02,-3.647189088140888585e-03,-1.373616179263237314e-03,1.256725324785959441e-02,6.436828374862670898e-01
4.952932322833461520e-02,-5.545709238130405172e-01,9.522947716258892137e-02,2.391239957484914136e-03,1.636063024203199441e-03,9.674152979289793453e-03,6.284417510032653809e-01
8.555364972323176165e-03,-6.672812549635445123e-01,1.230461232437762287e-01,-1.456054394523065010e-01,6.509972119333160001e-02,3.664085135944923632e-02,7.922024726867675781e-01
5.690470772327094195e-04,-6.965112706668961096e-01,1.257218596095256991e-01,1.141805003168118796e-02,4.543605857598091019e-02,1.626710956602250846e-02,7.721424698829650879e-01
6.398247384954691697e-02,-6.016664745578437223e-01,3.227430497618702376e-02,1.215204748367975859e-02,4.782814701457679257e-02,-6.811037439696882891e-03,6.560733318328857422e-01
-1.332545042065225172e-02,-6.099659620825530482e-01,1.082341674180388735e-01,1.106609193759021913e-02,1.885080966013500184e-02,-8.288097900408276930e-03,6.670259237289428711e-01
1.320038813908511188e-02,-6.149560144776908821e-01,9.148970281008278471e-02,1.274860676613010814e-02,1.055564411501776385e-02,-4.798569375074293489e-04,6.713495254516601562e-01
1.056729236553560769e-02,-6.769194081900370419e-01,1.370968158983884577e-01,4.402218463908706865e-03,3.498744325827534557e-02,-2.592516173789297454e-02,7.624840140342712402e-01
7.680960108556084132e-02,-5.972044517618039228e-01,5.112093715284138362e-02,4.605519725862964979e-03,1.632074943155749532e-03,-4.959833208178466082e-03,6.616538166999816895e-01
8.811835250296223832e-02,-5.993356263220048774e-01,2.413656212192435979e-02,8.236397462577467118e-03,-5.024635405461361053e-03,1.216327467133744220e-02,6.583503484725952148e-01
7.535286703278781806e-02,-6.435284393378409851e-01,8.077462536322085884e-02,-5.018747985642352943e-02,-2.805900859001001293e-02,-2.482931535222563865e-02,7.297157645225524902e-01
6.510122349349875548e-02,-5.722062113536273698e-01,7.364264565472600221e-02,5.303398710823004807e-04,4.203474142470545356e-03,-6.907558692461341146e-03,6.417742967605590820e-01
8.292540631643915972e-02,-5.924387639777675130e-01,3.126522251298730071e-02,-1.158383992768280760e-02,-1.973319638626529898e-02,-1.007149271591128298e-02,6.525114178657531738e-01
1.132232819206369645e-01,-5.933888774750603057e-01,-2.417382344389423787e-02,-6.216793807718066882e-03,-1.488422805062095122e-02,-1.935076594830949020e-03,6.495260000228881836e-01
9.030156208679640528e-02,-6.500766572685201528e-01,5.241353553330896364e-02,-2.910311076051136370e-02,2.030744831122885397e-02,1.125653395178958724e-02,7.250532507896423340e-01
5.925112733614035232e-02,-5.838647242176052687e-01,5.520922167571334915e-02,-1.626055152835371260e-03,5.946555626563203301e-04,-1.414366750348090211e-04,6.411114931106567383e-01
7.448049417516214299e-02,-5.878501911175598726e-01,-6.574791937777518802e-03,5.460292175663996640e-03,-5.243658300788279353e-02,8.602246086714438605e-03,6.325557231903076172e-01
6.353556382724784291e-02,-5.838377661862803603e-01,5.459173162019206882e-02,-3.034449767646130516e-03,-2.046704840552235772e-03,-4.327021547953583888e-03,6.430230140686035156e-01
5.342020840476208177e-02,-6.570907040895501705e-01,2.846298796116739083e-02,5.216788335713724856e-02,-1.057129787585741332e-01,7.425338291500260812e-02,7.388823628425598145e-01
1.181592707703247869e-01,-6.558590876707015571e-01,1.195695461048429387e-02,-2.425482967043364121e-02,-1.037664829636266578e-01,6.063393054941732668e-02,7.571509480476379395e-01
7.583208502634994352e-02,-5.082921932703858836e-01,-2.548421770203140868e-02,9.809324903639619897e-02,-8.523992188503597134e-02,1.144828343698063022e-01,6.182784438133239746e-01
-3.700692358226499723e-02,-2.255327928848378238e-01,1.888195773838290126e-02,1.450685194707309333e-01,2.327652031238328437e-02,-7.217241219659221996e-02,3.599842488765716553e-01
5.618377461585610799e-03,-2.002947432747737844e-01,-5.616763546914649297e-03,1.091272958679466998e-01,2.773746438148527033e-02,-2.225813196547978337e-02,2.823714911937713623e-01
6.369271294043701848e-02,-4.658832957833879962e-01,3.418264684846300527e-02,2.760484154348771466e-02,-8.455720028629640228e-03,-4.666473403197579466e-03,5.179378986358642578e-01
5.463367891922327191e-02,-5.627000615259315497e-01,8.976910083848718691e-02,-3.285060784573158126e-06,-6.068550489876485543e-03,-7.677802941808544411e-03,6.358561515808105469e-01
5.424129178766060044e-02,-5.197490350669582426e-01,6.004969115162658855e-02,-2.839273689199850632e-04,1.844317324323422116e-02,-1.069596308666030671e-02,5.780972838401794434e-01
8.918459729256125734e-02,-5.372659610954275688e-01,4.269703993732168468e-02,-1.211622918374025273e-04,-3.797037227202684686e-03,-2.642685205865508320e-03,6.046019196510314941e-01
5.984474077033186123e-02,-4.338617397180455360e-01,2.993978815090772572e-02,3.253058937267628431e-02,-8.619227299219218985e-03,-7.510052945336491946e-03,4.831593036651611328e-01
1.314898358121319166e-02,-3.669057859712017700e-01,6.414965336722563971e-02,9.853373514864498250e-02,7.142035553036221729e-02,-6.873969694968339039e-02,4.743737578392028809e-01
-8.564360847391150333e-03,-2.853381011463647088e-01,-2.260988365630517416e-03,5.910841441564387844e-02,5.336930014350202423e-02,-1.272912740351850314e-01,3.821302354335784912e-01
-2.155975595304102099e-02,-5.578180249562390003e-01,8.552842063393661931e-02,-1.607668954160184072e-01,-7.553417781070718984e-02,6.931387247080500165e-04,6.716572046279907227e-01
7.308848507796267269e-02,-9.420349147529332168e-01,1.446493144452540847e-01,-9.829429268359214655e-02,-1.049173982488959822e-01,-1.004517878993034935e-01,1.095682263374328613e+00
-2.074447811935775654e-03,-5.227296801697582929e-01,5.997304182886778467e-02,-4.633591565969212567e-02,-6.403576522908273339e-02,-6.178115752381180270e-02,5.808877944946289062e-01
5.652275654831753759e-02,-6.511919355791089270e-01,1.126631366738989892e-01,-3.210081629601761743e-02,1.057096883113786516e-02,-1.633474917218298225e-02,7.402501702308654785e-01
-4.004480026274688520e-02,-5.836312970918020593e-01,1.666054738213050279e-01,-3.056923216419308101e-02,-2.908028594631614089e-02,-1.152271206326400954e-01,7.040562629699707031e-01
1.495320228843161070e-02,-6.290721780829229282e-01,1.043485036042891556e-01,-5.088372690047746234e-03,-3.981763809993729697e-02,2.301589423984645374e-02,6.976792216300964355e-01
4.160404628874031507e-02,-7.074455186669359463e-01,8.044076728251459141e-02,2.212886213519039968e-03,-7.952320338230765839e-02,-7.459017138632122179e-02,7.920554280281066895e-01
-9.185822729962100919e-04,-6.840147565057547174e-01,1.182409682225211145e-01,-1.381015728420276478e-01,-7.959991543962553762e-02,-5.146867188134122278e-02,8.039828538894653320e-01
2.499162150168113272e-03,-3.344172080524139279e-01,3.751500073816599334e-02,-1.455434591832431290e-01,-2.790273932393537784e-02,-1.852561261559389216e-02,4.398296773433685303e-01
7.281645843080089553e-02,-4.737148669285928815e-01,3.905801229683622533e-02,6.862796657918943111e-02,1.237179621561952485e-02,-5.771306448067894251e-02,5.531429052352905273e-01
5.776400636223830154e-02,-4.642616416984788885e-01,4.646936183322014635e-02,2.887109218118304871e-02,-1.235830710499457794e-02,-1.565066092169848169e-02,5.200344920158386230e-01
7.327523368074889687e-02,-5.502191825103411871e-01,6.466828561874163328e-02,9.624752473400676606e-03,-1.082021555059907089e-02,-5.451913322447651117e-03,6.198155283927917480e-01
7.370180006422963337e-02,-5.892610545691259194e-01,7.267079976507681560e-02,-3.550476287311561587e-04,-1.730652789894362433e-03,-1.945202641961484230e-03,6.624636054039001465e-01
7.998758126288485482e-02,-4.929394584736550011e-01,3.742525913588404252e-02,2.214892465657674822e-02,-2.804027644512211564e-03,-1.550062765102092847e-03,5.542331337928771973e-01
9.057870618658309114e-02,-5.679069504337392882e-01,5.602150798070540394e-02,-1.040838232264082409e-03,-5.587057979843981217e-04,-2.563799464575347662e-03,6.419237256050109863e-01
9.167040665331535609e-02,-5.616238615225968012e-01,5.374265435767530685e-02,8.881236238695995946e-03,-6.287877746721268028e-03,-4.481341612746748970e-03,6.355072259902954102e-01
8.620989563624217866e-02,-5.714147415973265254e-01,6.311582446362684617e-02,2.729780775006574768e-03,-2.145227756025913732e-03,-4.026474372080666130e-03,6.464526653289794922e-01
5.169379787454450592e-02,-6.430919956407088467e-01,1.004302860469290515e-01,-4.765466140669231965e-02,-1.335166448331938198e-02,1.722523933899802002e-03,7.254795432090759277e-01
5.677251311194631000e-02,-6.014279830287440065e-01,5.572564255921386156e-02,1.922823804614936030e-02,-3.094593462215719515e-02,6.385292553919673895e-03,6.607907414436340332e-01
4.719339099007160976e-02,-6.041011229919280856e-01,9.300995162386627158e-02,-3.863960248380225032e-02,2.545380942130824175e-03,-2.297691093169999810e-02,6.798573732376098633e-01
4.482046319537436041e-02,-6.035744341881907893e-01,7.150101459524146885e-02,-1.008945438813708267e-02,3.699082498647876527e-02,-1.386817677275752883e-03,6.654648184776306152e-01
1.874604553628608783e-02,-5.971069330272545939e-01,9.173638824655744317e-02,6.265914591870586428e-03,-6.020504957680285207e-03,5.260826245317404108e-03,6.556396484375000000e-01
2.583378943869293898e-02,-5.896154411464169520e-01,7.367952726367030247e-02,1.398736724206186589e-02,-5.097433605223556340e-03,9.299581097928937001e-03,6.414342522621154785e-01
7.347288459062795152e-02,-5.716325401272170925e-01,6.733871844631275638e-02,-2.091963439968009750e-02,1.299455209808168636e-02,-3.130733361651878710e-03,6.434984803199768066e-01
7.734002980810772421e-02,-5.729885791705906506e-01,5.888010921219688498e-02,-5.176232176242903313e-03,1.188014167129593625e-03,-8.875995413985898969e-04,6.413657665252685547e-01
4.906373251105017319e-02,-4.629552876810427153e-01,4.706972066061168580e-02,-4.498387451296639861e-02,1.516726289010611982e-02,-4.828560124945988075e-02,5.243107676506042480e-01
1.426958638002528978e-02,-5.575442187591962417e-01,5.717572725587119487e-02,5.031257719924828176e-02,-9.213528542900453755e-02,8.797411894964163315e-02,6.400198340415954590e-01
5.301293239315599259e-02,-5.862183891007461956e-01,3.076094494379311151e-02,-1.435639871722406338e-03,-3.026999022838583811e-02,-2.576473131349645701e-03,6.306049227714538574e-01
-2.583383475836928400e-02,-6.280569971790215256e-01,1.205184904163844606e-01,1.877796012939310921e-01,-1.010899634261287483e-01,-4.089612679773941412e-02,7.833818197250366211e-01
-1.462016626850493051e-02,-5.365530496444068653e-01,7.542841860801674514e-02,6.361365666308710365e-02,-6.463663793129385826e-02,3.481612539685716157e-02,5.965167880058288574e-01
6.617279113423149561e-02,-5.897862873725814303e-01,6.984471928864155466e-02,-2.257232020915836412e-03,1.712891313278140431e-03,7.156482464761109406e-04,6.578221917152404785e-01
4.040003348629345181e-02,-5.847171434552564939e-01,4.948589999305366693e-02,-8.951846947946888369e-04,-2.988961875494111284e-02,3.486839782411617523e-03,6.318645477294921875e-01
7.123894529604754555e-02,-5.847895639071032381e-01,6.663198926481919693e-02,-4.422231943800572951e-04,8.392661034108333607e-04,-6.780427489221181256e-03,6.538447737693786621e-01
3.650830393455153922e-02,-5.875730083897234834e-01,7.073904920750609393e-02,-8.494965864321114835e-03,-4.239813874291434651e-03,-6.962099730614900416e-03,6.422054171562194824e-01
7.346941481929905593e-02,-5.866742368316852918e-01,4.347803263426003317e-02,-9.204461156876772576e-03,-2.144518111427046528e-02,1.841286101166813433e-02,6.477202177047729492e-01
3.691358284652118682e-02,-5.804858867056171823e-01,5.522691753103320389e-02,-1.389589960321897300e-05,-2.163112857191236069e-02,6.368473009570759479e-03,6.279725432395935059e-01
2.002048714129534002e-02,-5.903655386986660369e-01,8.132781748226119989e-02,1.468399796043462144e-02,-2.893318591109528964e-02,1.532239273034689602e-03,6.456904411315917969e-01
5.815469476492801659e-02,-5.880416305085073292e-01,3.910945147951269685e-02,-6.160110704590579349e-04,-1.993603309319436773e-02,-1.599938170664355879e-03,6.378296017646789551e-01
6.581041103818544014e-02,-5.491743382067695300e-01,6.333056391645353056e-02,-5.356277363303604648e-03,-4.741935674046451107e-04,2.179048948914810019e-02,6.149784922599792480e-01
7.433728323469881993e-02,-5.844613227152715140e-01,5.414837246323084274e-02,-3.928772832397458658e-04,2.135690080174949129e-03,-4.005053705611115282e-03,6.489877104759216309e-01
-6.323630887589554161e-02,-6.727385551716287271e-01,1.535159008994085861e-01,5.115488301142023277e-03,4.765736522944606646e-02,-2.667998225136907278e-02,7.480729222297668457e-01
-2.975621016818244535e-02,-6.291363876652104059e-01,1.522024195368724131e-01,6.340792592126059946e-02,2.045115814689528466e-02,-9.145952238360840342e-03,7.176317572593688965e-01
5.086336633603361079e-02,-5.860279285302301133e-01,4.099281309133143147e-02,-5.053768277847739757e-03,2.203325260694122961e-02,2.024507536465424643e-03,6.332351565361022949e-01
2.557744381039245285e-02,-6.095774654880279364e-01,1.021135238736877726e-01,2.128162705231173915e-02,3.459988592110278816e-02,-1.144449825438738876e-02,6.806136369705200195e-01
-2.498692493743016885e-02,-3.522443525447083168e-01,4.739844792794881134e-02,1.872539322256071836e-01,3.936031631490432420e-02,-5.465190400747831079e-02,5.048029422760009766e-01
4.524988427507473099e-02,-5.826346932281549762e-01,8.105049997958418961e-02,-1.577729076802325721e-03,5.953132279869878009e-03,-8.565613158038725902e-03,6.467868685722351074e-01
4.014565398286171205e-02,-5.948386086076473678e-01,8.434001145032127278e-02,1.277865739540662640e-02,6.295534734626933270e-03,-9.304632511409694287e-03,6.588546037673950195e-01
6.331977767211194319e-02,-5.845323599217784327e-01,6.802916723145555067e-02,-1.050999642742725740e-03,3.318893595851742789e-03,-1.735602433734049262e-03,6.502545475959777832e-01
2.778608626205700260e-03,-3.975765788314259419e-01,3.567598426180623727e-02,1.598987063784862717e-01,6.780884215071988907e-02,-1.516576831715508999e-01,5.779569149017333984e-01
6.691009615260584686e-02,-5.740513165284226726e-01,7.619260132985167244e-02,2.228912147097465279e-03,-5.705644893151827837e-03,-1.458073559027460789e-02,6.462335586547851562e-01
7.338245442604507396e-02,-5.923243024626998476e-01,5.402750015743293388e-02,4.550624045854533028e-04,1.008953078401371960e-02,-4.612198885190391985e-03,6.565250754356384277e-01
9.934312170435999345e-02,-5.986049529558914450e-01,1.431920335593325766e-02,-1.036393274143808559e-02,1.817665249406775693e-02,5.896119955395275058e-03,6.606330275535583496e-01
2.583488588495183591e-02,-5.971626955068145559e-01,8.170425203234010780e-02,1.929627312144993828e-03,5.695697817347295314e-03,-8.081766889557343361e-03,6.529611945152282715e-01
7.327134199667539871e-02,-5.835792470434344459e-01,5.765270020286258901e-02,-7.856018557435617833e-03,-8.694413844017301590e-04,2.912111887678706448e-02,6.512826085090637207e-01
7.966601823621552447e-02,-6.061172385232338478e-01,5.747542604901381691e-02,-1.918200382324216149e-02,2.097306161292026780e-03,1.044250991520141204e-02,6.760305762290954590e-01
3.448755685980836594e-02,-4.467426539047114620e-01,5.748744752720783002e-02,-5.171289021101770772e-02,-1.157073277391938021e-02,5.914603792273526173e-02,5.119558572769165039e-01
6.361880137994038731e-02,-4.996182827844063978e-01,5.972870057443402381e-02,-3.994778980072605928e-02,-1.071026133826829749e-02,1.811968406821203720e-02,5.667245388031005859e-01
7.553738699018061609e-02,-5.930968098336617533e-01,5.489783921755567175e-02,-5.573802076690288033e-05,1.424400796349491270e-03,-6.850179192866784686e-03,6.586685180664062500e-01
-2.500616757328960604e-02,-5.993302755358766998e-01,1.107266268182960922e-01,1.097743041104953104e-01,-7.512414427686096852e-02,1.596383960895318005e-02,6.928728818893432617e-01
-4.263446678700404113e-02,-6.190781948287662484e-01,1.608667834532753194e-01,1.332845701125221216e-01,-7.412180898113343575e-02,5.613689908780969406e-02,7.551408410072326660e-01
8.200434089084288058e-02,-5.374492983775984722e-01,3.564792810013983626e-03,-9.210162540175146836e-03,-4.433866148514799266e-02,5.195509597297526261e-02,5.962685346603393555e-01
9.992967492502830007e-02,-6.030769923599379467e-01,1.266443153120391796e-02,-7.916807198450392935e-03,-4.550905174508905644e-03,-9.301270377516645052e-03,6.640747189521789551e-01
7.762936159690339566e-02,-6.431693032228675833e-01,5.519264473135271354e-02,7.224327802297819678e-02,-2.860628148978008184e-02,4.499856277833773344e-02,7.266833186149597168e-01
6.798960651016106027e-02,-5.471019795331905078e-01,4.275513327820396059e-02,3.262835025027979036e-02,-1.598267458796885990e-02,5.217642645044671262e-02,6.128460168838500977e-01
7.785709106365923393e-02,-6.592230617166089379e-01,1.364812173093418735e-02,9.833494282982929973e-04,-8.689638302470048536e-02,4.368802351689902649e-03,7.230462431907653809e-01
9.168536427415585610e-02,-5.743306830686056852e-01,2.502473043338934722e-02,1.531459050008384948e-01,-1.046841051381467158e-01,3.621217450731046422e-02,7.146993875503540039e-01
1.081387090148565044e-01,-8.641194468373226689e-01,5.486989300891814691e-02,3.649619929396727414e-02,-9.131894594429208756e-02,8.335074510104721612e-02,9.727218747138977051e-01
5.857089166036216765e-02,-5.812323342557481620e-01,4.526311848814928984e-02,-2.026805387852362219e-03,-1.282399253669124113e-02,7.871806365079291089e-04,6.336548328399658203e-01
8.898575199745989428e-02,-5.980142006022992618e-01,3.610751795486832894e-02,-1.111786858738433512e-02,1.866386594097782167e-02,-1.280637705399490477e-02,6.635853648185729980e-01
6.996967288999453305e-02,-5.858065256586146852e-01,2.502360886658222539e-02,8.286775312430102970e-04,1.363928092864240445e-02,6.766215964844411301e-04,6.349405646324157715e-01
9.416024033649028624e-02,-6.074178428835690369e-01,1.996249366349026055e-02,-9.513495025743718206e-03,1.573881840287138720e-02,4.471464983678802990e-03,6.683833003044128418e-01
1.052325535983856253e-01,-6.084342727015170649e-01,-2.705036579001673935e-03,-6.563692707241363875e-03,4.854419452030587015e-03,8.256339250328958643e-03,6.665912270545959473e-01
2.291253070125308655e-01,-8.313601920934492462e-01,-3.100124224574626886e-02,-7.622502342544530685e-02,2.258657769161856108e-02,-9.310288257509061194e-02,9.805103540420532227e-01
9.155911401784699866e-02,-5.991885882661303064e-01,2.242627060648275106e-02,-7.992926587821698459e-03,1.381415368407594262e-02,-6.325036959037664414e-03,6.595775485038757324e-01
-7.303227359294908738e-03,-2.452362221206283166e-01,1.107770192209242555e-02,2.029287107489911521e-02,-8.776330660370779482e-03,-3.732951462778642121e-02,2.587862908840179443e-01
6.930765025800345036e-02,-5.951041328903028393e-01,7.118550616712482348e-02,-8.172207231220628490e-03,-2.694326049888862498e-03,5.629379817638665000e-04,6.655203104019165039e-01
6.437306685512386717e-02,-5.799235202467443173e-01,6.885099461288893274e-02,-6.003262267986859795e-03,3.031214212745483080e-03,2.193479839897360343e-03,6.466632485389709473e-01
5.297909022999094941e-02,-4.314722435489744545e-01,2.015114156585073868e-02,-6.054734118566823531e-02,2.364299576219188511e-03,4.243121693863921053e-03,4.805579483509063721e-01
4.756177860126772905e-02,-4.961420497596854551e-01,6.221057977428356978e-02,-1.238586262713850181e-02,1.125885971829426735e-02,2.656710220267245043e-03,5.519554018974304199e-01
9.928775447473819904e-02,-6.550877225082823996e-01,4.091912408175213400e-02,4.461136626289944479e-03,-3.977929219904202673e-02,-1.319441870990619402e-02,7.306069731712341309e-01
4.841280176199019847e-02,-5.095926869510023494e-01,6.876773104233036005e-02,-1.207055250898960395e-02,1.155541416066537680e-02,-1.529614851846462439e-02,5.698089003562927246e-01
3.842943139407548059e-02,-5.564347594749452508e-01,9.156793105036378777e-02,-2.389582744314536905e-02,1.091356491402885103e-03,-1.196491855842673861e-02,6.248546838760375977e-01
6.056284574974166168e-02,-5.352849744977139501e-01,6.781747562152892761e-02,-1.243119419094616818e-02,7.149406839616144482e-03,-3.883715083601218653e-03,6.000601053237915039e-01
1.142512304066909401e-01,-6.248415062311302171e-01,4.846826673035431465e-02,-1.033185380565758643e-03,8.566456582967908392e-03,5.589744450561224404e-03,7.087191343307495117e-01
1.013302940632098692e-01,-5.827228236209656131e-01,3.751899657257362630e-02,3.703675909496056181e-03,2.287128316648150486e-02,-1.193907097910116982e-01,6.875486373901367188e-01
6.142398010319347068e-02,-5.791918228432046956e-01,8.340866915276037852e-02,1.365507095716204022e-03,7.281213250600950503e-03,-4.523250024336877492e-03,6.520595550537109375e-01
6.465883076755818415e-02,-5.833807759995945919e-01,8.267466308668533492e-02,-1.199281010703988652e-03,5.992004982132289118e-03,-6.527825724049272048e-03,6.574152112007141113e-01
1.019125436009449270e-01,-6.848522040051664428e-01,5.307527800786346339e-02,2.252619931405377626e-02,-2.827492045366111068e-02,-1.555487807469919936e-02,7.665552496910095215e-01
2.266636455393512550e-01,-9.099189545792090161e-01,5.325160613299795287e-04,-4.211239902559298781e-02,1.956359104287986803e-02,-4.610372896460556563e-02,1.048228859901428223e+00
1.869260583839004175e-01,-6.795640704739370763e-01,-8.541433210379852092e-02,9.935137622837611482e-03,-1.942271401878126191e-02,6.274225189686458148e-02,7.760359644889831543e-01
6.536152869861841519e-02,-5.796497150469668291e-01,8.203631492735410924e-02,-1.685102701322548167e-03,-1.731095019834648016e-03,-1.054296616198006822e-03,6.535241603851318359e-01
1.300525958734289889e-01,-6.024595849122429403e-01,-3.261416789566978780e-02,-3.420883348910288245e-03,7.746395388538469297e-03,-2.574585720643581595e-03,6.664189100265502930e-01
7.077912995340129854e-02,-5.860454169785780376e-01,7.074496050712292261e-02,-3.299964181435866614e-03,-1.295809334637827682e-04,1.188144012011879691e-03,6.568356156349182129e-01
8.958952429836092302e-02,-5.961660911513806393e-01,2.298397667722268389e-02,-5.427921009671040492e-03,5.541663625265844800e-03,-1.131405677695611171e-02,6.554284691810607910e-01
4.472185123811264762e-02,-5.543085185211062971e-01,7.949392659336185218e-02,-2.691406922589105466e-02,1.947424541090450774e-03,-1.253185144551065278e-02,6.192992925643920898e-01
9.648725130103702474e-02,-6.570202798263595767e-01,1.056854389403177885e-02,4.612213903097794887e-03,-7.997650807505919668e-02,1.950471375371677640e-02,7.285664677619934082e-01
1.080925627981864090e-01,-6.923546784402961896e-01,6.435342217129413900e-02,-2.363767015574188071e-02,-2.498872193907944461e-02,-3.208947027599431262e-02,7.837453484535217285e-01
8.173719389234035404e-02,-6.267826001126083346e-01,3.231250027067078534e-02,-8.200002609483036942e-02,-9.830029299952824928e-02,-2.014078784117005055e-02,7.209733128547668457e-01
7.422197185107631823e-02,-5.254647326652346351e-01,-3.491013075550736255e-02,-5.622859630121003482e-02,-7.964681048376806571e-02,-9.212211276668694215e-02,6.000534296035766602e-01
1.404084738374737906e-01,-7.861520692805340493e-01,4.331290595969400359e-03,-3.683198476657594672e-02,-8.420087399568038089e-02,-1.025748897873314247e-01,8.988056778907775879e-01
-3.111730659756892226e-02,-5.968235678642921371e-01,8.519519623147464582e-02,-1.314876849878709175e-01,-8.654346283508988769e-02,-5.181387233770740758e-02,6.940758228302001953e-01
1.145651242825135308e-01,-7.572758748265736584e-01,5.104014642382470601e-03,1.230332467211672498e-01,-1.138482062614098733e-01,1.288263721875037085e-02,8.726106882095336914e-01
1.533832631190333862e-01,-8.030466968517229187e-01,5.170275592542045162e-03,-4.474439325522616001e-02,-1.061703337320432511e-01,-1.821053530395430609e-02,9.142141342163085938e-01
-7.034672335314606784e-02,-7.644240884658797253e-01,2.225794290160036382e-01,4.956260846372883763e-03,2.260387700019890825e-02,8.324108456521430235e-03,8.790203928947448730e-01
1.568683705352114099e-02,-5.903910591345264969e-01,5.680869288815398876e-02,-1.640355605018391574e-02,-6.087987923159630943e-02,-6.535077670111530748e-03,6.371804475784301758e-01
2.307160904932029077e-02,-9.009944857687723907e-01,2.318779863411157272e-01,-1.762617493101600596e-01,7.216300791973838391e-02,-2.449926882320673308e-02,1.095936536788940430e+00
8.375317385238692514e-02,-5.874675906759541100e-01,6.561312835225471818e-02,-3.882273706532885470e-03,1.730774260996290797e-03,-1.361102762567840572e-03,6.623821854591369629e-01
8.803706867355015619e-03,-6.771224003196789631e-01,1.363532781420169204e-01,6.181656248725998781e-03,2.626644711813624217e-02,-1.537046460501296369e-02,7.597014307975769043e-01
-2.013593321988818574e-02,-6.162958589728968484e-01,1.312099926820274320e-01,-1.414108992365955587e-02,2.807952137670795267e-02,-1.754265465318207567e-02,6.873333454132080078e-01
-3.185586642544868674e-03,-6.307594327094092623e-01,9.898648286143940656e-02,2.467967815469444826e-02,3.748770018160161449e-02,-6.746911029054206491e-03,6.889037489891052246e-01
2.177607482338705935e-02,-6.162562777055848873e-01,9.551077258068413345e-02,2.036518650959293596e-03,5.122547121172037893e-02,3.195996727960959301e-03,6.837269067764282227e-01
1.143715773886627707e-01,-6.026847173103691002e-01,4.961221530472961772e-02,2.877411089885657455e-02,1.311871687505186679e-01,-1.434465436053412035e-01,7.666630148887634277e-01
9.745846487834977645e-02,-5.798305860931179945e-01,3.775410124005232348e-02,3.875545226830658108e-02,1.068636228773234970e-01,-1.961149450045160114e-01,7.589443922042846680e-01
1.252612811384708202e-02,-2.865743392522628330e-01,4.555700339824025891e-04,1.058055521344463401e-01,3.583449893653498086e-02,-1.502911458787525578e-01,4.372591376304626465e-01
6.371964774264629594e-02,-5.164464836980822149e-01,6.390021757844244199e-02,3.328631499711801750e-02,-9.117041489199067313e-04,-8.041478791808452653e-02,5.995194315910339355e-01
1.351039712379568103e-01,-4.043304694400386423e-01,2.164104699123496622e-02,-2.404719696035128793e-02,3.963256098394957877e-02,-1.569474979624917998e-01,5.683327317237854004e-01
1.292021210385166929e-01,-6.132623799512061380e-01,-1.289258072945831390e-03,-1.225434044904160844e-02,1.555622284339898409e-03,3.996930773889095789e-02,6.903960704803466797e-01
7.356578022150658813e-02,-6.023221681094558244e-01,7.132177727161650993e-02,1.149879829980144914e-04,1.283379313792221013e-03,-1.369311902101033314e-04,6.747725009918212891e-01
7.361048728657498819e-02,-6.022925443739035600e-01,7.227857234206794268e-02,-4.040871275382868660e-04,1.272534509153940225e-03,1.593315062334702817e-03,6.752476692199707031e-01
7.667610465320467972e-02,-5.974197850030480428e-01,6.978162533526932609e-02,2.328123899894967439e-04,3.417910892846616651e-03,2.870091662511793434e-04,6.707016825675964355e-01
5.106685612521369433e-02,-5.859689943877617324e-01,4.869921471622307152e-02,2.757789578264532252e-03,-4.630125915452715062e-03,3.119533045258174233e-03,6.359468102455139160e-01
6.984887364308714486e-02,-5.726186964473432006e-01,6.778988920252940198e-02,-7.577851025844002317e-03,8.461807074750610225e-03,-1.326620182419571345e-03,6.417463421821594238e-01
5.674319322126644694e-02,-5.941303098470473998e-01,6.197044314344518634e-02,3.375970824041147223e-03,-4.703121523745506377e-03,2.241817299294458256e-03,6.535912752151489258e-01
7.244523961121060451e-02,-5.966351178190956173e-01,7.054425988992912844e-02,8.394328019330279944e-04,3.799072105617172686e-03,1.845830960521091014e-04,6.681659817695617676e-01
7.171434292579637049e-02,-5.993935042246145706e-01,7.387048129899775883e-02,2.878856857176885845e-03,1.907572958835151208e-03,1.050203753471715346e-03,6.722176074981689453e-01
6.143518053495317099e-02,-5.609771068594919807e-01,7.659171016194551984e-02,6.813620746251167030e-03,-1.561815665656324931e-02,-1.127959945858989996e-02,6.311205625534057617e-01
3.123653845097656978e-02,-6.078039653796891706e-01,6.524507249102046158e-02,6.639526229771866572e-02,9.135064108279515593e-02,-1.360132120041954995e-01,7.245831489562988281e-01
5.936843546912198843e-02,-5.917050679356602449e-01,3.729172789383344844e-02,1.924388742347195997e-04,3.557495578576314044e-02,-1.427554344096508164e-03,6.432833671569824219e-01
5.172361684448520402e-02,-5.821994149525520079e-01,5.370136301612038476e-02,-1.222277235743403226e-03,7.832420925564743865e-04,-6.231298233905518567e-04,6.349201202392578125e-01
5.540940528627205652e-02,-5.878781382920980070e-01,5.632992852072399304e-02,-3.587958982338119301e-03,1.151081423047421379e-02,-5.969042007761824527e-04,6.440877914428710938e-01
3.977414879347052068e-02,-5.977645004509412052e-01,6.995553591156367101e-02,3.030657228451382346e-03,2.366148857878989584e-02,1.550714942747935402e-03,6.544635891914367676e-01
6.795096971569339339e-02,-5.750994232213356705e-01,7.711840786966250860e-02,5.434029436467673058e-02,9.016975715733626870e-03,-6.513490103024571765e-02,6.643216013908386230e-01
1.792355205942618435e-01,-9.538658756579496689e-01,8.481530991712860068e-02,-4.738608215705981952e-02,1.288241175514138470e-01,-3.949082175321400739e-02,1.116713047027587891e+00
1.368124216334699050e-01,-6.458039352951610024e-01,-2.497218785038951561e-02,-2.309388468163087182e-02,2.775901409785673860e-02,7.878964682822001131e-02,7.311514616012573242e-01
1.987219405169134978e-01,-9.563046017982664848e-01,3.197703259424422573e-02,4.428141888499054213e-02,7.447798515367064220e-02,-5.519880091144113710e-02,1.095883011817932129e+00
8.183824923735080747e-02,-5.859086787297673737e-01,5.730959995039588972e-02,-1.647138398077354748e-03,6.079259685372311039e-03,6.576566349919505533e-03,6.560163497924804688e-01
6.441476648592872611e-02,-6.144301987052964709e-01,8.433061995845278491e-02,1.345277090933703033e-02,9.500550704799900700e-03,-4.279869116045337957e-02,6.935818791389465332e-01
-7.287810258756133308e-03,-5.926282320232472145e-01,1.136977437683395209e-01,3.038807003816607413e-02,3.466007816428082200e-02,-4.347854976342056810e-02,6.634184718132019043e-01
8.506496209602576464e-02,-5.940896074367337798e-01,6.489915235778515035e-02,-4.731457943930162009e-03,1.965128385218377609e-03,3.188396094880607302e-03,6.693811416625976562e-01
1.827846281891382096e-02,-6.771175036266205982e-01,1.424697949731671409e-01,2.073722791225749568e-02,5.012876572812130505e-03,-3.173310853492414263e-02,7.679502964019775391e-01
6.264160204901034201e-02,-6.111884154007962699e-01,8.342973900451455815e-02,1.383093609274735868e-02,1.089176451781695074e-02,-2.839154238795257856e-03,6.851574182510375977e-01
2.937707936471350978e-02,-5.888723029926348218e-01,7.283826064089543584e-02,8.905362301887623786e-05,1.072828689724946577e-02,-6.673354455761779710e-04,6.413561105728149414e-01
-2.842372991153899187e-02,-6.193475537919794771e-01,1.285999236037088100e-01,6.294721209165961978e-03,-3.319072091725274246e-03,-1.897350812800199663e-03,6.832270026206970215e-01
-4.054056318836096739e-03,-5.981348278075721003e-01,1.077759948913283861e-01,1.373451402940778152e-02,6.032695470073094410e-03,-1.256697586338669480e-02,6.580447554588317871e-01
6.641915239178314279e-03,-5.996326542833567697e-01,1.043242982232063798e-01,-6.171605987215039897e-03,9.320179509179035357e-03,-8.579299717170410164e-03,6.610058546066284180e-01
4.632374391610855069e-02,-5.949791968236487483e-01,8.009848925092158400e-02,1.118202400094574916e-02,4.142611027988581975e-03,-9.415707140758750732e-03,6.593652963638305664e-01
4.044971697093258101e-02,-5.955569291899298623e-01,6.866027278692912739e-02,-7.769188991266741222e-03,9.042603495492126248e-03,6.130607260603957408e-03,6.509850621223449707e-01
3.312305203111681751e-03,-5.945761183224622659e-01,9.213106903909901169e-02,-3.090125836510042648e-03,1.736621878341863476e-02,2.287277377077677780e-04,6.476083993911743164e-01
7.918916508218717953e-02,-5.554919492319299046e-01,6.078245820031119573e-02,4.668449280173140410e-04,-1.159472362246926659e-02,3.830450896588899912e-03,6.260387301445007324e-01
4.497749972503678473e-02,-4.655720638644462173e-01,5.887768451032909800e-02,-2.118407522110722294e-02,-1.473909433981321869e-02,2.830056777151983283e-02,5.218731760978698730e-01
7.747354379580764783e-02,-5.528342603072315953e-01,6.069008428975514180e-02,-1.247850634115093248e-02,-1.303687676330429930e-02,2.540060653731559138e-03,6.228862404823303223e-01
7.231446981614897407e-02,-5.794755560589723853e-01,7.263200597582694651e-02,-3.009618597139324461e-03,-2.124974045445122018e-03,3.137720607077183754e-03,6.520027518272399902e-01
7.468639300785792634e-02,-5.649272647985084106e-01,6.645304238604290981e-02,-9.714660088193724854e-03,-4.983463025331151715e-03,2.652175189046356149e-04,6.358184218406677246e-01
6.838277433957387630e-03,-2.997073419736047684e-01,4.759145418103469249e-02,-5.829267286079914054e-03,1.405841404588220774e-02,4.242761214405809528e-02,3.379628956317901611e-01
8.735641896195778244e-02,-2.247622886077677296e-01,-8.973437291387734160e-03,2.999721698153317781e-02,1.265785512744663742e-02,1.111378442867364397e-01,3.418569862842559814e-01
4.802574182173949269e-02,-5.970130547628104134e-01,8.152536519410147342e-02,1.172197907054439020e-02,-5.513609470811858294e-03,7.813610507737718536e-04,6.628054380416870117e-01
6.330553564195753879e-02,-5.777641448605261854e-01,6.774383810394146721e-02,9.071101439535792345e-04,-2.563370635150536911e-03,3.435437959121057701e-03,6.433450579643249512e-01
8.779801107228679680e-02,-5.707102058735429306e-01,5.828515614978083126e-02,5.791143614008342115e-04,-2.784465846471784450e-03,-1.590833988483987636e-03,6.442837119102478027e-01
7.473134131466827035e-02,-5.348965604240747407e-01,5.364291338672677600e-02,6.251862019967301121e-02,3.100386290091542915e-03,-1.549533074377407865e-02,6.096799969673156738e-01
6.481301696639679699e-02,-5.700345005989804203e-01,6.675299575699833454e-02,-2.389777893595153649e-02,1.606107245834215158e-02,-4.222709593153485368e-03,6.378145813941955566e-01
9.370589858058253618e-02,-6.043183789745054657e-01,3.997394741577456334e-02,5.751009869480800361e-03,5.892859829155428636e-03,-3.684994891983743581e-02,6.759408116340637207e-01
7.788088446360391659e-02,-5.634095024261036588e-01,6.296563036995261875e-02,-1.971356576230500932e-04,-8.308121378518511582e-03,6.364334408910060463e-04,6.341286897659301758e-01
8.477618003298489913e-02,-5.535722807489620312e-01,5.628898496598438994e-02,-1.259418744616751934e-03,-1.051576143664063358e-02,-2.874324973863621405e-03,6.248814463615417480e-01
7.206249280382448497e-02,-5.896890852606453404e-01,7.159773224889501297e-02,-2.243587083774403659e-03,-1.571997217557638679e-03,1.902310719112771656e-03,6.615445613861083984e-01
7.831835722786717469e-02,-5.870656268887383122e-01,7.450785996038522541e-02,-3.947002760129421015e-04,-2.300715934812659624e-03,-1.263399315847802675e-03,6.635028719902038574e-01
6.452536469667594088e-02,-5.534086760977876551e-01,6.187500309260537956e-02,1.207317514180216746e-02,5.293575178310542563e-03,-2.268302607889939246e-02,6.182852387428283691e-01
9.229090174254911405e-02,-7.067374347705370763e-01,2.657959450742217178e-02,9.215187206976775680e-02,1.025933798728755203e-01,-8.333937387814001341e-02,8.174028992652893066e-01
-1.531926861907342147e-02,-8.565855443734643471e-02,-4.064493521223403599e-03,-5.454633104152934592e-02,-3.543853658633355341e-03,-4.129434549687785450e-02,1.412274390459060669e-01
1.246135158344566229e-02,-3.927639520718071986e-01,4.390018816356650033e-02,1.417090848825985601e-03,8.494046984340739015e-03,-6.830536336045248125e-02,4.383549988269805908e-01
7.081426145464156385e-03,-2.846396964613359115e-01,-6.673498492613658128e-03,-3.117891304195804722e-02,-4.509653771558510952e-04,-1.505103496348946142e-02,2.913320958614349365e-01
1.577472656242052962e-02,-3.434340120398027274e-01,4.839888258070190741e-03,1.439382535787743283e-03,3.580450774765019280e-03,7.974150162386716431e-04,3.539338707923889160e-01
-4.190661817166457803e-03,-2.018830003402021234e-01,-1.543202756362529321e-02,-2.563963229219956910e-02,-1.201725655149028918e-04,-6.081708946260202045e-03,1.976599991321563721e-01
4.980495304346499452e-02,-5.630765137080566696e-01,9.699522291796736084e-02,-1.201527952287012460e-03,-6.923095144507206047e-05,4.595715087127307322e-03,6.378403902053833008e-01
4.718129035923276926e-02,-5.598687156611998894e-01,9.699713325209735615e-02,-7.617600146703923944e-04,5.828530680080302355e-04,3.771416303215447633e-03,6.334646344184875488e-01
4.566498180465494716e-02,-5.502669130059106850e-01,9.572434560519332836e-02,-2.210936422592130277e-03,1.268529183352959345e-03,-5.551794394720792163e-04,6.224894523620605469e-01
7.767374702917315132e-02,-5.878908817110493068e-01,6.642604166435273072e-02,2.357772839179447452e-03,5.917657795201406237e-03,3.745054846518446317e-03,6.601367592811584473e-01
5.996143652576504945e-02,-5.507783916344144437e-01,7.142243552598429024e-02,-3.685065447904332936e-02,-9.169283675968786448e-03,4.177495996393724986e-02,6.242561936378479004e-01
6.800620732673573476e-02,-5.692355905338898348e-01,6.668591073475144126e-02,-2.285412512788796355e-02,-2.590901537710073896e-04,1.125410244747082102e-02,6.381101608276367188e-01
7.761940336129319329e-02,-5.852532532197070037e-01,5.493224055526391147e-02,-1.080307472001824530e-03,-1.465166690794275032e-03,6.240911563887501824e-03,6.519225239753723145e-01
5.688487091479527136e-02,-6.125055683430105091e-01,7.455400392464117676e-02,5.054641071220790025e-03,7.640043634281247324e-03,-6.710412586529934664e-03,6.786826848983764648e-01
7.543009992397231578e-02,-5.937719163278407652e-01,5.167315870741029382e-02,-8.265363569195705723e-03,2.045010235258632337e-03,3.455227722799098303e-03,6.578379869461059570e-01
7.345189925737746761e-02,-5.755962896731529055e-01,6.515523527864611197e-02,2.144627693307980115e-03,-4.600408136834826731e-03,-2.657391609950914696e-02,6.466400027275085449e-01
6.778685235856954372e-02,-5.913372666364492547e-01,7.645177793445742664e-02,-3.899995387900605584e-04,3.374262460528968093e-03,-5.699330948042541020e-03,6.635985374450683594e-01
7.600389782381622439e-02,-5.820371871388620999e-01,7.105340405488622113e-02,6.176498554383200688e-03,-4.993052934784353650e-03,-1.760108562293953181e-04,6.557242274284362793e-01
6.842971056066185498e-02,-5.890333445769014853e-01,7.196689616350304686e-02,-2.737841124332740256e-03,-2.483005835220811501e-04,2.140652508970653650e-03,6.592664122581481934e-01
6.754745390690153339e-02,-5.934675144610270792e-01,7.183412892700885566e-02,-3.431335133659644751e-03,-9.583148867181260494e-04,1.422936936738843040e-03,6.632019877433776855e-01
7.096603512013541226e-02,-5.955767195760099941e-01,8.033294146773362066e-02,2.319746851526765467e-03,-5.821369141837236250e-03,-3.235832663369124073e-03,6.713863611221313477e-01
7.488568728849864797e-02,-5.899348252998805053e-01,7.669077825864148434e-02,-1.892537855785019364e-03,-1.868915444897274313e-04,2.605555716251534495e-04,6.657332181930541992e-01
7.652356634740281605e-02,-5.900940290252973952e-01,7.458987927868859780e-02,-1.410150987682377063e-04,-1.163761971467131917e-03,-3.470291610592658380e-03,6.656830906867980957e-01
7.086220280098021185e-02,-5.817737504885900357e-01,7.002837354529592440e-02,-2.427869851757293636e-03,-1.793281344377337279e-03,-5.772946197119715236e-04,6.522411704063415527e-01
6.079510387652803383e-02,-5.440242636951984068e-01,7.391361991666420272e-02,4.902805259104094614e-04,-1.283048547550326088e-02,7.924344391262145779e-03,6.120423674583435059e-01
6.437794406719113405e-02,-5.828592387985069845e-01,8.844939630222747873e-02,-4.137110579340160313e-03,-2.509789152936449646e-03,-1.704683357786820159e-03,6.596622467041015625e-01
5.781872941473487071e-02,-5.664575716813744499e-01,9.002375468646806045e-02,-2.359000837644465061e-03,-3.500458216467455200e-03,5.643952198974708034e-05,6.410275697708129883e-01
6.162406869084197103e-02,-5.747865058543141226e-01,9.065168486414762472e-02,5.586800273319599214e-04,-1.535987400860083351e-03,-1.770987958181427123e-03,6.514229774475097656e-01
5.529472436080615227e-02,-5.714394021514118682e-01,9.322271510073432133e-02,-3.097767974437208409e-03,-1.775947692689933567e-03,2.857918656294301547e-03,6.465815901756286621e-01
6.874212704193086165e-02,-5.655234057360833955e-01,7.665263296812749316e-02,-2.956681793575098496e-03,-1.026315463512154913e-02,7.299327282643926045e-03,6.386507153511047363e-01
5.236106446272972836e-02,-5.629160137543902653e-01,9.237202529938992601e-02,4.624436614175918563e-04,-1.207919681843851786e-03,4.470797347277835165e-04,6.362312436103820801e-01
4.996048288664892145e-02,-5.629814848770993141e-01,9.559091398207461565e-02,-2.842011287014658324e-03,-1.817123181719647925e-03,3.769493839055915087e-03,6.370443701744079590e-01
7.622210780800789398e-02,-5.903459419270182806e-01,7.858859118524455512e-02,2.373590808207582097e-03,-3.461065742266903906e-03,-3.592261795678004192e-03,6.678229570388793945e-01
3.002384482480462136e-02,-3.156045875968876979e-01,1.813779835906356719e-02,3.494588694002710022e-02,1.266644566700552950e-03,-1.128381206978428669e-01,3.966836631298065186e-01
4.116208708315843845e-02,-4.916350760021985788e-01,6.993725960574351252e-02,1.565235219918652276e-02,-5.875260305094601697e-03,-3.120053918902250881e-02,5.511724948883056641e-01
6.105581218038219626e-02,-4.580894844816409406e-01,3.782247668614505121e-02,2.898625923705127477e-02,-7.179922017526096933e-03,-3.491570110430827767e-02,5.141232609748840332e-01
5.771866676376849470e-02,-5.645572084985209793e-01,8.602369663981956904e-02,1.109452574408124176e-04,-7.213671986281188289e-03,-4.658473454459128096e-03,6.370739340782165527e-01
3.970749364077738597e-02,-4.078844083911501439e-01,3.792490691753863663e-02,5.634380472026902925e-02,-1.564818475859355157e-02,-5.802412294022563088e-02,4.689378142356872559e-01
6.417881510366768572e-02,-4.933809040064845441e-01,4.585372468228524068e-02,1.581590270953289051e-02,-1.813572244425002214e-02,-9.223411516930372575e-03,5.504395365715026855e-01
4.669902713308446418e-02,-3.904455588109639885e-01,2.074942764560319675e-02,6.501605861158747668e-02,-2.461294873295790438e-03,-2.966257149650791680e-02,4.424523413181304932e-01
-5.716259768482397086e-03,-1.890459422342248841e-01,1.728555048136998229e-02,6.918527671398816414e-02,4.738361623157438807e-03,1.258127802294230560e-02,2.307765185832977295e-01
8.185451629108711491e-02,-5.880301701423037430e-01,6.717627906009548955e-02,4.438049177937160132e-03,3.451889764230276370e-03,3.875842163552226018e-03,6.627730727195739746e-01
4.667699156821092377e-02,-5.900216473193455879e-01,5.975354476757477329e-02,-1.449870936014638345e-01,-6.141726770327726043e-02,-8.174874351388476679e-02,7.129589915275573730e-01
1.330304158988490637e-02,-5.844611432423587605e-01,6.724985044573120185e-02,-8.577779725772863902e-04,-3.233048662330582218e-02,4.618531210306781910e-03,6.290323734283447266e-01
4.320396149464214575e-02,-4.264651085384417728e-01,3.052511211199848695e-02,-8.375726665587694686e-02,1.262783240182435013e-02,-1.591776493554345959e-02,4.869078695774078369e-01
4.859710031480121706e-02,-4.562745192404909500e-01,3.374327669678753305e-02,-4.040137198268788782e-02,8.161309602478889966e-03,-4.315350378400373971e-02,5.082322359085083008e-01
6.277854505279328867e-02,-5.299330616196092913e-01,5.897974795854857288e-02,-4.298669483485267201e-02,1.089670153050635928e-02,-2.120684248516522749e-02,5.969244837760925293e-01
6.293818360594308214e-02,-5.327190957024782181e-01,5.622243878412189200e-02,-1.415401527777263024e-02,1.260509760073773820e-02,-5.721991245664696975e-03,5.933197140693664551e-01
5.333893602862843641e-02,-4.416168432027106072e-01,4.480931097449133982e-02,-3.465956299650890804e-02,2.475063719720678457e-03,-6.157162213280702873e-02,5.057940483093261719e-01
7.866382874011818016e-02,-5.876915837029468292e-01,7.278456751339848485e-02,-3.458230820467584135e-03,-9.148284599637856096e-04,-3.562975716255521166e-04,6.634645462036132812e-01
7.873152915254644224e-02,-5.494878078540252897e-01,5.924505645569913548e-02,1.637996205909809586e-02,-4.865023821226628804e-03,-3.599283944507078881e-03,6.194451451301574707e-01
7.022243085965132470e-02,-5.861408362862872146e-01,7.296434420934289067e-02,-3.372818375742983685e-03,-9.837851732663670072e-04,-1.382711255154359402e-04,6.577666997909545898e-01
7.004029221550955864e-02,-5.860249925659262171e-01,7.091054236568947178e-02,4.661804989669396208e-03,7.846092551400855137e-04,-7.641945217639449679e-03,6.566852927207946777e-01
6.960628889947545472e-02,-5.860507304498935310e-01,7.120841986984441374e-02,-1.733621077349964618e-03,-1.881859441312869056e-04,1.939388534731870985e-03,6.564750671386718750e-01
6.785553028292568012e-02,-5.856572093080485431e-01,7.153593757436552125e-02,-1.132610770676728204e-03,8.759880308622237629e-04,1.576693507343832849e-03,6.553710699081420898e-01
7.151758610935801674e-02,-5.865986358477706109e-01,6.520615966878776093e-02,-3.270346125442717342e-03,-7.772398272539526127e-04,3.744676892638180770e-04,6.550095081329345703e-01
8.506049796294881671e-02,-5.881454443857052627e-01,6.745617485172708538e-02,1.721948415796188334e-02,-3.590878473151989849e-03,-7.931237654087371775e-03,6.654184460639953613e-01
7.611527722238836668e-02,-5.619171793266919401e-01,6.595217574841077957e-02,5.992583056711658918e-03,-1.143108588415776145e-02,-1.206397080701538012e-03,6.334101557731628418e-01
6.055411612121097686e-02,-5.371946315026283614e-01,6.804282616720644383e-02,-1.262296690106519750e-02,1.695815820885851477e-02,4.393632121827619787e-03,6.026895642280578613e-01
4.115732120857391874e-02,-2.982827821011990732e-01,3.801772528024599529e-02,8.088792418826554198e-02,-5.778625657764597384e-02,1.436426151291939068e-01,4.535522758960723877e-01
2.684053818506000610e-02,-2.163325619917725873e-01,-2.905819193474513257e-02,5.022002926888331081e-02,-1.115934439264887681e-02,1.021909335171593408e-01,2.965357601642608643e-01
7.990963748179963355e-02,-5.939231441787450327e-01,6.577636633971942204e-02,9.166098902939487847e-04,2.813447641698038192e-03,-1.074279004251155016e-03,6.669007539749145508e-01
9.199474521170192265e-02,-5.971397705974712533e-01,2.567727082966872465e-02,-1.539366974385474778e-03,6.848112563392350083e-03,-5.072630170794893700e-03,6.586560010910034180e-01
7.982508603555650561e-02,-1.657696068985040905e-01,-5.183736254872416127e-03,6.437605646164466788e-02,1.024530540019510765e-02,2.755871697789458175e-02,2.483781725168228149e-01
3.263463907360550365e-02,-4.172596527544796263e-01,4.929934430527382894e-02,1.812599232021806783e-02,1.516567705971884859e-02,2.626094471579074052e-02,4.625197350978851318e-01
3.377513663336878524e-02,-3.002840836891749188e-01,-2.643514352382830834e-03,4.541321428771424862e-02,8.297457390745345204e-03,4.032207512527147264e-02,3.347045481204986572e-01
7.423347696906187898e-02,-4.821935459367423515e-01,5.511918705000229401e-02,5.092279745664876622e-02,6.382518523980736623e-03,8.371499993244400917e-02,5.729457736015319824e-01
6.889639600472505232e-02,-5.876940777179969766e-01,6.960656576072463131e-02,-2.972489107573275408e-03,3.054707262233277449e-03,-2.647940514926303956e-03,6.570033431053161621e-01
4.026254633434953045e-02,-4.807132872214426311e-01,6.239752881793081407e-02,-3.154160126751582444e-02,1.297626871520589538e-02,3.517372037523878482e-03,5.356906056404113770e-01
9.713354969976756292e-02,-5.916110203811408841e-01,1.213269942045430705e-02,3.610870415257517573e-04,2.454401638044699258e-03,-1.252494763916717040e-02,6.507990956306457520e-01
8.884740770433577350e-02,-5.775539768751509762e-01,5.369250934079641824e-02,1.702838174660573772e-02,8.995035556584174766e-03,1.136741751252929450e-02,6.506916880607604980e-01
4.024519210792376622e-02,-4.794030076603245649e-01,5.548765292528415327e-02,6.292420616705285755e-03,1.131650238605288843e-02,-2.588960027814169243e-02,5.298123359680175781e-01
6.729806381256933645e-02,-5.667804972052816748e-01,6.444402370020183013e-02,-7.200899250977235710e-03,1.516527913156629111e-02,-2.096094717494153409e-02,6.343640089035034180e-01
7.143927178519518528e-02,-5.872468850668931539e-01,7.202777666956805547e-02,-1.073457480696462770e-03,1.132530679742461185e-03,2.908497719773441275e-03,6.590054035186767578e-01
7.757870974883415705e-02,-5.516696819184669920e-01,8.084659061314114492e-03,1.771568898569528955e-02,7.016280309605468779e-02,-6.337785841194970571e-02,6.203339099884033203e-01
8.357734175414613387e-02,-5.963451855879926544e-01,2.885618983184340403e-02,3.210603606817875703e-03,7.145552022874405822e-03,-7.482835437762568563e-03,6.545494794845581055e-01
6.848117586646079724e-02,-5.669693296405748928e-01,7.351848877315625419e-02,2.318349831884996583e-03,-5.201628235530652948e-03,-9.123183773029572632e-03,6.382559537887573242e-01
6.861827824691013600e-02,-5.871248648347602295e-01,7.125166554541345620e-02,6.662580447422373001e-03,-2.364293839863464315e-03,-2.254364907829303939e-03,6.571894884109497070e-01
7.804308068073409488e-02,-5.922151576079344171e-01,3.687078137262833621e-02,-4.993499893471766392e-03,1.247424028167636902e-02,1.544327818040579789e-03,6.510714292526245117e-01
6.812717442808358115e-02,-5.709276407184284974e-01,7.674709590173928175e-02,5.090385693038232059e-03,-9.542251402076705122e-03,-2.486237228997789997e-04,6.436808705329895020e-01
6.195627453751495484e-02,-5.771057661735328193e-01,8.902901814599240016e-02,-1.227118149695541685e-03,-4.072307758803555416e-03,6.449922236816831413e-04,6.530619263648986816e-01
6.766170177464328472e-02,-5.807178034029696345e-01,8.326235860535696753e-02,-1.469992169725337344e-03,-4.978713792813635117e-03,7.860708614047645084e-04,6.563819050788879395e-01
6.560127148952982212e-02,-5.786040642983402149e-01,8.333826044336228867e-02,-1.893346700025336270e-03,-2.674601845152941963e-03,-1.037825825014351139e-03,6.532815694808959961e-01
8.126745762167758569e-02,-5.345965148720530635e-01,4.932631934385936501e-02,2.023421503039954383e-02,-9.982243373333242811e-03,-1.797204422006845256e-02,6.026055812835693359e-01
6.372889671367465425e-02,-5.540658393896071843e-01,7.377371515234434907e-02,1.205828551975544893e-02,1.111895300468749778e-02,1.900949253858974129e-04,6.235255002975463867e-01
6.496319980279099959e-02,-5.861572274696100759e-01,8.196169183264512270e-02,-1.930622353026170039e-03,-3.757759746794207042e-03,-6.625523408837773881e-03,6.599242687225341797e-01
1.072628121981521465e-01,-6.292759234512248501e-01,2.506525398276052141e-02,-1.409534067194484312e-02,2.889336513002030427e-02,2.641755071733495677e-02,7.027789354324340820e-01
2.569484846134045819e-02,-8.398152796639694051e-01,1.826933669933225590e-01,-1.388732511197520725e-01,1.005532804115494977e-01,6.599852201863169732e-02,1.005434155464172363e+00
6.916844916850767300e-03,-6.122584129875006109e-01,1.000987258107901012e-01,-4.309575019205610577e-03,1.043437250572363736e-02,-1.000299666298006158e-02,6.711477637290954590e-01
4.482965525554530317e-02,-5.898132439741601285e-01,6.901041198177637614e-02,-5.502120783693172090e-03,6.095007895047167834e-03,-3.573804381903642694e-03,6.472581028938293457e-01
-1.762513580864519258e-02,-6.141525534593561542e-01,1.260577802517800494e-01,4.084253924018995535e-02,-1.350074631300558596e-02,-2.141255520415476926e-02,6.849285960197448730e-01
4.442124611185316319e-02,-5.944025132733727901e-01,8.215943515045939782e-02,1.330492015491895226e-02,-8.788077341605447530e-04,2.630355628921500401e-03,6.589249968528747559e-01
4.742787217612209894e-02,-5.880239561705582485e-01,7.066322252194970344e-02,7.818162378716381200e-03,-5.687840411154256905e-03,-7.605145751653298635e-04,6.476001739501953125e-01
5.424682354826099173e-03,-5.966609992047033906e-01,1.004604996370849213e-01,8.938097494431187715e-03,-1.380166442913196255e-02,-4.434420306422911032e-03,6.554607748985290527e-01
-5.447178584477296859e-04,-6.037362339396933342e-01,9.584787086323670602e-02,-7.768259141187112797e-03,-7.460042543685904519e-03,-5.037610403676823397e-03,6.570379137992858887e-01
1.089610843285532260e-02,-6.038553391465295572e-01,8.393258614336646106e-02,-6.513649526498753277e-03,-1.752736664805909853e-02,-3.407596604539910902e-03,6.551615595817565918e-01
6.751212994549216084e-02,-5.543314074433307592e-01,6.732047897218157440e-02,1.528730164678552585e-02,4.289230117521472367e-03,3.343235466920529281e-02,6.250437498092651367e-01
4.053937698657733568e-02,-4.994572151150200590e-01,7.485738243293438288e-02,-7.273162425435475593e-03,-9.698516527824546998e-03,2.979140674141332601e-02,5.607219338417053223e-01
6.307081023379140783e-02,-5.747424870379517214e-01,8.581545540775462055e-02,4.668433701488275932e-04,6.147344517830195289e-03,2.469382416882786452e-02,6.509787440299987793e-01
4.892835719857882570e-02,-5.422664196668073311e-01,8.678123772422097204e-02,-2.159135398260951522e-02,-4.887555371553298569e-03,4.866509159730598305e-02,6.179786920547485352e-01
3.068138242582468811e-02,-4.390125232886612494e-01,5.727382910636977242e-02,-6.667643688643254407e-03,-1.294087136754395323e-02,2.722949842808534276e-02,4.864873588085174561e-01
5.345638523597756597e-02,-5.460982742334929974e-01,8.564598333110984285e-02,9.173972212514957744e-03,9.898775723185086750e-03,1.452808688932124594e-02,6.172366142272949219e-01
9.972364575561012967e-03,-4.076979503114368519e-01,5.866641864693458719e-02,6.960435637579424862e-04,2.141348523087406672e-03,4.887203579912435120e-02,4.520379304885864258e-01
-2.090309513948312992e-03,-7.833423733158719759e-01,1.265538349321220779e-01,1.534890333401179308e-01,-9.178522994854448891e-02,8.315523100373373167e-02,9.187503457069396973e-01
-1.082507594234066728e-02,-6.385174785339539083e-01,1.036410857875438296e-01,-8.856160185307108274e-03,-5.403891813369371411e-02,3.091319258469199093e-03,6.985515952110290527e-01
3.194953374107897814e-02,-6.949113676844196341e-01,1.051729099694500569e-01,1.873281826426246438e-02,-4.828623307960792921e-02,9.038966924000347430e-03,7.714947462081909180e-01
-6.856805246286928890e-03,-6.269002119888753555e-01,1.155748066976059474e-01,2.767339592381344235e-02,-3.396717575238833442e-02,2.068831097828772309e-02,6.945495009422302246e-01
1.852276603195893157e-02,-6.107023737178496336e-01,1.057409491094806198e-01,3.546502933481915365e-02,-3.474033591302077423e-02,-3.330059526071935810e-02,6.849320530891418457e-01
-2.090065596259441105e-02,-6.031686202546684417e-01,1.132300330995367754e-01,-3.279580497303306863e-03,-5.064564117173398286e-03,-5.371344469987874258e-03,6.597899794578552246e-01
-9.618913946959656291e-03,-7.427354837517347041e-01,1.611951549876407541e-01,2.965162428248989054e-02,-2.246661517313607373e-02,1.451994667849134703e-02,8.346546292304992676e-01
-7.316360851439271396e-02,-6.449542073354974647e-01,2.084580873391513323e-01,2.977458673802127476e-02,-4.321589677082686431e-02,-7.451516953444967117e-02,7.695478200912475586e-01
-6.132217530616243528e-02,-6.851152256900694404e-01,1.733888536900773936e-01,1.158080541500322927e-02,-2.459182598857146546e-02,-2.577125087403354248e-02,7.712504267692565918e-01
1.109944834612358044e-01,-6.023717601569369418e-01,4.023631526835880212e-03,-4.601154539205141135e-03,8.849468052056485082e-03,2.778553350425798721e-02,6.683108210563659668e-01
7.949154213653786272e-02,-5.983869883077188589e-01,3.665038932710515396e-02,-4.863244880340462928e-03,7.885904197111827732e-03,6.248051539305530915e-03,6.577903628349304199e-01
6.244836224024594151e-02,-5.629000546694791218e-01,6.174697712059135091e-02,9.728611737325201184e-04,9.939530643279935636e-04,-1.358922347109926300e-02,6.254457235336303711e-01
